# vtk DataFile Version 3.0
vtk output
ASCII
DATASET UNSTRUCTURED_GRID
POINTS      5151 double 
  0.00000000E+00  0.00000000E+00  0.00000000E+00
  1.00000000E+01  0.00000000E+00  0.00000000E+00
  2.00000000E+01  0.00000000E+00  0.00000000E+00
  3.00000000E+01  0.00000000E+00  0.00000000E+00
  4.00000000E+01  0.00000000E+00  0.00000000E+00
  5.00000000E+01  0.00000000E+00  0.00000000E+00
  6.00000000E+01  0.00000000E+00  0.00000000E+00
  7.00000000E+01  0.00000000E+00  0.00000000E+00
  8.00000000E+01  0.00000000E+00  0.00000000E+00
  9.00000000E+01  0.00000000E+00  0.00000000E+00
  1.00000000E+02  0.00000000E+00  0.00000000E+00
  1.10000000E+02  0.00000000E+00  0.00000000E+00
  1.20000000E+02  0.00000000E+00  0.00000000E+00
  1.30000000E+02  0.00000000E+00  0.00000000E+00
  1.40000000E+02  0.00000000E+00  0.00000000E+00
  1.50000000E+02  0.00000000E+00  0.00000000E+00
  1.60000000E+02  0.00000000E+00  0.00000000E+00
  1.70000000E+02  0.00000000E+00  0.00000000E+00
  1.80000000E+02  0.00000000E+00  0.00000000E+00
  1.90000000E+02  0.00000000E+00  0.00000000E+00
  2.00000000E+02  0.00000000E+00  0.00000000E+00
  2.10000000E+02  0.00000000E+00  0.00000000E+00
  2.20000000E+02  0.00000000E+00  0.00000000E+00
  2.30000000E+02  0.00000000E+00  0.00000000E+00
  2.40000000E+02  0.00000000E+00  0.00000000E+00
  2.50000000E+02  0.00000000E+00  0.00000000E+00
  2.60000000E+02  0.00000000E+00  0.00000000E+00
  2.70000000E+02  0.00000000E+00  0.00000000E+00
  2.80000000E+02  0.00000000E+00  0.00000000E+00
  2.90000000E+02  0.00000000E+00  0.00000000E+00
  3.00000000E+02  0.00000000E+00  0.00000000E+00
  3.10000000E+02  0.00000000E+00  0.00000000E+00
  3.20000000E+02  0.00000000E+00  0.00000000E+00
  3.30000000E+02  0.00000000E+00  0.00000000E+00
  3.40000000E+02  0.00000000E+00  0.00000000E+00
  3.50000000E+02  0.00000000E+00  0.00000000E+00
  3.60000000E+02  0.00000000E+00  0.00000000E+00
  3.70000000E+02  0.00000000E+00  0.00000000E+00
  3.80000000E+02  0.00000000E+00  0.00000000E+00
  3.90000000E+02  0.00000000E+00  0.00000000E+00
  4.00000000E+02  0.00000000E+00  0.00000000E+00
  4.10000000E+02  0.00000000E+00  0.00000000E+00
  4.20000000E+02  0.00000000E+00  0.00000000E+00
  4.30000000E+02  0.00000000E+00  0.00000000E+00
  4.40000000E+02  0.00000000E+00  0.00000000E+00
  4.50000000E+02  0.00000000E+00  0.00000000E+00
  4.60000000E+02  0.00000000E+00  0.00000000E+00
  4.70000000E+02  0.00000000E+00  0.00000000E+00
  4.80000000E+02  0.00000000E+00  0.00000000E+00
  4.90000000E+02  0.00000000E+00  0.00000000E+00
  5.00000000E+02  0.00000000E+00  0.00000000E+00
  5.10000000E+02  0.00000000E+00  0.00000000E+00
  5.20000000E+02  0.00000000E+00  0.00000000E+00
  5.30000000E+02  0.00000000E+00  0.00000000E+00
  5.40000000E+02  0.00000000E+00  0.00000000E+00
  5.50000000E+02  0.00000000E+00  0.00000000E+00
  5.60000000E+02  0.00000000E+00  0.00000000E+00
  5.70000000E+02  0.00000000E+00  0.00000000E+00
  5.80000000E+02  0.00000000E+00  0.00000000E+00
  5.90000000E+02  0.00000000E+00  0.00000000E+00
  6.00000000E+02  0.00000000E+00  0.00000000E+00
  6.10000000E+02  0.00000000E+00  0.00000000E+00
  6.20000000E+02  0.00000000E+00  0.00000000E+00
  6.30000000E+02  0.00000000E+00  0.00000000E+00
  6.40000000E+02  0.00000000E+00  0.00000000E+00
  6.50000000E+02  0.00000000E+00  0.00000000E+00
  6.60000000E+02  0.00000000E+00  0.00000000E+00
  6.70000000E+02  0.00000000E+00  0.00000000E+00
  6.80000000E+02  0.00000000E+00  0.00000000E+00
  6.90000000E+02  0.00000000E+00  0.00000000E+00
  7.00000000E+02  0.00000000E+00  0.00000000E+00
  7.10000000E+02  0.00000000E+00  0.00000000E+00
  7.20000000E+02  0.00000000E+00  0.00000000E+00
  7.30000000E+02  0.00000000E+00  0.00000000E+00
  7.40000000E+02  0.00000000E+00  0.00000000E+00
  7.50000000E+02  0.00000000E+00  0.00000000E+00
  7.60000000E+02  0.00000000E+00  0.00000000E+00
  7.70000000E+02  0.00000000E+00  0.00000000E+00
  7.80000000E+02  0.00000000E+00  0.00000000E+00
  7.90000000E+02  0.00000000E+00  0.00000000E+00
  8.00000000E+02  0.00000000E+00  0.00000000E+00
  8.10000000E+02  0.00000000E+00  0.00000000E+00
  8.20000000E+02  0.00000000E+00  0.00000000E+00
  8.30000000E+02  0.00000000E+00  0.00000000E+00
  8.40000000E+02  0.00000000E+00  0.00000000E+00
  8.50000000E+02  0.00000000E+00  0.00000000E+00
  8.60000000E+02  0.00000000E+00  0.00000000E+00
  8.70000000E+02  0.00000000E+00  0.00000000E+00
  8.80000000E+02  0.00000000E+00  0.00000000E+00
  8.90000000E+02  0.00000000E+00  0.00000000E+00
  9.00000000E+02  0.00000000E+00  0.00000000E+00
  9.10000000E+02  0.00000000E+00  0.00000000E+00
  9.20000000E+02  0.00000000E+00  0.00000000E+00
  9.30000000E+02  0.00000000E+00  0.00000000E+00
  9.40000000E+02  0.00000000E+00  0.00000000E+00
  9.50000000E+02  0.00000000E+00  0.00000000E+00
  9.60000000E+02  0.00000000E+00  0.00000000E+00
  9.70000000E+02  0.00000000E+00  0.00000000E+00
  9.80000000E+02  0.00000000E+00  0.00000000E+00
  9.90000000E+02  0.00000000E+00  0.00000000E+00
  1.00000000E+03  0.00000000E+00  0.00000000E+00
  0.00000000E+00  2.00000000E+00  0.00000000E+00
  1.00000000E+01  2.00000000E+00  0.00000000E+00
  2.00000000E+01  2.00000000E+00  0.00000000E+00
  3.00000000E+01  2.00000000E+00  0.00000000E+00
  4.00000000E+01  2.00000000E+00  0.00000000E+00
  5.00000000E+01  2.00000000E+00  0.00000000E+00
  6.00000000E+01  2.00000000E+00  0.00000000E+00
  7.00000000E+01  2.00000000E+00  0.00000000E+00
  8.00000000E+01  2.00000000E+00  0.00000000E+00
  9.00000000E+01  2.00000000E+00  0.00000000E+00
  1.00000000E+02  2.00000000E+00  0.00000000E+00
  1.10000000E+02  2.00000000E+00  0.00000000E+00
  1.20000000E+02  2.00000000E+00  0.00000000E+00
  1.30000000E+02  2.00000000E+00  0.00000000E+00
  1.40000000E+02  2.00000000E+00  0.00000000E+00
  1.50000000E+02  2.00000000E+00  0.00000000E+00
  1.60000000E+02  2.00000000E+00  0.00000000E+00
  1.70000000E+02  2.00000000E+00  0.00000000E+00
  1.80000000E+02  2.00000000E+00  0.00000000E+00
  1.90000000E+02  2.00000000E+00  0.00000000E+00
  2.00000000E+02  2.00000000E+00  0.00000000E+00
  2.10000000E+02  2.00000000E+00  0.00000000E+00
  2.20000000E+02  2.00000000E+00  0.00000000E+00
  2.30000000E+02  2.00000000E+00  0.00000000E+00
  2.40000000E+02  2.00000000E+00  0.00000000E+00
  2.50000000E+02  2.00000000E+00  0.00000000E+00
  2.60000000E+02  2.00000000E+00  0.00000000E+00
  2.70000000E+02  2.00000000E+00  0.00000000E+00
  2.80000000E+02  2.00000000E+00  0.00000000E+00
  2.90000000E+02  2.00000000E+00  0.00000000E+00
  3.00000000E+02  2.00000000E+00  0.00000000E+00
  3.10000000E+02  2.00000000E+00  0.00000000E+00
  3.20000000E+02  2.00000000E+00  0.00000000E+00
  3.30000000E+02  2.00000000E+00  0.00000000E+00
  3.40000000E+02  2.00000000E+00  0.00000000E+00
  3.50000000E+02  2.00000000E+00  0.00000000E+00
  3.60000000E+02  2.00000000E+00  0.00000000E+00
  3.70000000E+02  2.00000000E+00  0.00000000E+00
  3.80000000E+02  2.00000000E+00  0.00000000E+00
  3.90000000E+02  2.00000000E+00  0.00000000E+00
  4.00000000E+02  2.00000000E+00  0.00000000E+00
  4.10000000E+02  2.00000000E+00  0.00000000E+00
  4.20000000E+02  2.00000000E+00  0.00000000E+00
  4.30000000E+02  2.00000000E+00  0.00000000E+00
  4.40000000E+02  2.00000000E+00  0.00000000E+00
  4.50000000E+02  2.00000000E+00  0.00000000E+00
  4.60000000E+02  2.00000000E+00  0.00000000E+00
  4.70000000E+02  2.00000000E+00  0.00000000E+00
  4.80000000E+02  2.00000000E+00  0.00000000E+00
  4.90000000E+02  2.00000000E+00  0.00000000E+00
  5.00000000E+02  2.00000000E+00  0.00000000E+00
  5.10000000E+02  2.00000000E+00  0.00000000E+00
  5.20000000E+02  2.00000000E+00  0.00000000E+00
  5.30000000E+02  2.00000000E+00  0.00000000E+00
  5.40000000E+02  2.00000000E+00  0.00000000E+00
  5.50000000E+02  2.00000000E+00  0.00000000E+00
  5.60000000E+02  2.00000000E+00  0.00000000E+00
  5.70000000E+02  2.00000000E+00  0.00000000E+00
  5.80000000E+02  2.00000000E+00  0.00000000E+00
  5.90000000E+02  2.00000000E+00  0.00000000E+00
  6.00000000E+02  2.00000000E+00  0.00000000E+00
  6.10000000E+02  2.00000000E+00  0.00000000E+00
  6.20000000E+02  2.00000000E+00  0.00000000E+00
  6.30000000E+02  2.00000000E+00  0.00000000E+00
  6.40000000E+02  2.00000000E+00  0.00000000E+00
  6.50000000E+02  2.00000000E+00  0.00000000E+00
  6.60000000E+02  2.00000000E+00  0.00000000E+00
  6.70000000E+02  2.00000000E+00  0.00000000E+00
  6.80000000E+02  2.00000000E+00  0.00000000E+00
  6.90000000E+02  2.00000000E+00  0.00000000E+00
  7.00000000E+02  2.00000000E+00  0.00000000E+00
  7.10000000E+02  2.00000000E+00  0.00000000E+00
  7.20000000E+02  2.00000000E+00  0.00000000E+00
  7.30000000E+02  2.00000000E+00  0.00000000E+00
  7.40000000E+02  2.00000000E+00  0.00000000E+00
  7.50000000E+02  2.00000000E+00  0.00000000E+00
  7.60000000E+02  2.00000000E+00  0.00000000E+00
  7.70000000E+02  2.00000000E+00  0.00000000E+00
  7.80000000E+02  2.00000000E+00  0.00000000E+00
  7.90000000E+02  2.00000000E+00  0.00000000E+00
  8.00000000E+02  2.00000000E+00  0.00000000E+00
  8.10000000E+02  2.00000000E+00  0.00000000E+00
  8.20000000E+02  2.00000000E+00  0.00000000E+00
  8.30000000E+02  2.00000000E+00  0.00000000E+00
  8.40000000E+02  2.00000000E+00  0.00000000E+00
  8.50000000E+02  2.00000000E+00  0.00000000E+00
  8.60000000E+02  2.00000000E+00  0.00000000E+00
  8.70000000E+02  2.00000000E+00  0.00000000E+00
  8.80000000E+02  2.00000000E+00  0.00000000E+00
  8.90000000E+02  2.00000000E+00  0.00000000E+00
  9.00000000E+02  2.00000000E+00  0.00000000E+00
  9.10000000E+02  2.00000000E+00  0.00000000E+00
  9.20000000E+02  2.00000000E+00  0.00000000E+00
  9.30000000E+02  2.00000000E+00  0.00000000E+00
  9.40000000E+02  2.00000000E+00  0.00000000E+00
  9.50000000E+02  2.00000000E+00  0.00000000E+00
  9.60000000E+02  2.00000000E+00  0.00000000E+00
  9.70000000E+02  2.00000000E+00  0.00000000E+00
  9.80000000E+02  2.00000000E+00  0.00000000E+00
  9.90000000E+02  2.00000000E+00  0.00000000E+00
  1.00000000E+03  2.00000000E+00  0.00000000E+00
  0.00000000E+00  4.00000000E+00  0.00000000E+00
  1.00000000E+01  4.00000000E+00  0.00000000E+00
  2.00000000E+01  4.00000000E+00  0.00000000E+00
  3.00000000E+01  4.00000000E+00  0.00000000E+00
  4.00000000E+01  4.00000000E+00  0.00000000E+00
  5.00000000E+01  4.00000000E+00  0.00000000E+00
  6.00000000E+01  4.00000000E+00  0.00000000E+00
  7.00000000E+01  4.00000000E+00  0.00000000E+00
  8.00000000E+01  4.00000000E+00  0.00000000E+00
  9.00000000E+01  4.00000000E+00  0.00000000E+00
  1.00000000E+02  4.00000000E+00  0.00000000E+00
  1.10000000E+02  4.00000000E+00  0.00000000E+00
  1.20000000E+02  4.00000000E+00  0.00000000E+00
  1.30000000E+02  4.00000000E+00  0.00000000E+00
  1.40000000E+02  4.00000000E+00  0.00000000E+00
  1.50000000E+02  4.00000000E+00  0.00000000E+00
  1.60000000E+02  4.00000000E+00  0.00000000E+00
  1.70000000E+02  4.00000000E+00  0.00000000E+00
  1.80000000E+02  4.00000000E+00  0.00000000E+00
  1.90000000E+02  4.00000000E+00  0.00000000E+00
  2.00000000E+02  4.00000000E+00  0.00000000E+00
  2.10000000E+02  4.00000000E+00  0.00000000E+00
  2.20000000E+02  4.00000000E+00  0.00000000E+00
  2.30000000E+02  4.00000000E+00  0.00000000E+00
  2.40000000E+02  4.00000000E+00  0.00000000E+00
  2.50000000E+02  4.00000000E+00  0.00000000E+00
  2.60000000E+02  4.00000000E+00  0.00000000E+00
  2.70000000E+02  4.00000000E+00  0.00000000E+00
  2.80000000E+02  4.00000000E+00  0.00000000E+00
  2.90000000E+02  4.00000000E+00  0.00000000E+00
  3.00000000E+02  4.00000000E+00  0.00000000E+00
  3.10000000E+02  4.00000000E+00  0.00000000E+00
  3.20000000E+02  4.00000000E+00  0.00000000E+00
  3.30000000E+02  4.00000000E+00  0.00000000E+00
  3.40000000E+02  4.00000000E+00  0.00000000E+00
  3.50000000E+02  4.00000000E+00  0.00000000E+00
  3.60000000E+02  4.00000000E+00  0.00000000E+00
  3.70000000E+02  4.00000000E+00  0.00000000E+00
  3.80000000E+02  4.00000000E+00  0.00000000E+00
  3.90000000E+02  4.00000000E+00  0.00000000E+00
  4.00000000E+02  4.00000000E+00  0.00000000E+00
  4.10000000E+02  4.00000000E+00  0.00000000E+00
  4.20000000E+02  4.00000000E+00  0.00000000E+00
  4.30000000E+02  4.00000000E+00  0.00000000E+00
  4.40000000E+02  4.00000000E+00  0.00000000E+00
  4.50000000E+02  4.00000000E+00  0.00000000E+00
  4.60000000E+02  4.00000000E+00  0.00000000E+00
  4.70000000E+02  4.00000000E+00  0.00000000E+00
  4.80000000E+02  4.00000000E+00  0.00000000E+00
  4.90000000E+02  4.00000000E+00  0.00000000E+00
  5.00000000E+02  4.00000000E+00  0.00000000E+00
  5.10000000E+02  4.00000000E+00  0.00000000E+00
  5.20000000E+02  4.00000000E+00  0.00000000E+00
  5.30000000E+02  4.00000000E+00  0.00000000E+00
  5.40000000E+02  4.00000000E+00  0.00000000E+00
  5.50000000E+02  4.00000000E+00  0.00000000E+00
  5.60000000E+02  4.00000000E+00  0.00000000E+00
  5.70000000E+02  4.00000000E+00  0.00000000E+00
  5.80000000E+02  4.00000000E+00  0.00000000E+00
  5.90000000E+02  4.00000000E+00  0.00000000E+00
  6.00000000E+02  4.00000000E+00  0.00000000E+00
  6.10000000E+02  4.00000000E+00  0.00000000E+00
  6.20000000E+02  4.00000000E+00  0.00000000E+00
  6.30000000E+02  4.00000000E+00  0.00000000E+00
  6.40000000E+02  4.00000000E+00  0.00000000E+00
  6.50000000E+02  4.00000000E+00  0.00000000E+00
  6.60000000E+02  4.00000000E+00  0.00000000E+00
  6.70000000E+02  4.00000000E+00  0.00000000E+00
  6.80000000E+02  4.00000000E+00  0.00000000E+00
  6.90000000E+02  4.00000000E+00  0.00000000E+00
  7.00000000E+02  4.00000000E+00  0.00000000E+00
  7.10000000E+02  4.00000000E+00  0.00000000E+00
  7.20000000E+02  4.00000000E+00  0.00000000E+00
  7.30000000E+02  4.00000000E+00  0.00000000E+00
  7.40000000E+02  4.00000000E+00  0.00000000E+00
  7.50000000E+02  4.00000000E+00  0.00000000E+00
  7.60000000E+02  4.00000000E+00  0.00000000E+00
  7.70000000E+02  4.00000000E+00  0.00000000E+00
  7.80000000E+02  4.00000000E+00  0.00000000E+00
  7.90000000E+02  4.00000000E+00  0.00000000E+00
  8.00000000E+02  4.00000000E+00  0.00000000E+00
  8.10000000E+02  4.00000000E+00  0.00000000E+00
  8.20000000E+02  4.00000000E+00  0.00000000E+00
  8.30000000E+02  4.00000000E+00  0.00000000E+00
  8.40000000E+02  4.00000000E+00  0.00000000E+00
  8.50000000E+02  4.00000000E+00  0.00000000E+00
  8.60000000E+02  4.00000000E+00  0.00000000E+00
  8.70000000E+02  4.00000000E+00  0.00000000E+00
  8.80000000E+02  4.00000000E+00  0.00000000E+00
  8.90000000E+02  4.00000000E+00  0.00000000E+00
  9.00000000E+02  4.00000000E+00  0.00000000E+00
  9.10000000E+02  4.00000000E+00  0.00000000E+00
  9.20000000E+02  4.00000000E+00  0.00000000E+00
  9.30000000E+02  4.00000000E+00  0.00000000E+00
  9.40000000E+02  4.00000000E+00  0.00000000E+00
  9.50000000E+02  4.00000000E+00  0.00000000E+00
  9.60000000E+02  4.00000000E+00  0.00000000E+00
  9.70000000E+02  4.00000000E+00  0.00000000E+00
  9.80000000E+02  4.00000000E+00  0.00000000E+00
  9.90000000E+02  4.00000000E+00  0.00000000E+00
  1.00000000E+03  4.00000000E+00  0.00000000E+00
  0.00000000E+00  6.00000000E+00  0.00000000E+00
  1.00000000E+01  6.00000000E+00  0.00000000E+00
  2.00000000E+01  6.00000000E+00  0.00000000E+00
  3.00000000E+01  6.00000000E+00  0.00000000E+00
  4.00000000E+01  6.00000000E+00  0.00000000E+00
  5.00000000E+01  6.00000000E+00  0.00000000E+00
  6.00000000E+01  6.00000000E+00  0.00000000E+00
  7.00000000E+01  6.00000000E+00  0.00000000E+00
  8.00000000E+01  6.00000000E+00  0.00000000E+00
  9.00000000E+01  6.00000000E+00  0.00000000E+00
  1.00000000E+02  6.00000000E+00  0.00000000E+00
  1.10000000E+02  6.00000000E+00  0.00000000E+00
  1.20000000E+02  6.00000000E+00  0.00000000E+00
  1.30000000E+02  6.00000000E+00  0.00000000E+00
  1.40000000E+02  6.00000000E+00  0.00000000E+00
  1.50000000E+02  6.00000000E+00  0.00000000E+00
  1.60000000E+02  6.00000000E+00  0.00000000E+00
  1.70000000E+02  6.00000000E+00  0.00000000E+00
  1.80000000E+02  6.00000000E+00  0.00000000E+00
  1.90000000E+02  6.00000000E+00  0.00000000E+00
  2.00000000E+02  6.00000000E+00  0.00000000E+00
  2.10000000E+02  6.00000000E+00  0.00000000E+00
  2.20000000E+02  6.00000000E+00  0.00000000E+00
  2.30000000E+02  6.00000000E+00  0.00000000E+00
  2.40000000E+02  6.00000000E+00  0.00000000E+00
  2.50000000E+02  6.00000000E+00  0.00000000E+00
  2.60000000E+02  6.00000000E+00  0.00000000E+00
  2.70000000E+02  6.00000000E+00  0.00000000E+00
  2.80000000E+02  6.00000000E+00  0.00000000E+00
  2.90000000E+02  6.00000000E+00  0.00000000E+00
  3.00000000E+02  6.00000000E+00  0.00000000E+00
  3.10000000E+02  6.00000000E+00  0.00000000E+00
  3.20000000E+02  6.00000000E+00  0.00000000E+00
  3.30000000E+02  6.00000000E+00  0.00000000E+00
  3.40000000E+02  6.00000000E+00  0.00000000E+00
  3.50000000E+02  6.00000000E+00  0.00000000E+00
  3.60000000E+02  6.00000000E+00  0.00000000E+00
  3.70000000E+02  6.00000000E+00  0.00000000E+00
  3.80000000E+02  6.00000000E+00  0.00000000E+00
  3.90000000E+02  6.00000000E+00  0.00000000E+00
  4.00000000E+02  6.00000000E+00  0.00000000E+00
  4.10000000E+02  6.00000000E+00  0.00000000E+00
  4.20000000E+02  6.00000000E+00  0.00000000E+00
  4.30000000E+02  6.00000000E+00  0.00000000E+00
  4.40000000E+02  6.00000000E+00  0.00000000E+00
  4.50000000E+02  6.00000000E+00  0.00000000E+00
  4.60000000E+02  6.00000000E+00  0.00000000E+00
  4.70000000E+02  6.00000000E+00  0.00000000E+00
  4.80000000E+02  6.00000000E+00  0.00000000E+00
  4.90000000E+02  6.00000000E+00  0.00000000E+00
  5.00000000E+02  6.00000000E+00  0.00000000E+00
  5.10000000E+02  6.00000000E+00  0.00000000E+00
  5.20000000E+02  6.00000000E+00  0.00000000E+00
  5.30000000E+02  6.00000000E+00  0.00000000E+00
  5.40000000E+02  6.00000000E+00  0.00000000E+00
  5.50000000E+02  6.00000000E+00  0.00000000E+00
  5.60000000E+02  6.00000000E+00  0.00000000E+00
  5.70000000E+02  6.00000000E+00  0.00000000E+00
  5.80000000E+02  6.00000000E+00  0.00000000E+00
  5.90000000E+02  6.00000000E+00  0.00000000E+00
  6.00000000E+02  6.00000000E+00  0.00000000E+00
  6.10000000E+02  6.00000000E+00  0.00000000E+00
  6.20000000E+02  6.00000000E+00  0.00000000E+00
  6.30000000E+02  6.00000000E+00  0.00000000E+00
  6.40000000E+02  6.00000000E+00  0.00000000E+00
  6.50000000E+02  6.00000000E+00  0.00000000E+00
  6.60000000E+02  6.00000000E+00  0.00000000E+00
  6.70000000E+02  6.00000000E+00  0.00000000E+00
  6.80000000E+02  6.00000000E+00  0.00000000E+00
  6.90000000E+02  6.00000000E+00  0.00000000E+00
  7.00000000E+02  6.00000000E+00  0.00000000E+00
  7.10000000E+02  6.00000000E+00  0.00000000E+00
  7.20000000E+02  6.00000000E+00  0.00000000E+00
  7.30000000E+02  6.00000000E+00  0.00000000E+00
  7.40000000E+02  6.00000000E+00  0.00000000E+00
  7.50000000E+02  6.00000000E+00  0.00000000E+00
  7.60000000E+02  6.00000000E+00  0.00000000E+00
  7.70000000E+02  6.00000000E+00  0.00000000E+00
  7.80000000E+02  6.00000000E+00  0.00000000E+00
  7.90000000E+02  6.00000000E+00  0.00000000E+00
  8.00000000E+02  6.00000000E+00  0.00000000E+00
  8.10000000E+02  6.00000000E+00  0.00000000E+00
  8.20000000E+02  6.00000000E+00  0.00000000E+00
  8.30000000E+02  6.00000000E+00  0.00000000E+00
  8.40000000E+02  6.00000000E+00  0.00000000E+00
  8.50000000E+02  6.00000000E+00  0.00000000E+00
  8.60000000E+02  6.00000000E+00  0.00000000E+00
  8.70000000E+02  6.00000000E+00  0.00000000E+00
  8.80000000E+02  6.00000000E+00  0.00000000E+00
  8.90000000E+02  6.00000000E+00  0.00000000E+00
  9.00000000E+02  6.00000000E+00  0.00000000E+00
  9.10000000E+02  6.00000000E+00  0.00000000E+00
  9.20000000E+02  6.00000000E+00  0.00000000E+00
  9.30000000E+02  6.00000000E+00  0.00000000E+00
  9.40000000E+02  6.00000000E+00  0.00000000E+00
  9.50000000E+02  6.00000000E+00  0.00000000E+00
  9.60000000E+02  6.00000000E+00  0.00000000E+00
  9.70000000E+02  6.00000000E+00  0.00000000E+00
  9.80000000E+02  6.00000000E+00  0.00000000E+00
  9.90000000E+02  6.00000000E+00  0.00000000E+00
  1.00000000E+03  6.00000000E+00  0.00000000E+00
  0.00000000E+00  8.00000000E+00  0.00000000E+00
  1.00000000E+01  8.00000000E+00  0.00000000E+00
  2.00000000E+01  8.00000000E+00  0.00000000E+00
  3.00000000E+01  8.00000000E+00  0.00000000E+00
  4.00000000E+01  8.00000000E+00  0.00000000E+00
  5.00000000E+01  8.00000000E+00  0.00000000E+00
  6.00000000E+01  8.00000000E+00  0.00000000E+00
  7.00000000E+01  8.00000000E+00  0.00000000E+00
  8.00000000E+01  8.00000000E+00  0.00000000E+00
  9.00000000E+01  8.00000000E+00  0.00000000E+00
  1.00000000E+02  8.00000000E+00  0.00000000E+00
  1.10000000E+02  8.00000000E+00  0.00000000E+00
  1.20000000E+02  8.00000000E+00  0.00000000E+00
  1.30000000E+02  8.00000000E+00  0.00000000E+00
  1.40000000E+02  8.00000000E+00  0.00000000E+00
  1.50000000E+02  8.00000000E+00  0.00000000E+00
  1.60000000E+02  8.00000000E+00  0.00000000E+00
  1.70000000E+02  8.00000000E+00  0.00000000E+00
  1.80000000E+02  8.00000000E+00  0.00000000E+00
  1.90000000E+02  8.00000000E+00  0.00000000E+00
  2.00000000E+02  8.00000000E+00  0.00000000E+00
  2.10000000E+02  8.00000000E+00  0.00000000E+00
  2.20000000E+02  8.00000000E+00  0.00000000E+00
  2.30000000E+02  8.00000000E+00  0.00000000E+00
  2.40000000E+02  8.00000000E+00  0.00000000E+00
  2.50000000E+02  8.00000000E+00  0.00000000E+00
  2.60000000E+02  8.00000000E+00  0.00000000E+00
  2.70000000E+02  8.00000000E+00  0.00000000E+00
  2.80000000E+02  8.00000000E+00  0.00000000E+00
  2.90000000E+02  8.00000000E+00  0.00000000E+00
  3.00000000E+02  8.00000000E+00  0.00000000E+00
  3.10000000E+02  8.00000000E+00  0.00000000E+00
  3.20000000E+02  8.00000000E+00  0.00000000E+00
  3.30000000E+02  8.00000000E+00  0.00000000E+00
  3.40000000E+02  8.00000000E+00  0.00000000E+00
  3.50000000E+02  8.00000000E+00  0.00000000E+00
  3.60000000E+02  8.00000000E+00  0.00000000E+00
  3.70000000E+02  8.00000000E+00  0.00000000E+00
  3.80000000E+02  8.00000000E+00  0.00000000E+00
  3.90000000E+02  8.00000000E+00  0.00000000E+00
  4.00000000E+02  8.00000000E+00  0.00000000E+00
  4.10000000E+02  8.00000000E+00  0.00000000E+00
  4.20000000E+02  8.00000000E+00  0.00000000E+00
  4.30000000E+02  8.00000000E+00  0.00000000E+00
  4.40000000E+02  8.00000000E+00  0.00000000E+00
  4.50000000E+02  8.00000000E+00  0.00000000E+00
  4.60000000E+02  8.00000000E+00  0.00000000E+00
  4.70000000E+02  8.00000000E+00  0.00000000E+00
  4.80000000E+02  8.00000000E+00  0.00000000E+00
  4.90000000E+02  8.00000000E+00  0.00000000E+00
  5.00000000E+02  8.00000000E+00  0.00000000E+00
  5.10000000E+02  8.00000000E+00  0.00000000E+00
  5.20000000E+02  8.00000000E+00  0.00000000E+00
  5.30000000E+02  8.00000000E+00  0.00000000E+00
  5.40000000E+02  8.00000000E+00  0.00000000E+00
  5.50000000E+02  8.00000000E+00  0.00000000E+00
  5.60000000E+02  8.00000000E+00  0.00000000E+00
  5.70000000E+02  8.00000000E+00  0.00000000E+00
  5.80000000E+02  8.00000000E+00  0.00000000E+00
  5.90000000E+02  8.00000000E+00  0.00000000E+00
  6.00000000E+02  8.00000000E+00  0.00000000E+00
  6.10000000E+02  8.00000000E+00  0.00000000E+00
  6.20000000E+02  8.00000000E+00  0.00000000E+00
  6.30000000E+02  8.00000000E+00  0.00000000E+00
  6.40000000E+02  8.00000000E+00  0.00000000E+00
  6.50000000E+02  8.00000000E+00  0.00000000E+00
  6.60000000E+02  8.00000000E+00  0.00000000E+00
  6.70000000E+02  8.00000000E+00  0.00000000E+00
  6.80000000E+02  8.00000000E+00  0.00000000E+00
  6.90000000E+02  8.00000000E+00  0.00000000E+00
  7.00000000E+02  8.00000000E+00  0.00000000E+00
  7.10000000E+02  8.00000000E+00  0.00000000E+00
  7.20000000E+02  8.00000000E+00  0.00000000E+00
  7.30000000E+02  8.00000000E+00  0.00000000E+00
  7.40000000E+02  8.00000000E+00  0.00000000E+00
  7.50000000E+02  8.00000000E+00  0.00000000E+00
  7.60000000E+02  8.00000000E+00  0.00000000E+00
  7.70000000E+02  8.00000000E+00  0.00000000E+00
  7.80000000E+02  8.00000000E+00  0.00000000E+00
  7.90000000E+02  8.00000000E+00  0.00000000E+00
  8.00000000E+02  8.00000000E+00  0.00000000E+00
  8.10000000E+02  8.00000000E+00  0.00000000E+00
  8.20000000E+02  8.00000000E+00  0.00000000E+00
  8.30000000E+02  8.00000000E+00  0.00000000E+00
  8.40000000E+02  8.00000000E+00  0.00000000E+00
  8.50000000E+02  8.00000000E+00  0.00000000E+00
  8.60000000E+02  8.00000000E+00  0.00000000E+00
  8.70000000E+02  8.00000000E+00  0.00000000E+00
  8.80000000E+02  8.00000000E+00  0.00000000E+00
  8.90000000E+02  8.00000000E+00  0.00000000E+00
  9.00000000E+02  8.00000000E+00  0.00000000E+00
  9.10000000E+02  8.00000000E+00  0.00000000E+00
  9.20000000E+02  8.00000000E+00  0.00000000E+00
  9.30000000E+02  8.00000000E+00  0.00000000E+00
  9.40000000E+02  8.00000000E+00  0.00000000E+00
  9.50000000E+02  8.00000000E+00  0.00000000E+00
  9.60000000E+02  8.00000000E+00  0.00000000E+00
  9.70000000E+02  8.00000000E+00  0.00000000E+00
  9.80000000E+02  8.00000000E+00  0.00000000E+00
  9.90000000E+02  8.00000000E+00  0.00000000E+00
  1.00000000E+03  8.00000000E+00  0.00000000E+00
  0.00000000E+00  1.00000000E+01  0.00000000E+00
  1.00000000E+01  1.00000000E+01  0.00000000E+00
  2.00000000E+01  1.00000000E+01  0.00000000E+00
  3.00000000E+01  1.00000000E+01  0.00000000E+00
  4.00000000E+01  1.00000000E+01  0.00000000E+00
  5.00000000E+01  1.00000000E+01  0.00000000E+00
  6.00000000E+01  1.00000000E+01  0.00000000E+00
  7.00000000E+01  1.00000000E+01  0.00000000E+00
  8.00000000E+01  1.00000000E+01  0.00000000E+00
  9.00000000E+01  1.00000000E+01  0.00000000E+00
  1.00000000E+02  1.00000000E+01  0.00000000E+00
  1.10000000E+02  1.00000000E+01  0.00000000E+00
  1.20000000E+02  1.00000000E+01  0.00000000E+00
  1.30000000E+02  1.00000000E+01  0.00000000E+00
  1.40000000E+02  1.00000000E+01  0.00000000E+00
  1.50000000E+02  1.00000000E+01  0.00000000E+00
  1.60000000E+02  1.00000000E+01  0.00000000E+00
  1.70000000E+02  1.00000000E+01  0.00000000E+00
  1.80000000E+02  1.00000000E+01  0.00000000E+00
  1.90000000E+02  1.00000000E+01  0.00000000E+00
  2.00000000E+02  1.00000000E+01  0.00000000E+00
  2.10000000E+02  1.00000000E+01  0.00000000E+00
  2.20000000E+02  1.00000000E+01  0.00000000E+00
  2.30000000E+02  1.00000000E+01  0.00000000E+00
  2.40000000E+02  1.00000000E+01  0.00000000E+00
  2.50000000E+02  1.00000000E+01  0.00000000E+00
  2.60000000E+02  1.00000000E+01  0.00000000E+00
  2.70000000E+02  1.00000000E+01  0.00000000E+00
  2.80000000E+02  1.00000000E+01  0.00000000E+00
  2.90000000E+02  1.00000000E+01  0.00000000E+00
  3.00000000E+02  1.00000000E+01  0.00000000E+00
  3.10000000E+02  1.00000000E+01  0.00000000E+00
  3.20000000E+02  1.00000000E+01  0.00000000E+00
  3.30000000E+02  1.00000000E+01  0.00000000E+00
  3.40000000E+02  1.00000000E+01  0.00000000E+00
  3.50000000E+02  1.00000000E+01  0.00000000E+00
  3.60000000E+02  1.00000000E+01  0.00000000E+00
  3.70000000E+02  1.00000000E+01  0.00000000E+00
  3.80000000E+02  1.00000000E+01  0.00000000E+00
  3.90000000E+02  1.00000000E+01  0.00000000E+00
  4.00000000E+02  1.00000000E+01  0.00000000E+00
  4.10000000E+02  1.00000000E+01  0.00000000E+00
  4.20000000E+02  1.00000000E+01  0.00000000E+00
  4.30000000E+02  1.00000000E+01  0.00000000E+00
  4.40000000E+02  1.00000000E+01  0.00000000E+00
  4.50000000E+02  1.00000000E+01  0.00000000E+00
  4.60000000E+02  1.00000000E+01  0.00000000E+00
  4.70000000E+02  1.00000000E+01  0.00000000E+00
  4.80000000E+02  1.00000000E+01  0.00000000E+00
  4.90000000E+02  1.00000000E+01  0.00000000E+00
  5.00000000E+02  1.00000000E+01  0.00000000E+00
  5.10000000E+02  1.00000000E+01  0.00000000E+00
  5.20000000E+02  1.00000000E+01  0.00000000E+00
  5.30000000E+02  1.00000000E+01  0.00000000E+00
  5.40000000E+02  1.00000000E+01  0.00000000E+00
  5.50000000E+02  1.00000000E+01  0.00000000E+00
  5.60000000E+02  1.00000000E+01  0.00000000E+00
  5.70000000E+02  1.00000000E+01  0.00000000E+00
  5.80000000E+02  1.00000000E+01  0.00000000E+00
  5.90000000E+02  1.00000000E+01  0.00000000E+00
  6.00000000E+02  1.00000000E+01  0.00000000E+00
  6.10000000E+02  1.00000000E+01  0.00000000E+00
  6.20000000E+02  1.00000000E+01  0.00000000E+00
  6.30000000E+02  1.00000000E+01  0.00000000E+00
  6.40000000E+02  1.00000000E+01  0.00000000E+00
  6.50000000E+02  1.00000000E+01  0.00000000E+00
  6.60000000E+02  1.00000000E+01  0.00000000E+00
  6.70000000E+02  1.00000000E+01  0.00000000E+00
  6.80000000E+02  1.00000000E+01  0.00000000E+00
  6.90000000E+02  1.00000000E+01  0.00000000E+00
  7.00000000E+02  1.00000000E+01  0.00000000E+00
  7.10000000E+02  1.00000000E+01  0.00000000E+00
  7.20000000E+02  1.00000000E+01  0.00000000E+00
  7.30000000E+02  1.00000000E+01  0.00000000E+00
  7.40000000E+02  1.00000000E+01  0.00000000E+00
  7.50000000E+02  1.00000000E+01  0.00000000E+00
  7.60000000E+02  1.00000000E+01  0.00000000E+00
  7.70000000E+02  1.00000000E+01  0.00000000E+00
  7.80000000E+02  1.00000000E+01  0.00000000E+00
  7.90000000E+02  1.00000000E+01  0.00000000E+00
  8.00000000E+02  1.00000000E+01  0.00000000E+00
  8.10000000E+02  1.00000000E+01  0.00000000E+00
  8.20000000E+02  1.00000000E+01  0.00000000E+00
  8.30000000E+02  1.00000000E+01  0.00000000E+00
  8.40000000E+02  1.00000000E+01  0.00000000E+00
  8.50000000E+02  1.00000000E+01  0.00000000E+00
  8.60000000E+02  1.00000000E+01  0.00000000E+00
  8.70000000E+02  1.00000000E+01  0.00000000E+00
  8.80000000E+02  1.00000000E+01  0.00000000E+00
  8.90000000E+02  1.00000000E+01  0.00000000E+00
  9.00000000E+02  1.00000000E+01  0.00000000E+00
  9.10000000E+02  1.00000000E+01  0.00000000E+00
  9.20000000E+02  1.00000000E+01  0.00000000E+00
  9.30000000E+02  1.00000000E+01  0.00000000E+00
  9.40000000E+02  1.00000000E+01  0.00000000E+00
  9.50000000E+02  1.00000000E+01  0.00000000E+00
  9.60000000E+02  1.00000000E+01  0.00000000E+00
  9.70000000E+02  1.00000000E+01  0.00000000E+00
  9.80000000E+02  1.00000000E+01  0.00000000E+00
  9.90000000E+02  1.00000000E+01  0.00000000E+00
  1.00000000E+03  1.00000000E+01  0.00000000E+00
  0.00000000E+00  1.20000000E+01  0.00000000E+00
  1.00000000E+01  1.20000000E+01  0.00000000E+00
  2.00000000E+01  1.20000000E+01  0.00000000E+00
  3.00000000E+01  1.20000000E+01  0.00000000E+00
  4.00000000E+01  1.20000000E+01  0.00000000E+00
  5.00000000E+01  1.20000000E+01  0.00000000E+00
  6.00000000E+01  1.20000000E+01  0.00000000E+00
  7.00000000E+01  1.20000000E+01  0.00000000E+00
  8.00000000E+01  1.20000000E+01  0.00000000E+00
  9.00000000E+01  1.20000000E+01  0.00000000E+00
  1.00000000E+02  1.20000000E+01  0.00000000E+00
  1.10000000E+02  1.20000000E+01  0.00000000E+00
  1.20000000E+02  1.20000000E+01  0.00000000E+00
  1.30000000E+02  1.20000000E+01  0.00000000E+00
  1.40000000E+02  1.20000000E+01  0.00000000E+00
  1.50000000E+02  1.20000000E+01  0.00000000E+00
  1.60000000E+02  1.20000000E+01  0.00000000E+00
  1.70000000E+02  1.20000000E+01  0.00000000E+00
  1.80000000E+02  1.20000000E+01  0.00000000E+00
  1.90000000E+02  1.20000000E+01  0.00000000E+00
  2.00000000E+02  1.20000000E+01  0.00000000E+00
  2.10000000E+02  1.20000000E+01  0.00000000E+00
  2.20000000E+02  1.20000000E+01  0.00000000E+00
  2.30000000E+02  1.20000000E+01  0.00000000E+00
  2.40000000E+02  1.20000000E+01  0.00000000E+00
  2.50000000E+02  1.20000000E+01  0.00000000E+00
  2.60000000E+02  1.20000000E+01  0.00000000E+00
  2.70000000E+02  1.20000000E+01  0.00000000E+00
  2.80000000E+02  1.20000000E+01  0.00000000E+00
  2.90000000E+02  1.20000000E+01  0.00000000E+00
  3.00000000E+02  1.20000000E+01  0.00000000E+00
  3.10000000E+02  1.20000000E+01  0.00000000E+00
  3.20000000E+02  1.20000000E+01  0.00000000E+00
  3.30000000E+02  1.20000000E+01  0.00000000E+00
  3.40000000E+02  1.20000000E+01  0.00000000E+00
  3.50000000E+02  1.20000000E+01  0.00000000E+00
  3.60000000E+02  1.20000000E+01  0.00000000E+00
  3.70000000E+02  1.20000000E+01  0.00000000E+00
  3.80000000E+02  1.20000000E+01  0.00000000E+00
  3.90000000E+02  1.20000000E+01  0.00000000E+00
  4.00000000E+02  1.20000000E+01  0.00000000E+00
  4.10000000E+02  1.20000000E+01  0.00000000E+00
  4.20000000E+02  1.20000000E+01  0.00000000E+00
  4.30000000E+02  1.20000000E+01  0.00000000E+00
  4.40000000E+02  1.20000000E+01  0.00000000E+00
  4.50000000E+02  1.20000000E+01  0.00000000E+00
  4.60000000E+02  1.20000000E+01  0.00000000E+00
  4.70000000E+02  1.20000000E+01  0.00000000E+00
  4.80000000E+02  1.20000000E+01  0.00000000E+00
  4.90000000E+02  1.20000000E+01  0.00000000E+00
  5.00000000E+02  1.20000000E+01  0.00000000E+00
  5.10000000E+02  1.20000000E+01  0.00000000E+00
  5.20000000E+02  1.20000000E+01  0.00000000E+00
  5.30000000E+02  1.20000000E+01  0.00000000E+00
  5.40000000E+02  1.20000000E+01  0.00000000E+00
  5.50000000E+02  1.20000000E+01  0.00000000E+00
  5.60000000E+02  1.20000000E+01  0.00000000E+00
  5.70000000E+02  1.20000000E+01  0.00000000E+00
  5.80000000E+02  1.20000000E+01  0.00000000E+00
  5.90000000E+02  1.20000000E+01  0.00000000E+00
  6.00000000E+02  1.20000000E+01  0.00000000E+00
  6.10000000E+02  1.20000000E+01  0.00000000E+00
  6.20000000E+02  1.20000000E+01  0.00000000E+00
  6.30000000E+02  1.20000000E+01  0.00000000E+00
  6.40000000E+02  1.20000000E+01  0.00000000E+00
  6.50000000E+02  1.20000000E+01  0.00000000E+00
  6.60000000E+02  1.20000000E+01  0.00000000E+00
  6.70000000E+02  1.20000000E+01  0.00000000E+00
  6.80000000E+02  1.20000000E+01  0.00000000E+00
  6.90000000E+02  1.20000000E+01  0.00000000E+00
  7.00000000E+02  1.20000000E+01  0.00000000E+00
  7.10000000E+02  1.20000000E+01  0.00000000E+00
  7.20000000E+02  1.20000000E+01  0.00000000E+00
  7.30000000E+02  1.20000000E+01  0.00000000E+00
  7.40000000E+02  1.20000000E+01  0.00000000E+00
  7.50000000E+02  1.20000000E+01  0.00000000E+00
  7.60000000E+02  1.20000000E+01  0.00000000E+00
  7.70000000E+02  1.20000000E+01  0.00000000E+00
  7.80000000E+02  1.20000000E+01  0.00000000E+00
  7.90000000E+02  1.20000000E+01  0.00000000E+00
  8.00000000E+02  1.20000000E+01  0.00000000E+00
  8.10000000E+02  1.20000000E+01  0.00000000E+00
  8.20000000E+02  1.20000000E+01  0.00000000E+00
  8.30000000E+02  1.20000000E+01  0.00000000E+00
  8.40000000E+02  1.20000000E+01  0.00000000E+00
  8.50000000E+02  1.20000000E+01  0.00000000E+00
  8.60000000E+02  1.20000000E+01  0.00000000E+00
  8.70000000E+02  1.20000000E+01  0.00000000E+00
  8.80000000E+02  1.20000000E+01  0.00000000E+00
  8.90000000E+02  1.20000000E+01  0.00000000E+00
  9.00000000E+02  1.20000000E+01  0.00000000E+00
  9.10000000E+02  1.20000000E+01  0.00000000E+00
  9.20000000E+02  1.20000000E+01  0.00000000E+00
  9.30000000E+02  1.20000000E+01  0.00000000E+00
  9.40000000E+02  1.20000000E+01  0.00000000E+00
  9.50000000E+02  1.20000000E+01  0.00000000E+00
  9.60000000E+02  1.20000000E+01  0.00000000E+00
  9.70000000E+02  1.20000000E+01  0.00000000E+00
  9.80000000E+02  1.20000000E+01  0.00000000E+00
  9.90000000E+02  1.20000000E+01  0.00000000E+00
  1.00000000E+03  1.20000000E+01  0.00000000E+00
  0.00000000E+00  1.40000000E+01  0.00000000E+00
  1.00000000E+01  1.40000000E+01  0.00000000E+00
  2.00000000E+01  1.40000000E+01  0.00000000E+00
  3.00000000E+01  1.40000000E+01  0.00000000E+00
  4.00000000E+01  1.40000000E+01  0.00000000E+00
  5.00000000E+01  1.40000000E+01  0.00000000E+00
  6.00000000E+01  1.40000000E+01  0.00000000E+00
  7.00000000E+01  1.40000000E+01  0.00000000E+00
  8.00000000E+01  1.40000000E+01  0.00000000E+00
  9.00000000E+01  1.40000000E+01  0.00000000E+00
  1.00000000E+02  1.40000000E+01  0.00000000E+00
  1.10000000E+02  1.40000000E+01  0.00000000E+00
  1.20000000E+02  1.40000000E+01  0.00000000E+00
  1.30000000E+02  1.40000000E+01  0.00000000E+00
  1.40000000E+02  1.40000000E+01  0.00000000E+00
  1.50000000E+02  1.40000000E+01  0.00000000E+00
  1.60000000E+02  1.40000000E+01  0.00000000E+00
  1.70000000E+02  1.40000000E+01  0.00000000E+00
  1.80000000E+02  1.40000000E+01  0.00000000E+00
  1.90000000E+02  1.40000000E+01  0.00000000E+00
  2.00000000E+02  1.40000000E+01  0.00000000E+00
  2.10000000E+02  1.40000000E+01  0.00000000E+00
  2.20000000E+02  1.40000000E+01  0.00000000E+00
  2.30000000E+02  1.40000000E+01  0.00000000E+00
  2.40000000E+02  1.40000000E+01  0.00000000E+00
  2.50000000E+02  1.40000000E+01  0.00000000E+00
  2.60000000E+02  1.40000000E+01  0.00000000E+00
  2.70000000E+02  1.40000000E+01  0.00000000E+00
  2.80000000E+02  1.40000000E+01  0.00000000E+00
  2.90000000E+02  1.40000000E+01  0.00000000E+00
  3.00000000E+02  1.40000000E+01  0.00000000E+00
  3.10000000E+02  1.40000000E+01  0.00000000E+00
  3.20000000E+02  1.40000000E+01  0.00000000E+00
  3.30000000E+02  1.40000000E+01  0.00000000E+00
  3.40000000E+02  1.40000000E+01  0.00000000E+00
  3.50000000E+02  1.40000000E+01  0.00000000E+00
  3.60000000E+02  1.40000000E+01  0.00000000E+00
  3.70000000E+02  1.40000000E+01  0.00000000E+00
  3.80000000E+02  1.40000000E+01  0.00000000E+00
  3.90000000E+02  1.40000000E+01  0.00000000E+00
  4.00000000E+02  1.40000000E+01  0.00000000E+00
  4.10000000E+02  1.40000000E+01  0.00000000E+00
  4.20000000E+02  1.40000000E+01  0.00000000E+00
  4.30000000E+02  1.40000000E+01  0.00000000E+00
  4.40000000E+02  1.40000000E+01  0.00000000E+00
  4.50000000E+02  1.40000000E+01  0.00000000E+00
  4.60000000E+02  1.40000000E+01  0.00000000E+00
  4.70000000E+02  1.40000000E+01  0.00000000E+00
  4.80000000E+02  1.40000000E+01  0.00000000E+00
  4.90000000E+02  1.40000000E+01  0.00000000E+00
  5.00000000E+02  1.40000000E+01  0.00000000E+00
  5.10000000E+02  1.40000000E+01  0.00000000E+00
  5.20000000E+02  1.40000000E+01  0.00000000E+00
  5.30000000E+02  1.40000000E+01  0.00000000E+00
  5.40000000E+02  1.40000000E+01  0.00000000E+00
  5.50000000E+02  1.40000000E+01  0.00000000E+00
  5.60000000E+02  1.40000000E+01  0.00000000E+00
  5.70000000E+02  1.40000000E+01  0.00000000E+00
  5.80000000E+02  1.40000000E+01  0.00000000E+00
  5.90000000E+02  1.40000000E+01  0.00000000E+00
  6.00000000E+02  1.40000000E+01  0.00000000E+00
  6.10000000E+02  1.40000000E+01  0.00000000E+00
  6.20000000E+02  1.40000000E+01  0.00000000E+00
  6.30000000E+02  1.40000000E+01  0.00000000E+00
  6.40000000E+02  1.40000000E+01  0.00000000E+00
  6.50000000E+02  1.40000000E+01  0.00000000E+00
  6.60000000E+02  1.40000000E+01  0.00000000E+00
  6.70000000E+02  1.40000000E+01  0.00000000E+00
  6.80000000E+02  1.40000000E+01  0.00000000E+00
  6.90000000E+02  1.40000000E+01  0.00000000E+00
  7.00000000E+02  1.40000000E+01  0.00000000E+00
  7.10000000E+02  1.40000000E+01  0.00000000E+00
  7.20000000E+02  1.40000000E+01  0.00000000E+00
  7.30000000E+02  1.40000000E+01  0.00000000E+00
  7.40000000E+02  1.40000000E+01  0.00000000E+00
  7.50000000E+02  1.40000000E+01  0.00000000E+00
  7.60000000E+02  1.40000000E+01  0.00000000E+00
  7.70000000E+02  1.40000000E+01  0.00000000E+00
  7.80000000E+02  1.40000000E+01  0.00000000E+00
  7.90000000E+02  1.40000000E+01  0.00000000E+00
  8.00000000E+02  1.40000000E+01  0.00000000E+00
  8.10000000E+02  1.40000000E+01  0.00000000E+00
  8.20000000E+02  1.40000000E+01  0.00000000E+00
  8.30000000E+02  1.40000000E+01  0.00000000E+00
  8.40000000E+02  1.40000000E+01  0.00000000E+00
  8.50000000E+02  1.40000000E+01  0.00000000E+00
  8.60000000E+02  1.40000000E+01  0.00000000E+00
  8.70000000E+02  1.40000000E+01  0.00000000E+00
  8.80000000E+02  1.40000000E+01  0.00000000E+00
  8.90000000E+02  1.40000000E+01  0.00000000E+00
  9.00000000E+02  1.40000000E+01  0.00000000E+00
  9.10000000E+02  1.40000000E+01  0.00000000E+00
  9.20000000E+02  1.40000000E+01  0.00000000E+00
  9.30000000E+02  1.40000000E+01  0.00000000E+00
  9.40000000E+02  1.40000000E+01  0.00000000E+00
  9.50000000E+02  1.40000000E+01  0.00000000E+00
  9.60000000E+02  1.40000000E+01  0.00000000E+00
  9.70000000E+02  1.40000000E+01  0.00000000E+00
  9.80000000E+02  1.40000000E+01  0.00000000E+00
  9.90000000E+02  1.40000000E+01  0.00000000E+00
  1.00000000E+03  1.40000000E+01  0.00000000E+00
  0.00000000E+00  1.60000000E+01  0.00000000E+00
  1.00000000E+01  1.60000000E+01  0.00000000E+00
  2.00000000E+01  1.60000000E+01  0.00000000E+00
  3.00000000E+01  1.60000000E+01  0.00000000E+00
  4.00000000E+01  1.60000000E+01  0.00000000E+00
  5.00000000E+01  1.60000000E+01  0.00000000E+00
  6.00000000E+01  1.60000000E+01  0.00000000E+00
  7.00000000E+01  1.60000000E+01  0.00000000E+00
  8.00000000E+01  1.60000000E+01  0.00000000E+00
  9.00000000E+01  1.60000000E+01  0.00000000E+00
  1.00000000E+02  1.60000000E+01  0.00000000E+00
  1.10000000E+02  1.60000000E+01  0.00000000E+00
  1.20000000E+02  1.60000000E+01  0.00000000E+00
  1.30000000E+02  1.60000000E+01  0.00000000E+00
  1.40000000E+02  1.60000000E+01  0.00000000E+00
  1.50000000E+02  1.60000000E+01  0.00000000E+00
  1.60000000E+02  1.60000000E+01  0.00000000E+00
  1.70000000E+02  1.60000000E+01  0.00000000E+00
  1.80000000E+02  1.60000000E+01  0.00000000E+00
  1.90000000E+02  1.60000000E+01  0.00000000E+00
  2.00000000E+02  1.60000000E+01  0.00000000E+00
  2.10000000E+02  1.60000000E+01  0.00000000E+00
  2.20000000E+02  1.60000000E+01  0.00000000E+00
  2.30000000E+02  1.60000000E+01  0.00000000E+00
  2.40000000E+02  1.60000000E+01  0.00000000E+00
  2.50000000E+02  1.60000000E+01  0.00000000E+00
  2.60000000E+02  1.60000000E+01  0.00000000E+00
  2.70000000E+02  1.60000000E+01  0.00000000E+00
  2.80000000E+02  1.60000000E+01  0.00000000E+00
  2.90000000E+02  1.60000000E+01  0.00000000E+00
  3.00000000E+02  1.60000000E+01  0.00000000E+00
  3.10000000E+02  1.60000000E+01  0.00000000E+00
  3.20000000E+02  1.60000000E+01  0.00000000E+00
  3.30000000E+02  1.60000000E+01  0.00000000E+00
  3.40000000E+02  1.60000000E+01  0.00000000E+00
  3.50000000E+02  1.60000000E+01  0.00000000E+00
  3.60000000E+02  1.60000000E+01  0.00000000E+00
  3.70000000E+02  1.60000000E+01  0.00000000E+00
  3.80000000E+02  1.60000000E+01  0.00000000E+00
  3.90000000E+02  1.60000000E+01  0.00000000E+00
  4.00000000E+02  1.60000000E+01  0.00000000E+00
  4.10000000E+02  1.60000000E+01  0.00000000E+00
  4.20000000E+02  1.60000000E+01  0.00000000E+00
  4.30000000E+02  1.60000000E+01  0.00000000E+00
  4.40000000E+02  1.60000000E+01  0.00000000E+00
  4.50000000E+02  1.60000000E+01  0.00000000E+00
  4.60000000E+02  1.60000000E+01  0.00000000E+00
  4.70000000E+02  1.60000000E+01  0.00000000E+00
  4.80000000E+02  1.60000000E+01  0.00000000E+00
  4.90000000E+02  1.60000000E+01  0.00000000E+00
  5.00000000E+02  1.60000000E+01  0.00000000E+00
  5.10000000E+02  1.60000000E+01  0.00000000E+00
  5.20000000E+02  1.60000000E+01  0.00000000E+00
  5.30000000E+02  1.60000000E+01  0.00000000E+00
  5.40000000E+02  1.60000000E+01  0.00000000E+00
  5.50000000E+02  1.60000000E+01  0.00000000E+00
  5.60000000E+02  1.60000000E+01  0.00000000E+00
  5.70000000E+02  1.60000000E+01  0.00000000E+00
  5.80000000E+02  1.60000000E+01  0.00000000E+00
  5.90000000E+02  1.60000000E+01  0.00000000E+00
  6.00000000E+02  1.60000000E+01  0.00000000E+00
  6.10000000E+02  1.60000000E+01  0.00000000E+00
  6.20000000E+02  1.60000000E+01  0.00000000E+00
  6.30000000E+02  1.60000000E+01  0.00000000E+00
  6.40000000E+02  1.60000000E+01  0.00000000E+00
  6.50000000E+02  1.60000000E+01  0.00000000E+00
  6.60000000E+02  1.60000000E+01  0.00000000E+00
  6.70000000E+02  1.60000000E+01  0.00000000E+00
  6.80000000E+02  1.60000000E+01  0.00000000E+00
  6.90000000E+02  1.60000000E+01  0.00000000E+00
  7.00000000E+02  1.60000000E+01  0.00000000E+00
  7.10000000E+02  1.60000000E+01  0.00000000E+00
  7.20000000E+02  1.60000000E+01  0.00000000E+00
  7.30000000E+02  1.60000000E+01  0.00000000E+00
  7.40000000E+02  1.60000000E+01  0.00000000E+00
  7.50000000E+02  1.60000000E+01  0.00000000E+00
  7.60000000E+02  1.60000000E+01  0.00000000E+00
  7.70000000E+02  1.60000000E+01  0.00000000E+00
  7.80000000E+02  1.60000000E+01  0.00000000E+00
  7.90000000E+02  1.60000000E+01  0.00000000E+00
  8.00000000E+02  1.60000000E+01  0.00000000E+00
  8.10000000E+02  1.60000000E+01  0.00000000E+00
  8.20000000E+02  1.60000000E+01  0.00000000E+00
  8.30000000E+02  1.60000000E+01  0.00000000E+00
  8.40000000E+02  1.60000000E+01  0.00000000E+00
  8.50000000E+02  1.60000000E+01  0.00000000E+00
  8.60000000E+02  1.60000000E+01  0.00000000E+00
  8.70000000E+02  1.60000000E+01  0.00000000E+00
  8.80000000E+02  1.60000000E+01  0.00000000E+00
  8.90000000E+02  1.60000000E+01  0.00000000E+00
  9.00000000E+02  1.60000000E+01  0.00000000E+00
  9.10000000E+02  1.60000000E+01  0.00000000E+00
  9.20000000E+02  1.60000000E+01  0.00000000E+00
  9.30000000E+02  1.60000000E+01  0.00000000E+00
  9.40000000E+02  1.60000000E+01  0.00000000E+00
  9.50000000E+02  1.60000000E+01  0.00000000E+00
  9.60000000E+02  1.60000000E+01  0.00000000E+00
  9.70000000E+02  1.60000000E+01  0.00000000E+00
  9.80000000E+02  1.60000000E+01  0.00000000E+00
  9.90000000E+02  1.60000000E+01  0.00000000E+00
  1.00000000E+03  1.60000000E+01  0.00000000E+00
  0.00000000E+00  1.80000000E+01  0.00000000E+00
  1.00000000E+01  1.80000000E+01  0.00000000E+00
  2.00000000E+01  1.80000000E+01  0.00000000E+00
  3.00000000E+01  1.80000000E+01  0.00000000E+00
  4.00000000E+01  1.80000000E+01  0.00000000E+00
  5.00000000E+01  1.80000000E+01  0.00000000E+00
  6.00000000E+01  1.80000000E+01  0.00000000E+00
  7.00000000E+01  1.80000000E+01  0.00000000E+00
  8.00000000E+01  1.80000000E+01  0.00000000E+00
  9.00000000E+01  1.80000000E+01  0.00000000E+00
  1.00000000E+02  1.80000000E+01  0.00000000E+00
  1.10000000E+02  1.80000000E+01  0.00000000E+00
  1.20000000E+02  1.80000000E+01  0.00000000E+00
  1.30000000E+02  1.80000000E+01  0.00000000E+00
  1.40000000E+02  1.80000000E+01  0.00000000E+00
  1.50000000E+02  1.80000000E+01  0.00000000E+00
  1.60000000E+02  1.80000000E+01  0.00000000E+00
  1.70000000E+02  1.80000000E+01  0.00000000E+00
  1.80000000E+02  1.80000000E+01  0.00000000E+00
  1.90000000E+02  1.80000000E+01  0.00000000E+00
  2.00000000E+02  1.80000000E+01  0.00000000E+00
  2.10000000E+02  1.80000000E+01  0.00000000E+00
  2.20000000E+02  1.80000000E+01  0.00000000E+00
  2.30000000E+02  1.80000000E+01  0.00000000E+00
  2.40000000E+02  1.80000000E+01  0.00000000E+00
  2.50000000E+02  1.80000000E+01  0.00000000E+00
  2.60000000E+02  1.80000000E+01  0.00000000E+00
  2.70000000E+02  1.80000000E+01  0.00000000E+00
  2.80000000E+02  1.80000000E+01  0.00000000E+00
  2.90000000E+02  1.80000000E+01  0.00000000E+00
  3.00000000E+02  1.80000000E+01  0.00000000E+00
  3.10000000E+02  1.80000000E+01  0.00000000E+00
  3.20000000E+02  1.80000000E+01  0.00000000E+00
  3.30000000E+02  1.80000000E+01  0.00000000E+00
  3.40000000E+02  1.80000000E+01  0.00000000E+00
  3.50000000E+02  1.80000000E+01  0.00000000E+00
  3.60000000E+02  1.80000000E+01  0.00000000E+00
  3.70000000E+02  1.80000000E+01  0.00000000E+00
  3.80000000E+02  1.80000000E+01  0.00000000E+00
  3.90000000E+02  1.80000000E+01  0.00000000E+00
  4.00000000E+02  1.80000000E+01  0.00000000E+00
  4.10000000E+02  1.80000000E+01  0.00000000E+00
  4.20000000E+02  1.80000000E+01  0.00000000E+00
  4.30000000E+02  1.80000000E+01  0.00000000E+00
  4.40000000E+02  1.80000000E+01  0.00000000E+00
  4.50000000E+02  1.80000000E+01  0.00000000E+00
  4.60000000E+02  1.80000000E+01  0.00000000E+00
  4.70000000E+02  1.80000000E+01  0.00000000E+00
  4.80000000E+02  1.80000000E+01  0.00000000E+00
  4.90000000E+02  1.80000000E+01  0.00000000E+00
  5.00000000E+02  1.80000000E+01  0.00000000E+00
  5.10000000E+02  1.80000000E+01  0.00000000E+00
  5.20000000E+02  1.80000000E+01  0.00000000E+00
  5.30000000E+02  1.80000000E+01  0.00000000E+00
  5.40000000E+02  1.80000000E+01  0.00000000E+00
  5.50000000E+02  1.80000000E+01  0.00000000E+00
  5.60000000E+02  1.80000000E+01  0.00000000E+00
  5.70000000E+02  1.80000000E+01  0.00000000E+00
  5.80000000E+02  1.80000000E+01  0.00000000E+00
  5.90000000E+02  1.80000000E+01  0.00000000E+00
  6.00000000E+02  1.80000000E+01  0.00000000E+00
  6.10000000E+02  1.80000000E+01  0.00000000E+00
  6.20000000E+02  1.80000000E+01  0.00000000E+00
  6.30000000E+02  1.80000000E+01  0.00000000E+00
  6.40000000E+02  1.80000000E+01  0.00000000E+00
  6.50000000E+02  1.80000000E+01  0.00000000E+00
  6.60000000E+02  1.80000000E+01  0.00000000E+00
  6.70000000E+02  1.80000000E+01  0.00000000E+00
  6.80000000E+02  1.80000000E+01  0.00000000E+00
  6.90000000E+02  1.80000000E+01  0.00000000E+00
  7.00000000E+02  1.80000000E+01  0.00000000E+00
  7.10000000E+02  1.80000000E+01  0.00000000E+00
  7.20000000E+02  1.80000000E+01  0.00000000E+00
  7.30000000E+02  1.80000000E+01  0.00000000E+00
  7.40000000E+02  1.80000000E+01  0.00000000E+00
  7.50000000E+02  1.80000000E+01  0.00000000E+00
  7.60000000E+02  1.80000000E+01  0.00000000E+00
  7.70000000E+02  1.80000000E+01  0.00000000E+00
  7.80000000E+02  1.80000000E+01  0.00000000E+00
  7.90000000E+02  1.80000000E+01  0.00000000E+00
  8.00000000E+02  1.80000000E+01  0.00000000E+00
  8.10000000E+02  1.80000000E+01  0.00000000E+00
  8.20000000E+02  1.80000000E+01  0.00000000E+00
  8.30000000E+02  1.80000000E+01  0.00000000E+00
  8.40000000E+02  1.80000000E+01  0.00000000E+00
  8.50000000E+02  1.80000000E+01  0.00000000E+00
  8.60000000E+02  1.80000000E+01  0.00000000E+00
  8.70000000E+02  1.80000000E+01  0.00000000E+00
  8.80000000E+02  1.80000000E+01  0.00000000E+00
  8.90000000E+02  1.80000000E+01  0.00000000E+00
  9.00000000E+02  1.80000000E+01  0.00000000E+00
  9.10000000E+02  1.80000000E+01  0.00000000E+00
  9.20000000E+02  1.80000000E+01  0.00000000E+00
  9.30000000E+02  1.80000000E+01  0.00000000E+00
  9.40000000E+02  1.80000000E+01  0.00000000E+00
  9.50000000E+02  1.80000000E+01  0.00000000E+00
  9.60000000E+02  1.80000000E+01  0.00000000E+00
  9.70000000E+02  1.80000000E+01  0.00000000E+00
  9.80000000E+02  1.80000000E+01  0.00000000E+00
  9.90000000E+02  1.80000000E+01  0.00000000E+00
  1.00000000E+03  1.80000000E+01  0.00000000E+00
  0.00000000E+00  2.00000000E+01  0.00000000E+00
  1.00000000E+01  2.00000000E+01  0.00000000E+00
  2.00000000E+01  2.00000000E+01  0.00000000E+00
  3.00000000E+01  2.00000000E+01  0.00000000E+00
  4.00000000E+01  2.00000000E+01  0.00000000E+00
  5.00000000E+01  2.00000000E+01  0.00000000E+00
  6.00000000E+01  2.00000000E+01  0.00000000E+00
  7.00000000E+01  2.00000000E+01  0.00000000E+00
  8.00000000E+01  2.00000000E+01  0.00000000E+00
  9.00000000E+01  2.00000000E+01  0.00000000E+00
  1.00000000E+02  2.00000000E+01  0.00000000E+00
  1.10000000E+02  2.00000000E+01  0.00000000E+00
  1.20000000E+02  2.00000000E+01  0.00000000E+00
  1.30000000E+02  2.00000000E+01  0.00000000E+00
  1.40000000E+02  2.00000000E+01  0.00000000E+00
  1.50000000E+02  2.00000000E+01  0.00000000E+00
  1.60000000E+02  2.00000000E+01  0.00000000E+00
  1.70000000E+02  2.00000000E+01  0.00000000E+00
  1.80000000E+02  2.00000000E+01  0.00000000E+00
  1.90000000E+02  2.00000000E+01  0.00000000E+00
  2.00000000E+02  2.00000000E+01  0.00000000E+00
  2.10000000E+02  2.00000000E+01  0.00000000E+00
  2.20000000E+02  2.00000000E+01  0.00000000E+00
  2.30000000E+02  2.00000000E+01  0.00000000E+00
  2.40000000E+02  2.00000000E+01  0.00000000E+00
  2.50000000E+02  2.00000000E+01  0.00000000E+00
  2.60000000E+02  2.00000000E+01  0.00000000E+00
  2.70000000E+02  2.00000000E+01  0.00000000E+00
  2.80000000E+02  2.00000000E+01  0.00000000E+00
  2.90000000E+02  2.00000000E+01  0.00000000E+00
  3.00000000E+02  2.00000000E+01  0.00000000E+00
  3.10000000E+02  2.00000000E+01  0.00000000E+00
  3.20000000E+02  2.00000000E+01  0.00000000E+00
  3.30000000E+02  2.00000000E+01  0.00000000E+00
  3.40000000E+02  2.00000000E+01  0.00000000E+00
  3.50000000E+02  2.00000000E+01  0.00000000E+00
  3.60000000E+02  2.00000000E+01  0.00000000E+00
  3.70000000E+02  2.00000000E+01  0.00000000E+00
  3.80000000E+02  2.00000000E+01  0.00000000E+00
  3.90000000E+02  2.00000000E+01  0.00000000E+00
  4.00000000E+02  2.00000000E+01  0.00000000E+00
  4.10000000E+02  2.00000000E+01  0.00000000E+00
  4.20000000E+02  2.00000000E+01  0.00000000E+00
  4.30000000E+02  2.00000000E+01  0.00000000E+00
  4.40000000E+02  2.00000000E+01  0.00000000E+00
  4.50000000E+02  2.00000000E+01  0.00000000E+00
  4.60000000E+02  2.00000000E+01  0.00000000E+00
  4.70000000E+02  2.00000000E+01  0.00000000E+00
  4.80000000E+02  2.00000000E+01  0.00000000E+00
  4.90000000E+02  2.00000000E+01  0.00000000E+00
  5.00000000E+02  2.00000000E+01  0.00000000E+00
  5.10000000E+02  2.00000000E+01  0.00000000E+00
  5.20000000E+02  2.00000000E+01  0.00000000E+00
  5.30000000E+02  2.00000000E+01  0.00000000E+00
  5.40000000E+02  2.00000000E+01  0.00000000E+00
  5.50000000E+02  2.00000000E+01  0.00000000E+00
  5.60000000E+02  2.00000000E+01  0.00000000E+00
  5.70000000E+02  2.00000000E+01  0.00000000E+00
  5.80000000E+02  2.00000000E+01  0.00000000E+00
  5.90000000E+02  2.00000000E+01  0.00000000E+00
  6.00000000E+02  2.00000000E+01  0.00000000E+00
  6.10000000E+02  2.00000000E+01  0.00000000E+00
  6.20000000E+02  2.00000000E+01  0.00000000E+00
  6.30000000E+02  2.00000000E+01  0.00000000E+00
  6.40000000E+02  2.00000000E+01  0.00000000E+00
  6.50000000E+02  2.00000000E+01  0.00000000E+00
  6.60000000E+02  2.00000000E+01  0.00000000E+00
  6.70000000E+02  2.00000000E+01  0.00000000E+00
  6.80000000E+02  2.00000000E+01  0.00000000E+00
  6.90000000E+02  2.00000000E+01  0.00000000E+00
  7.00000000E+02  2.00000000E+01  0.00000000E+00
  7.10000000E+02  2.00000000E+01  0.00000000E+00
  7.20000000E+02  2.00000000E+01  0.00000000E+00
  7.30000000E+02  2.00000000E+01  0.00000000E+00
  7.40000000E+02  2.00000000E+01  0.00000000E+00
  7.50000000E+02  2.00000000E+01  0.00000000E+00
  7.60000000E+02  2.00000000E+01  0.00000000E+00
  7.70000000E+02  2.00000000E+01  0.00000000E+00
  7.80000000E+02  2.00000000E+01  0.00000000E+00
  7.90000000E+02  2.00000000E+01  0.00000000E+00
  8.00000000E+02  2.00000000E+01  0.00000000E+00
  8.10000000E+02  2.00000000E+01  0.00000000E+00
  8.20000000E+02  2.00000000E+01  0.00000000E+00
  8.30000000E+02  2.00000000E+01  0.00000000E+00
  8.40000000E+02  2.00000000E+01  0.00000000E+00
  8.50000000E+02  2.00000000E+01  0.00000000E+00
  8.60000000E+02  2.00000000E+01  0.00000000E+00
  8.70000000E+02  2.00000000E+01  0.00000000E+00
  8.80000000E+02  2.00000000E+01  0.00000000E+00
  8.90000000E+02  2.00000000E+01  0.00000000E+00
  9.00000000E+02  2.00000000E+01  0.00000000E+00
  9.10000000E+02  2.00000000E+01  0.00000000E+00
  9.20000000E+02  2.00000000E+01  0.00000000E+00
  9.30000000E+02  2.00000000E+01  0.00000000E+00
  9.40000000E+02  2.00000000E+01  0.00000000E+00
  9.50000000E+02  2.00000000E+01  0.00000000E+00
  9.60000000E+02  2.00000000E+01  0.00000000E+00
  9.70000000E+02  2.00000000E+01  0.00000000E+00
  9.80000000E+02  2.00000000E+01  0.00000000E+00
  9.90000000E+02  2.00000000E+01  0.00000000E+00
  1.00000000E+03  2.00000000E+01  0.00000000E+00
  0.00000000E+00  2.20000000E+01  0.00000000E+00
  1.00000000E+01  2.20000000E+01  0.00000000E+00
  2.00000000E+01  2.20000000E+01  0.00000000E+00
  3.00000000E+01  2.20000000E+01  0.00000000E+00
  4.00000000E+01  2.20000000E+01  0.00000000E+00
  5.00000000E+01  2.20000000E+01  0.00000000E+00
  6.00000000E+01  2.20000000E+01  0.00000000E+00
  7.00000000E+01  2.20000000E+01  0.00000000E+00
  8.00000000E+01  2.20000000E+01  0.00000000E+00
  9.00000000E+01  2.20000000E+01  0.00000000E+00
  1.00000000E+02  2.20000000E+01  0.00000000E+00
  1.10000000E+02  2.20000000E+01  0.00000000E+00
  1.20000000E+02  2.20000000E+01  0.00000000E+00
  1.30000000E+02  2.20000000E+01  0.00000000E+00
  1.40000000E+02  2.20000000E+01  0.00000000E+00
  1.50000000E+02  2.20000000E+01  0.00000000E+00
  1.60000000E+02  2.20000000E+01  0.00000000E+00
  1.70000000E+02  2.20000000E+01  0.00000000E+00
  1.80000000E+02  2.20000000E+01  0.00000000E+00
  1.90000000E+02  2.20000000E+01  0.00000000E+00
  2.00000000E+02  2.20000000E+01  0.00000000E+00
  2.10000000E+02  2.20000000E+01  0.00000000E+00
  2.20000000E+02  2.20000000E+01  0.00000000E+00
  2.30000000E+02  2.20000000E+01  0.00000000E+00
  2.40000000E+02  2.20000000E+01  0.00000000E+00
  2.50000000E+02  2.20000000E+01  0.00000000E+00
  2.60000000E+02  2.20000000E+01  0.00000000E+00
  2.70000000E+02  2.20000000E+01  0.00000000E+00
  2.80000000E+02  2.20000000E+01  0.00000000E+00
  2.90000000E+02  2.20000000E+01  0.00000000E+00
  3.00000000E+02  2.20000000E+01  0.00000000E+00
  3.10000000E+02  2.20000000E+01  0.00000000E+00
  3.20000000E+02  2.20000000E+01  0.00000000E+00
  3.30000000E+02  2.20000000E+01  0.00000000E+00
  3.40000000E+02  2.20000000E+01  0.00000000E+00
  3.50000000E+02  2.20000000E+01  0.00000000E+00
  3.60000000E+02  2.20000000E+01  0.00000000E+00
  3.70000000E+02  2.20000000E+01  0.00000000E+00
  3.80000000E+02  2.20000000E+01  0.00000000E+00
  3.90000000E+02  2.20000000E+01  0.00000000E+00
  4.00000000E+02  2.20000000E+01  0.00000000E+00
  4.10000000E+02  2.20000000E+01  0.00000000E+00
  4.20000000E+02  2.20000000E+01  0.00000000E+00
  4.30000000E+02  2.20000000E+01  0.00000000E+00
  4.40000000E+02  2.20000000E+01  0.00000000E+00
  4.50000000E+02  2.20000000E+01  0.00000000E+00
  4.60000000E+02  2.20000000E+01  0.00000000E+00
  4.70000000E+02  2.20000000E+01  0.00000000E+00
  4.80000000E+02  2.20000000E+01  0.00000000E+00
  4.90000000E+02  2.20000000E+01  0.00000000E+00
  5.00000000E+02  2.20000000E+01  0.00000000E+00
  5.10000000E+02  2.20000000E+01  0.00000000E+00
  5.20000000E+02  2.20000000E+01  0.00000000E+00
  5.30000000E+02  2.20000000E+01  0.00000000E+00
  5.40000000E+02  2.20000000E+01  0.00000000E+00
  5.50000000E+02  2.20000000E+01  0.00000000E+00
  5.60000000E+02  2.20000000E+01  0.00000000E+00
  5.70000000E+02  2.20000000E+01  0.00000000E+00
  5.80000000E+02  2.20000000E+01  0.00000000E+00
  5.90000000E+02  2.20000000E+01  0.00000000E+00
  6.00000000E+02  2.20000000E+01  0.00000000E+00
  6.10000000E+02  2.20000000E+01  0.00000000E+00
  6.20000000E+02  2.20000000E+01  0.00000000E+00
  6.30000000E+02  2.20000000E+01  0.00000000E+00
  6.40000000E+02  2.20000000E+01  0.00000000E+00
  6.50000000E+02  2.20000000E+01  0.00000000E+00
  6.60000000E+02  2.20000000E+01  0.00000000E+00
  6.70000000E+02  2.20000000E+01  0.00000000E+00
  6.80000000E+02  2.20000000E+01  0.00000000E+00
  6.90000000E+02  2.20000000E+01  0.00000000E+00
  7.00000000E+02  2.20000000E+01  0.00000000E+00
  7.10000000E+02  2.20000000E+01  0.00000000E+00
  7.20000000E+02  2.20000000E+01  0.00000000E+00
  7.30000000E+02  2.20000000E+01  0.00000000E+00
  7.40000000E+02  2.20000000E+01  0.00000000E+00
  7.50000000E+02  2.20000000E+01  0.00000000E+00
  7.60000000E+02  2.20000000E+01  0.00000000E+00
  7.70000000E+02  2.20000000E+01  0.00000000E+00
  7.80000000E+02  2.20000000E+01  0.00000000E+00
  7.90000000E+02  2.20000000E+01  0.00000000E+00
  8.00000000E+02  2.20000000E+01  0.00000000E+00
  8.10000000E+02  2.20000000E+01  0.00000000E+00
  8.20000000E+02  2.20000000E+01  0.00000000E+00
  8.30000000E+02  2.20000000E+01  0.00000000E+00
  8.40000000E+02  2.20000000E+01  0.00000000E+00
  8.50000000E+02  2.20000000E+01  0.00000000E+00
  8.60000000E+02  2.20000000E+01  0.00000000E+00
  8.70000000E+02  2.20000000E+01  0.00000000E+00
  8.80000000E+02  2.20000000E+01  0.00000000E+00
  8.90000000E+02  2.20000000E+01  0.00000000E+00
  9.00000000E+02  2.20000000E+01  0.00000000E+00
  9.10000000E+02  2.20000000E+01  0.00000000E+00
  9.20000000E+02  2.20000000E+01  0.00000000E+00
  9.30000000E+02  2.20000000E+01  0.00000000E+00
  9.40000000E+02  2.20000000E+01  0.00000000E+00
  9.50000000E+02  2.20000000E+01  0.00000000E+00
  9.60000000E+02  2.20000000E+01  0.00000000E+00
  9.70000000E+02  2.20000000E+01  0.00000000E+00
  9.80000000E+02  2.20000000E+01  0.00000000E+00
  9.90000000E+02  2.20000000E+01  0.00000000E+00
  1.00000000E+03  2.20000000E+01  0.00000000E+00
  0.00000000E+00  2.40000000E+01  0.00000000E+00
  1.00000000E+01  2.40000000E+01  0.00000000E+00
  2.00000000E+01  2.40000000E+01  0.00000000E+00
  3.00000000E+01  2.40000000E+01  0.00000000E+00
  4.00000000E+01  2.40000000E+01  0.00000000E+00
  5.00000000E+01  2.40000000E+01  0.00000000E+00
  6.00000000E+01  2.40000000E+01  0.00000000E+00
  7.00000000E+01  2.40000000E+01  0.00000000E+00
  8.00000000E+01  2.40000000E+01  0.00000000E+00
  9.00000000E+01  2.40000000E+01  0.00000000E+00
  1.00000000E+02  2.40000000E+01  0.00000000E+00
  1.10000000E+02  2.40000000E+01  0.00000000E+00
  1.20000000E+02  2.40000000E+01  0.00000000E+00
  1.30000000E+02  2.40000000E+01  0.00000000E+00
  1.40000000E+02  2.40000000E+01  0.00000000E+00
  1.50000000E+02  2.40000000E+01  0.00000000E+00
  1.60000000E+02  2.40000000E+01  0.00000000E+00
  1.70000000E+02  2.40000000E+01  0.00000000E+00
  1.80000000E+02  2.40000000E+01  0.00000000E+00
  1.90000000E+02  2.40000000E+01  0.00000000E+00
  2.00000000E+02  2.40000000E+01  0.00000000E+00
  2.10000000E+02  2.40000000E+01  0.00000000E+00
  2.20000000E+02  2.40000000E+01  0.00000000E+00
  2.30000000E+02  2.40000000E+01  0.00000000E+00
  2.40000000E+02  2.40000000E+01  0.00000000E+00
  2.50000000E+02  2.40000000E+01  0.00000000E+00
  2.60000000E+02  2.40000000E+01  0.00000000E+00
  2.70000000E+02  2.40000000E+01  0.00000000E+00
  2.80000000E+02  2.40000000E+01  0.00000000E+00
  2.90000000E+02  2.40000000E+01  0.00000000E+00
  3.00000000E+02  2.40000000E+01  0.00000000E+00
  3.10000000E+02  2.40000000E+01  0.00000000E+00
  3.20000000E+02  2.40000000E+01  0.00000000E+00
  3.30000000E+02  2.40000000E+01  0.00000000E+00
  3.40000000E+02  2.40000000E+01  0.00000000E+00
  3.50000000E+02  2.40000000E+01  0.00000000E+00
  3.60000000E+02  2.40000000E+01  0.00000000E+00
  3.70000000E+02  2.40000000E+01  0.00000000E+00
  3.80000000E+02  2.40000000E+01  0.00000000E+00
  3.90000000E+02  2.40000000E+01  0.00000000E+00
  4.00000000E+02  2.40000000E+01  0.00000000E+00
  4.10000000E+02  2.40000000E+01  0.00000000E+00
  4.20000000E+02  2.40000000E+01  0.00000000E+00
  4.30000000E+02  2.40000000E+01  0.00000000E+00
  4.40000000E+02  2.40000000E+01  0.00000000E+00
  4.50000000E+02  2.40000000E+01  0.00000000E+00
  4.60000000E+02  2.40000000E+01  0.00000000E+00
  4.70000000E+02  2.40000000E+01  0.00000000E+00
  4.80000000E+02  2.40000000E+01  0.00000000E+00
  4.90000000E+02  2.40000000E+01  0.00000000E+00
  5.00000000E+02  2.40000000E+01  0.00000000E+00
  5.10000000E+02  2.40000000E+01  0.00000000E+00
  5.20000000E+02  2.40000000E+01  0.00000000E+00
  5.30000000E+02  2.40000000E+01  0.00000000E+00
  5.40000000E+02  2.40000000E+01  0.00000000E+00
  5.50000000E+02  2.40000000E+01  0.00000000E+00
  5.60000000E+02  2.40000000E+01  0.00000000E+00
  5.70000000E+02  2.40000000E+01  0.00000000E+00
  5.80000000E+02  2.40000000E+01  0.00000000E+00
  5.90000000E+02  2.40000000E+01  0.00000000E+00
  6.00000000E+02  2.40000000E+01  0.00000000E+00
  6.10000000E+02  2.40000000E+01  0.00000000E+00
  6.20000000E+02  2.40000000E+01  0.00000000E+00
  6.30000000E+02  2.40000000E+01  0.00000000E+00
  6.40000000E+02  2.40000000E+01  0.00000000E+00
  6.50000000E+02  2.40000000E+01  0.00000000E+00
  6.60000000E+02  2.40000000E+01  0.00000000E+00
  6.70000000E+02  2.40000000E+01  0.00000000E+00
  6.80000000E+02  2.40000000E+01  0.00000000E+00
  6.90000000E+02  2.40000000E+01  0.00000000E+00
  7.00000000E+02  2.40000000E+01  0.00000000E+00
  7.10000000E+02  2.40000000E+01  0.00000000E+00
  7.20000000E+02  2.40000000E+01  0.00000000E+00
  7.30000000E+02  2.40000000E+01  0.00000000E+00
  7.40000000E+02  2.40000000E+01  0.00000000E+00
  7.50000000E+02  2.40000000E+01  0.00000000E+00
  7.60000000E+02  2.40000000E+01  0.00000000E+00
  7.70000000E+02  2.40000000E+01  0.00000000E+00
  7.80000000E+02  2.40000000E+01  0.00000000E+00
  7.90000000E+02  2.40000000E+01  0.00000000E+00
  8.00000000E+02  2.40000000E+01  0.00000000E+00
  8.10000000E+02  2.40000000E+01  0.00000000E+00
  8.20000000E+02  2.40000000E+01  0.00000000E+00
  8.30000000E+02  2.40000000E+01  0.00000000E+00
  8.40000000E+02  2.40000000E+01  0.00000000E+00
  8.50000000E+02  2.40000000E+01  0.00000000E+00
  8.60000000E+02  2.40000000E+01  0.00000000E+00
  8.70000000E+02  2.40000000E+01  0.00000000E+00
  8.80000000E+02  2.40000000E+01  0.00000000E+00
  8.90000000E+02  2.40000000E+01  0.00000000E+00
  9.00000000E+02  2.40000000E+01  0.00000000E+00
  9.10000000E+02  2.40000000E+01  0.00000000E+00
  9.20000000E+02  2.40000000E+01  0.00000000E+00
  9.30000000E+02  2.40000000E+01  0.00000000E+00
  9.40000000E+02  2.40000000E+01  0.00000000E+00
  9.50000000E+02  2.40000000E+01  0.00000000E+00
  9.60000000E+02  2.40000000E+01  0.00000000E+00
  9.70000000E+02  2.40000000E+01  0.00000000E+00
  9.80000000E+02  2.40000000E+01  0.00000000E+00
  9.90000000E+02  2.40000000E+01  0.00000000E+00
  1.00000000E+03  2.40000000E+01  0.00000000E+00
  0.00000000E+00  2.60000000E+01  0.00000000E+00
  1.00000000E+01  2.60000000E+01  0.00000000E+00
  2.00000000E+01  2.60000000E+01  0.00000000E+00
  3.00000000E+01  2.60000000E+01  0.00000000E+00
  4.00000000E+01  2.60000000E+01  0.00000000E+00
  5.00000000E+01  2.60000000E+01  0.00000000E+00
  6.00000000E+01  2.60000000E+01  0.00000000E+00
  7.00000000E+01  2.60000000E+01  0.00000000E+00
  8.00000000E+01  2.60000000E+01  0.00000000E+00
  9.00000000E+01  2.60000000E+01  0.00000000E+00
  1.00000000E+02  2.60000000E+01  0.00000000E+00
  1.10000000E+02  2.60000000E+01  0.00000000E+00
  1.20000000E+02  2.60000000E+01  0.00000000E+00
  1.30000000E+02  2.60000000E+01  0.00000000E+00
  1.40000000E+02  2.60000000E+01  0.00000000E+00
  1.50000000E+02  2.60000000E+01  0.00000000E+00
  1.60000000E+02  2.60000000E+01  0.00000000E+00
  1.70000000E+02  2.60000000E+01  0.00000000E+00
  1.80000000E+02  2.60000000E+01  0.00000000E+00
  1.90000000E+02  2.60000000E+01  0.00000000E+00
  2.00000000E+02  2.60000000E+01  0.00000000E+00
  2.10000000E+02  2.60000000E+01  0.00000000E+00
  2.20000000E+02  2.60000000E+01  0.00000000E+00
  2.30000000E+02  2.60000000E+01  0.00000000E+00
  2.40000000E+02  2.60000000E+01  0.00000000E+00
  2.50000000E+02  2.60000000E+01  0.00000000E+00
  2.60000000E+02  2.60000000E+01  0.00000000E+00
  2.70000000E+02  2.60000000E+01  0.00000000E+00
  2.80000000E+02  2.60000000E+01  0.00000000E+00
  2.90000000E+02  2.60000000E+01  0.00000000E+00
  3.00000000E+02  2.60000000E+01  0.00000000E+00
  3.10000000E+02  2.60000000E+01  0.00000000E+00
  3.20000000E+02  2.60000000E+01  0.00000000E+00
  3.30000000E+02  2.60000000E+01  0.00000000E+00
  3.40000000E+02  2.60000000E+01  0.00000000E+00
  3.50000000E+02  2.60000000E+01  0.00000000E+00
  3.60000000E+02  2.60000000E+01  0.00000000E+00
  3.70000000E+02  2.60000000E+01  0.00000000E+00
  3.80000000E+02  2.60000000E+01  0.00000000E+00
  3.90000000E+02  2.60000000E+01  0.00000000E+00
  4.00000000E+02  2.60000000E+01  0.00000000E+00
  4.10000000E+02  2.60000000E+01  0.00000000E+00
  4.20000000E+02  2.60000000E+01  0.00000000E+00
  4.30000000E+02  2.60000000E+01  0.00000000E+00
  4.40000000E+02  2.60000000E+01  0.00000000E+00
  4.50000000E+02  2.60000000E+01  0.00000000E+00
  4.60000000E+02  2.60000000E+01  0.00000000E+00
  4.70000000E+02  2.60000000E+01  0.00000000E+00
  4.80000000E+02  2.60000000E+01  0.00000000E+00
  4.90000000E+02  2.60000000E+01  0.00000000E+00
  5.00000000E+02  2.60000000E+01  0.00000000E+00
  5.10000000E+02  2.60000000E+01  0.00000000E+00
  5.20000000E+02  2.60000000E+01  0.00000000E+00
  5.30000000E+02  2.60000000E+01  0.00000000E+00
  5.40000000E+02  2.60000000E+01  0.00000000E+00
  5.50000000E+02  2.60000000E+01  0.00000000E+00
  5.60000000E+02  2.60000000E+01  0.00000000E+00
  5.70000000E+02  2.60000000E+01  0.00000000E+00
  5.80000000E+02  2.60000000E+01  0.00000000E+00
  5.90000000E+02  2.60000000E+01  0.00000000E+00
  6.00000000E+02  2.60000000E+01  0.00000000E+00
  6.10000000E+02  2.60000000E+01  0.00000000E+00
  6.20000000E+02  2.60000000E+01  0.00000000E+00
  6.30000000E+02  2.60000000E+01  0.00000000E+00
  6.40000000E+02  2.60000000E+01  0.00000000E+00
  6.50000000E+02  2.60000000E+01  0.00000000E+00
  6.60000000E+02  2.60000000E+01  0.00000000E+00
  6.70000000E+02  2.60000000E+01  0.00000000E+00
  6.80000000E+02  2.60000000E+01  0.00000000E+00
  6.90000000E+02  2.60000000E+01  0.00000000E+00
  7.00000000E+02  2.60000000E+01  0.00000000E+00
  7.10000000E+02  2.60000000E+01  0.00000000E+00
  7.20000000E+02  2.60000000E+01  0.00000000E+00
  7.30000000E+02  2.60000000E+01  0.00000000E+00
  7.40000000E+02  2.60000000E+01  0.00000000E+00
  7.50000000E+02  2.60000000E+01  0.00000000E+00
  7.60000000E+02  2.60000000E+01  0.00000000E+00
  7.70000000E+02  2.60000000E+01  0.00000000E+00
  7.80000000E+02  2.60000000E+01  0.00000000E+00
  7.90000000E+02  2.60000000E+01  0.00000000E+00
  8.00000000E+02  2.60000000E+01  0.00000000E+00
  8.10000000E+02  2.60000000E+01  0.00000000E+00
  8.20000000E+02  2.60000000E+01  0.00000000E+00
  8.30000000E+02  2.60000000E+01  0.00000000E+00
  8.40000000E+02  2.60000000E+01  0.00000000E+00
  8.50000000E+02  2.60000000E+01  0.00000000E+00
  8.60000000E+02  2.60000000E+01  0.00000000E+00
  8.70000000E+02  2.60000000E+01  0.00000000E+00
  8.80000000E+02  2.60000000E+01  0.00000000E+00
  8.90000000E+02  2.60000000E+01  0.00000000E+00
  9.00000000E+02  2.60000000E+01  0.00000000E+00
  9.10000000E+02  2.60000000E+01  0.00000000E+00
  9.20000000E+02  2.60000000E+01  0.00000000E+00
  9.30000000E+02  2.60000000E+01  0.00000000E+00
  9.40000000E+02  2.60000000E+01  0.00000000E+00
  9.50000000E+02  2.60000000E+01  0.00000000E+00
  9.60000000E+02  2.60000000E+01  0.00000000E+00
  9.70000000E+02  2.60000000E+01  0.00000000E+00
  9.80000000E+02  2.60000000E+01  0.00000000E+00
  9.90000000E+02  2.60000000E+01  0.00000000E+00
  1.00000000E+03  2.60000000E+01  0.00000000E+00
  0.00000000E+00  2.80000000E+01  0.00000000E+00
  1.00000000E+01  2.80000000E+01  0.00000000E+00
  2.00000000E+01  2.80000000E+01  0.00000000E+00
  3.00000000E+01  2.80000000E+01  0.00000000E+00
  4.00000000E+01  2.80000000E+01  0.00000000E+00
  5.00000000E+01  2.80000000E+01  0.00000000E+00
  6.00000000E+01  2.80000000E+01  0.00000000E+00
  7.00000000E+01  2.80000000E+01  0.00000000E+00
  8.00000000E+01  2.80000000E+01  0.00000000E+00
  9.00000000E+01  2.80000000E+01  0.00000000E+00
  1.00000000E+02  2.80000000E+01  0.00000000E+00
  1.10000000E+02  2.80000000E+01  0.00000000E+00
  1.20000000E+02  2.80000000E+01  0.00000000E+00
  1.30000000E+02  2.80000000E+01  0.00000000E+00
  1.40000000E+02  2.80000000E+01  0.00000000E+00
  1.50000000E+02  2.80000000E+01  0.00000000E+00
  1.60000000E+02  2.80000000E+01  0.00000000E+00
  1.70000000E+02  2.80000000E+01  0.00000000E+00
  1.80000000E+02  2.80000000E+01  0.00000000E+00
  1.90000000E+02  2.80000000E+01  0.00000000E+00
  2.00000000E+02  2.80000000E+01  0.00000000E+00
  2.10000000E+02  2.80000000E+01  0.00000000E+00
  2.20000000E+02  2.80000000E+01  0.00000000E+00
  2.30000000E+02  2.80000000E+01  0.00000000E+00
  2.40000000E+02  2.80000000E+01  0.00000000E+00
  2.50000000E+02  2.80000000E+01  0.00000000E+00
  2.60000000E+02  2.80000000E+01  0.00000000E+00
  2.70000000E+02  2.80000000E+01  0.00000000E+00
  2.80000000E+02  2.80000000E+01  0.00000000E+00
  2.90000000E+02  2.80000000E+01  0.00000000E+00
  3.00000000E+02  2.80000000E+01  0.00000000E+00
  3.10000000E+02  2.80000000E+01  0.00000000E+00
  3.20000000E+02  2.80000000E+01  0.00000000E+00
  3.30000000E+02  2.80000000E+01  0.00000000E+00
  3.40000000E+02  2.80000000E+01  0.00000000E+00
  3.50000000E+02  2.80000000E+01  0.00000000E+00
  3.60000000E+02  2.80000000E+01  0.00000000E+00
  3.70000000E+02  2.80000000E+01  0.00000000E+00
  3.80000000E+02  2.80000000E+01  0.00000000E+00
  3.90000000E+02  2.80000000E+01  0.00000000E+00
  4.00000000E+02  2.80000000E+01  0.00000000E+00
  4.10000000E+02  2.80000000E+01  0.00000000E+00
  4.20000000E+02  2.80000000E+01  0.00000000E+00
  4.30000000E+02  2.80000000E+01  0.00000000E+00
  4.40000000E+02  2.80000000E+01  0.00000000E+00
  4.50000000E+02  2.80000000E+01  0.00000000E+00
  4.60000000E+02  2.80000000E+01  0.00000000E+00
  4.70000000E+02  2.80000000E+01  0.00000000E+00
  4.80000000E+02  2.80000000E+01  0.00000000E+00
  4.90000000E+02  2.80000000E+01  0.00000000E+00
  5.00000000E+02  2.80000000E+01  0.00000000E+00
  5.10000000E+02  2.80000000E+01  0.00000000E+00
  5.20000000E+02  2.80000000E+01  0.00000000E+00
  5.30000000E+02  2.80000000E+01  0.00000000E+00
  5.40000000E+02  2.80000000E+01  0.00000000E+00
  5.50000000E+02  2.80000000E+01  0.00000000E+00
  5.60000000E+02  2.80000000E+01  0.00000000E+00
  5.70000000E+02  2.80000000E+01  0.00000000E+00
  5.80000000E+02  2.80000000E+01  0.00000000E+00
  5.90000000E+02  2.80000000E+01  0.00000000E+00
  6.00000000E+02  2.80000000E+01  0.00000000E+00
  6.10000000E+02  2.80000000E+01  0.00000000E+00
  6.20000000E+02  2.80000000E+01  0.00000000E+00
  6.30000000E+02  2.80000000E+01  0.00000000E+00
  6.40000000E+02  2.80000000E+01  0.00000000E+00
  6.50000000E+02  2.80000000E+01  0.00000000E+00
  6.60000000E+02  2.80000000E+01  0.00000000E+00
  6.70000000E+02  2.80000000E+01  0.00000000E+00
  6.80000000E+02  2.80000000E+01  0.00000000E+00
  6.90000000E+02  2.80000000E+01  0.00000000E+00
  7.00000000E+02  2.80000000E+01  0.00000000E+00
  7.10000000E+02  2.80000000E+01  0.00000000E+00
  7.20000000E+02  2.80000000E+01  0.00000000E+00
  7.30000000E+02  2.80000000E+01  0.00000000E+00
  7.40000000E+02  2.80000000E+01  0.00000000E+00
  7.50000000E+02  2.80000000E+01  0.00000000E+00
  7.60000000E+02  2.80000000E+01  0.00000000E+00
  7.70000000E+02  2.80000000E+01  0.00000000E+00
  7.80000000E+02  2.80000000E+01  0.00000000E+00
  7.90000000E+02  2.80000000E+01  0.00000000E+00
  8.00000000E+02  2.80000000E+01  0.00000000E+00
  8.10000000E+02  2.80000000E+01  0.00000000E+00
  8.20000000E+02  2.80000000E+01  0.00000000E+00
  8.30000000E+02  2.80000000E+01  0.00000000E+00
  8.40000000E+02  2.80000000E+01  0.00000000E+00
  8.50000000E+02  2.80000000E+01  0.00000000E+00
  8.60000000E+02  2.80000000E+01  0.00000000E+00
  8.70000000E+02  2.80000000E+01  0.00000000E+00
  8.80000000E+02  2.80000000E+01  0.00000000E+00
  8.90000000E+02  2.80000000E+01  0.00000000E+00
  9.00000000E+02  2.80000000E+01  0.00000000E+00
  9.10000000E+02  2.80000000E+01  0.00000000E+00
  9.20000000E+02  2.80000000E+01  0.00000000E+00
  9.30000000E+02  2.80000000E+01  0.00000000E+00
  9.40000000E+02  2.80000000E+01  0.00000000E+00
  9.50000000E+02  2.80000000E+01  0.00000000E+00
  9.60000000E+02  2.80000000E+01  0.00000000E+00
  9.70000000E+02  2.80000000E+01  0.00000000E+00
  9.80000000E+02  2.80000000E+01  0.00000000E+00
  9.90000000E+02  2.80000000E+01  0.00000000E+00
  1.00000000E+03  2.80000000E+01  0.00000000E+00
  0.00000000E+00  3.00000000E+01  0.00000000E+00
  1.00000000E+01  3.00000000E+01  0.00000000E+00
  2.00000000E+01  3.00000000E+01  0.00000000E+00
  3.00000000E+01  3.00000000E+01  0.00000000E+00
  4.00000000E+01  3.00000000E+01  0.00000000E+00
  5.00000000E+01  3.00000000E+01  0.00000000E+00
  6.00000000E+01  3.00000000E+01  0.00000000E+00
  7.00000000E+01  3.00000000E+01  0.00000000E+00
  8.00000000E+01  3.00000000E+01  0.00000000E+00
  9.00000000E+01  3.00000000E+01  0.00000000E+00
  1.00000000E+02  3.00000000E+01  0.00000000E+00
  1.10000000E+02  3.00000000E+01  0.00000000E+00
  1.20000000E+02  3.00000000E+01  0.00000000E+00
  1.30000000E+02  3.00000000E+01  0.00000000E+00
  1.40000000E+02  3.00000000E+01  0.00000000E+00
  1.50000000E+02  3.00000000E+01  0.00000000E+00
  1.60000000E+02  3.00000000E+01  0.00000000E+00
  1.70000000E+02  3.00000000E+01  0.00000000E+00
  1.80000000E+02  3.00000000E+01  0.00000000E+00
  1.90000000E+02  3.00000000E+01  0.00000000E+00
  2.00000000E+02  3.00000000E+01  0.00000000E+00
  2.10000000E+02  3.00000000E+01  0.00000000E+00
  2.20000000E+02  3.00000000E+01  0.00000000E+00
  2.30000000E+02  3.00000000E+01  0.00000000E+00
  2.40000000E+02  3.00000000E+01  0.00000000E+00
  2.50000000E+02  3.00000000E+01  0.00000000E+00
  2.60000000E+02  3.00000000E+01  0.00000000E+00
  2.70000000E+02  3.00000000E+01  0.00000000E+00
  2.80000000E+02  3.00000000E+01  0.00000000E+00
  2.90000000E+02  3.00000000E+01  0.00000000E+00
  3.00000000E+02  3.00000000E+01  0.00000000E+00
  3.10000000E+02  3.00000000E+01  0.00000000E+00
  3.20000000E+02  3.00000000E+01  0.00000000E+00
  3.30000000E+02  3.00000000E+01  0.00000000E+00
  3.40000000E+02  3.00000000E+01  0.00000000E+00
  3.50000000E+02  3.00000000E+01  0.00000000E+00
  3.60000000E+02  3.00000000E+01  0.00000000E+00
  3.70000000E+02  3.00000000E+01  0.00000000E+00
  3.80000000E+02  3.00000000E+01  0.00000000E+00
  3.90000000E+02  3.00000000E+01  0.00000000E+00
  4.00000000E+02  3.00000000E+01  0.00000000E+00
  4.10000000E+02  3.00000000E+01  0.00000000E+00
  4.20000000E+02  3.00000000E+01  0.00000000E+00
  4.30000000E+02  3.00000000E+01  0.00000000E+00
  4.40000000E+02  3.00000000E+01  0.00000000E+00
  4.50000000E+02  3.00000000E+01  0.00000000E+00
  4.60000000E+02  3.00000000E+01  0.00000000E+00
  4.70000000E+02  3.00000000E+01  0.00000000E+00
  4.80000000E+02  3.00000000E+01  0.00000000E+00
  4.90000000E+02  3.00000000E+01  0.00000000E+00
  5.00000000E+02  3.00000000E+01  0.00000000E+00
  5.10000000E+02  3.00000000E+01  0.00000000E+00
  5.20000000E+02  3.00000000E+01  0.00000000E+00
  5.30000000E+02  3.00000000E+01  0.00000000E+00
  5.40000000E+02  3.00000000E+01  0.00000000E+00
  5.50000000E+02  3.00000000E+01  0.00000000E+00
  5.60000000E+02  3.00000000E+01  0.00000000E+00
  5.70000000E+02  3.00000000E+01  0.00000000E+00
  5.80000000E+02  3.00000000E+01  0.00000000E+00
  5.90000000E+02  3.00000000E+01  0.00000000E+00
  6.00000000E+02  3.00000000E+01  0.00000000E+00
  6.10000000E+02  3.00000000E+01  0.00000000E+00
  6.20000000E+02  3.00000000E+01  0.00000000E+00
  6.30000000E+02  3.00000000E+01  0.00000000E+00
  6.40000000E+02  3.00000000E+01  0.00000000E+00
  6.50000000E+02  3.00000000E+01  0.00000000E+00
  6.60000000E+02  3.00000000E+01  0.00000000E+00
  6.70000000E+02  3.00000000E+01  0.00000000E+00
  6.80000000E+02  3.00000000E+01  0.00000000E+00
  6.90000000E+02  3.00000000E+01  0.00000000E+00
  7.00000000E+02  3.00000000E+01  0.00000000E+00
  7.10000000E+02  3.00000000E+01  0.00000000E+00
  7.20000000E+02  3.00000000E+01  0.00000000E+00
  7.30000000E+02  3.00000000E+01  0.00000000E+00
  7.40000000E+02  3.00000000E+01  0.00000000E+00
  7.50000000E+02  3.00000000E+01  0.00000000E+00
  7.60000000E+02  3.00000000E+01  0.00000000E+00
  7.70000000E+02  3.00000000E+01  0.00000000E+00
  7.80000000E+02  3.00000000E+01  0.00000000E+00
  7.90000000E+02  3.00000000E+01  0.00000000E+00
  8.00000000E+02  3.00000000E+01  0.00000000E+00
  8.10000000E+02  3.00000000E+01  0.00000000E+00
  8.20000000E+02  3.00000000E+01  0.00000000E+00
  8.30000000E+02  3.00000000E+01  0.00000000E+00
  8.40000000E+02  3.00000000E+01  0.00000000E+00
  8.50000000E+02  3.00000000E+01  0.00000000E+00
  8.60000000E+02  3.00000000E+01  0.00000000E+00
  8.70000000E+02  3.00000000E+01  0.00000000E+00
  8.80000000E+02  3.00000000E+01  0.00000000E+00
  8.90000000E+02  3.00000000E+01  0.00000000E+00
  9.00000000E+02  3.00000000E+01  0.00000000E+00
  9.10000000E+02  3.00000000E+01  0.00000000E+00
  9.20000000E+02  3.00000000E+01  0.00000000E+00
  9.30000000E+02  3.00000000E+01  0.00000000E+00
  9.40000000E+02  3.00000000E+01  0.00000000E+00
  9.50000000E+02  3.00000000E+01  0.00000000E+00
  9.60000000E+02  3.00000000E+01  0.00000000E+00
  9.70000000E+02  3.00000000E+01  0.00000000E+00
  9.80000000E+02  3.00000000E+01  0.00000000E+00
  9.90000000E+02  3.00000000E+01  0.00000000E+00
  1.00000000E+03  3.00000000E+01  0.00000000E+00
  0.00000000E+00  3.20000000E+01  0.00000000E+00
  1.00000000E+01  3.20000000E+01  0.00000000E+00
  2.00000000E+01  3.20000000E+01  0.00000000E+00
  3.00000000E+01  3.20000000E+01  0.00000000E+00
  4.00000000E+01  3.20000000E+01  0.00000000E+00
  5.00000000E+01  3.20000000E+01  0.00000000E+00
  6.00000000E+01  3.20000000E+01  0.00000000E+00
  7.00000000E+01  3.20000000E+01  0.00000000E+00
  8.00000000E+01  3.20000000E+01  0.00000000E+00
  9.00000000E+01  3.20000000E+01  0.00000000E+00
  1.00000000E+02  3.20000000E+01  0.00000000E+00
  1.10000000E+02  3.20000000E+01  0.00000000E+00
  1.20000000E+02  3.20000000E+01  0.00000000E+00
  1.30000000E+02  3.20000000E+01  0.00000000E+00
  1.40000000E+02  3.20000000E+01  0.00000000E+00
  1.50000000E+02  3.20000000E+01  0.00000000E+00
  1.60000000E+02  3.20000000E+01  0.00000000E+00
  1.70000000E+02  3.20000000E+01  0.00000000E+00
  1.80000000E+02  3.20000000E+01  0.00000000E+00
  1.90000000E+02  3.20000000E+01  0.00000000E+00
  2.00000000E+02  3.20000000E+01  0.00000000E+00
  2.10000000E+02  3.20000000E+01  0.00000000E+00
  2.20000000E+02  3.20000000E+01  0.00000000E+00
  2.30000000E+02  3.20000000E+01  0.00000000E+00
  2.40000000E+02  3.20000000E+01  0.00000000E+00
  2.50000000E+02  3.20000000E+01  0.00000000E+00
  2.60000000E+02  3.20000000E+01  0.00000000E+00
  2.70000000E+02  3.20000000E+01  0.00000000E+00
  2.80000000E+02  3.20000000E+01  0.00000000E+00
  2.90000000E+02  3.20000000E+01  0.00000000E+00
  3.00000000E+02  3.20000000E+01  0.00000000E+00
  3.10000000E+02  3.20000000E+01  0.00000000E+00
  3.20000000E+02  3.20000000E+01  0.00000000E+00
  3.30000000E+02  3.20000000E+01  0.00000000E+00
  3.40000000E+02  3.20000000E+01  0.00000000E+00
  3.50000000E+02  3.20000000E+01  0.00000000E+00
  3.60000000E+02  3.20000000E+01  0.00000000E+00
  3.70000000E+02  3.20000000E+01  0.00000000E+00
  3.80000000E+02  3.20000000E+01  0.00000000E+00
  3.90000000E+02  3.20000000E+01  0.00000000E+00
  4.00000000E+02  3.20000000E+01  0.00000000E+00
  4.10000000E+02  3.20000000E+01  0.00000000E+00
  4.20000000E+02  3.20000000E+01  0.00000000E+00
  4.30000000E+02  3.20000000E+01  0.00000000E+00
  4.40000000E+02  3.20000000E+01  0.00000000E+00
  4.50000000E+02  3.20000000E+01  0.00000000E+00
  4.60000000E+02  3.20000000E+01  0.00000000E+00
  4.70000000E+02  3.20000000E+01  0.00000000E+00
  4.80000000E+02  3.20000000E+01  0.00000000E+00
  4.90000000E+02  3.20000000E+01  0.00000000E+00
  5.00000000E+02  3.20000000E+01  0.00000000E+00
  5.10000000E+02  3.20000000E+01  0.00000000E+00
  5.20000000E+02  3.20000000E+01  0.00000000E+00
  5.30000000E+02  3.20000000E+01  0.00000000E+00
  5.40000000E+02  3.20000000E+01  0.00000000E+00
  5.50000000E+02  3.20000000E+01  0.00000000E+00
  5.60000000E+02  3.20000000E+01  0.00000000E+00
  5.70000000E+02  3.20000000E+01  0.00000000E+00
  5.80000000E+02  3.20000000E+01  0.00000000E+00
  5.90000000E+02  3.20000000E+01  0.00000000E+00
  6.00000000E+02  3.20000000E+01  0.00000000E+00
  6.10000000E+02  3.20000000E+01  0.00000000E+00
  6.20000000E+02  3.20000000E+01  0.00000000E+00
  6.30000000E+02  3.20000000E+01  0.00000000E+00
  6.40000000E+02  3.20000000E+01  0.00000000E+00
  6.50000000E+02  3.20000000E+01  0.00000000E+00
  6.60000000E+02  3.20000000E+01  0.00000000E+00
  6.70000000E+02  3.20000000E+01  0.00000000E+00
  6.80000000E+02  3.20000000E+01  0.00000000E+00
  6.90000000E+02  3.20000000E+01  0.00000000E+00
  7.00000000E+02  3.20000000E+01  0.00000000E+00
  7.10000000E+02  3.20000000E+01  0.00000000E+00
  7.20000000E+02  3.20000000E+01  0.00000000E+00
  7.30000000E+02  3.20000000E+01  0.00000000E+00
  7.40000000E+02  3.20000000E+01  0.00000000E+00
  7.50000000E+02  3.20000000E+01  0.00000000E+00
  7.60000000E+02  3.20000000E+01  0.00000000E+00
  7.70000000E+02  3.20000000E+01  0.00000000E+00
  7.80000000E+02  3.20000000E+01  0.00000000E+00
  7.90000000E+02  3.20000000E+01  0.00000000E+00
  8.00000000E+02  3.20000000E+01  0.00000000E+00
  8.10000000E+02  3.20000000E+01  0.00000000E+00
  8.20000000E+02  3.20000000E+01  0.00000000E+00
  8.30000000E+02  3.20000000E+01  0.00000000E+00
  8.40000000E+02  3.20000000E+01  0.00000000E+00
  8.50000000E+02  3.20000000E+01  0.00000000E+00
  8.60000000E+02  3.20000000E+01  0.00000000E+00
  8.70000000E+02  3.20000000E+01  0.00000000E+00
  8.80000000E+02  3.20000000E+01  0.00000000E+00
  8.90000000E+02  3.20000000E+01  0.00000000E+00
  9.00000000E+02  3.20000000E+01  0.00000000E+00
  9.10000000E+02  3.20000000E+01  0.00000000E+00
  9.20000000E+02  3.20000000E+01  0.00000000E+00
  9.30000000E+02  3.20000000E+01  0.00000000E+00
  9.40000000E+02  3.20000000E+01  0.00000000E+00
  9.50000000E+02  3.20000000E+01  0.00000000E+00
  9.60000000E+02  3.20000000E+01  0.00000000E+00
  9.70000000E+02  3.20000000E+01  0.00000000E+00
  9.80000000E+02  3.20000000E+01  0.00000000E+00
  9.90000000E+02  3.20000000E+01  0.00000000E+00
  1.00000000E+03  3.20000000E+01  0.00000000E+00
  0.00000000E+00  3.40000000E+01  0.00000000E+00
  1.00000000E+01  3.40000000E+01  0.00000000E+00
  2.00000000E+01  3.40000000E+01  0.00000000E+00
  3.00000000E+01  3.40000000E+01  0.00000000E+00
  4.00000000E+01  3.40000000E+01  0.00000000E+00
  5.00000000E+01  3.40000000E+01  0.00000000E+00
  6.00000000E+01  3.40000000E+01  0.00000000E+00
  7.00000000E+01  3.40000000E+01  0.00000000E+00
  8.00000000E+01  3.40000000E+01  0.00000000E+00
  9.00000000E+01  3.40000000E+01  0.00000000E+00
  1.00000000E+02  3.40000000E+01  0.00000000E+00
  1.10000000E+02  3.40000000E+01  0.00000000E+00
  1.20000000E+02  3.40000000E+01  0.00000000E+00
  1.30000000E+02  3.40000000E+01  0.00000000E+00
  1.40000000E+02  3.40000000E+01  0.00000000E+00
  1.50000000E+02  3.40000000E+01  0.00000000E+00
  1.60000000E+02  3.40000000E+01  0.00000000E+00
  1.70000000E+02  3.40000000E+01  0.00000000E+00
  1.80000000E+02  3.40000000E+01  0.00000000E+00
  1.90000000E+02  3.40000000E+01  0.00000000E+00
  2.00000000E+02  3.40000000E+01  0.00000000E+00
  2.10000000E+02  3.40000000E+01  0.00000000E+00
  2.20000000E+02  3.40000000E+01  0.00000000E+00
  2.30000000E+02  3.40000000E+01  0.00000000E+00
  2.40000000E+02  3.40000000E+01  0.00000000E+00
  2.50000000E+02  3.40000000E+01  0.00000000E+00
  2.60000000E+02  3.40000000E+01  0.00000000E+00
  2.70000000E+02  3.40000000E+01  0.00000000E+00
  2.80000000E+02  3.40000000E+01  0.00000000E+00
  2.90000000E+02  3.40000000E+01  0.00000000E+00
  3.00000000E+02  3.40000000E+01  0.00000000E+00
  3.10000000E+02  3.40000000E+01  0.00000000E+00
  3.20000000E+02  3.40000000E+01  0.00000000E+00
  3.30000000E+02  3.40000000E+01  0.00000000E+00
  3.40000000E+02  3.40000000E+01  0.00000000E+00
  3.50000000E+02  3.40000000E+01  0.00000000E+00
  3.60000000E+02  3.40000000E+01  0.00000000E+00
  3.70000000E+02  3.40000000E+01  0.00000000E+00
  3.80000000E+02  3.40000000E+01  0.00000000E+00
  3.90000000E+02  3.40000000E+01  0.00000000E+00
  4.00000000E+02  3.40000000E+01  0.00000000E+00
  4.10000000E+02  3.40000000E+01  0.00000000E+00
  4.20000000E+02  3.40000000E+01  0.00000000E+00
  4.30000000E+02  3.40000000E+01  0.00000000E+00
  4.40000000E+02  3.40000000E+01  0.00000000E+00
  4.50000000E+02  3.40000000E+01  0.00000000E+00
  4.60000000E+02  3.40000000E+01  0.00000000E+00
  4.70000000E+02  3.40000000E+01  0.00000000E+00
  4.80000000E+02  3.40000000E+01  0.00000000E+00
  4.90000000E+02  3.40000000E+01  0.00000000E+00
  5.00000000E+02  3.40000000E+01  0.00000000E+00
  5.10000000E+02  3.40000000E+01  0.00000000E+00
  5.20000000E+02  3.40000000E+01  0.00000000E+00
  5.30000000E+02  3.40000000E+01  0.00000000E+00
  5.40000000E+02  3.40000000E+01  0.00000000E+00
  5.50000000E+02  3.40000000E+01  0.00000000E+00
  5.60000000E+02  3.40000000E+01  0.00000000E+00
  5.70000000E+02  3.40000000E+01  0.00000000E+00
  5.80000000E+02  3.40000000E+01  0.00000000E+00
  5.90000000E+02  3.40000000E+01  0.00000000E+00
  6.00000000E+02  3.40000000E+01  0.00000000E+00
  6.10000000E+02  3.40000000E+01  0.00000000E+00
  6.20000000E+02  3.40000000E+01  0.00000000E+00
  6.30000000E+02  3.40000000E+01  0.00000000E+00
  6.40000000E+02  3.40000000E+01  0.00000000E+00
  6.50000000E+02  3.40000000E+01  0.00000000E+00
  6.60000000E+02  3.40000000E+01  0.00000000E+00
  6.70000000E+02  3.40000000E+01  0.00000000E+00
  6.80000000E+02  3.40000000E+01  0.00000000E+00
  6.90000000E+02  3.40000000E+01  0.00000000E+00
  7.00000000E+02  3.40000000E+01  0.00000000E+00
  7.10000000E+02  3.40000000E+01  0.00000000E+00
  7.20000000E+02  3.40000000E+01  0.00000000E+00
  7.30000000E+02  3.40000000E+01  0.00000000E+00
  7.40000000E+02  3.40000000E+01  0.00000000E+00
  7.50000000E+02  3.40000000E+01  0.00000000E+00
  7.60000000E+02  3.40000000E+01  0.00000000E+00
  7.70000000E+02  3.40000000E+01  0.00000000E+00
  7.80000000E+02  3.40000000E+01  0.00000000E+00
  7.90000000E+02  3.40000000E+01  0.00000000E+00
  8.00000000E+02  3.40000000E+01  0.00000000E+00
  8.10000000E+02  3.40000000E+01  0.00000000E+00
  8.20000000E+02  3.40000000E+01  0.00000000E+00
  8.30000000E+02  3.40000000E+01  0.00000000E+00
  8.40000000E+02  3.40000000E+01  0.00000000E+00
  8.50000000E+02  3.40000000E+01  0.00000000E+00
  8.60000000E+02  3.40000000E+01  0.00000000E+00
  8.70000000E+02  3.40000000E+01  0.00000000E+00
  8.80000000E+02  3.40000000E+01  0.00000000E+00
  8.90000000E+02  3.40000000E+01  0.00000000E+00
  9.00000000E+02  3.40000000E+01  0.00000000E+00
  9.10000000E+02  3.40000000E+01  0.00000000E+00
  9.20000000E+02  3.40000000E+01  0.00000000E+00
  9.30000000E+02  3.40000000E+01  0.00000000E+00
  9.40000000E+02  3.40000000E+01  0.00000000E+00
  9.50000000E+02  3.40000000E+01  0.00000000E+00
  9.60000000E+02  3.40000000E+01  0.00000000E+00
  9.70000000E+02  3.40000000E+01  0.00000000E+00
  9.80000000E+02  3.40000000E+01  0.00000000E+00
  9.90000000E+02  3.40000000E+01  0.00000000E+00
  1.00000000E+03  3.40000000E+01  0.00000000E+00
  0.00000000E+00  3.60000000E+01  0.00000000E+00
  1.00000000E+01  3.60000000E+01  0.00000000E+00
  2.00000000E+01  3.60000000E+01  0.00000000E+00
  3.00000000E+01  3.60000000E+01  0.00000000E+00
  4.00000000E+01  3.60000000E+01  0.00000000E+00
  5.00000000E+01  3.60000000E+01  0.00000000E+00
  6.00000000E+01  3.60000000E+01  0.00000000E+00
  7.00000000E+01  3.60000000E+01  0.00000000E+00
  8.00000000E+01  3.60000000E+01  0.00000000E+00
  9.00000000E+01  3.60000000E+01  0.00000000E+00
  1.00000000E+02  3.60000000E+01  0.00000000E+00
  1.10000000E+02  3.60000000E+01  0.00000000E+00
  1.20000000E+02  3.60000000E+01  0.00000000E+00
  1.30000000E+02  3.60000000E+01  0.00000000E+00
  1.40000000E+02  3.60000000E+01  0.00000000E+00
  1.50000000E+02  3.60000000E+01  0.00000000E+00
  1.60000000E+02  3.60000000E+01  0.00000000E+00
  1.70000000E+02  3.60000000E+01  0.00000000E+00
  1.80000000E+02  3.60000000E+01  0.00000000E+00
  1.90000000E+02  3.60000000E+01  0.00000000E+00
  2.00000000E+02  3.60000000E+01  0.00000000E+00
  2.10000000E+02  3.60000000E+01  0.00000000E+00
  2.20000000E+02  3.60000000E+01  0.00000000E+00
  2.30000000E+02  3.60000000E+01  0.00000000E+00
  2.40000000E+02  3.60000000E+01  0.00000000E+00
  2.50000000E+02  3.60000000E+01  0.00000000E+00
  2.60000000E+02  3.60000000E+01  0.00000000E+00
  2.70000000E+02  3.60000000E+01  0.00000000E+00
  2.80000000E+02  3.60000000E+01  0.00000000E+00
  2.90000000E+02  3.60000000E+01  0.00000000E+00
  3.00000000E+02  3.60000000E+01  0.00000000E+00
  3.10000000E+02  3.60000000E+01  0.00000000E+00
  3.20000000E+02  3.60000000E+01  0.00000000E+00
  3.30000000E+02  3.60000000E+01  0.00000000E+00
  3.40000000E+02  3.60000000E+01  0.00000000E+00
  3.50000000E+02  3.60000000E+01  0.00000000E+00
  3.60000000E+02  3.60000000E+01  0.00000000E+00
  3.70000000E+02  3.60000000E+01  0.00000000E+00
  3.80000000E+02  3.60000000E+01  0.00000000E+00
  3.90000000E+02  3.60000000E+01  0.00000000E+00
  4.00000000E+02  3.60000000E+01  0.00000000E+00
  4.10000000E+02  3.60000000E+01  0.00000000E+00
  4.20000000E+02  3.60000000E+01  0.00000000E+00
  4.30000000E+02  3.60000000E+01  0.00000000E+00
  4.40000000E+02  3.60000000E+01  0.00000000E+00
  4.50000000E+02  3.60000000E+01  0.00000000E+00
  4.60000000E+02  3.60000000E+01  0.00000000E+00
  4.70000000E+02  3.60000000E+01  0.00000000E+00
  4.80000000E+02  3.60000000E+01  0.00000000E+00
  4.90000000E+02  3.60000000E+01  0.00000000E+00
  5.00000000E+02  3.60000000E+01  0.00000000E+00
  5.10000000E+02  3.60000000E+01  0.00000000E+00
  5.20000000E+02  3.60000000E+01  0.00000000E+00
  5.30000000E+02  3.60000000E+01  0.00000000E+00
  5.40000000E+02  3.60000000E+01  0.00000000E+00
  5.50000000E+02  3.60000000E+01  0.00000000E+00
  5.60000000E+02  3.60000000E+01  0.00000000E+00
  5.70000000E+02  3.60000000E+01  0.00000000E+00
  5.80000000E+02  3.60000000E+01  0.00000000E+00
  5.90000000E+02  3.60000000E+01  0.00000000E+00
  6.00000000E+02  3.60000000E+01  0.00000000E+00
  6.10000000E+02  3.60000000E+01  0.00000000E+00
  6.20000000E+02  3.60000000E+01  0.00000000E+00
  6.30000000E+02  3.60000000E+01  0.00000000E+00
  6.40000000E+02  3.60000000E+01  0.00000000E+00
  6.50000000E+02  3.60000000E+01  0.00000000E+00
  6.60000000E+02  3.60000000E+01  0.00000000E+00
  6.70000000E+02  3.60000000E+01  0.00000000E+00
  6.80000000E+02  3.60000000E+01  0.00000000E+00
  6.90000000E+02  3.60000000E+01  0.00000000E+00
  7.00000000E+02  3.60000000E+01  0.00000000E+00
  7.10000000E+02  3.60000000E+01  0.00000000E+00
  7.20000000E+02  3.60000000E+01  0.00000000E+00
  7.30000000E+02  3.60000000E+01  0.00000000E+00
  7.40000000E+02  3.60000000E+01  0.00000000E+00
  7.50000000E+02  3.60000000E+01  0.00000000E+00
  7.60000000E+02  3.60000000E+01  0.00000000E+00
  7.70000000E+02  3.60000000E+01  0.00000000E+00
  7.80000000E+02  3.60000000E+01  0.00000000E+00
  7.90000000E+02  3.60000000E+01  0.00000000E+00
  8.00000000E+02  3.60000000E+01  0.00000000E+00
  8.10000000E+02  3.60000000E+01  0.00000000E+00
  8.20000000E+02  3.60000000E+01  0.00000000E+00
  8.30000000E+02  3.60000000E+01  0.00000000E+00
  8.40000000E+02  3.60000000E+01  0.00000000E+00
  8.50000000E+02  3.60000000E+01  0.00000000E+00
  8.60000000E+02  3.60000000E+01  0.00000000E+00
  8.70000000E+02  3.60000000E+01  0.00000000E+00
  8.80000000E+02  3.60000000E+01  0.00000000E+00
  8.90000000E+02  3.60000000E+01  0.00000000E+00
  9.00000000E+02  3.60000000E+01  0.00000000E+00
  9.10000000E+02  3.60000000E+01  0.00000000E+00
  9.20000000E+02  3.60000000E+01  0.00000000E+00
  9.30000000E+02  3.60000000E+01  0.00000000E+00
  9.40000000E+02  3.60000000E+01  0.00000000E+00
  9.50000000E+02  3.60000000E+01  0.00000000E+00
  9.60000000E+02  3.60000000E+01  0.00000000E+00
  9.70000000E+02  3.60000000E+01  0.00000000E+00
  9.80000000E+02  3.60000000E+01  0.00000000E+00
  9.90000000E+02  3.60000000E+01  0.00000000E+00
  1.00000000E+03  3.60000000E+01  0.00000000E+00
  0.00000000E+00  3.80000000E+01  0.00000000E+00
  1.00000000E+01  3.80000000E+01  0.00000000E+00
  2.00000000E+01  3.80000000E+01  0.00000000E+00
  3.00000000E+01  3.80000000E+01  0.00000000E+00
  4.00000000E+01  3.80000000E+01  0.00000000E+00
  5.00000000E+01  3.80000000E+01  0.00000000E+00
  6.00000000E+01  3.80000000E+01  0.00000000E+00
  7.00000000E+01  3.80000000E+01  0.00000000E+00
  8.00000000E+01  3.80000000E+01  0.00000000E+00
  9.00000000E+01  3.80000000E+01  0.00000000E+00
  1.00000000E+02  3.80000000E+01  0.00000000E+00
  1.10000000E+02  3.80000000E+01  0.00000000E+00
  1.20000000E+02  3.80000000E+01  0.00000000E+00
  1.30000000E+02  3.80000000E+01  0.00000000E+00
  1.40000000E+02  3.80000000E+01  0.00000000E+00
  1.50000000E+02  3.80000000E+01  0.00000000E+00
  1.60000000E+02  3.80000000E+01  0.00000000E+00
  1.70000000E+02  3.80000000E+01  0.00000000E+00
  1.80000000E+02  3.80000000E+01  0.00000000E+00
  1.90000000E+02  3.80000000E+01  0.00000000E+00
  2.00000000E+02  3.80000000E+01  0.00000000E+00
  2.10000000E+02  3.80000000E+01  0.00000000E+00
  2.20000000E+02  3.80000000E+01  0.00000000E+00
  2.30000000E+02  3.80000000E+01  0.00000000E+00
  2.40000000E+02  3.80000000E+01  0.00000000E+00
  2.50000000E+02  3.80000000E+01  0.00000000E+00
  2.60000000E+02  3.80000000E+01  0.00000000E+00
  2.70000000E+02  3.80000000E+01  0.00000000E+00
  2.80000000E+02  3.80000000E+01  0.00000000E+00
  2.90000000E+02  3.80000000E+01  0.00000000E+00
  3.00000000E+02  3.80000000E+01  0.00000000E+00
  3.10000000E+02  3.80000000E+01  0.00000000E+00
  3.20000000E+02  3.80000000E+01  0.00000000E+00
  3.30000000E+02  3.80000000E+01  0.00000000E+00
  3.40000000E+02  3.80000000E+01  0.00000000E+00
  3.50000000E+02  3.80000000E+01  0.00000000E+00
  3.60000000E+02  3.80000000E+01  0.00000000E+00
  3.70000000E+02  3.80000000E+01  0.00000000E+00
  3.80000000E+02  3.80000000E+01  0.00000000E+00
  3.90000000E+02  3.80000000E+01  0.00000000E+00
  4.00000000E+02  3.80000000E+01  0.00000000E+00
  4.10000000E+02  3.80000000E+01  0.00000000E+00
  4.20000000E+02  3.80000000E+01  0.00000000E+00
  4.30000000E+02  3.80000000E+01  0.00000000E+00
  4.40000000E+02  3.80000000E+01  0.00000000E+00
  4.50000000E+02  3.80000000E+01  0.00000000E+00
  4.60000000E+02  3.80000000E+01  0.00000000E+00
  4.70000000E+02  3.80000000E+01  0.00000000E+00
  4.80000000E+02  3.80000000E+01  0.00000000E+00
  4.90000000E+02  3.80000000E+01  0.00000000E+00
  5.00000000E+02  3.80000000E+01  0.00000000E+00
  5.10000000E+02  3.80000000E+01  0.00000000E+00
  5.20000000E+02  3.80000000E+01  0.00000000E+00
  5.30000000E+02  3.80000000E+01  0.00000000E+00
  5.40000000E+02  3.80000000E+01  0.00000000E+00
  5.50000000E+02  3.80000000E+01  0.00000000E+00
  5.60000000E+02  3.80000000E+01  0.00000000E+00
  5.70000000E+02  3.80000000E+01  0.00000000E+00
  5.80000000E+02  3.80000000E+01  0.00000000E+00
  5.90000000E+02  3.80000000E+01  0.00000000E+00
  6.00000000E+02  3.80000000E+01  0.00000000E+00
  6.10000000E+02  3.80000000E+01  0.00000000E+00
  6.20000000E+02  3.80000000E+01  0.00000000E+00
  6.30000000E+02  3.80000000E+01  0.00000000E+00
  6.40000000E+02  3.80000000E+01  0.00000000E+00
  6.50000000E+02  3.80000000E+01  0.00000000E+00
  6.60000000E+02  3.80000000E+01  0.00000000E+00
  6.70000000E+02  3.80000000E+01  0.00000000E+00
  6.80000000E+02  3.80000000E+01  0.00000000E+00
  6.90000000E+02  3.80000000E+01  0.00000000E+00
  7.00000000E+02  3.80000000E+01  0.00000000E+00
  7.10000000E+02  3.80000000E+01  0.00000000E+00
  7.20000000E+02  3.80000000E+01  0.00000000E+00
  7.30000000E+02  3.80000000E+01  0.00000000E+00
  7.40000000E+02  3.80000000E+01  0.00000000E+00
  7.50000000E+02  3.80000000E+01  0.00000000E+00
  7.60000000E+02  3.80000000E+01  0.00000000E+00
  7.70000000E+02  3.80000000E+01  0.00000000E+00
  7.80000000E+02  3.80000000E+01  0.00000000E+00
  7.90000000E+02  3.80000000E+01  0.00000000E+00
  8.00000000E+02  3.80000000E+01  0.00000000E+00
  8.10000000E+02  3.80000000E+01  0.00000000E+00
  8.20000000E+02  3.80000000E+01  0.00000000E+00
  8.30000000E+02  3.80000000E+01  0.00000000E+00
  8.40000000E+02  3.80000000E+01  0.00000000E+00
  8.50000000E+02  3.80000000E+01  0.00000000E+00
  8.60000000E+02  3.80000000E+01  0.00000000E+00
  8.70000000E+02  3.80000000E+01  0.00000000E+00
  8.80000000E+02  3.80000000E+01  0.00000000E+00
  8.90000000E+02  3.80000000E+01  0.00000000E+00
  9.00000000E+02  3.80000000E+01  0.00000000E+00
  9.10000000E+02  3.80000000E+01  0.00000000E+00
  9.20000000E+02  3.80000000E+01  0.00000000E+00
  9.30000000E+02  3.80000000E+01  0.00000000E+00
  9.40000000E+02  3.80000000E+01  0.00000000E+00
  9.50000000E+02  3.80000000E+01  0.00000000E+00
  9.60000000E+02  3.80000000E+01  0.00000000E+00
  9.70000000E+02  3.80000000E+01  0.00000000E+00
  9.80000000E+02  3.80000000E+01  0.00000000E+00
  9.90000000E+02  3.80000000E+01  0.00000000E+00
  1.00000000E+03  3.80000000E+01  0.00000000E+00
  0.00000000E+00  4.00000000E+01  0.00000000E+00
  1.00000000E+01  4.00000000E+01  0.00000000E+00
  2.00000000E+01  4.00000000E+01  0.00000000E+00
  3.00000000E+01  4.00000000E+01  0.00000000E+00
  4.00000000E+01  4.00000000E+01  0.00000000E+00
  5.00000000E+01  4.00000000E+01  0.00000000E+00
  6.00000000E+01  4.00000000E+01  0.00000000E+00
  7.00000000E+01  4.00000000E+01  0.00000000E+00
  8.00000000E+01  4.00000000E+01  0.00000000E+00
  9.00000000E+01  4.00000000E+01  0.00000000E+00
  1.00000000E+02  4.00000000E+01  0.00000000E+00
  1.10000000E+02  4.00000000E+01  0.00000000E+00
  1.20000000E+02  4.00000000E+01  0.00000000E+00
  1.30000000E+02  4.00000000E+01  0.00000000E+00
  1.40000000E+02  4.00000000E+01  0.00000000E+00
  1.50000000E+02  4.00000000E+01  0.00000000E+00
  1.60000000E+02  4.00000000E+01  0.00000000E+00
  1.70000000E+02  4.00000000E+01  0.00000000E+00
  1.80000000E+02  4.00000000E+01  0.00000000E+00
  1.90000000E+02  4.00000000E+01  0.00000000E+00
  2.00000000E+02  4.00000000E+01  0.00000000E+00
  2.10000000E+02  4.00000000E+01  0.00000000E+00
  2.20000000E+02  4.00000000E+01  0.00000000E+00
  2.30000000E+02  4.00000000E+01  0.00000000E+00
  2.40000000E+02  4.00000000E+01  0.00000000E+00
  2.50000000E+02  4.00000000E+01  0.00000000E+00
  2.60000000E+02  4.00000000E+01  0.00000000E+00
  2.70000000E+02  4.00000000E+01  0.00000000E+00
  2.80000000E+02  4.00000000E+01  0.00000000E+00
  2.90000000E+02  4.00000000E+01  0.00000000E+00
  3.00000000E+02  4.00000000E+01  0.00000000E+00
  3.10000000E+02  4.00000000E+01  0.00000000E+00
  3.20000000E+02  4.00000000E+01  0.00000000E+00
  3.30000000E+02  4.00000000E+01  0.00000000E+00
  3.40000000E+02  4.00000000E+01  0.00000000E+00
  3.50000000E+02  4.00000000E+01  0.00000000E+00
  3.60000000E+02  4.00000000E+01  0.00000000E+00
  3.70000000E+02  4.00000000E+01  0.00000000E+00
  3.80000000E+02  4.00000000E+01  0.00000000E+00
  3.90000000E+02  4.00000000E+01  0.00000000E+00
  4.00000000E+02  4.00000000E+01  0.00000000E+00
  4.10000000E+02  4.00000000E+01  0.00000000E+00
  4.20000000E+02  4.00000000E+01  0.00000000E+00
  4.30000000E+02  4.00000000E+01  0.00000000E+00
  4.40000000E+02  4.00000000E+01  0.00000000E+00
  4.50000000E+02  4.00000000E+01  0.00000000E+00
  4.60000000E+02  4.00000000E+01  0.00000000E+00
  4.70000000E+02  4.00000000E+01  0.00000000E+00
  4.80000000E+02  4.00000000E+01  0.00000000E+00
  4.90000000E+02  4.00000000E+01  0.00000000E+00
  5.00000000E+02  4.00000000E+01  0.00000000E+00
  5.10000000E+02  4.00000000E+01  0.00000000E+00
  5.20000000E+02  4.00000000E+01  0.00000000E+00
  5.30000000E+02  4.00000000E+01  0.00000000E+00
  5.40000000E+02  4.00000000E+01  0.00000000E+00
  5.50000000E+02  4.00000000E+01  0.00000000E+00
  5.60000000E+02  4.00000000E+01  0.00000000E+00
  5.70000000E+02  4.00000000E+01  0.00000000E+00
  5.80000000E+02  4.00000000E+01  0.00000000E+00
  5.90000000E+02  4.00000000E+01  0.00000000E+00
  6.00000000E+02  4.00000000E+01  0.00000000E+00
  6.10000000E+02  4.00000000E+01  0.00000000E+00
  6.20000000E+02  4.00000000E+01  0.00000000E+00
  6.30000000E+02  4.00000000E+01  0.00000000E+00
  6.40000000E+02  4.00000000E+01  0.00000000E+00
  6.50000000E+02  4.00000000E+01  0.00000000E+00
  6.60000000E+02  4.00000000E+01  0.00000000E+00
  6.70000000E+02  4.00000000E+01  0.00000000E+00
  6.80000000E+02  4.00000000E+01  0.00000000E+00
  6.90000000E+02  4.00000000E+01  0.00000000E+00
  7.00000000E+02  4.00000000E+01  0.00000000E+00
  7.10000000E+02  4.00000000E+01  0.00000000E+00
  7.20000000E+02  4.00000000E+01  0.00000000E+00
  7.30000000E+02  4.00000000E+01  0.00000000E+00
  7.40000000E+02  4.00000000E+01  0.00000000E+00
  7.50000000E+02  4.00000000E+01  0.00000000E+00
  7.60000000E+02  4.00000000E+01  0.00000000E+00
  7.70000000E+02  4.00000000E+01  0.00000000E+00
  7.80000000E+02  4.00000000E+01  0.00000000E+00
  7.90000000E+02  4.00000000E+01  0.00000000E+00
  8.00000000E+02  4.00000000E+01  0.00000000E+00
  8.10000000E+02  4.00000000E+01  0.00000000E+00
  8.20000000E+02  4.00000000E+01  0.00000000E+00
  8.30000000E+02  4.00000000E+01  0.00000000E+00
  8.40000000E+02  4.00000000E+01  0.00000000E+00
  8.50000000E+02  4.00000000E+01  0.00000000E+00
  8.60000000E+02  4.00000000E+01  0.00000000E+00
  8.70000000E+02  4.00000000E+01  0.00000000E+00
  8.80000000E+02  4.00000000E+01  0.00000000E+00
  8.90000000E+02  4.00000000E+01  0.00000000E+00
  9.00000000E+02  4.00000000E+01  0.00000000E+00
  9.10000000E+02  4.00000000E+01  0.00000000E+00
  9.20000000E+02  4.00000000E+01  0.00000000E+00
  9.30000000E+02  4.00000000E+01  0.00000000E+00
  9.40000000E+02  4.00000000E+01  0.00000000E+00
  9.50000000E+02  4.00000000E+01  0.00000000E+00
  9.60000000E+02  4.00000000E+01  0.00000000E+00
  9.70000000E+02  4.00000000E+01  0.00000000E+00
  9.80000000E+02  4.00000000E+01  0.00000000E+00
  9.90000000E+02  4.00000000E+01  0.00000000E+00
  1.00000000E+03  4.00000000E+01  0.00000000E+00
  0.00000000E+00  4.20000000E+01  0.00000000E+00
  1.00000000E+01  4.20000000E+01  0.00000000E+00
  2.00000000E+01  4.20000000E+01  0.00000000E+00
  3.00000000E+01  4.20000000E+01  0.00000000E+00
  4.00000000E+01  4.20000000E+01  0.00000000E+00
  5.00000000E+01  4.20000000E+01  0.00000000E+00
  6.00000000E+01  4.20000000E+01  0.00000000E+00
  7.00000000E+01  4.20000000E+01  0.00000000E+00
  8.00000000E+01  4.20000000E+01  0.00000000E+00
  9.00000000E+01  4.20000000E+01  0.00000000E+00
  1.00000000E+02  4.20000000E+01  0.00000000E+00
  1.10000000E+02  4.20000000E+01  0.00000000E+00
  1.20000000E+02  4.20000000E+01  0.00000000E+00
  1.30000000E+02  4.20000000E+01  0.00000000E+00
  1.40000000E+02  4.20000000E+01  0.00000000E+00
  1.50000000E+02  4.20000000E+01  0.00000000E+00
  1.60000000E+02  4.20000000E+01  0.00000000E+00
  1.70000000E+02  4.20000000E+01  0.00000000E+00
  1.80000000E+02  4.20000000E+01  0.00000000E+00
  1.90000000E+02  4.20000000E+01  0.00000000E+00
  2.00000000E+02  4.20000000E+01  0.00000000E+00
  2.10000000E+02  4.20000000E+01  0.00000000E+00
  2.20000000E+02  4.20000000E+01  0.00000000E+00
  2.30000000E+02  4.20000000E+01  0.00000000E+00
  2.40000000E+02  4.20000000E+01  0.00000000E+00
  2.50000000E+02  4.20000000E+01  0.00000000E+00
  2.60000000E+02  4.20000000E+01  0.00000000E+00
  2.70000000E+02  4.20000000E+01  0.00000000E+00
  2.80000000E+02  4.20000000E+01  0.00000000E+00
  2.90000000E+02  4.20000000E+01  0.00000000E+00
  3.00000000E+02  4.20000000E+01  0.00000000E+00
  3.10000000E+02  4.20000000E+01  0.00000000E+00
  3.20000000E+02  4.20000000E+01  0.00000000E+00
  3.30000000E+02  4.20000000E+01  0.00000000E+00
  3.40000000E+02  4.20000000E+01  0.00000000E+00
  3.50000000E+02  4.20000000E+01  0.00000000E+00
  3.60000000E+02  4.20000000E+01  0.00000000E+00
  3.70000000E+02  4.20000000E+01  0.00000000E+00
  3.80000000E+02  4.20000000E+01  0.00000000E+00
  3.90000000E+02  4.20000000E+01  0.00000000E+00
  4.00000000E+02  4.20000000E+01  0.00000000E+00
  4.10000000E+02  4.20000000E+01  0.00000000E+00
  4.20000000E+02  4.20000000E+01  0.00000000E+00
  4.30000000E+02  4.20000000E+01  0.00000000E+00
  4.40000000E+02  4.20000000E+01  0.00000000E+00
  4.50000000E+02  4.20000000E+01  0.00000000E+00
  4.60000000E+02  4.20000000E+01  0.00000000E+00
  4.70000000E+02  4.20000000E+01  0.00000000E+00
  4.80000000E+02  4.20000000E+01  0.00000000E+00
  4.90000000E+02  4.20000000E+01  0.00000000E+00
  5.00000000E+02  4.20000000E+01  0.00000000E+00
  5.10000000E+02  4.20000000E+01  0.00000000E+00
  5.20000000E+02  4.20000000E+01  0.00000000E+00
  5.30000000E+02  4.20000000E+01  0.00000000E+00
  5.40000000E+02  4.20000000E+01  0.00000000E+00
  5.50000000E+02  4.20000000E+01  0.00000000E+00
  5.60000000E+02  4.20000000E+01  0.00000000E+00
  5.70000000E+02  4.20000000E+01  0.00000000E+00
  5.80000000E+02  4.20000000E+01  0.00000000E+00
  5.90000000E+02  4.20000000E+01  0.00000000E+00
  6.00000000E+02  4.20000000E+01  0.00000000E+00
  6.10000000E+02  4.20000000E+01  0.00000000E+00
  6.20000000E+02  4.20000000E+01  0.00000000E+00
  6.30000000E+02  4.20000000E+01  0.00000000E+00
  6.40000000E+02  4.20000000E+01  0.00000000E+00
  6.50000000E+02  4.20000000E+01  0.00000000E+00
  6.60000000E+02  4.20000000E+01  0.00000000E+00
  6.70000000E+02  4.20000000E+01  0.00000000E+00
  6.80000000E+02  4.20000000E+01  0.00000000E+00
  6.90000000E+02  4.20000000E+01  0.00000000E+00
  7.00000000E+02  4.20000000E+01  0.00000000E+00
  7.10000000E+02  4.20000000E+01  0.00000000E+00
  7.20000000E+02  4.20000000E+01  0.00000000E+00
  7.30000000E+02  4.20000000E+01  0.00000000E+00
  7.40000000E+02  4.20000000E+01  0.00000000E+00
  7.50000000E+02  4.20000000E+01  0.00000000E+00
  7.60000000E+02  4.20000000E+01  0.00000000E+00
  7.70000000E+02  4.20000000E+01  0.00000000E+00
  7.80000000E+02  4.20000000E+01  0.00000000E+00
  7.90000000E+02  4.20000000E+01  0.00000000E+00
  8.00000000E+02  4.20000000E+01  0.00000000E+00
  8.10000000E+02  4.20000000E+01  0.00000000E+00
  8.20000000E+02  4.20000000E+01  0.00000000E+00
  8.30000000E+02  4.20000000E+01  0.00000000E+00
  8.40000000E+02  4.20000000E+01  0.00000000E+00
  8.50000000E+02  4.20000000E+01  0.00000000E+00
  8.60000000E+02  4.20000000E+01  0.00000000E+00
  8.70000000E+02  4.20000000E+01  0.00000000E+00
  8.80000000E+02  4.20000000E+01  0.00000000E+00
  8.90000000E+02  4.20000000E+01  0.00000000E+00
  9.00000000E+02  4.20000000E+01  0.00000000E+00
  9.10000000E+02  4.20000000E+01  0.00000000E+00
  9.20000000E+02  4.20000000E+01  0.00000000E+00
  9.30000000E+02  4.20000000E+01  0.00000000E+00
  9.40000000E+02  4.20000000E+01  0.00000000E+00
  9.50000000E+02  4.20000000E+01  0.00000000E+00
  9.60000000E+02  4.20000000E+01  0.00000000E+00
  9.70000000E+02  4.20000000E+01  0.00000000E+00
  9.80000000E+02  4.20000000E+01  0.00000000E+00
  9.90000000E+02  4.20000000E+01  0.00000000E+00
  1.00000000E+03  4.20000000E+01  0.00000000E+00
  0.00000000E+00  4.40000000E+01  0.00000000E+00
  1.00000000E+01  4.40000000E+01  0.00000000E+00
  2.00000000E+01  4.40000000E+01  0.00000000E+00
  3.00000000E+01  4.40000000E+01  0.00000000E+00
  4.00000000E+01  4.40000000E+01  0.00000000E+00
  5.00000000E+01  4.40000000E+01  0.00000000E+00
  6.00000000E+01  4.40000000E+01  0.00000000E+00
  7.00000000E+01  4.40000000E+01  0.00000000E+00
  8.00000000E+01  4.40000000E+01  0.00000000E+00
  9.00000000E+01  4.40000000E+01  0.00000000E+00
  1.00000000E+02  4.40000000E+01  0.00000000E+00
  1.10000000E+02  4.40000000E+01  0.00000000E+00
  1.20000000E+02  4.40000000E+01  0.00000000E+00
  1.30000000E+02  4.40000000E+01  0.00000000E+00
  1.40000000E+02  4.40000000E+01  0.00000000E+00
  1.50000000E+02  4.40000000E+01  0.00000000E+00
  1.60000000E+02  4.40000000E+01  0.00000000E+00
  1.70000000E+02  4.40000000E+01  0.00000000E+00
  1.80000000E+02  4.40000000E+01  0.00000000E+00
  1.90000000E+02  4.40000000E+01  0.00000000E+00
  2.00000000E+02  4.40000000E+01  0.00000000E+00
  2.10000000E+02  4.40000000E+01  0.00000000E+00
  2.20000000E+02  4.40000000E+01  0.00000000E+00
  2.30000000E+02  4.40000000E+01  0.00000000E+00
  2.40000000E+02  4.40000000E+01  0.00000000E+00
  2.50000000E+02  4.40000000E+01  0.00000000E+00
  2.60000000E+02  4.40000000E+01  0.00000000E+00
  2.70000000E+02  4.40000000E+01  0.00000000E+00
  2.80000000E+02  4.40000000E+01  0.00000000E+00
  2.90000000E+02  4.40000000E+01  0.00000000E+00
  3.00000000E+02  4.40000000E+01  0.00000000E+00
  3.10000000E+02  4.40000000E+01  0.00000000E+00
  3.20000000E+02  4.40000000E+01  0.00000000E+00
  3.30000000E+02  4.40000000E+01  0.00000000E+00
  3.40000000E+02  4.40000000E+01  0.00000000E+00
  3.50000000E+02  4.40000000E+01  0.00000000E+00
  3.60000000E+02  4.40000000E+01  0.00000000E+00
  3.70000000E+02  4.40000000E+01  0.00000000E+00
  3.80000000E+02  4.40000000E+01  0.00000000E+00
  3.90000000E+02  4.40000000E+01  0.00000000E+00
  4.00000000E+02  4.40000000E+01  0.00000000E+00
  4.10000000E+02  4.40000000E+01  0.00000000E+00
  4.20000000E+02  4.40000000E+01  0.00000000E+00
  4.30000000E+02  4.40000000E+01  0.00000000E+00
  4.40000000E+02  4.40000000E+01  0.00000000E+00
  4.50000000E+02  4.40000000E+01  0.00000000E+00
  4.60000000E+02  4.40000000E+01  0.00000000E+00
  4.70000000E+02  4.40000000E+01  0.00000000E+00
  4.80000000E+02  4.40000000E+01  0.00000000E+00
  4.90000000E+02  4.40000000E+01  0.00000000E+00
  5.00000000E+02  4.40000000E+01  0.00000000E+00
  5.10000000E+02  4.40000000E+01  0.00000000E+00
  5.20000000E+02  4.40000000E+01  0.00000000E+00
  5.30000000E+02  4.40000000E+01  0.00000000E+00
  5.40000000E+02  4.40000000E+01  0.00000000E+00
  5.50000000E+02  4.40000000E+01  0.00000000E+00
  5.60000000E+02  4.40000000E+01  0.00000000E+00
  5.70000000E+02  4.40000000E+01  0.00000000E+00
  5.80000000E+02  4.40000000E+01  0.00000000E+00
  5.90000000E+02  4.40000000E+01  0.00000000E+00
  6.00000000E+02  4.40000000E+01  0.00000000E+00
  6.10000000E+02  4.40000000E+01  0.00000000E+00
  6.20000000E+02  4.40000000E+01  0.00000000E+00
  6.30000000E+02  4.40000000E+01  0.00000000E+00
  6.40000000E+02  4.40000000E+01  0.00000000E+00
  6.50000000E+02  4.40000000E+01  0.00000000E+00
  6.60000000E+02  4.40000000E+01  0.00000000E+00
  6.70000000E+02  4.40000000E+01  0.00000000E+00
  6.80000000E+02  4.40000000E+01  0.00000000E+00
  6.90000000E+02  4.40000000E+01  0.00000000E+00
  7.00000000E+02  4.40000000E+01  0.00000000E+00
  7.10000000E+02  4.40000000E+01  0.00000000E+00
  7.20000000E+02  4.40000000E+01  0.00000000E+00
  7.30000000E+02  4.40000000E+01  0.00000000E+00
  7.40000000E+02  4.40000000E+01  0.00000000E+00
  7.50000000E+02  4.40000000E+01  0.00000000E+00
  7.60000000E+02  4.40000000E+01  0.00000000E+00
  7.70000000E+02  4.40000000E+01  0.00000000E+00
  7.80000000E+02  4.40000000E+01  0.00000000E+00
  7.90000000E+02  4.40000000E+01  0.00000000E+00
  8.00000000E+02  4.40000000E+01  0.00000000E+00
  8.10000000E+02  4.40000000E+01  0.00000000E+00
  8.20000000E+02  4.40000000E+01  0.00000000E+00
  8.30000000E+02  4.40000000E+01  0.00000000E+00
  8.40000000E+02  4.40000000E+01  0.00000000E+00
  8.50000000E+02  4.40000000E+01  0.00000000E+00
  8.60000000E+02  4.40000000E+01  0.00000000E+00
  8.70000000E+02  4.40000000E+01  0.00000000E+00
  8.80000000E+02  4.40000000E+01  0.00000000E+00
  8.90000000E+02  4.40000000E+01  0.00000000E+00
  9.00000000E+02  4.40000000E+01  0.00000000E+00
  9.10000000E+02  4.40000000E+01  0.00000000E+00
  9.20000000E+02  4.40000000E+01  0.00000000E+00
  9.30000000E+02  4.40000000E+01  0.00000000E+00
  9.40000000E+02  4.40000000E+01  0.00000000E+00
  9.50000000E+02  4.40000000E+01  0.00000000E+00
  9.60000000E+02  4.40000000E+01  0.00000000E+00
  9.70000000E+02  4.40000000E+01  0.00000000E+00
  9.80000000E+02  4.40000000E+01  0.00000000E+00
  9.90000000E+02  4.40000000E+01  0.00000000E+00
  1.00000000E+03  4.40000000E+01  0.00000000E+00
  0.00000000E+00  4.60000000E+01  0.00000000E+00
  1.00000000E+01  4.60000000E+01  0.00000000E+00
  2.00000000E+01  4.60000000E+01  0.00000000E+00
  3.00000000E+01  4.60000000E+01  0.00000000E+00
  4.00000000E+01  4.60000000E+01  0.00000000E+00
  5.00000000E+01  4.60000000E+01  0.00000000E+00
  6.00000000E+01  4.60000000E+01  0.00000000E+00
  7.00000000E+01  4.60000000E+01  0.00000000E+00
  8.00000000E+01  4.60000000E+01  0.00000000E+00
  9.00000000E+01  4.60000000E+01  0.00000000E+00
  1.00000000E+02  4.60000000E+01  0.00000000E+00
  1.10000000E+02  4.60000000E+01  0.00000000E+00
  1.20000000E+02  4.60000000E+01  0.00000000E+00
  1.30000000E+02  4.60000000E+01  0.00000000E+00
  1.40000000E+02  4.60000000E+01  0.00000000E+00
  1.50000000E+02  4.60000000E+01  0.00000000E+00
  1.60000000E+02  4.60000000E+01  0.00000000E+00
  1.70000000E+02  4.60000000E+01  0.00000000E+00
  1.80000000E+02  4.60000000E+01  0.00000000E+00
  1.90000000E+02  4.60000000E+01  0.00000000E+00
  2.00000000E+02  4.60000000E+01  0.00000000E+00
  2.10000000E+02  4.60000000E+01  0.00000000E+00
  2.20000000E+02  4.60000000E+01  0.00000000E+00
  2.30000000E+02  4.60000000E+01  0.00000000E+00
  2.40000000E+02  4.60000000E+01  0.00000000E+00
  2.50000000E+02  4.60000000E+01  0.00000000E+00
  2.60000000E+02  4.60000000E+01  0.00000000E+00
  2.70000000E+02  4.60000000E+01  0.00000000E+00
  2.80000000E+02  4.60000000E+01  0.00000000E+00
  2.90000000E+02  4.60000000E+01  0.00000000E+00
  3.00000000E+02  4.60000000E+01  0.00000000E+00
  3.10000000E+02  4.60000000E+01  0.00000000E+00
  3.20000000E+02  4.60000000E+01  0.00000000E+00
  3.30000000E+02  4.60000000E+01  0.00000000E+00
  3.40000000E+02  4.60000000E+01  0.00000000E+00
  3.50000000E+02  4.60000000E+01  0.00000000E+00
  3.60000000E+02  4.60000000E+01  0.00000000E+00
  3.70000000E+02  4.60000000E+01  0.00000000E+00
  3.80000000E+02  4.60000000E+01  0.00000000E+00
  3.90000000E+02  4.60000000E+01  0.00000000E+00
  4.00000000E+02  4.60000000E+01  0.00000000E+00
  4.10000000E+02  4.60000000E+01  0.00000000E+00
  4.20000000E+02  4.60000000E+01  0.00000000E+00
  4.30000000E+02  4.60000000E+01  0.00000000E+00
  4.40000000E+02  4.60000000E+01  0.00000000E+00
  4.50000000E+02  4.60000000E+01  0.00000000E+00
  4.60000000E+02  4.60000000E+01  0.00000000E+00
  4.70000000E+02  4.60000000E+01  0.00000000E+00
  4.80000000E+02  4.60000000E+01  0.00000000E+00
  4.90000000E+02  4.60000000E+01  0.00000000E+00
  5.00000000E+02  4.60000000E+01  0.00000000E+00
  5.10000000E+02  4.60000000E+01  0.00000000E+00
  5.20000000E+02  4.60000000E+01  0.00000000E+00
  5.30000000E+02  4.60000000E+01  0.00000000E+00
  5.40000000E+02  4.60000000E+01  0.00000000E+00
  5.50000000E+02  4.60000000E+01  0.00000000E+00
  5.60000000E+02  4.60000000E+01  0.00000000E+00
  5.70000000E+02  4.60000000E+01  0.00000000E+00
  5.80000000E+02  4.60000000E+01  0.00000000E+00
  5.90000000E+02  4.60000000E+01  0.00000000E+00
  6.00000000E+02  4.60000000E+01  0.00000000E+00
  6.10000000E+02  4.60000000E+01  0.00000000E+00
  6.20000000E+02  4.60000000E+01  0.00000000E+00
  6.30000000E+02  4.60000000E+01  0.00000000E+00
  6.40000000E+02  4.60000000E+01  0.00000000E+00
  6.50000000E+02  4.60000000E+01  0.00000000E+00
  6.60000000E+02  4.60000000E+01  0.00000000E+00
  6.70000000E+02  4.60000000E+01  0.00000000E+00
  6.80000000E+02  4.60000000E+01  0.00000000E+00
  6.90000000E+02  4.60000000E+01  0.00000000E+00
  7.00000000E+02  4.60000000E+01  0.00000000E+00
  7.10000000E+02  4.60000000E+01  0.00000000E+00
  7.20000000E+02  4.60000000E+01  0.00000000E+00
  7.30000000E+02  4.60000000E+01  0.00000000E+00
  7.40000000E+02  4.60000000E+01  0.00000000E+00
  7.50000000E+02  4.60000000E+01  0.00000000E+00
  7.60000000E+02  4.60000000E+01  0.00000000E+00
  7.70000000E+02  4.60000000E+01  0.00000000E+00
  7.80000000E+02  4.60000000E+01  0.00000000E+00
  7.90000000E+02  4.60000000E+01  0.00000000E+00
  8.00000000E+02  4.60000000E+01  0.00000000E+00
  8.10000000E+02  4.60000000E+01  0.00000000E+00
  8.20000000E+02  4.60000000E+01  0.00000000E+00
  8.30000000E+02  4.60000000E+01  0.00000000E+00
  8.40000000E+02  4.60000000E+01  0.00000000E+00
  8.50000000E+02  4.60000000E+01  0.00000000E+00
  8.60000000E+02  4.60000000E+01  0.00000000E+00
  8.70000000E+02  4.60000000E+01  0.00000000E+00
  8.80000000E+02  4.60000000E+01  0.00000000E+00
  8.90000000E+02  4.60000000E+01  0.00000000E+00
  9.00000000E+02  4.60000000E+01  0.00000000E+00
  9.10000000E+02  4.60000000E+01  0.00000000E+00
  9.20000000E+02  4.60000000E+01  0.00000000E+00
  9.30000000E+02  4.60000000E+01  0.00000000E+00
  9.40000000E+02  4.60000000E+01  0.00000000E+00
  9.50000000E+02  4.60000000E+01  0.00000000E+00
  9.60000000E+02  4.60000000E+01  0.00000000E+00
  9.70000000E+02  4.60000000E+01  0.00000000E+00
  9.80000000E+02  4.60000000E+01  0.00000000E+00
  9.90000000E+02  4.60000000E+01  0.00000000E+00
  1.00000000E+03  4.60000000E+01  0.00000000E+00
  0.00000000E+00  4.80000000E+01  0.00000000E+00
  1.00000000E+01  4.80000000E+01  0.00000000E+00
  2.00000000E+01  4.80000000E+01  0.00000000E+00
  3.00000000E+01  4.80000000E+01  0.00000000E+00
  4.00000000E+01  4.80000000E+01  0.00000000E+00
  5.00000000E+01  4.80000000E+01  0.00000000E+00
  6.00000000E+01  4.80000000E+01  0.00000000E+00
  7.00000000E+01  4.80000000E+01  0.00000000E+00
  8.00000000E+01  4.80000000E+01  0.00000000E+00
  9.00000000E+01  4.80000000E+01  0.00000000E+00
  1.00000000E+02  4.80000000E+01  0.00000000E+00
  1.10000000E+02  4.80000000E+01  0.00000000E+00
  1.20000000E+02  4.80000000E+01  0.00000000E+00
  1.30000000E+02  4.80000000E+01  0.00000000E+00
  1.40000000E+02  4.80000000E+01  0.00000000E+00
  1.50000000E+02  4.80000000E+01  0.00000000E+00
  1.60000000E+02  4.80000000E+01  0.00000000E+00
  1.70000000E+02  4.80000000E+01  0.00000000E+00
  1.80000000E+02  4.80000000E+01  0.00000000E+00
  1.90000000E+02  4.80000000E+01  0.00000000E+00
  2.00000000E+02  4.80000000E+01  0.00000000E+00
  2.10000000E+02  4.80000000E+01  0.00000000E+00
  2.20000000E+02  4.80000000E+01  0.00000000E+00
  2.30000000E+02  4.80000000E+01  0.00000000E+00
  2.40000000E+02  4.80000000E+01  0.00000000E+00
  2.50000000E+02  4.80000000E+01  0.00000000E+00
  2.60000000E+02  4.80000000E+01  0.00000000E+00
  2.70000000E+02  4.80000000E+01  0.00000000E+00
  2.80000000E+02  4.80000000E+01  0.00000000E+00
  2.90000000E+02  4.80000000E+01  0.00000000E+00
  3.00000000E+02  4.80000000E+01  0.00000000E+00
  3.10000000E+02  4.80000000E+01  0.00000000E+00
  3.20000000E+02  4.80000000E+01  0.00000000E+00
  3.30000000E+02  4.80000000E+01  0.00000000E+00
  3.40000000E+02  4.80000000E+01  0.00000000E+00
  3.50000000E+02  4.80000000E+01  0.00000000E+00
  3.60000000E+02  4.80000000E+01  0.00000000E+00
  3.70000000E+02  4.80000000E+01  0.00000000E+00
  3.80000000E+02  4.80000000E+01  0.00000000E+00
  3.90000000E+02  4.80000000E+01  0.00000000E+00
  4.00000000E+02  4.80000000E+01  0.00000000E+00
  4.10000000E+02  4.80000000E+01  0.00000000E+00
  4.20000000E+02  4.80000000E+01  0.00000000E+00
  4.30000000E+02  4.80000000E+01  0.00000000E+00
  4.40000000E+02  4.80000000E+01  0.00000000E+00
  4.50000000E+02  4.80000000E+01  0.00000000E+00
  4.60000000E+02  4.80000000E+01  0.00000000E+00
  4.70000000E+02  4.80000000E+01  0.00000000E+00
  4.80000000E+02  4.80000000E+01  0.00000000E+00
  4.90000000E+02  4.80000000E+01  0.00000000E+00
  5.00000000E+02  4.80000000E+01  0.00000000E+00
  5.10000000E+02  4.80000000E+01  0.00000000E+00
  5.20000000E+02  4.80000000E+01  0.00000000E+00
  5.30000000E+02  4.80000000E+01  0.00000000E+00
  5.40000000E+02  4.80000000E+01  0.00000000E+00
  5.50000000E+02  4.80000000E+01  0.00000000E+00
  5.60000000E+02  4.80000000E+01  0.00000000E+00
  5.70000000E+02  4.80000000E+01  0.00000000E+00
  5.80000000E+02  4.80000000E+01  0.00000000E+00
  5.90000000E+02  4.80000000E+01  0.00000000E+00
  6.00000000E+02  4.80000000E+01  0.00000000E+00
  6.10000000E+02  4.80000000E+01  0.00000000E+00
  6.20000000E+02  4.80000000E+01  0.00000000E+00
  6.30000000E+02  4.80000000E+01  0.00000000E+00
  6.40000000E+02  4.80000000E+01  0.00000000E+00
  6.50000000E+02  4.80000000E+01  0.00000000E+00
  6.60000000E+02  4.80000000E+01  0.00000000E+00
  6.70000000E+02  4.80000000E+01  0.00000000E+00
  6.80000000E+02  4.80000000E+01  0.00000000E+00
  6.90000000E+02  4.80000000E+01  0.00000000E+00
  7.00000000E+02  4.80000000E+01  0.00000000E+00
  7.10000000E+02  4.80000000E+01  0.00000000E+00
  7.20000000E+02  4.80000000E+01  0.00000000E+00
  7.30000000E+02  4.80000000E+01  0.00000000E+00
  7.40000000E+02  4.80000000E+01  0.00000000E+00
  7.50000000E+02  4.80000000E+01  0.00000000E+00
  7.60000000E+02  4.80000000E+01  0.00000000E+00
  7.70000000E+02  4.80000000E+01  0.00000000E+00
  7.80000000E+02  4.80000000E+01  0.00000000E+00
  7.90000000E+02  4.80000000E+01  0.00000000E+00
  8.00000000E+02  4.80000000E+01  0.00000000E+00
  8.10000000E+02  4.80000000E+01  0.00000000E+00
  8.20000000E+02  4.80000000E+01  0.00000000E+00
  8.30000000E+02  4.80000000E+01  0.00000000E+00
  8.40000000E+02  4.80000000E+01  0.00000000E+00
  8.50000000E+02  4.80000000E+01  0.00000000E+00
  8.60000000E+02  4.80000000E+01  0.00000000E+00
  8.70000000E+02  4.80000000E+01  0.00000000E+00
  8.80000000E+02  4.80000000E+01  0.00000000E+00
  8.90000000E+02  4.80000000E+01  0.00000000E+00
  9.00000000E+02  4.80000000E+01  0.00000000E+00
  9.10000000E+02  4.80000000E+01  0.00000000E+00
  9.20000000E+02  4.80000000E+01  0.00000000E+00
  9.30000000E+02  4.80000000E+01  0.00000000E+00
  9.40000000E+02  4.80000000E+01  0.00000000E+00
  9.50000000E+02  4.80000000E+01  0.00000000E+00
  9.60000000E+02  4.80000000E+01  0.00000000E+00
  9.70000000E+02  4.80000000E+01  0.00000000E+00
  9.80000000E+02  4.80000000E+01  0.00000000E+00
  9.90000000E+02  4.80000000E+01  0.00000000E+00
  1.00000000E+03  4.80000000E+01  0.00000000E+00
  0.00000000E+00  5.00000000E+01  0.00000000E+00
  1.00000000E+01  5.00000000E+01  0.00000000E+00
  2.00000000E+01  5.00000000E+01  0.00000000E+00
  3.00000000E+01  5.00000000E+01  0.00000000E+00
  4.00000000E+01  5.00000000E+01  0.00000000E+00
  5.00000000E+01  5.00000000E+01  0.00000000E+00
  6.00000000E+01  5.00000000E+01  0.00000000E+00
  7.00000000E+01  5.00000000E+01  0.00000000E+00
  8.00000000E+01  5.00000000E+01  0.00000000E+00
  9.00000000E+01  5.00000000E+01  0.00000000E+00
  1.00000000E+02  5.00000000E+01  0.00000000E+00
  1.10000000E+02  5.00000000E+01  0.00000000E+00
  1.20000000E+02  5.00000000E+01  0.00000000E+00
  1.30000000E+02  5.00000000E+01  0.00000000E+00
  1.40000000E+02  5.00000000E+01  0.00000000E+00
  1.50000000E+02  5.00000000E+01  0.00000000E+00
  1.60000000E+02  5.00000000E+01  0.00000000E+00
  1.70000000E+02  5.00000000E+01  0.00000000E+00
  1.80000000E+02  5.00000000E+01  0.00000000E+00
  1.90000000E+02  5.00000000E+01  0.00000000E+00
  2.00000000E+02  5.00000000E+01  0.00000000E+00
  2.10000000E+02  5.00000000E+01  0.00000000E+00
  2.20000000E+02  5.00000000E+01  0.00000000E+00
  2.30000000E+02  5.00000000E+01  0.00000000E+00
  2.40000000E+02  5.00000000E+01  0.00000000E+00
  2.50000000E+02  5.00000000E+01  0.00000000E+00
  2.60000000E+02  5.00000000E+01  0.00000000E+00
  2.70000000E+02  5.00000000E+01  0.00000000E+00
  2.80000000E+02  5.00000000E+01  0.00000000E+00
  2.90000000E+02  5.00000000E+01  0.00000000E+00
  3.00000000E+02  5.00000000E+01  0.00000000E+00
  3.10000000E+02  5.00000000E+01  0.00000000E+00
  3.20000000E+02  5.00000000E+01  0.00000000E+00
  3.30000000E+02  5.00000000E+01  0.00000000E+00
  3.40000000E+02  5.00000000E+01  0.00000000E+00
  3.50000000E+02  5.00000000E+01  0.00000000E+00
  3.60000000E+02  5.00000000E+01  0.00000000E+00
  3.70000000E+02  5.00000000E+01  0.00000000E+00
  3.80000000E+02  5.00000000E+01  0.00000000E+00
  3.90000000E+02  5.00000000E+01  0.00000000E+00
  4.00000000E+02  5.00000000E+01  0.00000000E+00
  4.10000000E+02  5.00000000E+01  0.00000000E+00
  4.20000000E+02  5.00000000E+01  0.00000000E+00
  4.30000000E+02  5.00000000E+01  0.00000000E+00
  4.40000000E+02  5.00000000E+01  0.00000000E+00
  4.50000000E+02  5.00000000E+01  0.00000000E+00
  4.60000000E+02  5.00000000E+01  0.00000000E+00
  4.70000000E+02  5.00000000E+01  0.00000000E+00
  4.80000000E+02  5.00000000E+01  0.00000000E+00
  4.90000000E+02  5.00000000E+01  0.00000000E+00
  5.00000000E+02  5.00000000E+01  0.00000000E+00
  5.10000000E+02  5.00000000E+01  0.00000000E+00
  5.20000000E+02  5.00000000E+01  0.00000000E+00
  5.30000000E+02  5.00000000E+01  0.00000000E+00
  5.40000000E+02  5.00000000E+01  0.00000000E+00
  5.50000000E+02  5.00000000E+01  0.00000000E+00
  5.60000000E+02  5.00000000E+01  0.00000000E+00
  5.70000000E+02  5.00000000E+01  0.00000000E+00
  5.80000000E+02  5.00000000E+01  0.00000000E+00
  5.90000000E+02  5.00000000E+01  0.00000000E+00
  6.00000000E+02  5.00000000E+01  0.00000000E+00
  6.10000000E+02  5.00000000E+01  0.00000000E+00
  6.20000000E+02  5.00000000E+01  0.00000000E+00
  6.30000000E+02  5.00000000E+01  0.00000000E+00
  6.40000000E+02  5.00000000E+01  0.00000000E+00
  6.50000000E+02  5.00000000E+01  0.00000000E+00
  6.60000000E+02  5.00000000E+01  0.00000000E+00
  6.70000000E+02  5.00000000E+01  0.00000000E+00
  6.80000000E+02  5.00000000E+01  0.00000000E+00
  6.90000000E+02  5.00000000E+01  0.00000000E+00
  7.00000000E+02  5.00000000E+01  0.00000000E+00
  7.10000000E+02  5.00000000E+01  0.00000000E+00
  7.20000000E+02  5.00000000E+01  0.00000000E+00
  7.30000000E+02  5.00000000E+01  0.00000000E+00
  7.40000000E+02  5.00000000E+01  0.00000000E+00
  7.50000000E+02  5.00000000E+01  0.00000000E+00
  7.60000000E+02  5.00000000E+01  0.00000000E+00
  7.70000000E+02  5.00000000E+01  0.00000000E+00
  7.80000000E+02  5.00000000E+01  0.00000000E+00
  7.90000000E+02  5.00000000E+01  0.00000000E+00
  8.00000000E+02  5.00000000E+01  0.00000000E+00
  8.10000000E+02  5.00000000E+01  0.00000000E+00
  8.20000000E+02  5.00000000E+01  0.00000000E+00
  8.30000000E+02  5.00000000E+01  0.00000000E+00
  8.40000000E+02  5.00000000E+01  0.00000000E+00
  8.50000000E+02  5.00000000E+01  0.00000000E+00
  8.60000000E+02  5.00000000E+01  0.00000000E+00
  8.70000000E+02  5.00000000E+01  0.00000000E+00
  8.80000000E+02  5.00000000E+01  0.00000000E+00
  8.90000000E+02  5.00000000E+01  0.00000000E+00
  9.00000000E+02  5.00000000E+01  0.00000000E+00
  9.10000000E+02  5.00000000E+01  0.00000000E+00
  9.20000000E+02  5.00000000E+01  0.00000000E+00
  9.30000000E+02  5.00000000E+01  0.00000000E+00
  9.40000000E+02  5.00000000E+01  0.00000000E+00
  9.50000000E+02  5.00000000E+01  0.00000000E+00
  9.60000000E+02  5.00000000E+01  0.00000000E+00
  9.70000000E+02  5.00000000E+01  0.00000000E+00
  9.80000000E+02  5.00000000E+01  0.00000000E+00
  9.90000000E+02  5.00000000E+01  0.00000000E+00
  1.00000000E+03  5.00000000E+01  0.00000000E+00
  0.00000000E+00  5.20000000E+01  0.00000000E+00
  1.00000000E+01  5.20000000E+01  0.00000000E+00
  2.00000000E+01  5.20000000E+01  0.00000000E+00
  3.00000000E+01  5.20000000E+01  0.00000000E+00
  4.00000000E+01  5.20000000E+01  0.00000000E+00
  5.00000000E+01  5.20000000E+01  0.00000000E+00
  6.00000000E+01  5.20000000E+01  0.00000000E+00
  7.00000000E+01  5.20000000E+01  0.00000000E+00
  8.00000000E+01  5.20000000E+01  0.00000000E+00
  9.00000000E+01  5.20000000E+01  0.00000000E+00
  1.00000000E+02  5.20000000E+01  0.00000000E+00
  1.10000000E+02  5.20000000E+01  0.00000000E+00
  1.20000000E+02  5.20000000E+01  0.00000000E+00
  1.30000000E+02  5.20000000E+01  0.00000000E+00
  1.40000000E+02  5.20000000E+01  0.00000000E+00
  1.50000000E+02  5.20000000E+01  0.00000000E+00
  1.60000000E+02  5.20000000E+01  0.00000000E+00
  1.70000000E+02  5.20000000E+01  0.00000000E+00
  1.80000000E+02  5.20000000E+01  0.00000000E+00
  1.90000000E+02  5.20000000E+01  0.00000000E+00
  2.00000000E+02  5.20000000E+01  0.00000000E+00
  2.10000000E+02  5.20000000E+01  0.00000000E+00
  2.20000000E+02  5.20000000E+01  0.00000000E+00
  2.30000000E+02  5.20000000E+01  0.00000000E+00
  2.40000000E+02  5.20000000E+01  0.00000000E+00
  2.50000000E+02  5.20000000E+01  0.00000000E+00
  2.60000000E+02  5.20000000E+01  0.00000000E+00
  2.70000000E+02  5.20000000E+01  0.00000000E+00
  2.80000000E+02  5.20000000E+01  0.00000000E+00
  2.90000000E+02  5.20000000E+01  0.00000000E+00
  3.00000000E+02  5.20000000E+01  0.00000000E+00
  3.10000000E+02  5.20000000E+01  0.00000000E+00
  3.20000000E+02  5.20000000E+01  0.00000000E+00
  3.30000000E+02  5.20000000E+01  0.00000000E+00
  3.40000000E+02  5.20000000E+01  0.00000000E+00
  3.50000000E+02  5.20000000E+01  0.00000000E+00
  3.60000000E+02  5.20000000E+01  0.00000000E+00
  3.70000000E+02  5.20000000E+01  0.00000000E+00
  3.80000000E+02  5.20000000E+01  0.00000000E+00
  3.90000000E+02  5.20000000E+01  0.00000000E+00
  4.00000000E+02  5.20000000E+01  0.00000000E+00
  4.10000000E+02  5.20000000E+01  0.00000000E+00
  4.20000000E+02  5.20000000E+01  0.00000000E+00
  4.30000000E+02  5.20000000E+01  0.00000000E+00
  4.40000000E+02  5.20000000E+01  0.00000000E+00
  4.50000000E+02  5.20000000E+01  0.00000000E+00
  4.60000000E+02  5.20000000E+01  0.00000000E+00
  4.70000000E+02  5.20000000E+01  0.00000000E+00
  4.80000000E+02  5.20000000E+01  0.00000000E+00
  4.90000000E+02  5.20000000E+01  0.00000000E+00
  5.00000000E+02  5.20000000E+01  0.00000000E+00
  5.10000000E+02  5.20000000E+01  0.00000000E+00
  5.20000000E+02  5.20000000E+01  0.00000000E+00
  5.30000000E+02  5.20000000E+01  0.00000000E+00
  5.40000000E+02  5.20000000E+01  0.00000000E+00
  5.50000000E+02  5.20000000E+01  0.00000000E+00
  5.60000000E+02  5.20000000E+01  0.00000000E+00
  5.70000000E+02  5.20000000E+01  0.00000000E+00
  5.80000000E+02  5.20000000E+01  0.00000000E+00
  5.90000000E+02  5.20000000E+01  0.00000000E+00
  6.00000000E+02  5.20000000E+01  0.00000000E+00
  6.10000000E+02  5.20000000E+01  0.00000000E+00
  6.20000000E+02  5.20000000E+01  0.00000000E+00
  6.30000000E+02  5.20000000E+01  0.00000000E+00
  6.40000000E+02  5.20000000E+01  0.00000000E+00
  6.50000000E+02  5.20000000E+01  0.00000000E+00
  6.60000000E+02  5.20000000E+01  0.00000000E+00
  6.70000000E+02  5.20000000E+01  0.00000000E+00
  6.80000000E+02  5.20000000E+01  0.00000000E+00
  6.90000000E+02  5.20000000E+01  0.00000000E+00
  7.00000000E+02  5.20000000E+01  0.00000000E+00
  7.10000000E+02  5.20000000E+01  0.00000000E+00
  7.20000000E+02  5.20000000E+01  0.00000000E+00
  7.30000000E+02  5.20000000E+01  0.00000000E+00
  7.40000000E+02  5.20000000E+01  0.00000000E+00
  7.50000000E+02  5.20000000E+01  0.00000000E+00
  7.60000000E+02  5.20000000E+01  0.00000000E+00
  7.70000000E+02  5.20000000E+01  0.00000000E+00
  7.80000000E+02  5.20000000E+01  0.00000000E+00
  7.90000000E+02  5.20000000E+01  0.00000000E+00
  8.00000000E+02  5.20000000E+01  0.00000000E+00
  8.10000000E+02  5.20000000E+01  0.00000000E+00
  8.20000000E+02  5.20000000E+01  0.00000000E+00
  8.30000000E+02  5.20000000E+01  0.00000000E+00
  8.40000000E+02  5.20000000E+01  0.00000000E+00
  8.50000000E+02  5.20000000E+01  0.00000000E+00
  8.60000000E+02  5.20000000E+01  0.00000000E+00
  8.70000000E+02  5.20000000E+01  0.00000000E+00
  8.80000000E+02  5.20000000E+01  0.00000000E+00
  8.90000000E+02  5.20000000E+01  0.00000000E+00
  9.00000000E+02  5.20000000E+01  0.00000000E+00
  9.10000000E+02  5.20000000E+01  0.00000000E+00
  9.20000000E+02  5.20000000E+01  0.00000000E+00
  9.30000000E+02  5.20000000E+01  0.00000000E+00
  9.40000000E+02  5.20000000E+01  0.00000000E+00
  9.50000000E+02  5.20000000E+01  0.00000000E+00
  9.60000000E+02  5.20000000E+01  0.00000000E+00
  9.70000000E+02  5.20000000E+01  0.00000000E+00
  9.80000000E+02  5.20000000E+01  0.00000000E+00
  9.90000000E+02  5.20000000E+01  0.00000000E+00
  1.00000000E+03  5.20000000E+01  0.00000000E+00
  0.00000000E+00  5.40000000E+01  0.00000000E+00
  1.00000000E+01  5.40000000E+01  0.00000000E+00
  2.00000000E+01  5.40000000E+01  0.00000000E+00
  3.00000000E+01  5.40000000E+01  0.00000000E+00
  4.00000000E+01  5.40000000E+01  0.00000000E+00
  5.00000000E+01  5.40000000E+01  0.00000000E+00
  6.00000000E+01  5.40000000E+01  0.00000000E+00
  7.00000000E+01  5.40000000E+01  0.00000000E+00
  8.00000000E+01  5.40000000E+01  0.00000000E+00
  9.00000000E+01  5.40000000E+01  0.00000000E+00
  1.00000000E+02  5.40000000E+01  0.00000000E+00
  1.10000000E+02  5.40000000E+01  0.00000000E+00
  1.20000000E+02  5.40000000E+01  0.00000000E+00
  1.30000000E+02  5.40000000E+01  0.00000000E+00
  1.40000000E+02  5.40000000E+01  0.00000000E+00
  1.50000000E+02  5.40000000E+01  0.00000000E+00
  1.60000000E+02  5.40000000E+01  0.00000000E+00
  1.70000000E+02  5.40000000E+01  0.00000000E+00
  1.80000000E+02  5.40000000E+01  0.00000000E+00
  1.90000000E+02  5.40000000E+01  0.00000000E+00
  2.00000000E+02  5.40000000E+01  0.00000000E+00
  2.10000000E+02  5.40000000E+01  0.00000000E+00
  2.20000000E+02  5.40000000E+01  0.00000000E+00
  2.30000000E+02  5.40000000E+01  0.00000000E+00
  2.40000000E+02  5.40000000E+01  0.00000000E+00
  2.50000000E+02  5.40000000E+01  0.00000000E+00
  2.60000000E+02  5.40000000E+01  0.00000000E+00
  2.70000000E+02  5.40000000E+01  0.00000000E+00
  2.80000000E+02  5.40000000E+01  0.00000000E+00
  2.90000000E+02  5.40000000E+01  0.00000000E+00
  3.00000000E+02  5.40000000E+01  0.00000000E+00
  3.10000000E+02  5.40000000E+01  0.00000000E+00
  3.20000000E+02  5.40000000E+01  0.00000000E+00
  3.30000000E+02  5.40000000E+01  0.00000000E+00
  3.40000000E+02  5.40000000E+01  0.00000000E+00
  3.50000000E+02  5.40000000E+01  0.00000000E+00
  3.60000000E+02  5.40000000E+01  0.00000000E+00
  3.70000000E+02  5.40000000E+01  0.00000000E+00
  3.80000000E+02  5.40000000E+01  0.00000000E+00
  3.90000000E+02  5.40000000E+01  0.00000000E+00
  4.00000000E+02  5.40000000E+01  0.00000000E+00
  4.10000000E+02  5.40000000E+01  0.00000000E+00
  4.20000000E+02  5.40000000E+01  0.00000000E+00
  4.30000000E+02  5.40000000E+01  0.00000000E+00
  4.40000000E+02  5.40000000E+01  0.00000000E+00
  4.50000000E+02  5.40000000E+01  0.00000000E+00
  4.60000000E+02  5.40000000E+01  0.00000000E+00
  4.70000000E+02  5.40000000E+01  0.00000000E+00
  4.80000000E+02  5.40000000E+01  0.00000000E+00
  4.90000000E+02  5.40000000E+01  0.00000000E+00
  5.00000000E+02  5.40000000E+01  0.00000000E+00
  5.10000000E+02  5.40000000E+01  0.00000000E+00
  5.20000000E+02  5.40000000E+01  0.00000000E+00
  5.30000000E+02  5.40000000E+01  0.00000000E+00
  5.40000000E+02  5.40000000E+01  0.00000000E+00
  5.50000000E+02  5.40000000E+01  0.00000000E+00
  5.60000000E+02  5.40000000E+01  0.00000000E+00
  5.70000000E+02  5.40000000E+01  0.00000000E+00
  5.80000000E+02  5.40000000E+01  0.00000000E+00
  5.90000000E+02  5.40000000E+01  0.00000000E+00
  6.00000000E+02  5.40000000E+01  0.00000000E+00
  6.10000000E+02  5.40000000E+01  0.00000000E+00
  6.20000000E+02  5.40000000E+01  0.00000000E+00
  6.30000000E+02  5.40000000E+01  0.00000000E+00
  6.40000000E+02  5.40000000E+01  0.00000000E+00
  6.50000000E+02  5.40000000E+01  0.00000000E+00
  6.60000000E+02  5.40000000E+01  0.00000000E+00
  6.70000000E+02  5.40000000E+01  0.00000000E+00
  6.80000000E+02  5.40000000E+01  0.00000000E+00
  6.90000000E+02  5.40000000E+01  0.00000000E+00
  7.00000000E+02  5.40000000E+01  0.00000000E+00
  7.10000000E+02  5.40000000E+01  0.00000000E+00
  7.20000000E+02  5.40000000E+01  0.00000000E+00
  7.30000000E+02  5.40000000E+01  0.00000000E+00
  7.40000000E+02  5.40000000E+01  0.00000000E+00
  7.50000000E+02  5.40000000E+01  0.00000000E+00
  7.60000000E+02  5.40000000E+01  0.00000000E+00
  7.70000000E+02  5.40000000E+01  0.00000000E+00
  7.80000000E+02  5.40000000E+01  0.00000000E+00
  7.90000000E+02  5.40000000E+01  0.00000000E+00
  8.00000000E+02  5.40000000E+01  0.00000000E+00
  8.10000000E+02  5.40000000E+01  0.00000000E+00
  8.20000000E+02  5.40000000E+01  0.00000000E+00
  8.30000000E+02  5.40000000E+01  0.00000000E+00
  8.40000000E+02  5.40000000E+01  0.00000000E+00
  8.50000000E+02  5.40000000E+01  0.00000000E+00
  8.60000000E+02  5.40000000E+01  0.00000000E+00
  8.70000000E+02  5.40000000E+01  0.00000000E+00
  8.80000000E+02  5.40000000E+01  0.00000000E+00
  8.90000000E+02  5.40000000E+01  0.00000000E+00
  9.00000000E+02  5.40000000E+01  0.00000000E+00
  9.10000000E+02  5.40000000E+01  0.00000000E+00
  9.20000000E+02  5.40000000E+01  0.00000000E+00
  9.30000000E+02  5.40000000E+01  0.00000000E+00
  9.40000000E+02  5.40000000E+01  0.00000000E+00
  9.50000000E+02  5.40000000E+01  0.00000000E+00
  9.60000000E+02  5.40000000E+01  0.00000000E+00
  9.70000000E+02  5.40000000E+01  0.00000000E+00
  9.80000000E+02  5.40000000E+01  0.00000000E+00
  9.90000000E+02  5.40000000E+01  0.00000000E+00
  1.00000000E+03  5.40000000E+01  0.00000000E+00
  0.00000000E+00  5.60000000E+01  0.00000000E+00
  1.00000000E+01  5.60000000E+01  0.00000000E+00
  2.00000000E+01  5.60000000E+01  0.00000000E+00
  3.00000000E+01  5.60000000E+01  0.00000000E+00
  4.00000000E+01  5.60000000E+01  0.00000000E+00
  5.00000000E+01  5.60000000E+01  0.00000000E+00
  6.00000000E+01  5.60000000E+01  0.00000000E+00
  7.00000000E+01  5.60000000E+01  0.00000000E+00
  8.00000000E+01  5.60000000E+01  0.00000000E+00
  9.00000000E+01  5.60000000E+01  0.00000000E+00
  1.00000000E+02  5.60000000E+01  0.00000000E+00
  1.10000000E+02  5.60000000E+01  0.00000000E+00
  1.20000000E+02  5.60000000E+01  0.00000000E+00
  1.30000000E+02  5.60000000E+01  0.00000000E+00
  1.40000000E+02  5.60000000E+01  0.00000000E+00
  1.50000000E+02  5.60000000E+01  0.00000000E+00
  1.60000000E+02  5.60000000E+01  0.00000000E+00
  1.70000000E+02  5.60000000E+01  0.00000000E+00
  1.80000000E+02  5.60000000E+01  0.00000000E+00
  1.90000000E+02  5.60000000E+01  0.00000000E+00
  2.00000000E+02  5.60000000E+01  0.00000000E+00
  2.10000000E+02  5.60000000E+01  0.00000000E+00
  2.20000000E+02  5.60000000E+01  0.00000000E+00
  2.30000000E+02  5.60000000E+01  0.00000000E+00
  2.40000000E+02  5.60000000E+01  0.00000000E+00
  2.50000000E+02  5.60000000E+01  0.00000000E+00
  2.60000000E+02  5.60000000E+01  0.00000000E+00
  2.70000000E+02  5.60000000E+01  0.00000000E+00
  2.80000000E+02  5.60000000E+01  0.00000000E+00
  2.90000000E+02  5.60000000E+01  0.00000000E+00
  3.00000000E+02  5.60000000E+01  0.00000000E+00
  3.10000000E+02  5.60000000E+01  0.00000000E+00
  3.20000000E+02  5.60000000E+01  0.00000000E+00
  3.30000000E+02  5.60000000E+01  0.00000000E+00
  3.40000000E+02  5.60000000E+01  0.00000000E+00
  3.50000000E+02  5.60000000E+01  0.00000000E+00
  3.60000000E+02  5.60000000E+01  0.00000000E+00
  3.70000000E+02  5.60000000E+01  0.00000000E+00
  3.80000000E+02  5.60000000E+01  0.00000000E+00
  3.90000000E+02  5.60000000E+01  0.00000000E+00
  4.00000000E+02  5.60000000E+01  0.00000000E+00
  4.10000000E+02  5.60000000E+01  0.00000000E+00
  4.20000000E+02  5.60000000E+01  0.00000000E+00
  4.30000000E+02  5.60000000E+01  0.00000000E+00
  4.40000000E+02  5.60000000E+01  0.00000000E+00
  4.50000000E+02  5.60000000E+01  0.00000000E+00
  4.60000000E+02  5.60000000E+01  0.00000000E+00
  4.70000000E+02  5.60000000E+01  0.00000000E+00
  4.80000000E+02  5.60000000E+01  0.00000000E+00
  4.90000000E+02  5.60000000E+01  0.00000000E+00
  5.00000000E+02  5.60000000E+01  0.00000000E+00
  5.10000000E+02  5.60000000E+01  0.00000000E+00
  5.20000000E+02  5.60000000E+01  0.00000000E+00
  5.30000000E+02  5.60000000E+01  0.00000000E+00
  5.40000000E+02  5.60000000E+01  0.00000000E+00
  5.50000000E+02  5.60000000E+01  0.00000000E+00
  5.60000000E+02  5.60000000E+01  0.00000000E+00
  5.70000000E+02  5.60000000E+01  0.00000000E+00
  5.80000000E+02  5.60000000E+01  0.00000000E+00
  5.90000000E+02  5.60000000E+01  0.00000000E+00
  6.00000000E+02  5.60000000E+01  0.00000000E+00
  6.10000000E+02  5.60000000E+01  0.00000000E+00
  6.20000000E+02  5.60000000E+01  0.00000000E+00
  6.30000000E+02  5.60000000E+01  0.00000000E+00
  6.40000000E+02  5.60000000E+01  0.00000000E+00
  6.50000000E+02  5.60000000E+01  0.00000000E+00
  6.60000000E+02  5.60000000E+01  0.00000000E+00
  6.70000000E+02  5.60000000E+01  0.00000000E+00
  6.80000000E+02  5.60000000E+01  0.00000000E+00
  6.90000000E+02  5.60000000E+01  0.00000000E+00
  7.00000000E+02  5.60000000E+01  0.00000000E+00
  7.10000000E+02  5.60000000E+01  0.00000000E+00
  7.20000000E+02  5.60000000E+01  0.00000000E+00
  7.30000000E+02  5.60000000E+01  0.00000000E+00
  7.40000000E+02  5.60000000E+01  0.00000000E+00
  7.50000000E+02  5.60000000E+01  0.00000000E+00
  7.60000000E+02  5.60000000E+01  0.00000000E+00
  7.70000000E+02  5.60000000E+01  0.00000000E+00
  7.80000000E+02  5.60000000E+01  0.00000000E+00
  7.90000000E+02  5.60000000E+01  0.00000000E+00
  8.00000000E+02  5.60000000E+01  0.00000000E+00
  8.10000000E+02  5.60000000E+01  0.00000000E+00
  8.20000000E+02  5.60000000E+01  0.00000000E+00
  8.30000000E+02  5.60000000E+01  0.00000000E+00
  8.40000000E+02  5.60000000E+01  0.00000000E+00
  8.50000000E+02  5.60000000E+01  0.00000000E+00
  8.60000000E+02  5.60000000E+01  0.00000000E+00
  8.70000000E+02  5.60000000E+01  0.00000000E+00
  8.80000000E+02  5.60000000E+01  0.00000000E+00
  8.90000000E+02  5.60000000E+01  0.00000000E+00
  9.00000000E+02  5.60000000E+01  0.00000000E+00
  9.10000000E+02  5.60000000E+01  0.00000000E+00
  9.20000000E+02  5.60000000E+01  0.00000000E+00
  9.30000000E+02  5.60000000E+01  0.00000000E+00
  9.40000000E+02  5.60000000E+01  0.00000000E+00
  9.50000000E+02  5.60000000E+01  0.00000000E+00
  9.60000000E+02  5.60000000E+01  0.00000000E+00
  9.70000000E+02  5.60000000E+01  0.00000000E+00
  9.80000000E+02  5.60000000E+01  0.00000000E+00
  9.90000000E+02  5.60000000E+01  0.00000000E+00
  1.00000000E+03  5.60000000E+01  0.00000000E+00
  0.00000000E+00  5.80000000E+01  0.00000000E+00
  1.00000000E+01  5.80000000E+01  0.00000000E+00
  2.00000000E+01  5.80000000E+01  0.00000000E+00
  3.00000000E+01  5.80000000E+01  0.00000000E+00
  4.00000000E+01  5.80000000E+01  0.00000000E+00
  5.00000000E+01  5.80000000E+01  0.00000000E+00
  6.00000000E+01  5.80000000E+01  0.00000000E+00
  7.00000000E+01  5.80000000E+01  0.00000000E+00
  8.00000000E+01  5.80000000E+01  0.00000000E+00
  9.00000000E+01  5.80000000E+01  0.00000000E+00
  1.00000000E+02  5.80000000E+01  0.00000000E+00
  1.10000000E+02  5.80000000E+01  0.00000000E+00
  1.20000000E+02  5.80000000E+01  0.00000000E+00
  1.30000000E+02  5.80000000E+01  0.00000000E+00
  1.40000000E+02  5.80000000E+01  0.00000000E+00
  1.50000000E+02  5.80000000E+01  0.00000000E+00
  1.60000000E+02  5.80000000E+01  0.00000000E+00
  1.70000000E+02  5.80000000E+01  0.00000000E+00
  1.80000000E+02  5.80000000E+01  0.00000000E+00
  1.90000000E+02  5.80000000E+01  0.00000000E+00
  2.00000000E+02  5.80000000E+01  0.00000000E+00
  2.10000000E+02  5.80000000E+01  0.00000000E+00
  2.20000000E+02  5.80000000E+01  0.00000000E+00
  2.30000000E+02  5.80000000E+01  0.00000000E+00
  2.40000000E+02  5.80000000E+01  0.00000000E+00
  2.50000000E+02  5.80000000E+01  0.00000000E+00
  2.60000000E+02  5.80000000E+01  0.00000000E+00
  2.70000000E+02  5.80000000E+01  0.00000000E+00
  2.80000000E+02  5.80000000E+01  0.00000000E+00
  2.90000000E+02  5.80000000E+01  0.00000000E+00
  3.00000000E+02  5.80000000E+01  0.00000000E+00
  3.10000000E+02  5.80000000E+01  0.00000000E+00
  3.20000000E+02  5.80000000E+01  0.00000000E+00
  3.30000000E+02  5.80000000E+01  0.00000000E+00
  3.40000000E+02  5.80000000E+01  0.00000000E+00
  3.50000000E+02  5.80000000E+01  0.00000000E+00
  3.60000000E+02  5.80000000E+01  0.00000000E+00
  3.70000000E+02  5.80000000E+01  0.00000000E+00
  3.80000000E+02  5.80000000E+01  0.00000000E+00
  3.90000000E+02  5.80000000E+01  0.00000000E+00
  4.00000000E+02  5.80000000E+01  0.00000000E+00
  4.10000000E+02  5.80000000E+01  0.00000000E+00
  4.20000000E+02  5.80000000E+01  0.00000000E+00
  4.30000000E+02  5.80000000E+01  0.00000000E+00
  4.40000000E+02  5.80000000E+01  0.00000000E+00
  4.50000000E+02  5.80000000E+01  0.00000000E+00
  4.60000000E+02  5.80000000E+01  0.00000000E+00
  4.70000000E+02  5.80000000E+01  0.00000000E+00
  4.80000000E+02  5.80000000E+01  0.00000000E+00
  4.90000000E+02  5.80000000E+01  0.00000000E+00
  5.00000000E+02  5.80000000E+01  0.00000000E+00
  5.10000000E+02  5.80000000E+01  0.00000000E+00
  5.20000000E+02  5.80000000E+01  0.00000000E+00
  5.30000000E+02  5.80000000E+01  0.00000000E+00
  5.40000000E+02  5.80000000E+01  0.00000000E+00
  5.50000000E+02  5.80000000E+01  0.00000000E+00
  5.60000000E+02  5.80000000E+01  0.00000000E+00
  5.70000000E+02  5.80000000E+01  0.00000000E+00
  5.80000000E+02  5.80000000E+01  0.00000000E+00
  5.90000000E+02  5.80000000E+01  0.00000000E+00
  6.00000000E+02  5.80000000E+01  0.00000000E+00
  6.10000000E+02  5.80000000E+01  0.00000000E+00
  6.20000000E+02  5.80000000E+01  0.00000000E+00
  6.30000000E+02  5.80000000E+01  0.00000000E+00
  6.40000000E+02  5.80000000E+01  0.00000000E+00
  6.50000000E+02  5.80000000E+01  0.00000000E+00
  6.60000000E+02  5.80000000E+01  0.00000000E+00
  6.70000000E+02  5.80000000E+01  0.00000000E+00
  6.80000000E+02  5.80000000E+01  0.00000000E+00
  6.90000000E+02  5.80000000E+01  0.00000000E+00
  7.00000000E+02  5.80000000E+01  0.00000000E+00
  7.10000000E+02  5.80000000E+01  0.00000000E+00
  7.20000000E+02  5.80000000E+01  0.00000000E+00
  7.30000000E+02  5.80000000E+01  0.00000000E+00
  7.40000000E+02  5.80000000E+01  0.00000000E+00
  7.50000000E+02  5.80000000E+01  0.00000000E+00
  7.60000000E+02  5.80000000E+01  0.00000000E+00
  7.70000000E+02  5.80000000E+01  0.00000000E+00
  7.80000000E+02  5.80000000E+01  0.00000000E+00
  7.90000000E+02  5.80000000E+01  0.00000000E+00
  8.00000000E+02  5.80000000E+01  0.00000000E+00
  8.10000000E+02  5.80000000E+01  0.00000000E+00
  8.20000000E+02  5.80000000E+01  0.00000000E+00
  8.30000000E+02  5.80000000E+01  0.00000000E+00
  8.40000000E+02  5.80000000E+01  0.00000000E+00
  8.50000000E+02  5.80000000E+01  0.00000000E+00
  8.60000000E+02  5.80000000E+01  0.00000000E+00
  8.70000000E+02  5.80000000E+01  0.00000000E+00
  8.80000000E+02  5.80000000E+01  0.00000000E+00
  8.90000000E+02  5.80000000E+01  0.00000000E+00
  9.00000000E+02  5.80000000E+01  0.00000000E+00
  9.10000000E+02  5.80000000E+01  0.00000000E+00
  9.20000000E+02  5.80000000E+01  0.00000000E+00
  9.30000000E+02  5.80000000E+01  0.00000000E+00
  9.40000000E+02  5.80000000E+01  0.00000000E+00
  9.50000000E+02  5.80000000E+01  0.00000000E+00
  9.60000000E+02  5.80000000E+01  0.00000000E+00
  9.70000000E+02  5.80000000E+01  0.00000000E+00
  9.80000000E+02  5.80000000E+01  0.00000000E+00
  9.90000000E+02  5.80000000E+01  0.00000000E+00
  1.00000000E+03  5.80000000E+01  0.00000000E+00
  0.00000000E+00  6.00000000E+01  0.00000000E+00
  1.00000000E+01  6.00000000E+01  0.00000000E+00
  2.00000000E+01  6.00000000E+01  0.00000000E+00
  3.00000000E+01  6.00000000E+01  0.00000000E+00
  4.00000000E+01  6.00000000E+01  0.00000000E+00
  5.00000000E+01  6.00000000E+01  0.00000000E+00
  6.00000000E+01  6.00000000E+01  0.00000000E+00
  7.00000000E+01  6.00000000E+01  0.00000000E+00
  8.00000000E+01  6.00000000E+01  0.00000000E+00
  9.00000000E+01  6.00000000E+01  0.00000000E+00
  1.00000000E+02  6.00000000E+01  0.00000000E+00
  1.10000000E+02  6.00000000E+01  0.00000000E+00
  1.20000000E+02  6.00000000E+01  0.00000000E+00
  1.30000000E+02  6.00000000E+01  0.00000000E+00
  1.40000000E+02  6.00000000E+01  0.00000000E+00
  1.50000000E+02  6.00000000E+01  0.00000000E+00
  1.60000000E+02  6.00000000E+01  0.00000000E+00
  1.70000000E+02  6.00000000E+01  0.00000000E+00
  1.80000000E+02  6.00000000E+01  0.00000000E+00
  1.90000000E+02  6.00000000E+01  0.00000000E+00
  2.00000000E+02  6.00000000E+01  0.00000000E+00
  2.10000000E+02  6.00000000E+01  0.00000000E+00
  2.20000000E+02  6.00000000E+01  0.00000000E+00
  2.30000000E+02  6.00000000E+01  0.00000000E+00
  2.40000000E+02  6.00000000E+01  0.00000000E+00
  2.50000000E+02  6.00000000E+01  0.00000000E+00
  2.60000000E+02  6.00000000E+01  0.00000000E+00
  2.70000000E+02  6.00000000E+01  0.00000000E+00
  2.80000000E+02  6.00000000E+01  0.00000000E+00
  2.90000000E+02  6.00000000E+01  0.00000000E+00
  3.00000000E+02  6.00000000E+01  0.00000000E+00
  3.10000000E+02  6.00000000E+01  0.00000000E+00
  3.20000000E+02  6.00000000E+01  0.00000000E+00
  3.30000000E+02  6.00000000E+01  0.00000000E+00
  3.40000000E+02  6.00000000E+01  0.00000000E+00
  3.50000000E+02  6.00000000E+01  0.00000000E+00
  3.60000000E+02  6.00000000E+01  0.00000000E+00
  3.70000000E+02  6.00000000E+01  0.00000000E+00
  3.80000000E+02  6.00000000E+01  0.00000000E+00
  3.90000000E+02  6.00000000E+01  0.00000000E+00
  4.00000000E+02  6.00000000E+01  0.00000000E+00
  4.10000000E+02  6.00000000E+01  0.00000000E+00
  4.20000000E+02  6.00000000E+01  0.00000000E+00
  4.30000000E+02  6.00000000E+01  0.00000000E+00
  4.40000000E+02  6.00000000E+01  0.00000000E+00
  4.50000000E+02  6.00000000E+01  0.00000000E+00
  4.60000000E+02  6.00000000E+01  0.00000000E+00
  4.70000000E+02  6.00000000E+01  0.00000000E+00
  4.80000000E+02  6.00000000E+01  0.00000000E+00
  4.90000000E+02  6.00000000E+01  0.00000000E+00
  5.00000000E+02  6.00000000E+01  0.00000000E+00
  5.10000000E+02  6.00000000E+01  0.00000000E+00
  5.20000000E+02  6.00000000E+01  0.00000000E+00
  5.30000000E+02  6.00000000E+01  0.00000000E+00
  5.40000000E+02  6.00000000E+01  0.00000000E+00
  5.50000000E+02  6.00000000E+01  0.00000000E+00
  5.60000000E+02  6.00000000E+01  0.00000000E+00
  5.70000000E+02  6.00000000E+01  0.00000000E+00
  5.80000000E+02  6.00000000E+01  0.00000000E+00
  5.90000000E+02  6.00000000E+01  0.00000000E+00
  6.00000000E+02  6.00000000E+01  0.00000000E+00
  6.10000000E+02  6.00000000E+01  0.00000000E+00
  6.20000000E+02  6.00000000E+01  0.00000000E+00
  6.30000000E+02  6.00000000E+01  0.00000000E+00
  6.40000000E+02  6.00000000E+01  0.00000000E+00
  6.50000000E+02  6.00000000E+01  0.00000000E+00
  6.60000000E+02  6.00000000E+01  0.00000000E+00
  6.70000000E+02  6.00000000E+01  0.00000000E+00
  6.80000000E+02  6.00000000E+01  0.00000000E+00
  6.90000000E+02  6.00000000E+01  0.00000000E+00
  7.00000000E+02  6.00000000E+01  0.00000000E+00
  7.10000000E+02  6.00000000E+01  0.00000000E+00
  7.20000000E+02  6.00000000E+01  0.00000000E+00
  7.30000000E+02  6.00000000E+01  0.00000000E+00
  7.40000000E+02  6.00000000E+01  0.00000000E+00
  7.50000000E+02  6.00000000E+01  0.00000000E+00
  7.60000000E+02  6.00000000E+01  0.00000000E+00
  7.70000000E+02  6.00000000E+01  0.00000000E+00
  7.80000000E+02  6.00000000E+01  0.00000000E+00
  7.90000000E+02  6.00000000E+01  0.00000000E+00
  8.00000000E+02  6.00000000E+01  0.00000000E+00
  8.10000000E+02  6.00000000E+01  0.00000000E+00
  8.20000000E+02  6.00000000E+01  0.00000000E+00
  8.30000000E+02  6.00000000E+01  0.00000000E+00
  8.40000000E+02  6.00000000E+01  0.00000000E+00
  8.50000000E+02  6.00000000E+01  0.00000000E+00
  8.60000000E+02  6.00000000E+01  0.00000000E+00
  8.70000000E+02  6.00000000E+01  0.00000000E+00
  8.80000000E+02  6.00000000E+01  0.00000000E+00
  8.90000000E+02  6.00000000E+01  0.00000000E+00
  9.00000000E+02  6.00000000E+01  0.00000000E+00
  9.10000000E+02  6.00000000E+01  0.00000000E+00
  9.20000000E+02  6.00000000E+01  0.00000000E+00
  9.30000000E+02  6.00000000E+01  0.00000000E+00
  9.40000000E+02  6.00000000E+01  0.00000000E+00
  9.50000000E+02  6.00000000E+01  0.00000000E+00
  9.60000000E+02  6.00000000E+01  0.00000000E+00
  9.70000000E+02  6.00000000E+01  0.00000000E+00
  9.80000000E+02  6.00000000E+01  0.00000000E+00
  9.90000000E+02  6.00000000E+01  0.00000000E+00
  1.00000000E+03  6.00000000E+01  0.00000000E+00
  0.00000000E+00  6.20000000E+01  0.00000000E+00
  1.00000000E+01  6.20000000E+01  0.00000000E+00
  2.00000000E+01  6.20000000E+01  0.00000000E+00
  3.00000000E+01  6.20000000E+01  0.00000000E+00
  4.00000000E+01  6.20000000E+01  0.00000000E+00
  5.00000000E+01  6.20000000E+01  0.00000000E+00
  6.00000000E+01  6.20000000E+01  0.00000000E+00
  7.00000000E+01  6.20000000E+01  0.00000000E+00
  8.00000000E+01  6.20000000E+01  0.00000000E+00
  9.00000000E+01  6.20000000E+01  0.00000000E+00
  1.00000000E+02  6.20000000E+01  0.00000000E+00
  1.10000000E+02  6.20000000E+01  0.00000000E+00
  1.20000000E+02  6.20000000E+01  0.00000000E+00
  1.30000000E+02  6.20000000E+01  0.00000000E+00
  1.40000000E+02  6.20000000E+01  0.00000000E+00
  1.50000000E+02  6.20000000E+01  0.00000000E+00
  1.60000000E+02  6.20000000E+01  0.00000000E+00
  1.70000000E+02  6.20000000E+01  0.00000000E+00
  1.80000000E+02  6.20000000E+01  0.00000000E+00
  1.90000000E+02  6.20000000E+01  0.00000000E+00
  2.00000000E+02  6.20000000E+01  0.00000000E+00
  2.10000000E+02  6.20000000E+01  0.00000000E+00
  2.20000000E+02  6.20000000E+01  0.00000000E+00
  2.30000000E+02  6.20000000E+01  0.00000000E+00
  2.40000000E+02  6.20000000E+01  0.00000000E+00
  2.50000000E+02  6.20000000E+01  0.00000000E+00
  2.60000000E+02  6.20000000E+01  0.00000000E+00
  2.70000000E+02  6.20000000E+01  0.00000000E+00
  2.80000000E+02  6.20000000E+01  0.00000000E+00
  2.90000000E+02  6.20000000E+01  0.00000000E+00
  3.00000000E+02  6.20000000E+01  0.00000000E+00
  3.10000000E+02  6.20000000E+01  0.00000000E+00
  3.20000000E+02  6.20000000E+01  0.00000000E+00
  3.30000000E+02  6.20000000E+01  0.00000000E+00
  3.40000000E+02  6.20000000E+01  0.00000000E+00
  3.50000000E+02  6.20000000E+01  0.00000000E+00
  3.60000000E+02  6.20000000E+01  0.00000000E+00
  3.70000000E+02  6.20000000E+01  0.00000000E+00
  3.80000000E+02  6.20000000E+01  0.00000000E+00
  3.90000000E+02  6.20000000E+01  0.00000000E+00
  4.00000000E+02  6.20000000E+01  0.00000000E+00
  4.10000000E+02  6.20000000E+01  0.00000000E+00
  4.20000000E+02  6.20000000E+01  0.00000000E+00
  4.30000000E+02  6.20000000E+01  0.00000000E+00
  4.40000000E+02  6.20000000E+01  0.00000000E+00
  4.50000000E+02  6.20000000E+01  0.00000000E+00
  4.60000000E+02  6.20000000E+01  0.00000000E+00
  4.70000000E+02  6.20000000E+01  0.00000000E+00
  4.80000000E+02  6.20000000E+01  0.00000000E+00
  4.90000000E+02  6.20000000E+01  0.00000000E+00
  5.00000000E+02  6.20000000E+01  0.00000000E+00
  5.10000000E+02  6.20000000E+01  0.00000000E+00
  5.20000000E+02  6.20000000E+01  0.00000000E+00
  5.30000000E+02  6.20000000E+01  0.00000000E+00
  5.40000000E+02  6.20000000E+01  0.00000000E+00
  5.50000000E+02  6.20000000E+01  0.00000000E+00
  5.60000000E+02  6.20000000E+01  0.00000000E+00
  5.70000000E+02  6.20000000E+01  0.00000000E+00
  5.80000000E+02  6.20000000E+01  0.00000000E+00
  5.90000000E+02  6.20000000E+01  0.00000000E+00
  6.00000000E+02  6.20000000E+01  0.00000000E+00
  6.10000000E+02  6.20000000E+01  0.00000000E+00
  6.20000000E+02  6.20000000E+01  0.00000000E+00
  6.30000000E+02  6.20000000E+01  0.00000000E+00
  6.40000000E+02  6.20000000E+01  0.00000000E+00
  6.50000000E+02  6.20000000E+01  0.00000000E+00
  6.60000000E+02  6.20000000E+01  0.00000000E+00
  6.70000000E+02  6.20000000E+01  0.00000000E+00
  6.80000000E+02  6.20000000E+01  0.00000000E+00
  6.90000000E+02  6.20000000E+01  0.00000000E+00
  7.00000000E+02  6.20000000E+01  0.00000000E+00
  7.10000000E+02  6.20000000E+01  0.00000000E+00
  7.20000000E+02  6.20000000E+01  0.00000000E+00
  7.30000000E+02  6.20000000E+01  0.00000000E+00
  7.40000000E+02  6.20000000E+01  0.00000000E+00
  7.50000000E+02  6.20000000E+01  0.00000000E+00
  7.60000000E+02  6.20000000E+01  0.00000000E+00
  7.70000000E+02  6.20000000E+01  0.00000000E+00
  7.80000000E+02  6.20000000E+01  0.00000000E+00
  7.90000000E+02  6.20000000E+01  0.00000000E+00
  8.00000000E+02  6.20000000E+01  0.00000000E+00
  8.10000000E+02  6.20000000E+01  0.00000000E+00
  8.20000000E+02  6.20000000E+01  0.00000000E+00
  8.30000000E+02  6.20000000E+01  0.00000000E+00
  8.40000000E+02  6.20000000E+01  0.00000000E+00
  8.50000000E+02  6.20000000E+01  0.00000000E+00
  8.60000000E+02  6.20000000E+01  0.00000000E+00
  8.70000000E+02  6.20000000E+01  0.00000000E+00
  8.80000000E+02  6.20000000E+01  0.00000000E+00
  8.90000000E+02  6.20000000E+01  0.00000000E+00
  9.00000000E+02  6.20000000E+01  0.00000000E+00
  9.10000000E+02  6.20000000E+01  0.00000000E+00
  9.20000000E+02  6.20000000E+01  0.00000000E+00
  9.30000000E+02  6.20000000E+01  0.00000000E+00
  9.40000000E+02  6.20000000E+01  0.00000000E+00
  9.50000000E+02  6.20000000E+01  0.00000000E+00
  9.60000000E+02  6.20000000E+01  0.00000000E+00
  9.70000000E+02  6.20000000E+01  0.00000000E+00
  9.80000000E+02  6.20000000E+01  0.00000000E+00
  9.90000000E+02  6.20000000E+01  0.00000000E+00
  1.00000000E+03  6.20000000E+01  0.00000000E+00
  0.00000000E+00  6.40000000E+01  0.00000000E+00
  1.00000000E+01  6.40000000E+01  0.00000000E+00
  2.00000000E+01  6.40000000E+01  0.00000000E+00
  3.00000000E+01  6.40000000E+01  0.00000000E+00
  4.00000000E+01  6.40000000E+01  0.00000000E+00
  5.00000000E+01  6.40000000E+01  0.00000000E+00
  6.00000000E+01  6.40000000E+01  0.00000000E+00
  7.00000000E+01  6.40000000E+01  0.00000000E+00
  8.00000000E+01  6.40000000E+01  0.00000000E+00
  9.00000000E+01  6.40000000E+01  0.00000000E+00
  1.00000000E+02  6.40000000E+01  0.00000000E+00
  1.10000000E+02  6.40000000E+01  0.00000000E+00
  1.20000000E+02  6.40000000E+01  0.00000000E+00
  1.30000000E+02  6.40000000E+01  0.00000000E+00
  1.40000000E+02  6.40000000E+01  0.00000000E+00
  1.50000000E+02  6.40000000E+01  0.00000000E+00
  1.60000000E+02  6.40000000E+01  0.00000000E+00
  1.70000000E+02  6.40000000E+01  0.00000000E+00
  1.80000000E+02  6.40000000E+01  0.00000000E+00
  1.90000000E+02  6.40000000E+01  0.00000000E+00
  2.00000000E+02  6.40000000E+01  0.00000000E+00
  2.10000000E+02  6.40000000E+01  0.00000000E+00
  2.20000000E+02  6.40000000E+01  0.00000000E+00
  2.30000000E+02  6.40000000E+01  0.00000000E+00
  2.40000000E+02  6.40000000E+01  0.00000000E+00
  2.50000000E+02  6.40000000E+01  0.00000000E+00
  2.60000000E+02  6.40000000E+01  0.00000000E+00
  2.70000000E+02  6.40000000E+01  0.00000000E+00
  2.80000000E+02  6.40000000E+01  0.00000000E+00
  2.90000000E+02  6.40000000E+01  0.00000000E+00
  3.00000000E+02  6.40000000E+01  0.00000000E+00
  3.10000000E+02  6.40000000E+01  0.00000000E+00
  3.20000000E+02  6.40000000E+01  0.00000000E+00
  3.30000000E+02  6.40000000E+01  0.00000000E+00
  3.40000000E+02  6.40000000E+01  0.00000000E+00
  3.50000000E+02  6.40000000E+01  0.00000000E+00
  3.60000000E+02  6.40000000E+01  0.00000000E+00
  3.70000000E+02  6.40000000E+01  0.00000000E+00
  3.80000000E+02  6.40000000E+01  0.00000000E+00
  3.90000000E+02  6.40000000E+01  0.00000000E+00
  4.00000000E+02  6.40000000E+01  0.00000000E+00
  4.10000000E+02  6.40000000E+01  0.00000000E+00
  4.20000000E+02  6.40000000E+01  0.00000000E+00
  4.30000000E+02  6.40000000E+01  0.00000000E+00
  4.40000000E+02  6.40000000E+01  0.00000000E+00
  4.50000000E+02  6.40000000E+01  0.00000000E+00
  4.60000000E+02  6.40000000E+01  0.00000000E+00
  4.70000000E+02  6.40000000E+01  0.00000000E+00
  4.80000000E+02  6.40000000E+01  0.00000000E+00
  4.90000000E+02  6.40000000E+01  0.00000000E+00
  5.00000000E+02  6.40000000E+01  0.00000000E+00
  5.10000000E+02  6.40000000E+01  0.00000000E+00
  5.20000000E+02  6.40000000E+01  0.00000000E+00
  5.30000000E+02  6.40000000E+01  0.00000000E+00
  5.40000000E+02  6.40000000E+01  0.00000000E+00
  5.50000000E+02  6.40000000E+01  0.00000000E+00
  5.60000000E+02  6.40000000E+01  0.00000000E+00
  5.70000000E+02  6.40000000E+01  0.00000000E+00
  5.80000000E+02  6.40000000E+01  0.00000000E+00
  5.90000000E+02  6.40000000E+01  0.00000000E+00
  6.00000000E+02  6.40000000E+01  0.00000000E+00
  6.10000000E+02  6.40000000E+01  0.00000000E+00
  6.20000000E+02  6.40000000E+01  0.00000000E+00
  6.30000000E+02  6.40000000E+01  0.00000000E+00
  6.40000000E+02  6.40000000E+01  0.00000000E+00
  6.50000000E+02  6.40000000E+01  0.00000000E+00
  6.60000000E+02  6.40000000E+01  0.00000000E+00
  6.70000000E+02  6.40000000E+01  0.00000000E+00
  6.80000000E+02  6.40000000E+01  0.00000000E+00
  6.90000000E+02  6.40000000E+01  0.00000000E+00
  7.00000000E+02  6.40000000E+01  0.00000000E+00
  7.10000000E+02  6.40000000E+01  0.00000000E+00
  7.20000000E+02  6.40000000E+01  0.00000000E+00
  7.30000000E+02  6.40000000E+01  0.00000000E+00
  7.40000000E+02  6.40000000E+01  0.00000000E+00
  7.50000000E+02  6.40000000E+01  0.00000000E+00
  7.60000000E+02  6.40000000E+01  0.00000000E+00
  7.70000000E+02  6.40000000E+01  0.00000000E+00
  7.80000000E+02  6.40000000E+01  0.00000000E+00
  7.90000000E+02  6.40000000E+01  0.00000000E+00
  8.00000000E+02  6.40000000E+01  0.00000000E+00
  8.10000000E+02  6.40000000E+01  0.00000000E+00
  8.20000000E+02  6.40000000E+01  0.00000000E+00
  8.30000000E+02  6.40000000E+01  0.00000000E+00
  8.40000000E+02  6.40000000E+01  0.00000000E+00
  8.50000000E+02  6.40000000E+01  0.00000000E+00
  8.60000000E+02  6.40000000E+01  0.00000000E+00
  8.70000000E+02  6.40000000E+01  0.00000000E+00
  8.80000000E+02  6.40000000E+01  0.00000000E+00
  8.90000000E+02  6.40000000E+01  0.00000000E+00
  9.00000000E+02  6.40000000E+01  0.00000000E+00
  9.10000000E+02  6.40000000E+01  0.00000000E+00
  9.20000000E+02  6.40000000E+01  0.00000000E+00
  9.30000000E+02  6.40000000E+01  0.00000000E+00
  9.40000000E+02  6.40000000E+01  0.00000000E+00
  9.50000000E+02  6.40000000E+01  0.00000000E+00
  9.60000000E+02  6.40000000E+01  0.00000000E+00
  9.70000000E+02  6.40000000E+01  0.00000000E+00
  9.80000000E+02  6.40000000E+01  0.00000000E+00
  9.90000000E+02  6.40000000E+01  0.00000000E+00
  1.00000000E+03  6.40000000E+01  0.00000000E+00
  0.00000000E+00  6.60000000E+01  0.00000000E+00
  1.00000000E+01  6.60000000E+01  0.00000000E+00
  2.00000000E+01  6.60000000E+01  0.00000000E+00
  3.00000000E+01  6.60000000E+01  0.00000000E+00
  4.00000000E+01  6.60000000E+01  0.00000000E+00
  5.00000000E+01  6.60000000E+01  0.00000000E+00
  6.00000000E+01  6.60000000E+01  0.00000000E+00
  7.00000000E+01  6.60000000E+01  0.00000000E+00
  8.00000000E+01  6.60000000E+01  0.00000000E+00
  9.00000000E+01  6.60000000E+01  0.00000000E+00
  1.00000000E+02  6.60000000E+01  0.00000000E+00
  1.10000000E+02  6.60000000E+01  0.00000000E+00
  1.20000000E+02  6.60000000E+01  0.00000000E+00
  1.30000000E+02  6.60000000E+01  0.00000000E+00
  1.40000000E+02  6.60000000E+01  0.00000000E+00
  1.50000000E+02  6.60000000E+01  0.00000000E+00
  1.60000000E+02  6.60000000E+01  0.00000000E+00
  1.70000000E+02  6.60000000E+01  0.00000000E+00
  1.80000000E+02  6.60000000E+01  0.00000000E+00
  1.90000000E+02  6.60000000E+01  0.00000000E+00
  2.00000000E+02  6.60000000E+01  0.00000000E+00
  2.10000000E+02  6.60000000E+01  0.00000000E+00
  2.20000000E+02  6.60000000E+01  0.00000000E+00
  2.30000000E+02  6.60000000E+01  0.00000000E+00
  2.40000000E+02  6.60000000E+01  0.00000000E+00
  2.50000000E+02  6.60000000E+01  0.00000000E+00
  2.60000000E+02  6.60000000E+01  0.00000000E+00
  2.70000000E+02  6.60000000E+01  0.00000000E+00
  2.80000000E+02  6.60000000E+01  0.00000000E+00
  2.90000000E+02  6.60000000E+01  0.00000000E+00
  3.00000000E+02  6.60000000E+01  0.00000000E+00
  3.10000000E+02  6.60000000E+01  0.00000000E+00
  3.20000000E+02  6.60000000E+01  0.00000000E+00
  3.30000000E+02  6.60000000E+01  0.00000000E+00
  3.40000000E+02  6.60000000E+01  0.00000000E+00
  3.50000000E+02  6.60000000E+01  0.00000000E+00
  3.60000000E+02  6.60000000E+01  0.00000000E+00
  3.70000000E+02  6.60000000E+01  0.00000000E+00
  3.80000000E+02  6.60000000E+01  0.00000000E+00
  3.90000000E+02  6.60000000E+01  0.00000000E+00
  4.00000000E+02  6.60000000E+01  0.00000000E+00
  4.10000000E+02  6.60000000E+01  0.00000000E+00
  4.20000000E+02  6.60000000E+01  0.00000000E+00
  4.30000000E+02  6.60000000E+01  0.00000000E+00
  4.40000000E+02  6.60000000E+01  0.00000000E+00
  4.50000000E+02  6.60000000E+01  0.00000000E+00
  4.60000000E+02  6.60000000E+01  0.00000000E+00
  4.70000000E+02  6.60000000E+01  0.00000000E+00
  4.80000000E+02  6.60000000E+01  0.00000000E+00
  4.90000000E+02  6.60000000E+01  0.00000000E+00
  5.00000000E+02  6.60000000E+01  0.00000000E+00
  5.10000000E+02  6.60000000E+01  0.00000000E+00
  5.20000000E+02  6.60000000E+01  0.00000000E+00
  5.30000000E+02  6.60000000E+01  0.00000000E+00
  5.40000000E+02  6.60000000E+01  0.00000000E+00
  5.50000000E+02  6.60000000E+01  0.00000000E+00
  5.60000000E+02  6.60000000E+01  0.00000000E+00
  5.70000000E+02  6.60000000E+01  0.00000000E+00
  5.80000000E+02  6.60000000E+01  0.00000000E+00
  5.90000000E+02  6.60000000E+01  0.00000000E+00
  6.00000000E+02  6.60000000E+01  0.00000000E+00
  6.10000000E+02  6.60000000E+01  0.00000000E+00
  6.20000000E+02  6.60000000E+01  0.00000000E+00
  6.30000000E+02  6.60000000E+01  0.00000000E+00
  6.40000000E+02  6.60000000E+01  0.00000000E+00
  6.50000000E+02  6.60000000E+01  0.00000000E+00
  6.60000000E+02  6.60000000E+01  0.00000000E+00
  6.70000000E+02  6.60000000E+01  0.00000000E+00
  6.80000000E+02  6.60000000E+01  0.00000000E+00
  6.90000000E+02  6.60000000E+01  0.00000000E+00
  7.00000000E+02  6.60000000E+01  0.00000000E+00
  7.10000000E+02  6.60000000E+01  0.00000000E+00
  7.20000000E+02  6.60000000E+01  0.00000000E+00
  7.30000000E+02  6.60000000E+01  0.00000000E+00
  7.40000000E+02  6.60000000E+01  0.00000000E+00
  7.50000000E+02  6.60000000E+01  0.00000000E+00
  7.60000000E+02  6.60000000E+01  0.00000000E+00
  7.70000000E+02  6.60000000E+01  0.00000000E+00
  7.80000000E+02  6.60000000E+01  0.00000000E+00
  7.90000000E+02  6.60000000E+01  0.00000000E+00
  8.00000000E+02  6.60000000E+01  0.00000000E+00
  8.10000000E+02  6.60000000E+01  0.00000000E+00
  8.20000000E+02  6.60000000E+01  0.00000000E+00
  8.30000000E+02  6.60000000E+01  0.00000000E+00
  8.40000000E+02  6.60000000E+01  0.00000000E+00
  8.50000000E+02  6.60000000E+01  0.00000000E+00
  8.60000000E+02  6.60000000E+01  0.00000000E+00
  8.70000000E+02  6.60000000E+01  0.00000000E+00
  8.80000000E+02  6.60000000E+01  0.00000000E+00
  8.90000000E+02  6.60000000E+01  0.00000000E+00
  9.00000000E+02  6.60000000E+01  0.00000000E+00
  9.10000000E+02  6.60000000E+01  0.00000000E+00
  9.20000000E+02  6.60000000E+01  0.00000000E+00
  9.30000000E+02  6.60000000E+01  0.00000000E+00
  9.40000000E+02  6.60000000E+01  0.00000000E+00
  9.50000000E+02  6.60000000E+01  0.00000000E+00
  9.60000000E+02  6.60000000E+01  0.00000000E+00
  9.70000000E+02  6.60000000E+01  0.00000000E+00
  9.80000000E+02  6.60000000E+01  0.00000000E+00
  9.90000000E+02  6.60000000E+01  0.00000000E+00
  1.00000000E+03  6.60000000E+01  0.00000000E+00
  0.00000000E+00  6.80000000E+01  0.00000000E+00
  1.00000000E+01  6.80000000E+01  0.00000000E+00
  2.00000000E+01  6.80000000E+01  0.00000000E+00
  3.00000000E+01  6.80000000E+01  0.00000000E+00
  4.00000000E+01  6.80000000E+01  0.00000000E+00
  5.00000000E+01  6.80000000E+01  0.00000000E+00
  6.00000000E+01  6.80000000E+01  0.00000000E+00
  7.00000000E+01  6.80000000E+01  0.00000000E+00
  8.00000000E+01  6.80000000E+01  0.00000000E+00
  9.00000000E+01  6.80000000E+01  0.00000000E+00
  1.00000000E+02  6.80000000E+01  0.00000000E+00
  1.10000000E+02  6.80000000E+01  0.00000000E+00
  1.20000000E+02  6.80000000E+01  0.00000000E+00
  1.30000000E+02  6.80000000E+01  0.00000000E+00
  1.40000000E+02  6.80000000E+01  0.00000000E+00
  1.50000000E+02  6.80000000E+01  0.00000000E+00
  1.60000000E+02  6.80000000E+01  0.00000000E+00
  1.70000000E+02  6.80000000E+01  0.00000000E+00
  1.80000000E+02  6.80000000E+01  0.00000000E+00
  1.90000000E+02  6.80000000E+01  0.00000000E+00
  2.00000000E+02  6.80000000E+01  0.00000000E+00
  2.10000000E+02  6.80000000E+01  0.00000000E+00
  2.20000000E+02  6.80000000E+01  0.00000000E+00
  2.30000000E+02  6.80000000E+01  0.00000000E+00
  2.40000000E+02  6.80000000E+01  0.00000000E+00
  2.50000000E+02  6.80000000E+01  0.00000000E+00
  2.60000000E+02  6.80000000E+01  0.00000000E+00
  2.70000000E+02  6.80000000E+01  0.00000000E+00
  2.80000000E+02  6.80000000E+01  0.00000000E+00
  2.90000000E+02  6.80000000E+01  0.00000000E+00
  3.00000000E+02  6.80000000E+01  0.00000000E+00
  3.10000000E+02  6.80000000E+01  0.00000000E+00
  3.20000000E+02  6.80000000E+01  0.00000000E+00
  3.30000000E+02  6.80000000E+01  0.00000000E+00
  3.40000000E+02  6.80000000E+01  0.00000000E+00
  3.50000000E+02  6.80000000E+01  0.00000000E+00
  3.60000000E+02  6.80000000E+01  0.00000000E+00
  3.70000000E+02  6.80000000E+01  0.00000000E+00
  3.80000000E+02  6.80000000E+01  0.00000000E+00
  3.90000000E+02  6.80000000E+01  0.00000000E+00
  4.00000000E+02  6.80000000E+01  0.00000000E+00
  4.10000000E+02  6.80000000E+01  0.00000000E+00
  4.20000000E+02  6.80000000E+01  0.00000000E+00
  4.30000000E+02  6.80000000E+01  0.00000000E+00
  4.40000000E+02  6.80000000E+01  0.00000000E+00
  4.50000000E+02  6.80000000E+01  0.00000000E+00
  4.60000000E+02  6.80000000E+01  0.00000000E+00
  4.70000000E+02  6.80000000E+01  0.00000000E+00
  4.80000000E+02  6.80000000E+01  0.00000000E+00
  4.90000000E+02  6.80000000E+01  0.00000000E+00
  5.00000000E+02  6.80000000E+01  0.00000000E+00
  5.10000000E+02  6.80000000E+01  0.00000000E+00
  5.20000000E+02  6.80000000E+01  0.00000000E+00
  5.30000000E+02  6.80000000E+01  0.00000000E+00
  5.40000000E+02  6.80000000E+01  0.00000000E+00
  5.50000000E+02  6.80000000E+01  0.00000000E+00
  5.60000000E+02  6.80000000E+01  0.00000000E+00
  5.70000000E+02  6.80000000E+01  0.00000000E+00
  5.80000000E+02  6.80000000E+01  0.00000000E+00
  5.90000000E+02  6.80000000E+01  0.00000000E+00
  6.00000000E+02  6.80000000E+01  0.00000000E+00
  6.10000000E+02  6.80000000E+01  0.00000000E+00
  6.20000000E+02  6.80000000E+01  0.00000000E+00
  6.30000000E+02  6.80000000E+01  0.00000000E+00
  6.40000000E+02  6.80000000E+01  0.00000000E+00
  6.50000000E+02  6.80000000E+01  0.00000000E+00
  6.60000000E+02  6.80000000E+01  0.00000000E+00
  6.70000000E+02  6.80000000E+01  0.00000000E+00
  6.80000000E+02  6.80000000E+01  0.00000000E+00
  6.90000000E+02  6.80000000E+01  0.00000000E+00
  7.00000000E+02  6.80000000E+01  0.00000000E+00
  7.10000000E+02  6.80000000E+01  0.00000000E+00
  7.20000000E+02  6.80000000E+01  0.00000000E+00
  7.30000000E+02  6.80000000E+01  0.00000000E+00
  7.40000000E+02  6.80000000E+01  0.00000000E+00
  7.50000000E+02  6.80000000E+01  0.00000000E+00
  7.60000000E+02  6.80000000E+01  0.00000000E+00
  7.70000000E+02  6.80000000E+01  0.00000000E+00
  7.80000000E+02  6.80000000E+01  0.00000000E+00
  7.90000000E+02  6.80000000E+01  0.00000000E+00
  8.00000000E+02  6.80000000E+01  0.00000000E+00
  8.10000000E+02  6.80000000E+01  0.00000000E+00
  8.20000000E+02  6.80000000E+01  0.00000000E+00
  8.30000000E+02  6.80000000E+01  0.00000000E+00
  8.40000000E+02  6.80000000E+01  0.00000000E+00
  8.50000000E+02  6.80000000E+01  0.00000000E+00
  8.60000000E+02  6.80000000E+01  0.00000000E+00
  8.70000000E+02  6.80000000E+01  0.00000000E+00
  8.80000000E+02  6.80000000E+01  0.00000000E+00
  8.90000000E+02  6.80000000E+01  0.00000000E+00
  9.00000000E+02  6.80000000E+01  0.00000000E+00
  9.10000000E+02  6.80000000E+01  0.00000000E+00
  9.20000000E+02  6.80000000E+01  0.00000000E+00
  9.30000000E+02  6.80000000E+01  0.00000000E+00
  9.40000000E+02  6.80000000E+01  0.00000000E+00
  9.50000000E+02  6.80000000E+01  0.00000000E+00
  9.60000000E+02  6.80000000E+01  0.00000000E+00
  9.70000000E+02  6.80000000E+01  0.00000000E+00
  9.80000000E+02  6.80000000E+01  0.00000000E+00
  9.90000000E+02  6.80000000E+01  0.00000000E+00
  1.00000000E+03  6.80000000E+01  0.00000000E+00
  0.00000000E+00  7.00000000E+01  0.00000000E+00
  1.00000000E+01  7.00000000E+01  0.00000000E+00
  2.00000000E+01  7.00000000E+01  0.00000000E+00
  3.00000000E+01  7.00000000E+01  0.00000000E+00
  4.00000000E+01  7.00000000E+01  0.00000000E+00
  5.00000000E+01  7.00000000E+01  0.00000000E+00
  6.00000000E+01  7.00000000E+01  0.00000000E+00
  7.00000000E+01  7.00000000E+01  0.00000000E+00
  8.00000000E+01  7.00000000E+01  0.00000000E+00
  9.00000000E+01  7.00000000E+01  0.00000000E+00
  1.00000000E+02  7.00000000E+01  0.00000000E+00
  1.10000000E+02  7.00000000E+01  0.00000000E+00
  1.20000000E+02  7.00000000E+01  0.00000000E+00
  1.30000000E+02  7.00000000E+01  0.00000000E+00
  1.40000000E+02  7.00000000E+01  0.00000000E+00
  1.50000000E+02  7.00000000E+01  0.00000000E+00
  1.60000000E+02  7.00000000E+01  0.00000000E+00
  1.70000000E+02  7.00000000E+01  0.00000000E+00
  1.80000000E+02  7.00000000E+01  0.00000000E+00
  1.90000000E+02  7.00000000E+01  0.00000000E+00
  2.00000000E+02  7.00000000E+01  0.00000000E+00
  2.10000000E+02  7.00000000E+01  0.00000000E+00
  2.20000000E+02  7.00000000E+01  0.00000000E+00
  2.30000000E+02  7.00000000E+01  0.00000000E+00
  2.40000000E+02  7.00000000E+01  0.00000000E+00
  2.50000000E+02  7.00000000E+01  0.00000000E+00
  2.60000000E+02  7.00000000E+01  0.00000000E+00
  2.70000000E+02  7.00000000E+01  0.00000000E+00
  2.80000000E+02  7.00000000E+01  0.00000000E+00
  2.90000000E+02  7.00000000E+01  0.00000000E+00
  3.00000000E+02  7.00000000E+01  0.00000000E+00
  3.10000000E+02  7.00000000E+01  0.00000000E+00
  3.20000000E+02  7.00000000E+01  0.00000000E+00
  3.30000000E+02  7.00000000E+01  0.00000000E+00
  3.40000000E+02  7.00000000E+01  0.00000000E+00
  3.50000000E+02  7.00000000E+01  0.00000000E+00
  3.60000000E+02  7.00000000E+01  0.00000000E+00
  3.70000000E+02  7.00000000E+01  0.00000000E+00
  3.80000000E+02  7.00000000E+01  0.00000000E+00
  3.90000000E+02  7.00000000E+01  0.00000000E+00
  4.00000000E+02  7.00000000E+01  0.00000000E+00
  4.10000000E+02  7.00000000E+01  0.00000000E+00
  4.20000000E+02  7.00000000E+01  0.00000000E+00
  4.30000000E+02  7.00000000E+01  0.00000000E+00
  4.40000000E+02  7.00000000E+01  0.00000000E+00
  4.50000000E+02  7.00000000E+01  0.00000000E+00
  4.60000000E+02  7.00000000E+01  0.00000000E+00
  4.70000000E+02  7.00000000E+01  0.00000000E+00
  4.80000000E+02  7.00000000E+01  0.00000000E+00
  4.90000000E+02  7.00000000E+01  0.00000000E+00
  5.00000000E+02  7.00000000E+01  0.00000000E+00
  5.10000000E+02  7.00000000E+01  0.00000000E+00
  5.20000000E+02  7.00000000E+01  0.00000000E+00
  5.30000000E+02  7.00000000E+01  0.00000000E+00
  5.40000000E+02  7.00000000E+01  0.00000000E+00
  5.50000000E+02  7.00000000E+01  0.00000000E+00
  5.60000000E+02  7.00000000E+01  0.00000000E+00
  5.70000000E+02  7.00000000E+01  0.00000000E+00
  5.80000000E+02  7.00000000E+01  0.00000000E+00
  5.90000000E+02  7.00000000E+01  0.00000000E+00
  6.00000000E+02  7.00000000E+01  0.00000000E+00
  6.10000000E+02  7.00000000E+01  0.00000000E+00
  6.20000000E+02  7.00000000E+01  0.00000000E+00
  6.30000000E+02  7.00000000E+01  0.00000000E+00
  6.40000000E+02  7.00000000E+01  0.00000000E+00
  6.50000000E+02  7.00000000E+01  0.00000000E+00
  6.60000000E+02  7.00000000E+01  0.00000000E+00
  6.70000000E+02  7.00000000E+01  0.00000000E+00
  6.80000000E+02  7.00000000E+01  0.00000000E+00
  6.90000000E+02  7.00000000E+01  0.00000000E+00
  7.00000000E+02  7.00000000E+01  0.00000000E+00
  7.10000000E+02  7.00000000E+01  0.00000000E+00
  7.20000000E+02  7.00000000E+01  0.00000000E+00
  7.30000000E+02  7.00000000E+01  0.00000000E+00
  7.40000000E+02  7.00000000E+01  0.00000000E+00
  7.50000000E+02  7.00000000E+01  0.00000000E+00
  7.60000000E+02  7.00000000E+01  0.00000000E+00
  7.70000000E+02  7.00000000E+01  0.00000000E+00
  7.80000000E+02  7.00000000E+01  0.00000000E+00
  7.90000000E+02  7.00000000E+01  0.00000000E+00
  8.00000000E+02  7.00000000E+01  0.00000000E+00
  8.10000000E+02  7.00000000E+01  0.00000000E+00
  8.20000000E+02  7.00000000E+01  0.00000000E+00
  8.30000000E+02  7.00000000E+01  0.00000000E+00
  8.40000000E+02  7.00000000E+01  0.00000000E+00
  8.50000000E+02  7.00000000E+01  0.00000000E+00
  8.60000000E+02  7.00000000E+01  0.00000000E+00
  8.70000000E+02  7.00000000E+01  0.00000000E+00
  8.80000000E+02  7.00000000E+01  0.00000000E+00
  8.90000000E+02  7.00000000E+01  0.00000000E+00
  9.00000000E+02  7.00000000E+01  0.00000000E+00
  9.10000000E+02  7.00000000E+01  0.00000000E+00
  9.20000000E+02  7.00000000E+01  0.00000000E+00
  9.30000000E+02  7.00000000E+01  0.00000000E+00
  9.40000000E+02  7.00000000E+01  0.00000000E+00
  9.50000000E+02  7.00000000E+01  0.00000000E+00
  9.60000000E+02  7.00000000E+01  0.00000000E+00
  9.70000000E+02  7.00000000E+01  0.00000000E+00
  9.80000000E+02  7.00000000E+01  0.00000000E+00
  9.90000000E+02  7.00000000E+01  0.00000000E+00
  1.00000000E+03  7.00000000E+01  0.00000000E+00
  0.00000000E+00  7.20000000E+01  0.00000000E+00
  1.00000000E+01  7.20000000E+01  0.00000000E+00
  2.00000000E+01  7.20000000E+01  0.00000000E+00
  3.00000000E+01  7.20000000E+01  0.00000000E+00
  4.00000000E+01  7.20000000E+01  0.00000000E+00
  5.00000000E+01  7.20000000E+01  0.00000000E+00
  6.00000000E+01  7.20000000E+01  0.00000000E+00
  7.00000000E+01  7.20000000E+01  0.00000000E+00
  8.00000000E+01  7.20000000E+01  0.00000000E+00
  9.00000000E+01  7.20000000E+01  0.00000000E+00
  1.00000000E+02  7.20000000E+01  0.00000000E+00
  1.10000000E+02  7.20000000E+01  0.00000000E+00
  1.20000000E+02  7.20000000E+01  0.00000000E+00
  1.30000000E+02  7.20000000E+01  0.00000000E+00
  1.40000000E+02  7.20000000E+01  0.00000000E+00
  1.50000000E+02  7.20000000E+01  0.00000000E+00
  1.60000000E+02  7.20000000E+01  0.00000000E+00
  1.70000000E+02  7.20000000E+01  0.00000000E+00
  1.80000000E+02  7.20000000E+01  0.00000000E+00
  1.90000000E+02  7.20000000E+01  0.00000000E+00
  2.00000000E+02  7.20000000E+01  0.00000000E+00
  2.10000000E+02  7.20000000E+01  0.00000000E+00
  2.20000000E+02  7.20000000E+01  0.00000000E+00
  2.30000000E+02  7.20000000E+01  0.00000000E+00
  2.40000000E+02  7.20000000E+01  0.00000000E+00
  2.50000000E+02  7.20000000E+01  0.00000000E+00
  2.60000000E+02  7.20000000E+01  0.00000000E+00
  2.70000000E+02  7.20000000E+01  0.00000000E+00
  2.80000000E+02  7.20000000E+01  0.00000000E+00
  2.90000000E+02  7.20000000E+01  0.00000000E+00
  3.00000000E+02  7.20000000E+01  0.00000000E+00
  3.10000000E+02  7.20000000E+01  0.00000000E+00
  3.20000000E+02  7.20000000E+01  0.00000000E+00
  3.30000000E+02  7.20000000E+01  0.00000000E+00
  3.40000000E+02  7.20000000E+01  0.00000000E+00
  3.50000000E+02  7.20000000E+01  0.00000000E+00
  3.60000000E+02  7.20000000E+01  0.00000000E+00
  3.70000000E+02  7.20000000E+01  0.00000000E+00
  3.80000000E+02  7.20000000E+01  0.00000000E+00
  3.90000000E+02  7.20000000E+01  0.00000000E+00
  4.00000000E+02  7.20000000E+01  0.00000000E+00
  4.10000000E+02  7.20000000E+01  0.00000000E+00
  4.20000000E+02  7.20000000E+01  0.00000000E+00
  4.30000000E+02  7.20000000E+01  0.00000000E+00
  4.40000000E+02  7.20000000E+01  0.00000000E+00
  4.50000000E+02  7.20000000E+01  0.00000000E+00
  4.60000000E+02  7.20000000E+01  0.00000000E+00
  4.70000000E+02  7.20000000E+01  0.00000000E+00
  4.80000000E+02  7.20000000E+01  0.00000000E+00
  4.90000000E+02  7.20000000E+01  0.00000000E+00
  5.00000000E+02  7.20000000E+01  0.00000000E+00
  5.10000000E+02  7.20000000E+01  0.00000000E+00
  5.20000000E+02  7.20000000E+01  0.00000000E+00
  5.30000000E+02  7.20000000E+01  0.00000000E+00
  5.40000000E+02  7.20000000E+01  0.00000000E+00
  5.50000000E+02  7.20000000E+01  0.00000000E+00
  5.60000000E+02  7.20000000E+01  0.00000000E+00
  5.70000000E+02  7.20000000E+01  0.00000000E+00
  5.80000000E+02  7.20000000E+01  0.00000000E+00
  5.90000000E+02  7.20000000E+01  0.00000000E+00
  6.00000000E+02  7.20000000E+01  0.00000000E+00
  6.10000000E+02  7.20000000E+01  0.00000000E+00
  6.20000000E+02  7.20000000E+01  0.00000000E+00
  6.30000000E+02  7.20000000E+01  0.00000000E+00
  6.40000000E+02  7.20000000E+01  0.00000000E+00
  6.50000000E+02  7.20000000E+01  0.00000000E+00
  6.60000000E+02  7.20000000E+01  0.00000000E+00
  6.70000000E+02  7.20000000E+01  0.00000000E+00
  6.80000000E+02  7.20000000E+01  0.00000000E+00
  6.90000000E+02  7.20000000E+01  0.00000000E+00
  7.00000000E+02  7.20000000E+01  0.00000000E+00
  7.10000000E+02  7.20000000E+01  0.00000000E+00
  7.20000000E+02  7.20000000E+01  0.00000000E+00
  7.30000000E+02  7.20000000E+01  0.00000000E+00
  7.40000000E+02  7.20000000E+01  0.00000000E+00
  7.50000000E+02  7.20000000E+01  0.00000000E+00
  7.60000000E+02  7.20000000E+01  0.00000000E+00
  7.70000000E+02  7.20000000E+01  0.00000000E+00
  7.80000000E+02  7.20000000E+01  0.00000000E+00
  7.90000000E+02  7.20000000E+01  0.00000000E+00
  8.00000000E+02  7.20000000E+01  0.00000000E+00
  8.10000000E+02  7.20000000E+01  0.00000000E+00
  8.20000000E+02  7.20000000E+01  0.00000000E+00
  8.30000000E+02  7.20000000E+01  0.00000000E+00
  8.40000000E+02  7.20000000E+01  0.00000000E+00
  8.50000000E+02  7.20000000E+01  0.00000000E+00
  8.60000000E+02  7.20000000E+01  0.00000000E+00
  8.70000000E+02  7.20000000E+01  0.00000000E+00
  8.80000000E+02  7.20000000E+01  0.00000000E+00
  8.90000000E+02  7.20000000E+01  0.00000000E+00
  9.00000000E+02  7.20000000E+01  0.00000000E+00
  9.10000000E+02  7.20000000E+01  0.00000000E+00
  9.20000000E+02  7.20000000E+01  0.00000000E+00
  9.30000000E+02  7.20000000E+01  0.00000000E+00
  9.40000000E+02  7.20000000E+01  0.00000000E+00
  9.50000000E+02  7.20000000E+01  0.00000000E+00
  9.60000000E+02  7.20000000E+01  0.00000000E+00
  9.70000000E+02  7.20000000E+01  0.00000000E+00
  9.80000000E+02  7.20000000E+01  0.00000000E+00
  9.90000000E+02  7.20000000E+01  0.00000000E+00
  1.00000000E+03  7.20000000E+01  0.00000000E+00
  0.00000000E+00  7.40000000E+01  0.00000000E+00
  1.00000000E+01  7.40000000E+01  0.00000000E+00
  2.00000000E+01  7.40000000E+01  0.00000000E+00
  3.00000000E+01  7.40000000E+01  0.00000000E+00
  4.00000000E+01  7.40000000E+01  0.00000000E+00
  5.00000000E+01  7.40000000E+01  0.00000000E+00
  6.00000000E+01  7.40000000E+01  0.00000000E+00
  7.00000000E+01  7.40000000E+01  0.00000000E+00
  8.00000000E+01  7.40000000E+01  0.00000000E+00
  9.00000000E+01  7.40000000E+01  0.00000000E+00
  1.00000000E+02  7.40000000E+01  0.00000000E+00
  1.10000000E+02  7.40000000E+01  0.00000000E+00
  1.20000000E+02  7.40000000E+01  0.00000000E+00
  1.30000000E+02  7.40000000E+01  0.00000000E+00
  1.40000000E+02  7.40000000E+01  0.00000000E+00
  1.50000000E+02  7.40000000E+01  0.00000000E+00
  1.60000000E+02  7.40000000E+01  0.00000000E+00
  1.70000000E+02  7.40000000E+01  0.00000000E+00
  1.80000000E+02  7.40000000E+01  0.00000000E+00
  1.90000000E+02  7.40000000E+01  0.00000000E+00
  2.00000000E+02  7.40000000E+01  0.00000000E+00
  2.10000000E+02  7.40000000E+01  0.00000000E+00
  2.20000000E+02  7.40000000E+01  0.00000000E+00
  2.30000000E+02  7.40000000E+01  0.00000000E+00
  2.40000000E+02  7.40000000E+01  0.00000000E+00
  2.50000000E+02  7.40000000E+01  0.00000000E+00
  2.60000000E+02  7.40000000E+01  0.00000000E+00
  2.70000000E+02  7.40000000E+01  0.00000000E+00
  2.80000000E+02  7.40000000E+01  0.00000000E+00
  2.90000000E+02  7.40000000E+01  0.00000000E+00
  3.00000000E+02  7.40000000E+01  0.00000000E+00
  3.10000000E+02  7.40000000E+01  0.00000000E+00
  3.20000000E+02  7.40000000E+01  0.00000000E+00
  3.30000000E+02  7.40000000E+01  0.00000000E+00
  3.40000000E+02  7.40000000E+01  0.00000000E+00
  3.50000000E+02  7.40000000E+01  0.00000000E+00
  3.60000000E+02  7.40000000E+01  0.00000000E+00
  3.70000000E+02  7.40000000E+01  0.00000000E+00
  3.80000000E+02  7.40000000E+01  0.00000000E+00
  3.90000000E+02  7.40000000E+01  0.00000000E+00
  4.00000000E+02  7.40000000E+01  0.00000000E+00
  4.10000000E+02  7.40000000E+01  0.00000000E+00
  4.20000000E+02  7.40000000E+01  0.00000000E+00
  4.30000000E+02  7.40000000E+01  0.00000000E+00
  4.40000000E+02  7.40000000E+01  0.00000000E+00
  4.50000000E+02  7.40000000E+01  0.00000000E+00
  4.60000000E+02  7.40000000E+01  0.00000000E+00
  4.70000000E+02  7.40000000E+01  0.00000000E+00
  4.80000000E+02  7.40000000E+01  0.00000000E+00
  4.90000000E+02  7.40000000E+01  0.00000000E+00
  5.00000000E+02  7.40000000E+01  0.00000000E+00
  5.10000000E+02  7.40000000E+01  0.00000000E+00
  5.20000000E+02  7.40000000E+01  0.00000000E+00
  5.30000000E+02  7.40000000E+01  0.00000000E+00
  5.40000000E+02  7.40000000E+01  0.00000000E+00
  5.50000000E+02  7.40000000E+01  0.00000000E+00
  5.60000000E+02  7.40000000E+01  0.00000000E+00
  5.70000000E+02  7.40000000E+01  0.00000000E+00
  5.80000000E+02  7.40000000E+01  0.00000000E+00
  5.90000000E+02  7.40000000E+01  0.00000000E+00
  6.00000000E+02  7.40000000E+01  0.00000000E+00
  6.10000000E+02  7.40000000E+01  0.00000000E+00
  6.20000000E+02  7.40000000E+01  0.00000000E+00
  6.30000000E+02  7.40000000E+01  0.00000000E+00
  6.40000000E+02  7.40000000E+01  0.00000000E+00
  6.50000000E+02  7.40000000E+01  0.00000000E+00
  6.60000000E+02  7.40000000E+01  0.00000000E+00
  6.70000000E+02  7.40000000E+01  0.00000000E+00
  6.80000000E+02  7.40000000E+01  0.00000000E+00
  6.90000000E+02  7.40000000E+01  0.00000000E+00
  7.00000000E+02  7.40000000E+01  0.00000000E+00
  7.10000000E+02  7.40000000E+01  0.00000000E+00
  7.20000000E+02  7.40000000E+01  0.00000000E+00
  7.30000000E+02  7.40000000E+01  0.00000000E+00
  7.40000000E+02  7.40000000E+01  0.00000000E+00
  7.50000000E+02  7.40000000E+01  0.00000000E+00
  7.60000000E+02  7.40000000E+01  0.00000000E+00
  7.70000000E+02  7.40000000E+01  0.00000000E+00
  7.80000000E+02  7.40000000E+01  0.00000000E+00
  7.90000000E+02  7.40000000E+01  0.00000000E+00
  8.00000000E+02  7.40000000E+01  0.00000000E+00
  8.10000000E+02  7.40000000E+01  0.00000000E+00
  8.20000000E+02  7.40000000E+01  0.00000000E+00
  8.30000000E+02  7.40000000E+01  0.00000000E+00
  8.40000000E+02  7.40000000E+01  0.00000000E+00
  8.50000000E+02  7.40000000E+01  0.00000000E+00
  8.60000000E+02  7.40000000E+01  0.00000000E+00
  8.70000000E+02  7.40000000E+01  0.00000000E+00
  8.80000000E+02  7.40000000E+01  0.00000000E+00
  8.90000000E+02  7.40000000E+01  0.00000000E+00
  9.00000000E+02  7.40000000E+01  0.00000000E+00
  9.10000000E+02  7.40000000E+01  0.00000000E+00
  9.20000000E+02  7.40000000E+01  0.00000000E+00
  9.30000000E+02  7.40000000E+01  0.00000000E+00
  9.40000000E+02  7.40000000E+01  0.00000000E+00
  9.50000000E+02  7.40000000E+01  0.00000000E+00
  9.60000000E+02  7.40000000E+01  0.00000000E+00
  9.70000000E+02  7.40000000E+01  0.00000000E+00
  9.80000000E+02  7.40000000E+01  0.00000000E+00
  9.90000000E+02  7.40000000E+01  0.00000000E+00
  1.00000000E+03  7.40000000E+01  0.00000000E+00
  0.00000000E+00  7.60000000E+01  0.00000000E+00
  1.00000000E+01  7.60000000E+01  0.00000000E+00
  2.00000000E+01  7.60000000E+01  0.00000000E+00
  3.00000000E+01  7.60000000E+01  0.00000000E+00
  4.00000000E+01  7.60000000E+01  0.00000000E+00
  5.00000000E+01  7.60000000E+01  0.00000000E+00
  6.00000000E+01  7.60000000E+01  0.00000000E+00
  7.00000000E+01  7.60000000E+01  0.00000000E+00
  8.00000000E+01  7.60000000E+01  0.00000000E+00
  9.00000000E+01  7.60000000E+01  0.00000000E+00
  1.00000000E+02  7.60000000E+01  0.00000000E+00
  1.10000000E+02  7.60000000E+01  0.00000000E+00
  1.20000000E+02  7.60000000E+01  0.00000000E+00
  1.30000000E+02  7.60000000E+01  0.00000000E+00
  1.40000000E+02  7.60000000E+01  0.00000000E+00
  1.50000000E+02  7.60000000E+01  0.00000000E+00
  1.60000000E+02  7.60000000E+01  0.00000000E+00
  1.70000000E+02  7.60000000E+01  0.00000000E+00
  1.80000000E+02  7.60000000E+01  0.00000000E+00
  1.90000000E+02  7.60000000E+01  0.00000000E+00
  2.00000000E+02  7.60000000E+01  0.00000000E+00
  2.10000000E+02  7.60000000E+01  0.00000000E+00
  2.20000000E+02  7.60000000E+01  0.00000000E+00
  2.30000000E+02  7.60000000E+01  0.00000000E+00
  2.40000000E+02  7.60000000E+01  0.00000000E+00
  2.50000000E+02  7.60000000E+01  0.00000000E+00
  2.60000000E+02  7.60000000E+01  0.00000000E+00
  2.70000000E+02  7.60000000E+01  0.00000000E+00
  2.80000000E+02  7.60000000E+01  0.00000000E+00
  2.90000000E+02  7.60000000E+01  0.00000000E+00
  3.00000000E+02  7.60000000E+01  0.00000000E+00
  3.10000000E+02  7.60000000E+01  0.00000000E+00
  3.20000000E+02  7.60000000E+01  0.00000000E+00
  3.30000000E+02  7.60000000E+01  0.00000000E+00
  3.40000000E+02  7.60000000E+01  0.00000000E+00
  3.50000000E+02  7.60000000E+01  0.00000000E+00
  3.60000000E+02  7.60000000E+01  0.00000000E+00
  3.70000000E+02  7.60000000E+01  0.00000000E+00
  3.80000000E+02  7.60000000E+01  0.00000000E+00
  3.90000000E+02  7.60000000E+01  0.00000000E+00
  4.00000000E+02  7.60000000E+01  0.00000000E+00
  4.10000000E+02  7.60000000E+01  0.00000000E+00
  4.20000000E+02  7.60000000E+01  0.00000000E+00
  4.30000000E+02  7.60000000E+01  0.00000000E+00
  4.40000000E+02  7.60000000E+01  0.00000000E+00
  4.50000000E+02  7.60000000E+01  0.00000000E+00
  4.60000000E+02  7.60000000E+01  0.00000000E+00
  4.70000000E+02  7.60000000E+01  0.00000000E+00
  4.80000000E+02  7.60000000E+01  0.00000000E+00
  4.90000000E+02  7.60000000E+01  0.00000000E+00
  5.00000000E+02  7.60000000E+01  0.00000000E+00
  5.10000000E+02  7.60000000E+01  0.00000000E+00
  5.20000000E+02  7.60000000E+01  0.00000000E+00
  5.30000000E+02  7.60000000E+01  0.00000000E+00
  5.40000000E+02  7.60000000E+01  0.00000000E+00
  5.50000000E+02  7.60000000E+01  0.00000000E+00
  5.60000000E+02  7.60000000E+01  0.00000000E+00
  5.70000000E+02  7.60000000E+01  0.00000000E+00
  5.80000000E+02  7.60000000E+01  0.00000000E+00
  5.90000000E+02  7.60000000E+01  0.00000000E+00
  6.00000000E+02  7.60000000E+01  0.00000000E+00
  6.10000000E+02  7.60000000E+01  0.00000000E+00
  6.20000000E+02  7.60000000E+01  0.00000000E+00
  6.30000000E+02  7.60000000E+01  0.00000000E+00
  6.40000000E+02  7.60000000E+01  0.00000000E+00
  6.50000000E+02  7.60000000E+01  0.00000000E+00
  6.60000000E+02  7.60000000E+01  0.00000000E+00
  6.70000000E+02  7.60000000E+01  0.00000000E+00
  6.80000000E+02  7.60000000E+01  0.00000000E+00
  6.90000000E+02  7.60000000E+01  0.00000000E+00
  7.00000000E+02  7.60000000E+01  0.00000000E+00
  7.10000000E+02  7.60000000E+01  0.00000000E+00
  7.20000000E+02  7.60000000E+01  0.00000000E+00
  7.30000000E+02  7.60000000E+01  0.00000000E+00
  7.40000000E+02  7.60000000E+01  0.00000000E+00
  7.50000000E+02  7.60000000E+01  0.00000000E+00
  7.60000000E+02  7.60000000E+01  0.00000000E+00
  7.70000000E+02  7.60000000E+01  0.00000000E+00
  7.80000000E+02  7.60000000E+01  0.00000000E+00
  7.90000000E+02  7.60000000E+01  0.00000000E+00
  8.00000000E+02  7.60000000E+01  0.00000000E+00
  8.10000000E+02  7.60000000E+01  0.00000000E+00
  8.20000000E+02  7.60000000E+01  0.00000000E+00
  8.30000000E+02  7.60000000E+01  0.00000000E+00
  8.40000000E+02  7.60000000E+01  0.00000000E+00
  8.50000000E+02  7.60000000E+01  0.00000000E+00
  8.60000000E+02  7.60000000E+01  0.00000000E+00
  8.70000000E+02  7.60000000E+01  0.00000000E+00
  8.80000000E+02  7.60000000E+01  0.00000000E+00
  8.90000000E+02  7.60000000E+01  0.00000000E+00
  9.00000000E+02  7.60000000E+01  0.00000000E+00
  9.10000000E+02  7.60000000E+01  0.00000000E+00
  9.20000000E+02  7.60000000E+01  0.00000000E+00
  9.30000000E+02  7.60000000E+01  0.00000000E+00
  9.40000000E+02  7.60000000E+01  0.00000000E+00
  9.50000000E+02  7.60000000E+01  0.00000000E+00
  9.60000000E+02  7.60000000E+01  0.00000000E+00
  9.70000000E+02  7.60000000E+01  0.00000000E+00
  9.80000000E+02  7.60000000E+01  0.00000000E+00
  9.90000000E+02  7.60000000E+01  0.00000000E+00
  1.00000000E+03  7.60000000E+01  0.00000000E+00
  0.00000000E+00  7.80000000E+01  0.00000000E+00
  1.00000000E+01  7.80000000E+01  0.00000000E+00
  2.00000000E+01  7.80000000E+01  0.00000000E+00
  3.00000000E+01  7.80000000E+01  0.00000000E+00
  4.00000000E+01  7.80000000E+01  0.00000000E+00
  5.00000000E+01  7.80000000E+01  0.00000000E+00
  6.00000000E+01  7.80000000E+01  0.00000000E+00
  7.00000000E+01  7.80000000E+01  0.00000000E+00
  8.00000000E+01  7.80000000E+01  0.00000000E+00
  9.00000000E+01  7.80000000E+01  0.00000000E+00
  1.00000000E+02  7.80000000E+01  0.00000000E+00
  1.10000000E+02  7.80000000E+01  0.00000000E+00
  1.20000000E+02  7.80000000E+01  0.00000000E+00
  1.30000000E+02  7.80000000E+01  0.00000000E+00
  1.40000000E+02  7.80000000E+01  0.00000000E+00
  1.50000000E+02  7.80000000E+01  0.00000000E+00
  1.60000000E+02  7.80000000E+01  0.00000000E+00
  1.70000000E+02  7.80000000E+01  0.00000000E+00
  1.80000000E+02  7.80000000E+01  0.00000000E+00
  1.90000000E+02  7.80000000E+01  0.00000000E+00
  2.00000000E+02  7.80000000E+01  0.00000000E+00
  2.10000000E+02  7.80000000E+01  0.00000000E+00
  2.20000000E+02  7.80000000E+01  0.00000000E+00
  2.30000000E+02  7.80000000E+01  0.00000000E+00
  2.40000000E+02  7.80000000E+01  0.00000000E+00
  2.50000000E+02  7.80000000E+01  0.00000000E+00
  2.60000000E+02  7.80000000E+01  0.00000000E+00
  2.70000000E+02  7.80000000E+01  0.00000000E+00
  2.80000000E+02  7.80000000E+01  0.00000000E+00
  2.90000000E+02  7.80000000E+01  0.00000000E+00
  3.00000000E+02  7.80000000E+01  0.00000000E+00
  3.10000000E+02  7.80000000E+01  0.00000000E+00
  3.20000000E+02  7.80000000E+01  0.00000000E+00
  3.30000000E+02  7.80000000E+01  0.00000000E+00
  3.40000000E+02  7.80000000E+01  0.00000000E+00
  3.50000000E+02  7.80000000E+01  0.00000000E+00
  3.60000000E+02  7.80000000E+01  0.00000000E+00
  3.70000000E+02  7.80000000E+01  0.00000000E+00
  3.80000000E+02  7.80000000E+01  0.00000000E+00
  3.90000000E+02  7.80000000E+01  0.00000000E+00
  4.00000000E+02  7.80000000E+01  0.00000000E+00
  4.10000000E+02  7.80000000E+01  0.00000000E+00
  4.20000000E+02  7.80000000E+01  0.00000000E+00
  4.30000000E+02  7.80000000E+01  0.00000000E+00
  4.40000000E+02  7.80000000E+01  0.00000000E+00
  4.50000000E+02  7.80000000E+01  0.00000000E+00
  4.60000000E+02  7.80000000E+01  0.00000000E+00
  4.70000000E+02  7.80000000E+01  0.00000000E+00
  4.80000000E+02  7.80000000E+01  0.00000000E+00
  4.90000000E+02  7.80000000E+01  0.00000000E+00
  5.00000000E+02  7.80000000E+01  0.00000000E+00
  5.10000000E+02  7.80000000E+01  0.00000000E+00
  5.20000000E+02  7.80000000E+01  0.00000000E+00
  5.30000000E+02  7.80000000E+01  0.00000000E+00
  5.40000000E+02  7.80000000E+01  0.00000000E+00
  5.50000000E+02  7.80000000E+01  0.00000000E+00
  5.60000000E+02  7.80000000E+01  0.00000000E+00
  5.70000000E+02  7.80000000E+01  0.00000000E+00
  5.80000000E+02  7.80000000E+01  0.00000000E+00
  5.90000000E+02  7.80000000E+01  0.00000000E+00
  6.00000000E+02  7.80000000E+01  0.00000000E+00
  6.10000000E+02  7.80000000E+01  0.00000000E+00
  6.20000000E+02  7.80000000E+01  0.00000000E+00
  6.30000000E+02  7.80000000E+01  0.00000000E+00
  6.40000000E+02  7.80000000E+01  0.00000000E+00
  6.50000000E+02  7.80000000E+01  0.00000000E+00
  6.60000000E+02  7.80000000E+01  0.00000000E+00
  6.70000000E+02  7.80000000E+01  0.00000000E+00
  6.80000000E+02  7.80000000E+01  0.00000000E+00
  6.90000000E+02  7.80000000E+01  0.00000000E+00
  7.00000000E+02  7.80000000E+01  0.00000000E+00
  7.10000000E+02  7.80000000E+01  0.00000000E+00
  7.20000000E+02  7.80000000E+01  0.00000000E+00
  7.30000000E+02  7.80000000E+01  0.00000000E+00
  7.40000000E+02  7.80000000E+01  0.00000000E+00
  7.50000000E+02  7.80000000E+01  0.00000000E+00
  7.60000000E+02  7.80000000E+01  0.00000000E+00
  7.70000000E+02  7.80000000E+01  0.00000000E+00
  7.80000000E+02  7.80000000E+01  0.00000000E+00
  7.90000000E+02  7.80000000E+01  0.00000000E+00
  8.00000000E+02  7.80000000E+01  0.00000000E+00
  8.10000000E+02  7.80000000E+01  0.00000000E+00
  8.20000000E+02  7.80000000E+01  0.00000000E+00
  8.30000000E+02  7.80000000E+01  0.00000000E+00
  8.40000000E+02  7.80000000E+01  0.00000000E+00
  8.50000000E+02  7.80000000E+01  0.00000000E+00
  8.60000000E+02  7.80000000E+01  0.00000000E+00
  8.70000000E+02  7.80000000E+01  0.00000000E+00
  8.80000000E+02  7.80000000E+01  0.00000000E+00
  8.90000000E+02  7.80000000E+01  0.00000000E+00
  9.00000000E+02  7.80000000E+01  0.00000000E+00
  9.10000000E+02  7.80000000E+01  0.00000000E+00
  9.20000000E+02  7.80000000E+01  0.00000000E+00
  9.30000000E+02  7.80000000E+01  0.00000000E+00
  9.40000000E+02  7.80000000E+01  0.00000000E+00
  9.50000000E+02  7.80000000E+01  0.00000000E+00
  9.60000000E+02  7.80000000E+01  0.00000000E+00
  9.70000000E+02  7.80000000E+01  0.00000000E+00
  9.80000000E+02  7.80000000E+01  0.00000000E+00
  9.90000000E+02  7.80000000E+01  0.00000000E+00
  1.00000000E+03  7.80000000E+01  0.00000000E+00
  0.00000000E+00  8.00000000E+01  0.00000000E+00
  1.00000000E+01  8.00000000E+01  0.00000000E+00
  2.00000000E+01  8.00000000E+01  0.00000000E+00
  3.00000000E+01  8.00000000E+01  0.00000000E+00
  4.00000000E+01  8.00000000E+01  0.00000000E+00
  5.00000000E+01  8.00000000E+01  0.00000000E+00
  6.00000000E+01  8.00000000E+01  0.00000000E+00
  7.00000000E+01  8.00000000E+01  0.00000000E+00
  8.00000000E+01  8.00000000E+01  0.00000000E+00
  9.00000000E+01  8.00000000E+01  0.00000000E+00
  1.00000000E+02  8.00000000E+01  0.00000000E+00
  1.10000000E+02  8.00000000E+01  0.00000000E+00
  1.20000000E+02  8.00000000E+01  0.00000000E+00
  1.30000000E+02  8.00000000E+01  0.00000000E+00
  1.40000000E+02  8.00000000E+01  0.00000000E+00
  1.50000000E+02  8.00000000E+01  0.00000000E+00
  1.60000000E+02  8.00000000E+01  0.00000000E+00
  1.70000000E+02  8.00000000E+01  0.00000000E+00
  1.80000000E+02  8.00000000E+01  0.00000000E+00
  1.90000000E+02  8.00000000E+01  0.00000000E+00
  2.00000000E+02  8.00000000E+01  0.00000000E+00
  2.10000000E+02  8.00000000E+01  0.00000000E+00
  2.20000000E+02  8.00000000E+01  0.00000000E+00
  2.30000000E+02  8.00000000E+01  0.00000000E+00
  2.40000000E+02  8.00000000E+01  0.00000000E+00
  2.50000000E+02  8.00000000E+01  0.00000000E+00
  2.60000000E+02  8.00000000E+01  0.00000000E+00
  2.70000000E+02  8.00000000E+01  0.00000000E+00
  2.80000000E+02  8.00000000E+01  0.00000000E+00
  2.90000000E+02  8.00000000E+01  0.00000000E+00
  3.00000000E+02  8.00000000E+01  0.00000000E+00
  3.10000000E+02  8.00000000E+01  0.00000000E+00
  3.20000000E+02  8.00000000E+01  0.00000000E+00
  3.30000000E+02  8.00000000E+01  0.00000000E+00
  3.40000000E+02  8.00000000E+01  0.00000000E+00
  3.50000000E+02  8.00000000E+01  0.00000000E+00
  3.60000000E+02  8.00000000E+01  0.00000000E+00
  3.70000000E+02  8.00000000E+01  0.00000000E+00
  3.80000000E+02  8.00000000E+01  0.00000000E+00
  3.90000000E+02  8.00000000E+01  0.00000000E+00
  4.00000000E+02  8.00000000E+01  0.00000000E+00
  4.10000000E+02  8.00000000E+01  0.00000000E+00
  4.20000000E+02  8.00000000E+01  0.00000000E+00
  4.30000000E+02  8.00000000E+01  0.00000000E+00
  4.40000000E+02  8.00000000E+01  0.00000000E+00
  4.50000000E+02  8.00000000E+01  0.00000000E+00
  4.60000000E+02  8.00000000E+01  0.00000000E+00
  4.70000000E+02  8.00000000E+01  0.00000000E+00
  4.80000000E+02  8.00000000E+01  0.00000000E+00
  4.90000000E+02  8.00000000E+01  0.00000000E+00
  5.00000000E+02  8.00000000E+01  0.00000000E+00
  5.10000000E+02  8.00000000E+01  0.00000000E+00
  5.20000000E+02  8.00000000E+01  0.00000000E+00
  5.30000000E+02  8.00000000E+01  0.00000000E+00
  5.40000000E+02  8.00000000E+01  0.00000000E+00
  5.50000000E+02  8.00000000E+01  0.00000000E+00
  5.60000000E+02  8.00000000E+01  0.00000000E+00
  5.70000000E+02  8.00000000E+01  0.00000000E+00
  5.80000000E+02  8.00000000E+01  0.00000000E+00
  5.90000000E+02  8.00000000E+01  0.00000000E+00
  6.00000000E+02  8.00000000E+01  0.00000000E+00
  6.10000000E+02  8.00000000E+01  0.00000000E+00
  6.20000000E+02  8.00000000E+01  0.00000000E+00
  6.30000000E+02  8.00000000E+01  0.00000000E+00
  6.40000000E+02  8.00000000E+01  0.00000000E+00
  6.50000000E+02  8.00000000E+01  0.00000000E+00
  6.60000000E+02  8.00000000E+01  0.00000000E+00
  6.70000000E+02  8.00000000E+01  0.00000000E+00
  6.80000000E+02  8.00000000E+01  0.00000000E+00
  6.90000000E+02  8.00000000E+01  0.00000000E+00
  7.00000000E+02  8.00000000E+01  0.00000000E+00
  7.10000000E+02  8.00000000E+01  0.00000000E+00
  7.20000000E+02  8.00000000E+01  0.00000000E+00
  7.30000000E+02  8.00000000E+01  0.00000000E+00
  7.40000000E+02  8.00000000E+01  0.00000000E+00
  7.50000000E+02  8.00000000E+01  0.00000000E+00
  7.60000000E+02  8.00000000E+01  0.00000000E+00
  7.70000000E+02  8.00000000E+01  0.00000000E+00
  7.80000000E+02  8.00000000E+01  0.00000000E+00
  7.90000000E+02  8.00000000E+01  0.00000000E+00
  8.00000000E+02  8.00000000E+01  0.00000000E+00
  8.10000000E+02  8.00000000E+01  0.00000000E+00
  8.20000000E+02  8.00000000E+01  0.00000000E+00
  8.30000000E+02  8.00000000E+01  0.00000000E+00
  8.40000000E+02  8.00000000E+01  0.00000000E+00
  8.50000000E+02  8.00000000E+01  0.00000000E+00
  8.60000000E+02  8.00000000E+01  0.00000000E+00
  8.70000000E+02  8.00000000E+01  0.00000000E+00
  8.80000000E+02  8.00000000E+01  0.00000000E+00
  8.90000000E+02  8.00000000E+01  0.00000000E+00
  9.00000000E+02  8.00000000E+01  0.00000000E+00
  9.10000000E+02  8.00000000E+01  0.00000000E+00
  9.20000000E+02  8.00000000E+01  0.00000000E+00
  9.30000000E+02  8.00000000E+01  0.00000000E+00
  9.40000000E+02  8.00000000E+01  0.00000000E+00
  9.50000000E+02  8.00000000E+01  0.00000000E+00
  9.60000000E+02  8.00000000E+01  0.00000000E+00
  9.70000000E+02  8.00000000E+01  0.00000000E+00
  9.80000000E+02  8.00000000E+01  0.00000000E+00
  9.90000000E+02  8.00000000E+01  0.00000000E+00
  1.00000000E+03  8.00000000E+01  0.00000000E+00
  0.00000000E+00  8.20000000E+01  0.00000000E+00
  1.00000000E+01  8.20000000E+01  0.00000000E+00
  2.00000000E+01  8.20000000E+01  0.00000000E+00
  3.00000000E+01  8.20000000E+01  0.00000000E+00
  4.00000000E+01  8.20000000E+01  0.00000000E+00
  5.00000000E+01  8.20000000E+01  0.00000000E+00
  6.00000000E+01  8.20000000E+01  0.00000000E+00
  7.00000000E+01  8.20000000E+01  0.00000000E+00
  8.00000000E+01  8.20000000E+01  0.00000000E+00
  9.00000000E+01  8.20000000E+01  0.00000000E+00
  1.00000000E+02  8.20000000E+01  0.00000000E+00
  1.10000000E+02  8.20000000E+01  0.00000000E+00
  1.20000000E+02  8.20000000E+01  0.00000000E+00
  1.30000000E+02  8.20000000E+01  0.00000000E+00
  1.40000000E+02  8.20000000E+01  0.00000000E+00
  1.50000000E+02  8.20000000E+01  0.00000000E+00
  1.60000000E+02  8.20000000E+01  0.00000000E+00
  1.70000000E+02  8.20000000E+01  0.00000000E+00
  1.80000000E+02  8.20000000E+01  0.00000000E+00
  1.90000000E+02  8.20000000E+01  0.00000000E+00
  2.00000000E+02  8.20000000E+01  0.00000000E+00
  2.10000000E+02  8.20000000E+01  0.00000000E+00
  2.20000000E+02  8.20000000E+01  0.00000000E+00
  2.30000000E+02  8.20000000E+01  0.00000000E+00
  2.40000000E+02  8.20000000E+01  0.00000000E+00
  2.50000000E+02  8.20000000E+01  0.00000000E+00
  2.60000000E+02  8.20000000E+01  0.00000000E+00
  2.70000000E+02  8.20000000E+01  0.00000000E+00
  2.80000000E+02  8.20000000E+01  0.00000000E+00
  2.90000000E+02  8.20000000E+01  0.00000000E+00
  3.00000000E+02  8.20000000E+01  0.00000000E+00
  3.10000000E+02  8.20000000E+01  0.00000000E+00
  3.20000000E+02  8.20000000E+01  0.00000000E+00
  3.30000000E+02  8.20000000E+01  0.00000000E+00
  3.40000000E+02  8.20000000E+01  0.00000000E+00
  3.50000000E+02  8.20000000E+01  0.00000000E+00
  3.60000000E+02  8.20000000E+01  0.00000000E+00
  3.70000000E+02  8.20000000E+01  0.00000000E+00
  3.80000000E+02  8.20000000E+01  0.00000000E+00
  3.90000000E+02  8.20000000E+01  0.00000000E+00
  4.00000000E+02  8.20000000E+01  0.00000000E+00
  4.10000000E+02  8.20000000E+01  0.00000000E+00
  4.20000000E+02  8.20000000E+01  0.00000000E+00
  4.30000000E+02  8.20000000E+01  0.00000000E+00
  4.40000000E+02  8.20000000E+01  0.00000000E+00
  4.50000000E+02  8.20000000E+01  0.00000000E+00
  4.60000000E+02  8.20000000E+01  0.00000000E+00
  4.70000000E+02  8.20000000E+01  0.00000000E+00
  4.80000000E+02  8.20000000E+01  0.00000000E+00
  4.90000000E+02  8.20000000E+01  0.00000000E+00
  5.00000000E+02  8.20000000E+01  0.00000000E+00
  5.10000000E+02  8.20000000E+01  0.00000000E+00
  5.20000000E+02  8.20000000E+01  0.00000000E+00
  5.30000000E+02  8.20000000E+01  0.00000000E+00
  5.40000000E+02  8.20000000E+01  0.00000000E+00
  5.50000000E+02  8.20000000E+01  0.00000000E+00
  5.60000000E+02  8.20000000E+01  0.00000000E+00
  5.70000000E+02  8.20000000E+01  0.00000000E+00
  5.80000000E+02  8.20000000E+01  0.00000000E+00
  5.90000000E+02  8.20000000E+01  0.00000000E+00
  6.00000000E+02  8.20000000E+01  0.00000000E+00
  6.10000000E+02  8.20000000E+01  0.00000000E+00
  6.20000000E+02  8.20000000E+01  0.00000000E+00
  6.30000000E+02  8.20000000E+01  0.00000000E+00
  6.40000000E+02  8.20000000E+01  0.00000000E+00
  6.50000000E+02  8.20000000E+01  0.00000000E+00
  6.60000000E+02  8.20000000E+01  0.00000000E+00
  6.70000000E+02  8.20000000E+01  0.00000000E+00
  6.80000000E+02  8.20000000E+01  0.00000000E+00
  6.90000000E+02  8.20000000E+01  0.00000000E+00
  7.00000000E+02  8.20000000E+01  0.00000000E+00
  7.10000000E+02  8.20000000E+01  0.00000000E+00
  7.20000000E+02  8.20000000E+01  0.00000000E+00
  7.30000000E+02  8.20000000E+01  0.00000000E+00
  7.40000000E+02  8.20000000E+01  0.00000000E+00
  7.50000000E+02  8.20000000E+01  0.00000000E+00
  7.60000000E+02  8.20000000E+01  0.00000000E+00
  7.70000000E+02  8.20000000E+01  0.00000000E+00
  7.80000000E+02  8.20000000E+01  0.00000000E+00
  7.90000000E+02  8.20000000E+01  0.00000000E+00
  8.00000000E+02  8.20000000E+01  0.00000000E+00
  8.10000000E+02  8.20000000E+01  0.00000000E+00
  8.20000000E+02  8.20000000E+01  0.00000000E+00
  8.30000000E+02  8.20000000E+01  0.00000000E+00
  8.40000000E+02  8.20000000E+01  0.00000000E+00
  8.50000000E+02  8.20000000E+01  0.00000000E+00
  8.60000000E+02  8.20000000E+01  0.00000000E+00
  8.70000000E+02  8.20000000E+01  0.00000000E+00
  8.80000000E+02  8.20000000E+01  0.00000000E+00
  8.90000000E+02  8.20000000E+01  0.00000000E+00
  9.00000000E+02  8.20000000E+01  0.00000000E+00
  9.10000000E+02  8.20000000E+01  0.00000000E+00
  9.20000000E+02  8.20000000E+01  0.00000000E+00
  9.30000000E+02  8.20000000E+01  0.00000000E+00
  9.40000000E+02  8.20000000E+01  0.00000000E+00
  9.50000000E+02  8.20000000E+01  0.00000000E+00
  9.60000000E+02  8.20000000E+01  0.00000000E+00
  9.70000000E+02  8.20000000E+01  0.00000000E+00
  9.80000000E+02  8.20000000E+01  0.00000000E+00
  9.90000000E+02  8.20000000E+01  0.00000000E+00
  1.00000000E+03  8.20000000E+01  0.00000000E+00
  0.00000000E+00  8.40000000E+01  0.00000000E+00
  1.00000000E+01  8.40000000E+01  0.00000000E+00
  2.00000000E+01  8.40000000E+01  0.00000000E+00
  3.00000000E+01  8.40000000E+01  0.00000000E+00
  4.00000000E+01  8.40000000E+01  0.00000000E+00
  5.00000000E+01  8.40000000E+01  0.00000000E+00
  6.00000000E+01  8.40000000E+01  0.00000000E+00
  7.00000000E+01  8.40000000E+01  0.00000000E+00
  8.00000000E+01  8.40000000E+01  0.00000000E+00
  9.00000000E+01  8.40000000E+01  0.00000000E+00
  1.00000000E+02  8.40000000E+01  0.00000000E+00
  1.10000000E+02  8.40000000E+01  0.00000000E+00
  1.20000000E+02  8.40000000E+01  0.00000000E+00
  1.30000000E+02  8.40000000E+01  0.00000000E+00
  1.40000000E+02  8.40000000E+01  0.00000000E+00
  1.50000000E+02  8.40000000E+01  0.00000000E+00
  1.60000000E+02  8.40000000E+01  0.00000000E+00
  1.70000000E+02  8.40000000E+01  0.00000000E+00
  1.80000000E+02  8.40000000E+01  0.00000000E+00
  1.90000000E+02  8.40000000E+01  0.00000000E+00
  2.00000000E+02  8.40000000E+01  0.00000000E+00
  2.10000000E+02  8.40000000E+01  0.00000000E+00
  2.20000000E+02  8.40000000E+01  0.00000000E+00
  2.30000000E+02  8.40000000E+01  0.00000000E+00
  2.40000000E+02  8.40000000E+01  0.00000000E+00
  2.50000000E+02  8.40000000E+01  0.00000000E+00
  2.60000000E+02  8.40000000E+01  0.00000000E+00
  2.70000000E+02  8.40000000E+01  0.00000000E+00
  2.80000000E+02  8.40000000E+01  0.00000000E+00
  2.90000000E+02  8.40000000E+01  0.00000000E+00
  3.00000000E+02  8.40000000E+01  0.00000000E+00
  3.10000000E+02  8.40000000E+01  0.00000000E+00
  3.20000000E+02  8.40000000E+01  0.00000000E+00
  3.30000000E+02  8.40000000E+01  0.00000000E+00
  3.40000000E+02  8.40000000E+01  0.00000000E+00
  3.50000000E+02  8.40000000E+01  0.00000000E+00
  3.60000000E+02  8.40000000E+01  0.00000000E+00
  3.70000000E+02  8.40000000E+01  0.00000000E+00
  3.80000000E+02  8.40000000E+01  0.00000000E+00
  3.90000000E+02  8.40000000E+01  0.00000000E+00
  4.00000000E+02  8.40000000E+01  0.00000000E+00
  4.10000000E+02  8.40000000E+01  0.00000000E+00
  4.20000000E+02  8.40000000E+01  0.00000000E+00
  4.30000000E+02  8.40000000E+01  0.00000000E+00
  4.40000000E+02  8.40000000E+01  0.00000000E+00
  4.50000000E+02  8.40000000E+01  0.00000000E+00
  4.60000000E+02  8.40000000E+01  0.00000000E+00
  4.70000000E+02  8.40000000E+01  0.00000000E+00
  4.80000000E+02  8.40000000E+01  0.00000000E+00
  4.90000000E+02  8.40000000E+01  0.00000000E+00
  5.00000000E+02  8.40000000E+01  0.00000000E+00
  5.10000000E+02  8.40000000E+01  0.00000000E+00
  5.20000000E+02  8.40000000E+01  0.00000000E+00
  5.30000000E+02  8.40000000E+01  0.00000000E+00
  5.40000000E+02  8.40000000E+01  0.00000000E+00
  5.50000000E+02  8.40000000E+01  0.00000000E+00
  5.60000000E+02  8.40000000E+01  0.00000000E+00
  5.70000000E+02  8.40000000E+01  0.00000000E+00
  5.80000000E+02  8.40000000E+01  0.00000000E+00
  5.90000000E+02  8.40000000E+01  0.00000000E+00
  6.00000000E+02  8.40000000E+01  0.00000000E+00
  6.10000000E+02  8.40000000E+01  0.00000000E+00
  6.20000000E+02  8.40000000E+01  0.00000000E+00
  6.30000000E+02  8.40000000E+01  0.00000000E+00
  6.40000000E+02  8.40000000E+01  0.00000000E+00
  6.50000000E+02  8.40000000E+01  0.00000000E+00
  6.60000000E+02  8.40000000E+01  0.00000000E+00
  6.70000000E+02  8.40000000E+01  0.00000000E+00
  6.80000000E+02  8.40000000E+01  0.00000000E+00
  6.90000000E+02  8.40000000E+01  0.00000000E+00
  7.00000000E+02  8.40000000E+01  0.00000000E+00
  7.10000000E+02  8.40000000E+01  0.00000000E+00
  7.20000000E+02  8.40000000E+01  0.00000000E+00
  7.30000000E+02  8.40000000E+01  0.00000000E+00
  7.40000000E+02  8.40000000E+01  0.00000000E+00
  7.50000000E+02  8.40000000E+01  0.00000000E+00
  7.60000000E+02  8.40000000E+01  0.00000000E+00
  7.70000000E+02  8.40000000E+01  0.00000000E+00
  7.80000000E+02  8.40000000E+01  0.00000000E+00
  7.90000000E+02  8.40000000E+01  0.00000000E+00
  8.00000000E+02  8.40000000E+01  0.00000000E+00
  8.10000000E+02  8.40000000E+01  0.00000000E+00
  8.20000000E+02  8.40000000E+01  0.00000000E+00
  8.30000000E+02  8.40000000E+01  0.00000000E+00
  8.40000000E+02  8.40000000E+01  0.00000000E+00
  8.50000000E+02  8.40000000E+01  0.00000000E+00
  8.60000000E+02  8.40000000E+01  0.00000000E+00
  8.70000000E+02  8.40000000E+01  0.00000000E+00
  8.80000000E+02  8.40000000E+01  0.00000000E+00
  8.90000000E+02  8.40000000E+01  0.00000000E+00
  9.00000000E+02  8.40000000E+01  0.00000000E+00
  9.10000000E+02  8.40000000E+01  0.00000000E+00
  9.20000000E+02  8.40000000E+01  0.00000000E+00
  9.30000000E+02  8.40000000E+01  0.00000000E+00
  9.40000000E+02  8.40000000E+01  0.00000000E+00
  9.50000000E+02  8.40000000E+01  0.00000000E+00
  9.60000000E+02  8.40000000E+01  0.00000000E+00
  9.70000000E+02  8.40000000E+01  0.00000000E+00
  9.80000000E+02  8.40000000E+01  0.00000000E+00
  9.90000000E+02  8.40000000E+01  0.00000000E+00
  1.00000000E+03  8.40000000E+01  0.00000000E+00
  0.00000000E+00  8.60000000E+01  0.00000000E+00
  1.00000000E+01  8.60000000E+01  0.00000000E+00
  2.00000000E+01  8.60000000E+01  0.00000000E+00
  3.00000000E+01  8.60000000E+01  0.00000000E+00
  4.00000000E+01  8.60000000E+01  0.00000000E+00
  5.00000000E+01  8.60000000E+01  0.00000000E+00
  6.00000000E+01  8.60000000E+01  0.00000000E+00
  7.00000000E+01  8.60000000E+01  0.00000000E+00
  8.00000000E+01  8.60000000E+01  0.00000000E+00
  9.00000000E+01  8.60000000E+01  0.00000000E+00
  1.00000000E+02  8.60000000E+01  0.00000000E+00
  1.10000000E+02  8.60000000E+01  0.00000000E+00
  1.20000000E+02  8.60000000E+01  0.00000000E+00
  1.30000000E+02  8.60000000E+01  0.00000000E+00
  1.40000000E+02  8.60000000E+01  0.00000000E+00
  1.50000000E+02  8.60000000E+01  0.00000000E+00
  1.60000000E+02  8.60000000E+01  0.00000000E+00
  1.70000000E+02  8.60000000E+01  0.00000000E+00
  1.80000000E+02  8.60000000E+01  0.00000000E+00
  1.90000000E+02  8.60000000E+01  0.00000000E+00
  2.00000000E+02  8.60000000E+01  0.00000000E+00
  2.10000000E+02  8.60000000E+01  0.00000000E+00
  2.20000000E+02  8.60000000E+01  0.00000000E+00
  2.30000000E+02  8.60000000E+01  0.00000000E+00
  2.40000000E+02  8.60000000E+01  0.00000000E+00
  2.50000000E+02  8.60000000E+01  0.00000000E+00
  2.60000000E+02  8.60000000E+01  0.00000000E+00
  2.70000000E+02  8.60000000E+01  0.00000000E+00
  2.80000000E+02  8.60000000E+01  0.00000000E+00
  2.90000000E+02  8.60000000E+01  0.00000000E+00
  3.00000000E+02  8.60000000E+01  0.00000000E+00
  3.10000000E+02  8.60000000E+01  0.00000000E+00
  3.20000000E+02  8.60000000E+01  0.00000000E+00
  3.30000000E+02  8.60000000E+01  0.00000000E+00
  3.40000000E+02  8.60000000E+01  0.00000000E+00
  3.50000000E+02  8.60000000E+01  0.00000000E+00
  3.60000000E+02  8.60000000E+01  0.00000000E+00
  3.70000000E+02  8.60000000E+01  0.00000000E+00
  3.80000000E+02  8.60000000E+01  0.00000000E+00
  3.90000000E+02  8.60000000E+01  0.00000000E+00
  4.00000000E+02  8.60000000E+01  0.00000000E+00
  4.10000000E+02  8.60000000E+01  0.00000000E+00
  4.20000000E+02  8.60000000E+01  0.00000000E+00
  4.30000000E+02  8.60000000E+01  0.00000000E+00
  4.40000000E+02  8.60000000E+01  0.00000000E+00
  4.50000000E+02  8.60000000E+01  0.00000000E+00
  4.60000000E+02  8.60000000E+01  0.00000000E+00
  4.70000000E+02  8.60000000E+01  0.00000000E+00
  4.80000000E+02  8.60000000E+01  0.00000000E+00
  4.90000000E+02  8.60000000E+01  0.00000000E+00
  5.00000000E+02  8.60000000E+01  0.00000000E+00
  5.10000000E+02  8.60000000E+01  0.00000000E+00
  5.20000000E+02  8.60000000E+01  0.00000000E+00
  5.30000000E+02  8.60000000E+01  0.00000000E+00
  5.40000000E+02  8.60000000E+01  0.00000000E+00
  5.50000000E+02  8.60000000E+01  0.00000000E+00
  5.60000000E+02  8.60000000E+01  0.00000000E+00
  5.70000000E+02  8.60000000E+01  0.00000000E+00
  5.80000000E+02  8.60000000E+01  0.00000000E+00
  5.90000000E+02  8.60000000E+01  0.00000000E+00
  6.00000000E+02  8.60000000E+01  0.00000000E+00
  6.10000000E+02  8.60000000E+01  0.00000000E+00
  6.20000000E+02  8.60000000E+01  0.00000000E+00
  6.30000000E+02  8.60000000E+01  0.00000000E+00
  6.40000000E+02  8.60000000E+01  0.00000000E+00
  6.50000000E+02  8.60000000E+01  0.00000000E+00
  6.60000000E+02  8.60000000E+01  0.00000000E+00
  6.70000000E+02  8.60000000E+01  0.00000000E+00
  6.80000000E+02  8.60000000E+01  0.00000000E+00
  6.90000000E+02  8.60000000E+01  0.00000000E+00
  7.00000000E+02  8.60000000E+01  0.00000000E+00
  7.10000000E+02  8.60000000E+01  0.00000000E+00
  7.20000000E+02  8.60000000E+01  0.00000000E+00
  7.30000000E+02  8.60000000E+01  0.00000000E+00
  7.40000000E+02  8.60000000E+01  0.00000000E+00
  7.50000000E+02  8.60000000E+01  0.00000000E+00
  7.60000000E+02  8.60000000E+01  0.00000000E+00
  7.70000000E+02  8.60000000E+01  0.00000000E+00
  7.80000000E+02  8.60000000E+01  0.00000000E+00
  7.90000000E+02  8.60000000E+01  0.00000000E+00
  8.00000000E+02  8.60000000E+01  0.00000000E+00
  8.10000000E+02  8.60000000E+01  0.00000000E+00
  8.20000000E+02  8.60000000E+01  0.00000000E+00
  8.30000000E+02  8.60000000E+01  0.00000000E+00
  8.40000000E+02  8.60000000E+01  0.00000000E+00
  8.50000000E+02  8.60000000E+01  0.00000000E+00
  8.60000000E+02  8.60000000E+01  0.00000000E+00
  8.70000000E+02  8.60000000E+01  0.00000000E+00
  8.80000000E+02  8.60000000E+01  0.00000000E+00
  8.90000000E+02  8.60000000E+01  0.00000000E+00
  9.00000000E+02  8.60000000E+01  0.00000000E+00
  9.10000000E+02  8.60000000E+01  0.00000000E+00
  9.20000000E+02  8.60000000E+01  0.00000000E+00
  9.30000000E+02  8.60000000E+01  0.00000000E+00
  9.40000000E+02  8.60000000E+01  0.00000000E+00
  9.50000000E+02  8.60000000E+01  0.00000000E+00
  9.60000000E+02  8.60000000E+01  0.00000000E+00
  9.70000000E+02  8.60000000E+01  0.00000000E+00
  9.80000000E+02  8.60000000E+01  0.00000000E+00
  9.90000000E+02  8.60000000E+01  0.00000000E+00
  1.00000000E+03  8.60000000E+01  0.00000000E+00
  0.00000000E+00  8.80000000E+01  0.00000000E+00
  1.00000000E+01  8.80000000E+01  0.00000000E+00
  2.00000000E+01  8.80000000E+01  0.00000000E+00
  3.00000000E+01  8.80000000E+01  0.00000000E+00
  4.00000000E+01  8.80000000E+01  0.00000000E+00
  5.00000000E+01  8.80000000E+01  0.00000000E+00
  6.00000000E+01  8.80000000E+01  0.00000000E+00
  7.00000000E+01  8.80000000E+01  0.00000000E+00
  8.00000000E+01  8.80000000E+01  0.00000000E+00
  9.00000000E+01  8.80000000E+01  0.00000000E+00
  1.00000000E+02  8.80000000E+01  0.00000000E+00
  1.10000000E+02  8.80000000E+01  0.00000000E+00
  1.20000000E+02  8.80000000E+01  0.00000000E+00
  1.30000000E+02  8.80000000E+01  0.00000000E+00
  1.40000000E+02  8.80000000E+01  0.00000000E+00
  1.50000000E+02  8.80000000E+01  0.00000000E+00
  1.60000000E+02  8.80000000E+01  0.00000000E+00
  1.70000000E+02  8.80000000E+01  0.00000000E+00
  1.80000000E+02  8.80000000E+01  0.00000000E+00
  1.90000000E+02  8.80000000E+01  0.00000000E+00
  2.00000000E+02  8.80000000E+01  0.00000000E+00
  2.10000000E+02  8.80000000E+01  0.00000000E+00
  2.20000000E+02  8.80000000E+01  0.00000000E+00
  2.30000000E+02  8.80000000E+01  0.00000000E+00
  2.40000000E+02  8.80000000E+01  0.00000000E+00
  2.50000000E+02  8.80000000E+01  0.00000000E+00
  2.60000000E+02  8.80000000E+01  0.00000000E+00
  2.70000000E+02  8.80000000E+01  0.00000000E+00
  2.80000000E+02  8.80000000E+01  0.00000000E+00
  2.90000000E+02  8.80000000E+01  0.00000000E+00
  3.00000000E+02  8.80000000E+01  0.00000000E+00
  3.10000000E+02  8.80000000E+01  0.00000000E+00
  3.20000000E+02  8.80000000E+01  0.00000000E+00
  3.30000000E+02  8.80000000E+01  0.00000000E+00
  3.40000000E+02  8.80000000E+01  0.00000000E+00
  3.50000000E+02  8.80000000E+01  0.00000000E+00
  3.60000000E+02  8.80000000E+01  0.00000000E+00
  3.70000000E+02  8.80000000E+01  0.00000000E+00
  3.80000000E+02  8.80000000E+01  0.00000000E+00
  3.90000000E+02  8.80000000E+01  0.00000000E+00
  4.00000000E+02  8.80000000E+01  0.00000000E+00
  4.10000000E+02  8.80000000E+01  0.00000000E+00
  4.20000000E+02  8.80000000E+01  0.00000000E+00
  4.30000000E+02  8.80000000E+01  0.00000000E+00
  4.40000000E+02  8.80000000E+01  0.00000000E+00
  4.50000000E+02  8.80000000E+01  0.00000000E+00
  4.60000000E+02  8.80000000E+01  0.00000000E+00
  4.70000000E+02  8.80000000E+01  0.00000000E+00
  4.80000000E+02  8.80000000E+01  0.00000000E+00
  4.90000000E+02  8.80000000E+01  0.00000000E+00
  5.00000000E+02  8.80000000E+01  0.00000000E+00
  5.10000000E+02  8.80000000E+01  0.00000000E+00
  5.20000000E+02  8.80000000E+01  0.00000000E+00
  5.30000000E+02  8.80000000E+01  0.00000000E+00
  5.40000000E+02  8.80000000E+01  0.00000000E+00
  5.50000000E+02  8.80000000E+01  0.00000000E+00
  5.60000000E+02  8.80000000E+01  0.00000000E+00
  5.70000000E+02  8.80000000E+01  0.00000000E+00
  5.80000000E+02  8.80000000E+01  0.00000000E+00
  5.90000000E+02  8.80000000E+01  0.00000000E+00
  6.00000000E+02  8.80000000E+01  0.00000000E+00
  6.10000000E+02  8.80000000E+01  0.00000000E+00
  6.20000000E+02  8.80000000E+01  0.00000000E+00
  6.30000000E+02  8.80000000E+01  0.00000000E+00
  6.40000000E+02  8.80000000E+01  0.00000000E+00
  6.50000000E+02  8.80000000E+01  0.00000000E+00
  6.60000000E+02  8.80000000E+01  0.00000000E+00
  6.70000000E+02  8.80000000E+01  0.00000000E+00
  6.80000000E+02  8.80000000E+01  0.00000000E+00
  6.90000000E+02  8.80000000E+01  0.00000000E+00
  7.00000000E+02  8.80000000E+01  0.00000000E+00
  7.10000000E+02  8.80000000E+01  0.00000000E+00
  7.20000000E+02  8.80000000E+01  0.00000000E+00
  7.30000000E+02  8.80000000E+01  0.00000000E+00
  7.40000000E+02  8.80000000E+01  0.00000000E+00
  7.50000000E+02  8.80000000E+01  0.00000000E+00
  7.60000000E+02  8.80000000E+01  0.00000000E+00
  7.70000000E+02  8.80000000E+01  0.00000000E+00
  7.80000000E+02  8.80000000E+01  0.00000000E+00
  7.90000000E+02  8.80000000E+01  0.00000000E+00
  8.00000000E+02  8.80000000E+01  0.00000000E+00
  8.10000000E+02  8.80000000E+01  0.00000000E+00
  8.20000000E+02  8.80000000E+01  0.00000000E+00
  8.30000000E+02  8.80000000E+01  0.00000000E+00
  8.40000000E+02  8.80000000E+01  0.00000000E+00
  8.50000000E+02  8.80000000E+01  0.00000000E+00
  8.60000000E+02  8.80000000E+01  0.00000000E+00
  8.70000000E+02  8.80000000E+01  0.00000000E+00
  8.80000000E+02  8.80000000E+01  0.00000000E+00
  8.90000000E+02  8.80000000E+01  0.00000000E+00
  9.00000000E+02  8.80000000E+01  0.00000000E+00
  9.10000000E+02  8.80000000E+01  0.00000000E+00
  9.20000000E+02  8.80000000E+01  0.00000000E+00
  9.30000000E+02  8.80000000E+01  0.00000000E+00
  9.40000000E+02  8.80000000E+01  0.00000000E+00
  9.50000000E+02  8.80000000E+01  0.00000000E+00
  9.60000000E+02  8.80000000E+01  0.00000000E+00
  9.70000000E+02  8.80000000E+01  0.00000000E+00
  9.80000000E+02  8.80000000E+01  0.00000000E+00
  9.90000000E+02  8.80000000E+01  0.00000000E+00
  1.00000000E+03  8.80000000E+01  0.00000000E+00
  0.00000000E+00  9.00000000E+01  0.00000000E+00
  1.00000000E+01  9.00000000E+01  0.00000000E+00
  2.00000000E+01  9.00000000E+01  0.00000000E+00
  3.00000000E+01  9.00000000E+01  0.00000000E+00
  4.00000000E+01  9.00000000E+01  0.00000000E+00
  5.00000000E+01  9.00000000E+01  0.00000000E+00
  6.00000000E+01  9.00000000E+01  0.00000000E+00
  7.00000000E+01  9.00000000E+01  0.00000000E+00
  8.00000000E+01  9.00000000E+01  0.00000000E+00
  9.00000000E+01  9.00000000E+01  0.00000000E+00
  1.00000000E+02  9.00000000E+01  0.00000000E+00
  1.10000000E+02  9.00000000E+01  0.00000000E+00
  1.20000000E+02  9.00000000E+01  0.00000000E+00
  1.30000000E+02  9.00000000E+01  0.00000000E+00
  1.40000000E+02  9.00000000E+01  0.00000000E+00
  1.50000000E+02  9.00000000E+01  0.00000000E+00
  1.60000000E+02  9.00000000E+01  0.00000000E+00
  1.70000000E+02  9.00000000E+01  0.00000000E+00
  1.80000000E+02  9.00000000E+01  0.00000000E+00
  1.90000000E+02  9.00000000E+01  0.00000000E+00
  2.00000000E+02  9.00000000E+01  0.00000000E+00
  2.10000000E+02  9.00000000E+01  0.00000000E+00
  2.20000000E+02  9.00000000E+01  0.00000000E+00
  2.30000000E+02  9.00000000E+01  0.00000000E+00
  2.40000000E+02  9.00000000E+01  0.00000000E+00
  2.50000000E+02  9.00000000E+01  0.00000000E+00
  2.60000000E+02  9.00000000E+01  0.00000000E+00
  2.70000000E+02  9.00000000E+01  0.00000000E+00
  2.80000000E+02  9.00000000E+01  0.00000000E+00
  2.90000000E+02  9.00000000E+01  0.00000000E+00
  3.00000000E+02  9.00000000E+01  0.00000000E+00
  3.10000000E+02  9.00000000E+01  0.00000000E+00
  3.20000000E+02  9.00000000E+01  0.00000000E+00
  3.30000000E+02  9.00000000E+01  0.00000000E+00
  3.40000000E+02  9.00000000E+01  0.00000000E+00
  3.50000000E+02  9.00000000E+01  0.00000000E+00
  3.60000000E+02  9.00000000E+01  0.00000000E+00
  3.70000000E+02  9.00000000E+01  0.00000000E+00
  3.80000000E+02  9.00000000E+01  0.00000000E+00
  3.90000000E+02  9.00000000E+01  0.00000000E+00
  4.00000000E+02  9.00000000E+01  0.00000000E+00
  4.10000000E+02  9.00000000E+01  0.00000000E+00
  4.20000000E+02  9.00000000E+01  0.00000000E+00
  4.30000000E+02  9.00000000E+01  0.00000000E+00
  4.40000000E+02  9.00000000E+01  0.00000000E+00
  4.50000000E+02  9.00000000E+01  0.00000000E+00
  4.60000000E+02  9.00000000E+01  0.00000000E+00
  4.70000000E+02  9.00000000E+01  0.00000000E+00
  4.80000000E+02  9.00000000E+01  0.00000000E+00
  4.90000000E+02  9.00000000E+01  0.00000000E+00
  5.00000000E+02  9.00000000E+01  0.00000000E+00
  5.10000000E+02  9.00000000E+01  0.00000000E+00
  5.20000000E+02  9.00000000E+01  0.00000000E+00
  5.30000000E+02  9.00000000E+01  0.00000000E+00
  5.40000000E+02  9.00000000E+01  0.00000000E+00
  5.50000000E+02  9.00000000E+01  0.00000000E+00
  5.60000000E+02  9.00000000E+01  0.00000000E+00
  5.70000000E+02  9.00000000E+01  0.00000000E+00
  5.80000000E+02  9.00000000E+01  0.00000000E+00
  5.90000000E+02  9.00000000E+01  0.00000000E+00
  6.00000000E+02  9.00000000E+01  0.00000000E+00
  6.10000000E+02  9.00000000E+01  0.00000000E+00
  6.20000000E+02  9.00000000E+01  0.00000000E+00
  6.30000000E+02  9.00000000E+01  0.00000000E+00
  6.40000000E+02  9.00000000E+01  0.00000000E+00
  6.50000000E+02  9.00000000E+01  0.00000000E+00
  6.60000000E+02  9.00000000E+01  0.00000000E+00
  6.70000000E+02  9.00000000E+01  0.00000000E+00
  6.80000000E+02  9.00000000E+01  0.00000000E+00
  6.90000000E+02  9.00000000E+01  0.00000000E+00
  7.00000000E+02  9.00000000E+01  0.00000000E+00
  7.10000000E+02  9.00000000E+01  0.00000000E+00
  7.20000000E+02  9.00000000E+01  0.00000000E+00
  7.30000000E+02  9.00000000E+01  0.00000000E+00
  7.40000000E+02  9.00000000E+01  0.00000000E+00
  7.50000000E+02  9.00000000E+01  0.00000000E+00
  7.60000000E+02  9.00000000E+01  0.00000000E+00
  7.70000000E+02  9.00000000E+01  0.00000000E+00
  7.80000000E+02  9.00000000E+01  0.00000000E+00
  7.90000000E+02  9.00000000E+01  0.00000000E+00
  8.00000000E+02  9.00000000E+01  0.00000000E+00
  8.10000000E+02  9.00000000E+01  0.00000000E+00
  8.20000000E+02  9.00000000E+01  0.00000000E+00
  8.30000000E+02  9.00000000E+01  0.00000000E+00
  8.40000000E+02  9.00000000E+01  0.00000000E+00
  8.50000000E+02  9.00000000E+01  0.00000000E+00
  8.60000000E+02  9.00000000E+01  0.00000000E+00
  8.70000000E+02  9.00000000E+01  0.00000000E+00
  8.80000000E+02  9.00000000E+01  0.00000000E+00
  8.90000000E+02  9.00000000E+01  0.00000000E+00
  9.00000000E+02  9.00000000E+01  0.00000000E+00
  9.10000000E+02  9.00000000E+01  0.00000000E+00
  9.20000000E+02  9.00000000E+01  0.00000000E+00
  9.30000000E+02  9.00000000E+01  0.00000000E+00
  9.40000000E+02  9.00000000E+01  0.00000000E+00
  9.50000000E+02  9.00000000E+01  0.00000000E+00
  9.60000000E+02  9.00000000E+01  0.00000000E+00
  9.70000000E+02  9.00000000E+01  0.00000000E+00
  9.80000000E+02  9.00000000E+01  0.00000000E+00
  9.90000000E+02  9.00000000E+01  0.00000000E+00
  1.00000000E+03  9.00000000E+01  0.00000000E+00
  0.00000000E+00  9.20000000E+01  0.00000000E+00
  1.00000000E+01  9.20000000E+01  0.00000000E+00
  2.00000000E+01  9.20000000E+01  0.00000000E+00
  3.00000000E+01  9.20000000E+01  0.00000000E+00
  4.00000000E+01  9.20000000E+01  0.00000000E+00
  5.00000000E+01  9.20000000E+01  0.00000000E+00
  6.00000000E+01  9.20000000E+01  0.00000000E+00
  7.00000000E+01  9.20000000E+01  0.00000000E+00
  8.00000000E+01  9.20000000E+01  0.00000000E+00
  9.00000000E+01  9.20000000E+01  0.00000000E+00
  1.00000000E+02  9.20000000E+01  0.00000000E+00
  1.10000000E+02  9.20000000E+01  0.00000000E+00
  1.20000000E+02  9.20000000E+01  0.00000000E+00
  1.30000000E+02  9.20000000E+01  0.00000000E+00
  1.40000000E+02  9.20000000E+01  0.00000000E+00
  1.50000000E+02  9.20000000E+01  0.00000000E+00
  1.60000000E+02  9.20000000E+01  0.00000000E+00
  1.70000000E+02  9.20000000E+01  0.00000000E+00
  1.80000000E+02  9.20000000E+01  0.00000000E+00
  1.90000000E+02  9.20000000E+01  0.00000000E+00
  2.00000000E+02  9.20000000E+01  0.00000000E+00
  2.10000000E+02  9.20000000E+01  0.00000000E+00
  2.20000000E+02  9.20000000E+01  0.00000000E+00
  2.30000000E+02  9.20000000E+01  0.00000000E+00
  2.40000000E+02  9.20000000E+01  0.00000000E+00
  2.50000000E+02  9.20000000E+01  0.00000000E+00
  2.60000000E+02  9.20000000E+01  0.00000000E+00
  2.70000000E+02  9.20000000E+01  0.00000000E+00
  2.80000000E+02  9.20000000E+01  0.00000000E+00
  2.90000000E+02  9.20000000E+01  0.00000000E+00
  3.00000000E+02  9.20000000E+01  0.00000000E+00
  3.10000000E+02  9.20000000E+01  0.00000000E+00
  3.20000000E+02  9.20000000E+01  0.00000000E+00
  3.30000000E+02  9.20000000E+01  0.00000000E+00
  3.40000000E+02  9.20000000E+01  0.00000000E+00
  3.50000000E+02  9.20000000E+01  0.00000000E+00
  3.60000000E+02  9.20000000E+01  0.00000000E+00
  3.70000000E+02  9.20000000E+01  0.00000000E+00
  3.80000000E+02  9.20000000E+01  0.00000000E+00
  3.90000000E+02  9.20000000E+01  0.00000000E+00
  4.00000000E+02  9.20000000E+01  0.00000000E+00
  4.10000000E+02  9.20000000E+01  0.00000000E+00
  4.20000000E+02  9.20000000E+01  0.00000000E+00
  4.30000000E+02  9.20000000E+01  0.00000000E+00
  4.40000000E+02  9.20000000E+01  0.00000000E+00
  4.50000000E+02  9.20000000E+01  0.00000000E+00
  4.60000000E+02  9.20000000E+01  0.00000000E+00
  4.70000000E+02  9.20000000E+01  0.00000000E+00
  4.80000000E+02  9.20000000E+01  0.00000000E+00
  4.90000000E+02  9.20000000E+01  0.00000000E+00
  5.00000000E+02  9.20000000E+01  0.00000000E+00
  5.10000000E+02  9.20000000E+01  0.00000000E+00
  5.20000000E+02  9.20000000E+01  0.00000000E+00
  5.30000000E+02  9.20000000E+01  0.00000000E+00
  5.40000000E+02  9.20000000E+01  0.00000000E+00
  5.50000000E+02  9.20000000E+01  0.00000000E+00
  5.60000000E+02  9.20000000E+01  0.00000000E+00
  5.70000000E+02  9.20000000E+01  0.00000000E+00
  5.80000000E+02  9.20000000E+01  0.00000000E+00
  5.90000000E+02  9.20000000E+01  0.00000000E+00
  6.00000000E+02  9.20000000E+01  0.00000000E+00
  6.10000000E+02  9.20000000E+01  0.00000000E+00
  6.20000000E+02  9.20000000E+01  0.00000000E+00
  6.30000000E+02  9.20000000E+01  0.00000000E+00
  6.40000000E+02  9.20000000E+01  0.00000000E+00
  6.50000000E+02  9.20000000E+01  0.00000000E+00
  6.60000000E+02  9.20000000E+01  0.00000000E+00
  6.70000000E+02  9.20000000E+01  0.00000000E+00
  6.80000000E+02  9.20000000E+01  0.00000000E+00
  6.90000000E+02  9.20000000E+01  0.00000000E+00
  7.00000000E+02  9.20000000E+01  0.00000000E+00
  7.10000000E+02  9.20000000E+01  0.00000000E+00
  7.20000000E+02  9.20000000E+01  0.00000000E+00
  7.30000000E+02  9.20000000E+01  0.00000000E+00
  7.40000000E+02  9.20000000E+01  0.00000000E+00
  7.50000000E+02  9.20000000E+01  0.00000000E+00
  7.60000000E+02  9.20000000E+01  0.00000000E+00
  7.70000000E+02  9.20000000E+01  0.00000000E+00
  7.80000000E+02  9.20000000E+01  0.00000000E+00
  7.90000000E+02  9.20000000E+01  0.00000000E+00
  8.00000000E+02  9.20000000E+01  0.00000000E+00
  8.10000000E+02  9.20000000E+01  0.00000000E+00
  8.20000000E+02  9.20000000E+01  0.00000000E+00
  8.30000000E+02  9.20000000E+01  0.00000000E+00
  8.40000000E+02  9.20000000E+01  0.00000000E+00
  8.50000000E+02  9.20000000E+01  0.00000000E+00
  8.60000000E+02  9.20000000E+01  0.00000000E+00
  8.70000000E+02  9.20000000E+01  0.00000000E+00
  8.80000000E+02  9.20000000E+01  0.00000000E+00
  8.90000000E+02  9.20000000E+01  0.00000000E+00
  9.00000000E+02  9.20000000E+01  0.00000000E+00
  9.10000000E+02  9.20000000E+01  0.00000000E+00
  9.20000000E+02  9.20000000E+01  0.00000000E+00
  9.30000000E+02  9.20000000E+01  0.00000000E+00
  9.40000000E+02  9.20000000E+01  0.00000000E+00
  9.50000000E+02  9.20000000E+01  0.00000000E+00
  9.60000000E+02  9.20000000E+01  0.00000000E+00
  9.70000000E+02  9.20000000E+01  0.00000000E+00
  9.80000000E+02  9.20000000E+01  0.00000000E+00
  9.90000000E+02  9.20000000E+01  0.00000000E+00
  1.00000000E+03  9.20000000E+01  0.00000000E+00
  0.00000000E+00  9.40000000E+01  0.00000000E+00
  1.00000000E+01  9.40000000E+01  0.00000000E+00
  2.00000000E+01  9.40000000E+01  0.00000000E+00
  3.00000000E+01  9.40000000E+01  0.00000000E+00
  4.00000000E+01  9.40000000E+01  0.00000000E+00
  5.00000000E+01  9.40000000E+01  0.00000000E+00
  6.00000000E+01  9.40000000E+01  0.00000000E+00
  7.00000000E+01  9.40000000E+01  0.00000000E+00
  8.00000000E+01  9.40000000E+01  0.00000000E+00
  9.00000000E+01  9.40000000E+01  0.00000000E+00
  1.00000000E+02  9.40000000E+01  0.00000000E+00
  1.10000000E+02  9.40000000E+01  0.00000000E+00
  1.20000000E+02  9.40000000E+01  0.00000000E+00
  1.30000000E+02  9.40000000E+01  0.00000000E+00
  1.40000000E+02  9.40000000E+01  0.00000000E+00
  1.50000000E+02  9.40000000E+01  0.00000000E+00
  1.60000000E+02  9.40000000E+01  0.00000000E+00
  1.70000000E+02  9.40000000E+01  0.00000000E+00
  1.80000000E+02  9.40000000E+01  0.00000000E+00
  1.90000000E+02  9.40000000E+01  0.00000000E+00
  2.00000000E+02  9.40000000E+01  0.00000000E+00
  2.10000000E+02  9.40000000E+01  0.00000000E+00
  2.20000000E+02  9.40000000E+01  0.00000000E+00
  2.30000000E+02  9.40000000E+01  0.00000000E+00
  2.40000000E+02  9.40000000E+01  0.00000000E+00
  2.50000000E+02  9.40000000E+01  0.00000000E+00
  2.60000000E+02  9.40000000E+01  0.00000000E+00
  2.70000000E+02  9.40000000E+01  0.00000000E+00
  2.80000000E+02  9.40000000E+01  0.00000000E+00
  2.90000000E+02  9.40000000E+01  0.00000000E+00
  3.00000000E+02  9.40000000E+01  0.00000000E+00
  3.10000000E+02  9.40000000E+01  0.00000000E+00
  3.20000000E+02  9.40000000E+01  0.00000000E+00
  3.30000000E+02  9.40000000E+01  0.00000000E+00
  3.40000000E+02  9.40000000E+01  0.00000000E+00
  3.50000000E+02  9.40000000E+01  0.00000000E+00
  3.60000000E+02  9.40000000E+01  0.00000000E+00
  3.70000000E+02  9.40000000E+01  0.00000000E+00
  3.80000000E+02  9.40000000E+01  0.00000000E+00
  3.90000000E+02  9.40000000E+01  0.00000000E+00
  4.00000000E+02  9.40000000E+01  0.00000000E+00
  4.10000000E+02  9.40000000E+01  0.00000000E+00
  4.20000000E+02  9.40000000E+01  0.00000000E+00
  4.30000000E+02  9.40000000E+01  0.00000000E+00
  4.40000000E+02  9.40000000E+01  0.00000000E+00
  4.50000000E+02  9.40000000E+01  0.00000000E+00
  4.60000000E+02  9.40000000E+01  0.00000000E+00
  4.70000000E+02  9.40000000E+01  0.00000000E+00
  4.80000000E+02  9.40000000E+01  0.00000000E+00
  4.90000000E+02  9.40000000E+01  0.00000000E+00
  5.00000000E+02  9.40000000E+01  0.00000000E+00
  5.10000000E+02  9.40000000E+01  0.00000000E+00
  5.20000000E+02  9.40000000E+01  0.00000000E+00
  5.30000000E+02  9.40000000E+01  0.00000000E+00
  5.40000000E+02  9.40000000E+01  0.00000000E+00
  5.50000000E+02  9.40000000E+01  0.00000000E+00
  5.60000000E+02  9.40000000E+01  0.00000000E+00
  5.70000000E+02  9.40000000E+01  0.00000000E+00
  5.80000000E+02  9.40000000E+01  0.00000000E+00
  5.90000000E+02  9.40000000E+01  0.00000000E+00
  6.00000000E+02  9.40000000E+01  0.00000000E+00
  6.10000000E+02  9.40000000E+01  0.00000000E+00
  6.20000000E+02  9.40000000E+01  0.00000000E+00
  6.30000000E+02  9.40000000E+01  0.00000000E+00
  6.40000000E+02  9.40000000E+01  0.00000000E+00
  6.50000000E+02  9.40000000E+01  0.00000000E+00
  6.60000000E+02  9.40000000E+01  0.00000000E+00
  6.70000000E+02  9.40000000E+01  0.00000000E+00
  6.80000000E+02  9.40000000E+01  0.00000000E+00
  6.90000000E+02  9.40000000E+01  0.00000000E+00
  7.00000000E+02  9.40000000E+01  0.00000000E+00
  7.10000000E+02  9.40000000E+01  0.00000000E+00
  7.20000000E+02  9.40000000E+01  0.00000000E+00
  7.30000000E+02  9.40000000E+01  0.00000000E+00
  7.40000000E+02  9.40000000E+01  0.00000000E+00
  7.50000000E+02  9.40000000E+01  0.00000000E+00
  7.60000000E+02  9.40000000E+01  0.00000000E+00
  7.70000000E+02  9.40000000E+01  0.00000000E+00
  7.80000000E+02  9.40000000E+01  0.00000000E+00
  7.90000000E+02  9.40000000E+01  0.00000000E+00
  8.00000000E+02  9.40000000E+01  0.00000000E+00
  8.10000000E+02  9.40000000E+01  0.00000000E+00
  8.20000000E+02  9.40000000E+01  0.00000000E+00
  8.30000000E+02  9.40000000E+01  0.00000000E+00
  8.40000000E+02  9.40000000E+01  0.00000000E+00
  8.50000000E+02  9.40000000E+01  0.00000000E+00
  8.60000000E+02  9.40000000E+01  0.00000000E+00
  8.70000000E+02  9.40000000E+01  0.00000000E+00
  8.80000000E+02  9.40000000E+01  0.00000000E+00
  8.90000000E+02  9.40000000E+01  0.00000000E+00
  9.00000000E+02  9.40000000E+01  0.00000000E+00
  9.10000000E+02  9.40000000E+01  0.00000000E+00
  9.20000000E+02  9.40000000E+01  0.00000000E+00
  9.30000000E+02  9.40000000E+01  0.00000000E+00
  9.40000000E+02  9.40000000E+01  0.00000000E+00
  9.50000000E+02  9.40000000E+01  0.00000000E+00
  9.60000000E+02  9.40000000E+01  0.00000000E+00
  9.70000000E+02  9.40000000E+01  0.00000000E+00
  9.80000000E+02  9.40000000E+01  0.00000000E+00
  9.90000000E+02  9.40000000E+01  0.00000000E+00
  1.00000000E+03  9.40000000E+01  0.00000000E+00
  0.00000000E+00  9.60000000E+01  0.00000000E+00
  1.00000000E+01  9.60000000E+01  0.00000000E+00
  2.00000000E+01  9.60000000E+01  0.00000000E+00
  3.00000000E+01  9.60000000E+01  0.00000000E+00
  4.00000000E+01  9.60000000E+01  0.00000000E+00
  5.00000000E+01  9.60000000E+01  0.00000000E+00
  6.00000000E+01  9.60000000E+01  0.00000000E+00
  7.00000000E+01  9.60000000E+01  0.00000000E+00
  8.00000000E+01  9.60000000E+01  0.00000000E+00
  9.00000000E+01  9.60000000E+01  0.00000000E+00
  1.00000000E+02  9.60000000E+01  0.00000000E+00
  1.10000000E+02  9.60000000E+01  0.00000000E+00
  1.20000000E+02  9.60000000E+01  0.00000000E+00
  1.30000000E+02  9.60000000E+01  0.00000000E+00
  1.40000000E+02  9.60000000E+01  0.00000000E+00
  1.50000000E+02  9.60000000E+01  0.00000000E+00
  1.60000000E+02  9.60000000E+01  0.00000000E+00
  1.70000000E+02  9.60000000E+01  0.00000000E+00
  1.80000000E+02  9.60000000E+01  0.00000000E+00
  1.90000000E+02  9.60000000E+01  0.00000000E+00
  2.00000000E+02  9.60000000E+01  0.00000000E+00
  2.10000000E+02  9.60000000E+01  0.00000000E+00
  2.20000000E+02  9.60000000E+01  0.00000000E+00
  2.30000000E+02  9.60000000E+01  0.00000000E+00
  2.40000000E+02  9.60000000E+01  0.00000000E+00
  2.50000000E+02  9.60000000E+01  0.00000000E+00
  2.60000000E+02  9.60000000E+01  0.00000000E+00
  2.70000000E+02  9.60000000E+01  0.00000000E+00
  2.80000000E+02  9.60000000E+01  0.00000000E+00
  2.90000000E+02  9.60000000E+01  0.00000000E+00
  3.00000000E+02  9.60000000E+01  0.00000000E+00
  3.10000000E+02  9.60000000E+01  0.00000000E+00
  3.20000000E+02  9.60000000E+01  0.00000000E+00
  3.30000000E+02  9.60000000E+01  0.00000000E+00
  3.40000000E+02  9.60000000E+01  0.00000000E+00
  3.50000000E+02  9.60000000E+01  0.00000000E+00
  3.60000000E+02  9.60000000E+01  0.00000000E+00
  3.70000000E+02  9.60000000E+01  0.00000000E+00
  3.80000000E+02  9.60000000E+01  0.00000000E+00
  3.90000000E+02  9.60000000E+01  0.00000000E+00
  4.00000000E+02  9.60000000E+01  0.00000000E+00
  4.10000000E+02  9.60000000E+01  0.00000000E+00
  4.20000000E+02  9.60000000E+01  0.00000000E+00
  4.30000000E+02  9.60000000E+01  0.00000000E+00
  4.40000000E+02  9.60000000E+01  0.00000000E+00
  4.50000000E+02  9.60000000E+01  0.00000000E+00
  4.60000000E+02  9.60000000E+01  0.00000000E+00
  4.70000000E+02  9.60000000E+01  0.00000000E+00
  4.80000000E+02  9.60000000E+01  0.00000000E+00
  4.90000000E+02  9.60000000E+01  0.00000000E+00
  5.00000000E+02  9.60000000E+01  0.00000000E+00
  5.10000000E+02  9.60000000E+01  0.00000000E+00
  5.20000000E+02  9.60000000E+01  0.00000000E+00
  5.30000000E+02  9.60000000E+01  0.00000000E+00
  5.40000000E+02  9.60000000E+01  0.00000000E+00
  5.50000000E+02  9.60000000E+01  0.00000000E+00
  5.60000000E+02  9.60000000E+01  0.00000000E+00
  5.70000000E+02  9.60000000E+01  0.00000000E+00
  5.80000000E+02  9.60000000E+01  0.00000000E+00
  5.90000000E+02  9.60000000E+01  0.00000000E+00
  6.00000000E+02  9.60000000E+01  0.00000000E+00
  6.10000000E+02  9.60000000E+01  0.00000000E+00
  6.20000000E+02  9.60000000E+01  0.00000000E+00
  6.30000000E+02  9.60000000E+01  0.00000000E+00
  6.40000000E+02  9.60000000E+01  0.00000000E+00
  6.50000000E+02  9.60000000E+01  0.00000000E+00
  6.60000000E+02  9.60000000E+01  0.00000000E+00
  6.70000000E+02  9.60000000E+01  0.00000000E+00
  6.80000000E+02  9.60000000E+01  0.00000000E+00
  6.90000000E+02  9.60000000E+01  0.00000000E+00
  7.00000000E+02  9.60000000E+01  0.00000000E+00
  7.10000000E+02  9.60000000E+01  0.00000000E+00
  7.20000000E+02  9.60000000E+01  0.00000000E+00
  7.30000000E+02  9.60000000E+01  0.00000000E+00
  7.40000000E+02  9.60000000E+01  0.00000000E+00
  7.50000000E+02  9.60000000E+01  0.00000000E+00
  7.60000000E+02  9.60000000E+01  0.00000000E+00
  7.70000000E+02  9.60000000E+01  0.00000000E+00
  7.80000000E+02  9.60000000E+01  0.00000000E+00
  7.90000000E+02  9.60000000E+01  0.00000000E+00
  8.00000000E+02  9.60000000E+01  0.00000000E+00
  8.10000000E+02  9.60000000E+01  0.00000000E+00
  8.20000000E+02  9.60000000E+01  0.00000000E+00
  8.30000000E+02  9.60000000E+01  0.00000000E+00
  8.40000000E+02  9.60000000E+01  0.00000000E+00
  8.50000000E+02  9.60000000E+01  0.00000000E+00
  8.60000000E+02  9.60000000E+01  0.00000000E+00
  8.70000000E+02  9.60000000E+01  0.00000000E+00
  8.80000000E+02  9.60000000E+01  0.00000000E+00
  8.90000000E+02  9.60000000E+01  0.00000000E+00
  9.00000000E+02  9.60000000E+01  0.00000000E+00
  9.10000000E+02  9.60000000E+01  0.00000000E+00
  9.20000000E+02  9.60000000E+01  0.00000000E+00
  9.30000000E+02  9.60000000E+01  0.00000000E+00
  9.40000000E+02  9.60000000E+01  0.00000000E+00
  9.50000000E+02  9.60000000E+01  0.00000000E+00
  9.60000000E+02  9.60000000E+01  0.00000000E+00
  9.70000000E+02  9.60000000E+01  0.00000000E+00
  9.80000000E+02  9.60000000E+01  0.00000000E+00
  9.90000000E+02  9.60000000E+01  0.00000000E+00
  1.00000000E+03  9.60000000E+01  0.00000000E+00
  0.00000000E+00  9.80000000E+01  0.00000000E+00
  1.00000000E+01  9.80000000E+01  0.00000000E+00
  2.00000000E+01  9.80000000E+01  0.00000000E+00
  3.00000000E+01  9.80000000E+01  0.00000000E+00
  4.00000000E+01  9.80000000E+01  0.00000000E+00
  5.00000000E+01  9.80000000E+01  0.00000000E+00
  6.00000000E+01  9.80000000E+01  0.00000000E+00
  7.00000000E+01  9.80000000E+01  0.00000000E+00
  8.00000000E+01  9.80000000E+01  0.00000000E+00
  9.00000000E+01  9.80000000E+01  0.00000000E+00
  1.00000000E+02  9.80000000E+01  0.00000000E+00
  1.10000000E+02  9.80000000E+01  0.00000000E+00
  1.20000000E+02  9.80000000E+01  0.00000000E+00
  1.30000000E+02  9.80000000E+01  0.00000000E+00
  1.40000000E+02  9.80000000E+01  0.00000000E+00
  1.50000000E+02  9.80000000E+01  0.00000000E+00
  1.60000000E+02  9.80000000E+01  0.00000000E+00
  1.70000000E+02  9.80000000E+01  0.00000000E+00
  1.80000000E+02  9.80000000E+01  0.00000000E+00
  1.90000000E+02  9.80000000E+01  0.00000000E+00
  2.00000000E+02  9.80000000E+01  0.00000000E+00
  2.10000000E+02  9.80000000E+01  0.00000000E+00
  2.20000000E+02  9.80000000E+01  0.00000000E+00
  2.30000000E+02  9.80000000E+01  0.00000000E+00
  2.40000000E+02  9.80000000E+01  0.00000000E+00
  2.50000000E+02  9.80000000E+01  0.00000000E+00
  2.60000000E+02  9.80000000E+01  0.00000000E+00
  2.70000000E+02  9.80000000E+01  0.00000000E+00
  2.80000000E+02  9.80000000E+01  0.00000000E+00
  2.90000000E+02  9.80000000E+01  0.00000000E+00
  3.00000000E+02  9.80000000E+01  0.00000000E+00
  3.10000000E+02  9.80000000E+01  0.00000000E+00
  3.20000000E+02  9.80000000E+01  0.00000000E+00
  3.30000000E+02  9.80000000E+01  0.00000000E+00
  3.40000000E+02  9.80000000E+01  0.00000000E+00
  3.50000000E+02  9.80000000E+01  0.00000000E+00
  3.60000000E+02  9.80000000E+01  0.00000000E+00
  3.70000000E+02  9.80000000E+01  0.00000000E+00
  3.80000000E+02  9.80000000E+01  0.00000000E+00
  3.90000000E+02  9.80000000E+01  0.00000000E+00
  4.00000000E+02  9.80000000E+01  0.00000000E+00
  4.10000000E+02  9.80000000E+01  0.00000000E+00
  4.20000000E+02  9.80000000E+01  0.00000000E+00
  4.30000000E+02  9.80000000E+01  0.00000000E+00
  4.40000000E+02  9.80000000E+01  0.00000000E+00
  4.50000000E+02  9.80000000E+01  0.00000000E+00
  4.60000000E+02  9.80000000E+01  0.00000000E+00
  4.70000000E+02  9.80000000E+01  0.00000000E+00
  4.80000000E+02  9.80000000E+01  0.00000000E+00
  4.90000000E+02  9.80000000E+01  0.00000000E+00
  5.00000000E+02  9.80000000E+01  0.00000000E+00
  5.10000000E+02  9.80000000E+01  0.00000000E+00
  5.20000000E+02  9.80000000E+01  0.00000000E+00
  5.30000000E+02  9.80000000E+01  0.00000000E+00
  5.40000000E+02  9.80000000E+01  0.00000000E+00
  5.50000000E+02  9.80000000E+01  0.00000000E+00
  5.60000000E+02  9.80000000E+01  0.00000000E+00
  5.70000000E+02  9.80000000E+01  0.00000000E+00
  5.80000000E+02  9.80000000E+01  0.00000000E+00
  5.90000000E+02  9.80000000E+01  0.00000000E+00
  6.00000000E+02  9.80000000E+01  0.00000000E+00
  6.10000000E+02  9.80000000E+01  0.00000000E+00
  6.20000000E+02  9.80000000E+01  0.00000000E+00
  6.30000000E+02  9.80000000E+01  0.00000000E+00
  6.40000000E+02  9.80000000E+01  0.00000000E+00
  6.50000000E+02  9.80000000E+01  0.00000000E+00
  6.60000000E+02  9.80000000E+01  0.00000000E+00
  6.70000000E+02  9.80000000E+01  0.00000000E+00
  6.80000000E+02  9.80000000E+01  0.00000000E+00
  6.90000000E+02  9.80000000E+01  0.00000000E+00
  7.00000000E+02  9.80000000E+01  0.00000000E+00
  7.10000000E+02  9.80000000E+01  0.00000000E+00
  7.20000000E+02  9.80000000E+01  0.00000000E+00
  7.30000000E+02  9.80000000E+01  0.00000000E+00
  7.40000000E+02  9.80000000E+01  0.00000000E+00
  7.50000000E+02  9.80000000E+01  0.00000000E+00
  7.60000000E+02  9.80000000E+01  0.00000000E+00
  7.70000000E+02  9.80000000E+01  0.00000000E+00
  7.80000000E+02  9.80000000E+01  0.00000000E+00
  7.90000000E+02  9.80000000E+01  0.00000000E+00
  8.00000000E+02  9.80000000E+01  0.00000000E+00
  8.10000000E+02  9.80000000E+01  0.00000000E+00
  8.20000000E+02  9.80000000E+01  0.00000000E+00
  8.30000000E+02  9.80000000E+01  0.00000000E+00
  8.40000000E+02  9.80000000E+01  0.00000000E+00
  8.50000000E+02  9.80000000E+01  0.00000000E+00
  8.60000000E+02  9.80000000E+01  0.00000000E+00
  8.70000000E+02  9.80000000E+01  0.00000000E+00
  8.80000000E+02  9.80000000E+01  0.00000000E+00
  8.90000000E+02  9.80000000E+01  0.00000000E+00
  9.00000000E+02  9.80000000E+01  0.00000000E+00
  9.10000000E+02  9.80000000E+01  0.00000000E+00
  9.20000000E+02  9.80000000E+01  0.00000000E+00
  9.30000000E+02  9.80000000E+01  0.00000000E+00
  9.40000000E+02  9.80000000E+01  0.00000000E+00
  9.50000000E+02  9.80000000E+01  0.00000000E+00
  9.60000000E+02  9.80000000E+01  0.00000000E+00
  9.70000000E+02  9.80000000E+01  0.00000000E+00
  9.80000000E+02  9.80000000E+01  0.00000000E+00
  9.90000000E+02  9.80000000E+01  0.00000000E+00
  1.00000000E+03  9.80000000E+01  0.00000000E+00
  0.00000000E+00  1.00000000E+02  0.00000000E+00
  1.00000000E+01  1.00000000E+02  0.00000000E+00
  2.00000000E+01  1.00000000E+02  0.00000000E+00
  3.00000000E+01  1.00000000E+02  0.00000000E+00
  4.00000000E+01  1.00000000E+02  0.00000000E+00
  5.00000000E+01  1.00000000E+02  0.00000000E+00
  6.00000000E+01  1.00000000E+02  0.00000000E+00
  7.00000000E+01  1.00000000E+02  0.00000000E+00
  8.00000000E+01  1.00000000E+02  0.00000000E+00
  9.00000000E+01  1.00000000E+02  0.00000000E+00
  1.00000000E+02  1.00000000E+02  0.00000000E+00
  1.10000000E+02  1.00000000E+02  0.00000000E+00
  1.20000000E+02  1.00000000E+02  0.00000000E+00
  1.30000000E+02  1.00000000E+02  0.00000000E+00
  1.40000000E+02  1.00000000E+02  0.00000000E+00
  1.50000000E+02  1.00000000E+02  0.00000000E+00
  1.60000000E+02  1.00000000E+02  0.00000000E+00
  1.70000000E+02  1.00000000E+02  0.00000000E+00
  1.80000000E+02  1.00000000E+02  0.00000000E+00
  1.90000000E+02  1.00000000E+02  0.00000000E+00
  2.00000000E+02  1.00000000E+02  0.00000000E+00
  2.10000000E+02  1.00000000E+02  0.00000000E+00
  2.20000000E+02  1.00000000E+02  0.00000000E+00
  2.30000000E+02  1.00000000E+02  0.00000000E+00
  2.40000000E+02  1.00000000E+02  0.00000000E+00
  2.50000000E+02  1.00000000E+02  0.00000000E+00
  2.60000000E+02  1.00000000E+02  0.00000000E+00
  2.70000000E+02  1.00000000E+02  0.00000000E+00
  2.80000000E+02  1.00000000E+02  0.00000000E+00
  2.90000000E+02  1.00000000E+02  0.00000000E+00
  3.00000000E+02  1.00000000E+02  0.00000000E+00
  3.10000000E+02  1.00000000E+02  0.00000000E+00
  3.20000000E+02  1.00000000E+02  0.00000000E+00
  3.30000000E+02  1.00000000E+02  0.00000000E+00
  3.40000000E+02  1.00000000E+02  0.00000000E+00
  3.50000000E+02  1.00000000E+02  0.00000000E+00
  3.60000000E+02  1.00000000E+02  0.00000000E+00
  3.70000000E+02  1.00000000E+02  0.00000000E+00
  3.80000000E+02  1.00000000E+02  0.00000000E+00
  3.90000000E+02  1.00000000E+02  0.00000000E+00
  4.00000000E+02  1.00000000E+02  0.00000000E+00
  4.10000000E+02  1.00000000E+02  0.00000000E+00
  4.20000000E+02  1.00000000E+02  0.00000000E+00
  4.30000000E+02  1.00000000E+02  0.00000000E+00
  4.40000000E+02  1.00000000E+02  0.00000000E+00
  4.50000000E+02  1.00000000E+02  0.00000000E+00
  4.60000000E+02  1.00000000E+02  0.00000000E+00
  4.70000000E+02  1.00000000E+02  0.00000000E+00
  4.80000000E+02  1.00000000E+02  0.00000000E+00
  4.90000000E+02  1.00000000E+02  0.00000000E+00
  5.00000000E+02  1.00000000E+02  0.00000000E+00
  5.10000000E+02  1.00000000E+02  0.00000000E+00
  5.20000000E+02  1.00000000E+02  0.00000000E+00
  5.30000000E+02  1.00000000E+02  0.00000000E+00
  5.40000000E+02  1.00000000E+02  0.00000000E+00
  5.50000000E+02  1.00000000E+02  0.00000000E+00
  5.60000000E+02  1.00000000E+02  0.00000000E+00
  5.70000000E+02  1.00000000E+02  0.00000000E+00
  5.80000000E+02  1.00000000E+02  0.00000000E+00
  5.90000000E+02  1.00000000E+02  0.00000000E+00
  6.00000000E+02  1.00000000E+02  0.00000000E+00
  6.10000000E+02  1.00000000E+02  0.00000000E+00
  6.20000000E+02  1.00000000E+02  0.00000000E+00
  6.30000000E+02  1.00000000E+02  0.00000000E+00
  6.40000000E+02  1.00000000E+02  0.00000000E+00
  6.50000000E+02  1.00000000E+02  0.00000000E+00
  6.60000000E+02  1.00000000E+02  0.00000000E+00
  6.70000000E+02  1.00000000E+02  0.00000000E+00
  6.80000000E+02  1.00000000E+02  0.00000000E+00
  6.90000000E+02  1.00000000E+02  0.00000000E+00
  7.00000000E+02  1.00000000E+02  0.00000000E+00
  7.10000000E+02  1.00000000E+02  0.00000000E+00
  7.20000000E+02  1.00000000E+02  0.00000000E+00
  7.30000000E+02  1.00000000E+02  0.00000000E+00
  7.40000000E+02  1.00000000E+02  0.00000000E+00
  7.50000000E+02  1.00000000E+02  0.00000000E+00
  7.60000000E+02  1.00000000E+02  0.00000000E+00
  7.70000000E+02  1.00000000E+02  0.00000000E+00
  7.80000000E+02  1.00000000E+02  0.00000000E+00
  7.90000000E+02  1.00000000E+02  0.00000000E+00
  8.00000000E+02  1.00000000E+02  0.00000000E+00
  8.10000000E+02  1.00000000E+02  0.00000000E+00
  8.20000000E+02  1.00000000E+02  0.00000000E+00
  8.30000000E+02  1.00000000E+02  0.00000000E+00
  8.40000000E+02  1.00000000E+02  0.00000000E+00
  8.50000000E+02  1.00000000E+02  0.00000000E+00
  8.60000000E+02  1.00000000E+02  0.00000000E+00
  8.70000000E+02  1.00000000E+02  0.00000000E+00
  8.80000000E+02  1.00000000E+02  0.00000000E+00
  8.90000000E+02  1.00000000E+02  0.00000000E+00
  9.00000000E+02  1.00000000E+02  0.00000000E+00
  9.10000000E+02  1.00000000E+02  0.00000000E+00
  9.20000000E+02  1.00000000E+02  0.00000000E+00
  9.30000000E+02  1.00000000E+02  0.00000000E+00
  9.40000000E+02  1.00000000E+02  0.00000000E+00
  9.50000000E+02  1.00000000E+02  0.00000000E+00
  9.60000000E+02  1.00000000E+02  0.00000000E+00
  9.70000000E+02  1.00000000E+02  0.00000000E+00
  9.80000000E+02  1.00000000E+02  0.00000000E+00
  9.90000000E+02  1.00000000E+02  0.00000000E+00
  1.00000000E+03  1.00000000E+02  0.00000000E+00
CELLS      5000     25000
         4           0           1         102         101
         4           1           2         103         102
         4           2           3         104         103
         4           3           4         105         104
         4           4           5         106         105
         4           5           6         107         106
         4           6           7         108         107
         4           7           8         109         108
         4           8           9         110         109
         4           9          10         111         110
         4          10          11         112         111
         4          11          12         113         112
         4          12          13         114         113
         4          13          14         115         114
         4          14          15         116         115
         4          15          16         117         116
         4          16          17         118         117
         4          17          18         119         118
         4          18          19         120         119
         4          19          20         121         120
         4          20          21         122         121
         4          21          22         123         122
         4          22          23         124         123
         4          23          24         125         124
         4          24          25         126         125
         4          25          26         127         126
         4          26          27         128         127
         4          27          28         129         128
         4          28          29         130         129
         4          29          30         131         130
         4          30          31         132         131
         4          31          32         133         132
         4          32          33         134         133
         4          33          34         135         134
         4          34          35         136         135
         4          35          36         137         136
         4          36          37         138         137
         4          37          38         139         138
         4          38          39         140         139
         4          39          40         141         140
         4          40          41         142         141
         4          41          42         143         142
         4          42          43         144         143
         4          43          44         145         144
         4          44          45         146         145
         4          45          46         147         146
         4          46          47         148         147
         4          47          48         149         148
         4          48          49         150         149
         4          49          50         151         150
         4          50          51         152         151
         4          51          52         153         152
         4          52          53         154         153
         4          53          54         155         154
         4          54          55         156         155
         4          55          56         157         156
         4          56          57         158         157
         4          57          58         159         158
         4          58          59         160         159
         4          59          60         161         160
         4          60          61         162         161
         4          61          62         163         162
         4          62          63         164         163
         4          63          64         165         164
         4          64          65         166         165
         4          65          66         167         166
         4          66          67         168         167
         4          67          68         169         168
         4          68          69         170         169
         4          69          70         171         170
         4          70          71         172         171
         4          71          72         173         172
         4          72          73         174         173
         4          73          74         175         174
         4          74          75         176         175
         4          75          76         177         176
         4          76          77         178         177
         4          77          78         179         178
         4          78          79         180         179
         4          79          80         181         180
         4          80          81         182         181
         4          81          82         183         182
         4          82          83         184         183
         4          83          84         185         184
         4          84          85         186         185
         4          85          86         187         186
         4          86          87         188         187
         4          87          88         189         188
         4          88          89         190         189
         4          89          90         191         190
         4          90          91         192         191
         4          91          92         193         192
         4          92          93         194         193
         4          93          94         195         194
         4          94          95         196         195
         4          95          96         197         196
         4          96          97         198         197
         4          97          98         199         198
         4          98          99         200         199
         4          99         100         201         200
         4         101         102         203         202
         4         102         103         204         203
         4         103         104         205         204
         4         104         105         206         205
         4         105         106         207         206
         4         106         107         208         207
         4         107         108         209         208
         4         108         109         210         209
         4         109         110         211         210
         4         110         111         212         211
         4         111         112         213         212
         4         112         113         214         213
         4         113         114         215         214
         4         114         115         216         215
         4         115         116         217         216
         4         116         117         218         217
         4         117         118         219         218
         4         118         119         220         219
         4         119         120         221         220
         4         120         121         222         221
         4         121         122         223         222
         4         122         123         224         223
         4         123         124         225         224
         4         124         125         226         225
         4         125         126         227         226
         4         126         127         228         227
         4         127         128         229         228
         4         128         129         230         229
         4         129         130         231         230
         4         130         131         232         231
         4         131         132         233         232
         4         132         133         234         233
         4         133         134         235         234
         4         134         135         236         235
         4         135         136         237         236
         4         136         137         238         237
         4         137         138         239         238
         4         138         139         240         239
         4         139         140         241         240
         4         140         141         242         241
         4         141         142         243         242
         4         142         143         244         243
         4         143         144         245         244
         4         144         145         246         245
         4         145         146         247         246
         4         146         147         248         247
         4         147         148         249         248
         4         148         149         250         249
         4         149         150         251         250
         4         150         151         252         251
         4         151         152         253         252
         4         152         153         254         253
         4         153         154         255         254
         4         154         155         256         255
         4         155         156         257         256
         4         156         157         258         257
         4         157         158         259         258
         4         158         159         260         259
         4         159         160         261         260
         4         160         161         262         261
         4         161         162         263         262
         4         162         163         264         263
         4         163         164         265         264
         4         164         165         266         265
         4         165         166         267         266
         4         166         167         268         267
         4         167         168         269         268
         4         168         169         270         269
         4         169         170         271         270
         4         170         171         272         271
         4         171         172         273         272
         4         172         173         274         273
         4         173         174         275         274
         4         174         175         276         275
         4         175         176         277         276
         4         176         177         278         277
         4         177         178         279         278
         4         178         179         280         279
         4         179         180         281         280
         4         180         181         282         281
         4         181         182         283         282
         4         182         183         284         283
         4         183         184         285         284
         4         184         185         286         285
         4         185         186         287         286
         4         186         187         288         287
         4         187         188         289         288
         4         188         189         290         289
         4         189         190         291         290
         4         190         191         292         291
         4         191         192         293         292
         4         192         193         294         293
         4         193         194         295         294
         4         194         195         296         295
         4         195         196         297         296
         4         196         197         298         297
         4         197         198         299         298
         4         198         199         300         299
         4         199         200         301         300
         4         200         201         302         301
         4         202         203         304         303
         4         203         204         305         304
         4         204         205         306         305
         4         205         206         307         306
         4         206         207         308         307
         4         207         208         309         308
         4         208         209         310         309
         4         209         210         311         310
         4         210         211         312         311
         4         211         212         313         312
         4         212         213         314         313
         4         213         214         315         314
         4         214         215         316         315
         4         215         216         317         316
         4         216         217         318         317
         4         217         218         319         318
         4         218         219         320         319
         4         219         220         321         320
         4         220         221         322         321
         4         221         222         323         322
         4         222         223         324         323
         4         223         224         325         324
         4         224         225         326         325
         4         225         226         327         326
         4         226         227         328         327
         4         227         228         329         328
         4         228         229         330         329
         4         229         230         331         330
         4         230         231         332         331
         4         231         232         333         332
         4         232         233         334         333
         4         233         234         335         334
         4         234         235         336         335
         4         235         236         337         336
         4         236         237         338         337
         4         237         238         339         338
         4         238         239         340         339
         4         239         240         341         340
         4         240         241         342         341
         4         241         242         343         342
         4         242         243         344         343
         4         243         244         345         344
         4         244         245         346         345
         4         245         246         347         346
         4         246         247         348         347
         4         247         248         349         348
         4         248         249         350         349
         4         249         250         351         350
         4         250         251         352         351
         4         251         252         353         352
         4         252         253         354         353
         4         253         254         355         354
         4         254         255         356         355
         4         255         256         357         356
         4         256         257         358         357
         4         257         258         359         358
         4         258         259         360         359
         4         259         260         361         360
         4         260         261         362         361
         4         261         262         363         362
         4         262         263         364         363
         4         263         264         365         364
         4         264         265         366         365
         4         265         266         367         366
         4         266         267         368         367
         4         267         268         369         368
         4         268         269         370         369
         4         269         270         371         370
         4         270         271         372         371
         4         271         272         373         372
         4         272         273         374         373
         4         273         274         375         374
         4         274         275         376         375
         4         275         276         377         376
         4         276         277         378         377
         4         277         278         379         378
         4         278         279         380         379
         4         279         280         381         380
         4         280         281         382         381
         4         281         282         383         382
         4         282         283         384         383
         4         283         284         385         384
         4         284         285         386         385
         4         285         286         387         386
         4         286         287         388         387
         4         287         288         389         388
         4         288         289         390         389
         4         289         290         391         390
         4         290         291         392         391
         4         291         292         393         392
         4         292         293         394         393
         4         293         294         395         394
         4         294         295         396         395
         4         295         296         397         396
         4         296         297         398         397
         4         297         298         399         398
         4         298         299         400         399
         4         299         300         401         400
         4         300         301         402         401
         4         301         302         403         402
         4         303         304         405         404
         4         304         305         406         405
         4         305         306         407         406
         4         306         307         408         407
         4         307         308         409         408
         4         308         309         410         409
         4         309         310         411         410
         4         310         311         412         411
         4         311         312         413         412
         4         312         313         414         413
         4         313         314         415         414
         4         314         315         416         415
         4         315         316         417         416
         4         316         317         418         417
         4         317         318         419         418
         4         318         319         420         419
         4         319         320         421         420
         4         320         321         422         421
         4         321         322         423         422
         4         322         323         424         423
         4         323         324         425         424
         4         324         325         426         425
         4         325         326         427         426
         4         326         327         428         427
         4         327         328         429         428
         4         328         329         430         429
         4         329         330         431         430
         4         330         331         432         431
         4         331         332         433         432
         4         332         333         434         433
         4         333         334         435         434
         4         334         335         436         435
         4         335         336         437         436
         4         336         337         438         437
         4         337         338         439         438
         4         338         339         440         439
         4         339         340         441         440
         4         340         341         442         441
         4         341         342         443         442
         4         342         343         444         443
         4         343         344         445         444
         4         344         345         446         445
         4         345         346         447         446
         4         346         347         448         447
         4         347         348         449         448
         4         348         349         450         449
         4         349         350         451         450
         4         350         351         452         451
         4         351         352         453         452
         4         352         353         454         453
         4         353         354         455         454
         4         354         355         456         455
         4         355         356         457         456
         4         356         357         458         457
         4         357         358         459         458
         4         358         359         460         459
         4         359         360         461         460
         4         360         361         462         461
         4         361         362         463         462
         4         362         363         464         463
         4         363         364         465         464
         4         364         365         466         465
         4         365         366         467         466
         4         366         367         468         467
         4         367         368         469         468
         4         368         369         470         469
         4         369         370         471         470
         4         370         371         472         471
         4         371         372         473         472
         4         372         373         474         473
         4         373         374         475         474
         4         374         375         476         475
         4         375         376         477         476
         4         376         377         478         477
         4         377         378         479         478
         4         378         379         480         479
         4         379         380         481         480
         4         380         381         482         481
         4         381         382         483         482
         4         382         383         484         483
         4         383         384         485         484
         4         384         385         486         485
         4         385         386         487         486
         4         386         387         488         487
         4         387         388         489         488
         4         388         389         490         489
         4         389         390         491         490
         4         390         391         492         491
         4         391         392         493         492
         4         392         393         494         493
         4         393         394         495         494
         4         394         395         496         495
         4         395         396         497         496
         4         396         397         498         497
         4         397         398         499         498
         4         398         399         500         499
         4         399         400         501         500
         4         400         401         502         501
         4         401         402         503         502
         4         402         403         504         503
         4         404         405         506         505
         4         405         406         507         506
         4         406         407         508         507
         4         407         408         509         508
         4         408         409         510         509
         4         409         410         511         510
         4         410         411         512         511
         4         411         412         513         512
         4         412         413         514         513
         4         413         414         515         514
         4         414         415         516         515
         4         415         416         517         516
         4         416         417         518         517
         4         417         418         519         518
         4         418         419         520         519
         4         419         420         521         520
         4         420         421         522         521
         4         421         422         523         522
         4         422         423         524         523
         4         423         424         525         524
         4         424         425         526         525
         4         425         426         527         526
         4         426         427         528         527
         4         427         428         529         528
         4         428         429         530         529
         4         429         430         531         530
         4         430         431         532         531
         4         431         432         533         532
         4         432         433         534         533
         4         433         434         535         534
         4         434         435         536         535
         4         435         436         537         536
         4         436         437         538         537
         4         437         438         539         538
         4         438         439         540         539
         4         439         440         541         540
         4         440         441         542         541
         4         441         442         543         542
         4         442         443         544         543
         4         443         444         545         544
         4         444         445         546         545
         4         445         446         547         546
         4         446         447         548         547
         4         447         448         549         548
         4         448         449         550         549
         4         449         450         551         550
         4         450         451         552         551
         4         451         452         553         552
         4         452         453         554         553
         4         453         454         555         554
         4         454         455         556         555
         4         455         456         557         556
         4         456         457         558         557
         4         457         458         559         558
         4         458         459         560         559
         4         459         460         561         560
         4         460         461         562         561
         4         461         462         563         562
         4         462         463         564         563
         4         463         464         565         564
         4         464         465         566         565
         4         465         466         567         566
         4         466         467         568         567
         4         467         468         569         568
         4         468         469         570         569
         4         469         470         571         570
         4         470         471         572         571
         4         471         472         573         572
         4         472         473         574         573
         4         473         474         575         574
         4         474         475         576         575
         4         475         476         577         576
         4         476         477         578         577
         4         477         478         579         578
         4         478         479         580         579
         4         479         480         581         580
         4         480         481         582         581
         4         481         482         583         582
         4         482         483         584         583
         4         483         484         585         584
         4         484         485         586         585
         4         485         486         587         586
         4         486         487         588         587
         4         487         488         589         588
         4         488         489         590         589
         4         489         490         591         590
         4         490         491         592         591
         4         491         492         593         592
         4         492         493         594         593
         4         493         494         595         594
         4         494         495         596         595
         4         495         496         597         596
         4         496         497         598         597
         4         497         498         599         598
         4         498         499         600         599
         4         499         500         601         600
         4         500         501         602         601
         4         501         502         603         602
         4         502         503         604         603
         4         503         504         605         604
         4         505         506         607         606
         4         506         507         608         607
         4         507         508         609         608
         4         508         509         610         609
         4         509         510         611         610
         4         510         511         612         611
         4         511         512         613         612
         4         512         513         614         613
         4         513         514         615         614
         4         514         515         616         615
         4         515         516         617         616
         4         516         517         618         617
         4         517         518         619         618
         4         518         519         620         619
         4         519         520         621         620
         4         520         521         622         621
         4         521         522         623         622
         4         522         523         624         623
         4         523         524         625         624
         4         524         525         626         625
         4         525         526         627         626
         4         526         527         628         627
         4         527         528         629         628
         4         528         529         630         629
         4         529         530         631         630
         4         530         531         632         631
         4         531         532         633         632
         4         532         533         634         633
         4         533         534         635         634
         4         534         535         636         635
         4         535         536         637         636
         4         536         537         638         637
         4         537         538         639         638
         4         538         539         640         639
         4         539         540         641         640
         4         540         541         642         641
         4         541         542         643         642
         4         542         543         644         643
         4         543         544         645         644
         4         544         545         646         645
         4         545         546         647         646
         4         546         547         648         647
         4         547         548         649         648
         4         548         549         650         649
         4         549         550         651         650
         4         550         551         652         651
         4         551         552         653         652
         4         552         553         654         653
         4         553         554         655         654
         4         554         555         656         655
         4         555         556         657         656
         4         556         557         658         657
         4         557         558         659         658
         4         558         559         660         659
         4         559         560         661         660
         4         560         561         662         661
         4         561         562         663         662
         4         562         563         664         663
         4         563         564         665         664
         4         564         565         666         665
         4         565         566         667         666
         4         566         567         668         667
         4         567         568         669         668
         4         568         569         670         669
         4         569         570         671         670
         4         570         571         672         671
         4         571         572         673         672
         4         572         573         674         673
         4         573         574         675         674
         4         574         575         676         675
         4         575         576         677         676
         4         576         577         678         677
         4         577         578         679         678
         4         578         579         680         679
         4         579         580         681         680
         4         580         581         682         681
         4         581         582         683         682
         4         582         583         684         683
         4         583         584         685         684
         4         584         585         686         685
         4         585         586         687         686
         4         586         587         688         687
         4         587         588         689         688
         4         588         589         690         689
         4         589         590         691         690
         4         590         591         692         691
         4         591         592         693         692
         4         592         593         694         693
         4         593         594         695         694
         4         594         595         696         695
         4         595         596         697         696
         4         596         597         698         697
         4         597         598         699         698
         4         598         599         700         699
         4         599         600         701         700
         4         600         601         702         701
         4         601         602         703         702
         4         602         603         704         703
         4         603         604         705         704
         4         604         605         706         705
         4         606         607         708         707
         4         607         608         709         708
         4         608         609         710         709
         4         609         610         711         710
         4         610         611         712         711
         4         611         612         713         712
         4         612         613         714         713
         4         613         614         715         714
         4         614         615         716         715
         4         615         616         717         716
         4         616         617         718         717
         4         617         618         719         718
         4         618         619         720         719
         4         619         620         721         720
         4         620         621         722         721
         4         621         622         723         722
         4         622         623         724         723
         4         623         624         725         724
         4         624         625         726         725
         4         625         626         727         726
         4         626         627         728         727
         4         627         628         729         728
         4         628         629         730         729
         4         629         630         731         730
         4         630         631         732         731
         4         631         632         733         732
         4         632         633         734         733
         4         633         634         735         734
         4         634         635         736         735
         4         635         636         737         736
         4         636         637         738         737
         4         637         638         739         738
         4         638         639         740         739
         4         639         640         741         740
         4         640         641         742         741
         4         641         642         743         742
         4         642         643         744         743
         4         643         644         745         744
         4         644         645         746         745
         4         645         646         747         746
         4         646         647         748         747
         4         647         648         749         748
         4         648         649         750         749
         4         649         650         751         750
         4         650         651         752         751
         4         651         652         753         752
         4         652         653         754         753
         4         653         654         755         754
         4         654         655         756         755
         4         655         656         757         756
         4         656         657         758         757
         4         657         658         759         758
         4         658         659         760         759
         4         659         660         761         760
         4         660         661         762         761
         4         661         662         763         762
         4         662         663         764         763
         4         663         664         765         764
         4         664         665         766         765
         4         665         666         767         766
         4         666         667         768         767
         4         667         668         769         768
         4         668         669         770         769
         4         669         670         771         770
         4         670         671         772         771
         4         671         672         773         772
         4         672         673         774         773
         4         673         674         775         774
         4         674         675         776         775
         4         675         676         777         776
         4         676         677         778         777
         4         677         678         779         778
         4         678         679         780         779
         4         679         680         781         780
         4         680         681         782         781
         4         681         682         783         782
         4         682         683         784         783
         4         683         684         785         784
         4         684         685         786         785
         4         685         686         787         786
         4         686         687         788         787
         4         687         688         789         788
         4         688         689         790         789
         4         689         690         791         790
         4         690         691         792         791
         4         691         692         793         792
         4         692         693         794         793
         4         693         694         795         794
         4         694         695         796         795
         4         695         696         797         796
         4         696         697         798         797
         4         697         698         799         798
         4         698         699         800         799
         4         699         700         801         800
         4         700         701         802         801
         4         701         702         803         802
         4         702         703         804         803
         4         703         704         805         804
         4         704         705         806         805
         4         705         706         807         806
         4         707         708         809         808
         4         708         709         810         809
         4         709         710         811         810
         4         710         711         812         811
         4         711         712         813         812
         4         712         713         814         813
         4         713         714         815         814
         4         714         715         816         815
         4         715         716         817         816
         4         716         717         818         817
         4         717         718         819         818
         4         718         719         820         819
         4         719         720         821         820
         4         720         721         822         821
         4         721         722         823         822
         4         722         723         824         823
         4         723         724         825         824
         4         724         725         826         825
         4         725         726         827         826
         4         726         727         828         827
         4         727         728         829         828
         4         728         729         830         829
         4         729         730         831         830
         4         730         731         832         831
         4         731         732         833         832
         4         732         733         834         833
         4         733         734         835         834
         4         734         735         836         835
         4         735         736         837         836
         4         736         737         838         837
         4         737         738         839         838
         4         738         739         840         839
         4         739         740         841         840
         4         740         741         842         841
         4         741         742         843         842
         4         742         743         844         843
         4         743         744         845         844
         4         744         745         846         845
         4         745         746         847         846
         4         746         747         848         847
         4         747         748         849         848
         4         748         749         850         849
         4         749         750         851         850
         4         750         751         852         851
         4         751         752         853         852
         4         752         753         854         853
         4         753         754         855         854
         4         754         755         856         855
         4         755         756         857         856
         4         756         757         858         857
         4         757         758         859         858
         4         758         759         860         859
         4         759         760         861         860
         4         760         761         862         861
         4         761         762         863         862
         4         762         763         864         863
         4         763         764         865         864
         4         764         765         866         865
         4         765         766         867         866
         4         766         767         868         867
         4         767         768         869         868
         4         768         769         870         869
         4         769         770         871         870
         4         770         771         872         871
         4         771         772         873         872
         4         772         773         874         873
         4         773         774         875         874
         4         774         775         876         875
         4         775         776         877         876
         4         776         777         878         877
         4         777         778         879         878
         4         778         779         880         879
         4         779         780         881         880
         4         780         781         882         881
         4         781         782         883         882
         4         782         783         884         883
         4         783         784         885         884
         4         784         785         886         885
         4         785         786         887         886
         4         786         787         888         887
         4         787         788         889         888
         4         788         789         890         889
         4         789         790         891         890
         4         790         791         892         891
         4         791         792         893         892
         4         792         793         894         893
         4         793         794         895         894
         4         794         795         896         895
         4         795         796         897         896
         4         796         797         898         897
         4         797         798         899         898
         4         798         799         900         899
         4         799         800         901         900
         4         800         801         902         901
         4         801         802         903         902
         4         802         803         904         903
         4         803         804         905         904
         4         804         805         906         905
         4         805         806         907         906
         4         806         807         908         907
         4         808         809         910         909
         4         809         810         911         910
         4         810         811         912         911
         4         811         812         913         912
         4         812         813         914         913
         4         813         814         915         914
         4         814         815         916         915
         4         815         816         917         916
         4         816         817         918         917
         4         817         818         919         918
         4         818         819         920         919
         4         819         820         921         920
         4         820         821         922         921
         4         821         822         923         922
         4         822         823         924         923
         4         823         824         925         924
         4         824         825         926         925
         4         825         826         927         926
         4         826         827         928         927
         4         827         828         929         928
         4         828         829         930         929
         4         829         830         931         930
         4         830         831         932         931
         4         831         832         933         932
         4         832         833         934         933
         4         833         834         935         934
         4         834         835         936         935
         4         835         836         937         936
         4         836         837         938         937
         4         837         838         939         938
         4         838         839         940         939
         4         839         840         941         940
         4         840         841         942         941
         4         841         842         943         942
         4         842         843         944         943
         4         843         844         945         944
         4         844         845         946         945
         4         845         846         947         946
         4         846         847         948         947
         4         847         848         949         948
         4         848         849         950         949
         4         849         850         951         950
         4         850         851         952         951
         4         851         852         953         952
         4         852         853         954         953
         4         853         854         955         954
         4         854         855         956         955
         4         855         856         957         956
         4         856         857         958         957
         4         857         858         959         958
         4         858         859         960         959
         4         859         860         961         960
         4         860         861         962         961
         4         861         862         963         962
         4         862         863         964         963
         4         863         864         965         964
         4         864         865         966         965
         4         865         866         967         966
         4         866         867         968         967
         4         867         868         969         968
         4         868         869         970         969
         4         869         870         971         970
         4         870         871         972         971
         4         871         872         973         972
         4         872         873         974         973
         4         873         874         975         974
         4         874         875         976         975
         4         875         876         977         976
         4         876         877         978         977
         4         877         878         979         978
         4         878         879         980         979
         4         879         880         981         980
         4         880         881         982         981
         4         881         882         983         982
         4         882         883         984         983
         4         883         884         985         984
         4         884         885         986         985
         4         885         886         987         986
         4         886         887         988         987
         4         887         888         989         988
         4         888         889         990         989
         4         889         890         991         990
         4         890         891         992         991
         4         891         892         993         992
         4         892         893         994         993
         4         893         894         995         994
         4         894         895         996         995
         4         895         896         997         996
         4         896         897         998         997
         4         897         898         999         998
         4         898         899        1000         999
         4         899         900        1001        1000
         4         900         901        1002        1001
         4         901         902        1003        1002
         4         902         903        1004        1003
         4         903         904        1005        1004
         4         904         905        1006        1005
         4         905         906        1007        1006
         4         906         907        1008        1007
         4         907         908        1009        1008
         4         909         910        1011        1010
         4         910         911        1012        1011
         4         911         912        1013        1012
         4         912         913        1014        1013
         4         913         914        1015        1014
         4         914         915        1016        1015
         4         915         916        1017        1016
         4         916         917        1018        1017
         4         917         918        1019        1018
         4         918         919        1020        1019
         4         919         920        1021        1020
         4         920         921        1022        1021
         4         921         922        1023        1022
         4         922         923        1024        1023
         4         923         924        1025        1024
         4         924         925        1026        1025
         4         925         926        1027        1026
         4         926         927        1028        1027
         4         927         928        1029        1028
         4         928         929        1030        1029
         4         929         930        1031        1030
         4         930         931        1032        1031
         4         931         932        1033        1032
         4         932         933        1034        1033
         4         933         934        1035        1034
         4         934         935        1036        1035
         4         935         936        1037        1036
         4         936         937        1038        1037
         4         937         938        1039        1038
         4         938         939        1040        1039
         4         939         940        1041        1040
         4         940         941        1042        1041
         4         941         942        1043        1042
         4         942         943        1044        1043
         4         943         944        1045        1044
         4         944         945        1046        1045
         4         945         946        1047        1046
         4         946         947        1048        1047
         4         947         948        1049        1048
         4         948         949        1050        1049
         4         949         950        1051        1050
         4         950         951        1052        1051
         4         951         952        1053        1052
         4         952         953        1054        1053
         4         953         954        1055        1054
         4         954         955        1056        1055
         4         955         956        1057        1056
         4         956         957        1058        1057
         4         957         958        1059        1058
         4         958         959        1060        1059
         4         959         960        1061        1060
         4         960         961        1062        1061
         4         961         962        1063        1062
         4         962         963        1064        1063
         4         963         964        1065        1064
         4         964         965        1066        1065
         4         965         966        1067        1066
         4         966         967        1068        1067
         4         967         968        1069        1068
         4         968         969        1070        1069
         4         969         970        1071        1070
         4         970         971        1072        1071
         4         971         972        1073        1072
         4         972         973        1074        1073
         4         973         974        1075        1074
         4         974         975        1076        1075
         4         975         976        1077        1076
         4         976         977        1078        1077
         4         977         978        1079        1078
         4         978         979        1080        1079
         4         979         980        1081        1080
         4         980         981        1082        1081
         4         981         982        1083        1082
         4         982         983        1084        1083
         4         983         984        1085        1084
         4         984         985        1086        1085
         4         985         986        1087        1086
         4         986         987        1088        1087
         4         987         988        1089        1088
         4         988         989        1090        1089
         4         989         990        1091        1090
         4         990         991        1092        1091
         4         991         992        1093        1092
         4         992         993        1094        1093
         4         993         994        1095        1094
         4         994         995        1096        1095
         4         995         996        1097        1096
         4         996         997        1098        1097
         4         997         998        1099        1098
         4         998         999        1100        1099
         4         999        1000        1101        1100
         4        1000        1001        1102        1101
         4        1001        1002        1103        1102
         4        1002        1003        1104        1103
         4        1003        1004        1105        1104
         4        1004        1005        1106        1105
         4        1005        1006        1107        1106
         4        1006        1007        1108        1107
         4        1007        1008        1109        1108
         4        1008        1009        1110        1109
         4        1010        1011        1112        1111
         4        1011        1012        1113        1112
         4        1012        1013        1114        1113
         4        1013        1014        1115        1114
         4        1014        1015        1116        1115
         4        1015        1016        1117        1116
         4        1016        1017        1118        1117
         4        1017        1018        1119        1118
         4        1018        1019        1120        1119
         4        1019        1020        1121        1120
         4        1020        1021        1122        1121
         4        1021        1022        1123        1122
         4        1022        1023        1124        1123
         4        1023        1024        1125        1124
         4        1024        1025        1126        1125
         4        1025        1026        1127        1126
         4        1026        1027        1128        1127
         4        1027        1028        1129        1128
         4        1028        1029        1130        1129
         4        1029        1030        1131        1130
         4        1030        1031        1132        1131
         4        1031        1032        1133        1132
         4        1032        1033        1134        1133
         4        1033        1034        1135        1134
         4        1034        1035        1136        1135
         4        1035        1036        1137        1136
         4        1036        1037        1138        1137
         4        1037        1038        1139        1138
         4        1038        1039        1140        1139
         4        1039        1040        1141        1140
         4        1040        1041        1142        1141
         4        1041        1042        1143        1142
         4        1042        1043        1144        1143
         4        1043        1044        1145        1144
         4        1044        1045        1146        1145
         4        1045        1046        1147        1146
         4        1046        1047        1148        1147
         4        1047        1048        1149        1148
         4        1048        1049        1150        1149
         4        1049        1050        1151        1150
         4        1050        1051        1152        1151
         4        1051        1052        1153        1152
         4        1052        1053        1154        1153
         4        1053        1054        1155        1154
         4        1054        1055        1156        1155
         4        1055        1056        1157        1156
         4        1056        1057        1158        1157
         4        1057        1058        1159        1158
         4        1058        1059        1160        1159
         4        1059        1060        1161        1160
         4        1060        1061        1162        1161
         4        1061        1062        1163        1162
         4        1062        1063        1164        1163
         4        1063        1064        1165        1164
         4        1064        1065        1166        1165
         4        1065        1066        1167        1166
         4        1066        1067        1168        1167
         4        1067        1068        1169        1168
         4        1068        1069        1170        1169
         4        1069        1070        1171        1170
         4        1070        1071        1172        1171
         4        1071        1072        1173        1172
         4        1072        1073        1174        1173
         4        1073        1074        1175        1174
         4        1074        1075        1176        1175
         4        1075        1076        1177        1176
         4        1076        1077        1178        1177
         4        1077        1078        1179        1178
         4        1078        1079        1180        1179
         4        1079        1080        1181        1180
         4        1080        1081        1182        1181
         4        1081        1082        1183        1182
         4        1082        1083        1184        1183
         4        1083        1084        1185        1184
         4        1084        1085        1186        1185
         4        1085        1086        1187        1186
         4        1086        1087        1188        1187
         4        1087        1088        1189        1188
         4        1088        1089        1190        1189
         4        1089        1090        1191        1190
         4        1090        1091        1192        1191
         4        1091        1092        1193        1192
         4        1092        1093        1194        1193
         4        1093        1094        1195        1194
         4        1094        1095        1196        1195
         4        1095        1096        1197        1196
         4        1096        1097        1198        1197
         4        1097        1098        1199        1198
         4        1098        1099        1200        1199
         4        1099        1100        1201        1200
         4        1100        1101        1202        1201
         4        1101        1102        1203        1202
         4        1102        1103        1204        1203
         4        1103        1104        1205        1204
         4        1104        1105        1206        1205
         4        1105        1106        1207        1206
         4        1106        1107        1208        1207
         4        1107        1108        1209        1208
         4        1108        1109        1210        1209
         4        1109        1110        1211        1210
         4        1111        1112        1213        1212
         4        1112        1113        1214        1213
         4        1113        1114        1215        1214
         4        1114        1115        1216        1215
         4        1115        1116        1217        1216
         4        1116        1117        1218        1217
         4        1117        1118        1219        1218
         4        1118        1119        1220        1219
         4        1119        1120        1221        1220
         4        1120        1121        1222        1221
         4        1121        1122        1223        1222
         4        1122        1123        1224        1223
         4        1123        1124        1225        1224
         4        1124        1125        1226        1225
         4        1125        1126        1227        1226
         4        1126        1127        1228        1227
         4        1127        1128        1229        1228
         4        1128        1129        1230        1229
         4        1129        1130        1231        1230
         4        1130        1131        1232        1231
         4        1131        1132        1233        1232
         4        1132        1133        1234        1233
         4        1133        1134        1235        1234
         4        1134        1135        1236        1235
         4        1135        1136        1237        1236
         4        1136        1137        1238        1237
         4        1137        1138        1239        1238
         4        1138        1139        1240        1239
         4        1139        1140        1241        1240
         4        1140        1141        1242        1241
         4        1141        1142        1243        1242
         4        1142        1143        1244        1243
         4        1143        1144        1245        1244
         4        1144        1145        1246        1245
         4        1145        1146        1247        1246
         4        1146        1147        1248        1247
         4        1147        1148        1249        1248
         4        1148        1149        1250        1249
         4        1149        1150        1251        1250
         4        1150        1151        1252        1251
         4        1151        1152        1253        1252
         4        1152        1153        1254        1253
         4        1153        1154        1255        1254
         4        1154        1155        1256        1255
         4        1155        1156        1257        1256
         4        1156        1157        1258        1257
         4        1157        1158        1259        1258
         4        1158        1159        1260        1259
         4        1159        1160        1261        1260
         4        1160        1161        1262        1261
         4        1161        1162        1263        1262
         4        1162        1163        1264        1263
         4        1163        1164        1265        1264
         4        1164        1165        1266        1265
         4        1165        1166        1267        1266
         4        1166        1167        1268        1267
         4        1167        1168        1269        1268
         4        1168        1169        1270        1269
         4        1169        1170        1271        1270
         4        1170        1171        1272        1271
         4        1171        1172        1273        1272
         4        1172        1173        1274        1273
         4        1173        1174        1275        1274
         4        1174        1175        1276        1275
         4        1175        1176        1277        1276
         4        1176        1177        1278        1277
         4        1177        1178        1279        1278
         4        1178        1179        1280        1279
         4        1179        1180        1281        1280
         4        1180        1181        1282        1281
         4        1181        1182        1283        1282
         4        1182        1183        1284        1283
         4        1183        1184        1285        1284
         4        1184        1185        1286        1285
         4        1185        1186        1287        1286
         4        1186        1187        1288        1287
         4        1187        1188        1289        1288
         4        1188        1189        1290        1289
         4        1189        1190        1291        1290
         4        1190        1191        1292        1291
         4        1191        1192        1293        1292
         4        1192        1193        1294        1293
         4        1193        1194        1295        1294
         4        1194        1195        1296        1295
         4        1195        1196        1297        1296
         4        1196        1197        1298        1297
         4        1197        1198        1299        1298
         4        1198        1199        1300        1299
         4        1199        1200        1301        1300
         4        1200        1201        1302        1301
         4        1201        1202        1303        1302
         4        1202        1203        1304        1303
         4        1203        1204        1305        1304
         4        1204        1205        1306        1305
         4        1205        1206        1307        1306
         4        1206        1207        1308        1307
         4        1207        1208        1309        1308
         4        1208        1209        1310        1309
         4        1209        1210        1311        1310
         4        1210        1211        1312        1311
         4        1212        1213        1314        1313
         4        1213        1214        1315        1314
         4        1214        1215        1316        1315
         4        1215        1216        1317        1316
         4        1216        1217        1318        1317
         4        1217        1218        1319        1318
         4        1218        1219        1320        1319
         4        1219        1220        1321        1320
         4        1220        1221        1322        1321
         4        1221        1222        1323        1322
         4        1222        1223        1324        1323
         4        1223        1224        1325        1324
         4        1224        1225        1326        1325
         4        1225        1226        1327        1326
         4        1226        1227        1328        1327
         4        1227        1228        1329        1328
         4        1228        1229        1330        1329
         4        1229        1230        1331        1330
         4        1230        1231        1332        1331
         4        1231        1232        1333        1332
         4        1232        1233        1334        1333
         4        1233        1234        1335        1334
         4        1234        1235        1336        1335
         4        1235        1236        1337        1336
         4        1236        1237        1338        1337
         4        1237        1238        1339        1338
         4        1238        1239        1340        1339
         4        1239        1240        1341        1340
         4        1240        1241        1342        1341
         4        1241        1242        1343        1342
         4        1242        1243        1344        1343
         4        1243        1244        1345        1344
         4        1244        1245        1346        1345
         4        1245        1246        1347        1346
         4        1246        1247        1348        1347
         4        1247        1248        1349        1348
         4        1248        1249        1350        1349
         4        1249        1250        1351        1350
         4        1250        1251        1352        1351
         4        1251        1252        1353        1352
         4        1252        1253        1354        1353
         4        1253        1254        1355        1354
         4        1254        1255        1356        1355
         4        1255        1256        1357        1356
         4        1256        1257        1358        1357
         4        1257        1258        1359        1358
         4        1258        1259        1360        1359
         4        1259        1260        1361        1360
         4        1260        1261        1362        1361
         4        1261        1262        1363        1362
         4        1262        1263        1364        1363
         4        1263        1264        1365        1364
         4        1264        1265        1366        1365
         4        1265        1266        1367        1366
         4        1266        1267        1368        1367
         4        1267        1268        1369        1368
         4        1268        1269        1370        1369
         4        1269        1270        1371        1370
         4        1270        1271        1372        1371
         4        1271        1272        1373        1372
         4        1272        1273        1374        1373
         4        1273        1274        1375        1374
         4        1274        1275        1376        1375
         4        1275        1276        1377        1376
         4        1276        1277        1378        1377
         4        1277        1278        1379        1378
         4        1278        1279        1380        1379
         4        1279        1280        1381        1380
         4        1280        1281        1382        1381
         4        1281        1282        1383        1382
         4        1282        1283        1384        1383
         4        1283        1284        1385        1384
         4        1284        1285        1386        1385
         4        1285        1286        1387        1386
         4        1286        1287        1388        1387
         4        1287        1288        1389        1388
         4        1288        1289        1390        1389
         4        1289        1290        1391        1390
         4        1290        1291        1392        1391
         4        1291        1292        1393        1392
         4        1292        1293        1394        1393
         4        1293        1294        1395        1394
         4        1294        1295        1396        1395
         4        1295        1296        1397        1396
         4        1296        1297        1398        1397
         4        1297        1298        1399        1398
         4        1298        1299        1400        1399
         4        1299        1300        1401        1400
         4        1300        1301        1402        1401
         4        1301        1302        1403        1402
         4        1302        1303        1404        1403
         4        1303        1304        1405        1404
         4        1304        1305        1406        1405
         4        1305        1306        1407        1406
         4        1306        1307        1408        1407
         4        1307        1308        1409        1408
         4        1308        1309        1410        1409
         4        1309        1310        1411        1410
         4        1310        1311        1412        1411
         4        1311        1312        1413        1412
         4        1313        1314        1415        1414
         4        1314        1315        1416        1415
         4        1315        1316        1417        1416
         4        1316        1317        1418        1417
         4        1317        1318        1419        1418
         4        1318        1319        1420        1419
         4        1319        1320        1421        1420
         4        1320        1321        1422        1421
         4        1321        1322        1423        1422
         4        1322        1323        1424        1423
         4        1323        1324        1425        1424
         4        1324        1325        1426        1425
         4        1325        1326        1427        1426
         4        1326        1327        1428        1427
         4        1327        1328        1429        1428
         4        1328        1329        1430        1429
         4        1329        1330        1431        1430
         4        1330        1331        1432        1431
         4        1331        1332        1433        1432
         4        1332        1333        1434        1433
         4        1333        1334        1435        1434
         4        1334        1335        1436        1435
         4        1335        1336        1437        1436
         4        1336        1337        1438        1437
         4        1337        1338        1439        1438
         4        1338        1339        1440        1439
         4        1339        1340        1441        1440
         4        1340        1341        1442        1441
         4        1341        1342        1443        1442
         4        1342        1343        1444        1443
         4        1343        1344        1445        1444
         4        1344        1345        1446        1445
         4        1345        1346        1447        1446
         4        1346        1347        1448        1447
         4        1347        1348        1449        1448
         4        1348        1349        1450        1449
         4        1349        1350        1451        1450
         4        1350        1351        1452        1451
         4        1351        1352        1453        1452
         4        1352        1353        1454        1453
         4        1353        1354        1455        1454
         4        1354        1355        1456        1455
         4        1355        1356        1457        1456
         4        1356        1357        1458        1457
         4        1357        1358        1459        1458
         4        1358        1359        1460        1459
         4        1359        1360        1461        1460
         4        1360        1361        1462        1461
         4        1361        1362        1463        1462
         4        1362        1363        1464        1463
         4        1363        1364        1465        1464
         4        1364        1365        1466        1465
         4        1365        1366        1467        1466
         4        1366        1367        1468        1467
         4        1367        1368        1469        1468
         4        1368        1369        1470        1469
         4        1369        1370        1471        1470
         4        1370        1371        1472        1471
         4        1371        1372        1473        1472
         4        1372        1373        1474        1473
         4        1373        1374        1475        1474
         4        1374        1375        1476        1475
         4        1375        1376        1477        1476
         4        1376        1377        1478        1477
         4        1377        1378        1479        1478
         4        1378        1379        1480        1479
         4        1379        1380        1481        1480
         4        1380        1381        1482        1481
         4        1381        1382        1483        1482
         4        1382        1383        1484        1483
         4        1383        1384        1485        1484
         4        1384        1385        1486        1485
         4        1385        1386        1487        1486
         4        1386        1387        1488        1487
         4        1387        1388        1489        1488
         4        1388        1389        1490        1489
         4        1389        1390        1491        1490
         4        1390        1391        1492        1491
         4        1391        1392        1493        1492
         4        1392        1393        1494        1493
         4        1393        1394        1495        1494
         4        1394        1395        1496        1495
         4        1395        1396        1497        1496
         4        1396        1397        1498        1497
         4        1397        1398        1499        1498
         4        1398        1399        1500        1499
         4        1399        1400        1501        1500
         4        1400        1401        1502        1501
         4        1401        1402        1503        1502
         4        1402        1403        1504        1503
         4        1403        1404        1505        1504
         4        1404        1405        1506        1505
         4        1405        1406        1507        1506
         4        1406        1407        1508        1507
         4        1407        1408        1509        1508
         4        1408        1409        1510        1509
         4        1409        1410        1511        1510
         4        1410        1411        1512        1511
         4        1411        1412        1513        1512
         4        1412        1413        1514        1513
         4        1414        1415        1516        1515
         4        1415        1416        1517        1516
         4        1416        1417        1518        1517
         4        1417        1418        1519        1518
         4        1418        1419        1520        1519
         4        1419        1420        1521        1520
         4        1420        1421        1522        1521
         4        1421        1422        1523        1522
         4        1422        1423        1524        1523
         4        1423        1424        1525        1524
         4        1424        1425        1526        1525
         4        1425        1426        1527        1526
         4        1426        1427        1528        1527
         4        1427        1428        1529        1528
         4        1428        1429        1530        1529
         4        1429        1430        1531        1530
         4        1430        1431        1532        1531
         4        1431        1432        1533        1532
         4        1432        1433        1534        1533
         4        1433        1434        1535        1534
         4        1434        1435        1536        1535
         4        1435        1436        1537        1536
         4        1436        1437        1538        1537
         4        1437        1438        1539        1538
         4        1438        1439        1540        1539
         4        1439        1440        1541        1540
         4        1440        1441        1542        1541
         4        1441        1442        1543        1542
         4        1442        1443        1544        1543
         4        1443        1444        1545        1544
         4        1444        1445        1546        1545
         4        1445        1446        1547        1546
         4        1446        1447        1548        1547
         4        1447        1448        1549        1548
         4        1448        1449        1550        1549
         4        1449        1450        1551        1550
         4        1450        1451        1552        1551
         4        1451        1452        1553        1552
         4        1452        1453        1554        1553
         4        1453        1454        1555        1554
         4        1454        1455        1556        1555
         4        1455        1456        1557        1556
         4        1456        1457        1558        1557
         4        1457        1458        1559        1558
         4        1458        1459        1560        1559
         4        1459        1460        1561        1560
         4        1460        1461        1562        1561
         4        1461        1462        1563        1562
         4        1462        1463        1564        1563
         4        1463        1464        1565        1564
         4        1464        1465        1566        1565
         4        1465        1466        1567        1566
         4        1466        1467        1568        1567
         4        1467        1468        1569        1568
         4        1468        1469        1570        1569
         4        1469        1470        1571        1570
         4        1470        1471        1572        1571
         4        1471        1472        1573        1572
         4        1472        1473        1574        1573
         4        1473        1474        1575        1574
         4        1474        1475        1576        1575
         4        1475        1476        1577        1576
         4        1476        1477        1578        1577
         4        1477        1478        1579        1578
         4        1478        1479        1580        1579
         4        1479        1480        1581        1580
         4        1480        1481        1582        1581
         4        1481        1482        1583        1582
         4        1482        1483        1584        1583
         4        1483        1484        1585        1584
         4        1484        1485        1586        1585
         4        1485        1486        1587        1586
         4        1486        1487        1588        1587
         4        1487        1488        1589        1588
         4        1488        1489        1590        1589
         4        1489        1490        1591        1590
         4        1490        1491        1592        1591
         4        1491        1492        1593        1592
         4        1492        1493        1594        1593
         4        1493        1494        1595        1594
         4        1494        1495        1596        1595
         4        1495        1496        1597        1596
         4        1496        1497        1598        1597
         4        1497        1498        1599        1598
         4        1498        1499        1600        1599
         4        1499        1500        1601        1600
         4        1500        1501        1602        1601
         4        1501        1502        1603        1602
         4        1502        1503        1604        1603
         4        1503        1504        1605        1604
         4        1504        1505        1606        1605
         4        1505        1506        1607        1606
         4        1506        1507        1608        1607
         4        1507        1508        1609        1608
         4        1508        1509        1610        1609
         4        1509        1510        1611        1610
         4        1510        1511        1612        1611
         4        1511        1512        1613        1612
         4        1512        1513        1614        1613
         4        1513        1514        1615        1614
         4        1515        1516        1617        1616
         4        1516        1517        1618        1617
         4        1517        1518        1619        1618
         4        1518        1519        1620        1619
         4        1519        1520        1621        1620
         4        1520        1521        1622        1621
         4        1521        1522        1623        1622
         4        1522        1523        1624        1623
         4        1523        1524        1625        1624
         4        1524        1525        1626        1625
         4        1525        1526        1627        1626
         4        1526        1527        1628        1627
         4        1527        1528        1629        1628
         4        1528        1529        1630        1629
         4        1529        1530        1631        1630
         4        1530        1531        1632        1631
         4        1531        1532        1633        1632
         4        1532        1533        1634        1633
         4        1533        1534        1635        1634
         4        1534        1535        1636        1635
         4        1535        1536        1637        1636
         4        1536        1537        1638        1637
         4        1537        1538        1639        1638
         4        1538        1539        1640        1639
         4        1539        1540        1641        1640
         4        1540        1541        1642        1641
         4        1541        1542        1643        1642
         4        1542        1543        1644        1643
         4        1543        1544        1645        1644
         4        1544        1545        1646        1645
         4        1545        1546        1647        1646
         4        1546        1547        1648        1647
         4        1547        1548        1649        1648
         4        1548        1549        1650        1649
         4        1549        1550        1651        1650
         4        1550        1551        1652        1651
         4        1551        1552        1653        1652
         4        1552        1553        1654        1653
         4        1553        1554        1655        1654
         4        1554        1555        1656        1655
         4        1555        1556        1657        1656
         4        1556        1557        1658        1657
         4        1557        1558        1659        1658
         4        1558        1559        1660        1659
         4        1559        1560        1661        1660
         4        1560        1561        1662        1661
         4        1561        1562        1663        1662
         4        1562        1563        1664        1663
         4        1563        1564        1665        1664
         4        1564        1565        1666        1665
         4        1565        1566        1667        1666
         4        1566        1567        1668        1667
         4        1567        1568        1669        1668
         4        1568        1569        1670        1669
         4        1569        1570        1671        1670
         4        1570        1571        1672        1671
         4        1571        1572        1673        1672
         4        1572        1573        1674        1673
         4        1573        1574        1675        1674
         4        1574        1575        1676        1675
         4        1575        1576        1677        1676
         4        1576        1577        1678        1677
         4        1577        1578        1679        1678
         4        1578        1579        1680        1679
         4        1579        1580        1681        1680
         4        1580        1581        1682        1681
         4        1581        1582        1683        1682
         4        1582        1583        1684        1683
         4        1583        1584        1685        1684
         4        1584        1585        1686        1685
         4        1585        1586        1687        1686
         4        1586        1587        1688        1687
         4        1587        1588        1689        1688
         4        1588        1589        1690        1689
         4        1589        1590        1691        1690
         4        1590        1591        1692        1691
         4        1591        1592        1693        1692
         4        1592        1593        1694        1693
         4        1593        1594        1695        1694
         4        1594        1595        1696        1695
         4        1595        1596        1697        1696
         4        1596        1597        1698        1697
         4        1597        1598        1699        1698
         4        1598        1599        1700        1699
         4        1599        1600        1701        1700
         4        1600        1601        1702        1701
         4        1601        1602        1703        1702
         4        1602        1603        1704        1703
         4        1603        1604        1705        1704
         4        1604        1605        1706        1705
         4        1605        1606        1707        1706
         4        1606        1607        1708        1707
         4        1607        1608        1709        1708
         4        1608        1609        1710        1709
         4        1609        1610        1711        1710
         4        1610        1611        1712        1711
         4        1611        1612        1713        1712
         4        1612        1613        1714        1713
         4        1613        1614        1715        1714
         4        1614        1615        1716        1715
         4        1616        1617        1718        1717
         4        1617        1618        1719        1718
         4        1618        1619        1720        1719
         4        1619        1620        1721        1720
         4        1620        1621        1722        1721
         4        1621        1622        1723        1722
         4        1622        1623        1724        1723
         4        1623        1624        1725        1724
         4        1624        1625        1726        1725
         4        1625        1626        1727        1726
         4        1626        1627        1728        1727
         4        1627        1628        1729        1728
         4        1628        1629        1730        1729
         4        1629        1630        1731        1730
         4        1630        1631        1732        1731
         4        1631        1632        1733        1732
         4        1632        1633        1734        1733
         4        1633        1634        1735        1734
         4        1634        1635        1736        1735
         4        1635        1636        1737        1736
         4        1636        1637        1738        1737
         4        1637        1638        1739        1738
         4        1638        1639        1740        1739
         4        1639        1640        1741        1740
         4        1640        1641        1742        1741
         4        1641        1642        1743        1742
         4        1642        1643        1744        1743
         4        1643        1644        1745        1744
         4        1644        1645        1746        1745
         4        1645        1646        1747        1746
         4        1646        1647        1748        1747
         4        1647        1648        1749        1748
         4        1648        1649        1750        1749
         4        1649        1650        1751        1750
         4        1650        1651        1752        1751
         4        1651        1652        1753        1752
         4        1652        1653        1754        1753
         4        1653        1654        1755        1754
         4        1654        1655        1756        1755
         4        1655        1656        1757        1756
         4        1656        1657        1758        1757
         4        1657        1658        1759        1758
         4        1658        1659        1760        1759
         4        1659        1660        1761        1760
         4        1660        1661        1762        1761
         4        1661        1662        1763        1762
         4        1662        1663        1764        1763
         4        1663        1664        1765        1764
         4        1664        1665        1766        1765
         4        1665        1666        1767        1766
         4        1666        1667        1768        1767
         4        1667        1668        1769        1768
         4        1668        1669        1770        1769
         4        1669        1670        1771        1770
         4        1670        1671        1772        1771
         4        1671        1672        1773        1772
         4        1672        1673        1774        1773
         4        1673        1674        1775        1774
         4        1674        1675        1776        1775
         4        1675        1676        1777        1776
         4        1676        1677        1778        1777
         4        1677        1678        1779        1778
         4        1678        1679        1780        1779
         4        1679        1680        1781        1780
         4        1680        1681        1782        1781
         4        1681        1682        1783        1782
         4        1682        1683        1784        1783
         4        1683        1684        1785        1784
         4        1684        1685        1786        1785
         4        1685        1686        1787        1786
         4        1686        1687        1788        1787
         4        1687        1688        1789        1788
         4        1688        1689        1790        1789
         4        1689        1690        1791        1790
         4        1690        1691        1792        1791
         4        1691        1692        1793        1792
         4        1692        1693        1794        1793
         4        1693        1694        1795        1794
         4        1694        1695        1796        1795
         4        1695        1696        1797        1796
         4        1696        1697        1798        1797
         4        1697        1698        1799        1798
         4        1698        1699        1800        1799
         4        1699        1700        1801        1800
         4        1700        1701        1802        1801
         4        1701        1702        1803        1802
         4        1702        1703        1804        1803
         4        1703        1704        1805        1804
         4        1704        1705        1806        1805
         4        1705        1706        1807        1806
         4        1706        1707        1808        1807
         4        1707        1708        1809        1808
         4        1708        1709        1810        1809
         4        1709        1710        1811        1810
         4        1710        1711        1812        1811
         4        1711        1712        1813        1812
         4        1712        1713        1814        1813
         4        1713        1714        1815        1814
         4        1714        1715        1816        1815
         4        1715        1716        1817        1816
         4        1717        1718        1819        1818
         4        1718        1719        1820        1819
         4        1719        1720        1821        1820
         4        1720        1721        1822        1821
         4        1721        1722        1823        1822
         4        1722        1723        1824        1823
         4        1723        1724        1825        1824
         4        1724        1725        1826        1825
         4        1725        1726        1827        1826
         4        1726        1727        1828        1827
         4        1727        1728        1829        1828
         4        1728        1729        1830        1829
         4        1729        1730        1831        1830
         4        1730        1731        1832        1831
         4        1731        1732        1833        1832
         4        1732        1733        1834        1833
         4        1733        1734        1835        1834
         4        1734        1735        1836        1835
         4        1735        1736        1837        1836
         4        1736        1737        1838        1837
         4        1737        1738        1839        1838
         4        1738        1739        1840        1839
         4        1739        1740        1841        1840
         4        1740        1741        1842        1841
         4        1741        1742        1843        1842
         4        1742        1743        1844        1843
         4        1743        1744        1845        1844
         4        1744        1745        1846        1845
         4        1745        1746        1847        1846
         4        1746        1747        1848        1847
         4        1747        1748        1849        1848
         4        1748        1749        1850        1849
         4        1749        1750        1851        1850
         4        1750        1751        1852        1851
         4        1751        1752        1853        1852
         4        1752        1753        1854        1853
         4        1753        1754        1855        1854
         4        1754        1755        1856        1855
         4        1755        1756        1857        1856
         4        1756        1757        1858        1857
         4        1757        1758        1859        1858
         4        1758        1759        1860        1859
         4        1759        1760        1861        1860
         4        1760        1761        1862        1861
         4        1761        1762        1863        1862
         4        1762        1763        1864        1863
         4        1763        1764        1865        1864
         4        1764        1765        1866        1865
         4        1765        1766        1867        1866
         4        1766        1767        1868        1867
         4        1767        1768        1869        1868
         4        1768        1769        1870        1869
         4        1769        1770        1871        1870
         4        1770        1771        1872        1871
         4        1771        1772        1873        1872
         4        1772        1773        1874        1873
         4        1773        1774        1875        1874
         4        1774        1775        1876        1875
         4        1775        1776        1877        1876
         4        1776        1777        1878        1877
         4        1777        1778        1879        1878
         4        1778        1779        1880        1879
         4        1779        1780        1881        1880
         4        1780        1781        1882        1881
         4        1781        1782        1883        1882
         4        1782        1783        1884        1883
         4        1783        1784        1885        1884
         4        1784        1785        1886        1885
         4        1785        1786        1887        1886
         4        1786        1787        1888        1887
         4        1787        1788        1889        1888
         4        1788        1789        1890        1889
         4        1789        1790        1891        1890
         4        1790        1791        1892        1891
         4        1791        1792        1893        1892
         4        1792        1793        1894        1893
         4        1793        1794        1895        1894
         4        1794        1795        1896        1895
         4        1795        1796        1897        1896
         4        1796        1797        1898        1897
         4        1797        1798        1899        1898
         4        1798        1799        1900        1899
         4        1799        1800        1901        1900
         4        1800        1801        1902        1901
         4        1801        1802        1903        1902
         4        1802        1803        1904        1903
         4        1803        1804        1905        1904
         4        1804        1805        1906        1905
         4        1805        1806        1907        1906
         4        1806        1807        1908        1907
         4        1807        1808        1909        1908
         4        1808        1809        1910        1909
         4        1809        1810        1911        1910
         4        1810        1811        1912        1911
         4        1811        1812        1913        1912
         4        1812        1813        1914        1913
         4        1813        1814        1915        1914
         4        1814        1815        1916        1915
         4        1815        1816        1917        1916
         4        1816        1817        1918        1917
         4        1818        1819        1920        1919
         4        1819        1820        1921        1920
         4        1820        1821        1922        1921
         4        1821        1822        1923        1922
         4        1822        1823        1924        1923
         4        1823        1824        1925        1924
         4        1824        1825        1926        1925
         4        1825        1826        1927        1926
         4        1826        1827        1928        1927
         4        1827        1828        1929        1928
         4        1828        1829        1930        1929
         4        1829        1830        1931        1930
         4        1830        1831        1932        1931
         4        1831        1832        1933        1932
         4        1832        1833        1934        1933
         4        1833        1834        1935        1934
         4        1834        1835        1936        1935
         4        1835        1836        1937        1936
         4        1836        1837        1938        1937
         4        1837        1838        1939        1938
         4        1838        1839        1940        1939
         4        1839        1840        1941        1940
         4        1840        1841        1942        1941
         4        1841        1842        1943        1942
         4        1842        1843        1944        1943
         4        1843        1844        1945        1944
         4        1844        1845        1946        1945
         4        1845        1846        1947        1946
         4        1846        1847        1948        1947
         4        1847        1848        1949        1948
         4        1848        1849        1950        1949
         4        1849        1850        1951        1950
         4        1850        1851        1952        1951
         4        1851        1852        1953        1952
         4        1852        1853        1954        1953
         4        1853        1854        1955        1954
         4        1854        1855        1956        1955
         4        1855        1856        1957        1956
         4        1856        1857        1958        1957
         4        1857        1858        1959        1958
         4        1858        1859        1960        1959
         4        1859        1860        1961        1960
         4        1860        1861        1962        1961
         4        1861        1862        1963        1962
         4        1862        1863        1964        1963
         4        1863        1864        1965        1964
         4        1864        1865        1966        1965
         4        1865        1866        1967        1966
         4        1866        1867        1968        1967
         4        1867        1868        1969        1968
         4        1868        1869        1970        1969
         4        1869        1870        1971        1970
         4        1870        1871        1972        1971
         4        1871        1872        1973        1972
         4        1872        1873        1974        1973
         4        1873        1874        1975        1974
         4        1874        1875        1976        1975
         4        1875        1876        1977        1976
         4        1876        1877        1978        1977
         4        1877        1878        1979        1978
         4        1878        1879        1980        1979
         4        1879        1880        1981        1980
         4        1880        1881        1982        1981
         4        1881        1882        1983        1982
         4        1882        1883        1984        1983
         4        1883        1884        1985        1984
         4        1884        1885        1986        1985
         4        1885        1886        1987        1986
         4        1886        1887        1988        1987
         4        1887        1888        1989        1988
         4        1888        1889        1990        1989
         4        1889        1890        1991        1990
         4        1890        1891        1992        1991
         4        1891        1892        1993        1992
         4        1892        1893        1994        1993
         4        1893        1894        1995        1994
         4        1894        1895        1996        1995
         4        1895        1896        1997        1996
         4        1896        1897        1998        1997
         4        1897        1898        1999        1998
         4        1898        1899        2000        1999
         4        1899        1900        2001        2000
         4        1900        1901        2002        2001
         4        1901        1902        2003        2002
         4        1902        1903        2004        2003
         4        1903        1904        2005        2004
         4        1904        1905        2006        2005
         4        1905        1906        2007        2006
         4        1906        1907        2008        2007
         4        1907        1908        2009        2008
         4        1908        1909        2010        2009
         4        1909        1910        2011        2010
         4        1910        1911        2012        2011
         4        1911        1912        2013        2012
         4        1912        1913        2014        2013
         4        1913        1914        2015        2014
         4        1914        1915        2016        2015
         4        1915        1916        2017        2016
         4        1916        1917        2018        2017
         4        1917        1918        2019        2018
         4        1919        1920        2021        2020
         4        1920        1921        2022        2021
         4        1921        1922        2023        2022
         4        1922        1923        2024        2023
         4        1923        1924        2025        2024
         4        1924        1925        2026        2025
         4        1925        1926        2027        2026
         4        1926        1927        2028        2027
         4        1927        1928        2029        2028
         4        1928        1929        2030        2029
         4        1929        1930        2031        2030
         4        1930        1931        2032        2031
         4        1931        1932        2033        2032
         4        1932        1933        2034        2033
         4        1933        1934        2035        2034
         4        1934        1935        2036        2035
         4        1935        1936        2037        2036
         4        1936        1937        2038        2037
         4        1937        1938        2039        2038
         4        1938        1939        2040        2039
         4        1939        1940        2041        2040
         4        1940        1941        2042        2041
         4        1941        1942        2043        2042
         4        1942        1943        2044        2043
         4        1943        1944        2045        2044
         4        1944        1945        2046        2045
         4        1945        1946        2047        2046
         4        1946        1947        2048        2047
         4        1947        1948        2049        2048
         4        1948        1949        2050        2049
         4        1949        1950        2051        2050
         4        1950        1951        2052        2051
         4        1951        1952        2053        2052
         4        1952        1953        2054        2053
         4        1953        1954        2055        2054
         4        1954        1955        2056        2055
         4        1955        1956        2057        2056
         4        1956        1957        2058        2057
         4        1957        1958        2059        2058
         4        1958        1959        2060        2059
         4        1959        1960        2061        2060
         4        1960        1961        2062        2061
         4        1961        1962        2063        2062
         4        1962        1963        2064        2063
         4        1963        1964        2065        2064
         4        1964        1965        2066        2065
         4        1965        1966        2067        2066
         4        1966        1967        2068        2067
         4        1967        1968        2069        2068
         4        1968        1969        2070        2069
         4        1969        1970        2071        2070
         4        1970        1971        2072        2071
         4        1971        1972        2073        2072
         4        1972        1973        2074        2073
         4        1973        1974        2075        2074
         4        1974        1975        2076        2075
         4        1975        1976        2077        2076
         4        1976        1977        2078        2077
         4        1977        1978        2079        2078
         4        1978        1979        2080        2079
         4        1979        1980        2081        2080
         4        1980        1981        2082        2081
         4        1981        1982        2083        2082
         4        1982        1983        2084        2083
         4        1983        1984        2085        2084
         4        1984        1985        2086        2085
         4        1985        1986        2087        2086
         4        1986        1987        2088        2087
         4        1987        1988        2089        2088
         4        1988        1989        2090        2089
         4        1989        1990        2091        2090
         4        1990        1991        2092        2091
         4        1991        1992        2093        2092
         4        1992        1993        2094        2093
         4        1993        1994        2095        2094
         4        1994        1995        2096        2095
         4        1995        1996        2097        2096
         4        1996        1997        2098        2097
         4        1997        1998        2099        2098
         4        1998        1999        2100        2099
         4        1999        2000        2101        2100
         4        2000        2001        2102        2101
         4        2001        2002        2103        2102
         4        2002        2003        2104        2103
         4        2003        2004        2105        2104
         4        2004        2005        2106        2105
         4        2005        2006        2107        2106
         4        2006        2007        2108        2107
         4        2007        2008        2109        2108
         4        2008        2009        2110        2109
         4        2009        2010        2111        2110
         4        2010        2011        2112        2111
         4        2011        2012        2113        2112
         4        2012        2013        2114        2113
         4        2013        2014        2115        2114
         4        2014        2015        2116        2115
         4        2015        2016        2117        2116
         4        2016        2017        2118        2117
         4        2017        2018        2119        2118
         4        2018        2019        2120        2119
         4        2020        2021        2122        2121
         4        2021        2022        2123        2122
         4        2022        2023        2124        2123
         4        2023        2024        2125        2124
         4        2024        2025        2126        2125
         4        2025        2026        2127        2126
         4        2026        2027        2128        2127
         4        2027        2028        2129        2128
         4        2028        2029        2130        2129
         4        2029        2030        2131        2130
         4        2030        2031        2132        2131
         4        2031        2032        2133        2132
         4        2032        2033        2134        2133
         4        2033        2034        2135        2134
         4        2034        2035        2136        2135
         4        2035        2036        2137        2136
         4        2036        2037        2138        2137
         4        2037        2038        2139        2138
         4        2038        2039        2140        2139
         4        2039        2040        2141        2140
         4        2040        2041        2142        2141
         4        2041        2042        2143        2142
         4        2042        2043        2144        2143
         4        2043        2044        2145        2144
         4        2044        2045        2146        2145
         4        2045        2046        2147        2146
         4        2046        2047        2148        2147
         4        2047        2048        2149        2148
         4        2048        2049        2150        2149
         4        2049        2050        2151        2150
         4        2050        2051        2152        2151
         4        2051        2052        2153        2152
         4        2052        2053        2154        2153
         4        2053        2054        2155        2154
         4        2054        2055        2156        2155
         4        2055        2056        2157        2156
         4        2056        2057        2158        2157
         4        2057        2058        2159        2158
         4        2058        2059        2160        2159
         4        2059        2060        2161        2160
         4        2060        2061        2162        2161
         4        2061        2062        2163        2162
         4        2062        2063        2164        2163
         4        2063        2064        2165        2164
         4        2064        2065        2166        2165
         4        2065        2066        2167        2166
         4        2066        2067        2168        2167
         4        2067        2068        2169        2168
         4        2068        2069        2170        2169
         4        2069        2070        2171        2170
         4        2070        2071        2172        2171
         4        2071        2072        2173        2172
         4        2072        2073        2174        2173
         4        2073        2074        2175        2174
         4        2074        2075        2176        2175
         4        2075        2076        2177        2176
         4        2076        2077        2178        2177
         4        2077        2078        2179        2178
         4        2078        2079        2180        2179
         4        2079        2080        2181        2180
         4        2080        2081        2182        2181
         4        2081        2082        2183        2182
         4        2082        2083        2184        2183
         4        2083        2084        2185        2184
         4        2084        2085        2186        2185
         4        2085        2086        2187        2186
         4        2086        2087        2188        2187
         4        2087        2088        2189        2188
         4        2088        2089        2190        2189
         4        2089        2090        2191        2190
         4        2090        2091        2192        2191
         4        2091        2092        2193        2192
         4        2092        2093        2194        2193
         4        2093        2094        2195        2194
         4        2094        2095        2196        2195
         4        2095        2096        2197        2196
         4        2096        2097        2198        2197
         4        2097        2098        2199        2198
         4        2098        2099        2200        2199
         4        2099        2100        2201        2200
         4        2100        2101        2202        2201
         4        2101        2102        2203        2202
         4        2102        2103        2204        2203
         4        2103        2104        2205        2204
         4        2104        2105        2206        2205
         4        2105        2106        2207        2206
         4        2106        2107        2208        2207
         4        2107        2108        2209        2208
         4        2108        2109        2210        2209
         4        2109        2110        2211        2210
         4        2110        2111        2212        2211
         4        2111        2112        2213        2212
         4        2112        2113        2214        2213
         4        2113        2114        2215        2214
         4        2114        2115        2216        2215
         4        2115        2116        2217        2216
         4        2116        2117        2218        2217
         4        2117        2118        2219        2218
         4        2118        2119        2220        2219
         4        2119        2120        2221        2220
         4        2121        2122        2223        2222
         4        2122        2123        2224        2223
         4        2123        2124        2225        2224
         4        2124        2125        2226        2225
         4        2125        2126        2227        2226
         4        2126        2127        2228        2227
         4        2127        2128        2229        2228
         4        2128        2129        2230        2229
         4        2129        2130        2231        2230
         4        2130        2131        2232        2231
         4        2131        2132        2233        2232
         4        2132        2133        2234        2233
         4        2133        2134        2235        2234
         4        2134        2135        2236        2235
         4        2135        2136        2237        2236
         4        2136        2137        2238        2237
         4        2137        2138        2239        2238
         4        2138        2139        2240        2239
         4        2139        2140        2241        2240
         4        2140        2141        2242        2241
         4        2141        2142        2243        2242
         4        2142        2143        2244        2243
         4        2143        2144        2245        2244
         4        2144        2145        2246        2245
         4        2145        2146        2247        2246
         4        2146        2147        2248        2247
         4        2147        2148        2249        2248
         4        2148        2149        2250        2249
         4        2149        2150        2251        2250
         4        2150        2151        2252        2251
         4        2151        2152        2253        2252
         4        2152        2153        2254        2253
         4        2153        2154        2255        2254
         4        2154        2155        2256        2255
         4        2155        2156        2257        2256
         4        2156        2157        2258        2257
         4        2157        2158        2259        2258
         4        2158        2159        2260        2259
         4        2159        2160        2261        2260
         4        2160        2161        2262        2261
         4        2161        2162        2263        2262
         4        2162        2163        2264        2263
         4        2163        2164        2265        2264
         4        2164        2165        2266        2265
         4        2165        2166        2267        2266
         4        2166        2167        2268        2267
         4        2167        2168        2269        2268
         4        2168        2169        2270        2269
         4        2169        2170        2271        2270
         4        2170        2171        2272        2271
         4        2171        2172        2273        2272
         4        2172        2173        2274        2273
         4        2173        2174        2275        2274
         4        2174        2175        2276        2275
         4        2175        2176        2277        2276
         4        2176        2177        2278        2277
         4        2177        2178        2279        2278
         4        2178        2179        2280        2279
         4        2179        2180        2281        2280
         4        2180        2181        2282        2281
         4        2181        2182        2283        2282
         4        2182        2183        2284        2283
         4        2183        2184        2285        2284
         4        2184        2185        2286        2285
         4        2185        2186        2287        2286
         4        2186        2187        2288        2287
         4        2187        2188        2289        2288
         4        2188        2189        2290        2289
         4        2189        2190        2291        2290
         4        2190        2191        2292        2291
         4        2191        2192        2293        2292
         4        2192        2193        2294        2293
         4        2193        2194        2295        2294
         4        2194        2195        2296        2295
         4        2195        2196        2297        2296
         4        2196        2197        2298        2297
         4        2197        2198        2299        2298
         4        2198        2199        2300        2299
         4        2199        2200        2301        2300
         4        2200        2201        2302        2301
         4        2201        2202        2303        2302
         4        2202        2203        2304        2303
         4        2203        2204        2305        2304
         4        2204        2205        2306        2305
         4        2205        2206        2307        2306
         4        2206        2207        2308        2307
         4        2207        2208        2309        2308
         4        2208        2209        2310        2309
         4        2209        2210        2311        2310
         4        2210        2211        2312        2311
         4        2211        2212        2313        2312
         4        2212        2213        2314        2313
         4        2213        2214        2315        2314
         4        2214        2215        2316        2315
         4        2215        2216        2317        2316
         4        2216        2217        2318        2317
         4        2217        2218        2319        2318
         4        2218        2219        2320        2319
         4        2219        2220        2321        2320
         4        2220        2221        2322        2321
         4        2222        2223        2324        2323
         4        2223        2224        2325        2324
         4        2224        2225        2326        2325
         4        2225        2226        2327        2326
         4        2226        2227        2328        2327
         4        2227        2228        2329        2328
         4        2228        2229        2330        2329
         4        2229        2230        2331        2330
         4        2230        2231        2332        2331
         4        2231        2232        2333        2332
         4        2232        2233        2334        2333
         4        2233        2234        2335        2334
         4        2234        2235        2336        2335
         4        2235        2236        2337        2336
         4        2236        2237        2338        2337
         4        2237        2238        2339        2338
         4        2238        2239        2340        2339
         4        2239        2240        2341        2340
         4        2240        2241        2342        2341
         4        2241        2242        2343        2342
         4        2242        2243        2344        2343
         4        2243        2244        2345        2344
         4        2244        2245        2346        2345
         4        2245        2246        2347        2346
         4        2246        2247        2348        2347
         4        2247        2248        2349        2348
         4        2248        2249        2350        2349
         4        2249        2250        2351        2350
         4        2250        2251        2352        2351
         4        2251        2252        2353        2352
         4        2252        2253        2354        2353
         4        2253        2254        2355        2354
         4        2254        2255        2356        2355
         4        2255        2256        2357        2356
         4        2256        2257        2358        2357
         4        2257        2258        2359        2358
         4        2258        2259        2360        2359
         4        2259        2260        2361        2360
         4        2260        2261        2362        2361
         4        2261        2262        2363        2362
         4        2262        2263        2364        2363
         4        2263        2264        2365        2364
         4        2264        2265        2366        2365
         4        2265        2266        2367        2366
         4        2266        2267        2368        2367
         4        2267        2268        2369        2368
         4        2268        2269        2370        2369
         4        2269        2270        2371        2370
         4        2270        2271        2372        2371
         4        2271        2272        2373        2372
         4        2272        2273        2374        2373
         4        2273        2274        2375        2374
         4        2274        2275        2376        2375
         4        2275        2276        2377        2376
         4        2276        2277        2378        2377
         4        2277        2278        2379        2378
         4        2278        2279        2380        2379
         4        2279        2280        2381        2380
         4        2280        2281        2382        2381
         4        2281        2282        2383        2382
         4        2282        2283        2384        2383
         4        2283        2284        2385        2384
         4        2284        2285        2386        2385
         4        2285        2286        2387        2386
         4        2286        2287        2388        2387
         4        2287        2288        2389        2388
         4        2288        2289        2390        2389
         4        2289        2290        2391        2390
         4        2290        2291        2392        2391
         4        2291        2292        2393        2392
         4        2292        2293        2394        2393
         4        2293        2294        2395        2394
         4        2294        2295        2396        2395
         4        2295        2296        2397        2396
         4        2296        2297        2398        2397
         4        2297        2298        2399        2398
         4        2298        2299        2400        2399
         4        2299        2300        2401        2400
         4        2300        2301        2402        2401
         4        2301        2302        2403        2402
         4        2302        2303        2404        2403
         4        2303        2304        2405        2404
         4        2304        2305        2406        2405
         4        2305        2306        2407        2406
         4        2306        2307        2408        2407
         4        2307        2308        2409        2408
         4        2308        2309        2410        2409
         4        2309        2310        2411        2410
         4        2310        2311        2412        2411
         4        2311        2312        2413        2412
         4        2312        2313        2414        2413
         4        2313        2314        2415        2414
         4        2314        2315        2416        2415
         4        2315        2316        2417        2416
         4        2316        2317        2418        2417
         4        2317        2318        2419        2418
         4        2318        2319        2420        2419
         4        2319        2320        2421        2420
         4        2320        2321        2422        2421
         4        2321        2322        2423        2422
         4        2323        2324        2425        2424
         4        2324        2325        2426        2425
         4        2325        2326        2427        2426
         4        2326        2327        2428        2427
         4        2327        2328        2429        2428
         4        2328        2329        2430        2429
         4        2329        2330        2431        2430
         4        2330        2331        2432        2431
         4        2331        2332        2433        2432
         4        2332        2333        2434        2433
         4        2333        2334        2435        2434
         4        2334        2335        2436        2435
         4        2335        2336        2437        2436
         4        2336        2337        2438        2437
         4        2337        2338        2439        2438
         4        2338        2339        2440        2439
         4        2339        2340        2441        2440
         4        2340        2341        2442        2441
         4        2341        2342        2443        2442
         4        2342        2343        2444        2443
         4        2343        2344        2445        2444
         4        2344        2345        2446        2445
         4        2345        2346        2447        2446
         4        2346        2347        2448        2447
         4        2347        2348        2449        2448
         4        2348        2349        2450        2449
         4        2349        2350        2451        2450
         4        2350        2351        2452        2451
         4        2351        2352        2453        2452
         4        2352        2353        2454        2453
         4        2353        2354        2455        2454
         4        2354        2355        2456        2455
         4        2355        2356        2457        2456
         4        2356        2357        2458        2457
         4        2357        2358        2459        2458
         4        2358        2359        2460        2459
         4        2359        2360        2461        2460
         4        2360        2361        2462        2461
         4        2361        2362        2463        2462
         4        2362        2363        2464        2463
         4        2363        2364        2465        2464
         4        2364        2365        2466        2465
         4        2365        2366        2467        2466
         4        2366        2367        2468        2467
         4        2367        2368        2469        2468
         4        2368        2369        2470        2469
         4        2369        2370        2471        2470
         4        2370        2371        2472        2471
         4        2371        2372        2473        2472
         4        2372        2373        2474        2473
         4        2373        2374        2475        2474
         4        2374        2375        2476        2475
         4        2375        2376        2477        2476
         4        2376        2377        2478        2477
         4        2377        2378        2479        2478
         4        2378        2379        2480        2479
         4        2379        2380        2481        2480
         4        2380        2381        2482        2481
         4        2381        2382        2483        2482
         4        2382        2383        2484        2483
         4        2383        2384        2485        2484
         4        2384        2385        2486        2485
         4        2385        2386        2487        2486
         4        2386        2387        2488        2487
         4        2387        2388        2489        2488
         4        2388        2389        2490        2489
         4        2389        2390        2491        2490
         4        2390        2391        2492        2491
         4        2391        2392        2493        2492
         4        2392        2393        2494        2493
         4        2393        2394        2495        2494
         4        2394        2395        2496        2495
         4        2395        2396        2497        2496
         4        2396        2397        2498        2497
         4        2397        2398        2499        2498
         4        2398        2399        2500        2499
         4        2399        2400        2501        2500
         4        2400        2401        2502        2501
         4        2401        2402        2503        2502
         4        2402        2403        2504        2503
         4        2403        2404        2505        2504
         4        2404        2405        2506        2505
         4        2405        2406        2507        2506
         4        2406        2407        2508        2507
         4        2407        2408        2509        2508
         4        2408        2409        2510        2509
         4        2409        2410        2511        2510
         4        2410        2411        2512        2511
         4        2411        2412        2513        2512
         4        2412        2413        2514        2513
         4        2413        2414        2515        2514
         4        2414        2415        2516        2515
         4        2415        2416        2517        2516
         4        2416        2417        2518        2517
         4        2417        2418        2519        2518
         4        2418        2419        2520        2519
         4        2419        2420        2521        2520
         4        2420        2421        2522        2521
         4        2421        2422        2523        2522
         4        2422        2423        2524        2523
         4        2424        2425        2526        2525
         4        2425        2426        2527        2526
         4        2426        2427        2528        2527
         4        2427        2428        2529        2528
         4        2428        2429        2530        2529
         4        2429        2430        2531        2530
         4        2430        2431        2532        2531
         4        2431        2432        2533        2532
         4        2432        2433        2534        2533
         4        2433        2434        2535        2534
         4        2434        2435        2536        2535
         4        2435        2436        2537        2536
         4        2436        2437        2538        2537
         4        2437        2438        2539        2538
         4        2438        2439        2540        2539
         4        2439        2440        2541        2540
         4        2440        2441        2542        2541
         4        2441        2442        2543        2542
         4        2442        2443        2544        2543
         4        2443        2444        2545        2544
         4        2444        2445        2546        2545
         4        2445        2446        2547        2546
         4        2446        2447        2548        2547
         4        2447        2448        2549        2548
         4        2448        2449        2550        2549
         4        2449        2450        2551        2550
         4        2450        2451        2552        2551
         4        2451        2452        2553        2552
         4        2452        2453        2554        2553
         4        2453        2454        2555        2554
         4        2454        2455        2556        2555
         4        2455        2456        2557        2556
         4        2456        2457        2558        2557
         4        2457        2458        2559        2558
         4        2458        2459        2560        2559
         4        2459        2460        2561        2560
         4        2460        2461        2562        2561
         4        2461        2462        2563        2562
         4        2462        2463        2564        2563
         4        2463        2464        2565        2564
         4        2464        2465        2566        2565
         4        2465        2466        2567        2566
         4        2466        2467        2568        2567
         4        2467        2468        2569        2568
         4        2468        2469        2570        2569
         4        2469        2470        2571        2570
         4        2470        2471        2572        2571
         4        2471        2472        2573        2572
         4        2472        2473        2574        2573
         4        2473        2474        2575        2574
         4        2474        2475        2576        2575
         4        2475        2476        2577        2576
         4        2476        2477        2578        2577
         4        2477        2478        2579        2578
         4        2478        2479        2580        2579
         4        2479        2480        2581        2580
         4        2480        2481        2582        2581
         4        2481        2482        2583        2582
         4        2482        2483        2584        2583
         4        2483        2484        2585        2584
         4        2484        2485        2586        2585
         4        2485        2486        2587        2586
         4        2486        2487        2588        2587
         4        2487        2488        2589        2588
         4        2488        2489        2590        2589
         4        2489        2490        2591        2590
         4        2490        2491        2592        2591
         4        2491        2492        2593        2592
         4        2492        2493        2594        2593
         4        2493        2494        2595        2594
         4        2494        2495        2596        2595
         4        2495        2496        2597        2596
         4        2496        2497        2598        2597
         4        2497        2498        2599        2598
         4        2498        2499        2600        2599
         4        2499        2500        2601        2600
         4        2500        2501        2602        2601
         4        2501        2502        2603        2602
         4        2502        2503        2604        2603
         4        2503        2504        2605        2604
         4        2504        2505        2606        2605
         4        2505        2506        2607        2606
         4        2506        2507        2608        2607
         4        2507        2508        2609        2608
         4        2508        2509        2610        2609
         4        2509        2510        2611        2610
         4        2510        2511        2612        2611
         4        2511        2512        2613        2612
         4        2512        2513        2614        2613
         4        2513        2514        2615        2614
         4        2514        2515        2616        2615
         4        2515        2516        2617        2616
         4        2516        2517        2618        2617
         4        2517        2518        2619        2618
         4        2518        2519        2620        2619
         4        2519        2520        2621        2620
         4        2520        2521        2622        2621
         4        2521        2522        2623        2622
         4        2522        2523        2624        2623
         4        2523        2524        2625        2624
         4        2525        2526        2627        2626
         4        2526        2527        2628        2627
         4        2527        2528        2629        2628
         4        2528        2529        2630        2629
         4        2529        2530        2631        2630
         4        2530        2531        2632        2631
         4        2531        2532        2633        2632
         4        2532        2533        2634        2633
         4        2533        2534        2635        2634
         4        2534        2535        2636        2635
         4        2535        2536        2637        2636
         4        2536        2537        2638        2637
         4        2537        2538        2639        2638
         4        2538        2539        2640        2639
         4        2539        2540        2641        2640
         4        2540        2541        2642        2641
         4        2541        2542        2643        2642
         4        2542        2543        2644        2643
         4        2543        2544        2645        2644
         4        2544        2545        2646        2645
         4        2545        2546        2647        2646
         4        2546        2547        2648        2647
         4        2547        2548        2649        2648
         4        2548        2549        2650        2649
         4        2549        2550        2651        2650
         4        2550        2551        2652        2651
         4        2551        2552        2653        2652
         4        2552        2553        2654        2653
         4        2553        2554        2655        2654
         4        2554        2555        2656        2655
         4        2555        2556        2657        2656
         4        2556        2557        2658        2657
         4        2557        2558        2659        2658
         4        2558        2559        2660        2659
         4        2559        2560        2661        2660
         4        2560        2561        2662        2661
         4        2561        2562        2663        2662
         4        2562        2563        2664        2663
         4        2563        2564        2665        2664
         4        2564        2565        2666        2665
         4        2565        2566        2667        2666
         4        2566        2567        2668        2667
         4        2567        2568        2669        2668
         4        2568        2569        2670        2669
         4        2569        2570        2671        2670
         4        2570        2571        2672        2671
         4        2571        2572        2673        2672
         4        2572        2573        2674        2673
         4        2573        2574        2675        2674
         4        2574        2575        2676        2675
         4        2575        2576        2677        2676
         4        2576        2577        2678        2677
         4        2577        2578        2679        2678
         4        2578        2579        2680        2679
         4        2579        2580        2681        2680
         4        2580        2581        2682        2681
         4        2581        2582        2683        2682
         4        2582        2583        2684        2683
         4        2583        2584        2685        2684
         4        2584        2585        2686        2685
         4        2585        2586        2687        2686
         4        2586        2587        2688        2687
         4        2587        2588        2689        2688
         4        2588        2589        2690        2689
         4        2589        2590        2691        2690
         4        2590        2591        2692        2691
         4        2591        2592        2693        2692
         4        2592        2593        2694        2693
         4        2593        2594        2695        2694
         4        2594        2595        2696        2695
         4        2595        2596        2697        2696
         4        2596        2597        2698        2697
         4        2597        2598        2699        2698
         4        2598        2599        2700        2699
         4        2599        2600        2701        2700
         4        2600        2601        2702        2701
         4        2601        2602        2703        2702
         4        2602        2603        2704        2703
         4        2603        2604        2705        2704
         4        2604        2605        2706        2705
         4        2605        2606        2707        2706
         4        2606        2607        2708        2707
         4        2607        2608        2709        2708
         4        2608        2609        2710        2709
         4        2609        2610        2711        2710
         4        2610        2611        2712        2711
         4        2611        2612        2713        2712
         4        2612        2613        2714        2713
         4        2613        2614        2715        2714
         4        2614        2615        2716        2715
         4        2615        2616        2717        2716
         4        2616        2617        2718        2717
         4        2617        2618        2719        2718
         4        2618        2619        2720        2719
         4        2619        2620        2721        2720
         4        2620        2621        2722        2721
         4        2621        2622        2723        2722
         4        2622        2623        2724        2723
         4        2623        2624        2725        2724
         4        2624        2625        2726        2725
         4        2626        2627        2728        2727
         4        2627        2628        2729        2728
         4        2628        2629        2730        2729
         4        2629        2630        2731        2730
         4        2630        2631        2732        2731
         4        2631        2632        2733        2732
         4        2632        2633        2734        2733
         4        2633        2634        2735        2734
         4        2634        2635        2736        2735
         4        2635        2636        2737        2736
         4        2636        2637        2738        2737
         4        2637        2638        2739        2738
         4        2638        2639        2740        2739
         4        2639        2640        2741        2740
         4        2640        2641        2742        2741
         4        2641        2642        2743        2742
         4        2642        2643        2744        2743
         4        2643        2644        2745        2744
         4        2644        2645        2746        2745
         4        2645        2646        2747        2746
         4        2646        2647        2748        2747
         4        2647        2648        2749        2748
         4        2648        2649        2750        2749
         4        2649        2650        2751        2750
         4        2650        2651        2752        2751
         4        2651        2652        2753        2752
         4        2652        2653        2754        2753
         4        2653        2654        2755        2754
         4        2654        2655        2756        2755
         4        2655        2656        2757        2756
         4        2656        2657        2758        2757
         4        2657        2658        2759        2758
         4        2658        2659        2760        2759
         4        2659        2660        2761        2760
         4        2660        2661        2762        2761
         4        2661        2662        2763        2762
         4        2662        2663        2764        2763
         4        2663        2664        2765        2764
         4        2664        2665        2766        2765
         4        2665        2666        2767        2766
         4        2666        2667        2768        2767
         4        2667        2668        2769        2768
         4        2668        2669        2770        2769
         4        2669        2670        2771        2770
         4        2670        2671        2772        2771
         4        2671        2672        2773        2772
         4        2672        2673        2774        2773
         4        2673        2674        2775        2774
         4        2674        2675        2776        2775
         4        2675        2676        2777        2776
         4        2676        2677        2778        2777
         4        2677        2678        2779        2778
         4        2678        2679        2780        2779
         4        2679        2680        2781        2780
         4        2680        2681        2782        2781
         4        2681        2682        2783        2782
         4        2682        2683        2784        2783
         4        2683        2684        2785        2784
         4        2684        2685        2786        2785
         4        2685        2686        2787        2786
         4        2686        2687        2788        2787
         4        2687        2688        2789        2788
         4        2688        2689        2790        2789
         4        2689        2690        2791        2790
         4        2690        2691        2792        2791
         4        2691        2692        2793        2792
         4        2692        2693        2794        2793
         4        2693        2694        2795        2794
         4        2694        2695        2796        2795
         4        2695        2696        2797        2796
         4        2696        2697        2798        2797
         4        2697        2698        2799        2798
         4        2698        2699        2800        2799
         4        2699        2700        2801        2800
         4        2700        2701        2802        2801
         4        2701        2702        2803        2802
         4        2702        2703        2804        2803
         4        2703        2704        2805        2804
         4        2704        2705        2806        2805
         4        2705        2706        2807        2806
         4        2706        2707        2808        2807
         4        2707        2708        2809        2808
         4        2708        2709        2810        2809
         4        2709        2710        2811        2810
         4        2710        2711        2812        2811
         4        2711        2712        2813        2812
         4        2712        2713        2814        2813
         4        2713        2714        2815        2814
         4        2714        2715        2816        2815
         4        2715        2716        2817        2816
         4        2716        2717        2818        2817
         4        2717        2718        2819        2818
         4        2718        2719        2820        2819
         4        2719        2720        2821        2820
         4        2720        2721        2822        2821
         4        2721        2722        2823        2822
         4        2722        2723        2824        2823
         4        2723        2724        2825        2824
         4        2724        2725        2826        2825
         4        2725        2726        2827        2826
         4        2727        2728        2829        2828
         4        2728        2729        2830        2829
         4        2729        2730        2831        2830
         4        2730        2731        2832        2831
         4        2731        2732        2833        2832
         4        2732        2733        2834        2833
         4        2733        2734        2835        2834
         4        2734        2735        2836        2835
         4        2735        2736        2837        2836
         4        2736        2737        2838        2837
         4        2737        2738        2839        2838
         4        2738        2739        2840        2839
         4        2739        2740        2841        2840
         4        2740        2741        2842        2841
         4        2741        2742        2843        2842
         4        2742        2743        2844        2843
         4        2743        2744        2845        2844
         4        2744        2745        2846        2845
         4        2745        2746        2847        2846
         4        2746        2747        2848        2847
         4        2747        2748        2849        2848
         4        2748        2749        2850        2849
         4        2749        2750        2851        2850
         4        2750        2751        2852        2851
         4        2751        2752        2853        2852
         4        2752        2753        2854        2853
         4        2753        2754        2855        2854
         4        2754        2755        2856        2855
         4        2755        2756        2857        2856
         4        2756        2757        2858        2857
         4        2757        2758        2859        2858
         4        2758        2759        2860        2859
         4        2759        2760        2861        2860
         4        2760        2761        2862        2861
         4        2761        2762        2863        2862
         4        2762        2763        2864        2863
         4        2763        2764        2865        2864
         4        2764        2765        2866        2865
         4        2765        2766        2867        2866
         4        2766        2767        2868        2867
         4        2767        2768        2869        2868
         4        2768        2769        2870        2869
         4        2769        2770        2871        2870
         4        2770        2771        2872        2871
         4        2771        2772        2873        2872
         4        2772        2773        2874        2873
         4        2773        2774        2875        2874
         4        2774        2775        2876        2875
         4        2775        2776        2877        2876
         4        2776        2777        2878        2877
         4        2777        2778        2879        2878
         4        2778        2779        2880        2879
         4        2779        2780        2881        2880
         4        2780        2781        2882        2881
         4        2781        2782        2883        2882
         4        2782        2783        2884        2883
         4        2783        2784        2885        2884
         4        2784        2785        2886        2885
         4        2785        2786        2887        2886
         4        2786        2787        2888        2887
         4        2787        2788        2889        2888
         4        2788        2789        2890        2889
         4        2789        2790        2891        2890
         4        2790        2791        2892        2891
         4        2791        2792        2893        2892
         4        2792        2793        2894        2893
         4        2793        2794        2895        2894
         4        2794        2795        2896        2895
         4        2795        2796        2897        2896
         4        2796        2797        2898        2897
         4        2797        2798        2899        2898
         4        2798        2799        2900        2899
         4        2799        2800        2901        2900
         4        2800        2801        2902        2901
         4        2801        2802        2903        2902
         4        2802        2803        2904        2903
         4        2803        2804        2905        2904
         4        2804        2805        2906        2905
         4        2805        2806        2907        2906
         4        2806        2807        2908        2907
         4        2807        2808        2909        2908
         4        2808        2809        2910        2909
         4        2809        2810        2911        2910
         4        2810        2811        2912        2911
         4        2811        2812        2913        2912
         4        2812        2813        2914        2913
         4        2813        2814        2915        2914
         4        2814        2815        2916        2915
         4        2815        2816        2917        2916
         4        2816        2817        2918        2917
         4        2817        2818        2919        2918
         4        2818        2819        2920        2919
         4        2819        2820        2921        2920
         4        2820        2821        2922        2921
         4        2821        2822        2923        2922
         4        2822        2823        2924        2923
         4        2823        2824        2925        2924
         4        2824        2825        2926        2925
         4        2825        2826        2927        2926
         4        2826        2827        2928        2927
         4        2828        2829        2930        2929
         4        2829        2830        2931        2930
         4        2830        2831        2932        2931
         4        2831        2832        2933        2932
         4        2832        2833        2934        2933
         4        2833        2834        2935        2934
         4        2834        2835        2936        2935
         4        2835        2836        2937        2936
         4        2836        2837        2938        2937
         4        2837        2838        2939        2938
         4        2838        2839        2940        2939
         4        2839        2840        2941        2940
         4        2840        2841        2942        2941
         4        2841        2842        2943        2942
         4        2842        2843        2944        2943
         4        2843        2844        2945        2944
         4        2844        2845        2946        2945
         4        2845        2846        2947        2946
         4        2846        2847        2948        2947
         4        2847        2848        2949        2948
         4        2848        2849        2950        2949
         4        2849        2850        2951        2950
         4        2850        2851        2952        2951
         4        2851        2852        2953        2952
         4        2852        2853        2954        2953
         4        2853        2854        2955        2954
         4        2854        2855        2956        2955
         4        2855        2856        2957        2956
         4        2856        2857        2958        2957
         4        2857        2858        2959        2958
         4        2858        2859        2960        2959
         4        2859        2860        2961        2960
         4        2860        2861        2962        2961
         4        2861        2862        2963        2962
         4        2862        2863        2964        2963
         4        2863        2864        2965        2964
         4        2864        2865        2966        2965
         4        2865        2866        2967        2966
         4        2866        2867        2968        2967
         4        2867        2868        2969        2968
         4        2868        2869        2970        2969
         4        2869        2870        2971        2970
         4        2870        2871        2972        2971
         4        2871        2872        2973        2972
         4        2872        2873        2974        2973
         4        2873        2874        2975        2974
         4        2874        2875        2976        2975
         4        2875        2876        2977        2976
         4        2876        2877        2978        2977
         4        2877        2878        2979        2978
         4        2878        2879        2980        2979
         4        2879        2880        2981        2980
         4        2880        2881        2982        2981
         4        2881        2882        2983        2982
         4        2882        2883        2984        2983
         4        2883        2884        2985        2984
         4        2884        2885        2986        2985
         4        2885        2886        2987        2986
         4        2886        2887        2988        2987
         4        2887        2888        2989        2988
         4        2888        2889        2990        2989
         4        2889        2890        2991        2990
         4        2890        2891        2992        2991
         4        2891        2892        2993        2992
         4        2892        2893        2994        2993
         4        2893        2894        2995        2994
         4        2894        2895        2996        2995
         4        2895        2896        2997        2996
         4        2896        2897        2998        2997
         4        2897        2898        2999        2998
         4        2898        2899        3000        2999
         4        2899        2900        3001        3000
         4        2900        2901        3002        3001
         4        2901        2902        3003        3002
         4        2902        2903        3004        3003
         4        2903        2904        3005        3004
         4        2904        2905        3006        3005
         4        2905        2906        3007        3006
         4        2906        2907        3008        3007
         4        2907        2908        3009        3008
         4        2908        2909        3010        3009
         4        2909        2910        3011        3010
         4        2910        2911        3012        3011
         4        2911        2912        3013        3012
         4        2912        2913        3014        3013
         4        2913        2914        3015        3014
         4        2914        2915        3016        3015
         4        2915        2916        3017        3016
         4        2916        2917        3018        3017
         4        2917        2918        3019        3018
         4        2918        2919        3020        3019
         4        2919        2920        3021        3020
         4        2920        2921        3022        3021
         4        2921        2922        3023        3022
         4        2922        2923        3024        3023
         4        2923        2924        3025        3024
         4        2924        2925        3026        3025
         4        2925        2926        3027        3026
         4        2926        2927        3028        3027
         4        2927        2928        3029        3028
         4        2929        2930        3031        3030
         4        2930        2931        3032        3031
         4        2931        2932        3033        3032
         4        2932        2933        3034        3033
         4        2933        2934        3035        3034
         4        2934        2935        3036        3035
         4        2935        2936        3037        3036
         4        2936        2937        3038        3037
         4        2937        2938        3039        3038
         4        2938        2939        3040        3039
         4        2939        2940        3041        3040
         4        2940        2941        3042        3041
         4        2941        2942        3043        3042
         4        2942        2943        3044        3043
         4        2943        2944        3045        3044
         4        2944        2945        3046        3045
         4        2945        2946        3047        3046
         4        2946        2947        3048        3047
         4        2947        2948        3049        3048
         4        2948        2949        3050        3049
         4        2949        2950        3051        3050
         4        2950        2951        3052        3051
         4        2951        2952        3053        3052
         4        2952        2953        3054        3053
         4        2953        2954        3055        3054
         4        2954        2955        3056        3055
         4        2955        2956        3057        3056
         4        2956        2957        3058        3057
         4        2957        2958        3059        3058
         4        2958        2959        3060        3059
         4        2959        2960        3061        3060
         4        2960        2961        3062        3061
         4        2961        2962        3063        3062
         4        2962        2963        3064        3063
         4        2963        2964        3065        3064
         4        2964        2965        3066        3065
         4        2965        2966        3067        3066
         4        2966        2967        3068        3067
         4        2967        2968        3069        3068
         4        2968        2969        3070        3069
         4        2969        2970        3071        3070
         4        2970        2971        3072        3071
         4        2971        2972        3073        3072
         4        2972        2973        3074        3073
         4        2973        2974        3075        3074
         4        2974        2975        3076        3075
         4        2975        2976        3077        3076
         4        2976        2977        3078        3077
         4        2977        2978        3079        3078
         4        2978        2979        3080        3079
         4        2979        2980        3081        3080
         4        2980        2981        3082        3081
         4        2981        2982        3083        3082
         4        2982        2983        3084        3083
         4        2983        2984        3085        3084
         4        2984        2985        3086        3085
         4        2985        2986        3087        3086
         4        2986        2987        3088        3087
         4        2987        2988        3089        3088
         4        2988        2989        3090        3089
         4        2989        2990        3091        3090
         4        2990        2991        3092        3091
         4        2991        2992        3093        3092
         4        2992        2993        3094        3093
         4        2993        2994        3095        3094
         4        2994        2995        3096        3095
         4        2995        2996        3097        3096
         4        2996        2997        3098        3097
         4        2997        2998        3099        3098
         4        2998        2999        3100        3099
         4        2999        3000        3101        3100
         4        3000        3001        3102        3101
         4        3001        3002        3103        3102
         4        3002        3003        3104        3103
         4        3003        3004        3105        3104
         4        3004        3005        3106        3105
         4        3005        3006        3107        3106
         4        3006        3007        3108        3107
         4        3007        3008        3109        3108
         4        3008        3009        3110        3109
         4        3009        3010        3111        3110
         4        3010        3011        3112        3111
         4        3011        3012        3113        3112
         4        3012        3013        3114        3113
         4        3013        3014        3115        3114
         4        3014        3015        3116        3115
         4        3015        3016        3117        3116
         4        3016        3017        3118        3117
         4        3017        3018        3119        3118
         4        3018        3019        3120        3119
         4        3019        3020        3121        3120
         4        3020        3021        3122        3121
         4        3021        3022        3123        3122
         4        3022        3023        3124        3123
         4        3023        3024        3125        3124
         4        3024        3025        3126        3125
         4        3025        3026        3127        3126
         4        3026        3027        3128        3127
         4        3027        3028        3129        3128
         4        3028        3029        3130        3129
         4        3030        3031        3132        3131
         4        3031        3032        3133        3132
         4        3032        3033        3134        3133
         4        3033        3034        3135        3134
         4        3034        3035        3136        3135
         4        3035        3036        3137        3136
         4        3036        3037        3138        3137
         4        3037        3038        3139        3138
         4        3038        3039        3140        3139
         4        3039        3040        3141        3140
         4        3040        3041        3142        3141
         4        3041        3042        3143        3142
         4        3042        3043        3144        3143
         4        3043        3044        3145        3144
         4        3044        3045        3146        3145
         4        3045        3046        3147        3146
         4        3046        3047        3148        3147
         4        3047        3048        3149        3148
         4        3048        3049        3150        3149
         4        3049        3050        3151        3150
         4        3050        3051        3152        3151
         4        3051        3052        3153        3152
         4        3052        3053        3154        3153
         4        3053        3054        3155        3154
         4        3054        3055        3156        3155
         4        3055        3056        3157        3156
         4        3056        3057        3158        3157
         4        3057        3058        3159        3158
         4        3058        3059        3160        3159
         4        3059        3060        3161        3160
         4        3060        3061        3162        3161
         4        3061        3062        3163        3162
         4        3062        3063        3164        3163
         4        3063        3064        3165        3164
         4        3064        3065        3166        3165
         4        3065        3066        3167        3166
         4        3066        3067        3168        3167
         4        3067        3068        3169        3168
         4        3068        3069        3170        3169
         4        3069        3070        3171        3170
         4        3070        3071        3172        3171
         4        3071        3072        3173        3172
         4        3072        3073        3174        3173
         4        3073        3074        3175        3174
         4        3074        3075        3176        3175
         4        3075        3076        3177        3176
         4        3076        3077        3178        3177
         4        3077        3078        3179        3178
         4        3078        3079        3180        3179
         4        3079        3080        3181        3180
         4        3080        3081        3182        3181
         4        3081        3082        3183        3182
         4        3082        3083        3184        3183
         4        3083        3084        3185        3184
         4        3084        3085        3186        3185
         4        3085        3086        3187        3186
         4        3086        3087        3188        3187
         4        3087        3088        3189        3188
         4        3088        3089        3190        3189
         4        3089        3090        3191        3190
         4        3090        3091        3192        3191
         4        3091        3092        3193        3192
         4        3092        3093        3194        3193
         4        3093        3094        3195        3194
         4        3094        3095        3196        3195
         4        3095        3096        3197        3196
         4        3096        3097        3198        3197
         4        3097        3098        3199        3198
         4        3098        3099        3200        3199
         4        3099        3100        3201        3200
         4        3100        3101        3202        3201
         4        3101        3102        3203        3202
         4        3102        3103        3204        3203
         4        3103        3104        3205        3204
         4        3104        3105        3206        3205
         4        3105        3106        3207        3206
         4        3106        3107        3208        3207
         4        3107        3108        3209        3208
         4        3108        3109        3210        3209
         4        3109        3110        3211        3210
         4        3110        3111        3212        3211
         4        3111        3112        3213        3212
         4        3112        3113        3214        3213
         4        3113        3114        3215        3214
         4        3114        3115        3216        3215
         4        3115        3116        3217        3216
         4        3116        3117        3218        3217
         4        3117        3118        3219        3218
         4        3118        3119        3220        3219
         4        3119        3120        3221        3220
         4        3120        3121        3222        3221
         4        3121        3122        3223        3222
         4        3122        3123        3224        3223
         4        3123        3124        3225        3224
         4        3124        3125        3226        3225
         4        3125        3126        3227        3226
         4        3126        3127        3228        3227
         4        3127        3128        3229        3228
         4        3128        3129        3230        3229
         4        3129        3130        3231        3230
         4        3131        3132        3233        3232
         4        3132        3133        3234        3233
         4        3133        3134        3235        3234
         4        3134        3135        3236        3235
         4        3135        3136        3237        3236
         4        3136        3137        3238        3237
         4        3137        3138        3239        3238
         4        3138        3139        3240        3239
         4        3139        3140        3241        3240
         4        3140        3141        3242        3241
         4        3141        3142        3243        3242
         4        3142        3143        3244        3243
         4        3143        3144        3245        3244
         4        3144        3145        3246        3245
         4        3145        3146        3247        3246
         4        3146        3147        3248        3247
         4        3147        3148        3249        3248
         4        3148        3149        3250        3249
         4        3149        3150        3251        3250
         4        3150        3151        3252        3251
         4        3151        3152        3253        3252
         4        3152        3153        3254        3253
         4        3153        3154        3255        3254
         4        3154        3155        3256        3255
         4        3155        3156        3257        3256
         4        3156        3157        3258        3257
         4        3157        3158        3259        3258
         4        3158        3159        3260        3259
         4        3159        3160        3261        3260
         4        3160        3161        3262        3261
         4        3161        3162        3263        3262
         4        3162        3163        3264        3263
         4        3163        3164        3265        3264
         4        3164        3165        3266        3265
         4        3165        3166        3267        3266
         4        3166        3167        3268        3267
         4        3167        3168        3269        3268
         4        3168        3169        3270        3269
         4        3169        3170        3271        3270
         4        3170        3171        3272        3271
         4        3171        3172        3273        3272
         4        3172        3173        3274        3273
         4        3173        3174        3275        3274
         4        3174        3175        3276        3275
         4        3175        3176        3277        3276
         4        3176        3177        3278        3277
         4        3177        3178        3279        3278
         4        3178        3179        3280        3279
         4        3179        3180        3281        3280
         4        3180        3181        3282        3281
         4        3181        3182        3283        3282
         4        3182        3183        3284        3283
         4        3183        3184        3285        3284
         4        3184        3185        3286        3285
         4        3185        3186        3287        3286
         4        3186        3187        3288        3287
         4        3187        3188        3289        3288
         4        3188        3189        3290        3289
         4        3189        3190        3291        3290
         4        3190        3191        3292        3291
         4        3191        3192        3293        3292
         4        3192        3193        3294        3293
         4        3193        3194        3295        3294
         4        3194        3195        3296        3295
         4        3195        3196        3297        3296
         4        3196        3197        3298        3297
         4        3197        3198        3299        3298
         4        3198        3199        3300        3299
         4        3199        3200        3301        3300
         4        3200        3201        3302        3301
         4        3201        3202        3303        3302
         4        3202        3203        3304        3303
         4        3203        3204        3305        3304
         4        3204        3205        3306        3305
         4        3205        3206        3307        3306
         4        3206        3207        3308        3307
         4        3207        3208        3309        3308
         4        3208        3209        3310        3309
         4        3209        3210        3311        3310
         4        3210        3211        3312        3311
         4        3211        3212        3313        3312
         4        3212        3213        3314        3313
         4        3213        3214        3315        3314
         4        3214        3215        3316        3315
         4        3215        3216        3317        3316
         4        3216        3217        3318        3317
         4        3217        3218        3319        3318
         4        3218        3219        3320        3319
         4        3219        3220        3321        3320
         4        3220        3221        3322        3321
         4        3221        3222        3323        3322
         4        3222        3223        3324        3323
         4        3223        3224        3325        3324
         4        3224        3225        3326        3325
         4        3225        3226        3327        3326
         4        3226        3227        3328        3327
         4        3227        3228        3329        3328
         4        3228        3229        3330        3329
         4        3229        3230        3331        3330
         4        3230        3231        3332        3331
         4        3232        3233        3334        3333
         4        3233        3234        3335        3334
         4        3234        3235        3336        3335
         4        3235        3236        3337        3336
         4        3236        3237        3338        3337
         4        3237        3238        3339        3338
         4        3238        3239        3340        3339
         4        3239        3240        3341        3340
         4        3240        3241        3342        3341
         4        3241        3242        3343        3342
         4        3242        3243        3344        3343
         4        3243        3244        3345        3344
         4        3244        3245        3346        3345
         4        3245        3246        3347        3346
         4        3246        3247        3348        3347
         4        3247        3248        3349        3348
         4        3248        3249        3350        3349
         4        3249        3250        3351        3350
         4        3250        3251        3352        3351
         4        3251        3252        3353        3352
         4        3252        3253        3354        3353
         4        3253        3254        3355        3354
         4        3254        3255        3356        3355
         4        3255        3256        3357        3356
         4        3256        3257        3358        3357
         4        3257        3258        3359        3358
         4        3258        3259        3360        3359
         4        3259        3260        3361        3360
         4        3260        3261        3362        3361
         4        3261        3262        3363        3362
         4        3262        3263        3364        3363
         4        3263        3264        3365        3364
         4        3264        3265        3366        3365
         4        3265        3266        3367        3366
         4        3266        3267        3368        3367
         4        3267        3268        3369        3368
         4        3268        3269        3370        3369
         4        3269        3270        3371        3370
         4        3270        3271        3372        3371
         4        3271        3272        3373        3372
         4        3272        3273        3374        3373
         4        3273        3274        3375        3374
         4        3274        3275        3376        3375
         4        3275        3276        3377        3376
         4        3276        3277        3378        3377
         4        3277        3278        3379        3378
         4        3278        3279        3380        3379
         4        3279        3280        3381        3380
         4        3280        3281        3382        3381
         4        3281        3282        3383        3382
         4        3282        3283        3384        3383
         4        3283        3284        3385        3384
         4        3284        3285        3386        3385
         4        3285        3286        3387        3386
         4        3286        3287        3388        3387
         4        3287        3288        3389        3388
         4        3288        3289        3390        3389
         4        3289        3290        3391        3390
         4        3290        3291        3392        3391
         4        3291        3292        3393        3392
         4        3292        3293        3394        3393
         4        3293        3294        3395        3394
         4        3294        3295        3396        3395
         4        3295        3296        3397        3396
         4        3296        3297        3398        3397
         4        3297        3298        3399        3398
         4        3298        3299        3400        3399
         4        3299        3300        3401        3400
         4        3300        3301        3402        3401
         4        3301        3302        3403        3402
         4        3302        3303        3404        3403
         4        3303        3304        3405        3404
         4        3304        3305        3406        3405
         4        3305        3306        3407        3406
         4        3306        3307        3408        3407
         4        3307        3308        3409        3408
         4        3308        3309        3410        3409
         4        3309        3310        3411        3410
         4        3310        3311        3412        3411
         4        3311        3312        3413        3412
         4        3312        3313        3414        3413
         4        3313        3314        3415        3414
         4        3314        3315        3416        3415
         4        3315        3316        3417        3416
         4        3316        3317        3418        3417
         4        3317        3318        3419        3418
         4        3318        3319        3420        3419
         4        3319        3320        3421        3420
         4        3320        3321        3422        3421
         4        3321        3322        3423        3422
         4        3322        3323        3424        3423
         4        3323        3324        3425        3424
         4        3324        3325        3426        3425
         4        3325        3326        3427        3426
         4        3326        3327        3428        3427
         4        3327        3328        3429        3428
         4        3328        3329        3430        3429
         4        3329        3330        3431        3430
         4        3330        3331        3432        3431
         4        3331        3332        3433        3432
         4        3333        3334        3435        3434
         4        3334        3335        3436        3435
         4        3335        3336        3437        3436
         4        3336        3337        3438        3437
         4        3337        3338        3439        3438
         4        3338        3339        3440        3439
         4        3339        3340        3441        3440
         4        3340        3341        3442        3441
         4        3341        3342        3443        3442
         4        3342        3343        3444        3443
         4        3343        3344        3445        3444
         4        3344        3345        3446        3445
         4        3345        3346        3447        3446
         4        3346        3347        3448        3447
         4        3347        3348        3449        3448
         4        3348        3349        3450        3449
         4        3349        3350        3451        3450
         4        3350        3351        3452        3451
         4        3351        3352        3453        3452
         4        3352        3353        3454        3453
         4        3353        3354        3455        3454
         4        3354        3355        3456        3455
         4        3355        3356        3457        3456
         4        3356        3357        3458        3457
         4        3357        3358        3459        3458
         4        3358        3359        3460        3459
         4        3359        3360        3461        3460
         4        3360        3361        3462        3461
         4        3361        3362        3463        3462
         4        3362        3363        3464        3463
         4        3363        3364        3465        3464
         4        3364        3365        3466        3465
         4        3365        3366        3467        3466
         4        3366        3367        3468        3467
         4        3367        3368        3469        3468
         4        3368        3369        3470        3469
         4        3369        3370        3471        3470
         4        3370        3371        3472        3471
         4        3371        3372        3473        3472
         4        3372        3373        3474        3473
         4        3373        3374        3475        3474
         4        3374        3375        3476        3475
         4        3375        3376        3477        3476
         4        3376        3377        3478        3477
         4        3377        3378        3479        3478
         4        3378        3379        3480        3479
         4        3379        3380        3481        3480
         4        3380        3381        3482        3481
         4        3381        3382        3483        3482
         4        3382        3383        3484        3483
         4        3383        3384        3485        3484
         4        3384        3385        3486        3485
         4        3385        3386        3487        3486
         4        3386        3387        3488        3487
         4        3387        3388        3489        3488
         4        3388        3389        3490        3489
         4        3389        3390        3491        3490
         4        3390        3391        3492        3491
         4        3391        3392        3493        3492
         4        3392        3393        3494        3493
         4        3393        3394        3495        3494
         4        3394        3395        3496        3495
         4        3395        3396        3497        3496
         4        3396        3397        3498        3497
         4        3397        3398        3499        3498
         4        3398        3399        3500        3499
         4        3399        3400        3501        3500
         4        3400        3401        3502        3501
         4        3401        3402        3503        3502
         4        3402        3403        3504        3503
         4        3403        3404        3505        3504
         4        3404        3405        3506        3505
         4        3405        3406        3507        3506
         4        3406        3407        3508        3507
         4        3407        3408        3509        3508
         4        3408        3409        3510        3509
         4        3409        3410        3511        3510
         4        3410        3411        3512        3511
         4        3411        3412        3513        3512
         4        3412        3413        3514        3513
         4        3413        3414        3515        3514
         4        3414        3415        3516        3515
         4        3415        3416        3517        3516
         4        3416        3417        3518        3517
         4        3417        3418        3519        3518
         4        3418        3419        3520        3519
         4        3419        3420        3521        3520
         4        3420        3421        3522        3521
         4        3421        3422        3523        3522
         4        3422        3423        3524        3523
         4        3423        3424        3525        3524
         4        3424        3425        3526        3525
         4        3425        3426        3527        3526
         4        3426        3427        3528        3527
         4        3427        3428        3529        3528
         4        3428        3429        3530        3529
         4        3429        3430        3531        3530
         4        3430        3431        3532        3531
         4        3431        3432        3533        3532
         4        3432        3433        3534        3533
         4        3434        3435        3536        3535
         4        3435        3436        3537        3536
         4        3436        3437        3538        3537
         4        3437        3438        3539        3538
         4        3438        3439        3540        3539
         4        3439        3440        3541        3540
         4        3440        3441        3542        3541
         4        3441        3442        3543        3542
         4        3442        3443        3544        3543
         4        3443        3444        3545        3544
         4        3444        3445        3546        3545
         4        3445        3446        3547        3546
         4        3446        3447        3548        3547
         4        3447        3448        3549        3548
         4        3448        3449        3550        3549
         4        3449        3450        3551        3550
         4        3450        3451        3552        3551
         4        3451        3452        3553        3552
         4        3452        3453        3554        3553
         4        3453        3454        3555        3554
         4        3454        3455        3556        3555
         4        3455        3456        3557        3556
         4        3456        3457        3558        3557
         4        3457        3458        3559        3558
         4        3458        3459        3560        3559
         4        3459        3460        3561        3560
         4        3460        3461        3562        3561
         4        3461        3462        3563        3562
         4        3462        3463        3564        3563
         4        3463        3464        3565        3564
         4        3464        3465        3566        3565
         4        3465        3466        3567        3566
         4        3466        3467        3568        3567
         4        3467        3468        3569        3568
         4        3468        3469        3570        3569
         4        3469        3470        3571        3570
         4        3470        3471        3572        3571
         4        3471        3472        3573        3572
         4        3472        3473        3574        3573
         4        3473        3474        3575        3574
         4        3474        3475        3576        3575
         4        3475        3476        3577        3576
         4        3476        3477        3578        3577
         4        3477        3478        3579        3578
         4        3478        3479        3580        3579
         4        3479        3480        3581        3580
         4        3480        3481        3582        3581
         4        3481        3482        3583        3582
         4        3482        3483        3584        3583
         4        3483        3484        3585        3584
         4        3484        3485        3586        3585
         4        3485        3486        3587        3586
         4        3486        3487        3588        3587
         4        3487        3488        3589        3588
         4        3488        3489        3590        3589
         4        3489        3490        3591        3590
         4        3490        3491        3592        3591
         4        3491        3492        3593        3592
         4        3492        3493        3594        3593
         4        3493        3494        3595        3594
         4        3494        3495        3596        3595
         4        3495        3496        3597        3596
         4        3496        3497        3598        3597
         4        3497        3498        3599        3598
         4        3498        3499        3600        3599
         4        3499        3500        3601        3600
         4        3500        3501        3602        3601
         4        3501        3502        3603        3602
         4        3502        3503        3604        3603
         4        3503        3504        3605        3604
         4        3504        3505        3606        3605
         4        3505        3506        3607        3606
         4        3506        3507        3608        3607
         4        3507        3508        3609        3608
         4        3508        3509        3610        3609
         4        3509        3510        3611        3610
         4        3510        3511        3612        3611
         4        3511        3512        3613        3612
         4        3512        3513        3614        3613
         4        3513        3514        3615        3614
         4        3514        3515        3616        3615
         4        3515        3516        3617        3616
         4        3516        3517        3618        3617
         4        3517        3518        3619        3618
         4        3518        3519        3620        3619
         4        3519        3520        3621        3620
         4        3520        3521        3622        3621
         4        3521        3522        3623        3622
         4        3522        3523        3624        3623
         4        3523        3524        3625        3624
         4        3524        3525        3626        3625
         4        3525        3526        3627        3626
         4        3526        3527        3628        3627
         4        3527        3528        3629        3628
         4        3528        3529        3630        3629
         4        3529        3530        3631        3630
         4        3530        3531        3632        3631
         4        3531        3532        3633        3632
         4        3532        3533        3634        3633
         4        3533        3534        3635        3634
         4        3535        3536        3637        3636
         4        3536        3537        3638        3637
         4        3537        3538        3639        3638
         4        3538        3539        3640        3639
         4        3539        3540        3641        3640
         4        3540        3541        3642        3641
         4        3541        3542        3643        3642
         4        3542        3543        3644        3643
         4        3543        3544        3645        3644
         4        3544        3545        3646        3645
         4        3545        3546        3647        3646
         4        3546        3547        3648        3647
         4        3547        3548        3649        3648
         4        3548        3549        3650        3649
         4        3549        3550        3651        3650
         4        3550        3551        3652        3651
         4        3551        3552        3653        3652
         4        3552        3553        3654        3653
         4        3553        3554        3655        3654
         4        3554        3555        3656        3655
         4        3555        3556        3657        3656
         4        3556        3557        3658        3657
         4        3557        3558        3659        3658
         4        3558        3559        3660        3659
         4        3559        3560        3661        3660
         4        3560        3561        3662        3661
         4        3561        3562        3663        3662
         4        3562        3563        3664        3663
         4        3563        3564        3665        3664
         4        3564        3565        3666        3665
         4        3565        3566        3667        3666
         4        3566        3567        3668        3667
         4        3567        3568        3669        3668
         4        3568        3569        3670        3669
         4        3569        3570        3671        3670
         4        3570        3571        3672        3671
         4        3571        3572        3673        3672
         4        3572        3573        3674        3673
         4        3573        3574        3675        3674
         4        3574        3575        3676        3675
         4        3575        3576        3677        3676
         4        3576        3577        3678        3677
         4        3577        3578        3679        3678
         4        3578        3579        3680        3679
         4        3579        3580        3681        3680
         4        3580        3581        3682        3681
         4        3581        3582        3683        3682
         4        3582        3583        3684        3683
         4        3583        3584        3685        3684
         4        3584        3585        3686        3685
         4        3585        3586        3687        3686
         4        3586        3587        3688        3687
         4        3587        3588        3689        3688
         4        3588        3589        3690        3689
         4        3589        3590        3691        3690
         4        3590        3591        3692        3691
         4        3591        3592        3693        3692
         4        3592        3593        3694        3693
         4        3593        3594        3695        3694
         4        3594        3595        3696        3695
         4        3595        3596        3697        3696
         4        3596        3597        3698        3697
         4        3597        3598        3699        3698
         4        3598        3599        3700        3699
         4        3599        3600        3701        3700
         4        3600        3601        3702        3701
         4        3601        3602        3703        3702
         4        3602        3603        3704        3703
         4        3603        3604        3705        3704
         4        3604        3605        3706        3705
         4        3605        3606        3707        3706
         4        3606        3607        3708        3707
         4        3607        3608        3709        3708
         4        3608        3609        3710        3709
         4        3609        3610        3711        3710
         4        3610        3611        3712        3711
         4        3611        3612        3713        3712
         4        3612        3613        3714        3713
         4        3613        3614        3715        3714
         4        3614        3615        3716        3715
         4        3615        3616        3717        3716
         4        3616        3617        3718        3717
         4        3617        3618        3719        3718
         4        3618        3619        3720        3719
         4        3619        3620        3721        3720
         4        3620        3621        3722        3721
         4        3621        3622        3723        3722
         4        3622        3623        3724        3723
         4        3623        3624        3725        3724
         4        3624        3625        3726        3725
         4        3625        3626        3727        3726
         4        3626        3627        3728        3727
         4        3627        3628        3729        3728
         4        3628        3629        3730        3729
         4        3629        3630        3731        3730
         4        3630        3631        3732        3731
         4        3631        3632        3733        3732
         4        3632        3633        3734        3733
         4        3633        3634        3735        3734
         4        3634        3635        3736        3735
         4        3636        3637        3738        3737
         4        3637        3638        3739        3738
         4        3638        3639        3740        3739
         4        3639        3640        3741        3740
         4        3640        3641        3742        3741
         4        3641        3642        3743        3742
         4        3642        3643        3744        3743
         4        3643        3644        3745        3744
         4        3644        3645        3746        3745
         4        3645        3646        3747        3746
         4        3646        3647        3748        3747
         4        3647        3648        3749        3748
         4        3648        3649        3750        3749
         4        3649        3650        3751        3750
         4        3650        3651        3752        3751
         4        3651        3652        3753        3752
         4        3652        3653        3754        3753
         4        3653        3654        3755        3754
         4        3654        3655        3756        3755
         4        3655        3656        3757        3756
         4        3656        3657        3758        3757
         4        3657        3658        3759        3758
         4        3658        3659        3760        3759
         4        3659        3660        3761        3760
         4        3660        3661        3762        3761
         4        3661        3662        3763        3762
         4        3662        3663        3764        3763
         4        3663        3664        3765        3764
         4        3664        3665        3766        3765
         4        3665        3666        3767        3766
         4        3666        3667        3768        3767
         4        3667        3668        3769        3768
         4        3668        3669        3770        3769
         4        3669        3670        3771        3770
         4        3670        3671        3772        3771
         4        3671        3672        3773        3772
         4        3672        3673        3774        3773
         4        3673        3674        3775        3774
         4        3674        3675        3776        3775
         4        3675        3676        3777        3776
         4        3676        3677        3778        3777
         4        3677        3678        3779        3778
         4        3678        3679        3780        3779
         4        3679        3680        3781        3780
         4        3680        3681        3782        3781
         4        3681        3682        3783        3782
         4        3682        3683        3784        3783
         4        3683        3684        3785        3784
         4        3684        3685        3786        3785
         4        3685        3686        3787        3786
         4        3686        3687        3788        3787
         4        3687        3688        3789        3788
         4        3688        3689        3790        3789
         4        3689        3690        3791        3790
         4        3690        3691        3792        3791
         4        3691        3692        3793        3792
         4        3692        3693        3794        3793
         4        3693        3694        3795        3794
         4        3694        3695        3796        3795
         4        3695        3696        3797        3796
         4        3696        3697        3798        3797
         4        3697        3698        3799        3798
         4        3698        3699        3800        3799
         4        3699        3700        3801        3800
         4        3700        3701        3802        3801
         4        3701        3702        3803        3802
         4        3702        3703        3804        3803
         4        3703        3704        3805        3804
         4        3704        3705        3806        3805
         4        3705        3706        3807        3806
         4        3706        3707        3808        3807
         4        3707        3708        3809        3808
         4        3708        3709        3810        3809
         4        3709        3710        3811        3810
         4        3710        3711        3812        3811
         4        3711        3712        3813        3812
         4        3712        3713        3814        3813
         4        3713        3714        3815        3814
         4        3714        3715        3816        3815
         4        3715        3716        3817        3816
         4        3716        3717        3818        3817
         4        3717        3718        3819        3818
         4        3718        3719        3820        3819
         4        3719        3720        3821        3820
         4        3720        3721        3822        3821
         4        3721        3722        3823        3822
         4        3722        3723        3824        3823
         4        3723        3724        3825        3824
         4        3724        3725        3826        3825
         4        3725        3726        3827        3826
         4        3726        3727        3828        3827
         4        3727        3728        3829        3828
         4        3728        3729        3830        3829
         4        3729        3730        3831        3830
         4        3730        3731        3832        3831
         4        3731        3732        3833        3832
         4        3732        3733        3834        3833
         4        3733        3734        3835        3834
         4        3734        3735        3836        3835
         4        3735        3736        3837        3836
         4        3737        3738        3839        3838
         4        3738        3739        3840        3839
         4        3739        3740        3841        3840
         4        3740        3741        3842        3841
         4        3741        3742        3843        3842
         4        3742        3743        3844        3843
         4        3743        3744        3845        3844
         4        3744        3745        3846        3845
         4        3745        3746        3847        3846
         4        3746        3747        3848        3847
         4        3747        3748        3849        3848
         4        3748        3749        3850        3849
         4        3749        3750        3851        3850
         4        3750        3751        3852        3851
         4        3751        3752        3853        3852
         4        3752        3753        3854        3853
         4        3753        3754        3855        3854
         4        3754        3755        3856        3855
         4        3755        3756        3857        3856
         4        3756        3757        3858        3857
         4        3757        3758        3859        3858
         4        3758        3759        3860        3859
         4        3759        3760        3861        3860
         4        3760        3761        3862        3861
         4        3761        3762        3863        3862
         4        3762        3763        3864        3863
         4        3763        3764        3865        3864
         4        3764        3765        3866        3865
         4        3765        3766        3867        3866
         4        3766        3767        3868        3867
         4        3767        3768        3869        3868
         4        3768        3769        3870        3869
         4        3769        3770        3871        3870
         4        3770        3771        3872        3871
         4        3771        3772        3873        3872
         4        3772        3773        3874        3873
         4        3773        3774        3875        3874
         4        3774        3775        3876        3875
         4        3775        3776        3877        3876
         4        3776        3777        3878        3877
         4        3777        3778        3879        3878
         4        3778        3779        3880        3879
         4        3779        3780        3881        3880
         4        3780        3781        3882        3881
         4        3781        3782        3883        3882
         4        3782        3783        3884        3883
         4        3783        3784        3885        3884
         4        3784        3785        3886        3885
         4        3785        3786        3887        3886
         4        3786        3787        3888        3887
         4        3787        3788        3889        3888
         4        3788        3789        3890        3889
         4        3789        3790        3891        3890
         4        3790        3791        3892        3891
         4        3791        3792        3893        3892
         4        3792        3793        3894        3893
         4        3793        3794        3895        3894
         4        3794        3795        3896        3895
         4        3795        3796        3897        3896
         4        3796        3797        3898        3897
         4        3797        3798        3899        3898
         4        3798        3799        3900        3899
         4        3799        3800        3901        3900
         4        3800        3801        3902        3901
         4        3801        3802        3903        3902
         4        3802        3803        3904        3903
         4        3803        3804        3905        3904
         4        3804        3805        3906        3905
         4        3805        3806        3907        3906
         4        3806        3807        3908        3907
         4        3807        3808        3909        3908
         4        3808        3809        3910        3909
         4        3809        3810        3911        3910
         4        3810        3811        3912        3911
         4        3811        3812        3913        3912
         4        3812        3813        3914        3913
         4        3813        3814        3915        3914
         4        3814        3815        3916        3915
         4        3815        3816        3917        3916
         4        3816        3817        3918        3917
         4        3817        3818        3919        3918
         4        3818        3819        3920        3919
         4        3819        3820        3921        3920
         4        3820        3821        3922        3921
         4        3821        3822        3923        3922
         4        3822        3823        3924        3923
         4        3823        3824        3925        3924
         4        3824        3825        3926        3925
         4        3825        3826        3927        3926
         4        3826        3827        3928        3927
         4        3827        3828        3929        3928
         4        3828        3829        3930        3929
         4        3829        3830        3931        3930
         4        3830        3831        3932        3931
         4        3831        3832        3933        3932
         4        3832        3833        3934        3933
         4        3833        3834        3935        3934
         4        3834        3835        3936        3935
         4        3835        3836        3937        3936
         4        3836        3837        3938        3937
         4        3838        3839        3940        3939
         4        3839        3840        3941        3940
         4        3840        3841        3942        3941
         4        3841        3842        3943        3942
         4        3842        3843        3944        3943
         4        3843        3844        3945        3944
         4        3844        3845        3946        3945
         4        3845        3846        3947        3946
         4        3846        3847        3948        3947
         4        3847        3848        3949        3948
         4        3848        3849        3950        3949
         4        3849        3850        3951        3950
         4        3850        3851        3952        3951
         4        3851        3852        3953        3952
         4        3852        3853        3954        3953
         4        3853        3854        3955        3954
         4        3854        3855        3956        3955
         4        3855        3856        3957        3956
         4        3856        3857        3958        3957
         4        3857        3858        3959        3958
         4        3858        3859        3960        3959
         4        3859        3860        3961        3960
         4        3860        3861        3962        3961
         4        3861        3862        3963        3962
         4        3862        3863        3964        3963
         4        3863        3864        3965        3964
         4        3864        3865        3966        3965
         4        3865        3866        3967        3966
         4        3866        3867        3968        3967
         4        3867        3868        3969        3968
         4        3868        3869        3970        3969
         4        3869        3870        3971        3970
         4        3870        3871        3972        3971
         4        3871        3872        3973        3972
         4        3872        3873        3974        3973
         4        3873        3874        3975        3974
         4        3874        3875        3976        3975
         4        3875        3876        3977        3976
         4        3876        3877        3978        3977
         4        3877        3878        3979        3978
         4        3878        3879        3980        3979
         4        3879        3880        3981        3980
         4        3880        3881        3982        3981
         4        3881        3882        3983        3982
         4        3882        3883        3984        3983
         4        3883        3884        3985        3984
         4        3884        3885        3986        3985
         4        3885        3886        3987        3986
         4        3886        3887        3988        3987
         4        3887        3888        3989        3988
         4        3888        3889        3990        3989
         4        3889        3890        3991        3990
         4        3890        3891        3992        3991
         4        3891        3892        3993        3992
         4        3892        3893        3994        3993
         4        3893        3894        3995        3994
         4        3894        3895        3996        3995
         4        3895        3896        3997        3996
         4        3896        3897        3998        3997
         4        3897        3898        3999        3998
         4        3898        3899        4000        3999
         4        3899        3900        4001        4000
         4        3900        3901        4002        4001
         4        3901        3902        4003        4002
         4        3902        3903        4004        4003
         4        3903        3904        4005        4004
         4        3904        3905        4006        4005
         4        3905        3906        4007        4006
         4        3906        3907        4008        4007
         4        3907        3908        4009        4008
         4        3908        3909        4010        4009
         4        3909        3910        4011        4010
         4        3910        3911        4012        4011
         4        3911        3912        4013        4012
         4        3912        3913        4014        4013
         4        3913        3914        4015        4014
         4        3914        3915        4016        4015
         4        3915        3916        4017        4016
         4        3916        3917        4018        4017
         4        3917        3918        4019        4018
         4        3918        3919        4020        4019
         4        3919        3920        4021        4020
         4        3920        3921        4022        4021
         4        3921        3922        4023        4022
         4        3922        3923        4024        4023
         4        3923        3924        4025        4024
         4        3924        3925        4026        4025
         4        3925        3926        4027        4026
         4        3926        3927        4028        4027
         4        3927        3928        4029        4028
         4        3928        3929        4030        4029
         4        3929        3930        4031        4030
         4        3930        3931        4032        4031
         4        3931        3932        4033        4032
         4        3932        3933        4034        4033
         4        3933        3934        4035        4034
         4        3934        3935        4036        4035
         4        3935        3936        4037        4036
         4        3936        3937        4038        4037
         4        3937        3938        4039        4038
         4        3939        3940        4041        4040
         4        3940        3941        4042        4041
         4        3941        3942        4043        4042
         4        3942        3943        4044        4043
         4        3943        3944        4045        4044
         4        3944        3945        4046        4045
         4        3945        3946        4047        4046
         4        3946        3947        4048        4047
         4        3947        3948        4049        4048
         4        3948        3949        4050        4049
         4        3949        3950        4051        4050
         4        3950        3951        4052        4051
         4        3951        3952        4053        4052
         4        3952        3953        4054        4053
         4        3953        3954        4055        4054
         4        3954        3955        4056        4055
         4        3955        3956        4057        4056
         4        3956        3957        4058        4057
         4        3957        3958        4059        4058
         4        3958        3959        4060        4059
         4        3959        3960        4061        4060
         4        3960        3961        4062        4061
         4        3961        3962        4063        4062
         4        3962        3963        4064        4063
         4        3963        3964        4065        4064
         4        3964        3965        4066        4065
         4        3965        3966        4067        4066
         4        3966        3967        4068        4067
         4        3967        3968        4069        4068
         4        3968        3969        4070        4069
         4        3969        3970        4071        4070
         4        3970        3971        4072        4071
         4        3971        3972        4073        4072
         4        3972        3973        4074        4073
         4        3973        3974        4075        4074
         4        3974        3975        4076        4075
         4        3975        3976        4077        4076
         4        3976        3977        4078        4077
         4        3977        3978        4079        4078
         4        3978        3979        4080        4079
         4        3979        3980        4081        4080
         4        3980        3981        4082        4081
         4        3981        3982        4083        4082
         4        3982        3983        4084        4083
         4        3983        3984        4085        4084
         4        3984        3985        4086        4085
         4        3985        3986        4087        4086
         4        3986        3987        4088        4087
         4        3987        3988        4089        4088
         4        3988        3989        4090        4089
         4        3989        3990        4091        4090
         4        3990        3991        4092        4091
         4        3991        3992        4093        4092
         4        3992        3993        4094        4093
         4        3993        3994        4095        4094
         4        3994        3995        4096        4095
         4        3995        3996        4097        4096
         4        3996        3997        4098        4097
         4        3997        3998        4099        4098
         4        3998        3999        4100        4099
         4        3999        4000        4101        4100
         4        4000        4001        4102        4101
         4        4001        4002        4103        4102
         4        4002        4003        4104        4103
         4        4003        4004        4105        4104
         4        4004        4005        4106        4105
         4        4005        4006        4107        4106
         4        4006        4007        4108        4107
         4        4007        4008        4109        4108
         4        4008        4009        4110        4109
         4        4009        4010        4111        4110
         4        4010        4011        4112        4111
         4        4011        4012        4113        4112
         4        4012        4013        4114        4113
         4        4013        4014        4115        4114
         4        4014        4015        4116        4115
         4        4015        4016        4117        4116
         4        4016        4017        4118        4117
         4        4017        4018        4119        4118
         4        4018        4019        4120        4119
         4        4019        4020        4121        4120
         4        4020        4021        4122        4121
         4        4021        4022        4123        4122
         4        4022        4023        4124        4123
         4        4023        4024        4125        4124
         4        4024        4025        4126        4125
         4        4025        4026        4127        4126
         4        4026        4027        4128        4127
         4        4027        4028        4129        4128
         4        4028        4029        4130        4129
         4        4029        4030        4131        4130
         4        4030        4031        4132        4131
         4        4031        4032        4133        4132
         4        4032        4033        4134        4133
         4        4033        4034        4135        4134
         4        4034        4035        4136        4135
         4        4035        4036        4137        4136
         4        4036        4037        4138        4137
         4        4037        4038        4139        4138
         4        4038        4039        4140        4139
         4        4040        4041        4142        4141
         4        4041        4042        4143        4142
         4        4042        4043        4144        4143
         4        4043        4044        4145        4144
         4        4044        4045        4146        4145
         4        4045        4046        4147        4146
         4        4046        4047        4148        4147
         4        4047        4048        4149        4148
         4        4048        4049        4150        4149
         4        4049        4050        4151        4150
         4        4050        4051        4152        4151
         4        4051        4052        4153        4152
         4        4052        4053        4154        4153
         4        4053        4054        4155        4154
         4        4054        4055        4156        4155
         4        4055        4056        4157        4156
         4        4056        4057        4158        4157
         4        4057        4058        4159        4158
         4        4058        4059        4160        4159
         4        4059        4060        4161        4160
         4        4060        4061        4162        4161
         4        4061        4062        4163        4162
         4        4062        4063        4164        4163
         4        4063        4064        4165        4164
         4        4064        4065        4166        4165
         4        4065        4066        4167        4166
         4        4066        4067        4168        4167
         4        4067        4068        4169        4168
         4        4068        4069        4170        4169
         4        4069        4070        4171        4170
         4        4070        4071        4172        4171
         4        4071        4072        4173        4172
         4        4072        4073        4174        4173
         4        4073        4074        4175        4174
         4        4074        4075        4176        4175
         4        4075        4076        4177        4176
         4        4076        4077        4178        4177
         4        4077        4078        4179        4178
         4        4078        4079        4180        4179
         4        4079        4080        4181        4180
         4        4080        4081        4182        4181
         4        4081        4082        4183        4182
         4        4082        4083        4184        4183
         4        4083        4084        4185        4184
         4        4084        4085        4186        4185
         4        4085        4086        4187        4186
         4        4086        4087        4188        4187
         4        4087        4088        4189        4188
         4        4088        4089        4190        4189
         4        4089        4090        4191        4190
         4        4090        4091        4192        4191
         4        4091        4092        4193        4192
         4        4092        4093        4194        4193
         4        4093        4094        4195        4194
         4        4094        4095        4196        4195
         4        4095        4096        4197        4196
         4        4096        4097        4198        4197
         4        4097        4098        4199        4198
         4        4098        4099        4200        4199
         4        4099        4100        4201        4200
         4        4100        4101        4202        4201
         4        4101        4102        4203        4202
         4        4102        4103        4204        4203
         4        4103        4104        4205        4204
         4        4104        4105        4206        4205
         4        4105        4106        4207        4206
         4        4106        4107        4208        4207
         4        4107        4108        4209        4208
         4        4108        4109        4210        4209
         4        4109        4110        4211        4210
         4        4110        4111        4212        4211
         4        4111        4112        4213        4212
         4        4112        4113        4214        4213
         4        4113        4114        4215        4214
         4        4114        4115        4216        4215
         4        4115        4116        4217        4216
         4        4116        4117        4218        4217
         4        4117        4118        4219        4218
         4        4118        4119        4220        4219
         4        4119        4120        4221        4220
         4        4120        4121        4222        4221
         4        4121        4122        4223        4222
         4        4122        4123        4224        4223
         4        4123        4124        4225        4224
         4        4124        4125        4226        4225
         4        4125        4126        4227        4226
         4        4126        4127        4228        4227
         4        4127        4128        4229        4228
         4        4128        4129        4230        4229
         4        4129        4130        4231        4230
         4        4130        4131        4232        4231
         4        4131        4132        4233        4232
         4        4132        4133        4234        4233
         4        4133        4134        4235        4234
         4        4134        4135        4236        4235
         4        4135        4136        4237        4236
         4        4136        4137        4238        4237
         4        4137        4138        4239        4238
         4        4138        4139        4240        4239
         4        4139        4140        4241        4240
         4        4141        4142        4243        4242
         4        4142        4143        4244        4243
         4        4143        4144        4245        4244
         4        4144        4145        4246        4245
         4        4145        4146        4247        4246
         4        4146        4147        4248        4247
         4        4147        4148        4249        4248
         4        4148        4149        4250        4249
         4        4149        4150        4251        4250
         4        4150        4151        4252        4251
         4        4151        4152        4253        4252
         4        4152        4153        4254        4253
         4        4153        4154        4255        4254
         4        4154        4155        4256        4255
         4        4155        4156        4257        4256
         4        4156        4157        4258        4257
         4        4157        4158        4259        4258
         4        4158        4159        4260        4259
         4        4159        4160        4261        4260
         4        4160        4161        4262        4261
         4        4161        4162        4263        4262
         4        4162        4163        4264        4263
         4        4163        4164        4265        4264
         4        4164        4165        4266        4265
         4        4165        4166        4267        4266
         4        4166        4167        4268        4267
         4        4167        4168        4269        4268
         4        4168        4169        4270        4269
         4        4169        4170        4271        4270
         4        4170        4171        4272        4271
         4        4171        4172        4273        4272
         4        4172        4173        4274        4273
         4        4173        4174        4275        4274
         4        4174        4175        4276        4275
         4        4175        4176        4277        4276
         4        4176        4177        4278        4277
         4        4177        4178        4279        4278
         4        4178        4179        4280        4279
         4        4179        4180        4281        4280
         4        4180        4181        4282        4281
         4        4181        4182        4283        4282
         4        4182        4183        4284        4283
         4        4183        4184        4285        4284
         4        4184        4185        4286        4285
         4        4185        4186        4287        4286
         4        4186        4187        4288        4287
         4        4187        4188        4289        4288
         4        4188        4189        4290        4289
         4        4189        4190        4291        4290
         4        4190        4191        4292        4291
         4        4191        4192        4293        4292
         4        4192        4193        4294        4293
         4        4193        4194        4295        4294
         4        4194        4195        4296        4295
         4        4195        4196        4297        4296
         4        4196        4197        4298        4297
         4        4197        4198        4299        4298
         4        4198        4199        4300        4299
         4        4199        4200        4301        4300
         4        4200        4201        4302        4301
         4        4201        4202        4303        4302
         4        4202        4203        4304        4303
         4        4203        4204        4305        4304
         4        4204        4205        4306        4305
         4        4205        4206        4307        4306
         4        4206        4207        4308        4307
         4        4207        4208        4309        4308
         4        4208        4209        4310        4309
         4        4209        4210        4311        4310
         4        4210        4211        4312        4311
         4        4211        4212        4313        4312
         4        4212        4213        4314        4313
         4        4213        4214        4315        4314
         4        4214        4215        4316        4315
         4        4215        4216        4317        4316
         4        4216        4217        4318        4317
         4        4217        4218        4319        4318
         4        4218        4219        4320        4319
         4        4219        4220        4321        4320
         4        4220        4221        4322        4321
         4        4221        4222        4323        4322
         4        4222        4223        4324        4323
         4        4223        4224        4325        4324
         4        4224        4225        4326        4325
         4        4225        4226        4327        4326
         4        4226        4227        4328        4327
         4        4227        4228        4329        4328
         4        4228        4229        4330        4329
         4        4229        4230        4331        4330
         4        4230        4231        4332        4331
         4        4231        4232        4333        4332
         4        4232        4233        4334        4333
         4        4233        4234        4335        4334
         4        4234        4235        4336        4335
         4        4235        4236        4337        4336
         4        4236        4237        4338        4337
         4        4237        4238        4339        4338
         4        4238        4239        4340        4339
         4        4239        4240        4341        4340
         4        4240        4241        4342        4341
         4        4242        4243        4344        4343
         4        4243        4244        4345        4344
         4        4244        4245        4346        4345
         4        4245        4246        4347        4346
         4        4246        4247        4348        4347
         4        4247        4248        4349        4348
         4        4248        4249        4350        4349
         4        4249        4250        4351        4350
         4        4250        4251        4352        4351
         4        4251        4252        4353        4352
         4        4252        4253        4354        4353
         4        4253        4254        4355        4354
         4        4254        4255        4356        4355
         4        4255        4256        4357        4356
         4        4256        4257        4358        4357
         4        4257        4258        4359        4358
         4        4258        4259        4360        4359
         4        4259        4260        4361        4360
         4        4260        4261        4362        4361
         4        4261        4262        4363        4362
         4        4262        4263        4364        4363
         4        4263        4264        4365        4364
         4        4264        4265        4366        4365
         4        4265        4266        4367        4366
         4        4266        4267        4368        4367
         4        4267        4268        4369        4368
         4        4268        4269        4370        4369
         4        4269        4270        4371        4370
         4        4270        4271        4372        4371
         4        4271        4272        4373        4372
         4        4272        4273        4374        4373
         4        4273        4274        4375        4374
         4        4274        4275        4376        4375
         4        4275        4276        4377        4376
         4        4276        4277        4378        4377
         4        4277        4278        4379        4378
         4        4278        4279        4380        4379
         4        4279        4280        4381        4380
         4        4280        4281        4382        4381
         4        4281        4282        4383        4382
         4        4282        4283        4384        4383
         4        4283        4284        4385        4384
         4        4284        4285        4386        4385
         4        4285        4286        4387        4386
         4        4286        4287        4388        4387
         4        4287        4288        4389        4388
         4        4288        4289        4390        4389
         4        4289        4290        4391        4390
         4        4290        4291        4392        4391
         4        4291        4292        4393        4392
         4        4292        4293        4394        4393
         4        4293        4294        4395        4394
         4        4294        4295        4396        4395
         4        4295        4296        4397        4396
         4        4296        4297        4398        4397
         4        4297        4298        4399        4398
         4        4298        4299        4400        4399
         4        4299        4300        4401        4400
         4        4300        4301        4402        4401
         4        4301        4302        4403        4402
         4        4302        4303        4404        4403
         4        4303        4304        4405        4404
         4        4304        4305        4406        4405
         4        4305        4306        4407        4406
         4        4306        4307        4408        4407
         4        4307        4308        4409        4408
         4        4308        4309        4410        4409
         4        4309        4310        4411        4410
         4        4310        4311        4412        4411
         4        4311        4312        4413        4412
         4        4312        4313        4414        4413
         4        4313        4314        4415        4414
         4        4314        4315        4416        4415
         4        4315        4316        4417        4416
         4        4316        4317        4418        4417
         4        4317        4318        4419        4418
         4        4318        4319        4420        4419
         4        4319        4320        4421        4420
         4        4320        4321        4422        4421
         4        4321        4322        4423        4422
         4        4322        4323        4424        4423
         4        4323        4324        4425        4424
         4        4324        4325        4426        4425
         4        4325        4326        4427        4426
         4        4326        4327        4428        4427
         4        4327        4328        4429        4428
         4        4328        4329        4430        4429
         4        4329        4330        4431        4430
         4        4330        4331        4432        4431
         4        4331        4332        4433        4432
         4        4332        4333        4434        4433
         4        4333        4334        4435        4434
         4        4334        4335        4436        4435
         4        4335        4336        4437        4436
         4        4336        4337        4438        4437
         4        4337        4338        4439        4438
         4        4338        4339        4440        4439
         4        4339        4340        4441        4440
         4        4340        4341        4442        4441
         4        4341        4342        4443        4442
         4        4343        4344        4445        4444
         4        4344        4345        4446        4445
         4        4345        4346        4447        4446
         4        4346        4347        4448        4447
         4        4347        4348        4449        4448
         4        4348        4349        4450        4449
         4        4349        4350        4451        4450
         4        4350        4351        4452        4451
         4        4351        4352        4453        4452
         4        4352        4353        4454        4453
         4        4353        4354        4455        4454
         4        4354        4355        4456        4455
         4        4355        4356        4457        4456
         4        4356        4357        4458        4457
         4        4357        4358        4459        4458
         4        4358        4359        4460        4459
         4        4359        4360        4461        4460
         4        4360        4361        4462        4461
         4        4361        4362        4463        4462
         4        4362        4363        4464        4463
         4        4363        4364        4465        4464
         4        4364        4365        4466        4465
         4        4365        4366        4467        4466
         4        4366        4367        4468        4467
         4        4367        4368        4469        4468
         4        4368        4369        4470        4469
         4        4369        4370        4471        4470
         4        4370        4371        4472        4471
         4        4371        4372        4473        4472
         4        4372        4373        4474        4473
         4        4373        4374        4475        4474
         4        4374        4375        4476        4475
         4        4375        4376        4477        4476
         4        4376        4377        4478        4477
         4        4377        4378        4479        4478
         4        4378        4379        4480        4479
         4        4379        4380        4481        4480
         4        4380        4381        4482        4481
         4        4381        4382        4483        4482
         4        4382        4383        4484        4483
         4        4383        4384        4485        4484
         4        4384        4385        4486        4485
         4        4385        4386        4487        4486
         4        4386        4387        4488        4487
         4        4387        4388        4489        4488
         4        4388        4389        4490        4489
         4        4389        4390        4491        4490
         4        4390        4391        4492        4491
         4        4391        4392        4493        4492
         4        4392        4393        4494        4493
         4        4393        4394        4495        4494
         4        4394        4395        4496        4495
         4        4395        4396        4497        4496
         4        4396        4397        4498        4497
         4        4397        4398        4499        4498
         4        4398        4399        4500        4499
         4        4399        4400        4501        4500
         4        4400        4401        4502        4501
         4        4401        4402        4503        4502
         4        4402        4403        4504        4503
         4        4403        4404        4505        4504
         4        4404        4405        4506        4505
         4        4405        4406        4507        4506
         4        4406        4407        4508        4507
         4        4407        4408        4509        4508
         4        4408        4409        4510        4509
         4        4409        4410        4511        4510
         4        4410        4411        4512        4511
         4        4411        4412        4513        4512
         4        4412        4413        4514        4513
         4        4413        4414        4515        4514
         4        4414        4415        4516        4515
         4        4415        4416        4517        4516
         4        4416        4417        4518        4517
         4        4417        4418        4519        4518
         4        4418        4419        4520        4519
         4        4419        4420        4521        4520
         4        4420        4421        4522        4521
         4        4421        4422        4523        4522
         4        4422        4423        4524        4523
         4        4423        4424        4525        4524
         4        4424        4425        4526        4525
         4        4425        4426        4527        4526
         4        4426        4427        4528        4527
         4        4427        4428        4529        4528
         4        4428        4429        4530        4529
         4        4429        4430        4531        4530
         4        4430        4431        4532        4531
         4        4431        4432        4533        4532
         4        4432        4433        4534        4533
         4        4433        4434        4535        4534
         4        4434        4435        4536        4535
         4        4435        4436        4537        4536
         4        4436        4437        4538        4537
         4        4437        4438        4539        4538
         4        4438        4439        4540        4539
         4        4439        4440        4541        4540
         4        4440        4441        4542        4541
         4        4441        4442        4543        4542
         4        4442        4443        4544        4543
         4        4444        4445        4546        4545
         4        4445        4446        4547        4546
         4        4446        4447        4548        4547
         4        4447        4448        4549        4548
         4        4448        4449        4550        4549
         4        4449        4450        4551        4550
         4        4450        4451        4552        4551
         4        4451        4452        4553        4552
         4        4452        4453        4554        4553
         4        4453        4454        4555        4554
         4        4454        4455        4556        4555
         4        4455        4456        4557        4556
         4        4456        4457        4558        4557
         4        4457        4458        4559        4558
         4        4458        4459        4560        4559
         4        4459        4460        4561        4560
         4        4460        4461        4562        4561
         4        4461        4462        4563        4562
         4        4462        4463        4564        4563
         4        4463        4464        4565        4564
         4        4464        4465        4566        4565
         4        4465        4466        4567        4566
         4        4466        4467        4568        4567
         4        4467        4468        4569        4568
         4        4468        4469        4570        4569
         4        4469        4470        4571        4570
         4        4470        4471        4572        4571
         4        4471        4472        4573        4572
         4        4472        4473        4574        4573
         4        4473        4474        4575        4574
         4        4474        4475        4576        4575
         4        4475        4476        4577        4576
         4        4476        4477        4578        4577
         4        4477        4478        4579        4578
         4        4478        4479        4580        4579
         4        4479        4480        4581        4580
         4        4480        4481        4582        4581
         4        4481        4482        4583        4582
         4        4482        4483        4584        4583
         4        4483        4484        4585        4584
         4        4484        4485        4586        4585
         4        4485        4486        4587        4586
         4        4486        4487        4588        4587
         4        4487        4488        4589        4588
         4        4488        4489        4590        4589
         4        4489        4490        4591        4590
         4        4490        4491        4592        4591
         4        4491        4492        4593        4592
         4        4492        4493        4594        4593
         4        4493        4494        4595        4594
         4        4494        4495        4596        4595
         4        4495        4496        4597        4596
         4        4496        4497        4598        4597
         4        4497        4498        4599        4598
         4        4498        4499        4600        4599
         4        4499        4500        4601        4600
         4        4500        4501        4602        4601
         4        4501        4502        4603        4602
         4        4502        4503        4604        4603
         4        4503        4504        4605        4604
         4        4504        4505        4606        4605
         4        4505        4506        4607        4606
         4        4506        4507        4608        4607
         4        4507        4508        4609        4608
         4        4508        4509        4610        4609
         4        4509        4510        4611        4610
         4        4510        4511        4612        4611
         4        4511        4512        4613        4612
         4        4512        4513        4614        4613
         4        4513        4514        4615        4614
         4        4514        4515        4616        4615
         4        4515        4516        4617        4616
         4        4516        4517        4618        4617
         4        4517        4518        4619        4618
         4        4518        4519        4620        4619
         4        4519        4520        4621        4620
         4        4520        4521        4622        4621
         4        4521        4522        4623        4622
         4        4522        4523        4624        4623
         4        4523        4524        4625        4624
         4        4524        4525        4626        4625
         4        4525        4526        4627        4626
         4        4526        4527        4628        4627
         4        4527        4528        4629        4628
         4        4528        4529        4630        4629
         4        4529        4530        4631        4630
         4        4530        4531        4632        4631
         4        4531        4532        4633        4632
         4        4532        4533        4634        4633
         4        4533        4534        4635        4634
         4        4534        4535        4636        4635
         4        4535        4536        4637        4636
         4        4536        4537        4638        4637
         4        4537        4538        4639        4638
         4        4538        4539        4640        4639
         4        4539        4540        4641        4640
         4        4540        4541        4642        4641
         4        4541        4542        4643        4642
         4        4542        4543        4644        4643
         4        4543        4544        4645        4644
         4        4545        4546        4647        4646
         4        4546        4547        4648        4647
         4        4547        4548        4649        4648
         4        4548        4549        4650        4649
         4        4549        4550        4651        4650
         4        4550        4551        4652        4651
         4        4551        4552        4653        4652
         4        4552        4553        4654        4653
         4        4553        4554        4655        4654
         4        4554        4555        4656        4655
         4        4555        4556        4657        4656
         4        4556        4557        4658        4657
         4        4557        4558        4659        4658
         4        4558        4559        4660        4659
         4        4559        4560        4661        4660
         4        4560        4561        4662        4661
         4        4561        4562        4663        4662
         4        4562        4563        4664        4663
         4        4563        4564        4665        4664
         4        4564        4565        4666        4665
         4        4565        4566        4667        4666
         4        4566        4567        4668        4667
         4        4567        4568        4669        4668
         4        4568        4569        4670        4669
         4        4569        4570        4671        4670
         4        4570        4571        4672        4671
         4        4571        4572        4673        4672
         4        4572        4573        4674        4673
         4        4573        4574        4675        4674
         4        4574        4575        4676        4675
         4        4575        4576        4677        4676
         4        4576        4577        4678        4677
         4        4577        4578        4679        4678
         4        4578        4579        4680        4679
         4        4579        4580        4681        4680
         4        4580        4581        4682        4681
         4        4581        4582        4683        4682
         4        4582        4583        4684        4683
         4        4583        4584        4685        4684
         4        4584        4585        4686        4685
         4        4585        4586        4687        4686
         4        4586        4587        4688        4687
         4        4587        4588        4689        4688
         4        4588        4589        4690        4689
         4        4589        4590        4691        4690
         4        4590        4591        4692        4691
         4        4591        4592        4693        4692
         4        4592        4593        4694        4693
         4        4593        4594        4695        4694
         4        4594        4595        4696        4695
         4        4595        4596        4697        4696
         4        4596        4597        4698        4697
         4        4597        4598        4699        4698
         4        4598        4599        4700        4699
         4        4599        4600        4701        4700
         4        4600        4601        4702        4701
         4        4601        4602        4703        4702
         4        4602        4603        4704        4703
         4        4603        4604        4705        4704
         4        4604        4605        4706        4705
         4        4605        4606        4707        4706
         4        4606        4607        4708        4707
         4        4607        4608        4709        4708
         4        4608        4609        4710        4709
         4        4609        4610        4711        4710
         4        4610        4611        4712        4711
         4        4611        4612        4713        4712
         4        4612        4613        4714        4713
         4        4613        4614        4715        4714
         4        4614        4615        4716        4715
         4        4615        4616        4717        4716
         4        4616        4617        4718        4717
         4        4617        4618        4719        4718
         4        4618        4619        4720        4719
         4        4619        4620        4721        4720
         4        4620        4621        4722        4721
         4        4621        4622        4723        4722
         4        4622        4623        4724        4723
         4        4623        4624        4725        4724
         4        4624        4625        4726        4725
         4        4625        4626        4727        4726
         4        4626        4627        4728        4727
         4        4627        4628        4729        4728
         4        4628        4629        4730        4729
         4        4629        4630        4731        4730
         4        4630        4631        4732        4731
         4        4631        4632        4733        4732
         4        4632        4633        4734        4733
         4        4633        4634        4735        4734
         4        4634        4635        4736        4735
         4        4635        4636        4737        4736
         4        4636        4637        4738        4737
         4        4637        4638        4739        4738
         4        4638        4639        4740        4739
         4        4639        4640        4741        4740
         4        4640        4641        4742        4741
         4        4641        4642        4743        4742
         4        4642        4643        4744        4743
         4        4643        4644        4745        4744
         4        4644        4645        4746        4745
         4        4646        4647        4748        4747
         4        4647        4648        4749        4748
         4        4648        4649        4750        4749
         4        4649        4650        4751        4750
         4        4650        4651        4752        4751
         4        4651        4652        4753        4752
         4        4652        4653        4754        4753
         4        4653        4654        4755        4754
         4        4654        4655        4756        4755
         4        4655        4656        4757        4756
         4        4656        4657        4758        4757
         4        4657        4658        4759        4758
         4        4658        4659        4760        4759
         4        4659        4660        4761        4760
         4        4660        4661        4762        4761
         4        4661        4662        4763        4762
         4        4662        4663        4764        4763
         4        4663        4664        4765        4764
         4        4664        4665        4766        4765
         4        4665        4666        4767        4766
         4        4666        4667        4768        4767
         4        4667        4668        4769        4768
         4        4668        4669        4770        4769
         4        4669        4670        4771        4770
         4        4670        4671        4772        4771
         4        4671        4672        4773        4772
         4        4672        4673        4774        4773
         4        4673        4674        4775        4774
         4        4674        4675        4776        4775
         4        4675        4676        4777        4776
         4        4676        4677        4778        4777
         4        4677        4678        4779        4778
         4        4678        4679        4780        4779
         4        4679        4680        4781        4780
         4        4680        4681        4782        4781
         4        4681        4682        4783        4782
         4        4682        4683        4784        4783
         4        4683        4684        4785        4784
         4        4684        4685        4786        4785
         4        4685        4686        4787        4786
         4        4686        4687        4788        4787
         4        4687        4688        4789        4788
         4        4688        4689        4790        4789
         4        4689        4690        4791        4790
         4        4690        4691        4792        4791
         4        4691        4692        4793        4792
         4        4692        4693        4794        4793
         4        4693        4694        4795        4794
         4        4694        4695        4796        4795
         4        4695        4696        4797        4796
         4        4696        4697        4798        4797
         4        4697        4698        4799        4798
         4        4698        4699        4800        4799
         4        4699        4700        4801        4800
         4        4700        4701        4802        4801
         4        4701        4702        4803        4802
         4        4702        4703        4804        4803
         4        4703        4704        4805        4804
         4        4704        4705        4806        4805
         4        4705        4706        4807        4806
         4        4706        4707        4808        4807
         4        4707        4708        4809        4808
         4        4708        4709        4810        4809
         4        4709        4710        4811        4810
         4        4710        4711        4812        4811
         4        4711        4712        4813        4812
         4        4712        4713        4814        4813
         4        4713        4714        4815        4814
         4        4714        4715        4816        4815
         4        4715        4716        4817        4816
         4        4716        4717        4818        4817
         4        4717        4718        4819        4818
         4        4718        4719        4820        4819
         4        4719        4720        4821        4820
         4        4720        4721        4822        4821
         4        4721        4722        4823        4822
         4        4722        4723        4824        4823
         4        4723        4724        4825        4824
         4        4724        4725        4826        4825
         4        4725        4726        4827        4826
         4        4726        4727        4828        4827
         4        4727        4728        4829        4828
         4        4728        4729        4830        4829
         4        4729        4730        4831        4830
         4        4730        4731        4832        4831
         4        4731        4732        4833        4832
         4        4732        4733        4834        4833
         4        4733        4734        4835        4834
         4        4734        4735        4836        4835
         4        4735        4736        4837        4836
         4        4736        4737        4838        4837
         4        4737        4738        4839        4838
         4        4738        4739        4840        4839
         4        4739        4740        4841        4840
         4        4740        4741        4842        4841
         4        4741        4742        4843        4842
         4        4742        4743        4844        4843
         4        4743        4744        4845        4844
         4        4744        4745        4846        4845
         4        4745        4746        4847        4846
         4        4747        4748        4849        4848
         4        4748        4749        4850        4849
         4        4749        4750        4851        4850
         4        4750        4751        4852        4851
         4        4751        4752        4853        4852
         4        4752        4753        4854        4853
         4        4753        4754        4855        4854
         4        4754        4755        4856        4855
         4        4755        4756        4857        4856
         4        4756        4757        4858        4857
         4        4757        4758        4859        4858
         4        4758        4759        4860        4859
         4        4759        4760        4861        4860
         4        4760        4761        4862        4861
         4        4761        4762        4863        4862
         4        4762        4763        4864        4863
         4        4763        4764        4865        4864
         4        4764        4765        4866        4865
         4        4765        4766        4867        4866
         4        4766        4767        4868        4867
         4        4767        4768        4869        4868
         4        4768        4769        4870        4869
         4        4769        4770        4871        4870
         4        4770        4771        4872        4871
         4        4771        4772        4873        4872
         4        4772        4773        4874        4873
         4        4773        4774        4875        4874
         4        4774        4775        4876        4875
         4        4775        4776        4877        4876
         4        4776        4777        4878        4877
         4        4777        4778        4879        4878
         4        4778        4779        4880        4879
         4        4779        4780        4881        4880
         4        4780        4781        4882        4881
         4        4781        4782        4883        4882
         4        4782        4783        4884        4883
         4        4783        4784        4885        4884
         4        4784        4785        4886        4885
         4        4785        4786        4887        4886
         4        4786        4787        4888        4887
         4        4787        4788        4889        4888
         4        4788        4789        4890        4889
         4        4789        4790        4891        4890
         4        4790        4791        4892        4891
         4        4791        4792        4893        4892
         4        4792        4793        4894        4893
         4        4793        4794        4895        4894
         4        4794        4795        4896        4895
         4        4795        4796        4897        4896
         4        4796        4797        4898        4897
         4        4797        4798        4899        4898
         4        4798        4799        4900        4899
         4        4799        4800        4901        4900
         4        4800        4801        4902        4901
         4        4801        4802        4903        4902
         4        4802        4803        4904        4903
         4        4803        4804        4905        4904
         4        4804        4805        4906        4905
         4        4805        4806        4907        4906
         4        4806        4807        4908        4907
         4        4807        4808        4909        4908
         4        4808        4809        4910        4909
         4        4809        4810        4911        4910
         4        4810        4811        4912        4911
         4        4811        4812        4913        4912
         4        4812        4813        4914        4913
         4        4813        4814        4915        4914
         4        4814        4815        4916        4915
         4        4815        4816        4917        4916
         4        4816        4817        4918        4917
         4        4817        4818        4919        4918
         4        4818        4819        4920        4919
         4        4819        4820        4921        4920
         4        4820        4821        4922        4921
         4        4821        4822        4923        4922
         4        4822        4823        4924        4923
         4        4823        4824        4925        4924
         4        4824        4825        4926        4925
         4        4825        4826        4927        4926
         4        4826        4827        4928        4927
         4        4827        4828        4929        4928
         4        4828        4829        4930        4929
         4        4829        4830        4931        4930
         4        4830        4831        4932        4931
         4        4831        4832        4933        4932
         4        4832        4833        4934        4933
         4        4833        4834        4935        4934
         4        4834        4835        4936        4935
         4        4835        4836        4937        4936
         4        4836        4837        4938        4937
         4        4837        4838        4939        4938
         4        4838        4839        4940        4939
         4        4839        4840        4941        4940
         4        4840        4841        4942        4941
         4        4841        4842        4943        4942
         4        4842        4843        4944        4943
         4        4843        4844        4945        4944
         4        4844        4845        4946        4945
         4        4845        4846        4947        4946
         4        4846        4847        4948        4947
         4        4848        4849        4950        4949
         4        4849        4850        4951        4950
         4        4850        4851        4952        4951
         4        4851        4852        4953        4952
         4        4852        4853        4954        4953
         4        4853        4854        4955        4954
         4        4854        4855        4956        4955
         4        4855        4856        4957        4956
         4        4856        4857        4958        4957
         4        4857        4858        4959        4958
         4        4858        4859        4960        4959
         4        4859        4860        4961        4960
         4        4860        4861        4962        4961
         4        4861        4862        4963        4962
         4        4862        4863        4964        4963
         4        4863        4864        4965        4964
         4        4864        4865        4966        4965
         4        4865        4866        4967        4966
         4        4866        4867        4968        4967
         4        4867        4868        4969        4968
         4        4868        4869        4970        4969
         4        4869        4870        4971        4970
         4        4870        4871        4972        4971
         4        4871        4872        4973        4972
         4        4872        4873        4974        4973
         4        4873        4874        4975        4974
         4        4874        4875        4976        4975
         4        4875        4876        4977        4976
         4        4876        4877        4978        4977
         4        4877        4878        4979        4978
         4        4878        4879        4980        4979
         4        4879        4880        4981        4980
         4        4880        4881        4982        4981
         4        4881        4882        4983        4982
         4        4882        4883        4984        4983
         4        4883        4884        4985        4984
         4        4884        4885        4986        4985
         4        4885        4886        4987        4986
         4        4886        4887        4988        4987
         4        4887        4888        4989        4988
         4        4888        4889        4990        4989
         4        4889        4890        4991        4990
         4        4890        4891        4992        4991
         4        4891        4892        4993        4992
         4        4892        4893        4994        4993
         4        4893        4894        4995        4994
         4        4894        4895        4996        4995
         4        4895        4896        4997        4996
         4        4896        4897        4998        4997
         4        4897        4898        4999        4998
         4        4898        4899        5000        4999
         4        4899        4900        5001        5000
         4        4900        4901        5002        5001
         4        4901        4902        5003        5002
         4        4902        4903        5004        5003
         4        4903        4904        5005        5004
         4        4904        4905        5006        5005
         4        4905        4906        5007        5006
         4        4906        4907        5008        5007
         4        4907        4908        5009        5008
         4        4908        4909        5010        5009
         4        4909        4910        5011        5010
         4        4910        4911        5012        5011
         4        4911        4912        5013        5012
         4        4912        4913        5014        5013
         4        4913        4914        5015        5014
         4        4914        4915        5016        5015
         4        4915        4916        5017        5016
         4        4916        4917        5018        5017
         4        4917        4918        5019        5018
         4        4918        4919        5020        5019
         4        4919        4920        5021        5020
         4        4920        4921        5022        5021
         4        4921        4922        5023        5022
         4        4922        4923        5024        5023
         4        4923        4924        5025        5024
         4        4924        4925        5026        5025
         4        4925        4926        5027        5026
         4        4926        4927        5028        5027
         4        4927        4928        5029        5028
         4        4928        4929        5030        5029
         4        4929        4930        5031        5030
         4        4930        4931        5032        5031
         4        4931        4932        5033        5032
         4        4932        4933        5034        5033
         4        4933        4934        5035        5034
         4        4934        4935        5036        5035
         4        4935        4936        5037        5036
         4        4936        4937        5038        5037
         4        4937        4938        5039        5038
         4        4938        4939        5040        5039
         4        4939        4940        5041        5040
         4        4940        4941        5042        5041
         4        4941        4942        5043        5042
         4        4942        4943        5044        5043
         4        4943        4944        5045        5044
         4        4944        4945        5046        5045
         4        4945        4946        5047        5046
         4        4946        4947        5048        5047
         4        4947        4948        5049        5048
         4        4949        4950        5051        5050
         4        4950        4951        5052        5051
         4        4951        4952        5053        5052
         4        4952        4953        5054        5053
         4        4953        4954        5055        5054
         4        4954        4955        5056        5055
         4        4955        4956        5057        5056
         4        4956        4957        5058        5057
         4        4957        4958        5059        5058
         4        4958        4959        5060        5059
         4        4959        4960        5061        5060
         4        4960        4961        5062        5061
         4        4961        4962        5063        5062
         4        4962        4963        5064        5063
         4        4963        4964        5065        5064
         4        4964        4965        5066        5065
         4        4965        4966        5067        5066
         4        4966        4967        5068        5067
         4        4967        4968        5069        5068
         4        4968        4969        5070        5069
         4        4969        4970        5071        5070
         4        4970        4971        5072        5071
         4        4971        4972        5073        5072
         4        4972        4973        5074        5073
         4        4973        4974        5075        5074
         4        4974        4975        5076        5075
         4        4975        4976        5077        5076
         4        4976        4977        5078        5077
         4        4977        4978        5079        5078
         4        4978        4979        5080        5079
         4        4979        4980        5081        5080
         4        4980        4981        5082        5081
         4        4981        4982        5083        5082
         4        4982        4983        5084        5083
         4        4983        4984        5085        5084
         4        4984        4985        5086        5085
         4        4985        4986        5087        5086
         4        4986        4987        5088        5087
         4        4987        4988        5089        5088
         4        4988        4989        5090        5089
         4        4989        4990        5091        5090
         4        4990        4991        5092        5091
         4        4991        4992        5093        5092
         4        4992        4993        5094        5093
         4        4993        4994        5095        5094
         4        4994        4995        5096        5095
         4        4995        4996        5097        5096
         4        4996        4997        5098        5097
         4        4997        4998        5099        5098
         4        4998        4999        5100        5099
         4        4999        5000        5101        5100
         4        5000        5001        5102        5101
         4        5001        5002        5103        5102
         4        5002        5003        5104        5103
         4        5003        5004        5105        5104
         4        5004        5005        5106        5105
         4        5005        5006        5107        5106
         4        5006        5007        5108        5107
         4        5007        5008        5109        5108
         4        5008        5009        5110        5109
         4        5009        5010        5111        5110
         4        5010        5011        5112        5111
         4        5011        5012        5113        5112
         4        5012        5013        5114        5113
         4        5013        5014        5115        5114
         4        5014        5015        5116        5115
         4        5015        5016        5117        5116
         4        5016        5017        5118        5117
         4        5017        5018        5119        5118
         4        5018        5019        5120        5119
         4        5019        5020        5121        5120
         4        5020        5021        5122        5121
         4        5021        5022        5123        5122
         4        5022        5023        5124        5123
         4        5023        5024        5125        5124
         4        5024        5025        5126        5125
         4        5025        5026        5127        5126
         4        5026        5027        5128        5127
         4        5027        5028        5129        5128
         4        5028        5029        5130        5129
         4        5029        5030        5131        5130
         4        5030        5031        5132        5131
         4        5031        5032        5133        5132
         4        5032        5033        5134        5133
         4        5033        5034        5135        5134
         4        5034        5035        5136        5135
         4        5035        5036        5137        5136
         4        5036        5037        5138        5137
         4        5037        5038        5139        5138
         4        5038        5039        5140        5139
         4        5039        5040        5141        5140
         4        5040        5041        5142        5141
         4        5041        5042        5143        5142
         4        5042        5043        5144        5143
         4        5043        5044        5145        5144
         4        5044        5045        5146        5145
         4        5045        5046        5147        5146
         4        5046        5047        5148        5147
         4        5047        5048        5149        5148
         4        5048        5049        5150        5149
CELL_TYPES       5000
9
9
9
9
9
9
9
9
9
9
9
9
9
9
9
9
9
9
9
9
9
9
9
9
9
9
9
9
9
9
9
9
9
9
9
9
9
9
9
9
9
9
9
9
9
9
9
9
9
9
9
9
9
9
9
9
9
9
9
9
9
9
9
9
9
9
9
9
9
9
9
9
9
9
9
9
9
9
9
9
9
9
9
9
9
9
9
9
9
9
9
9
9
9
9
9
9
9
9
9
9
9
9
9
9
9
9
9
9
9
9
9
9
9
9
9
9
9
9
9
9
9
9
9
9
9
9
9
9
9
9
9
9
9
9
9
9
9
9
9
9
9
9
9
9
9
9
9
9
9
9
9
9
9
9
9
9
9
9
9
9
9
9
9
9
9
9
9
9
9
9
9
9
9
9
9
9
9
9
9
9
9
9
9
9
9
9
9
9
9
9
9
9
9
9
9
9
9
9
9
9
9
9
9
9
9
9
9
9
9
9
9
9
9
9
9
9
9
9
9
9
9
9
9
9
9
9
9
9
9
9
9
9
9
9
9
9
9
9
9
9
9
9
9
9
9
9
9
9
9
9
9
9
9
9
9
9
9
9
9
9
9
9
9
9
9
9
9
9
9
9
9
9
9
9
9
9
9
9
9
9
9
9
9
9
9
9
9
9
9
9
9
9
9
9
9
9
9
9
9
9
9
9
9
9
9
9
9
9
9
9
9
9
9
9
9
9
9
9
9
9
9
9
9
9
9
9
9
9
9
9
9
9
9
9
9
9
9
9
9
9
9
9
9
9
9
9
9
9
9
9
9
9
9
9
9
9
9
9
9
9
9
9
9
9
9
9
9
9
9
9
9
9
9
9
9
9
9
9
9
9
9
9
9
9
9
9
9
9
9
9
9
9
9
9
9
9
9
9
9
9
9
9
9
9
9
9
9
9
9
9
9
9
9
9
9
9
9
9
9
9
9
9
9
9
9
9
9
9
9
9
9
9
9
9
9
9
9
9
9
9
9
9
9
9
9
9
9
9
9
9
9
9
9
9
9
9
9
9
9
9
9
9
9
9
9
9
9
9
9
9
9
9
9
9
9
9
9
9
9
9
9
9
9
9
9
9
9
9
9
9
9
9
9
9
9
9
9
9
9
9
9
9
9
9
9
9
9
9
9
9
9
9
9
9
9
9
9
9
9
9
9
9
9
9
9
9
9
9
9
9
9
9
9
9
9
9
9
9
9
9
9
9
9
9
9
9
9
9
9
9
9
9
9
9
9
9
9
9
9
9
9
9
9
9
9
9
9
9
9
9
9
9
9
9
9
9
9
9
9
9
9
9
9
9
9
9
9
9
9
9
9
9
9
9
9
9
9
9
9
9
9
9
9
9
9
9
9
9
9
9
9
9
9
9
9
9
9
9
9
9
9
9
9
9
9
9
9
9
9
9
9
9
9
9
9
9
9
9
9
9
9
9
9
9
9
9
9
9
9
9
9
9
9
9
9
9
9
9
9
9
9
9
9
9
9
9
9
9
9
9
9
9
9
9
9
9
9
9
9
9
9
9
9
9
9
9
9
9
9
9
9
9
9
9
9
9
9
9
9
9
9
9
9
9
9
9
9
9
9
9
9
9
9
9
9
9
9
9
9
9
9
9
9
9
9
9
9
9
9
9
9
9
9
9
9
9
9
9
9
9
9
9
9
9
9
9
9
9
9
9
9
9
9
9
9
9
9
9
9
9
9
9
9
9
9
9
9
9
9
9
9
9
9
9
9
9
9
9
9
9
9
9
9
9
9
9
9
9
9
9
9
9
9
9
9
9
9
9
9
9
9
9
9
9
9
9
9
9
9
9
9
9
9
9
9
9
9
9
9
9
9
9
9
9
9
9
9
9
9
9
9
9
9
9
9
9
9
9
9
9
9
9
9
9
9
9
9
9
9
9
9
9
9
9
9
9
9
9
9
9
9
9
9
9
9
9
9
9
9
9
9
9
9
9
9
9
9
9
9
9
9
9
9
9
9
9
9
9
9
9
9
9
9
9
9
9
9
9
9
9
9
9
9
9
9
9
9
9
9
9
9
9
9
9
9
9
9
9
9
9
9
9
9
9
9
9
9
9
9
9
9
9
9
9
9
9
9
9
9
9
9
9
9
9
9
9
9
9
9
9
9
9
9
9
9
9
9
9
9
9
9
9
9
9
9
9
9
9
9
9
9
9
9
9
9
9
9
9
9
9
9
9
9
9
9
9
9
9
9
9
9
9
9
9
9
9
9
9
9
9
9
9
9
9
9
9
9
9
9
9
9
9
9
9
9
9
9
9
9
9
9
9
9
9
9
9
9
9
9
9
9
9
9
9
9
9
9
9
9
9
9
9
9
9
9
9
9
9
9
9
9
9
9
9
9
9
9
9
9
9
9
9
9
9
9
9
9
9
9
9
9
9
9
9
9
9
9
9
9
9
9
9
9
9
9
9
9
9
9
9
9
9
9
9
9
9
9
9
9
9
9
9
9
9
9
9
9
9
9
9
9
9
9
9
9
9
9
9
9
9
9
9
9
9
9
9
9
9
9
9
9
9
9
9
9
9
9
9
9
9
9
9
9
9
9
9
9
9
9
9
9
9
9
9
9
9
9
9
9
9
9
9
9
9
9
9
9
9
9
9
9
9
9
9
9
9
9
9
9
9
9
9
9
9
9
9
9
9
9
9
9
9
9
9
9
9
9
9
9
9
9
9
9
9
9
9
9
9
9
9
9
9
9
9
9
9
9
9
9
9
9
9
9
9
9
9
9
9
9
9
9
9
9
9
9
9
9
9
9
9
9
9
9
9
9
9
9
9
9
9
9
9
9
9
9
9
9
9
9
9
9
9
9
9
9
9
9
9
9
9
9
9
9
9
9
9
9
9
9
9
9
9
9
9
9
9
9
9
9
9
9
9
9
9
9
9
9
9
9
9
9
9
9
9
9
9
9
9
9
9
9
9
9
9
9
9
9
9
9
9
9
9
9
9
9
9
9
9
9
9
9
9
9
9
9
9
9
9
9
9
9
9
9
9
9
9
9
9
9
9
9
9
9
9
9
9
9
9
9
9
9
9
9
9
9
9
9
9
9
9
9
9
9
9
9
9
9
9
9
9
9
9
9
9
9
9
9
9
9
9
9
9
9
9
9
9
9
9
9
9
9
9
9
9
9
9
9
9
9
9
9
9
9
9
9
9
9
9
9
9
9
9
9
9
9
9
9
9
9
9
9
9
9
9
9
9
9
9
9
9
9
9
9
9
9
9
9
9
9
9
9
9
9
9
9
9
9
9
9
9
9
9
9
9
9
9
9
9
9
9
9
9
9
9
9
9
9
9
9
9
9
9
9
9
9
9
9
9
9
9
9
9
9
9
9
9
9
9
9
9
9
9
9
9
9
9
9
9
9
9
9
9
9
9
9
9
9
9
9
9
9
9
9
9
9
9
9
9
9
9
9
9
9
9
9
9
9
9
9
9
9
9
9
9
9
9
9
9
9
9
9
9
9
9
9
9
9
9
9
9
9
9
9
9
9
9
9
9
9
9
9
9
9
9
9
9
9
9
9
9
9
9
9
9
9
9
9
9
9
9
9
9
9
9
9
9
9
9
9
9
9
9
9
9
9
9
9
9
9
9
9
9
9
9
9
9
9
9
9
9
9
9
9
9
9
9
9
9
9
9
9
9
9
9
9
9
9
9
9
9
9
9
9
9
9
9
9
9
9
9
9
9
9
9
9
9
9
9
9
9
9
9
9
9
9
9
9
9
9
9
9
9
9
9
9
9
9
9
9
9
9
9
9
9
9
9
9
9
9
9
9
9
9
9
9
9
9
9
9
9
9
9
9
9
9
9
9
9
9
9
9
9
9
9
9
9
9
9
9
9
9
9
9
9
9
9
9
9
9
9
9
9
9
9
9
9
9
9
9
9
9
9
9
9
9
9
9
9
9
9
9
9
9
9
9
9
9
9
9
9
9
9
9
9
9
9
9
9
9
9
9
9
9
9
9
9
9
9
9
9
9
9
9
9
9
9
9
9
9
9
9
9
9
9
9
9
9
9
9
9
9
9
9
9
9
9
9
9
9
9
9
9
9
9
9
9
9
9
9
9
9
9
9
9
9
9
9
9
9
9
9
9
9
9
9
9
9
9
9
9
9
9
9
9
9
9
9
9
9
9
9
9
9
9
9
9
9
9
9
9
9
9
9
9
9
9
9
9
9
9
9
9
9
9
9
9
9
9
9
9
9
9
9
9
9
9
9
9
9
9
9
9
9
9
9
9
9
9
9
9
9
9
9
9
9
9
9
9
9
9
9
9
9
9
9
9
9
9
9
9
9
9
9
9
9
9
9
9
9
9
9
9
9
9
9
9
9
9
9
9
9
9
9
9
9
9
9
9
9
9
9
9
9
9
9
9
9
9
9
9
9
9
9
9
9
9
9
9
9
9
9
9
9
9
9
9
9
9
9
9
9
9
9
9
9
9
9
9
9
9
9
9
9
9
9
9
9
9
9
9
9
9
9
9
9
9
9
9
9
9
9
9
9
9
9
9
9
9
9
9
9
9
9
9
9
9
9
9
9
9
9
9
9
9
9
9
9
9
9
9
9
9
9
9
9
9
9
9
9
9
9
9
9
9
9
9
9
9
9
9
9
9
9
9
9
9
9
9
9
9
9
9
9
9
9
9
9
9
9
9
9
9
9
9
9
9
9
9
9
9
9
9
9
9
9
9
9
9
9
9
9
9
9
9
9
9
9
9
9
9
9
9
9
9
9
9
9
9
9
9
9
9
9
9
9
9
9
9
9
9
9
9
9
9
9
9
9
9
9
9
9
9
9
9
9
9
9
9
9
9
9
9
9
9
9
9
9
9
9
9
9
9
9
9
9
9
9
9
9
9
9
9
9
9
9
9
9
9
9
9
9
9
9
9
9
9
9
9
9
9
9
9
9
9
9
9
9
9
9
9
9
9
9
9
9
9
9
9
9
9
9
9
9
9
9
9
9
9
9
9
9
9
9
9
9
9
9
9
9
9
9
9
9
9
9
9
9
9
9
9
9
9
9
9
9
9
9
9
9
9
9
9
9
9
9
9
9
9
9
9
9
9
9
9
9
9
9
9
9
9
9
9
9
9
9
9
9
9
9
9
9
9
9
9
9
9
9
9
9
9
9
9
9
9
9
9
9
9
9
9
9
9
9
9
9
9
9
9
9
9
9
9
9
9
9
9
9
9
9
9
9
9
9
9
9
9
9
9
9
9
9
9
9
9
9
9
9
9
9
9
9
9
9
9
9
9
9
9
9
9
9
9
9
9
9
9
9
9
9
9
9
9
9
9
9
9
9
9
9
9
9
9
9
9
9
9
9
9
9
9
9
9
9
9
9
9
9
9
9
9
9
9
9
9
9
9
9
9
9
9
9
9
9
9
9
9
9
9
9
9
9
9
9
9
9
9
9
9
9
9
9
9
9
9
9
9
9
9
9
9
9
9
9
9
9
9
9
9
9
9
9
9
9
9
9
9
9
9
9
9
9
9
9
9
9
9
9
9
9
9
9
9
9
9
9
9
9
9
9
9
9
9
9
9
9
9
9
9
9
9
9
9
9
9
9
9
9
9
9
9
9
9
9
9
9
9
9
9
9
9
9
9
9
9
9
9
9
9
9
9
9
9
9
9
9
9
9
9
9
9
9
9
9
9
9
9
9
9
9
9
9
9
9
9
9
9
9
9
9
9
9
9
9
9
9
9
9
9
9
9
9
9
9
9
9
9
9
9
9
9
9
9
9
9
9
9
9
9
9
9
9
9
9
9
9
9
9
9
9
9
9
9
9
9
9
9
9
9
9
9
9
9
9
9
9
9
9
9
9
9
9
9
9
9
9
9
9
9
9
9
9
9
9
9
9
9
9
9
9
9
9
9
9
9
9
9
9
9
9
9
9
9
9
9
9
9
9
9
9
9
9
9
9
9
9
9
9
9
9
9
9
9
9
9
9
9
9
9
9
9
9
9
9
9
9
9
9
9
9
9
9
9
9
9
9
9
9
9
9
9
9
9
9
9
9
9
9
9
9
9
9
9
9
9
9
9
9
9
9
9
9
9
9
9
9
9
9
9
9
9
9
9
9
9
9
9
9
9
9
9
9
9
9
9
9
9
9
9
9
9
9
9
9
9
9
9
9
9
9
9
9
9
9
9
9
9
9
9
9
9
9
9
9
9
9
9
9
9
9
9
9
9
9
9
9
9
9
9
9
9
9
9
9
9
9
9
9
9
9
9
9
9
9
9
9
9
9
9
9
9
9
9
9
9
9
9
9
9
9
9
9
9
9
9
9
9
9
9
9
9
9
9
9
9
9
9
9
9
9
9
9
9
9
9
9
9
9
9
9
9
9
9
9
9
9
9
9
9
9
9
9
9
9
9
9
9
9
9
9
9
9
9
9
9
9
9
9
9
9
9
9
9
9
9
9
9
9
9
9
9
9
9
9
9
9
9
9
9
9
9
9
9
9
9
9
9
9
9
9
9
9
9
9
9
9
9
9
9
9
9
9
9
9
9
9
9
9
9
9
9
9
9
9
9
9
9
9
9
9
9
9
9
9
9
9
9
9
9
9
9
9
9
9
9
9
9
9
9
9
9
9
9
9
9
9
9
9
9
9
9
9
9
9
9
9
9
9
9
9
9
9
9
9
9
9
9
9
9
9
9
9
9
9
9
9
9
9
9
9
9
9
9
9
9
9
9
9
9
9
9
9
9
9
9
9
9
9
9
9
9
9
9
9
9
9
9
9
9
9
9
9
9
9
9
9
9
9
9
9
9
9
9
9
9
9
9
9
9
9
9
9
9
9
9
9
9
9
9
9
9
9
9
9
9
9
9
9
9
9
9
9
9
9
9
9
9
9
9
9
9
9
9
9
9
9
9
9
9
9
9
9
9
9
9
9
9
9
9
9
9
9
9
9
9
9
9
9
9
9
9
9
9
9
9
9
9
9
9
9
9
9
9
9
9
9
9
9
9
9
9
9
9
9
9
9
9
9
9
9
9
9
9
9
9
9
9
9
9
9
9
9
9
9
9
9
9
9
9
9
9
9
9
9
9
9
9
9
9
9
9
9
9
9
9
9
9
9
9
9
9
9
9
9
9
9
9
9
9
9
9
9
9
9
9
9
9
9
9
9
9
9
9
9
9
9
9
9
9
9
9
9
9
9
9
9
9
9
9
9
9
9
9
9
9
9
9
9
9
9
9
9
9
9
9
9
9
9
9
9
9
9
9
9
9
9
9
9
9
9
9
9
9
9
9
9
9
9
9
9
9
9
9
9
9
9
9
9
9
9
9
9
9
9
9
9
9
9
9
9
9
9
9
9
9
9
9
9
9
9
9
9
9
9
9
9
9
9
9
9
9
9
9
9
9
9
9
9
9
9
9
9
9
9
9
9
9
9
9
9
9
9
9
9
9
9
9
9
9
9
9
9
9
9
9
9
9
9
9
9
9
9
9
9
9
9
9
9
9
9
9
9
9
9
9
9
9
9
9
9
9
9
9
9
9
9
9
9
9
9
9
9
9
9
9
9
9
9
9
9
9
9
9
9
9
9
9
9
9
9
9
9
9
9
9
9
9
9
9
9
9
9
9
9
9
9
9
9
9
9
9
9
9
9
9
9
9
9
9
9
9
9
9
9
9
9
9
9
9
9
9
9
9
9
9
9
9
9
9
9
9
9
9
9
9
9
9
9
9
9
9
9
9
9
9
9
9
9
9
9
9
9
9
9
9
9
9
9
9
9
9
9
9
9
9
9
9
9
9
9
9
9
9
9
9
9
9
9
9
9
9
9
9
9
9
9
9
9
9
9
9
9
9
9
9
9
9
9
9
9
9
9
9
9
9
9
9
9
9
9
9
9
9
9
9
9
9
9
9
9
9
9
9
9
9
9
9
9
9
9
9
9
9
9
9
9
9
9
9
9
9
9
9
9
9
9
9
9
9
9
9
9
9
9
9
9
9
9
9
9
9
9
9
9
9
9
9
9
9
9
9
9
9
9
9
9
9
9
9
9
9
9
9
9
9
9
9
9
9
9
9
9
9
9
9
9
9
9
9
9
9
9
9
9
9
9
9
9
9
9
9
9
9
9
9
9
9
9
9
9
9
9
9
9
9
9
9
9
9
9
9
9
9
9
9
9
9
9
9
9
9
9
9
9
9
9
9
9
9
9
9
9
9
9
9
9
9
9
9
9
9
9
9
9
9
9
9
9
9
9
9
9
9
9
9
9
9
9
9
9
9
9
9
9
9
9
9
9
9
9
9
9
9
9
9
9
9
9
9
9
9
9
9
9
9
9
9
9
9
9
9
9
9
9
9
9
9
9
9
9
9
9
9
9
9
9
9
9
9
9
9
9
9
9
9
9
9
9
9
9
9
9
9
9
9
9
9
9
9
9
9
9
9
9
9
9
9
9
9
9
9
9
9
9
9
9
9
9
9
9
9
9
9
9
9
9
9
9
9
9
9
9
9
9
9
9
9
9
9
9
9
9
9
9
9
9
9
9
9
9
9
9
9
9
9
9
9
9
9
9
9
9
9
9
9
9
9
9
9
9
9
9
9
9
9
9
9
9
9
9
9
9
9
9
9
9
9
9
9
9
9
9
9
9
9
9
9
9
9
9
9
9
9
9
9
9
9
9
9
9
9
9
9
9
9
9
9
9
9
9
9
9
9
9
9
9
9
9
9
9
9
9
9
9
9
9
9
9
9
9
9
9
9
9
9
9
9
9
9
9
9
9
9
9
9
9
9
9
9
9
9
9
9
9
9
9
9
9
9
9
9
9
9
9
9
9
9
9
9
9
9
9
9
9
9
9
9
9
9
9
9
9
9
9
9
9
9
9
9
9
9
9
9
9
9
9
9
9
9
9
9
9
9
9
9
9
9
9
9
9
9
9
9
9
9
9
9
9
9
9
9
9
9
9
9
9
9
9
9
9
9
9
9
9
9
9
9
9
9
9
9
9
9
9
9
9
9
9
9
9
9
9
9
9
9
9
9
9
9
9
9
9
9
9
9
9
9
9
9
9
9
9
9
9
9
9
9
9
9
9
9
9
9
9
9
9
9
9
9
9
9
9
9
9
9
9
9
9
9
9
9
9
9
9
9
9
9
9
9
9
9
9
9
9
9
9
9
9
9
9
9
9
9
9
9
9
9
9
9
9
9
9
9
9
9
9
9
9
9
9
9
9
9
9
9
9
9
9
9
9
9
9
9
9
9
9
9
9
9
9
9
9
9
9
9
9
9
9
9
9
9
9
9
9
9
9
9
9
9
9
9
9
9
9
9
9
9
9
9
9
9
9
9
9
9
9
9
9
9
9
9
9
9
9
9
9
9
9
9
9
9
9
9
9
9
9
9
9
9
9
9
9
9
9
9
9
9
9
9
9
9
9
9
9
9
9
9
9
9
9
9
9
9
9
9
9
9
9
9
9
9
9
9
9
9
9
9
9
9
9
9
9
9
9
9
9
9
9
9
9
9
9
9
9
9
9
9
9
9
9
9
9
9
9
9
9
9
9
9
9
9
9
9
9
9
9
9
9
9
9
9
9
9
9
9
9
9
9
9
9
9
9
9
9
9
9
9
9
9
9
9
9
9
9
9
9
9
9
9
9
9
9
9
9
9
9
9
9
9
9
9
9
9
9
9
9
9
9
9
9
9
9
9
9
9
9
9
9
9
9
9
9
9
9
9
9
9
9
9
9
9
9
9
9
9
9
9
9
9
9
9
9
9
9
9
9
9
9
9
9
9
9
9
9
9
9
9
9
9
9
9
9
9
9
9
9
9
9
9
9
9
9
9
9
9
9
9
9
9
9
9
9
9
9
9
9
9
9
9
9
9
9
9
9
9
9
9
9
9
9
9
9
9
9
9
9
9
9
9
9
9
9
9
9
9
9
9
9
9
9
9
9
9
9
9
9
9
9
9
9
9
9
9
9
9
9
9
9
9
9
9
9
9
9
9
9
9
9
9
9
9
9
9
9
9
9
9
9
9
9
9
9
9
9
9
9
9
9
9
9
9
9
9
9
9
9
9
9
9
9
9
9
9
9
9
9
9
9
9
9
9
9
9
9
9
9
9
9
9
9
9
9
9
9
9
9
9
9
9
9
9
9
9
9
9
9
9
9
9
9
9
9
9
9
9
9
9
9
9
9
9
9
9
9
9
9
9
9
9
9
9
9
9
9
9
9
9
9
9
9
9
9
9
9
9
9
9
9
9
9
9
9
9
9
9
9
9
9
9
9
9
9
9
9
9
9
9
9
9
9
9
9
9
9
9
9
9
9
9
9
9
9
9
9
9
9
9
9
9
9
9
9
9
9
9
9
9
9
9
9
9
9
9
9
9
9
9
9
9
9
9
9
9
9
9
9
9
9
9
9
9
9
9
9
9
9
9
9
9
9
9
9
9
9
9
9
9
9
9
9
9
9
9
9
9
9
9
9
9
9
9
9
9
9
9
9
9
9
9
9
9
9
9
9
9
9
9
9
9
9
9
9
9
9
9
9
9
9
9
9
9
9
9
9
9
9
9
9
9
9
9
9
9
9
9
9
9
9
9
9
9
9
9
9
9
9
9
9
9
9
9
9
9
9
9
9
9
9
9
9
9
9
9
9
9
9
9
9
9
9
9
9
9
9
9
9
9
9
9
9
9
9
9
9
9
9
9
9
9
9
9
9
9
9
9
9
9
9
9
9
9
9
9
9
9
9
9
9
9
9
9
9
9
9
9
9
9
9
9
9
9
9
9
9
9
9
9
9
9
9
9
9
9
9
9
9
9
9
9
9
9
9
9
9
9
9
9
9
9
9
9
9
9
9
9
9
9
9
9
9
9
9
9
9
9
9
9
9
9
9
9
9
9
9
9
9
9
9
9
9
9
9
9
9
9
9
9
9
9
9
9
9
9
9
9
9
9
9
9
9
9
9
9
9
9
9
9
9
9
9
9
9
9
9
9
9
9
9
9
9
9
9
9
9
9
9
9
9
9
9
9
9
9
9
9
9
9
9
9
9
9
9
9
9
9
9
9
9
9
9
9
9
9
9
9
9
9
9
9
9
9
9
9
9
9
9
9
9
9
9
9
9
9
9
9
9
9
9
9
9
9
9
9
9
9
9
9
9
9
9
9
9
9
9
9
9
9
9
9
9
9
9
9
9
9
9
9
9
9
9
9
9
9
9
9
9
9
9
9
9
9
9
9
9
9
9
9
9
9
9
9
9
9
9
9
9
9
9
9
9
POINT_DATA      5151
SCALARS p double 
LOOKUP_TABLE default
   70000000.0000000     
   69083217.9503087     
   68207171.1958607     
   67369989.7154004     
   66569886.4500121     
   65805153.4884397     
   65074158.4213561     
   64375340.8568005     
   63707209.0893440     
   63068336.9158758     
   62457360.5912102     
   61872975.9170178     
   61313935.4578657     
   60779045.8784258     
   60267165.3961645     
   59777201.3440785     
   59308107.8382725     
   58858883.5454019     
   58428569.5452131     
   58016247.2836187     
   57621036.6119405     
   57242093.9081308     
   56878610.2759669     
   56529809.8183696     
   56194947.9811623     
   55873309.9637369     
   55564209.1932288     
   55266985.8589516     
   54981005.5039539     
   54705657.6707007     
   54440354.5979815     
   54184529.9662676     
   53937637.6888389     
   53699150.7460991     
   53468560.0605933     
   53245373.4103245     
   53029114.3780490     
   52819321.3343104     
   52615546.4520391     
   52417354.7506141     
   52224323.1673479     
   52036039.6544108     
   51852102.2992688     
   51672118.4667546     
   51495703.9609442     
   51322482.2050466     
   51152083.4375578     
   50984143.9229632     
   50818305.1753024     
   50654213.1929411     
   50491517.7029133     
   50329871.4132245     
   50168929.2715176     
   50008347.7285196     
   49847784.0046954     
   49686895.3585482     
   49525338.3549968     
   49362768.1322756     
   49198837.6657873     
   49033197.0273402     
   48865492.6381862     
   48695366.5142672     
   48522455.5020572     
   48346390.5033697     
   48166795.6874764     
   47983287.6888533     
   47795474.7888436     
   47602956.0794894     
   47405320.6077491     
   47202146.4982705     
   46993000.0528504     
   46777434.8246568     
   46554990.6652370     
   46325192.7422781     
   46087550.5260247     
   45841556.7421865     
   45586686.2891042     
   45322395.1168600     
   45048119.0659417     
   44763272.6629799     
   44467247.8709887     
   44159412.7914417     
   43839110.3154130     
   43505656.7209034     
   43158340.2133580     
   42796419.4062607     
   42419121.7385595     
   42025641.8255479     
   41615139.7396798     
   41186739.2176481     
   40739525.7899022     
   40272544.8286080     
   39784799.5098870     
   39275248.6859826     
   38742804.6628113     
   38186330.8781572     
   37604639.4755500     
   36996488.7686511     
   36360580.5907331     
   35695557.5235952     
   35000000.0000000     
   70000000.0000000     
   69083217.9503087     
   68207171.1958607     
   67369989.7154004     
   66569886.4500121     
   65805153.4884397     
   65074158.4213562     
   64375340.8568005     
   63707209.0893439     
   63068336.9158757     
   62457360.5912102     
   61872975.9170178     
   61313935.4578657     
   60779045.8784258     
   60267165.3961645     
   59777201.3440785     
   59308107.8382725     
   58858883.5454019     
   58428569.5452131     
   58016247.2836187     
   57621036.6119405     
   57242093.9081308     
   56878610.2759669     
   56529809.8183696     
   56194947.9811623     
   55873309.9637369     
   55564209.1932288     
   55266985.8589516     
   54981005.5039539     
   54705657.6707007     
   54440354.5979815     
   54184529.9662677     
   53937637.6888389     
   53699150.7460991     
   53468560.0605933     
   53245373.4103245     
   53029114.3780490     
   52819321.3343104     
   52615546.4520391     
   52417354.7506141     
   52224323.1673478     
   52036039.6544108     
   51852102.2992688     
   51672118.4667546     
   51495703.9609442     
   51322482.2050466     
   51152083.4375578     
   50984143.9229632     
   50818305.1753024     
   50654213.1929410     
   50491517.7029133     
   50329871.4132245     
   50168929.2715176     
   50008347.7285195     
   49847784.0046954     
   49686895.3585482     
   49525338.3549968     
   49362768.1322756     
   49198837.6657873     
   49033197.0273402     
   48865492.6381862     
   48695366.5142673     
   48522455.5020572     
   48346390.5033697     
   48166795.6874764     
   47983287.6888533     
   47795474.7888436     
   47602956.0794894     
   47405320.6077491     
   47202146.4982705     
   46993000.0528504     
   46777434.8246568     
   46554990.6652370     
   46325192.7422781     
   46087550.5260247     
   45841556.7421866     
   45586686.2891041     
   45322395.1168600     
   45048119.0659417     
   44763272.6629799     
   44467247.8709887     
   44159412.7914417     
   43839110.3154130     
   43505656.7209034     
   43158340.2133580     
   42796419.4062607     
   42419121.7385595     
   42025641.8255479     
   41615139.7396798     
   41186739.2176481     
   40739525.7899022     
   40272544.8286080     
   39784799.5098870     
   39275248.6859826     
   38742804.6628113     
   38186330.8781572     
   37604639.4755500     
   36996488.7686511     
   36360580.5907332     
   35695557.5235952     
   35000000.0000000     
   70000000.0000000     
   69083217.9503087     
   68207171.1958607     
   67369989.7154004     
   66569886.4500120     
   65805153.4884396     
   65074158.4213562     
   64375340.8568004     
   63707209.0893439     
   63068336.9158757     
   62457360.5912102     
   61872975.9170178     
   61313935.4578656     
   60779045.8784258     
   60267165.3961645     
   59777201.3440786     
   59308107.8382725     
   58858883.5454019     
   58428569.5452131     
   58016247.2836188     
   57621036.6119404     
   57242093.9081308     
   56878610.2759669     
   56529809.8183696     
   56194947.9811624     
   55873309.9637369     
   55564209.1932289     
   55266985.8589516     
   54981005.5039539     
   54705657.6707008     
   54440354.5979815     
   54184529.9662677     
   53937637.6888389     
   53699150.7460991     
   53468560.0605934     
   53245373.4103245     
   53029114.3780490     
   52819321.3343105     
   52615546.4520391     
   52417354.7506141     
   52224323.1673478     
   52036039.6544108     
   51852102.2992688     
   51672118.4667546     
   51495703.9609442     
   51322482.2050466     
   51152083.4375578     
   50984143.9229631     
   50818305.1753025     
   50654213.1929410     
   50491517.7029133     
   50329871.4132245     
   50168929.2715176     
   50008347.7285195     
   49847784.0046955     
   49686895.3585482     
   49525338.3549969     
   49362768.1322756     
   49198837.6657873     
   49033197.0273402     
   48865492.6381862     
   48695366.5142673     
   48522455.5020572     
   48346390.5033698     
   48166795.6874764     
   47983287.6888533     
   47795474.7888436     
   47602956.0794894     
   47405320.6077491     
   47202146.4982705     
   46993000.0528504     
   46777434.8246569     
   46554990.6652370     
   46325192.7422782     
   46087550.5260247     
   45841556.7421866     
   45586686.2891041     
   45322395.1168600     
   45048119.0659417     
   44763272.6629799     
   44467247.8709887     
   44159412.7914417     
   43839110.3154130     
   43505656.7209034     
   43158340.2133580     
   42796419.4062607     
   42419121.7385595     
   42025641.8255479     
   41615139.7396798     
   41186739.2176481     
   40739525.7899022     
   40272544.8286079     
   39784799.5098870     
   39275248.6859825     
   38742804.6628113     
   38186330.8781572     
   37604639.4755500     
   36996488.7686512     
   36360580.5907332     
   35695557.5235952     
   35000000.0000000     
   70000000.0000000     
   69083217.9503087     
   68207171.1958607     
   67369989.7154004     
   66569886.4500120     
   65805153.4884396     
   65074158.4213561     
   64375340.8568004     
   63707209.0893439     
   63068336.9158758     
   62457360.5912102     
   61872975.9170178     
   61313935.4578656     
   60779045.8784258     
   60267165.3961646     
   59777201.3440786     
   59308107.8382726     
   58858883.5454019     
   58428569.5452131     
   58016247.2836188     
   57621036.6119404     
   57242093.9081308     
   56878610.2759669     
   56529809.8183696     
   56194947.9811624     
   55873309.9637368     
   55564209.1932289     
   55266985.8589516     
   54981005.5039539     
   54705657.6707008     
   54440354.5979816     
   54184529.9662677     
   53937637.6888389     
   53699150.7460991     
   53468560.0605934     
   53245373.4103245     
   53029114.3780491     
   52819321.3343104     
   52615546.4520390     
   52417354.7506141     
   52224323.1673478     
   52036039.6544108     
   51852102.2992688     
   51672118.4667546     
   51495703.9609442     
   51322482.2050466     
   51152083.4375578     
   50984143.9229632     
   50818305.1753025     
   50654213.1929410     
   50491517.7029133     
   50329871.4132245     
   50168929.2715177     
   50008347.7285196     
   49847784.0046955     
   49686895.3585482     
   49525338.3549968     
   49362768.1322756     
   49198837.6657873     
   49033197.0273402     
   48865492.6381863     
   48695366.5142673     
   48522455.5020572     
   48346390.5033698     
   48166795.6874764     
   47983287.6888533     
   47795474.7888436     
   47602956.0794894     
   47405320.6077491     
   47202146.4982705     
   46993000.0528505     
   46777434.8246569     
   46554990.6652370     
   46325192.7422782     
   46087550.5260247     
   45841556.7421865     
   45586686.2891042     
   45322395.1168600     
   45048119.0659417     
   44763272.6629799     
   44467247.8709887     
   44159412.7914417     
   43839110.3154130     
   43505656.7209034     
   43158340.2133580     
   42796419.4062607     
   42419121.7385595     
   42025641.8255480     
   41615139.7396798     
   41186739.2176481     
   40739525.7899022     
   40272544.8286079     
   39784799.5098870     
   39275248.6859825     
   38742804.6628113     
   38186330.8781572     
   37604639.4755499     
   36996488.7686512     
   36360580.5907331     
   35695557.5235951     
   35000000.0000000     
   70000000.0000000     
   69083217.9503087     
   68207171.1958607     
   67369989.7154004     
   66569886.4500120     
   65805153.4884396     
   65074158.4213561     
   64375340.8568004     
   63707209.0893439     
   63068336.9158758     
   62457360.5912103     
   61872975.9170178     
   61313935.4578656     
   60779045.8784258     
   60267165.3961646     
   59777201.3440786     
   59308107.8382726     
   58858883.5454020     
   58428569.5452131     
   58016247.2836188     
   57621036.6119404     
   57242093.9081308     
   56878610.2759669     
   56529809.8183696     
   56194947.9811624     
   55873309.9637369     
   55564209.1932290     
   55266985.8589516     
   54981005.5039540     
   54705657.6707008     
   54440354.5979816     
   54184529.9662678     
   53937637.6888389     
   53699150.7460992     
   53468560.0605934     
   53245373.4103245     
   53029114.3780491     
   52819321.3343105     
   52615546.4520390     
   52417354.7506141     
   52224323.1673478     
   52036039.6544108     
   51852102.2992688     
   51672118.4667547     
   51495703.9609442     
   51322482.2050467     
   51152083.4375578     
   50984143.9229632     
   50818305.1753025     
   50654213.1929411     
   50491517.7029133     
   50329871.4132245     
   50168929.2715177     
   50008347.7285196     
   49847784.0046955     
   49686895.3585482     
   49525338.3549969     
   49362768.1322757     
   49198837.6657874     
   49033197.0273403     
   48865492.6381863     
   48695366.5142673     
   48522455.5020572     
   48346390.5033698     
   48166795.6874765     
   47983287.6888533     
   47795474.7888436     
   47602956.0794894     
   47405320.6077491     
   47202146.4982705     
   46993000.0528505     
   46777434.8246569     
   46554990.6652371     
   46325192.7422782     
   46087550.5260247     
   45841556.7421865     
   45586686.2891042     
   45322395.1168601     
   45048119.0659417     
   44763272.6629799     
   44467247.8709887     
   44159412.7914417     
   43839110.3154129     
   43505656.7209033     
   43158340.2133580     
   42796419.4062607     
   42419121.7385595     
   42025641.8255480     
   41615139.7396798     
   41186739.2176481     
   40739525.7899022     
   40272544.8286079     
   39784799.5098870     
   39275248.6859825     
   38742804.6628113     
   38186330.8781571     
   37604639.4755499     
   36996488.7686511     
   36360580.5907331     
   35695557.5235951     
   35000000.0000000     
   70000000.0000000     
   69083217.9503087     
   68207171.1958608     
   67369989.7154003     
   66569886.4500120     
   65805153.4884396     
   65074158.4213560     
   64375340.8568003     
   63707209.0893438     
   63068336.9158758     
   62457360.5912102     
   61872975.9170177     
   61313935.4578656     
   60779045.8784258     
   60267165.3961646     
   59777201.3440786     
   59308107.8382726     
   58858883.5454020     
   58428569.5452131     
   58016247.2836188     
   57621036.6119404     
   57242093.9081308     
   56878610.2759669     
   56529809.8183696     
   56194947.9811624     
   55873309.9637369     
   55564209.1932289     
   55266985.8589516     
   54981005.5039540     
   54705657.6707008     
   54440354.5979816     
   54184529.9662678     
   53937637.6888389     
   53699150.7460992     
   53468560.0605934     
   53245373.4103245     
   53029114.3780491     
   52819321.3343105     
   52615546.4520391     
   52417354.7506141     
   52224323.1673478     
   52036039.6544108     
   51852102.2992688     
   51672118.4667547     
   51495703.9609443     
   51322482.2050467     
   51152083.4375578     
   50984143.9229632     
   50818305.1753025     
   50654213.1929411     
   50491517.7029133     
   50329871.4132245     
   50168929.2715177     
   50008347.7285196     
   49847784.0046956     
   49686895.3585482     
   49525338.3549969     
   49362768.1322757     
   49198837.6657874     
   49033197.0273403     
   48865492.6381863     
   48695366.5142673     
   48522455.5020573     
   48346390.5033698     
   48166795.6874765     
   47983287.6888534     
   47795474.7888436     
   47602956.0794895     
   47405320.6077491     
   47202146.4982705     
   46993000.0528505     
   46777434.8246569     
   46554990.6652371     
   46325192.7422782     
   46087550.5260247     
   45841556.7421865     
   45586686.2891042     
   45322395.1168601     
   45048119.0659417     
   44763272.6629799     
   44467247.8709887     
   44159412.7914417     
   43839110.3154130     
   43505656.7209033     
   43158340.2133580     
   42796419.4062607     
   42419121.7385595     
   42025641.8255480     
   41615139.7396798     
   41186739.2176481     
   40739525.7899022     
   40272544.8286079     
   39784799.5098870     
   39275248.6859825     
   38742804.6628113     
   38186330.8781571     
   37604639.4755499     
   36996488.7686511     
   36360580.5907331     
   35695557.5235951     
   35000000.0000000     
   70000000.0000000     
   69083217.9503087     
   68207171.1958607     
   67369989.7154003     
   66569886.4500120     
   65805153.4884395     
   65074158.4213559     
   64375340.8568003     
   63707209.0893437     
   63068336.9158758     
   62457360.5912102     
   61872975.9170177     
   61313935.4578656     
   60779045.8784258     
   60267165.3961646     
   59777201.3440786     
   59308107.8382726     
   58858883.5454020     
   58428569.5452131     
   58016247.2836188     
   57621036.6119404     
   57242093.9081307     
   56878610.2759669     
   56529809.8183696     
   56194947.9811624     
   55873309.9637369     
   55564209.1932289     
   55266985.8589517     
   54981005.5039540     
   54705657.6707008     
   54440354.5979817     
   54184529.9662677     
   53937637.6888390     
   53699150.7460991     
   53468560.0605934     
   53245373.4103245     
   53029114.3780490     
   52819321.3343105     
   52615546.4520391     
   52417354.7506141     
   52224323.1673477     
   52036039.6544108     
   51852102.2992688     
   51672118.4667547     
   51495703.9609443     
   51322482.2050467     
   51152083.4375578     
   50984143.9229632     
   50818305.1753025     
   50654213.1929411     
   50491517.7029133     
   50329871.4132245     
   50168929.2715176     
   50008347.7285196     
   49847784.0046955     
   49686895.3585482     
   49525338.3549969     
   49362768.1322757     
   49198837.6657874     
   49033197.0273403     
   48865492.6381863     
   48695366.5142673     
   48522455.5020573     
   48346390.5033698     
   48166795.6874765     
   47983287.6888534     
   47795474.7888436     
   47602956.0794895     
   47405320.6077491     
   47202146.4982705     
   46993000.0528505     
   46777434.8246569     
   46554990.6652371     
   46325192.7422782     
   46087550.5260247     
   45841556.7421865     
   45586686.2891041     
   45322395.1168600     
   45048119.0659417     
   44763272.6629798     
   44467247.8709887     
   44159412.7914417     
   43839110.3154130     
   43505656.7209033     
   43158340.2133579     
   42796419.4062606     
   42419121.7385595     
   42025641.8255480     
   41615139.7396798     
   41186739.2176481     
   40739525.7899022     
   40272544.8286079     
   39784799.5098869     
   39275248.6859825     
   38742804.6628112     
   38186330.8781571     
   37604639.4755499     
   36996488.7686511     
   36360580.5907331     
   35695557.5235951     
   35000000.0000000     
   70000000.0000000     
   69083217.9503086     
   68207171.1958607     
   67369989.7154002     
   66569886.4500119     
   65805153.4884395     
   65074158.4213559     
   64375340.8568002     
   63707209.0893437     
   63068336.9158757     
   62457360.5912103     
   61872975.9170177     
   61313935.4578656     
   60779045.8784258     
   60267165.3961646     
   59777201.3440785     
   59308107.8382726     
   58858883.5454020     
   58428569.5452131     
   58016247.2836188     
   57621036.6119404     
   57242093.9081307     
   56878610.2759670     
   56529809.8183696     
   56194947.9811624     
   55873309.9637369     
   55564209.1932289     
   55266985.8589516     
   54981005.5039540     
   54705657.6707009     
   54440354.5979817     
   54184529.9662678     
   53937637.6888390     
   53699150.7460991     
   53468560.0605934     
   53245373.4103245     
   53029114.3780490     
   52819321.3343104     
   52615546.4520391     
   52417354.7506140     
   52224323.1673477     
   52036039.6544108     
   51852102.2992688     
   51672118.4667546     
   51495703.9609443     
   51322482.2050467     
   51152083.4375578     
   50984143.9229631     
   50818305.1753025     
   50654213.1929411     
   50491517.7029133     
   50329871.4132245     
   50168929.2715176     
   50008347.7285195     
   49847784.0046955     
   49686895.3585482     
   49525338.3549969     
   49362768.1322757     
   49198837.6657874     
   49033197.0273403     
   48865492.6381863     
   48695366.5142673     
   48522455.5020573     
   48346390.5033698     
   48166795.6874765     
   47983287.6888534     
   47795474.7888436     
   47602956.0794894     
   47405320.6077492     
   47202146.4982704     
   46993000.0528504     
   46777434.8246569     
   46554990.6652370     
   46325192.7422782     
   46087550.5260247     
   45841556.7421865     
   45586686.2891041     
   45322395.1168600     
   45048119.0659416     
   44763272.6629798     
   44467247.8709887     
   44159412.7914417     
   43839110.3154129     
   43505656.7209032     
   43158340.2133579     
   42796419.4062606     
   42419121.7385595     
   42025641.8255480     
   41615139.7396797     
   41186739.2176481     
   40739525.7899021     
   40272544.8286079     
   39784799.5098870     
   39275248.6859825     
   38742804.6628112     
   38186330.8781571     
   37604639.4755499     
   36996488.7686511     
   36360580.5907331     
   35695557.5235951     
   35000000.0000000     
   70000000.0000000     
   69083217.9503086     
   68207171.1958606     
   67369989.7154002     
   66569886.4500118     
   65805153.4884394     
   65074158.4213559     
   64375340.8568002     
   63707209.0893437     
   63068336.9158757     
   62457360.5912102     
   61872975.9170177     
   61313935.4578656     
   60779045.8784258     
   60267165.3961646     
   59777201.3440785     
   59308107.8382726     
   58858883.5454020     
   58428569.5452131     
   58016247.2836188     
   57621036.6119404     
   57242093.9081307     
   56878610.2759670     
   56529809.8183695     
   56194947.9811624     
   55873309.9637368     
   55564209.1932290     
   55266985.8589516     
   54981005.5039540     
   54705657.6707008     
   54440354.5979817     
   54184529.9662678     
   53937637.6888389     
   53699150.7460991     
   53468560.0605934     
   53245373.4103244     
   53029114.3780490     
   52819321.3343104     
   52615546.4520391     
   52417354.7506140     
   52224323.1673477     
   52036039.6544107     
   51852102.2992688     
   51672118.4667546     
   51495703.9609443     
   51322482.2050466     
   51152083.4375578     
   50984143.9229631     
   50818305.1753025     
   50654213.1929411     
   50491517.7029133     
   50329871.4132245     
   50168929.2715176     
   50008347.7285195     
   49847784.0046955     
   49686895.3585482     
   49525338.3549969     
   49362768.1322757     
   49198837.6657874     
   49033197.0273404     
   48865492.6381864     
   48695366.5142673     
   48522455.5020574     
   48346390.5033698     
   48166795.6874765     
   47983287.6888535     
   47795474.7888436     
   47602956.0794894     
   47405320.6077491     
   47202146.4982704     
   46993000.0528504     
   46777434.8246569     
   46554990.6652370     
   46325192.7422782     
   46087550.5260246     
   45841556.7421865     
   45586686.2891041     
   45322395.1168599     
   45048119.0659416     
   44763272.6629798     
   44467247.8709886     
   44159412.7914417     
   43839110.3154129     
   43505656.7209032     
   43158340.2133578     
   42796419.4062605     
   42419121.7385595     
   42025641.8255480     
   41615139.7396797     
   41186739.2176481     
   40739525.7899021     
   40272544.8286079     
   39784799.5098869     
   39275248.6859824     
   38742804.6628112     
   38186330.8781570     
   37604639.4755498     
   36996488.7686510     
   36360580.5907331     
   35695557.5235951     
   35000000.0000000     
   70000000.0000000     
   69083217.9503086     
   68207171.1958605     
   67369989.7154001     
   66569886.4500118     
   65805153.4884393     
   65074158.4213558     
   64375340.8568001     
   63707209.0893437     
   63068336.9158757     
   62457360.5912102     
   61872975.9170177     
   61313935.4578656     
   60779045.8784258     
   60267165.3961646     
   59777201.3440786     
   59308107.8382726     
   58858883.5454020     
   58428569.5452131     
   58016247.2836188     
   57621036.6119403     
   57242093.9081307     
   56878610.2759669     
   56529809.8183695     
   56194947.9811624     
   55873309.9637368     
   55564209.1932289     
   55266985.8589516     
   54981005.5039540     
   54705657.6707009     
   54440354.5979816     
   54184529.9662678     
   53937637.6888389     
   53699150.7460991     
   53468560.0605934     
   53245373.4103244     
   53029114.3780489     
   52819321.3343104     
   52615546.4520390     
   52417354.7506141     
   52224323.1673477     
   52036039.6544107     
   51852102.2992687     
   51672118.4667546     
   51495703.9609443     
   51322482.2050466     
   51152083.4375578     
   50984143.9229631     
   50818305.1753024     
   50654213.1929411     
   50491517.7029132     
   50329871.4132244     
   50168929.2715177     
   50008347.7285195     
   49847784.0046955     
   49686895.3585482     
   49525338.3549969     
   49362768.1322757     
   49198837.6657874     
   49033197.0273404     
   48865492.6381864     
   48695366.5142674     
   48522455.5020574     
   48346390.5033698     
   48166795.6874765     
   47983287.6888534     
   47795474.7888436     
   47602956.0794894     
   47405320.6077491     
   47202146.4982704     
   46993000.0528504     
   46777434.8246569     
   46554990.6652369     
   46325192.7422782     
   46087550.5260246     
   45841556.7421864     
   45586686.2891041     
   45322395.1168598     
   45048119.0659416     
   44763272.6629798     
   44467247.8709886     
   44159412.7914417     
   43839110.3154129     
   43505656.7209031     
   43158340.2133578     
   42796419.4062605     
   42419121.7385594     
   42025641.8255479     
   41615139.7396797     
   41186739.2176481     
   40739525.7899021     
   40272544.8286078     
   39784799.5098868     
   39275248.6859824     
   38742804.6628111     
   38186330.8781570     
   37604639.4755498     
   36996488.7686510     
   36360580.5907331     
   35695557.5235951     
   35000000.0000000     
   70000000.0000000     
   69083217.9503086     
   68207171.1958604     
   67369989.7154001     
   66569886.4500118     
   65805153.4884393     
   65074158.4213557     
   64375340.8568000     
   63707209.0893436     
   63068336.9158756     
   62457360.5912102     
   61872975.9170176     
   61313935.4578656     
   60779045.8784258     
   60267165.3961646     
   59777201.3440786     
   59308107.8382726     
   58858883.5454020     
   58428569.5452132     
   58016247.2836188     
   57621036.6119403     
   57242093.9081307     
   56878610.2759669     
   56529809.8183695     
   56194947.9811624     
   55873309.9637368     
   55564209.1932289     
   55266985.8589516     
   54981005.5039540     
   54705657.6707008     
   54440354.5979816     
   54184529.9662677     
   53937637.6888389     
   53699150.7460991     
   53468560.0605933     
   53245373.4103244     
   53029114.3780489     
   52819321.3343103     
   52615546.4520390     
   52417354.7506141     
   52224323.1673477     
   52036039.6544107     
   51852102.2992687     
   51672118.4667545     
   51495703.9609443     
   51322482.2050466     
   51152083.4375578     
   50984143.9229631     
   50818305.1753023     
   50654213.1929411     
   50491517.7029132     
   50329871.4132245     
   50168929.2715176     
   50008347.7285195     
   49847784.0046954     
   49686895.3585482     
   49525338.3549969     
   49362768.1322757     
   49198837.6657874     
   49033197.0273403     
   48865492.6381865     
   48695366.5142674     
   48522455.5020573     
   48346390.5033698     
   48166795.6874765     
   47983287.6888534     
   47795474.7888436     
   47602956.0794894     
   47405320.6077491     
   47202146.4982704     
   46993000.0528504     
   46777434.8246568     
   46554990.6652369     
   46325192.7422781     
   46087550.5260246     
   45841556.7421863     
   45586686.2891041     
   45322395.1168598     
   45048119.0659415     
   44763272.6629798     
   44467247.8709885     
   44159412.7914417     
   43839110.3154129     
   43505656.7209031     
   43158340.2133578     
   42796419.4062605     
   42419121.7385594     
   42025641.8255479     
   41615139.7396796     
   41186739.2176480     
   40739525.7899021     
   40272544.8286077     
   39784799.5098868     
   39275248.6859824     
   38742804.6628111     
   38186330.8781569     
   37604639.4755497     
   36996488.7686510     
   36360580.5907330     
   35695557.5235950     
   35000000.0000000     
   70000000.0000000     
   69083217.9503086     
   68207171.1958603     
   67369989.7153999     
   66569886.4500117     
   65805153.4884393     
   65074158.4213556     
   64375340.8568000     
   63707209.0893435     
   63068336.9158756     
   62457360.5912101     
   61872975.9170176     
   61313935.4578656     
   60779045.8784257     
   60267165.3961645     
   59777201.3440786     
   59308107.8382726     
   58858883.5454020     
   58428569.5452132     
   58016247.2836187     
   57621036.6119403     
   57242093.9081306     
   56878610.2759669     
   56529809.8183694     
   56194947.9811623     
   55873309.9637367     
   55564209.1932289     
   55266985.8589516     
   54981005.5039539     
   54705657.6707008     
   54440354.5979816     
   54184529.9662677     
   53937637.6888388     
   53699150.7460991     
   53468560.0605933     
   53245373.4103244     
   53029114.3780489     
   52819321.3343103     
   52615546.4520390     
   52417354.7506140     
   52224323.1673477     
   52036039.6544107     
   51852102.2992686     
   51672118.4667545     
   51495703.9609443     
   51322482.2050466     
   51152083.4375578     
   50984143.9229631     
   50818305.1753023     
   50654213.1929411     
   50491517.7029131     
   50329871.4132244     
   50168929.2715176     
   50008347.7285195     
   49847784.0046954     
   49686895.3585482     
   49525338.3549968     
   49362768.1322756     
   49198837.6657874     
   49033197.0273403     
   48865492.6381864     
   48695366.5142674     
   48522455.5020573     
   48346390.5033698     
   48166795.6874765     
   47983287.6888534     
   47795474.7888435     
   47602956.0794893     
   47405320.6077490     
   47202146.4982704     
   46993000.0528504     
   46777434.8246568     
   46554990.6652369     
   46325192.7422780     
   46087550.5260245     
   45841556.7421862     
   45586686.2891040     
   45322395.1168597     
   45048119.0659415     
   44763272.6629797     
   44467247.8709885     
   44159412.7914416     
   43839110.3154129     
   43505656.7209030     
   43158340.2133577     
   42796419.4062604     
   42419121.7385593     
   42025641.8255478     
   41615139.7396796     
   41186739.2176480     
   40739525.7899020     
   40272544.8286077     
   39784799.5098867     
   39275248.6859823     
   38742804.6628111     
   38186330.8781569     
   37604639.4755497     
   36996488.7686510     
   36360580.5907330     
   35695557.5235951     
   35000000.0000000     
   70000000.0000000     
   69083217.9503086     
   68207171.1958602     
   67369989.7153999     
   66569886.4500116     
   65805153.4884393     
   65074158.4213555     
   64375340.8567999     
   63707209.0893434     
   63068336.9158756     
   62457360.5912100     
   61872975.9170175     
   61313935.4578655     
   60779045.8784257     
   60267165.3961645     
   59777201.3440785     
   59308107.8382726     
   58858883.5454019     
   58428569.5452131     
   58016247.2836187     
   57621036.6119402     
   57242093.9081306     
   56878610.2759669     
   56529809.8183694     
   56194947.9811623     
   55873309.9637367     
   55564209.1932289     
   55266985.8589516     
   54981005.5039540     
   54705657.6707008     
   54440354.5979816     
   54184529.9662677     
   53937637.6888388     
   53699150.7460991     
   53468560.0605933     
   53245373.4103243     
   53029114.3780488     
   52819321.3343102     
   52615546.4520390     
   52417354.7506140     
   52224323.1673477     
   52036039.6544106     
   51852102.2992686     
   51672118.4667545     
   51495703.9609443     
   51322482.2050466     
   51152083.4375578     
   50984143.9229631     
   50818305.1753023     
   50654213.1929411     
   50491517.7029131     
   50329871.4132243     
   50168929.2715175     
   50008347.7285194     
   49847784.0046953     
   49686895.3585481     
   49525338.3549968     
   49362768.1322756     
   49198837.6657874     
   49033197.0273402     
   48865492.6381864     
   48695366.5142674     
   48522455.5020573     
   48346390.5033698     
   48166795.6874765     
   47983287.6888534     
   47795474.7888435     
   47602956.0794893     
   47405320.6077491     
   47202146.4982703     
   46993000.0528504     
   46777434.8246568     
   46554990.6652369     
   46325192.7422779     
   46087550.5260244     
   45841556.7421861     
   45586686.2891039     
   45322395.1168596     
   45048119.0659414     
   44763272.6629797     
   44467247.8709885     
   44159412.7914415     
   43839110.3154128     
   43505656.7209030     
   43158340.2133577     
   42796419.4062604     
   42419121.7385593     
   42025641.8255478     
   41615139.7396795     
   41186739.2176479     
   40739525.7899019     
   40272544.8286076     
   39784799.5098867     
   39275248.6859823     
   38742804.6628110     
   38186330.8781568     
   37604639.4755497     
   36996488.7686510     
   36360580.5907330     
   35695557.5235950     
   35000000.0000000     
   70000000.0000000     
   69083217.9503085     
   68207171.1958602     
   67369989.7153998     
   66569886.4500114     
   65805153.4884392     
   65074158.4213555     
   64375340.8567998     
   63707209.0893434     
   63068336.9158755     
   62457360.5912101     
   61872975.9170174     
   61313935.4578654     
   60779045.8784256     
   60267165.3961645     
   59777201.3440785     
   59308107.8382725     
   58858883.5454019     
   58428569.5452131     
   58016247.2836187     
   57621036.6119402     
   57242093.9081306     
   56878610.2759669     
   56529809.8183693     
   56194947.9811623     
   55873309.9637367     
   55564209.1932288     
   55266985.8589516     
   54981005.5039540     
   54705657.6707008     
   54440354.5979816     
   54184529.9662677     
   53937637.6888388     
   53699150.7460990     
   53468560.0605934     
   53245373.4103243     
   53029114.3780488     
   52819321.3343102     
   52615546.4520390     
   52417354.7506140     
   52224323.1673476     
   52036039.6544106     
   51852102.2992685     
   51672118.4667546     
   51495703.9609443     
   51322482.2050466     
   51152083.4375578     
   50984143.9229631     
   50818305.1753023     
   50654213.1929411     
   50491517.7029131     
   50329871.4132243     
   50168929.2715175     
   50008347.7285194     
   49847784.0046953     
   49686895.3585481     
   49525338.3549968     
   49362768.1322756     
   49198837.6657874     
   49033197.0273402     
   48865492.6381864     
   48695366.5142674     
   48522455.5020574     
   48346390.5033698     
   48166795.6874765     
   47983287.6888534     
   47795474.7888435     
   47602956.0794893     
   47405320.6077490     
   47202146.4982704     
   46993000.0528504     
   46777434.8246568     
   46554990.6652369     
   46325192.7422779     
   46087550.5260243     
   45841556.7421861     
   45586686.2891038     
   45322395.1168596     
   45048119.0659413     
   44763272.6629796     
   44467247.8709884     
   44159412.7914414     
   43839110.3154128     
   43505656.7209030     
   43158340.2133576     
   42796419.4062603     
   42419121.7385592     
   42025641.8255477     
   41615139.7396795     
   41186739.2176479     
   40739525.7899019     
   40272544.8286076     
   39784799.5098867     
   39275248.6859822     
   38742804.6628110     
   38186330.8781568     
   37604639.4755497     
   36996488.7686510     
   36360580.5907329     
   35695557.5235951     
   35000000.0000000     
   70000000.0000000     
   69083217.9503084     
   68207171.1958602     
   67369989.7153998     
   66569886.4500112     
   65805153.4884390     
   65074158.4213554     
   64375340.8567997     
   63707209.0893434     
   63068336.9158755     
   62457360.5912100     
   61872975.9170173     
   61313935.4578654     
   60779045.8784256     
   60267165.3961645     
   59777201.3440785     
   59308107.8382725     
   58858883.5454019     
   58428569.5452131     
   58016247.2836186     
   57621036.6119402     
   57242093.9081305     
   56878610.2759668     
   56529809.8183693     
   56194947.9811622     
   55873309.9637367     
   55564209.1932288     
   55266985.8589516     
   54981005.5039540     
   54705657.6707008     
   54440354.5979816     
   54184529.9662676     
   53937637.6888388     
   53699150.7460991     
   53468560.0605933     
   53245373.4103242     
   53029114.3780487     
   52819321.3343102     
   52615546.4520390     
   52417354.7506139     
   52224323.1673476     
   52036039.6544105     
   51852102.2992684     
   51672118.4667545     
   51495703.9609443     
   51322482.2050467     
   51152083.4375578     
   50984143.9229631     
   50818305.1753023     
   50654213.1929410     
   50491517.7029131     
   50329871.4132242     
   50168929.2715175     
   50008347.7285193     
   49847784.0046953     
   49686895.3585481     
   49525338.3549968     
   49362768.1322756     
   49198837.6657874     
   49033197.0273403     
   48865492.6381864     
   48695366.5142674     
   48522455.5020573     
   48346390.5033698     
   48166795.6874766     
   47983287.6888534     
   47795474.7888436     
   47602956.0794893     
   47405320.6077490     
   47202146.4982704     
   46993000.0528503     
   46777434.8246567     
   46554990.6652368     
   46325192.7422778     
   46087550.5260243     
   45841556.7421861     
   45586686.2891037     
   45322395.1168595     
   45048119.0659413     
   44763272.6629796     
   44467247.8709884     
   44159412.7914414     
   43839110.3154127     
   43505656.7209029     
   43158340.2133576     
   42796419.4062602     
   42419121.7385592     
   42025641.8255477     
   41615139.7396795     
   41186739.2176479     
   40739525.7899019     
   40272544.8286076     
   39784799.5098866     
   39275248.6859822     
   38742804.6628109     
   38186330.8781568     
   37604639.4755497     
   36996488.7686510     
   36360580.5907330     
   35695557.5235951     
   35000000.0000000     
   70000000.0000000     
   69083217.9503084     
   68207171.1958601     
   67369989.7153997     
   66569886.4500113     
   65805153.4884389     
   65074158.4213554     
   64375340.8567996     
   63707209.0893433     
   63068336.9158753     
   62457360.5912099     
   61872975.9170173     
   61313935.4578653     
   60779045.8784255     
   60267165.3961645     
   59777201.3440785     
   59308107.8382725     
   58858883.5454020     
   58428569.5452131     
   58016247.2836186     
   57621036.6119402     
   57242093.9081305     
   56878610.2759668     
   56529809.8183693     
   56194947.9811622     
   55873309.9637366     
   55564209.1932287     
   55266985.8589516     
   54981005.5039540     
   54705657.6707008     
   54440354.5979816     
   54184529.9662676     
   53937637.6888387     
   53699150.7460990     
   53468560.0605933     
   53245373.4103242     
   53029114.3780487     
   52819321.3343102     
   52615546.4520389     
   52417354.7506139     
   52224323.1673475     
   52036039.6544105     
   51852102.2992684     
   51672118.4667545     
   51495703.9609442     
   51322482.2050467     
   51152083.4375578     
   50984143.9229631     
   50818305.1753024     
   50654213.1929410     
   50491517.7029130     
   50329871.4132242     
   50168929.2715175     
   50008347.7285193     
   49847784.0046953     
   49686895.3585481     
   49525338.3549967     
   49362768.1322756     
   49198837.6657874     
   49033197.0273403     
   48865492.6381864     
   48695366.5142674     
   48522455.5020573     
   48346390.5033698     
   48166795.6874766     
   47983287.6888534     
   47795474.7888435     
   47602956.0794893     
   47405320.6077489     
   47202146.4982703     
   46993000.0528503     
   46777434.8246567     
   46554990.6652367     
   46325192.7422777     
   46087550.5260243     
   45841556.7421860     
   45586686.2891037     
   45322395.1168594     
   45048119.0659413     
   44763272.6629796     
   44467247.8709883     
   44159412.7914414     
   43839110.3154126     
   43505656.7209029     
   43158340.2133575     
   42796419.4062601     
   42419121.7385591     
   42025641.8255476     
   41615139.7396794     
   41186739.2176478     
   40739525.7899019     
   40272544.8286075     
   39784799.5098866     
   39275248.6859822     
   38742804.6628109     
   38186330.8781568     
   37604639.4755496     
   36996488.7686509     
   36360580.5907330     
   35695557.5235950     
   35000000.0000000     
   70000000.0000000     
   69083217.9503083     
   68207171.1958600     
   67369989.7153995     
   66569886.4500113     
   65805153.4884388     
   65074158.4213553     
   64375340.8567996     
   63707209.0893432     
   63068336.9158752     
   62457360.5912099     
   61872975.9170172     
   61313935.4578653     
   60779045.8784254     
   60267165.3961644     
   59777201.3440785     
   59308107.8382724     
   58858883.5454020     
   58428569.5452130     
   58016247.2836186     
   57621036.6119401     
   57242093.9081305     
   56878610.2759667     
   56529809.8183693     
   56194947.9811622     
   55873309.9637366     
   55564209.1932287     
   55266985.8589516     
   54981005.5039541     
   54705657.6707008     
   54440354.5979816     
   54184529.9662676     
   53937637.6888387     
   53699150.7460990     
   53468560.0605933     
   53245373.4103242     
   53029114.3780487     
   52819321.3343101     
   52615546.4520389     
   52417354.7506138     
   52224323.1673474     
   52036039.6544105     
   51852102.2992684     
   51672118.4667545     
   51495703.9609442     
   51322482.2050466     
   51152083.4375578     
   50984143.9229631     
   50818305.1753024     
   50654213.1929409     
   50491517.7029130     
   50329871.4132242     
   50168929.2715174     
   50008347.7285192     
   49847784.0046953     
   49686895.3585480     
   49525338.3549968     
   49362768.1322756     
   49198837.6657874     
   49033197.0273404     
   48865492.6381865     
   48695366.5142674     
   48522455.5020573     
   48346390.5033699     
   48166795.6874766     
   47983287.6888533     
   47795474.7888435     
   47602956.0794893     
   47405320.6077489     
   47202146.4982702     
   46993000.0528503     
   46777434.8246567     
   46554990.6652367     
   46325192.7422777     
   46087550.5260242     
   45841556.7421861     
   45586686.2891036     
   45322395.1168594     
   45048119.0659412     
   44763272.6629796     
   44467247.8709882     
   44159412.7914413     
   43839110.3154126     
   43505656.7209029     
   43158340.2133575     
   42796419.4062601     
   42419121.7385590     
   42025641.8255476     
   41615139.7396794     
   41186739.2176477     
   40739525.7899018     
   40272544.8286074     
   39784799.5098865     
   39275248.6859821     
   38742804.6628109     
   38186330.8781567     
   37604639.4755496     
   36996488.7686509     
   36360580.5907330     
   35695557.5235950     
   35000000.0000000     
   70000000.0000000     
   69083217.9503083     
   68207171.1958599     
   67369989.7153994     
   66569886.4500112     
   65805153.4884387     
   65074158.4213551     
   64375340.8567995     
   63707209.0893431     
   63068336.9158752     
   62457360.5912097     
   61872975.9170173     
   61313935.4578652     
   60779045.8784253     
   60267165.3961644     
   59777201.3440784     
   59308107.8382725     
   58858883.5454020     
   58428569.5452130     
   58016247.2836186     
   57621036.6119401     
   57242093.9081305     
   56878610.2759667     
   56529809.8183693     
   56194947.9811621     
   55873309.9637366     
   55564209.1932287     
   55266985.8589516     
   54981005.5039541     
   54705657.6707008     
   54440354.5979815     
   54184529.9662677     
   53937637.6888387     
   53699150.7460990     
   53468560.0605933     
   53245373.4103242     
   53029114.3780486     
   52819321.3343101     
   52615546.4520388     
   52417354.7506138     
   52224323.1673475     
   52036039.6544105     
   51852102.2992684     
   51672118.4667545     
   51495703.9609442     
   51322482.2050466     
   51152083.4375578     
   50984143.9229630     
   50818305.1753024     
   50654213.1929409     
   50491517.7029130     
   50329871.4132242     
   50168929.2715174     
   50008347.7285192     
   49847784.0046953     
   49686895.3585481     
   49525338.3549967     
   49362768.1322756     
   49198837.6657874     
   49033197.0273404     
   48865492.6381865     
   48695366.5142674     
   48522455.5020573     
   48346390.5033699     
   48166795.6874766     
   47983287.6888533     
   47795474.7888435     
   47602956.0794893     
   47405320.6077488     
   47202146.4982702     
   46993000.0528502     
   46777434.8246566     
   46554990.6652366     
   46325192.7422776     
   46087550.5260242     
   45841556.7421860     
   45586686.2891036     
   45322395.1168593     
   45048119.0659411     
   44763272.6629795     
   44467247.8709882     
   44159412.7914413     
   43839110.3154126     
   43505656.7209028     
   43158340.2133574     
   42796419.4062600     
   42419121.7385589     
   42025641.8255476     
   41615139.7396793     
   41186739.2176477     
   40739525.7899018     
   40272544.8286074     
   39784799.5098865     
   39275248.6859821     
   38742804.6628108     
   38186330.8781567     
   37604639.4755495     
   36996488.7686509     
   36360580.5907329     
   35695557.5235950     
   35000000.0000000     
   70000000.0000000     
   69083217.9503082     
   68207171.1958598     
   67369989.7153994     
   66569886.4500110     
   65805153.4884386     
   65074158.4213550     
   64375340.8567993     
   63707209.0893431     
   63068336.9158751     
   62457360.5912096     
   61872975.9170173     
   61313935.4578652     
   60779045.8784253     
   60267165.3961644     
   59777201.3440784     
   59308107.8382725     
   58858883.5454020     
   58428569.5452131     
   58016247.2836185     
   57621036.6119401     
   57242093.9081305     
   56878610.2759667     
   56529809.8183693     
   56194947.9811621     
   55873309.9637367     
   55564209.1932287     
   55266985.8589516     
   54981005.5039541     
   54705657.6707008     
   54440354.5979815     
   54184529.9662677     
   53937637.6888387     
   53699150.7460990     
   53468560.0605932     
   53245373.4103242     
   53029114.3780487     
   52819321.3343101     
   52615546.4520388     
   52417354.7506138     
   52224323.1673475     
   52036039.6544104     
   51852102.2992684     
   51672118.4667544     
   51495703.9609442     
   51322482.2050466     
   51152083.4375578     
   50984143.9229630     
   50818305.1753024     
   50654213.1929410     
   50491517.7029130     
   50329871.4132242     
   50168929.2715174     
   50008347.7285192     
   49847784.0046952     
   49686895.3585481     
   49525338.3549967     
   49362768.1322756     
   49198837.6657875     
   49033197.0273404     
   48865492.6381865     
   48695366.5142675     
   48522455.5020574     
   48346390.5033699     
   48166795.6874766     
   47983287.6888533     
   47795474.7888435     
   47602956.0794893     
   47405320.6077488     
   47202146.4982703     
   46993000.0528502     
   46777434.8246566     
   46554990.6652365     
   46325192.7422775     
   46087550.5260241     
   45841556.7421860     
   45586686.2891035     
   45322395.1168593     
   45048119.0659411     
   44763272.6629795     
   44467247.8709882     
   44159412.7914412     
   43839110.3154125     
   43505656.7209027     
   43158340.2133573     
   42796419.4062599     
   42419121.7385588     
   42025641.8255475     
   41615139.7396793     
   41186739.2176477     
   40739525.7899016     
   40272544.8286073     
   39784799.5098864     
   39275248.6859820     
   38742804.6628107     
   38186330.8781567     
   37604639.4755495     
   36996488.7686508     
   36360580.5907329     
   35695557.5235950     
   35000000.0000000     
   70000000.0000000     
   69083217.9503082     
   68207171.1958598     
   67369989.7153994     
   66569886.4500108     
   65805153.4884385     
   65074158.4213550     
   64375340.8567992     
   63707209.0893431     
   63068336.9158750     
   62457360.5912096     
   61872975.9170173     
   61313935.4578651     
   60779045.8784254     
   60267165.3961643     
   59777201.3440785     
   59308107.8382725     
   58858883.5454021     
   58428569.5452131     
   58016247.2836185     
   57621036.6119400     
   57242093.9081305     
   56878610.2759667     
   56529809.8183693     
   56194947.9811622     
   55873309.9637366     
   55564209.1932287     
   55266985.8589516     
   54981005.5039540     
   54705657.6707008     
   54440354.5979815     
   54184529.9662677     
   53937637.6888388     
   53699150.7460989     
   53468560.0605931     
   53245373.4103242     
   53029114.3780487     
   52819321.3343102     
   52615546.4520388     
   52417354.7506139     
   52224323.1673475     
   52036039.6544104     
   51852102.2992684     
   51672118.4667544     
   51495703.9609442     
   51322482.2050466     
   51152083.4375578     
   50984143.9229631     
   50818305.1753024     
   50654213.1929410     
   50491517.7029131     
   50329871.4132243     
   50168929.2715175     
   50008347.7285193     
   49847784.0046953     
   49686895.3585481     
   49525338.3549967     
   49362768.1322756     
   49198837.6657875     
   49033197.0273404     
   48865492.6381866     
   48695366.5142675     
   48522455.5020574     
   48346390.5033699     
   48166795.6874767     
   47983287.6888533     
   47795474.7888436     
   47602956.0794893     
   47405320.6077489     
   47202146.4982703     
   46993000.0528502     
   46777434.8246565     
   46554990.6652364     
   46325192.7422775     
   46087550.5260240     
   45841556.7421859     
   45586686.2891034     
   45322395.1168592     
   45048119.0659411     
   44763272.6629794     
   44467247.8709882     
   44159412.7914411     
   43839110.3154125     
   43505656.7209027     
   43158340.2133572     
   42796419.4062598     
   42419121.7385587     
   42025641.8255475     
   41615139.7396793     
   41186739.2176476     
   40739525.7899015     
   40272544.8286073     
   39784799.5098864     
   39275248.6859820     
   38742804.6628107     
   38186330.8781566     
   37604639.4755495     
   36996488.7686508     
   36360580.5907329     
   35695557.5235950     
   35000000.0000000     
   70000000.0000000     
   69083217.9503081     
   68207171.1958598     
   67369989.7153993     
   66569886.4500107     
   65805153.4884384     
   65074158.4213550     
   64375340.8567991     
   63707209.0893430     
   63068336.9158750     
   62457360.5912096     
   61872975.9170173     
   61313935.4578651     
   60779045.8784253     
   60267165.3961643     
   59777201.3440785     
   59308107.8382725     
   58858883.5454021     
   58428569.5452131     
   58016247.2836185     
   57621036.6119401     
   57242093.9081304     
   56878610.2759667     
   56529809.8183694     
   56194947.9811622     
   55873309.9637367     
   55564209.1932288     
   55266985.8589516     
   54981005.5039540     
   54705657.6707008     
   54440354.5979816     
   54184529.9662677     
   53937637.6888388     
   53699150.7460988     
   53468560.0605931     
   53245373.4103242     
   53029114.3780487     
   52819321.3343102     
   52615546.4520388     
   52417354.7506139     
   52224323.1673476     
   52036039.6544104     
   51852102.2992685     
   51672118.4667544     
   51495703.9609443     
   51322482.2050467     
   51152083.4375578     
   50984143.9229631     
   50818305.1753026     
   50654213.1929410     
   50491517.7029131     
   50329871.4132243     
   50168929.2715175     
   50008347.7285193     
   49847784.0046953     
   49686895.3585482     
   49525338.3549968     
   49362768.1322757     
   49198837.6657875     
   49033197.0273405     
   48865492.6381867     
   48695366.5142675     
   48522455.5020575     
   48346390.5033700     
   48166795.6874767     
   47983287.6888534     
   47795474.7888436     
   47602956.0794893     
   47405320.6077489     
   47202146.4982702     
   46993000.0528502     
   46777434.8246565     
   46554990.6652364     
   46325192.7422774     
   46087550.5260240     
   45841556.7421859     
   45586686.2891034     
   45322395.1168592     
   45048119.0659410     
   44763272.6629793     
   44467247.8709882     
   44159412.7914411     
   43839110.3154125     
   43505656.7209026     
   43158340.2133572     
   42796419.4062597     
   42419121.7385587     
   42025641.8255474     
   41615139.7396792     
   41186739.2176475     
   40739525.7899015     
   40272544.8286072     
   39784799.5098864     
   39275248.6859819     
   38742804.6628107     
   38186330.8781566     
   37604639.4755494     
   36996488.7686508     
   36360580.5907328     
   35695557.5235950     
   35000000.0000000     
   70000000.0000000     
   69083217.9503081     
   68207171.1958598     
   67369989.7153991     
   66569886.4500108     
   65805153.4884383     
   65074158.4213549     
   64375340.8567991     
   63707209.0893429     
   63068336.9158750     
   62457360.5912095     
   61872975.9170172     
   61313935.4578651     
   60779045.8784253     
   60267165.3961642     
   59777201.3440785     
   59308107.8382724     
   58858883.5454021     
   58428569.5452132     
   58016247.2836185     
   57621036.6119401     
   57242093.9081304     
   56878610.2759666     
   56529809.8183694     
   56194947.9811622     
   55873309.9637367     
   55564209.1932288     
   55266985.8589515     
   54981005.5039540     
   54705657.6707009     
   54440354.5979816     
   54184529.9662676     
   53937637.6888388     
   53699150.7460988     
   53468560.0605930     
   53245373.4103243     
   53029114.3780487     
   52819321.3343102     
   52615546.4520388     
   52417354.7506139     
   52224323.1673476     
   52036039.6544105     
   51852102.2992684     
   51672118.4667544     
   51495703.9609443     
   51322482.2050468     
   51152083.4375579     
   50984143.9229632     
   50818305.1753026     
   50654213.1929411     
   50491517.7029130     
   50329871.4132243     
   50168929.2715175     
   50008347.7285193     
   49847784.0046954     
   49686895.3585482     
   49525338.3549968     
   49362768.1322757     
   49198837.6657876     
   49033197.0273406     
   48865492.6381867     
   48695366.5142676     
   48522455.5020575     
   48346390.5033701     
   48166795.6874768     
   47983287.6888534     
   47795474.7888437     
   47602956.0794893     
   47405320.6077489     
   47202146.4982702     
   46993000.0528502     
   46777434.8246565     
   46554990.6652364     
   46325192.7422774     
   46087550.5260240     
   45841556.7421858     
   45586686.2891034     
   45322395.1168592     
   45048119.0659410     
   44763272.6629792     
   44467247.8709882     
   44159412.7914411     
   43839110.3154124     
   43505656.7209026     
   43158340.2133572     
   42796419.4062597     
   42419121.7385587     
   42025641.8255474     
   41615139.7396792     
   41186739.2176475     
   40739525.7899015     
   40272544.8286072     
   39784799.5098863     
   39275248.6859820     
   38742804.6628107     
   38186330.8781565     
   37604639.4755494     
   36996488.7686508     
   36360580.5907328     
   35695557.5235950     
   35000000.0000000     
   70000000.0000000     
   69083217.9503081     
   68207171.1958597     
   67369989.7153989     
   66569886.4500108     
   65805153.4884382     
   65074158.4213548     
   64375340.8567991     
   63707209.0893428     
   63068336.9158750     
   62457360.5912095     
   61872975.9170172     
   61313935.4578650     
   60779045.8784253     
   60267165.3961642     
   59777201.3440785     
   59308107.8382724     
   58858883.5454020     
   58428569.5452132     
   58016247.2836186     
   57621036.6119401     
   57242093.9081303     
   56878610.2759666     
   56529809.8183694     
   56194947.9811623     
   55873309.9637367     
   55564209.1932288     
   55266985.8589515     
   54981005.5039540     
   54705657.6707009     
   54440354.5979816     
   54184529.9662676     
   53937637.6888387     
   53699150.7460987     
   53468560.0605930     
   53245373.4103242     
   53029114.3780487     
   52819321.3343102     
   52615546.4520389     
   52417354.7506139     
   52224323.1673476     
   52036039.6544105     
   51852102.2992684     
   51672118.4667545     
   51495703.9609443     
   51322482.2050468     
   51152083.4375579     
   50984143.9229633     
   50818305.1753026     
   50654213.1929411     
   50491517.7029131     
   50329871.4132243     
   50168929.2715175     
   50008347.7285193     
   49847784.0046955     
   49686895.3585483     
   49525338.3549969     
   49362768.1322757     
   49198837.6657876     
   49033197.0273407     
   48865492.6381868     
   48695366.5142677     
   48522455.5020576     
   48346390.5033702     
   48166795.6874768     
   47983287.6888536     
   47795474.7888437     
   47602956.0794894     
   47405320.6077490     
   47202146.4982703     
   46993000.0528502     
   46777434.8246565     
   46554990.6652364     
   46325192.7422775     
   46087550.5260240     
   45841556.7421858     
   45586686.2891033     
   45322395.1168592     
   45048119.0659410     
   44763272.6629793     
   44467247.8709882     
   44159412.7914411     
   43839110.3154124     
   43505656.7209026     
   43158340.2133571     
   42796419.4062597     
   42419121.7385587     
   42025641.8255474     
   41615139.7396792     
   41186739.2176474     
   40739525.7899015     
   40272544.8286072     
   39784799.5098862     
   39275248.6859819     
   38742804.6628106     
   38186330.8781565     
   37604639.4755494     
   36996488.7686508     
   36360580.5907328     
   35695557.5235950     
   35000000.0000000     
   70000000.0000000     
   69083217.9503081     
   68207171.1958596     
   67369989.7153989     
   66569886.4500107     
   65805153.4884383     
   65074158.4213547     
   64375340.8567990     
   63707209.0893428     
   63068336.9158749     
   62457360.5912095     
   61872975.9170171     
   61313935.4578650     
   60779045.8784251     
   60267165.3961642     
   59777201.3440785     
   59308107.8382724     
   58858883.5454020     
   58428569.5452131     
   58016247.2836186     
   57621036.6119401     
   57242093.9081302     
   56878610.2759667     
   56529809.8183694     
   56194947.9811623     
   55873309.9637367     
   55564209.1932289     
   55266985.8589514     
   54981005.5039540     
   54705657.6707009     
   54440354.5979817     
   54184529.9662676     
   53937637.6888387     
   53699150.7460988     
   53468560.0605930     
   53245373.4103242     
   53029114.3780486     
   52819321.3343102     
   52615546.4520389     
   52417354.7506140     
   52224323.1673476     
   52036039.6544105     
   51852102.2992684     
   51672118.4667545     
   51495703.9609444     
   51322482.2050469     
   51152083.4375580     
   50984143.9229634     
   50818305.1753026     
   50654213.1929411     
   50491517.7029131     
   50329871.4132243     
   50168929.2715175     
   50008347.7285194     
   49847784.0046955     
   49686895.3585484     
   49525338.3549969     
   49362768.1322758     
   49198837.6657876     
   49033197.0273407     
   48865492.6381868     
   48695366.5142678     
   48522455.5020577     
   48346390.5033702     
   48166795.6874769     
   47983287.6888536     
   47795474.7888436     
   47602956.0794894     
   47405320.6077490     
   47202146.4982703     
   46993000.0528502     
   46777434.8246564     
   46554990.6652364     
   46325192.7422775     
   46087550.5260240     
   45841556.7421858     
   45586686.2891033     
   45322395.1168592     
   45048119.0659410     
   44763272.6629793     
   44467247.8709881     
   44159412.7914411     
   43839110.3154123     
   43505656.7209025     
   43158340.2133571     
   42796419.4062597     
   42419121.7385586     
   42025641.8255473     
   41615139.7396792     
   41186739.2176474     
   40739525.7899014     
   40272544.8286072     
   39784799.5098861     
   39275248.6859819     
   38742804.6628106     
   38186330.8781564     
   37604639.4755494     
   36996488.7686508     
   36360580.5907328     
   35695557.5235950     
   35000000.0000000     
   70000000.0000000     
   69083217.9503081     
   68207171.1958596     
   67369989.7153989     
   66569886.4500106     
   65805153.4884383     
   65074158.4213546     
   64375340.8567990     
   63707209.0893427     
   63068336.9158749     
   62457360.5912095     
   61872975.9170171     
   61313935.4578650     
   60779045.8784251     
   60267165.3961642     
   59777201.3440785     
   59308107.8382723     
   58858883.5454020     
   58428569.5452130     
   58016247.2836186     
   57621036.6119401     
   57242093.9081303     
   56878610.2759666     
   56529809.8183694     
   56194947.9811623     
   55873309.9637368     
   55564209.1932289     
   55266985.8589515     
   54981005.5039540     
   54705657.6707008     
   54440354.5979817     
   54184529.9662676     
   53937637.6888387     
   53699150.7460987     
   53468560.0605930     
   53245373.4103242     
   53029114.3780487     
   52819321.3343102     
   52615546.4520389     
   52417354.7506140     
   52224323.1673477     
   52036039.6544105     
   51852102.2992685     
   51672118.4667546     
   51495703.9609444     
   51322482.2050470     
   51152083.4375580     
   50984143.9229634     
   50818305.1753027     
   50654213.1929412     
   50491517.7029132     
   50329871.4132243     
   50168929.2715176     
   50008347.7285194     
   49847784.0046956     
   49686895.3585485     
   49525338.3549970     
   49362768.1322758     
   49198837.6657877     
   49033197.0273408     
   48865492.6381869     
   48695366.5142679     
   48522455.5020578     
   48346390.5033703     
   48166795.6874769     
   47983287.6888537     
   47795474.7888436     
   47602956.0794894     
   47405320.6077490     
   47202146.4982703     
   46993000.0528502     
   46777434.8246564     
   46554990.6652363     
   46325192.7422775     
   46087550.5260240     
   45841556.7421857     
   45586686.2891033     
   45322395.1168593     
   45048119.0659410     
   44763272.6629793     
   44467247.8709881     
   44159412.7914411     
   43839110.3154123     
   43505656.7209025     
   43158340.2133571     
   42796419.4062597     
   42419121.7385586     
   42025641.8255472     
   41615139.7396791     
   41186739.2176474     
   40739525.7899014     
   40272544.8286072     
   39784799.5098861     
   39275248.6859818     
   38742804.6628105     
   38186330.8781563     
   37604639.4755493     
   36996488.7686507     
   36360580.5907328     
   35695557.5235949     
   35000000.0000000     
   70000000.0000000     
   69083217.9503081     
   68207171.1958596     
   67369989.7153988     
   66569886.4500105     
   65805153.4884381     
   65074158.4213546     
   64375340.8567988     
   63707209.0893427     
   63068336.9158749     
   62457360.5912095     
   61872975.9170170     
   61313935.4578649     
   60779045.8784250     
   60267165.3961642     
   59777201.3440784     
   59308107.8382723     
   58858883.5454019     
   58428569.5452130     
   58016247.2836187     
   57621036.6119401     
   57242093.9081303     
   56878610.2759666     
   56529809.8183694     
   56194947.9811623     
   55873309.9637368     
   55564209.1932289     
   55266985.8589516     
   54981005.5039540     
   54705657.6707009     
   54440354.5979817     
   54184529.9662676     
   53937637.6888387     
   53699150.7460988     
   53468560.0605930     
   53245373.4103241     
   53029114.3780486     
   52819321.3343103     
   52615546.4520390     
   52417354.7506140     
   52224323.1673477     
   52036039.6544106     
   51852102.2992686     
   51672118.4667546     
   51495703.9609444     
   51322482.2050471     
   51152083.4375581     
   50984143.9229635     
   50818305.1753028     
   50654213.1929412     
   50491517.7029132     
   50329871.4132244     
   50168929.2715176     
   50008347.7285196     
   49847784.0046956     
   49686895.3585486     
   49525338.3549971     
   49362768.1322758     
   49198837.6657877     
   49033197.0273409     
   48865492.6381870     
   48695366.5142679     
   48522455.5020579     
   48346390.5033703     
   48166795.6874769     
   47983287.6888537     
   47795474.7888436     
   47602956.0794894     
   47405320.6077490     
   47202146.4982703     
   46993000.0528502     
   46777434.8246564     
   46554990.6652363     
   46325192.7422775     
   46087550.5260240     
   45841556.7421857     
   45586686.2891033     
   45322395.1168593     
   45048119.0659411     
   44763272.6629793     
   44467247.8709881     
   44159412.7914410     
   43839110.3154122     
   43505656.7209025     
   43158340.2133570     
   42796419.4062597     
   42419121.7385586     
   42025641.8255472     
   41615139.7396790     
   41186739.2176473     
   40739525.7899013     
   40272544.8286071     
   39784799.5098861     
   39275248.6859817     
   38742804.6628104     
   38186330.8781563     
   37604639.4755493     
   36996488.7686507     
   36360580.5907328     
   35695557.5235949     
   35000000.0000000     
   70000000.0000000     
   69083217.9503082     
   68207171.1958596     
   67369989.7153987     
   66569886.4500105     
   65805153.4884380     
   65074158.4213545     
   64375340.8567988     
   63707209.0893427     
   63068336.9158748     
   62457360.5912095     
   61872975.9170170     
   61313935.4578648     
   60779045.8784250     
   60267165.3961642     
   59777201.3440784     
   59308107.8382723     
   58858883.5454019     
   58428569.5452130     
   58016247.2836187     
   57621036.6119401     
   57242093.9081303     
   56878610.2759665     
   56529809.8183694     
   56194947.9811623     
   55873309.9637368     
   55564209.1932288     
   55266985.8589516     
   54981005.5039540     
   54705657.6707009     
   54440354.5979817     
   54184529.9662677     
   53937637.6888387     
   53699150.7460988     
   53468560.0605930     
   53245373.4103241     
   53029114.3780486     
   52819321.3343103     
   52615546.4520390     
   52417354.7506141     
   52224323.1673478     
   52036039.6544107     
   51852102.2992687     
   51672118.4667547     
   51495703.9609446     
   51322482.2050471     
   51152083.4375583     
   50984143.9229636     
   50818305.1753029     
   50654213.1929413     
   50491517.7029133     
   50329871.4132245     
   50168929.2715177     
   50008347.7285196     
   49847784.0046957     
   49686895.3585485     
   49525338.3549972     
   49362768.1322759     
   49198837.6657878     
   49033197.0273409     
   48865492.6381871     
   48695366.5142679     
   48522455.5020580     
   48346390.5033704     
   48166795.6874769     
   47983287.6888537     
   47795474.7888436     
   47602956.0794894     
   47405320.6077491     
   47202146.4982703     
   46993000.0528502     
   46777434.8246564     
   46554990.6652363     
   46325192.7422774     
   46087550.5260239     
   45841556.7421857     
   45586686.2891033     
   45322395.1168592     
   45048119.0659410     
   44763272.6629793     
   44467247.8709881     
   44159412.7914410     
   43839110.3154122     
   43505656.7209024     
   43158340.2133570     
   42796419.4062596     
   42419121.7385585     
   42025641.8255471     
   41615139.7396790     
   41186739.2176473     
   40739525.7899013     
   40272544.8286071     
   39784799.5098861     
   39275248.6859817     
   38742804.6628104     
   38186330.8781562     
   37604639.4755492     
   36996488.7686507     
   36360580.5907328     
   35695557.5235949     
   35000000.0000000     
   70000000.0000000     
   69083217.9503082     
   68207171.1958595     
   67369989.7153986     
   66569886.4500104     
   65805153.4884379     
   65074158.4213544     
   64375340.8567986     
   63707209.0893426     
   63068336.9158748     
   62457360.5912094     
   61872975.9170169     
   61313935.4578648     
   60779045.8784250     
   60267165.3961641     
   59777201.3440783     
   59308107.8382723     
   58858883.5454019     
   58428569.5452130     
   58016247.2836188     
   57621036.6119401     
   57242093.9081303     
   56878610.2759665     
   56529809.8183694     
   56194947.9811623     
   55873309.9637368     
   55564209.1932289     
   55266985.8589516     
   54981005.5039540     
   54705657.6707009     
   54440354.5979817     
   54184529.9662677     
   53937637.6888387     
   53699150.7460988     
   53468560.0605929     
   53245373.4103241     
   53029114.3780486     
   52819321.3343103     
   52615546.4520391     
   52417354.7506141     
   52224323.1673479     
   52036039.6544108     
   51852102.2992688     
   51672118.4667548     
   51495703.9609446     
   51322482.2050472     
   51152083.4375584     
   50984143.9229637     
   50818305.1753030     
   50654213.1929413     
   50491517.7029133     
   50329871.4132245     
   50168929.2715178     
   50008347.7285196     
   49847784.0046958     
   49686895.3585486     
   49525338.3549972     
   49362768.1322759     
   49198837.6657879     
   49033197.0273409     
   48865492.6381871     
   48695366.5142679     
   48522455.5020580     
   48346390.5033704     
   48166795.6874769     
   47983287.6888536     
   47795474.7888435     
   47602956.0794894     
   47405320.6077490     
   47202146.4982703     
   46993000.0528501     
   46777434.8246564     
   46554990.6652363     
   46325192.7422774     
   46087550.5260239     
   45841556.7421857     
   45586686.2891033     
   45322395.1168591     
   45048119.0659410     
   44763272.6629792     
   44467247.8709881     
   44159412.7914409     
   43839110.3154121     
   43505656.7209024     
   43158340.2133570     
   42796419.4062596     
   42419121.7385584     
   42025641.8255471     
   41615139.7396789     
   41186739.2176473     
   40739525.7899012     
   40272544.8286071     
   39784799.5098860     
   39275248.6859816     
   38742804.6628104     
   38186330.8781561     
   37604639.4755492     
   36996488.7686506     
   36360580.5907327     
   35695557.5235949     
   35000000.0000000     
   70000000.0000000     
   69083217.9503083     
   68207171.1958595     
   67369989.7153986     
   66569886.4500103     
   65805153.4884379     
   65074158.4213543     
   64375340.8567985     
   63707209.0893425     
   63068336.9158747     
   62457360.5912094     
   61872975.9170169     
   61313935.4578648     
   60779045.8784250     
   60267165.3961641     
   59777201.3440782     
   59308107.8382723     
   58858883.5454018     
   58428569.5452130     
   58016247.2836188     
   57621036.6119402     
   57242093.9081303     
   56878610.2759664     
   56529809.8183694     
   56194947.9811623     
   55873309.9637368     
   55564209.1932289     
   55266985.8589515     
   54981005.5039540     
   54705657.6707009     
   54440354.5979817     
   54184529.9662677     
   53937637.6888387     
   53699150.7460987     
   53468560.0605929     
   53245373.4103241     
   53029114.3780486     
   52819321.3343103     
   52615546.4520391     
   52417354.7506141     
   52224323.1673480     
   52036039.6544109     
   51852102.2992688     
   51672118.4667549     
   51495703.9609447     
   51322482.2050473     
   51152083.4375585     
   50984143.9229637     
   50818305.1753031     
   50654213.1929414     
   50491517.7029133     
   50329871.4132246     
   50168929.2715178     
   50008347.7285196     
   49847784.0046958     
   49686895.3585486     
   49525338.3549973     
   49362768.1322760     
   49198837.6657880     
   49033197.0273410     
   48865492.6381871     
   48695366.5142680     
   48522455.5020580     
   48346390.5033704     
   48166795.6874769     
   47983287.6888537     
   47795474.7888436     
   47602956.0794894     
   47405320.6077491     
   47202146.4982704     
   46993000.0528501     
   46777434.8246564     
   46554990.6652363     
   46325192.7422774     
   46087550.5260239     
   45841556.7421857     
   45586686.2891032     
   45322395.1168591     
   45048119.0659410     
   44763272.6629792     
   44467247.8709881     
   44159412.7914409     
   43839110.3154120     
   43505656.7209024     
   43158340.2133569     
   42796419.4062596     
   42419121.7385584     
   42025641.8255470     
   41615139.7396789     
   41186739.2176472     
   40739525.7899011     
   40272544.8286070     
   39784799.5098860     
   39275248.6859816     
   38742804.6628104     
   38186330.8781561     
   37604639.4755491     
   36996488.7686506     
   36360580.5907327     
   35695557.5235950     
   35000000.0000000     
   70000000.0000000     
   69083217.9503082     
   68207171.1958594     
   67369989.7153986     
   66569886.4500102     
   65805153.4884378     
   65074158.4213542     
   64375340.8567985     
   63707209.0893425     
   63068336.9158747     
   62457360.5912094     
   61872975.9170169     
   61313935.4578648     
   60779045.8784251     
   60267165.3961640     
   59777201.3440782     
   59308107.8382722     
   58858883.5454018     
   58428569.5452131     
   58016247.2836187     
   57621036.6119402     
   57242093.9081303     
   56878610.2759664     
   56529809.8183694     
   56194947.9811623     
   55873309.9637367     
   55564209.1932288     
   55266985.8589515     
   54981005.5039539     
   54705657.6707009     
   54440354.5979817     
   54184529.9662676     
   53937637.6888387     
   53699150.7460987     
   53468560.0605928     
   53245373.4103241     
   53029114.3780486     
   52819321.3343103     
   52615546.4520391     
   52417354.7506141     
   52224323.1673480     
   52036039.6544110     
   51852102.2992689     
   51672118.4667549     
   51495703.9609449     
   51322482.2050474     
   51152083.4375586     
   50984143.9229639     
   50818305.1753032     
   50654213.1929415     
   50491517.7029133     
   50329871.4132247     
   50168929.2715178     
   50008347.7285197     
   49847784.0046958     
   49686895.3585487     
   49525338.3549975     
   49362768.1322762     
   49198837.6657881     
   49033197.0273410     
   48865492.6381872     
   48695366.5142681     
   48522455.5020580     
   48346390.5033704     
   48166795.6874769     
   47983287.6888537     
   47795474.7888436     
   47602956.0794895     
   47405320.6077491     
   47202146.4982703     
   46993000.0528501     
   46777434.8246564     
   46554990.6652363     
   46325192.7422774     
   46087550.5260239     
   45841556.7421857     
   45586686.2891032     
   45322395.1168591     
   45048119.0659410     
   44763272.6629792     
   44467247.8709880     
   44159412.7914408     
   43839110.3154121     
   43505656.7209023     
   43158340.2133569     
   42796419.4062596     
   42419121.7385584     
   42025641.8255469     
   41615139.7396788     
   41186739.2176471     
   40739525.7899010     
   40272544.8286069     
   39784799.5098860     
   39275248.6859815     
   38742804.6628103     
   38186330.8781561     
   37604639.4755490     
   36996488.7686506     
   36360580.5907326     
   35695557.5235949     
   35000000.0000000     
   70000000.0000000     
   69083217.9503082     
   68207171.1958593     
   67369989.7153986     
   66569886.4500102     
   65805153.4884376     
   65074158.4213541     
   64375340.8567984     
   63707209.0893424     
   63068336.9158747     
   62457360.5912093     
   61872975.9170169     
   61313935.4578648     
   60779045.8784251     
   60267165.3961640     
   59777201.3440781     
   59308107.8382721     
   58858883.5454017     
   58428569.5452131     
   58016247.2836187     
   57621036.6119402     
   57242093.9081303     
   56878610.2759665     
   56529809.8183693     
   56194947.9811623     
   55873309.9637367     
   55564209.1932288     
   55266985.8589516     
   54981005.5039539     
   54705657.6707008     
   54440354.5979817     
   54184529.9662676     
   53937637.6888386     
   53699150.7460986     
   53468560.0605928     
   53245373.4103240     
   53029114.3780487     
   52819321.3343103     
   52615546.4520391     
   52417354.7506141     
   52224323.1673481     
   52036039.6544110     
   51852102.2992690     
   51672118.4667550     
   51495703.9609450     
   51322482.2050475     
   51152083.4375587     
   50984143.9229640     
   50818305.1753032     
   50654213.1929416     
   50491517.7029135     
   50329871.4132247     
   50168929.2715179     
   50008347.7285197     
   49847784.0046959     
   49686895.3585488     
   49525338.3549976     
   49362768.1322763     
   49198837.6657882     
   49033197.0273411     
   48865492.6381873     
   48695366.5142682     
   48522455.5020580     
   48346390.5033704     
   48166795.6874769     
   47983287.6888537     
   47795474.7888436     
   47602956.0794896     
   47405320.6077491     
   47202146.4982704     
   46993000.0528501     
   46777434.8246564     
   46554990.6652362     
   46325192.7422773     
   46087550.5260238     
   45841556.7421857     
   45586686.2891031     
   45322395.1168591     
   45048119.0659409     
   44763272.6629792     
   44467247.8709880     
   44159412.7914409     
   43839110.3154121     
   43505656.7209023     
   43158340.2133569     
   42796419.4062595     
   42419121.7385584     
   42025641.8255469     
   41615139.7396788     
   41186739.2176471     
   40739525.7899010     
   40272544.8286069     
   39784799.5098859     
   39275248.6859815     
   38742804.6628103     
   38186330.8781560     
   37604639.4755490     
   36996488.7686505     
   36360580.5907326     
   35695557.5235949     
   35000000.0000000     
   70000000.0000000     
   69083217.9503081     
   68207171.1958593     
   67369989.7153984     
   66569886.4500101     
   65805153.4884375     
   65074158.4213540     
   64375340.8567984     
   63707209.0893423     
   63068336.9158747     
   62457360.5912092     
   61872975.9170170     
   61313935.4578649     
   60779045.8784251     
   60267165.3961640     
   59777201.3440780     
   59308107.8382721     
   58858883.5454017     
   58428569.5452131     
   58016247.2836187     
   57621036.6119402     
   57242093.9081303     
   56878610.2759665     
   56529809.8183694     
   56194947.9811624     
   55873309.9637367     
   55564209.1932288     
   55266985.8589516     
   54981005.5039539     
   54705657.6707008     
   54440354.5979817     
   54184529.9662677     
   53937637.6888386     
   53699150.7460985     
   53468560.0605928     
   53245373.4103240     
   53029114.3780486     
   52819321.3343104     
   52615546.4520391     
   52417354.7506142     
   52224323.1673481     
   52036039.6544111     
   51852102.2992691     
   51672118.4667551     
   51495703.9609451     
   51322482.2050476     
   51152083.4375588     
   50984143.9229642     
   50818305.1753032     
   50654213.1929417     
   50491517.7029135     
   50329871.4132248     
   50168929.2715179     
   50008347.7285197     
   49847784.0046959     
   49686895.3585489     
   49525338.3549977     
   49362768.1322764     
   49198837.6657884     
   49033197.0273412     
   48865492.6381872     
   48695366.5142682     
   48522455.5020580     
   48346390.5033704     
   48166795.6874769     
   47983287.6888537     
   47795474.7888437     
   47602956.0794896     
   47405320.6077491     
   47202146.4982703     
   46993000.0528501     
   46777434.8246565     
   46554990.6652362     
   46325192.7422774     
   46087550.5260238     
   45841556.7421857     
   45586686.2891031     
   45322395.1168591     
   45048119.0659409     
   44763272.6629791     
   44467247.8709879     
   44159412.7914409     
   43839110.3154120     
   43505656.7209023     
   43158340.2133569     
   42796419.4062595     
   42419121.7385584     
   42025641.8255469     
   41615139.7396787     
   41186739.2176471     
   40739525.7899010     
   40272544.8286068     
   39784799.5098859     
   39275248.6859814     
   38742804.6628102     
   38186330.8781560     
   37604639.4755490     
   36996488.7686505     
   36360580.5907325     
   35695557.5235950     
   35000000.0000000     
   70000000.0000000     
   69083217.9503081     
   68207171.1958593     
   67369989.7153984     
   66569886.4500099     
   65805153.4884375     
   65074158.4213539     
   64375340.8567983     
   63707209.0893422     
   63068336.9158744     
   62457360.5912093     
   61872975.9170170     
   61313935.4578649     
   60779045.8784250     
   60267165.3961640     
   59777201.3440779     
   59308107.8382721     
   58858883.5454017     
   58428569.5452131     
   58016247.2836187     
   57621036.6119401     
   57242093.9081304     
   56878610.2759665     
   56529809.8183694     
   56194947.9811624     
   55873309.9637367     
   55564209.1932288     
   55266985.8589515     
   54981005.5039540     
   54705657.6707008     
   54440354.5979816     
   54184529.9662677     
   53937637.6888385     
   53699150.7460985     
   53468560.0605928     
   53245373.4103239     
   53029114.3780486     
   52819321.3343103     
   52615546.4520391     
   52417354.7506142     
   52224323.1673481     
   52036039.6544112     
   51852102.2992692     
   51672118.4667551     
   51495703.9609452     
   51322482.2050476     
   51152083.4375589     
   50984143.9229643     
   50818305.1753033     
   50654213.1929418     
   50491517.7029137     
   50329871.4132247     
   50168929.2715179     
   50008347.7285198     
   49847784.0046959     
   49686895.3585490     
   49525338.3549977     
   49362768.1322765     
   49198837.6657885     
   49033197.0273413     
   48865492.6381873     
   48695366.5142683     
   48522455.5020581     
   48346390.5033705     
   48166795.6874769     
   47983287.6888537     
   47795474.7888437     
   47602956.0794896     
   47405320.6077491     
   47202146.4982703     
   46993000.0528502     
   46777434.8246565     
   46554990.6652362     
   46325192.7422773     
   46087550.5260238     
   45841556.7421856     
   45586686.2891032     
   45322395.1168590     
   45048119.0659409     
   44763272.6629791     
   44467247.8709879     
   44159412.7914409     
   43839110.3154120     
   43505656.7209023     
   43158340.2133569     
   42796419.4062595     
   42419121.7385584     
   42025641.8255469     
   41615139.7396787     
   41186739.2176470     
   40739525.7899009     
   40272544.8286068     
   39784799.5098858     
   39275248.6859814     
   38742804.6628102     
   38186330.8781560     
   37604639.4755490     
   36996488.7686504     
   36360580.5907326     
   35695557.5235950     
   35000000.0000000     
   70000000.0000000     
   69083217.9503081     
   68207171.1958593     
   67369989.7153984     
   66569886.4500099     
   65805153.4884373     
   65074158.4213537     
   64375340.8567982     
   63707209.0893422     
   63068336.9158744     
   62457360.5912092     
   61872975.9170170     
   61313935.4578648     
   60779045.8784250     
   60267165.3961640     
   59777201.3440778     
   59308107.8382721     
   58858883.5454017     
   58428569.5452131     
   58016247.2836187     
   57621036.6119401     
   57242093.9081304     
   56878610.2759666     
   56529809.8183693     
   56194947.9811623     
   55873309.9637367     
   55564209.1932288     
   55266985.8589514     
   54981005.5039540     
   54705657.6707008     
   54440354.5979816     
   54184529.9662676     
   53937637.6888385     
   53699150.7460985     
   53468560.0605929     
   53245373.4103239     
   53029114.3780487     
   52819321.3343103     
   52615546.4520391     
   52417354.7506142     
   52224323.1673481     
   52036039.6544112     
   51852102.2992693     
   51672118.4667552     
   51495703.9609453     
   51322482.2050477     
   51152083.4375590     
   50984143.9229643     
   50818305.1753034     
   50654213.1929418     
   50491517.7029137     
   50329871.4132248     
   50168929.2715179     
   50008347.7285198     
   49847784.0046959     
   49686895.3585490     
   49525338.3549977     
   49362768.1322767     
   49198837.6657885     
   49033197.0273413     
   48865492.6381874     
   48695366.5142683     
   48522455.5020581     
   48346390.5033704     
   48166795.6874769     
   47983287.6888537     
   47795474.7888437     
   47602956.0794895     
   47405320.6077490     
   47202146.4982703     
   46993000.0528501     
   46777434.8246564     
   46554990.6652362     
   46325192.7422773     
   46087550.5260238     
   45841556.7421856     
   45586686.2891032     
   45322395.1168590     
   45048119.0659409     
   44763272.6629791     
   44467247.8709879     
   44159412.7914409     
   43839110.3154121     
   43505656.7209023     
   43158340.2133569     
   42796419.4062595     
   42419121.7385584     
   42025641.8255469     
   41615139.7396786     
   41186739.2176470     
   40739525.7899009     
   40272544.8286068     
   39784799.5098858     
   39275248.6859814     
   38742804.6628101     
   38186330.8781560     
   37604639.4755490     
   36996488.7686504     
   36360580.5907326     
   35695557.5235950     
   35000000.0000000     
   70000000.0000000     
   69083217.9503080     
   68207171.1958593     
   67369989.7153984     
   66569886.4500098     
   65805153.4884372     
   65074158.4213537     
   64375340.8567980     
   63707209.0893421     
   63068336.9158744     
   62457360.5912092     
   61872975.9170169     
   61313935.4578649     
   60779045.8784249     
   60267165.3961639     
   59777201.3440778     
   59308107.8382721     
   58858883.5454017     
   58428569.5452131     
   58016247.2836187     
   57621036.6119401     
   57242093.9081304     
   56878610.2759667     
   56529809.8183694     
   56194947.9811623     
   55873309.9637367     
   55564209.1932287     
   55266985.8589514     
   54981005.5039540     
   54705657.6707008     
   54440354.5979816     
   54184529.9662676     
   53937637.6888386     
   53699150.7460985     
   53468560.0605929     
   53245373.4103239     
   53029114.3780487     
   52819321.3343103     
   52615546.4520391     
   52417354.7506143     
   52224323.1673481     
   52036039.6544114     
   51852102.2992693     
   51672118.4667553     
   51495703.9609453     
   51322482.2050479     
   51152083.4375591     
   50984143.9229644     
   50818305.1753035     
   50654213.1929419     
   50491517.7029137     
   50329871.4132248     
   50168929.2715179     
   50008347.7285198     
   49847784.0046960     
   49686895.3585491     
   49525338.3549977     
   49362768.1322768     
   49198837.6657885     
   49033197.0273414     
   48865492.6381874     
   48695366.5142683     
   48522455.5020581     
   48346390.5033704     
   48166795.6874769     
   47983287.6888536     
   47795474.7888437     
   47602956.0794895     
   47405320.6077490     
   47202146.4982703     
   46993000.0528502     
   46777434.8246564     
   46554990.6652363     
   46325192.7422773     
   46087550.5260238     
   45841556.7421856     
   45586686.2891032     
   45322395.1168590     
   45048119.0659409     
   44763272.6629791     
   44467247.8709879     
   44159412.7914409     
   43839110.3154121     
   43505656.7209023     
   43158340.2133569     
   42796419.4062596     
   42419121.7385583     
   42025641.8255469     
   41615139.7396786     
   41186739.2176469     
   40739525.7899008     
   40272544.8286067     
   39784799.5098858     
   39275248.6859814     
   38742804.6628100     
   38186330.8781560     
   37604639.4755489     
   36996488.7686504     
   36360580.5907326     
   35695557.5235949     
   35000000.0000000     
   70000000.0000000     
   69083217.9503081     
   68207171.1958593     
   67369989.7153983     
   66569886.4500097     
   65805153.4884372     
   65074158.4213537     
   64375340.8567980     
   63707209.0893420     
   63068336.9158743     
   62457360.5912091     
   61872975.9170169     
   61313935.4578648     
   60779045.8784249     
   60267165.3961639     
   59777201.3440779     
   59308107.8382720     
   58858883.5454017     
   58428569.5452130     
   58016247.2836186     
   57621036.6119402     
   57242093.9081304     
   56878610.2759668     
   56529809.8183694     
   56194947.9811623     
   55873309.9637367     
   55564209.1932287     
   55266985.8589514     
   54981005.5039540     
   54705657.6707007     
   54440354.5979816     
   54184529.9662677     
   53937637.6888386     
   53699150.7460985     
   53468560.0605929     
   53245373.4103240     
   53029114.3780487     
   52819321.3343104     
   52615546.4520391     
   52417354.7506143     
   52224323.1673481     
   52036039.6544115     
   51852102.2992693     
   51672118.4667555     
   51495703.9609454     
   51322482.2050480     
   51152083.4375591     
   50984143.9229644     
   50818305.1753036     
   50654213.1929419     
   50491517.7029138     
   50329871.4132249     
   50168929.2715179     
   50008347.7285199     
   49847784.0046960     
   49686895.3585491     
   49525338.3549977     
   49362768.1322768     
   49198837.6657884     
   49033197.0273414     
   48865492.6381875     
   48695366.5142682     
   48522455.5020582     
   48346390.5033705     
   48166795.6874769     
   47983287.6888536     
   47795474.7888437     
   47602956.0794895     
   47405320.6077491     
   47202146.4982703     
   46993000.0528502     
   46777434.8246564     
   46554990.6652362     
   46325192.7422773     
   46087550.5260238     
   45841556.7421855     
   45586686.2891032     
   45322395.1168590     
   45048119.0659409     
   44763272.6629791     
   44467247.8709879     
   44159412.7914409     
   43839110.3154120     
   43505656.7209024     
   43158340.2133569     
   42796419.4062595     
   42419121.7385584     
   42025641.8255468     
   41615139.7396786     
   41186739.2176468     
   40739525.7899008     
   40272544.8286067     
   39784799.5098857     
   39275248.6859814     
   38742804.6628100     
   38186330.8781559     
   37604639.4755489     
   36996488.7686504     
   36360580.5907325     
   35695557.5235949     
   35000000.0000000     
   70000000.0000000     
   69083217.9503079     
   68207171.1958593     
   67369989.7153983     
   66569886.4500096     
   65805153.4884371     
   65074158.4213536     
   64375340.8567978     
   63707209.0893420     
   63068336.9158741     
   62457360.5912091     
   61872975.9170168     
   61313935.4578649     
   60779045.8784249     
   60267165.3961638     
   59777201.3440778     
   59308107.8382720     
   58858883.5454017     
   58428569.5452131     
   58016247.2836187     
   57621036.6119403     
   57242093.9081304     
   56878610.2759669     
   56529809.8183694     
   56194947.9811623     
   55873309.9637367     
   55564209.1932286     
   55266985.8589514     
   54981005.5039539     
   54705657.6707007     
   54440354.5979815     
   54184529.9662677     
   53937637.6888386     
   53699150.7460986     
   53468560.0605929     
   53245373.4103240     
   53029114.3780487     
   52819321.3343104     
   52615546.4520392     
   52417354.7506144     
   52224323.1673482     
   52036039.6544115     
   51852102.2992695     
   51672118.4667556     
   51495703.9609454     
   51322482.2050480     
   51152083.4375592     
   50984143.9229645     
   50818305.1753037     
   50654213.1929419     
   50491517.7029138     
   50329871.4132250     
   50168929.2715179     
   50008347.7285198     
   49847784.0046961     
   49686895.3585492     
   49525338.3549978     
   49362768.1322769     
   49198837.6657884     
   49033197.0273415     
   48865492.6381876     
   48695366.5142683     
   48522455.5020581     
   48346390.5033705     
   48166795.6874770     
   47983287.6888536     
   47795474.7888436     
   47602956.0794894     
   47405320.6077490     
   47202146.4982704     
   46993000.0528503     
   46777434.8246564     
   46554990.6652362     
   46325192.7422772     
   46087550.5260237     
   45841556.7421855     
   45586686.2891033     
   45322395.1168590     
   45048119.0659409     
   44763272.6629791     
   44467247.8709879     
   44159412.7914409     
   43839110.3154121     
   43505656.7209024     
   43158340.2133570     
   42796419.4062596     
   42419121.7385585     
   42025641.8255468     
   41615139.7396785     
   41186739.2176468     
   40739525.7899009     
   40272544.8286066     
   39784799.5098857     
   39275248.6859814     
   38742804.6628100     
   38186330.8781559     
   37604639.4755489     
   36996488.7686504     
   36360580.5907325     
   35695557.5235950     
   35000000.0000000     
   70000000.0000000     
   69083217.9503079     
   68207171.1958594     
   67369989.7153983     
   66569886.4500095     
   65805153.4884370     
   65074158.4213535     
   64375340.8567978     
   63707209.0893418     
   63068336.9158742     
   62457360.5912090     
   61872975.9170168     
   61313935.4578649     
   60779045.8784249     
   60267165.3961638     
   59777201.3440778     
   59308107.8382720     
   58858883.5454017     
   58428569.5452131     
   58016247.2836187     
   57621036.6119402     
   57242093.9081305     
   56878610.2759669     
   56529809.8183694     
   56194947.9811623     
   55873309.9637366     
   55564209.1932287     
   55266985.8589513     
   54981005.5039539     
   54705657.6707006     
   54440354.5979814     
   54184529.9662677     
   53937637.6888386     
   53699150.7460986     
   53468560.0605929     
   53245373.4103241     
   53029114.3780488     
   52819321.3343104     
   52615546.4520392     
   52417354.7506144     
   52224323.1673483     
   52036039.6544115     
   51852102.2992696     
   51672118.4667557     
   51495703.9609455     
   51322482.2050480     
   51152083.4375593     
   50984143.9229646     
   50818305.1753037     
   50654213.1929420     
   50491517.7029139     
   50329871.4132249     
   50168929.2715180     
   50008347.7285199     
   49847784.0046962     
   49686895.3585492     
   49525338.3549978     
   49362768.1322768     
   49198837.6657885     
   49033197.0273415     
   48865492.6381876     
   48695366.5142683     
   48522455.5020581     
   48346390.5033706     
   48166795.6874770     
   47983287.6888535     
   47795474.7888436     
   47602956.0794894     
   47405320.6077490     
   47202146.4982704     
   46993000.0528503     
   46777434.8246564     
   46554990.6652362     
   46325192.7422773     
   46087550.5260237     
   45841556.7421855     
   45586686.2891033     
   45322395.1168590     
   45048119.0659408     
   44763272.6629791     
   44467247.8709879     
   44159412.7914410     
   43839110.3154121     
   43505656.7209024     
   43158340.2133570     
   42796419.4062596     
   42419121.7385584     
   42025641.8255467     
   41615139.7396785     
   41186739.2176468     
   40739525.7899009     
   40272544.8286065     
   39784799.5098857     
   39275248.6859813     
   38742804.6628100     
   38186330.8781559     
   37604639.4755489     
   36996488.7686504     
   36360580.5907325     
   35695557.5235949     
   35000000.0000000     
   70000000.0000000     
   69083217.9503079     
   68207171.1958593     
   67369989.7153983     
   66569886.4500095     
   65805153.4884369     
   65074158.4213533     
   64375340.8567978     
   63707209.0893419     
   63068336.9158741     
   62457360.5912090     
   61872975.9170168     
   61313935.4578649     
   60779045.8784249     
   60267165.3961637     
   59777201.3440779     
   59308107.8382720     
   58858883.5454017     
   58428569.5452131     
   58016247.2836188     
   57621036.6119402     
   57242093.9081306     
   56878610.2759670     
   56529809.8183694     
   56194947.9811623     
   55873309.9637366     
   55564209.1932286     
   55266985.8589513     
   54981005.5039538     
   54705657.6707006     
   54440354.5979814     
   54184529.9662676     
   53937637.6888387     
   53699150.7460986     
   53468560.0605929     
   53245373.4103241     
   53029114.3780489     
   52819321.3343105     
   52615546.4520392     
   52417354.7506144     
   52224323.1673483     
   52036039.6544114     
   51852102.2992697     
   51672118.4667557     
   51495703.9609456     
   51322482.2050481     
   51152083.4375593     
   50984143.9229646     
   50818305.1753037     
   50654213.1929421     
   50491517.7029139     
   50329871.4132249     
   50168929.2715180     
   50008347.7285199     
   49847784.0046962     
   49686895.3585493     
   49525338.3549979     
   49362768.1322768     
   49198837.6657884     
   49033197.0273416     
   48865492.6381877     
   48695366.5142683     
   48522455.5020582     
   48346390.5033705     
   48166795.6874771     
   47983287.6888535     
   47795474.7888435     
   47602956.0794893     
   47405320.6077490     
   47202146.4982704     
   46993000.0528503     
   46777434.8246564     
   46554990.6652363     
   46325192.7422772     
   46087550.5260237     
   45841556.7421855     
   45586686.2891033     
   45322395.1168591     
   45048119.0659408     
   44763272.6629791     
   44467247.8709879     
   44159412.7914409     
   43839110.3154121     
   43505656.7209024     
   43158340.2133571     
   42796419.4062596     
   42419121.7385584     
   42025641.8255466     
   41615139.7396784     
   41186739.2176467     
   40739525.7899008     
   40272544.8286065     
   39784799.5098857     
   39275248.6859813     
   38742804.6628100     
   38186330.8781559     
   37604639.4755488     
   36996488.7686503     
   36360580.5907326     
   35695557.5235949     
   35000000.0000000     
   70000000.0000000     
   69083217.9503080     
   68207171.1958592     
   67369989.7153982     
   66569886.4500095     
   65805153.4884369     
   65074158.4213533     
   64375340.8567978     
   63707209.0893419     
   63068336.9158742     
   62457360.5912090     
   61872975.9170168     
   61313935.4578649     
   60779045.8784248     
   60267165.3961636     
   59777201.3440779     
   59308107.8382720     
   58858883.5454017     
   58428569.5452131     
   58016247.2836188     
   57621036.6119402     
   57242093.9081306     
   56878610.2759669     
   56529809.8183695     
   56194947.9811623     
   55873309.9637365     
   55564209.1932286     
   55266985.8589513     
   54981005.5039537     
   54705657.6707006     
   54440354.5979814     
   54184529.9662676     
   53937637.6888387     
   53699150.7460986     
   53468560.0605929     
   53245373.4103242     
   53029114.3780489     
   52819321.3343105     
   52615546.4520391     
   52417354.7506144     
   52224323.1673483     
   52036039.6544115     
   51852102.2992697     
   51672118.4667558     
   51495703.9609457     
   51322482.2050482     
   51152083.4375594     
   50984143.9229647     
   50818305.1753038     
   50654213.1929421     
   50491517.7029140     
   50329871.4132249     
   50168929.2715180     
   50008347.7285200     
   49847784.0046963     
   49686895.3585493     
   49525338.3549979     
   49362768.1322768     
   49198837.6657884     
   49033197.0273415     
   48865492.6381877     
   48695366.5142684     
   48522455.5020583     
   48346390.5033706     
   48166795.6874771     
   47983287.6888535     
   47795474.7888435     
   47602956.0794893     
   47405320.6077491     
   47202146.4982704     
   46993000.0528503     
   46777434.8246563     
   46554990.6652364     
   46325192.7422771     
   46087550.5260237     
   45841556.7421855     
   45586686.2891033     
   45322395.1168591     
   45048119.0659408     
   44763272.6629791     
   44467247.8709879     
   44159412.7914409     
   43839110.3154121     
   43505656.7209024     
   43158340.2133570     
   42796419.4062595     
   42419121.7385584     
   42025641.8255466     
   41615139.7396784     
   41186739.2176467     
   40739525.7899008     
   40272544.8286065     
   39784799.5098857     
   39275248.6859813     
   38742804.6628099     
   38186330.8781558     
   37604639.4755489     
   36996488.7686502     
   36360580.5907325     
   35695557.5235949     
   35000000.0000000     
   70000000.0000000     
   69083217.9503080     
   68207171.1958591     
   67369989.7153981     
   66569886.4500095     
   65805153.4884368     
   65074158.4213533     
   64375340.8567979     
   63707209.0893419     
   63068336.9158742     
   62457360.5912091     
   61872975.9170168     
   61313935.4578648     
   60779045.8784248     
   60267165.3961636     
   59777201.3440779     
   59308107.8382719     
   58858883.5454018     
   58428569.5452132     
   58016247.2836188     
   57621036.6119402     
   57242093.9081305     
   56878610.2759669     
   56529809.8183695     
   56194947.9811623     
   55873309.9637365     
   55564209.1932286     
   55266985.8589513     
   54981005.5039537     
   54705657.6707005     
   54440354.5979814     
   54184529.9662676     
   53937637.6888387     
   53699150.7460986     
   53468560.0605929     
   53245373.4103243     
   53029114.3780489     
   52819321.3343105     
   52615546.4520392     
   52417354.7506145     
   52224323.1673484     
   52036039.6544116     
   51852102.2992698     
   51672118.4667559     
   51495703.9609458     
   51322482.2050482     
   51152083.4375594     
   50984143.9229647     
   50818305.1753038     
   50654213.1929421     
   50491517.7029140     
   50329871.4132249     
   50168929.2715180     
   50008347.7285200     
   49847784.0046964     
   49686895.3585493     
   49525338.3549980     
   49362768.1322768     
   49198837.6657885     
   49033197.0273416     
   48865492.6381877     
   48695366.5142686     
   48522455.5020583     
   48346390.5033707     
   48166795.6874770     
   47983287.6888536     
   47795474.7888435     
   47602956.0794893     
   47405320.6077491     
   47202146.4982704     
   46993000.0528504     
   46777434.8246564     
   46554990.6652364     
   46325192.7422772     
   46087550.5260237     
   45841556.7421855     
   45586686.2891032     
   45322395.1168592     
   45048119.0659408     
   44763272.6629790     
   44467247.8709880     
   44159412.7914409     
   43839110.3154122     
   43505656.7209024     
   43158340.2133570     
   42796419.4062596     
   42419121.7385584     
   42025641.8255466     
   41615139.7396784     
   41186739.2176466     
   40739525.7899008     
   40272544.8286065     
   39784799.5098857     
   39275248.6859812     
   38742804.6628099     
   38186330.8781559     
   37604639.4755488     
   36996488.7686501     
   36360580.5907324     
   35695557.5235950     
   35000000.0000000     
   70000000.0000000     
   69083217.9503079     
   68207171.1958591     
   67369989.7153981     
   66569886.4500093     
   65805153.4884368     
   65074158.4213533     
   64375340.8567979     
   63707209.0893418     
   63068336.9158743     
   62457360.5912090     
   61872975.9170168     
   61313935.4578647     
   60779045.8784247     
   60267165.3961636     
   59777201.3440779     
   59308107.8382720     
   58858883.5454018     
   58428569.5452132     
   58016247.2836187     
   57621036.6119403     
   57242093.9081305     
   56878610.2759669     
   56529809.8183695     
   56194947.9811624     
   55873309.9637365     
   55564209.1932286     
   55266985.8589512     
   54981005.5039536     
   54705657.6707006     
   54440354.5979814     
   54184529.9662677     
   53937637.6888386     
   53699150.7460987     
   53468560.0605929     
   53245373.4103244     
   53029114.3780489     
   52819321.3343105     
   52615546.4520392     
   52417354.7506145     
   52224323.1673483     
   52036039.6544116     
   51852102.2992698     
   51672118.4667559     
   51495703.9609458     
   51322482.2050483     
   51152083.4375594     
   50984143.9229648     
   50818305.1753038     
   50654213.1929421     
   50491517.7029140     
   50329871.4132250     
   50168929.2715180     
   50008347.7285201     
   49847784.0046964     
   49686895.3585493     
   49525338.3549981     
   49362768.1322768     
   49198837.6657886     
   49033197.0273416     
   48865492.6381877     
   48695366.5142686     
   48522455.5020583     
   48346390.5033707     
   48166795.6874770     
   47983287.6888537     
   47795474.7888435     
   47602956.0794893     
   47405320.6077491     
   47202146.4982705     
   46993000.0528503     
   46777434.8246564     
   46554990.6652364     
   46325192.7422773     
   46087550.5260237     
   45841556.7421855     
   45586686.2891032     
   45322395.1168592     
   45048119.0659409     
   44763272.6629790     
   44467247.8709880     
   44159412.7914409     
   43839110.3154122     
   43505656.7209024     
   43158340.2133570     
   42796419.4062595     
   42419121.7385584     
   42025641.8255467     
   41615139.7396784     
   41186739.2176466     
   40739525.7899007     
   40272544.8286066     
   39784799.5098856     
   39275248.6859812     
   38742804.6628099     
   38186330.8781559     
   37604639.4755488     
   36996488.7686501     
   36360580.5907324     
   35695557.5235950     
   35000000.0000000     
   70000000.0000000     
   69083217.9503078     
   68207171.1958591     
   67369989.7153981     
   66569886.4500092     
   65805153.4884368     
   65074158.4213533     
   64375340.8567979     
   63707209.0893418     
   63068336.9158743     
   62457360.5912091     
   61872975.9170168     
   61313935.4578647     
   60779045.8784247     
   60267165.3961636     
   59777201.3440778     
   59308107.8382720     
   58858883.5454018     
   58428569.5452132     
   58016247.2836187     
   57621036.6119403     
   57242093.9081307     
   56878610.2759670     
   56529809.8183696     
   56194947.9811624     
   55873309.9637365     
   55564209.1932286     
   55266985.8589512     
   54981005.5039535     
   54705657.6707006     
   54440354.5979814     
   54184529.9662678     
   53937637.6888387     
   53699150.7460987     
   53468560.0605931     
   53245373.4103244     
   53029114.3780489     
   52819321.3343105     
   52615546.4520393     
   52417354.7506145     
   52224323.1673483     
   52036039.6544115     
   51852102.2992698     
   51672118.4667559     
   51495703.9609459     
   51322482.2050484     
   51152083.4375594     
   50984143.9229648     
   50818305.1753039     
   50654213.1929421     
   50491517.7029140     
   50329871.4132251     
   50168929.2715181     
   50008347.7285201     
   49847784.0046964     
   49686895.3585494     
   49525338.3549981     
   49362768.1322768     
   49198837.6657886     
   49033197.0273416     
   48865492.6381877     
   48695366.5142687     
   48522455.5020583     
   48346390.5033708     
   48166795.6874771     
   47983287.6888537     
   47795474.7888436     
   47602956.0794893     
   47405320.6077490     
   47202146.4982706     
   46993000.0528503     
   46777434.8246565     
   46554990.6652364     
   46325192.7422773     
   46087550.5260237     
   45841556.7421855     
   45586686.2891032     
   45322395.1168592     
   45048119.0659409     
   44763272.6629790     
   44467247.8709880     
   44159412.7914409     
   43839110.3154121     
   43505656.7209024     
   43158340.2133570     
   42796419.4062596     
   42419121.7385584     
   42025641.8255466     
   41615139.7396784     
   41186739.2176467     
   40739525.7899007     
   40272544.8286066     
   39784799.5098855     
   39275248.6859812     
   38742804.6628098     
   38186330.8781559     
   37604639.4755488     
   36996488.7686501     
   36360580.5907324     
   35695557.5235950     
   35000000.0000000     
   70000000.0000000     
   69083217.9503078     
   68207171.1958590     
   67369989.7153981     
   66569886.4500092     
   65805153.4884368     
   65074158.4213533     
   64375340.8567980     
   63707209.0893419     
   63068336.9158743     
   62457360.5912091     
   61872975.9170168     
   61313935.4578647     
   60779045.8784247     
   60267165.3961635     
   59777201.3440778     
   59308107.8382720     
   58858883.5454018     
   58428569.5452133     
   58016247.2836188     
   57621036.6119403     
   57242093.9081307     
   56878610.2759670     
   56529809.8183695     
   56194947.9811624     
   55873309.9637365     
   55564209.1932286     
   55266985.8589512     
   54981005.5039536     
   54705657.6707006     
   54440354.5979815     
   54184529.9662678     
   53937637.6888386     
   53699150.7460987     
   53468560.0605932     
   53245373.4103244     
   53029114.3780489     
   52819321.3343104     
   52615546.4520393     
   52417354.7506145     
   52224323.1673483     
   52036039.6544115     
   51852102.2992698     
   51672118.4667559     
   51495703.9609460     
   51322482.2050484     
   51152083.4375594     
   50984143.9229647     
   50818305.1753039     
   50654213.1929421     
   50491517.7029140     
   50329871.4132252     
   50168929.2715182     
   50008347.7285202     
   49847784.0046964     
   49686895.3585495     
   49525338.3549981     
   49362768.1322769     
   49198837.6657887     
   49033197.0273416     
   48865492.6381877     
   48695366.5142687     
   48522455.5020584     
   48346390.5033708     
   48166795.6874772     
   47983287.6888538     
   47795474.7888436     
   47602956.0794893     
   47405320.6077491     
   47202146.4982706     
   46993000.0528504     
   46777434.8246566     
   46554990.6652364     
   46325192.7422773     
   46087550.5260238     
   45841556.7421855     
   45586686.2891032     
   45322395.1168592     
   45048119.0659409     
   44763272.6629790     
   44467247.8709881     
   44159412.7914409     
   43839110.3154122     
   43505656.7209024     
   43158340.2133570     
   42796419.4062596     
   42419121.7385584     
   42025641.8255467     
   41615139.7396784     
   41186739.2176466     
   40739525.7899007     
   40272544.8286066     
   39784799.5098855     
   39275248.6859812     
   38742804.6628098     
   38186330.8781559     
   37604639.4755488     
   36996488.7686501     
   36360580.5907324     
   35695557.5235949     
   35000000.0000000     
   70000000.0000000     
   69083217.9503078     
   68207171.1958590     
   67369989.7153980     
   66569886.4500091     
   65805153.4884369     
   65074158.4213534     
   64375340.8567980     
   63707209.0893419     
   63068336.9158743     
   62457360.5912091     
   61872975.9170169     
   61313935.4578646     
   60779045.8784247     
   60267165.3961636     
   59777201.3440777     
   59308107.8382720     
   58858883.5454018     
   58428569.5452132     
   58016247.2836188     
   57621036.6119403     
   57242093.9081308     
   56878610.2759671     
   56529809.8183696     
   56194947.9811625     
   55873309.9637366     
   55564209.1932287     
   55266985.8589512     
   54981005.5039536     
   54705657.6707006     
   54440354.5979816     
   54184529.9662678     
   53937637.6888386     
   53699150.7460988     
   53468560.0605932     
   53245373.4103245     
   53029114.3780489     
   52819321.3343105     
   52615546.4520393     
   52417354.7506145     
   52224323.1673484     
   52036039.6544115     
   51852102.2992698     
   51672118.4667560     
   51495703.9609460     
   51322482.2050484     
   51152083.4375595     
   50984143.9229647     
   50818305.1753040     
   50654213.1929421     
   50491517.7029141     
   50329871.4132252     
   50168929.2715182     
   50008347.7285202     
   49847784.0046965     
   49686895.3585495     
   49525338.3549980     
   49362768.1322769     
   49198837.6657887     
   49033197.0273417     
   48865492.6381877     
   48695366.5142687     
   48522455.5020585     
   48346390.5033708     
   48166795.6874772     
   47983287.6888539     
   47795474.7888437     
   47602956.0794893     
   47405320.6077491     
   47202146.4982706     
   46993000.0528504     
   46777434.8246566     
   46554990.6652364     
   46325192.7422773     
   46087550.5260237     
   45841556.7421855     
   45586686.2891033     
   45322395.1168593     
   45048119.0659409     
   44763272.6629791     
   44467247.8709880     
   44159412.7914409     
   43839110.3154122     
   43505656.7209024     
   43158340.2133570     
   42796419.4062596     
   42419121.7385584     
   42025641.8255467     
   41615139.7396783     
   41186739.2176466     
   40739525.7899006     
   40272544.8286065     
   39784799.5098855     
   39275248.6859811     
   38742804.6628098     
   38186330.8781559     
   37604639.4755488     
   36996488.7686500     
   36360580.5907324     
   35695557.5235949     
   35000000.0000000     
   70000000.0000000     
   69083217.9503078     
   68207171.1958589     
   67369989.7153979     
   66569886.4500092     
   65805153.4884369     
   65074158.4213534     
   64375340.8567982     
   63707209.0893419     
   63068336.9158742     
   62457360.5912092     
   61872975.9170168     
   61313935.4578647     
   60779045.8784247     
   60267165.3961636     
   59777201.3440777     
   59308107.8382720     
   58858883.5454018     
   58428569.5452132     
   58016247.2836187     
   57621036.6119404     
   57242093.9081308     
   56878610.2759671     
   56529809.8183696     
   56194947.9811624     
   55873309.9637365     
   55564209.1932287     
   55266985.8589511     
   54981005.5039536     
   54705657.6707006     
   54440354.5979818     
   54184529.9662678     
   53937637.6888386     
   53699150.7460988     
   53468560.0605932     
   53245373.4103245     
   53029114.3780489     
   52819321.3343105     
   52615546.4520393     
   52417354.7506145     
   52224323.1673483     
   52036039.6544115     
   51852102.2992699     
   51672118.4667561     
   51495703.9609459     
   51322482.2050484     
   51152083.4375596     
   50984143.9229647     
   50818305.1753039     
   50654213.1929422     
   50491517.7029141     
   50329871.4132252     
   50168929.2715183     
   50008347.7285202     
   49847784.0046965     
   49686895.3585496     
   49525338.3549980     
   49362768.1322768     
   49198837.6657887     
   49033197.0273416     
   48865492.6381877     
   48695366.5142687     
   48522455.5020585     
   48346390.5033709     
   48166795.6874772     
   47983287.6888539     
   47795474.7888438     
   47602956.0794894     
   47405320.6077492     
   47202146.4982706     
   46993000.0528505     
   46777434.8246567     
   46554990.6652364     
   46325192.7422773     
   46087550.5260237     
   45841556.7421855     
   45586686.2891033     
   45322395.1168593     
   45048119.0659410     
   44763272.6629792     
   44467247.8709880     
   44159412.7914409     
   43839110.3154122     
   43505656.7209024     
   43158340.2133570     
   42796419.4062596     
   42419121.7385584     
   42025641.8255467     
   41615139.7396784     
   41186739.2176466     
   40739525.7899007     
   40272544.8286065     
   39784799.5098855     
   39275248.6859810     
   38742804.6628098     
   38186330.8781559     
   37604639.4755487     
   36996488.7686500     
   36360580.5907324     
   35695557.5235949     
   35000000.0000000     
   70000000.0000000     
   69083217.9503076     
   68207171.1958588     
   67369989.7153978     
   66569886.4500091     
   65805153.4884368     
   65074158.4213534     
   64375340.8567982     
   63707209.0893418     
   63068336.9158742     
   62457360.5912090     
   61872975.9170168     
   61313935.4578647     
   60779045.8784246     
   60267165.3961635     
   59777201.3440778     
   59308107.8382719     
   58858883.5454019     
   58428569.5452131     
   58016247.2836188     
   57621036.6119403     
   57242093.9081308     
   56878610.2759672     
   56529809.8183697     
   56194947.9811624     
   55873309.9637366     
   55564209.1932288     
   55266985.8589512     
   54981005.5039536     
   54705657.6707005     
   54440354.5979818     
   54184529.9662679     
   53937637.6888387     
   53699150.7460989     
   53468560.0605932     
   53245373.4103245     
   53029114.3780489     
   52819321.3343105     
   52615546.4520393     
   52417354.7506145     
   52224323.1673483     
   52036039.6544115     
   51852102.2992699     
   51672118.4667561     
   51495703.9609459     
   51322482.2050485     
   51152083.4375595     
   50984143.9229647     
   50818305.1753039     
   50654213.1929422     
   50491517.7029142     
   50329871.4132253     
   50168929.2715183     
   50008347.7285203     
   49847784.0046965     
   49686895.3585496     
   49525338.3549980     
   49362768.1322768     
   49198837.6657887     
   49033197.0273417     
   48865492.6381877     
   48695366.5142687     
   48522455.5020586     
   48346390.5033709     
   48166795.6874772     
   47983287.6888539     
   47795474.7888438     
   47602956.0794894     
   47405320.6077493     
   47202146.4982707     
   46993000.0528505     
   46777434.8246567     
   46554990.6652364     
   46325192.7422773     
   46087550.5260237     
   45841556.7421856     
   45586686.2891034     
   45322395.1168592     
   45048119.0659410     
   44763272.6629793     
   44467247.8709880     
   44159412.7914410     
   43839110.3154122     
   43505656.7209025     
   43158340.2133570     
   42796419.4062597     
   42419121.7385584     
   42025641.8255467     
   41615139.7396784     
   41186739.2176465     
   40739525.7899007     
   40272544.8286065     
   39784799.5098855     
   39275248.6859809     
   38742804.6628098     
   38186330.8781559     
   37604639.4755487     
   36996488.7686500     
   36360580.5907324     
   35695557.5235949     
   35000000.0000000     
   70000000.0000000     
   69083217.9503075     
   68207171.1958588     
   67369989.7153979     
   66569886.4500092     
   65805153.4884368     
   65074158.4213534     
   64375340.8567982     
   63707209.0893419     
   63068336.9158742     
   62457360.5912091     
   61872975.9170169     
   61313935.4578646     
   60779045.8784246     
   60267165.3961635     
   59777201.3440778     
   59308107.8382719     
   58858883.5454019     
   58428569.5452132     
   58016247.2836188     
   57621036.6119403     
   57242093.9081309     
   56878610.2759672     
   56529809.8183697     
   56194947.9811623     
   55873309.9637366     
   55564209.1932287     
   55266985.8589513     
   54981005.5039537     
   54705657.6707005     
   54440354.5979817     
   54184529.9662679     
   53937637.6888387     
   53699150.7460989     
   53468560.0605933     
   53245373.4103245     
   53029114.3780489     
   52819321.3343105     
   52615546.4520394     
   52417354.7506144     
   52224323.1673484     
   52036039.6544116     
   51852102.2992700     
   51672118.4667561     
   51495703.9609459     
   51322482.2050484     
   51152083.4375595     
   50984143.9229647     
   50818305.1753039     
   50654213.1929422     
   50491517.7029142     
   50329871.4132253     
   50168929.2715183     
   50008347.7285203     
   49847784.0046965     
   49686895.3585496     
   49525338.3549979     
   49362768.1322768     
   49198837.6657886     
   49033197.0273417     
   48865492.6381878     
   48695366.5142687     
   48522455.5020586     
   48346390.5033710     
   48166795.6874773     
   47983287.6888539     
   47795474.7888438     
   47602956.0794895     
   47405320.6077493     
   47202146.4982708     
   46993000.0528505     
   46777434.8246567     
   46554990.6652364     
   46325192.7422773     
   46087550.5260237     
   45841556.7421856     
   45586686.2891035     
   45322395.1168592     
   45048119.0659411     
   44763272.6629793     
   44467247.8709880     
   44159412.7914410     
   43839110.3154121     
   43505656.7209025     
   43158340.2133570     
   42796419.4062597     
   42419121.7385584     
   42025641.8255467     
   41615139.7396783     
   41186739.2176465     
   40739525.7899006     
   40272544.8286065     
   39784799.5098854     
   39275248.6859809     
   38742804.6628098     
   38186330.8781558     
   37604639.4755487     
   36996488.7686500     
   36360580.5907323     
   35695557.5235948     
   35000000.0000000     
   70000000.0000000     
   69083217.9503076     
   68207171.1958588     
   67369989.7153980     
   66569886.4500092     
   65805153.4884368     
   65074158.4213535     
   64375340.8567982     
   63707209.0893420     
   63068336.9158742     
   62457360.5912090     
   61872975.9170168     
   61313935.4578646     
   60779045.8784246     
   60267165.3961635     
   59777201.3440778     
   59308107.8382718     
   58858883.5454018     
   58428569.5452132     
   58016247.2836188     
   57621036.6119403     
   57242093.9081309     
   56878610.2759672     
   56529809.8183698     
   56194947.9811622     
   55873309.9637366     
   55564209.1932287     
   55266985.8589512     
   54981005.5039537     
   54705657.6707005     
   54440354.5979816     
   54184529.9662678     
   53937637.6888387     
   53699150.7460990     
   53468560.0605932     
   53245373.4103245     
   53029114.3780489     
   52819321.3343105     
   52615546.4520394     
   52417354.7506144     
   52224323.1673485     
   52036039.6544115     
   51852102.2992700     
   51672118.4667561     
   51495703.9609459     
   51322482.2050484     
   51152083.4375595     
   50984143.9229647     
   50818305.1753039     
   50654213.1929423     
   50491517.7029143     
   50329871.4132253     
   50168929.2715183     
   50008347.7285203     
   49847784.0046965     
   49686895.3585496     
   49525338.3549979     
   49362768.1322768     
   49198837.6657886     
   49033197.0273418     
   48865492.6381878     
   48695366.5142687     
   48522455.5020587     
   48346390.5033709     
   48166795.6874774     
   47983287.6888539     
   47795474.7888438     
   47602956.0794896     
   47405320.6077493     
   47202146.4982708     
   46993000.0528506     
   46777434.8246567     
   46554990.6652364     
   46325192.7422773     
   46087550.5260237     
   45841556.7421856     
   45586686.2891035     
   45322395.1168592     
   45048119.0659411     
   44763272.6629793     
   44467247.8709880     
   44159412.7914410     
   43839110.3154121     
   43505656.7209025     
   43158340.2133570     
   42796419.4062597     
   42419121.7385584     
   42025641.8255468     
   41615139.7396783     
   41186739.2176465     
   40739525.7899006     
   40272544.8286065     
   39784799.5098854     
   39275248.6859809     
   38742804.6628098     
   38186330.8781558     
   37604639.4755487     
   36996488.7686500     
   36360580.5907323     
   35695557.5235948     
   35000000.0000000     
   70000000.0000000     
   69083217.9503077     
   68207171.1958586     
   67369989.7153980     
   66569886.4500092     
   65805153.4884369     
   65074158.4213535     
   64375340.8567983     
   63707209.0893418     
   63068336.9158741     
   62457360.5912091     
   61872975.9170168     
   61313935.4578646     
   60779045.8784246     
   60267165.3961635     
   59777201.3440777     
   59308107.8382719     
   58858883.5454018     
   58428569.5452133     
   58016247.2836188     
   57621036.6119402     
   57242093.9081309     
   56878610.2759672     
   56529809.8183699     
   56194947.9811623     
   55873309.9637365     
   55564209.1932287     
   55266985.8589512     
   54981005.5039537     
   54705657.6707006     
   54440354.5979816     
   54184529.9662678     
   53937637.6888387     
   53699150.7460990     
   53468560.0605932     
   53245373.4103245     
   53029114.3780489     
   52819321.3343106     
   52615546.4520394     
   52417354.7506144     
   52224323.1673485     
   52036039.6544116     
   51852102.2992701     
   51672118.4667561     
   51495703.9609459     
   51322482.2050484     
   51152083.4375596     
   50984143.9229648     
   50818305.1753039     
   50654213.1929424     
   50491517.7029143     
   50329871.4132253     
   50168929.2715184     
   50008347.7285204     
   49847784.0046966     
   49686895.3585496     
   49525338.3549979     
   49362768.1322768     
   49198837.6657887     
   49033197.0273418     
   48865492.6381879     
   48695366.5142687     
   48522455.5020587     
   48346390.5033709     
   48166795.6874774     
   47983287.6888539     
   47795474.7888438     
   47602956.0794897     
   47405320.6077492     
   47202146.4982708     
   46993000.0528507     
   46777434.8246567     
   46554990.6652364     
   46325192.7422772     
   46087550.5260237     
   45841556.7421856     
   45586686.2891035     
   45322395.1168593     
   45048119.0659411     
   44763272.6629793     
   44467247.8709880     
   44159412.7914410     
   43839110.3154121     
   43505656.7209024     
   43158340.2133570     
   42796419.4062597     
   42419121.7385584     
   42025641.8255468     
   41615139.7396783     
   41186739.2176465     
   40739525.7899007     
   40272544.8286065     
   39784799.5098854     
   39275248.6859808     
   38742804.6628098     
   38186330.8781558     
   37604639.4755487     
   36996488.7686500     
   36360580.5907322     
   35695557.5235948     
   35000000.0000000     
   70000000.0000000     
   69083217.9503077     
   68207171.1958587     
   67369989.7153980     
   66569886.4500093     
   65805153.4884369     
   65074158.4213536     
   64375340.8567983     
   63707209.0893418     
   63068336.9158741     
   62457360.5912091     
   61872975.9170167     
   61313935.4578647     
   60779045.8784246     
   60267165.3961634     
   59777201.3440777     
   59308107.8382719     
   58858883.5454018     
   58428569.5452133     
   58016247.2836188     
   57621036.6119402     
   57242093.9081309     
   56878610.2759673     
   56529809.8183698     
   56194947.9811623     
   55873309.9637366     
   55564209.1932287     
   55266985.8589513     
   54981005.5039537     
   54705657.6707006     
   54440354.5979816     
   54184529.9662679     
   53937637.6888387     
   53699150.7460990     
   53468560.0605932     
   53245373.4103245     
   53029114.3780489     
   52819321.3343107     
   52615546.4520394     
   52417354.7506144     
   52224323.1673485     
   52036039.6544116     
   51852102.2992701     
   51672118.4667561     
   51495703.9609460     
   51322482.2050484     
   51152083.4375596     
   50984143.9229648     
   50818305.1753040     
   50654213.1929424     
   50491517.7029143     
   50329871.4132253     
   50168929.2715184     
   50008347.7285203     
   49847784.0046966     
   49686895.3585496     
   49525338.3549979     
   49362768.1322768     
   49198837.6657887     
   49033197.0273418     
   48865492.6381879     
   48695366.5142688     
   48522455.5020587     
   48346390.5033709     
   48166795.6874774     
   47983287.6888539     
   47795474.7888438     
   47602956.0794896     
   47405320.6077492     
   47202146.4982707     
   46993000.0528506     
   46777434.8246567     
   46554990.6652364     
   46325192.7422772     
   46087550.5260236     
   45841556.7421857     
   45586686.2891035     
   45322395.1168593     
   45048119.0659411     
   44763272.6629793     
   44467247.8709880     
   44159412.7914409     
   43839110.3154121     
   43505656.7209024     
   43158340.2133571     
   42796419.4062597     
   42419121.7385584     
   42025641.8255468     
   41615139.7396783     
   41186739.2176465     
   40739525.7899007     
   40272544.8286065     
   39784799.5098853     
   39275248.6859809     
   38742804.6628098     
   38186330.8781558     
   37604639.4755487     
   36996488.7686499     
   36360580.5907322     
   35695557.5235948     
   35000000.0000000     
VECTORS u double 
    0.00000E+00         0.00000E+00         0.00000E+00
    0.00000E+00         0.00000E+00         0.00000E+00
    0.00000E+00         0.00000E+00         0.00000E+00
    0.00000E+00         0.00000E+00         0.00000E+00
    0.00000E+00         0.00000E+00         0.00000E+00
    0.00000E+00         0.00000E+00         0.00000E+00
    0.00000E+00         0.00000E+00         0.00000E+00
    0.00000E+00         0.00000E+00         0.00000E+00
    0.00000E+00         0.00000E+00         0.00000E+00
    0.00000E+00         0.00000E+00         0.00000E+00
    0.00000E+00         0.00000E+00         0.00000E+00
    0.00000E+00         0.00000E+00         0.00000E+00
    0.00000E+00         0.00000E+00         0.00000E+00
    0.00000E+00         0.00000E+00         0.00000E+00
    0.00000E+00         0.00000E+00         0.00000E+00
    0.00000E+00         0.00000E+00         0.00000E+00
    0.00000E+00         0.00000E+00         0.00000E+00
    0.00000E+00         0.00000E+00         0.00000E+00
    0.00000E+00         0.00000E+00         0.00000E+00
    0.00000E+00         0.00000E+00         0.00000E+00
    0.00000E+00         0.00000E+00         0.00000E+00
    0.00000E+00         0.00000E+00         0.00000E+00
    0.00000E+00         0.00000E+00         0.00000E+00
    0.00000E+00         0.00000E+00         0.00000E+00
    0.00000E+00         0.00000E+00         0.00000E+00
    0.00000E+00         0.00000E+00         0.00000E+00
    0.00000E+00         0.00000E+00         0.00000E+00
    0.00000E+00         0.00000E+00         0.00000E+00
    0.00000E+00         0.00000E+00         0.00000E+00
    0.00000E+00         0.00000E+00         0.00000E+00
    0.00000E+00         0.00000E+00         0.00000E+00
    0.00000E+00         0.00000E+00         0.00000E+00
    0.00000E+00         0.00000E+00         0.00000E+00
    0.00000E+00         0.00000E+00         0.00000E+00
    0.00000E+00         0.00000E+00         0.00000E+00
    0.00000E+00         0.00000E+00         0.00000E+00
    0.00000E+00         0.00000E+00         0.00000E+00
    0.00000E+00         0.00000E+00         0.00000E+00
    0.00000E+00         0.00000E+00         0.00000E+00
    0.00000E+00         0.00000E+00         0.00000E+00
    0.00000E+00         0.00000E+00         0.00000E+00
    0.00000E+00         0.00000E+00         0.00000E+00
    0.00000E+00         0.00000E+00         0.00000E+00
    0.00000E+00         0.00000E+00         0.00000E+00
    0.00000E+00         0.00000E+00         0.00000E+00
    0.00000E+00         0.00000E+00         0.00000E+00
    0.00000E+00         0.00000E+00         0.00000E+00
    0.00000E+00         0.00000E+00         0.00000E+00
    0.00000E+00         0.00000E+00         0.00000E+00
    0.00000E+00         0.00000E+00         0.00000E+00
    0.00000E+00         0.00000E+00         0.00000E+00
    0.00000E+00         0.00000E+00         0.00000E+00
    0.00000E+00         0.00000E+00         0.00000E+00
    0.00000E+00         0.00000E+00         0.00000E+00
    0.00000E+00         0.00000E+00         0.00000E+00
    0.00000E+00         0.00000E+00         0.00000E+00
    0.00000E+00         0.00000E+00         0.00000E+00
    0.00000E+00         0.00000E+00         0.00000E+00
    0.00000E+00         0.00000E+00         0.00000E+00
    0.00000E+00         0.00000E+00         0.00000E+00
    0.00000E+00         0.00000E+00         0.00000E+00
    0.00000E+00         0.00000E+00         0.00000E+00
    0.00000E+00         0.00000E+00         0.00000E+00
    0.00000E+00         0.00000E+00         0.00000E+00
    0.00000E+00         0.00000E+00         0.00000E+00
    0.00000E+00         0.00000E+00         0.00000E+00
    0.00000E+00         0.00000E+00         0.00000E+00
    0.00000E+00         0.00000E+00         0.00000E+00
    0.00000E+00         0.00000E+00         0.00000E+00
    0.00000E+00         0.00000E+00         0.00000E+00
    0.00000E+00         0.00000E+00         0.00000E+00
    0.00000E+00         0.00000E+00         0.00000E+00
    0.00000E+00         0.00000E+00         0.00000E+00
    0.00000E+00         0.00000E+00         0.00000E+00
    0.00000E+00         0.00000E+00         0.00000E+00
    0.00000E+00         0.00000E+00         0.00000E+00
    0.00000E+00         0.00000E+00         0.00000E+00
    0.00000E+00         0.00000E+00         0.00000E+00
    0.00000E+00         0.00000E+00         0.00000E+00
    0.00000E+00         0.00000E+00         0.00000E+00
    0.00000E+00         0.00000E+00         0.00000E+00
    0.00000E+00         0.00000E+00         0.00000E+00
    0.00000E+00         0.00000E+00         0.00000E+00
    0.00000E+00         0.00000E+00         0.00000E+00
    0.00000E+00         0.00000E+00         0.00000E+00
    0.00000E+00         0.00000E+00         0.00000E+00
    0.00000E+00         0.00000E+00         0.00000E+00
    0.00000E+00         0.00000E+00         0.00000E+00
    0.00000E+00         0.00000E+00         0.00000E+00
    0.00000E+00         0.00000E+00         0.00000E+00
    0.00000E+00         0.00000E+00         0.00000E+00
    0.00000E+00         0.00000E+00         0.00000E+00
    0.00000E+00         0.00000E+00         0.00000E+00
    0.00000E+00         0.00000E+00         0.00000E+00
    0.00000E+00         0.00000E+00         0.00000E+00
    0.00000E+00         0.00000E+00         0.00000E+00
    0.00000E+00         0.00000E+00         0.00000E+00
    0.00000E+00         0.00000E+00         0.00000E+00
    0.00000E+00         0.00000E+00         0.00000E+00
    0.00000E+00         0.00000E+00         0.00000E+00
    0.00000E+00         0.00000E+00         0.00000E+00
    0.00000E+00         0.54415E-03         0.00000E+00
    0.18913E-03         0.52553E-03         0.00000E+00
    0.28873E-03         0.48639E-03         0.00000E+00
    0.36026E-03         0.44074E-03         0.00000E+00
    0.41297E-03         0.38760E-03         0.00000E+00
    0.45387E-03         0.32931E-03         0.00000E+00
    0.48649E-03         0.26725E-03         0.00000E+00
    0.51306E-03         0.20297E-03         0.00000E+00
    0.53491E-03         0.13776E-03         0.00000E+00
    0.55284E-03         0.72698E-04         0.00000E+00
    0.56734E-03         0.86542E-05         0.00000E+00
    0.57875E-03        -0.53721E-04         0.00000E+00
    0.58730E-03        -0.11396E-03         0.00000E+00
    0.59319E-03        -0.17175E-03         0.00000E+00
    0.59661E-03        -0.22691E-03         0.00000E+00
    0.59774E-03        -0.27935E-03         0.00000E+00
    0.59678E-03        -0.32906E-03         0.00000E+00
    0.59392E-03        -0.37607E-03         0.00000E+00
    0.58937E-03        -0.42047E-03         0.00000E+00
    0.58334E-03        -0.46237E-03         0.00000E+00
    0.57601E-03        -0.50190E-03         0.00000E+00
    0.56759E-03        -0.53918E-03         0.00000E+00
    0.55825E-03        -0.57436E-03         0.00000E+00
    0.54816E-03        -0.60757E-03         0.00000E+00
    0.53749E-03        -0.63895E-03         0.00000E+00
    0.52639E-03        -0.66863E-03         0.00000E+00
    0.51497E-03        -0.69674E-03         0.00000E+00
    0.50338E-03        -0.72338E-03         0.00000E+00
    0.49171E-03        -0.74867E-03         0.00000E+00
    0.48005E-03        -0.77271E-03         0.00000E+00
    0.46850E-03        -0.79560E-03         0.00000E+00
    0.45713E-03        -0.81742E-03         0.00000E+00
    0.44599E-03        -0.83825E-03         0.00000E+00
    0.43516E-03        -0.85818E-03         0.00000E+00
    0.42467E-03        -0.87727E-03         0.00000E+00
    0.41456E-03        -0.89559E-03         0.00000E+00
    0.40488E-03        -0.91320E-03         0.00000E+00
    0.39564E-03        -0.93016E-03         0.00000E+00
    0.38688E-03        -0.94653E-03         0.00000E+00
    0.37861E-03        -0.96234E-03         0.00000E+00
    0.37086E-03        -0.97766E-03         0.00000E+00
    0.36362E-03        -0.99252E-03         0.00000E+00
    0.35692E-03        -0.10070E-02         0.00000E+00
    0.35077E-03        -0.10211E-02         0.00000E+00
    0.34516E-03        -0.10348E-02         0.00000E+00
    0.34011E-03        -0.10483E-02         0.00000E+00
    0.33561E-03        -0.10615E-02         0.00000E+00
    0.33167E-03        -0.10745E-02         0.00000E+00
    0.32829E-03        -0.10873E-02         0.00000E+00
    0.32547E-03        -0.10999E-02         0.00000E+00
    0.32321E-03        -0.11125E-02         0.00000E+00
    0.32151E-03        -0.11249E-02         0.00000E+00
    0.32036E-03        -0.11373E-02         0.00000E+00
    0.31976E-03        -0.11497E-02         0.00000E+00
    0.31971E-03        -0.11621E-02         0.00000E+00
    0.32020E-03        -0.11745E-02         0.00000E+00
    0.32123E-03        -0.11870E-02         0.00000E+00
    0.32279E-03        -0.11997E-02         0.00000E+00
    0.32487E-03        -0.12124E-02         0.00000E+00
    0.32747E-03        -0.12254E-02         0.00000E+00
    0.33057E-03        -0.12385E-02         0.00000E+00
    0.33417E-03        -0.12519E-02         0.00000E+00
    0.33824E-03        -0.12656E-02         0.00000E+00
    0.34278E-03        -0.12796E-02         0.00000E+00
    0.34776E-03        -0.12940E-02         0.00000E+00
    0.35316E-03        -0.13089E-02         0.00000E+00
    0.35896E-03        -0.13242E-02         0.00000E+00
    0.36512E-03        -0.13400E-02         0.00000E+00
    0.37162E-03        -0.13563E-02         0.00000E+00
    0.37841E-03        -0.13733E-02         0.00000E+00
    0.38545E-03        -0.13910E-02         0.00000E+00
    0.39268E-03        -0.14094E-02         0.00000E+00
    0.40005E-03        -0.14287E-02         0.00000E+00
    0.40749E-03        -0.14488E-02         0.00000E+00
    0.41492E-03        -0.14699E-02         0.00000E+00
    0.42226E-03        -0.14921E-02         0.00000E+00
    0.42942E-03        -0.15155E-02         0.00000E+00
    0.43630E-03        -0.15400E-02         0.00000E+00
    0.44277E-03        -0.15659E-02         0.00000E+00
    0.44871E-03        -0.15933E-02         0.00000E+00
    0.45401E-03        -0.16222E-02         0.00000E+00
    0.45850E-03        -0.16528E-02         0.00000E+00
    0.46205E-03        -0.16851E-02         0.00000E+00
    0.46450E-03        -0.17193E-02         0.00000E+00
    0.46569E-03        -0.17555E-02         0.00000E+00
    0.46548E-03        -0.17937E-02         0.00000E+00
    0.46370E-03        -0.18338E-02         0.00000E+00
    0.46022E-03        -0.18761E-02         0.00000E+00
    0.45488E-03        -0.19203E-02         0.00000E+00
    0.44754E-03        -0.19663E-02         0.00000E+00
    0.43805E-03        -0.20139E-02         0.00000E+00
    0.42623E-03        -0.20627E-02         0.00000E+00
    0.41183E-03        -0.21123E-02         0.00000E+00
    0.39447E-03        -0.21620E-02         0.00000E+00
    0.37353E-03        -0.22109E-02         0.00000E+00
    0.34802E-03        -0.22581E-02         0.00000E+00
    0.31624E-03        -0.23025E-02         0.00000E+00
    0.27550E-03        -0.23429E-02         0.00000E+00
    0.22049E-03        -0.23776E-02         0.00000E+00
    0.14420E-03        -0.24073E-02         0.00000E+00
    0.00000E+00        -0.24214E-02         0.00000E+00
    0.00000E+00         0.10691E-02         0.00000E+00
    0.35472E-03         0.10374E-02         0.00000E+00
    0.55927E-03         0.96506E-03         0.00000E+00
    0.70357E-03         0.87531E-03         0.00000E+00
    0.81124E-03         0.77067E-03         0.00000E+00
    0.89482E-03         0.65497E-03         0.00000E+00
    0.96165E-03         0.53156E-03         0.00000E+00
    0.10161E-02         0.40351E-03         0.00000E+00
    0.10608E-02         0.27349E-03         0.00000E+00
    0.10975E-02         0.14372E-03         0.00000E+00
    0.11271E-02         0.15956E-04         0.00000E+00
    0.11504E-02        -0.10850E-03         0.00000E+00
    0.11679E-02        -0.22871E-03         0.00000E+00
    0.11800E-02        -0.34404E-03         0.00000E+00
    0.11870E-02        -0.45412E-03         0.00000E+00
    0.11895E-02        -0.55877E-03         0.00000E+00
    0.11877E-02        -0.65798E-03         0.00000E+00
    0.11821E-02        -0.75182E-03         0.00000E+00
    0.11731E-02        -0.84047E-03         0.00000E+00
    0.11611E-02        -0.92413E-03         0.00000E+00
    0.11465E-02        -0.10031E-02         0.00000E+00
    0.11298E-02        -0.10775E-02         0.00000E+00
    0.11112E-02        -0.11478E-02         0.00000E+00
    0.10911E-02        -0.12141E-02         0.00000E+00
    0.10699E-02        -0.12769E-02         0.00000E+00
    0.10478E-02        -0.13362E-02         0.00000E+00
    0.10251E-02        -0.13924E-02         0.00000E+00
    0.10020E-02        -0.14456E-02         0.00000E+00
    0.97875E-03        -0.14962E-02         0.00000E+00
    0.95554E-03        -0.15443E-02         0.00000E+00
    0.93255E-03        -0.15901E-02         0.00000E+00
    0.90991E-03        -0.16337E-02         0.00000E+00
    0.88774E-03        -0.16754E-02         0.00000E+00
    0.86617E-03        -0.17153E-02         0.00000E+00
    0.84529E-03        -0.17535E-02         0.00000E+00
    0.82518E-03        -0.17902E-02         0.00000E+00
    0.80590E-03        -0.18255E-02         0.00000E+00
    0.78751E-03        -0.18594E-02         0.00000E+00
    0.77007E-03        -0.18922E-02         0.00000E+00
    0.75362E-03        -0.19239E-02         0.00000E+00
    0.73818E-03        -0.19546E-02         0.00000E+00
    0.72378E-03        -0.19844E-02         0.00000E+00
    0.71044E-03        -0.20133E-02         0.00000E+00
    0.69819E-03        -0.20415E-02         0.00000E+00
    0.68703E-03        -0.20691E-02         0.00000E+00
    0.67697E-03        -0.20961E-02         0.00000E+00
    0.66801E-03        -0.21226E-02         0.00000E+00
    0.66017E-03        -0.21486E-02         0.00000E+00
    0.65345E-03        -0.21743E-02         0.00000E+00
    0.64784E-03        -0.21996E-02         0.00000E+00
    0.64334E-03        -0.22248E-02         0.00000E+00
    0.63994E-03        -0.22497E-02         0.00000E+00
    0.63765E-03        -0.22746E-02         0.00000E+00
    0.63646E-03        -0.22994E-02         0.00000E+00
    0.63636E-03        -0.23242E-02         0.00000E+00
    0.63734E-03        -0.23491E-02         0.00000E+00
    0.63939E-03        -0.23742E-02         0.00000E+00
    0.64249E-03        -0.23995E-02         0.00000E+00
    0.64664E-03        -0.24251E-02         0.00000E+00
    0.65181E-03        -0.24510E-02         0.00000E+00
    0.65799E-03        -0.24773E-02         0.00000E+00
    0.66515E-03        -0.25042E-02         0.00000E+00
    0.67326E-03        -0.25317E-02         0.00000E+00
    0.68229E-03        -0.25598E-02         0.00000E+00
    0.69220E-03        -0.25886E-02         0.00000E+00
    0.70296E-03        -0.26183E-02         0.00000E+00
    0.71450E-03        -0.26489E-02         0.00000E+00
    0.72677E-03        -0.26805E-02         0.00000E+00
    0.73970E-03        -0.27133E-02         0.00000E+00
    0.75322E-03        -0.27473E-02         0.00000E+00
    0.76723E-03        -0.27827E-02         0.00000E+00
    0.78163E-03        -0.28196E-02         0.00000E+00
    0.79630E-03        -0.28581E-02         0.00000E+00
    0.81111E-03        -0.28984E-02         0.00000E+00
    0.82591E-03        -0.29406E-02         0.00000E+00
    0.84053E-03        -0.29850E-02         0.00000E+00
    0.85478E-03        -0.30316E-02         0.00000E+00
    0.86846E-03        -0.30807E-02         0.00000E+00
    0.88134E-03        -0.31325E-02         0.00000E+00
    0.89317E-03        -0.31871E-02         0.00000E+00
    0.90369E-03        -0.32449E-02         0.00000E+00
    0.91262E-03        -0.33060E-02         0.00000E+00
    0.91965E-03        -0.33706E-02         0.00000E+00
    0.92448E-03        -0.34388E-02         0.00000E+00
    0.92679E-03        -0.35110E-02         0.00000E+00
    0.92627E-03        -0.35872E-02         0.00000E+00
    0.92260E-03        -0.36674E-02         0.00000E+00
    0.91548E-03        -0.37517E-02         0.00000E+00
    0.90459E-03        -0.38399E-02         0.00000E+00
    0.88964E-03        -0.39317E-02         0.00000E+00
    0.87031E-03        -0.40267E-02         0.00000E+00
    0.84619E-03        -0.41241E-02         0.00000E+00
    0.81677E-03        -0.42230E-02         0.00000E+00
    0.78127E-03        -0.43220E-02         0.00000E+00
    0.73843E-03        -0.44195E-02         0.00000E+00
    0.68621E-03        -0.45134E-02         0.00000E+00
    0.62130E-03        -0.46014E-02         0.00000E+00
    0.53812E-03        -0.46810E-02         0.00000E+00
    0.42718E-03        -0.47492E-02         0.00000E+00
    0.27054E-03        -0.48042E-02         0.00000E+00
    0.00000E+00        -0.48282E-02         0.00000E+00
    0.00000E+00         0.15785E-02         0.00000E+00
    0.50263E-03         0.15367E-02         0.00000E+00
    0.81253E-03         0.14356E-02         0.00000E+00
    0.10312E-02         0.13039E-02         0.00000E+00
    0.11955E-02         0.11491E-02         0.00000E+00
    0.13234E-02         0.97693E-03         0.00000E+00
    0.14258E-02         0.79282E-03         0.00000E+00
    0.15094E-02         0.60150E-03         0.00000E+00
    0.15780E-02         0.40710E-03         0.00000E+00
    0.16342E-02         0.21299E-03         0.00000E+00
    0.16796E-02         0.21818E-04         0.00000E+00
    0.17152E-02        -0.16442E-03         0.00000E+00
    0.17420E-02        -0.34432E-03         0.00000E+00
    0.17605E-02        -0.51692E-03         0.00000E+00
    0.17714E-02        -0.68168E-03         0.00000E+00
    0.17753E-02        -0.83833E-03         0.00000E+00
    0.17728E-02        -0.98683E-03         0.00000E+00
    0.17645E-02        -0.11273E-02         0.00000E+00
    0.17512E-02        -0.12600E-02         0.00000E+00
    0.17334E-02        -0.13853E-02         0.00000E+00
    0.17117E-02        -0.15035E-02         0.00000E+00
    0.16867E-02        -0.16151E-02         0.00000E+00
    0.16589E-02        -0.17203E-02         0.00000E+00
    0.16290E-02        -0.18198E-02         0.00000E+00
    0.15973E-02        -0.19137E-02         0.00000E+00
    0.15642E-02        -0.20027E-02         0.00000E+00
    0.15303E-02        -0.20869E-02         0.00000E+00
    0.14958E-02        -0.21668E-02         0.00000E+00
    0.14611E-02        -0.22426E-02         0.00000E+00
    0.14265E-02        -0.23148E-02         0.00000E+00
    0.13921E-02        -0.23835E-02         0.00000E+00
    0.13583E-02        -0.24490E-02         0.00000E+00
    0.13252E-02        -0.25116E-02         0.00000E+00
    0.12930E-02        -0.25714E-02         0.00000E+00
    0.12619E-02        -0.26288E-02         0.00000E+00
    0.12318E-02        -0.26839E-02         0.00000E+00
    0.12030E-02        -0.27368E-02         0.00000E+00
    0.11756E-02        -0.27879E-02         0.00000E+00
    0.11496E-02        -0.28371E-02         0.00000E+00
    0.11250E-02        -0.28847E-02         0.00000E+00
    0.11019E-02        -0.29308E-02         0.00000E+00
    0.10804E-02        -0.29755E-02         0.00000E+00
    0.10605E-02        -0.30190E-02         0.00000E+00
    0.10422E-02        -0.30615E-02         0.00000E+00
    0.10256E-02        -0.31029E-02         0.00000E+00
    0.10105E-02        -0.31435E-02         0.00000E+00
    0.99719E-03        -0.31832E-02         0.00000E+00
    0.98548E-03        -0.32224E-02         0.00000E+00
    0.97544E-03        -0.32610E-02         0.00000E+00
    0.96706E-03        -0.32991E-02         0.00000E+00
    0.96034E-03        -0.33369E-02         0.00000E+00
    0.95528E-03        -0.33744E-02         0.00000E+00
    0.95186E-03        -0.34117E-02         0.00000E+00
    0.95008E-03        -0.34490E-02         0.00000E+00
    0.94993E-03        -0.34863E-02         0.00000E+00
    0.95139E-03        -0.35238E-02         0.00000E+00
    0.95445E-03        -0.35615E-02         0.00000E+00
    0.95909E-03        -0.35995E-02         0.00000E+00
    0.96528E-03        -0.36379E-02         0.00000E+00
    0.97300E-03        -0.36769E-02         0.00000E+00
    0.98222E-03        -0.37165E-02         0.00000E+00
    0.99291E-03        -0.37569E-02         0.00000E+00
    0.10050E-02        -0.37981E-02         0.00000E+00
    0.10185E-02        -0.38403E-02         0.00000E+00
    0.10333E-02        -0.38837E-02         0.00000E+00
    0.10494E-02        -0.39282E-02         0.00000E+00
    0.10666E-02        -0.39742E-02         0.00000E+00
    0.10849E-02        -0.40217E-02         0.00000E+00
    0.11042E-02        -0.40709E-02         0.00000E+00
    0.11244E-02        -0.41220E-02         0.00000E+00
    0.11453E-02        -0.41751E-02         0.00000E+00
    0.11668E-02        -0.42304E-02         0.00000E+00
    0.11887E-02        -0.42882E-02         0.00000E+00
    0.12109E-02        -0.43486E-02         0.00000E+00
    0.12330E-02        -0.44120E-02         0.00000E+00
    0.12548E-02        -0.44785E-02         0.00000E+00
    0.12761E-02        -0.45484E-02         0.00000E+00
    0.12965E-02        -0.46220E-02         0.00000E+00
    0.13158E-02        -0.46996E-02         0.00000E+00
    0.13334E-02        -0.47815E-02         0.00000E+00
    0.13491E-02        -0.48680E-02         0.00000E+00
    0.13624E-02        -0.49595E-02         0.00000E+00
    0.13729E-02        -0.50562E-02         0.00000E+00
    0.13800E-02        -0.51584E-02         0.00000E+00
    0.13834E-02        -0.52665E-02         0.00000E+00
    0.13825E-02        -0.53805E-02         0.00000E+00
    0.13768E-02        -0.55006E-02         0.00000E+00
    0.13659E-02        -0.56267E-02         0.00000E+00
    0.13493E-02        -0.57587E-02         0.00000E+00
    0.13264E-02        -0.58961E-02         0.00000E+00
    0.12969E-02        -0.60383E-02         0.00000E+00
    0.12600E-02        -0.61841E-02         0.00000E+00
    0.12150E-02        -0.63320E-02         0.00000E+00
    0.11606E-02        -0.64801E-02         0.00000E+00
    0.10950E-02        -0.66257E-02         0.00000E+00
    0.10150E-02        -0.67658E-02         0.00000E+00
    0.91567E-03        -0.68968E-02         0.00000E+00
    0.78883E-03        -0.70145E-02         0.00000E+00
    0.62074E-03        -0.71146E-02         0.00000E+00
    0.38346E-03        -0.71914E-02         0.00000E+00
    0.00000E+00        -0.72231E-02         0.00000E+00
    0.00000E+00         0.20747E-02         0.00000E+00
    0.63682E-03         0.20247E-02         0.00000E+00
    0.10500E-02         0.18980E-02         0.00000E+00
    0.13442E-02         0.17264E-02         0.00000E+00
    0.15664E-02         0.15228E-02         0.00000E+00
    0.17401E-02         0.12951E-02         0.00000E+00
    0.18795E-02         0.10510E-02         0.00000E+00
    0.19932E-02         0.79688E-03         0.00000E+00
    0.20867E-02         0.53851E-03         0.00000E+00
    0.21631E-02         0.28040E-03         0.00000E+00
    0.22249E-02         0.26154E-04         0.00000E+00
    0.22734E-02        -0.22157E-03         0.00000E+00
    0.23097E-02        -0.46087E-03         0.00000E+00
    0.23349E-02        -0.69048E-03         0.00000E+00
    0.23498E-02        -0.90967E-03         0.00000E+00
    0.23553E-02        -0.11181E-02         0.00000E+00
    0.23522E-02        -0.13157E-02         0.00000E+00
    0.23415E-02        -0.15026E-02         0.00000E+00
    0.23238E-02        -0.16793E-02         0.00000E+00
    0.23002E-02        -0.18460E-02         0.00000E+00
    0.22715E-02        -0.20033E-02         0.00000E+00
    0.22383E-02        -0.21518E-02         0.00000E+00
    0.22015E-02        -0.22920E-02         0.00000E+00
    0.21617E-02        -0.24245E-02         0.00000E+00
    0.21196E-02        -0.25497E-02         0.00000E+00
    0.20757E-02        -0.26681E-02         0.00000E+00
    0.20307E-02        -0.27804E-02         0.00000E+00
    0.19849E-02        -0.28869E-02         0.00000E+00
    0.19388E-02        -0.29880E-02         0.00000E+00
    0.18928E-02        -0.30842E-02         0.00000E+00
    0.18473E-02        -0.31758E-02         0.00000E+00
    0.18024E-02        -0.32632E-02         0.00000E+00
    0.17585E-02        -0.33467E-02         0.00000E+00
    0.17157E-02        -0.34266E-02         0.00000E+00
    0.16743E-02        -0.35031E-02         0.00000E+00
    0.16345E-02        -0.35766E-02         0.00000E+00
    0.15963E-02        -0.36473E-02         0.00000E+00
    0.15598E-02        -0.37154E-02         0.00000E+00
    0.15253E-02        -0.37812E-02         0.00000E+00
    0.14927E-02        -0.38447E-02         0.00000E+00
    0.14621E-02        -0.39063E-02         0.00000E+00
    0.14336E-02        -0.39660E-02         0.00000E+00
    0.14071E-02        -0.40242E-02         0.00000E+00
    0.13829E-02        -0.40808E-02         0.00000E+00
    0.13608E-02        -0.41362E-02         0.00000E+00
    0.13408E-02        -0.41904E-02         0.00000E+00
    0.13231E-02        -0.42435E-02         0.00000E+00
    0.13076E-02        -0.42958E-02         0.00000E+00
    0.12942E-02        -0.43474E-02         0.00000E+00
    0.12831E-02        -0.43983E-02         0.00000E+00
    0.12742E-02        -0.44488E-02         0.00000E+00
    0.12675E-02        -0.44989E-02         0.00000E+00
    0.12629E-02        -0.45488E-02         0.00000E+00
    0.12606E-02        -0.45986E-02         0.00000E+00
    0.12604E-02        -0.46485E-02         0.00000E+00
    0.12623E-02        -0.46985E-02         0.00000E+00
    0.12664E-02        -0.47489E-02         0.00000E+00
    0.12725E-02        -0.47997E-02         0.00000E+00
    0.12808E-02        -0.48510E-02         0.00000E+00
    0.12910E-02        -0.49031E-02         0.00000E+00
    0.13032E-02        -0.49560E-02         0.00000E+00
    0.13174E-02        -0.50099E-02         0.00000E+00
    0.13335E-02        -0.50650E-02         0.00000E+00
    0.13514E-02        -0.51213E-02         0.00000E+00
    0.13710E-02        -0.51792E-02         0.00000E+00
    0.13924E-02        -0.52387E-02         0.00000E+00
    0.14152E-02        -0.53001E-02         0.00000E+00
    0.14396E-02        -0.53635E-02         0.00000E+00
    0.14652E-02        -0.54291E-02         0.00000E+00
    0.14920E-02        -0.54973E-02         0.00000E+00
    0.15198E-02        -0.55681E-02         0.00000E+00
    0.15483E-02        -0.56419E-02         0.00000E+00
    0.15774E-02        -0.57190E-02         0.00000E+00
    0.16068E-02        -0.57995E-02         0.00000E+00
    0.16361E-02        -0.58840E-02         0.00000E+00
    0.16651E-02        -0.59726E-02         0.00000E+00
    0.16934E-02        -0.60657E-02         0.00000E+00
    0.17205E-02        -0.61638E-02         0.00000E+00
    0.17460E-02        -0.62672E-02         0.00000E+00
    0.17695E-02        -0.63763E-02         0.00000E+00
    0.17903E-02        -0.64915E-02         0.00000E+00
    0.18079E-02        -0.66132E-02         0.00000E+00
    0.18218E-02        -0.67420E-02         0.00000E+00
    0.18312E-02        -0.68781E-02         0.00000E+00
    0.18356E-02        -0.70218E-02         0.00000E+00
    0.18342E-02        -0.71736E-02         0.00000E+00
    0.18264E-02        -0.73333E-02         0.00000E+00
    0.18116E-02        -0.75012E-02         0.00000E+00
    0.17890E-02        -0.76768E-02         0.00000E+00
    0.17581E-02        -0.78596E-02         0.00000E+00
    0.17180E-02        -0.80487E-02         0.00000E+00
    0.16680E-02        -0.82426E-02         0.00000E+00
    0.16068E-02        -0.84393E-02         0.00000E+00
    0.15328E-02        -0.86361E-02         0.00000E+00
    0.14435E-02        -0.88295E-02         0.00000E+00
    0.13347E-02        -0.90153E-02         0.00000E+00
    0.11999E-02        -0.91885E-02         0.00000E+00
    0.10284E-02        -0.93434E-02         0.00000E+00
    0.80234E-03        -0.94737E-02         0.00000E+00
    0.48597E-03        -0.95700E-02         0.00000E+00
    0.00000E+00        -0.96080E-02         0.00000E+00
    0.00000E+00         0.25596E-02         0.00000E+00
    0.76004E-03         0.25024E-02         0.00000E+00
    0.12735E-02         0.23525E-02         0.00000E+00
    0.16436E-02         0.21431E-02         0.00000E+00
    0.19247E-02         0.18918E-02         0.00000E+00
    0.21454E-02         0.16095E-02         0.00000E+00
    0.23230E-02         0.13059E-02         0.00000E+00
    0.24680E-02         0.98956E-03         0.00000E+00
    0.25871E-02         0.66762E-03         0.00000E+00
    0.26846E-02         0.34588E-03         0.00000E+00
    0.27633E-02         0.28882E-04         0.00000E+00
    0.28250E-02        -0.28002E-03         0.00000E+00
    0.28713E-02        -0.57844E-03         0.00000E+00
    0.29034E-02        -0.86480E-03         0.00000E+00
    0.29225E-02        -0.11382E-02         0.00000E+00
    0.29297E-02        -0.13981E-02         0.00000E+00
    0.29261E-02        -0.16446E-02         0.00000E+00
    0.29129E-02        -0.18778E-02         0.00000E+00
    0.28911E-02        -0.20982E-02         0.00000E+00
    0.28617E-02        -0.23062E-02         0.00000E+00
    0.28259E-02        -0.25026E-02         0.00000E+00
    0.27847E-02        -0.26879E-02         0.00000E+00
    0.27388E-02        -0.28630E-02         0.00000E+00
    0.26893E-02        -0.30283E-02         0.00000E+00
    0.26369E-02        -0.31847E-02         0.00000E+00
    0.25823E-02        -0.33327E-02         0.00000E+00
    0.25262E-02        -0.34729E-02         0.00000E+00
    0.24692E-02        -0.36059E-02         0.00000E+00
    0.24119E-02        -0.37323E-02         0.00000E+00
    0.23546E-02        -0.38526E-02         0.00000E+00
    0.22979E-02        -0.39671E-02         0.00000E+00
    0.22420E-02        -0.40764E-02         0.00000E+00
    0.21874E-02        -0.41808E-02         0.00000E+00
    0.21342E-02        -0.42807E-02         0.00000E+00
    0.20827E-02        -0.43765E-02         0.00000E+00
    0.20331E-02        -0.44685E-02         0.00000E+00
    0.19855E-02        -0.45569E-02         0.00000E+00
    0.19402E-02        -0.46422E-02         0.00000E+00
    0.18972E-02        -0.47244E-02         0.00000E+00
    0.18567E-02        -0.48040E-02         0.00000E+00
    0.18186E-02        -0.48811E-02         0.00000E+00
    0.17831E-02        -0.49559E-02         0.00000E+00
    0.17503E-02        -0.50287E-02         0.00000E+00
    0.17201E-02        -0.50997E-02         0.00000E+00
    0.16925E-02        -0.51690E-02         0.00000E+00
    0.16678E-02        -0.52368E-02         0.00000E+00
    0.16457E-02        -0.53034E-02         0.00000E+00
    0.16264E-02        -0.53689E-02         0.00000E+00
    0.16098E-02        -0.54335E-02         0.00000E+00
    0.15960E-02        -0.54973E-02         0.00000E+00
    0.15849E-02        -0.55605E-02         0.00000E+00
    0.15765E-02        -0.56233E-02         0.00000E+00
    0.15709E-02        -0.56858E-02         0.00000E+00
    0.15679E-02        -0.57482E-02         0.00000E+00
    0.15677E-02        -0.58107E-02         0.00000E+00
    0.15701E-02        -0.58733E-02         0.00000E+00
    0.15752E-02        -0.59364E-02         0.00000E+00
    0.15828E-02        -0.60000E-02         0.00000E+00
    0.15931E-02        -0.60643E-02         0.00000E+00
    0.16058E-02        -0.61295E-02         0.00000E+00
    0.16210E-02        -0.61958E-02         0.00000E+00
    0.16387E-02        -0.62633E-02         0.00000E+00
    0.16587E-02        -0.63322E-02         0.00000E+00
    0.16810E-02        -0.64028E-02         0.00000E+00
    0.17054E-02        -0.64752E-02         0.00000E+00
    0.17319E-02        -0.65497E-02         0.00000E+00
    0.17604E-02        -0.66265E-02         0.00000E+00
    0.17907E-02        -0.67058E-02         0.00000E+00
    0.18226E-02        -0.67879E-02         0.00000E+00
    0.18559E-02        -0.68732E-02         0.00000E+00
    0.18905E-02        -0.69618E-02         0.00000E+00
    0.19260E-02        -0.70541E-02         0.00000E+00
    0.19622E-02        -0.71504E-02         0.00000E+00
    0.19988E-02        -0.72511E-02         0.00000E+00
    0.20353E-02        -0.73566E-02         0.00000E+00
    0.20714E-02        -0.74674E-02         0.00000E+00
    0.21066E-02        -0.75837E-02         0.00000E+00
    0.21404E-02        -0.77062E-02         0.00000E+00
    0.21722E-02        -0.78353E-02         0.00000E+00
    0.22014E-02        -0.79715E-02         0.00000E+00
    0.22273E-02        -0.81153E-02         0.00000E+00
    0.22493E-02        -0.82673E-02         0.00000E+00
    0.22665E-02        -0.84279E-02         0.00000E+00
    0.22781E-02        -0.85977E-02         0.00000E+00
    0.22834E-02        -0.87771E-02         0.00000E+00
    0.22815E-02        -0.89663E-02         0.00000E+00
    0.22715E-02        -0.91656E-02         0.00000E+00
    0.22526E-02        -0.93750E-02         0.00000E+00
    0.22240E-02        -0.95940E-02         0.00000E+00
    0.21847E-02        -0.98219E-02         0.00000E+00
    0.21338E-02        -0.10058E-01         0.00000E+00
    0.20701E-02        -0.10300E-01         0.00000E+00
    0.19923E-02        -0.10545E-01         0.00000E+00
    0.18980E-02        -0.10790E-01         0.00000E+00
    0.17842E-02        -0.11031E-01         0.00000E+00
    0.16458E-02        -0.11262E-01         0.00000E+00
    0.14746E-02        -0.11477E-01         0.00000E+00
    0.12577E-02        -0.11668E-01         0.00000E+00
    0.97324E-03        -0.11827E-01         0.00000E+00
    0.58015E-03        -0.11941E-01         0.00000E+00
    0.00000E+00        -0.11984E-01         0.00000E+00
    0.00000E+00         0.30347E-02         0.00000E+00
    0.87428E-03         0.29709E-02         0.00000E+00
    0.14844E-02         0.27994E-02         0.00000E+00
    0.19303E-02         0.25540E-02         0.00000E+00
    0.22712E-02         0.22561E-02         0.00000E+00
    0.25400E-02         0.19200E-02         0.00000E+00
    0.27568E-02         0.15576E-02         0.00000E+00
    0.29341E-02         0.11795E-02         0.00000E+00
    0.30797E-02         0.79436E-03         0.00000E+00
    0.31989E-02         0.40935E-03         0.00000E+00
    0.32949E-02         0.29922E-04         0.00000E+00
    0.33703E-02        -0.33985E-03         0.00000E+00
    0.34268E-02        -0.69710E-03         0.00000E+00
    0.34661E-02        -0.10399E-02         0.00000E+00
    0.34895E-02        -0.13672E-02         0.00000E+00
    0.34986E-02        -0.16785E-02         0.00000E+00
    0.34946E-02        -0.19736E-02         0.00000E+00
    0.34790E-02        -0.22529E-02         0.00000E+00
    0.34530E-02        -0.25168E-02         0.00000E+00
    0.34180E-02        -0.27660E-02         0.00000E+00
    0.33752E-02        -0.30013E-02         0.00000E+00
    0.33259E-02        -0.32234E-02         0.00000E+00
    0.32711E-02        -0.34331E-02         0.00000E+00
    0.32118E-02        -0.36313E-02         0.00000E+00
    0.31492E-02        -0.38188E-02         0.00000E+00
    0.30839E-02        -0.39962E-02         0.00000E+00
    0.30169E-02        -0.41644E-02         0.00000E+00
    0.29488E-02        -0.43240E-02         0.00000E+00
    0.28802E-02        -0.44757E-02         0.00000E+00
    0.28118E-02        -0.46199E-02         0.00000E+00
    0.27440E-02        -0.47574E-02         0.00000E+00
    0.26773E-02        -0.48886E-02         0.00000E+00
    0.26120E-02        -0.50139E-02         0.00000E+00
    0.25484E-02        -0.51339E-02         0.00000E+00
    0.24869E-02        -0.52490E-02         0.00000E+00
    0.24276E-02        -0.53595E-02         0.00000E+00
    0.23709E-02        -0.54657E-02         0.00000E+00
    0.23167E-02        -0.55681E-02         0.00000E+00
    0.22654E-02        -0.56670E-02         0.00000E+00
    0.22169E-02        -0.57626E-02         0.00000E+00
    0.21715E-02        -0.58552E-02         0.00000E+00
    0.21291E-02        -0.59452E-02         0.00000E+00
    0.20898E-02        -0.60326E-02         0.00000E+00
    0.20538E-02        -0.61179E-02         0.00000E+00
    0.20209E-02        -0.62013E-02         0.00000E+00
    0.19913E-02        -0.62829E-02         0.00000E+00
    0.19650E-02        -0.63629E-02         0.00000E+00
    0.19419E-02        -0.64417E-02         0.00000E+00
    0.19221E-02        -0.65193E-02         0.00000E+00
    0.19056E-02        -0.65960E-02         0.00000E+00
    0.18923E-02        -0.66720E-02         0.00000E+00
    0.18824E-02        -0.67475E-02         0.00000E+00
    0.18756E-02        -0.68227E-02         0.00000E+00
    0.18721E-02        -0.68978E-02         0.00000E+00
    0.18718E-02        -0.69729E-02         0.00000E+00
    0.18747E-02        -0.70482E-02         0.00000E+00
    0.18808E-02        -0.71240E-02         0.00000E+00
    0.18899E-02        -0.72005E-02         0.00000E+00
    0.19021E-02        -0.72778E-02         0.00000E+00
    0.19174E-02        -0.73562E-02         0.00000E+00
    0.19355E-02        -0.74358E-02         0.00000E+00
    0.19566E-02        -0.75170E-02         0.00000E+00
    0.19805E-02        -0.75998E-02         0.00000E+00
    0.20071E-02        -0.76846E-02         0.00000E+00
    0.20363E-02        -0.77717E-02         0.00000E+00
    0.20680E-02        -0.78612E-02         0.00000E+00
    0.21020E-02        -0.79534E-02         0.00000E+00
    0.21382E-02        -0.80487E-02         0.00000E+00
    0.21763E-02        -0.81473E-02         0.00000E+00
    0.22162E-02        -0.82497E-02         0.00000E+00
    0.22575E-02        -0.83560E-02         0.00000E+00
    0.23000E-02        -0.84668E-02         0.00000E+00
    0.23432E-02        -0.85824E-02         0.00000E+00
    0.23869E-02        -0.87033E-02         0.00000E+00
    0.24306E-02        -0.88299E-02         0.00000E+00
    0.24738E-02        -0.89627E-02         0.00000E+00
    0.25159E-02        -0.91022E-02         0.00000E+00
    0.25563E-02        -0.92491E-02         0.00000E+00
    0.25943E-02        -0.94038E-02         0.00000E+00
    0.26292E-02        -0.95671E-02         0.00000E+00
    0.26602E-02        -0.97394E-02         0.00000E+00
    0.26864E-02        -0.99215E-02         0.00000E+00
    0.27069E-02        -0.10114E-01         0.00000E+00
    0.27208E-02        -0.10317E-01         0.00000E+00
    0.27270E-02        -0.10532E-01         0.00000E+00
    0.27245E-02        -0.10759E-01         0.00000E+00
    0.27122E-02        -0.10997E-01         0.00000E+00
    0.26892E-02        -0.11248E-01         0.00000E+00
    0.26543E-02        -0.11510E-01         0.00000E+00
    0.26065E-02        -0.11783E-01         0.00000E+00
    0.25444E-02        -0.12065E-01         0.00000E+00
    0.24668E-02        -0.12355E-01         0.00000E+00
    0.23717E-02        -0.12648E-01         0.00000E+00
    0.22566E-02        -0.12942E-01         0.00000E+00
    0.21176E-02        -0.13230E-01         0.00000E+00
    0.19486E-02        -0.13505E-01         0.00000E+00
    0.17403E-02        -0.13761E-01         0.00000E+00
    0.14773E-02        -0.13988E-01         0.00000E+00
    0.11346E-02        -0.14174E-01         0.00000E+00
    0.66751E-03        -0.14304E-01         0.00000E+00
    0.00000E+00        -0.14353E-01         0.00000E+00
    0.00000E+00         0.35012E-02         0.00000E+00
    0.98104E-03         0.34311E-02         0.00000E+00
    0.16842E-02         0.32392E-02         0.00000E+00
    0.22054E-02         0.29592E-02         0.00000E+00
    0.26066E-02         0.26159E-02         0.00000E+00
    0.29244E-02         0.22266E-02         0.00000E+00
    0.31813E-02         0.18060E-02         0.00000E+00
    0.33917E-02         0.13666E-02         0.00000E+00
    0.35647E-02         0.91867E-03         0.00000E+00
    0.37062E-02         0.47073E-03         0.00000E+00
    0.38202E-02         0.29196E-04         0.00000E+00
    0.39095E-02        -0.40114E-03         0.00000E+00
    0.39766E-02        -0.81693E-03         0.00000E+00
    0.40232E-02        -0.12160E-02         0.00000E+00
    0.40511E-02        -0.15969E-02         0.00000E+00
    0.40621E-02        -0.19592E-02         0.00000E+00
    0.40578E-02        -0.23028E-02         0.00000E+00
    0.40398E-02        -0.26280E-02         0.00000E+00
    0.40097E-02        -0.29353E-02         0.00000E+00
    0.39690E-02        -0.32255E-02         0.00000E+00
    0.39193E-02        -0.34995E-02         0.00000E+00
    0.38620E-02        -0.37582E-02         0.00000E+00
    0.37982E-02        -0.40026E-02         0.00000E+00
    0.37294E-02        -0.42336E-02         0.00000E+00
    0.36565E-02        -0.44520E-02         0.00000E+00
    0.35807E-02        -0.46589E-02         0.00000E+00
    0.35027E-02        -0.48550E-02         0.00000E+00
    0.34236E-02        -0.50411E-02         0.00000E+00
    0.33439E-02        -0.52180E-02         0.00000E+00
    0.32644E-02        -0.53863E-02         0.00000E+00
    0.31856E-02        -0.55467E-02         0.00000E+00
    0.31081E-02        -0.56998E-02         0.00000E+00
    0.30322E-02        -0.58461E-02         0.00000E+00
    0.29584E-02        -0.59862E-02         0.00000E+00
    0.28870E-02        -0.61206E-02         0.00000E+00
    0.28181E-02        -0.62496E-02         0.00000E+00
    0.27522E-02        -0.63737E-02         0.00000E+00
    0.26893E-02        -0.64933E-02         0.00000E+00
    0.26297E-02        -0.66088E-02         0.00000E+00
    0.25734E-02        -0.67205E-02         0.00000E+00
    0.25206E-02        -0.68287E-02         0.00000E+00
    0.24714E-02        -0.69338E-02         0.00000E+00
    0.24258E-02        -0.70360E-02         0.00000E+00
    0.23840E-02        -0.71357E-02         0.00000E+00
    0.23458E-02        -0.72331E-02         0.00000E+00
    0.23114E-02        -0.73285E-02         0.00000E+00
    0.22809E-02        -0.74220E-02         0.00000E+00
    0.22541E-02        -0.75141E-02         0.00000E+00
    0.22311E-02        -0.76048E-02         0.00000E+00
    0.22119E-02        -0.76945E-02         0.00000E+00
    0.21965E-02        -0.77834E-02         0.00000E+00
    0.21850E-02        -0.78717E-02         0.00000E+00
    0.21772E-02        -0.79595E-02         0.00000E+00
    0.21731E-02        -0.80473E-02         0.00000E+00
    0.21728E-02        -0.81351E-02         0.00000E+00
    0.21761E-02        -0.82232E-02         0.00000E+00
    0.21831E-02        -0.83118E-02         0.00000E+00
    0.21937E-02        -0.84012E-02         0.00000E+00
    0.22079E-02        -0.84915E-02         0.00000E+00
    0.22256E-02        -0.85831E-02         0.00000E+00
    0.22468E-02        -0.86762E-02         0.00000E+00
    0.22713E-02        -0.87710E-02         0.00000E+00
    0.22990E-02        -0.88678E-02         0.00000E+00
    0.23299E-02        -0.89669E-02         0.00000E+00
    0.23638E-02        -0.90686E-02         0.00000E+00
    0.24006E-02        -0.91731E-02         0.00000E+00
    0.24402E-02        -0.92808E-02         0.00000E+00
    0.24822E-02        -0.93921E-02         0.00000E+00
    0.25265E-02        -0.95073E-02         0.00000E+00
    0.25728E-02        -0.96268E-02         0.00000E+00
    0.26208E-02        -0.97509E-02         0.00000E+00
    0.26701E-02        -0.98802E-02         0.00000E+00
    0.27204E-02        -0.10015E-01         0.00000E+00
    0.27712E-02        -0.10156E-01         0.00000E+00
    0.28220E-02        -0.10304E-01         0.00000E+00
    0.28722E-02        -0.10459E-01         0.00000E+00
    0.29212E-02        -0.10621E-01         0.00000E+00
    0.29681E-02        -0.10792E-01         0.00000E+00
    0.30124E-02        -0.10973E-01         0.00000E+00
    0.30530E-02        -0.11163E-01         0.00000E+00
    0.30890E-02        -0.11364E-01         0.00000E+00
    0.31195E-02        -0.11576E-01         0.00000E+00
    0.31433E-02        -0.11800E-01         0.00000E+00
    0.31593E-02        -0.12037E-01         0.00000E+00
    0.31664E-02        -0.12287E-01         0.00000E+00
    0.31633E-02        -0.12551E-01         0.00000E+00
    0.31487E-02        -0.12829E-01         0.00000E+00
    0.31215E-02        -0.13120E-01         0.00000E+00
    0.30802E-02        -0.13426E-01         0.00000E+00
    0.30235E-02        -0.13743E-01         0.00000E+00
    0.29501E-02        -0.14072E-01         0.00000E+00
    0.28581E-02        -0.14409E-01         0.00000E+00
    0.27453E-02        -0.14750E-01         0.00000E+00
    0.26087E-02        -0.15091E-01         0.00000E+00
    0.24438E-02        -0.15426E-01         0.00000E+00
    0.22437E-02        -0.15746E-01         0.00000E+00
    0.19975E-02        -0.16042E-01         0.00000E+00
    0.16881E-02        -0.16303E-01         0.00000E+00
    0.12876E-02        -0.16516E-01         0.00000E+00
    0.74919E-03        -0.16662E-01         0.00000E+00
    0.00000E+00        -0.16715E-01         0.00000E+00
    0.00000E+00         0.39601E-02         0.00000E+00
    0.10815E-02         0.38839E-02         0.00000E+00
    0.18742E-02         0.36725E-02         0.00000E+00
    0.24698E-02         0.33590E-02         0.00000E+00
    0.29316E-02         0.29711E-02         0.00000E+00
    0.32991E-02         0.25295E-02         0.00000E+00
    0.35971E-02         0.20511E-02         0.00000E+00
    0.38414E-02         0.15508E-02         0.00000E+00
    0.40424E-02         0.10405E-02         0.00000E+00
    0.42068E-02         0.52994E-03         0.00000E+00
    0.43392E-02         0.26633E-04         0.00000E+00
    0.44429E-02        -0.46397E-03         0.00000E+00
    0.45207E-02        -0.93800E-03         0.00000E+00
    0.45748E-02        -0.13929E-02         0.00000E+00
    0.46074E-02        -0.18273E-02         0.00000E+00
    0.46204E-02        -0.22404E-02         0.00000E+00
    0.46158E-02        -0.26322E-02         0.00000E+00
    0.45954E-02        -0.30031E-02         0.00000E+00
    0.45612E-02        -0.33536E-02         0.00000E+00
    0.45150E-02        -0.36847E-02         0.00000E+00
    0.44584E-02        -0.39973E-02         0.00000E+00
    0.43930E-02        -0.42925E-02         0.00000E+00
    0.43204E-02        -0.45714E-02         0.00000E+00
    0.42419E-02        -0.48351E-02         0.00000E+00
    0.41589E-02        -0.50845E-02         0.00000E+00
    0.40725E-02        -0.53207E-02         0.00000E+00
    0.39838E-02        -0.55447E-02         0.00000E+00
    0.38936E-02        -0.57573E-02         0.00000E+00
    0.38029E-02        -0.59594E-02         0.00000E+00
    0.37124E-02        -0.61518E-02         0.00000E+00
    0.36228E-02        -0.63351E-02         0.00000E+00
    0.35345E-02        -0.65101E-02         0.00000E+00
    0.34482E-02        -0.66774E-02         0.00000E+00
    0.33641E-02        -0.68376E-02         0.00000E+00
    0.32828E-02        -0.69913E-02         0.00000E+00
    0.32045E-02        -0.71388E-02         0.00000E+00
    0.31295E-02        -0.72808E-02         0.00000E+00
    0.30580E-02        -0.74177E-02         0.00000E+00
    0.29901E-02        -0.75498E-02         0.00000E+00
    0.29261E-02        -0.76776E-02         0.00000E+00
    0.28661E-02        -0.78015E-02         0.00000E+00
    0.28101E-02        -0.79218E-02         0.00000E+00
    0.27583E-02        -0.80389E-02         0.00000E+00
    0.27106E-02        -0.81530E-02         0.00000E+00
    0.26672E-02        -0.82645E-02         0.00000E+00
    0.26281E-02        -0.83737E-02         0.00000E+00
    0.25934E-02        -0.84808E-02         0.00000E+00
    0.25629E-02        -0.85862E-02         0.00000E+00
    0.25368E-02        -0.86901E-02         0.00000E+00
    0.25150E-02        -0.87928E-02         0.00000E+00
    0.24975E-02        -0.88946E-02         0.00000E+00
    0.24843E-02        -0.89957E-02         0.00000E+00
    0.24754E-02        -0.90963E-02         0.00000E+00
    0.24708E-02        -0.91967E-02         0.00000E+00
    0.24704E-02        -0.92973E-02         0.00000E+00
    0.24743E-02        -0.93982E-02         0.00000E+00
    0.24822E-02        -0.94996E-02         0.00000E+00
    0.24943E-02        -0.96020E-02         0.00000E+00
    0.25105E-02        -0.97054E-02         0.00000E+00
    0.25306E-02        -0.98103E-02         0.00000E+00
    0.25547E-02        -0.99168E-02         0.00000E+00
    0.25825E-02        -0.10025E-01         0.00000E+00
    0.26141E-02        -0.10136E-01         0.00000E+00
    0.26493E-02        -0.10250E-01         0.00000E+00
    0.26879E-02        -0.10366E-01         0.00000E+00
    0.27298E-02        -0.10486E-01         0.00000E+00
    0.27747E-02        -0.10609E-01         0.00000E+00
    0.28225E-02        -0.10736E-01         0.00000E+00
    0.28730E-02        -0.10868E-01         0.00000E+00
    0.29257E-02        -0.11004E-01         0.00000E+00
    0.29803E-02        -0.11146E-01         0.00000E+00
    0.30365E-02        -0.11294E-01         0.00000E+00
    0.30938E-02        -0.11448E-01         0.00000E+00
    0.31517E-02        -0.11609E-01         0.00000E+00
    0.32095E-02        -0.11778E-01         0.00000E+00
    0.32667E-02        -0.11955E-01         0.00000E+00
    0.33224E-02        -0.12141E-01         0.00000E+00
    0.33760E-02        -0.12336E-01         0.00000E+00
    0.34264E-02        -0.12542E-01         0.00000E+00
    0.34727E-02        -0.12759E-01         0.00000E+00
    0.35138E-02        -0.12988E-01         0.00000E+00
    0.35485E-02        -0.13230E-01         0.00000E+00
    0.35756E-02        -0.13486E-01         0.00000E+00
    0.35938E-02        -0.13756E-01         0.00000E+00
    0.36018E-02        -0.14042E-01         0.00000E+00
    0.35980E-02        -0.14342E-01         0.00000E+00
    0.35811E-02        -0.14659E-01         0.00000E+00
    0.35495E-02        -0.14992E-01         0.00000E+00
    0.35017E-02        -0.15340E-01         0.00000E+00
    0.34361E-02        -0.15702E-01         0.00000E+00
    0.33509E-02        -0.16077E-01         0.00000E+00
    0.32442E-02        -0.16461E-01         0.00000E+00
    0.31133E-02        -0.16850E-01         0.00000E+00
    0.29548E-02        -0.17238E-01         0.00000E+00
    0.27634E-02        -0.17619E-01         0.00000E+00
    0.25314E-02        -0.17983E-01         0.00000E+00
    0.22468E-02        -0.18319E-01         0.00000E+00
    0.18907E-02        -0.18614E-01         0.00000E+00
    0.14331E-02        -0.18853E-01         0.00000E+00
    0.82607E-03        -0.19013E-01         0.00000E+00
    0.00000E+00        -0.19071E-01         0.00000E+00
    0.00000E+00         0.44121E-02         0.00000E+00
    0.11765E-02         0.43300E-02         0.00000E+00
    0.20555E-02         0.40996E-02         0.00000E+00
    0.27244E-02         0.37535E-02         0.00000E+00
    0.32469E-02         0.33219E-02         0.00000E+00
    0.36647E-02         0.28285E-02         0.00000E+00
    0.40045E-02         0.22929E-02         0.00000E+00
    0.42836E-02         0.17320E-02         0.00000E+00
    0.45132E-02         0.11597E-02         0.00000E+00
    0.47011E-02         0.58693E-03         0.00000E+00
    0.48522E-02         0.22161E-04         0.00000E+00
    0.49707E-02        -0.52839E-03         0.00000E+00
    0.50595E-02        -0.10604E-02         0.00000E+00
    0.51213E-02        -0.15709E-02         0.00000E+00
    0.51585E-02        -0.20585E-02         0.00000E+00
    0.51736E-02        -0.25222E-02         0.00000E+00
    0.51687E-02        -0.29619E-02         0.00000E+00
    0.51460E-02        -0.33782E-02         0.00000E+00
    0.51078E-02        -0.37718E-02         0.00000E+00
    0.50559E-02        -0.41436E-02         0.00000E+00
    0.49924E-02        -0.44947E-02         0.00000E+00
    0.49190E-02        -0.48263E-02         0.00000E+00
    0.48375E-02        -0.51396E-02         0.00000E+00
    0.47495E-02        -0.54358E-02         0.00000E+00
    0.46564E-02        -0.57162E-02         0.00000E+00
    0.45595E-02        -0.59817E-02         0.00000E+00
    0.44600E-02        -0.62336E-02         0.00000E+00
    0.43589E-02        -0.64726E-02         0.00000E+00
    0.42572E-02        -0.66999E-02         0.00000E+00
    0.41558E-02        -0.69163E-02         0.00000E+00
    0.40553E-02        -0.71226E-02         0.00000E+00
    0.39564E-02        -0.73196E-02         0.00000E+00
    0.38597E-02        -0.75079E-02         0.00000E+00
    0.37656E-02        -0.76882E-02         0.00000E+00
    0.36745E-02        -0.78611E-02         0.00000E+00
    0.35868E-02        -0.80273E-02         0.00000E+00
    0.35028E-02        -0.81872E-02         0.00000E+00
    0.34227E-02        -0.83413E-02         0.00000E+00
    0.33467E-02        -0.84902E-02         0.00000E+00
    0.32750E-02        -0.86342E-02         0.00000E+00
    0.32078E-02        -0.87737E-02         0.00000E+00
    0.31451E-02        -0.89093E-02         0.00000E+00
    0.30871E-02        -0.90412E-02         0.00000E+00
    0.30337E-02        -0.91697E-02         0.00000E+00
    0.29851E-02        -0.92954E-02         0.00000E+00
    0.29414E-02        -0.94184E-02         0.00000E+00
    0.29024E-02        -0.95392E-02         0.00000E+00
    0.28683E-02        -0.96580E-02         0.00000E+00
    0.28391E-02        -0.97751E-02         0.00000E+00
    0.28147E-02        -0.98909E-02         0.00000E+00
    0.27951E-02        -0.10006E-01         0.00000E+00
    0.27804E-02        -0.10120E-01         0.00000E+00
    0.27704E-02        -0.10233E-01         0.00000E+00
    0.27653E-02        -0.10346E-01         0.00000E+00
    0.27648E-02        -0.10460E-01         0.00000E+00
    0.27691E-02        -0.10573E-01         0.00000E+00
    0.27781E-02        -0.10688E-01         0.00000E+00
    0.27916E-02        -0.10803E-01         0.00000E+00
    0.28097E-02        -0.10920E-01         0.00000E+00
    0.28323E-02        -0.11038E-01         0.00000E+00
    0.28592E-02        -0.11158E-01         0.00000E+00
    0.28904E-02        -0.11280E-01         0.00000E+00
    0.29258E-02        -0.11405E-01         0.00000E+00
    0.29652E-02        -0.11533E-01         0.00000E+00
    0.30084E-02        -0.11664E-01         0.00000E+00
    0.30553E-02        -0.11798E-01         0.00000E+00
    0.31057E-02        -0.11937E-01         0.00000E+00
    0.31593E-02        -0.12081E-01         0.00000E+00
    0.32158E-02        -0.12229E-01         0.00000E+00
    0.32749E-02        -0.12383E-01         0.00000E+00
    0.33361E-02        -0.12542E-01         0.00000E+00
    0.33991E-02        -0.12709E-01         0.00000E+00
    0.34633E-02        -0.12882E-01         0.00000E+00
    0.35282E-02        -0.13063E-01         0.00000E+00
    0.35931E-02        -0.13253E-01         0.00000E+00
    0.36572E-02        -0.13452E-01         0.00000E+00
    0.37198E-02        -0.13661E-01         0.00000E+00
    0.37799E-02        -0.13881E-01         0.00000E+00
    0.38364E-02        -0.14112E-01         0.00000E+00
    0.38884E-02        -0.14356E-01         0.00000E+00
    0.39345E-02        -0.14613E-01         0.00000E+00
    0.39735E-02        -0.14885E-01         0.00000E+00
    0.40040E-02        -0.15172E-01         0.00000E+00
    0.40244E-02        -0.15476E-01         0.00000E+00
    0.40332E-02        -0.15796E-01         0.00000E+00
    0.40287E-02        -0.16134E-01         0.00000E+00
    0.40094E-02        -0.16489E-01         0.00000E+00
    0.39734E-02        -0.16863E-01         0.00000E+00
    0.39190E-02        -0.17253E-01         0.00000E+00
    0.38443E-02        -0.17660E-01         0.00000E+00
    0.37472E-02        -0.18080E-01         0.00000E+00
    0.36255E-02        -0.18511E-01         0.00000E+00
    0.34760E-02        -0.18947E-01         0.00000E+00
    0.32950E-02        -0.19383E-01         0.00000E+00
    0.30766E-02        -0.19810E-01         0.00000E+00
    0.28122E-02        -0.20218E-01         0.00000E+00
    0.24887E-02        -0.20593E-01         0.00000E+00
    0.20859E-02        -0.20922E-01         0.00000E+00
    0.15720E-02        -0.21185E-01         0.00000E+00
    0.89885E-03        -0.21360E-01         0.00000E+00
    0.00000E+00        -0.21422E-01         0.00000E+00
    0.00000E+00         0.48582E-02         0.00000E+00
    0.12669E-02         0.47702E-02         0.00000E+00
    0.22291E-02         0.45211E-02         0.00000E+00
    0.29701E-02         0.41431E-02         0.00000E+00
    0.35533E-02         0.36684E-02         0.00000E+00
    0.40218E-02         0.31237E-02         0.00000E+00
    0.44040E-02         0.25313E-02         0.00000E+00
    0.47185E-02         0.19104E-02         0.00000E+00
    0.49775E-02         0.12763E-02         0.00000E+00
    0.51892E-02         0.64162E-03         0.00000E+00
    0.53596E-02         0.15714E-04         0.00000E+00
    0.54930E-02        -0.59447E-03         0.00000E+00
    0.55930E-02        -0.11841E-02         0.00000E+00
    0.56626E-02        -0.17500E-02         0.00000E+00
    0.57046E-02        -0.22904E-02         0.00000E+00
    0.57218E-02        -0.28044E-02         0.00000E+00
    0.57166E-02        -0.32920E-02         0.00000E+00
    0.56917E-02        -0.37536E-02         0.00000E+00
    0.56493E-02        -0.41899E-02         0.00000E+00
    0.55918E-02        -0.46022E-02         0.00000E+00
    0.55214E-02        -0.49917E-02         0.00000E+00
    0.54400E-02        -0.53595E-02         0.00000E+00
    0.53497E-02        -0.57072E-02         0.00000E+00
    0.52521E-02        -0.60360E-02         0.00000E+00
    0.51490E-02        -0.63471E-02         0.00000E+00
    0.50416E-02        -0.66420E-02         0.00000E+00
    0.49314E-02        -0.69216E-02         0.00000E+00
    0.48194E-02        -0.71871E-02         0.00000E+00
    0.47069E-02        -0.74396E-02         0.00000E+00
    0.45946E-02        -0.76800E-02         0.00000E+00
    0.44833E-02        -0.79092E-02         0.00000E+00
    0.43739E-02        -0.81281E-02         0.00000E+00
    0.42668E-02        -0.83374E-02         0.00000E+00
    0.41627E-02        -0.85379E-02         0.00000E+00
    0.40619E-02        -0.87302E-02         0.00000E+00
    0.39649E-02        -0.89150E-02         0.00000E+00
    0.38720E-02        -0.90928E-02         0.00000E+00
    0.37834E-02        -0.92643E-02         0.00000E+00
    0.36993E-02        -0.94298E-02         0.00000E+00
    0.36201E-02        -0.95900E-02         0.00000E+00
    0.35457E-02        -0.97453E-02         0.00000E+00
    0.34764E-02        -0.98961E-02         0.00000E+00
    0.34122E-02        -0.10043E-01         0.00000E+00
    0.33532E-02        -0.10186E-01         0.00000E+00
    0.32995E-02        -0.10326E-01         0.00000E+00
    0.32511E-02        -0.10463E-01         0.00000E+00
    0.32080E-02        -0.10597E-01         0.00000E+00
    0.31703E-02        -0.10730E-01         0.00000E+00
    0.31380E-02        -0.10860E-01         0.00000E+00
    0.31110E-02        -0.10989E-01         0.00000E+00
    0.30894E-02        -0.11116E-01         0.00000E+00
    0.30731E-02        -0.11243E-01         0.00000E+00
    0.30621E-02        -0.11370E-01         0.00000E+00
    0.30564E-02        -0.11496E-01         0.00000E+00
    0.30559E-02        -0.11622E-01         0.00000E+00
    0.30607E-02        -0.11748E-01         0.00000E+00
    0.30706E-02        -0.11876E-01         0.00000E+00
    0.30856E-02        -0.12004E-01         0.00000E+00
    0.31056E-02        -0.12134E-01         0.00000E+00
    0.31305E-02        -0.12265E-01         0.00000E+00
    0.31603E-02        -0.12399E-01         0.00000E+00
    0.31949E-02        -0.12535E-01         0.00000E+00
    0.32340E-02        -0.12674E-01         0.00000E+00
    0.32776E-02        -0.12816E-01         0.00000E+00
    0.33254E-02        -0.12962E-01         0.00000E+00
    0.33774E-02        -0.13112E-01         0.00000E+00
    0.34331E-02        -0.13266E-01         0.00000E+00
    0.34924E-02        -0.13425E-01         0.00000E+00
    0.35549E-02        -0.13590E-01         0.00000E+00
    0.36203E-02        -0.13761E-01         0.00000E+00
    0.36881E-02        -0.13939E-01         0.00000E+00
    0.37579E-02        -0.14124E-01         0.00000E+00
    0.38290E-02        -0.14316E-01         0.00000E+00
    0.39009E-02        -0.14518E-01         0.00000E+00
    0.39727E-02        -0.14729E-01         0.00000E+00
    0.40438E-02        -0.14949E-01         0.00000E+00
    0.41132E-02        -0.15181E-01         0.00000E+00
    0.41798E-02        -0.15425E-01         0.00000E+00
    0.42425E-02        -0.15682E-01         0.00000E+00
    0.43002E-02        -0.15953E-01         0.00000E+00
    0.43513E-02        -0.16238E-01         0.00000E+00
    0.43946E-02        -0.16540E-01         0.00000E+00
    0.44284E-02        -0.16858E-01         0.00000E+00
    0.44510E-02        -0.17195E-01         0.00000E+00
    0.44606E-02        -0.17550E-01         0.00000E+00
    0.44555E-02        -0.17924E-01         0.00000E+00
    0.44338E-02        -0.18319E-01         0.00000E+00
    0.43933E-02        -0.18732E-01         0.00000E+00
    0.43322E-02        -0.19165E-01         0.00000E+00
    0.42482E-02        -0.19616E-01         0.00000E+00
    0.41391E-02        -0.20082E-01         0.00000E+00
    0.40020E-02        -0.20559E-01         0.00000E+00
    0.38337E-02        -0.21043E-01         0.00000E+00
    0.36297E-02        -0.21526E-01         0.00000E+00
    0.33838E-02        -0.21999E-01         0.00000E+00
    0.30865E-02        -0.22450E-01         0.00000E+00
    0.27239E-02        -0.22864E-01         0.00000E+00
    0.22743E-02        -0.23225E-01         0.00000E+00
    0.17051E-02        -0.23512E-01         0.00000E+00
    0.96810E-03        -0.23702E-01         0.00000E+00
    0.00000E+00        -0.23769E-01         0.00000E+00
    0.00000E+00         0.52989E-02         0.00000E+00
    0.13533E-02         0.52050E-02         0.00000E+00
    0.23959E-02         0.49374E-02         0.00000E+00
    0.32077E-02         0.45280E-02         0.00000E+00
    0.38514E-02         0.40108E-02         0.00000E+00
    0.43710E-02         0.34152E-02         0.00000E+00
    0.47962E-02         0.27664E-02         0.00000E+00
    0.51467E-02         0.20857E-02         0.00000E+00
    0.54355E-02         0.13903E-02         0.00000E+00
    0.56716E-02         0.69396E-03         0.00000E+00
    0.58616E-02         0.72291E-05         0.00000E+00
    0.60102E-02        -0.66228E-03         0.00000E+00
    0.61216E-02        -0.13093E-02         0.00000E+00
    0.61991E-02        -0.19303E-02         0.00000E+00
    0.62459E-02        -0.25232E-02         0.00000E+00
    0.62652E-02        -0.30873E-02         0.00000E+00
    0.62598E-02        -0.36224E-02         0.00000E+00
    0.62325E-02        -0.41290E-02         0.00000E+00
    0.61860E-02        -0.46081E-02         0.00000E+00
    0.61228E-02        -0.50607E-02         0.00000E+00
    0.60455E-02        -0.54884E-02         0.00000E+00
    0.59561E-02        -0.58924E-02         0.00000E+00
    0.58570E-02        -0.62743E-02         0.00000E+00
    0.57499E-02        -0.66355E-02         0.00000E+00
    0.56366E-02        -0.69774E-02         0.00000E+00
    0.55188E-02        -0.73014E-02         0.00000E+00
    0.53979E-02        -0.76088E-02         0.00000E+00
    0.52752E-02        -0.79007E-02         0.00000E+00
    0.51518E-02        -0.81784E-02         0.00000E+00
    0.50287E-02        -0.84428E-02         0.00000E+00
    0.49068E-02        -0.86950E-02         0.00000E+00
    0.47869E-02        -0.89358E-02         0.00000E+00
    0.46696E-02        -0.91661E-02         0.00000E+00
    0.45555E-02        -0.93868E-02         0.00000E+00
    0.44451E-02        -0.95984E-02         0.00000E+00
    0.43388E-02        -0.98019E-02         0.00000E+00
    0.42371E-02        -0.99977E-02         0.00000E+00
    0.41400E-02        -0.10186E-01         0.00000E+00
    0.40480E-02        -0.10369E-01         0.00000E+00
    0.39612E-02        -0.10545E-01         0.00000E+00
    0.38798E-02        -0.10716E-01         0.00000E+00
    0.38039E-02        -0.10882E-01         0.00000E+00
    0.37336E-02        -0.11044E-01         0.00000E+00
    0.36691E-02        -0.11202E-01         0.00000E+00
    0.36103E-02        -0.11356E-01         0.00000E+00
    0.35573E-02        -0.11507E-01         0.00000E+00
    0.35101E-02        -0.11655E-01         0.00000E+00
    0.34689E-02        -0.11801E-01         0.00000E+00
    0.34335E-02        -0.11944E-01         0.00000E+00
    0.34039E-02        -0.12086E-01         0.00000E+00
    0.33803E-02        -0.12227E-01         0.00000E+00
    0.33624E-02        -0.12367E-01         0.00000E+00
    0.33504E-02        -0.12506E-01         0.00000E+00
    0.33442E-02        -0.12645E-01         0.00000E+00
    0.33437E-02        -0.12784E-01         0.00000E+00
    0.33489E-02        -0.12924E-01         0.00000E+00
    0.33598E-02        -0.13064E-01         0.00000E+00
    0.33762E-02        -0.13205E-01         0.00000E+00
    0.33981E-02        -0.13348E-01         0.00000E+00
    0.34254E-02        -0.13493E-01         0.00000E+00
    0.34581E-02        -0.13640E-01         0.00000E+00
    0.34959E-02        -0.13790E-01         0.00000E+00
    0.35387E-02        -0.13943E-01         0.00000E+00
    0.35865E-02        -0.14100E-01         0.00000E+00
    0.36389E-02        -0.14260E-01         0.00000E+00
    0.36958E-02        -0.14425E-01         0.00000E+00
    0.37569E-02        -0.14595E-01         0.00000E+00
    0.38219E-02        -0.14771E-01         0.00000E+00
    0.38904E-02        -0.14952E-01         0.00000E+00
    0.39621E-02        -0.15141E-01         0.00000E+00
    0.40364E-02        -0.15336E-01         0.00000E+00
    0.41129E-02        -0.15539E-01         0.00000E+00
    0.41908E-02        -0.15751E-01         0.00000E+00
    0.42697E-02        -0.15973E-01         0.00000E+00
    0.43485E-02        -0.16205E-01         0.00000E+00
    0.44265E-02        -0.16447E-01         0.00000E+00
    0.45026E-02        -0.16702E-01         0.00000E+00
    0.45757E-02        -0.16970E-01         0.00000E+00
    0.46447E-02        -0.17252E-01         0.00000E+00
    0.47080E-02        -0.17550E-01         0.00000E+00
    0.47642E-02        -0.17864E-01         0.00000E+00
    0.48118E-02        -0.18195E-01         0.00000E+00
    0.48489E-02        -0.18544E-01         0.00000E+00
    0.48738E-02        -0.18914E-01         0.00000E+00
    0.48843E-02        -0.19303E-01         0.00000E+00
    0.48786E-02        -0.19714E-01         0.00000E+00
    0.48544E-02        -0.20147E-01         0.00000E+00
    0.48095E-02        -0.20601E-01         0.00000E+00
    0.47416E-02        -0.21076E-01         0.00000E+00
    0.46482E-02        -0.21571E-01         0.00000E+00
    0.45268E-02        -0.22082E-01         0.00000E+00
    0.43741E-02        -0.22606E-01         0.00000E+00
    0.41866E-02        -0.23136E-01         0.00000E+00
    0.39593E-02        -0.23666E-01         0.00000E+00
    0.36853E-02        -0.24185E-01         0.00000E+00
    0.33548E-02        -0.24678E-01         0.00000E+00
    0.29526E-02        -0.25132E-01         0.00000E+00
    0.24565E-02        -0.25525E-01         0.00000E+00
    0.18329E-02        -0.25836E-01         0.00000E+00
    0.10343E-02        -0.26040E-01         0.00000E+00
    0.00000E+00        -0.26111E-01         0.00000E+00
    0.00000E+00         0.57350E-02         0.00000E+00
    0.14361E-02         0.56351E-02         0.00000E+00
    0.25566E-02         0.53491E-02         0.00000E+00
    0.34380E-02         0.49085E-02         0.00000E+00
    0.41419E-02         0.43491E-02         0.00000E+00
    0.47129E-02         0.37031E-02         0.00000E+00
    0.51815E-02         0.29982E-02         0.00000E+00
    0.55685E-02         0.22580E-02         0.00000E+00
    0.58876E-02         0.15015E-02         0.00000E+00
    0.61486E-02         0.74388E-03         0.00000E+00
    0.63584E-02        -0.33522E-05         0.00000E+00
    0.65225E-02        -0.73188E-03         0.00000E+00
    0.66453E-02        -0.14359E-02         0.00000E+00
    0.67308E-02        -0.21117E-02         0.00000E+00
    0.67825E-02        -0.27570E-02         0.00000E+00
    0.68039E-02        -0.33709E-02         0.00000E+00
    0.67982E-02        -0.39533E-02         0.00000E+00
    0.67685E-02        -0.45048E-02         0.00000E+00
    0.67178E-02        -0.50263E-02         0.00000E+00
    0.66490E-02        -0.55191E-02         0.00000E+00
    0.65647E-02        -0.59848E-02         0.00000E+00
    0.64674E-02        -0.64248E-02         0.00000E+00
    0.63593E-02        -0.68408E-02         0.00000E+00
    0.62427E-02        -0.72344E-02         0.00000E+00
    0.61194E-02        -0.76070E-02         0.00000E+00
    0.59912E-02        -0.79601E-02         0.00000E+00
    0.58597E-02        -0.82952E-02         0.00000E+00
    0.57262E-02        -0.86136E-02         0.00000E+00
    0.55920E-02        -0.89164E-02         0.00000E+00
    0.54582E-02        -0.92048E-02         0.00000E+00
    0.53257E-02        -0.94799E-02         0.00000E+00
    0.51953E-02        -0.97426E-02         0.00000E+00
    0.50679E-02        -0.99940E-02         0.00000E+00
    0.49439E-02        -0.10235E-01         0.00000E+00
    0.48240E-02        -0.10466E-01         0.00000E+00
    0.47086E-02        -0.10688E-01         0.00000E+00
    0.45980E-02        -0.10902E-01         0.00000E+00
    0.44926E-02        -0.11108E-01         0.00000E+00
    0.43927E-02        -0.11307E-01         0.00000E+00
    0.42984E-02        -0.11500E-01         0.00000E+00
    0.42100E-02        -0.11687E-01         0.00000E+00
    0.41276E-02        -0.11868E-01         0.00000E+00
    0.40513E-02        -0.12045E-01         0.00000E+00
    0.39812E-02        -0.12217E-01         0.00000E+00
    0.39174E-02        -0.12386E-01         0.00000E+00
    0.38599E-02        -0.12550E-01         0.00000E+00
    0.38087E-02        -0.12712E-01         0.00000E+00
    0.37639E-02        -0.12872E-01         0.00000E+00
    0.37255E-02        -0.13029E-01         0.00000E+00
    0.36934E-02        -0.13184E-01         0.00000E+00
    0.36678E-02        -0.13338E-01         0.00000E+00
    0.36484E-02        -0.13490E-01         0.00000E+00
    0.36354E-02        -0.13643E-01         0.00000E+00
    0.36286E-02        -0.13794E-01         0.00000E+00
    0.36281E-02        -0.13946E-01         0.00000E+00
    0.36338E-02        -0.14099E-01         0.00000E+00
    0.36455E-02        -0.14252E-01         0.00000E+00
    0.36634E-02        -0.14407E-01         0.00000E+00
    0.36872E-02        -0.14563E-01         0.00000E+00
    0.37169E-02        -0.14721E-01         0.00000E+00
    0.37524E-02        -0.14882E-01         0.00000E+00
    0.37934E-02        -0.15046E-01         0.00000E+00
    0.38400E-02        -0.15213E-01         0.00000E+00
    0.38919E-02        -0.15384E-01         0.00000E+00
    0.39488E-02        -0.15559E-01         0.00000E+00
    0.40106E-02        -0.15740E-01         0.00000E+00
    0.40770E-02        -0.15925E-01         0.00000E+00
    0.41476E-02        -0.16117E-01         0.00000E+00
    0.42221E-02        -0.16315E-01         0.00000E+00
    0.43000E-02        -0.16520E-01         0.00000E+00
    0.43808E-02        -0.16734E-01         0.00000E+00
    0.44640E-02        -0.16955E-01         0.00000E+00
    0.45488E-02        -0.17187E-01         0.00000E+00
    0.46346E-02        -0.17428E-01         0.00000E+00
    0.47204E-02        -0.17681E-01         0.00000E+00
    0.48052E-02        -0.17946E-01         0.00000E+00
    0.48881E-02        -0.18224E-01         0.00000E+00
    0.49678E-02        -0.18516E-01         0.00000E+00
    0.50429E-02        -0.18823E-01         0.00000E+00
    0.51119E-02        -0.19147E-01         0.00000E+00
    0.51733E-02        -0.19489E-01         0.00000E+00
    0.52252E-02        -0.19849E-01         0.00000E+00
    0.52657E-02        -0.20230E-01         0.00000E+00
    0.52928E-02        -0.20632E-01         0.00000E+00
    0.53043E-02        -0.21057E-01         0.00000E+00
    0.52979E-02        -0.21504E-01         0.00000E+00
    0.52713E-02        -0.21975E-01         0.00000E+00
    0.52220E-02        -0.22469E-01         0.00000E+00
    0.51472E-02        -0.22986E-01         0.00000E+00
    0.50444E-02        -0.23524E-01         0.00000E+00
    0.49105E-02        -0.24080E-01         0.00000E+00
    0.47420E-02        -0.24650E-01         0.00000E+00
    0.45350E-02        -0.25228E-01         0.00000E+00
    0.42839E-02        -0.25804E-01         0.00000E+00
    0.39816E-02        -0.26368E-01         0.00000E+00
    0.36174E-02        -0.26904E-01         0.00000E+00
    0.31756E-02        -0.27396E-01         0.00000E+00
    0.26332E-02        -0.27821E-01         0.00000E+00
    0.19561E-02        -0.28156E-01         0.00000E+00
    0.10977E-02        -0.28374E-01         0.00000E+00
    0.00000E+00        -0.28450E-01         0.00000E+00
    0.00000E+00         0.61669E-02         0.00000E+00
    0.15158E-02         0.60611E-02         0.00000E+00
    0.27118E-02         0.57565E-02         0.00000E+00
    0.36616E-02         0.52850E-02         0.00000E+00
    0.44253E-02         0.46836E-02         0.00000E+00
    0.50479E-02         0.39874E-02         0.00000E+00
    0.55605E-02         0.32267E-02         0.00000E+00
    0.59844E-02         0.24272E-02         0.00000E+00
    0.63343E-02         0.16099E-02         0.00000E+00
    0.66205E-02         0.79136E-03         0.00000E+00
    0.68504E-02        -0.16085E-04         0.00000E+00
    0.70302E-02        -0.80333E-03         0.00000E+00
    0.71646E-02        -0.15641E-02         0.00000E+00
    0.72581E-02        -0.22943E-02         0.00000E+00
    0.73146E-02        -0.29917E-02         0.00000E+00
    0.73381E-02        -0.36552E-02         0.00000E+00
    0.73320E-02        -0.42846E-02         0.00000E+00
    0.72999E-02        -0.48807E-02         0.00000E+00
    0.72450E-02        -0.54445E-02         0.00000E+00
    0.71705E-02        -0.59774E-02         0.00000E+00
    0.70791E-02        -0.64809E-02         0.00000E+00
    0.69738E-02        -0.69569E-02         0.00000E+00
    0.68568E-02        -0.74069E-02         0.00000E+00
    0.67307E-02        -0.78327E-02         0.00000E+00
    0.65974E-02        -0.82359E-02         0.00000E+00
    0.64588E-02        -0.86182E-02         0.00000E+00
    0.63167E-02        -0.89809E-02         0.00000E+00
    0.61725E-02        -0.93256E-02         0.00000E+00
    0.60275E-02        -0.96536E-02         0.00000E+00
    0.58830E-02        -0.99660E-02         0.00000E+00
    0.57400E-02        -0.10264E-01         0.00000E+00
    0.55993E-02        -0.10549E-01         0.00000E+00
    0.54617E-02        -0.10821E-01         0.00000E+00
    0.53280E-02        -0.11082E-01         0.00000E+00
    0.51986E-02        -0.11333E-01         0.00000E+00
    0.50741E-02        -0.11573E-01         0.00000E+00
    0.49548E-02        -0.11805E-01         0.00000E+00
    0.48412E-02        -0.12029E-01         0.00000E+00
    0.47334E-02        -0.12245E-01         0.00000E+00
    0.46317E-02        -0.12454E-01         0.00000E+00
    0.45364E-02        -0.12657E-01         0.00000E+00
    0.44476E-02        -0.12854E-01         0.00000E+00
    0.43653E-02        -0.13045E-01         0.00000E+00
    0.42897E-02        -0.13232E-01         0.00000E+00
    0.42209E-02        -0.13415E-01         0.00000E+00
    0.41589E-02        -0.13594E-01         0.00000E+00
    0.41037E-02        -0.13769E-01         0.00000E+00
    0.40554E-02        -0.13942E-01         0.00000E+00
    0.40140E-02        -0.14113E-01         0.00000E+00
    0.39795E-02        -0.14281E-01         0.00000E+00
    0.39518E-02        -0.14448E-01         0.00000E+00
    0.39309E-02        -0.14614E-01         0.00000E+00
    0.39169E-02        -0.14779E-01         0.00000E+00
    0.39096E-02        -0.14944E-01         0.00000E+00
    0.39091E-02        -0.15109E-01         0.00000E+00
    0.39152E-02        -0.15274E-01         0.00000E+00
    0.39279E-02        -0.15440E-01         0.00000E+00
    0.39472E-02        -0.15608E-01         0.00000E+00
    0.39729E-02        -0.15778E-01         0.00000E+00
    0.40049E-02        -0.15949E-01         0.00000E+00
    0.40432E-02        -0.16124E-01         0.00000E+00
    0.40875E-02        -0.16302E-01         0.00000E+00
    0.41377E-02        -0.16483E-01         0.00000E+00
    0.41937E-02        -0.16669E-01         0.00000E+00
    0.42552E-02        -0.16859E-01         0.00000E+00
    0.43219E-02        -0.17054E-01         0.00000E+00
    0.43935E-02        -0.17255E-01         0.00000E+00
    0.44697E-02        -0.17463E-01         0.00000E+00
    0.45501E-02        -0.17678E-01         0.00000E+00
    0.46342E-02        -0.17900E-01         0.00000E+00
    0.47215E-02        -0.18132E-01         0.00000E+00
    0.48113E-02        -0.18372E-01         0.00000E+00
    0.49029E-02        -0.18623E-01         0.00000E+00
    0.49956E-02        -0.18884E-01         0.00000E+00
    0.50883E-02        -0.19158E-01         0.00000E+00
    0.51801E-02        -0.19445E-01         0.00000E+00
    0.52697E-02        -0.19745E-01         0.00000E+00
    0.53559E-02        -0.20062E-01         0.00000E+00
    0.54372E-02        -0.20394E-01         0.00000E+00
    0.55120E-02        -0.20745E-01         0.00000E+00
    0.55785E-02        -0.21114E-01         0.00000E+00
    0.56347E-02        -0.21504E-01         0.00000E+00
    0.56787E-02        -0.21916E-01         0.00000E+00
    0.57081E-02        -0.22351E-01         0.00000E+00
    0.57207E-02        -0.22809E-01         0.00000E+00
    0.57137E-02        -0.23293E-01         0.00000E+00
    0.56847E-02        -0.23802E-01         0.00000E+00
    0.56309E-02        -0.24336E-01         0.00000E+00
    0.55493E-02        -0.24895E-01         0.00000E+00
    0.54370E-02        -0.25476E-01         0.00000E+00
    0.52904E-02        -0.26077E-01         0.00000E+00
    0.51060E-02        -0.26693E-01         0.00000E+00
    0.48791E-02        -0.27317E-01         0.00000E+00
    0.46041E-02        -0.27940E-01         0.00000E+00
    0.42730E-02        -0.28549E-01         0.00000E+00
    0.38748E-02        -0.29128E-01         0.00000E+00
    0.33933E-02        -0.29657E-01         0.00000E+00
    0.28047E-02        -0.30115E-01         0.00000E+00
    0.20752E-02        -0.30473E-01         0.00000E+00
    0.11589E-02        -0.30705E-01         0.00000E+00
    0.00000E+00        -0.30785E-01         0.00000E+00
    0.00000E+00         0.65953E-02         0.00000E+00
    0.15928E-02         0.64833E-02         0.00000E+00
    0.28623E-02         0.61601E-02         0.00000E+00
    0.38792E-02         0.56576E-02         0.00000E+00
    0.47025E-02         0.50145E-02         0.00000E+00
    0.53767E-02         0.42682E-02         0.00000E+00
    0.59335E-02         0.34518E-02         0.00000E+00
    0.63948E-02         0.25934E-02         0.00000E+00
    0.67759E-02         0.17156E-02         0.00000E+00
    0.70876E-02         0.83632E-03         0.00000E+00
    0.73379E-02        -0.31022E-04         0.00000E+00
    0.75334E-02        -0.87667E-03         0.00000E+00
    0.76795E-02        -0.16939E-02         0.00000E+00
    0.77810E-02        -0.24783E-02         0.00000E+00
    0.78424E-02        -0.32275E-02         0.00000E+00
    0.78679E-02        -0.39402E-02         0.00000E+00
    0.78614E-02        -0.46165E-02         0.00000E+00
    0.78268E-02        -0.52570E-02         0.00000E+00
    0.77676E-02        -0.58629E-02         0.00000E+00
    0.76872E-02        -0.64356E-02         0.00000E+00
    0.75888E-02        -0.69769E-02         0.00000E+00
    0.74754E-02        -0.74886E-02         0.00000E+00
    0.73495E-02        -0.79725E-02         0.00000E+00
    0.72138E-02        -0.84305E-02         0.00000E+00
    0.70705E-02        -0.88643E-02         0.00000E+00
    0.69216E-02        -0.92756E-02         0.00000E+00
    0.67688E-02        -0.96659E-02         0.00000E+00
    0.66139E-02        -0.10037E-01         0.00000E+00
    0.64583E-02        -0.10390E-01         0.00000E+00
    0.63032E-02        -0.10726E-01         0.00000E+00
    0.61496E-02        -0.11047E-01         0.00000E+00
    0.59987E-02        -0.11354E-01         0.00000E+00
    0.58511E-02        -0.11647E-01         0.00000E+00
    0.57076E-02        -0.11929E-01         0.00000E+00
    0.55689E-02        -0.12199E-01         0.00000E+00
    0.54353E-02        -0.12458E-01         0.00000E+00
    0.53074E-02        -0.12708E-01         0.00000E+00
    0.51856E-02        -0.12949E-01         0.00000E+00
    0.50700E-02        -0.13182E-01         0.00000E+00
    0.49611E-02        -0.13407E-01         0.00000E+00
    0.48589E-02        -0.13626E-01         0.00000E+00
    0.47636E-02        -0.13838E-01         0.00000E+00
    0.46755E-02        -0.14045E-01         0.00000E+00
    0.45945E-02        -0.14247E-01         0.00000E+00
    0.45207E-02        -0.14444E-01         0.00000E+00
    0.44543E-02        -0.14637E-01         0.00000E+00
    0.43952E-02        -0.14826E-01         0.00000E+00
    0.43434E-02        -0.15013E-01         0.00000E+00
    0.42990E-02        -0.15196E-01         0.00000E+00
    0.42620E-02        -0.15378E-01         0.00000E+00
    0.42324E-02        -0.15558E-01         0.00000E+00
    0.42100E-02        -0.15737E-01         0.00000E+00
    0.41950E-02        -0.15915E-01         0.00000E+00
    0.41872E-02        -0.16093E-01         0.00000E+00
    0.41867E-02        -0.16271E-01         0.00000E+00
    0.41932E-02        -0.16449E-01         0.00000E+00
    0.42069E-02        -0.16629E-01         0.00000E+00
    0.42275E-02        -0.16810E-01         0.00000E+00
    0.42551E-02        -0.16993E-01         0.00000E+00
    0.42895E-02        -0.17178E-01         0.00000E+00
    0.43305E-02        -0.17366E-01         0.00000E+00
    0.43780E-02        -0.17558E-01         0.00000E+00
    0.44319E-02        -0.17753E-01         0.00000E+00
    0.44919E-02        -0.17953E-01         0.00000E+00
    0.45579E-02        -0.18158E-01         0.00000E+00
    0.46294E-02        -0.18369E-01         0.00000E+00
    0.47063E-02        -0.18586E-01         0.00000E+00
    0.47881E-02        -0.18810E-01         0.00000E+00
    0.48743E-02        -0.19041E-01         0.00000E+00
    0.49646E-02        -0.19281E-01         0.00000E+00
    0.50583E-02        -0.19530E-01         0.00000E+00
    0.51547E-02        -0.19789E-01         0.00000E+00
    0.52532E-02        -0.20059E-01         0.00000E+00
    0.53527E-02        -0.20341E-01         0.00000E+00
    0.54523E-02        -0.20635E-01         0.00000E+00
    0.55510E-02        -0.20944E-01         0.00000E+00
    0.56474E-02        -0.21267E-01         0.00000E+00
    0.57402E-02        -0.21608E-01         0.00000E+00
    0.58277E-02        -0.21965E-01         0.00000E+00
    0.59082E-02        -0.22342E-01         0.00000E+00
    0.59799E-02        -0.22740E-01         0.00000E+00
    0.60406E-02        -0.23159E-01         0.00000E+00
    0.60881E-02        -0.23602E-01         0.00000E+00
    0.61199E-02        -0.24069E-01         0.00000E+00
    0.61335E-02        -0.24562E-01         0.00000E+00
    0.61261E-02        -0.25081E-01         0.00000E+00
    0.60947E-02        -0.25628E-01         0.00000E+00
    0.60365E-02        -0.26202E-01         0.00000E+00
    0.59481E-02        -0.26802E-01         0.00000E+00
    0.58261E-02        -0.27426E-01         0.00000E+00
    0.56669E-02        -0.28072E-01         0.00000E+00
    0.54663E-02        -0.28734E-01         0.00000E+00
    0.52194E-02        -0.29404E-01         0.00000E+00
    0.49200E-02        -0.30073E-01         0.00000E+00
    0.45599E-02        -0.30727E-01         0.00000E+00
    0.41274E-02        -0.31348E-01         0.00000E+00
    0.36061E-02        -0.31916E-01         0.00000E+00
    0.29718E-02        -0.32405E-01         0.00000E+00
    0.21906E-02        -0.32787E-01         0.00000E+00
    0.12179E-02        -0.33033E-01         0.00000E+00
    0.00000E+00        -0.33118E-01         0.00000E+00
    0.00000E+00         0.70207E-02         0.00000E+00
    0.16675E-02         0.69024E-02         0.00000E+00
    0.30085E-02         0.65604E-02         0.00000E+00
    0.40915E-02         0.60267E-02         0.00000E+00
    0.49739E-02         0.53418E-02         0.00000E+00
    0.56998E-02         0.45456E-02         0.00000E+00
    0.63012E-02         0.36737E-02         0.00000E+00
    0.68003E-02         0.27565E-02         0.00000E+00
    0.72128E-02         0.18185E-02         0.00000E+00
    0.75502E-02         0.87874E-03         0.00000E+00
    0.78211E-02        -0.48208E-04         0.00000E+00
    0.80325E-02        -0.95195E-03         0.00000E+00
    0.81903E-02        -0.18253E-02         0.00000E+00
    0.82999E-02        -0.26636E-02         0.00000E+00
    0.83660E-02        -0.34643E-02         0.00000E+00
    0.83934E-02        -0.42261E-02         0.00000E+00
    0.83864E-02        -0.49489E-02         0.00000E+00
    0.83492E-02        -0.56336E-02         0.00000E+00
    0.82856E-02        -0.62814E-02         0.00000E+00
    0.81993E-02        -0.68938E-02         0.00000E+00
    0.80938E-02        -0.74727E-02         0.00000E+00
    0.79722E-02        -0.80200E-02         0.00000E+00
    0.78374E-02        -0.85378E-02         0.00000E+00
    0.76922E-02        -0.90278E-02         0.00000E+00
    0.75388E-02        -0.94920E-02         0.00000E+00
    0.73795E-02        -0.99323E-02         0.00000E+00
    0.72162E-02        -0.10350E-01         0.00000E+00
    0.70507E-02        -0.10748E-01         0.00000E+00
    0.68844E-02        -0.11126E-01         0.00000E+00
    0.67186E-02        -0.11486E-01         0.00000E+00
    0.65547E-02        -0.11830E-01         0.00000E+00
    0.63935E-02        -0.12159E-01         0.00000E+00
    0.62360E-02        -0.12473E-01         0.00000E+00
    0.60828E-02        -0.12775E-01         0.00000E+00
    0.59348E-02        -0.13064E-01         0.00000E+00
    0.57923E-02        -0.13342E-01         0.00000E+00
    0.56558E-02        -0.13610E-01         0.00000E+00
    0.55258E-02        -0.13869E-01         0.00000E+00
    0.54026E-02        -0.14118E-01         0.00000E+00
    0.52864E-02        -0.14360E-01         0.00000E+00
    0.51774E-02        -0.14595E-01         0.00000E+00
    0.50758E-02        -0.14823E-01         0.00000E+00
    0.49818E-02        -0.15044E-01         0.00000E+00
    0.48954E-02        -0.15261E-01         0.00000E+00
    0.48168E-02        -0.15472E-01         0.00000E+00
    0.47460E-02        -0.15679E-01         0.00000E+00
    0.46830E-02        -0.15883E-01         0.00000E+00
    0.46278E-02        -0.16083E-01         0.00000E+00
    0.45805E-02        -0.16280E-01         0.00000E+00
    0.45411E-02        -0.16475E-01         0.00000E+00
    0.45094E-02        -0.16668E-01         0.00000E+00
    0.44857E-02        -0.16860E-01         0.00000E+00
    0.44696E-02        -0.17051E-01         0.00000E+00
    0.44614E-02        -0.17242E-01         0.00000E+00
    0.44608E-02        -0.17433E-01         0.00000E+00
    0.44678E-02        -0.17625E-01         0.00000E+00
    0.44824E-02        -0.17817E-01         0.00000E+00
    0.45044E-02        -0.18012E-01         0.00000E+00
    0.45338E-02        -0.18208E-01         0.00000E+00
    0.45705E-02        -0.18407E-01         0.00000E+00
    0.46143E-02        -0.18609E-01         0.00000E+00
    0.46650E-02        -0.18814E-01         0.00000E+00
    0.47225E-02        -0.19024E-01         0.00000E+00
    0.47866E-02        -0.19239E-01         0.00000E+00
    0.48569E-02        -0.19458E-01         0.00000E+00
    0.49333E-02        -0.19684E-01         0.00000E+00
    0.50153E-02        -0.19917E-01         0.00000E+00
    0.51027E-02        -0.20157E-01         0.00000E+00
    0.51948E-02        -0.20405E-01         0.00000E+00
    0.52912E-02        -0.20662E-01         0.00000E+00
    0.53913E-02        -0.20929E-01         0.00000E+00
    0.54943E-02        -0.21207E-01         0.00000E+00
    0.55995E-02        -0.21496E-01         0.00000E+00
    0.57059E-02        -0.21797E-01         0.00000E+00
    0.58125E-02        -0.22113E-01         0.00000E+00
    0.59180E-02        -0.22443E-01         0.00000E+00
    0.60212E-02        -0.22790E-01         0.00000E+00
    0.61205E-02        -0.23154E-01         0.00000E+00
    0.62143E-02        -0.23537E-01         0.00000E+00
    0.63006E-02        -0.23940E-01         0.00000E+00
    0.63776E-02        -0.24365E-01         0.00000E+00
    0.64428E-02        -0.24814E-01         0.00000E+00
    0.64938E-02        -0.25287E-01         0.00000E+00
    0.65281E-02        -0.25786E-01         0.00000E+00
    0.65429E-02        -0.26313E-01         0.00000E+00
    0.65350E-02        -0.26869E-01         0.00000E+00
    0.65014E-02        -0.27453E-01         0.00000E+00
    0.64388E-02        -0.28066E-01         0.00000E+00
    0.63436E-02        -0.28708E-01         0.00000E+00
    0.62120E-02        -0.29375E-01         0.00000E+00
    0.60400E-02        -0.30065E-01         0.00000E+00
    0.58231E-02        -0.30773E-01         0.00000E+00
    0.55560E-02        -0.31489E-01         0.00000E+00
    0.52321E-02        -0.32204E-01         0.00000E+00
    0.48426E-02        -0.32902E-01         0.00000E+00
    0.43758E-02        -0.33566E-01         0.00000E+00
    0.38145E-02        -0.34172E-01         0.00000E+00
    0.31347E-02        -0.34693E-01         0.00000E+00
    0.23028E-02        -0.35098E-01         0.00000E+00
    0.12752E-02        -0.35359E-01         0.00000E+00
    0.00000E+00        -0.35448E-01         0.00000E+00
    0.00000E+00         0.74434E-02         0.00000E+00
    0.17400E-02         0.73188E-02         0.00000E+00
    0.31510E-02         0.69576E-02         0.00000E+00
    0.42991E-02         0.63926E-02         0.00000E+00
    0.52402E-02         0.56658E-02         0.00000E+00
    0.60179E-02         0.48196E-02         0.00000E+00
    0.66640E-02         0.38924E-02         0.00000E+00
    0.72011E-02         0.29165E-02         0.00000E+00
    0.76455E-02         0.19184E-02         0.00000E+00
    0.80089E-02         0.91857E-03         0.00000E+00
    0.83005E-02        -0.67688E-04         0.00000E+00
    0.85278E-02        -0.10292E-02         0.00000E+00
    0.86973E-02        -0.19584E-02         0.00000E+00
    0.88148E-02        -0.28503E-02         0.00000E+00
    0.88856E-02        -0.37022E-02         0.00000E+00
    0.89149E-02        -0.45127E-02         0.00000E+00
    0.89072E-02        -0.52820E-02         0.00000E+00
    0.88673E-02        -0.60106E-02         0.00000E+00
    0.87992E-02        -0.67001E-02         0.00000E+00
    0.87069E-02        -0.73520E-02         0.00000E+00
    0.85942E-02        -0.79684E-02         0.00000E+00
    0.84643E-02        -0.85512E-02         0.00000E+00
    0.83206E-02        -0.91026E-02         0.00000E+00
    0.81657E-02        -0.96246E-02         0.00000E+00
    0.80023E-02        -0.10119E-01         0.00000E+00
    0.78326E-02        -0.10588E-01         0.00000E+00
    0.76588E-02        -0.11034E-01         0.00000E+00
    0.74826E-02        -0.11458E-01         0.00000E+00
    0.73057E-02        -0.11861E-01         0.00000E+00
    0.71294E-02        -0.12245E-01         0.00000E+00
    0.69551E-02        -0.12612E-01         0.00000E+00
    0.67838E-02        -0.12962E-01         0.00000E+00
    0.66163E-02        -0.13298E-01         0.00000E+00
    0.64536E-02        -0.13620E-01         0.00000E+00
    0.62963E-02        -0.13929E-01         0.00000E+00
    0.61449E-02        -0.14226E-01         0.00000E+00
    0.60000E-02        -0.14512E-01         0.00000E+00
    0.58619E-02        -0.14788E-01         0.00000E+00
    0.57311E-02        -0.15054E-01         0.00000E+00
    0.56077E-02        -0.15313E-01         0.00000E+00
    0.54920E-02        -0.15563E-01         0.00000E+00
    0.53841E-02        -0.15806E-01         0.00000E+00
    0.52843E-02        -0.16043E-01         0.00000E+00
    0.51926E-02        -0.16274E-01         0.00000E+00
    0.51092E-02        -0.16500E-01         0.00000E+00
    0.50340E-02        -0.16721E-01         0.00000E+00
    0.49671E-02        -0.16939E-01         0.00000E+00
    0.49086E-02        -0.17153E-01         0.00000E+00
    0.48584E-02        -0.17363E-01         0.00000E+00
    0.48165E-02        -0.17572E-01         0.00000E+00
    0.47830E-02        -0.17778E-01         0.00000E+00
    0.47577E-02        -0.17983E-01         0.00000E+00
    0.47408E-02        -0.18188E-01         0.00000E+00
    0.47320E-02        -0.18392E-01         0.00000E+00
    0.47314E-02        -0.18596E-01         0.00000E+00
    0.47389E-02        -0.18800E-01         0.00000E+00
    0.47544E-02        -0.19006E-01         0.00000E+00
    0.47778E-02        -0.19213E-01         0.00000E+00
    0.48091E-02        -0.19423E-01         0.00000E+00
    0.48480E-02        -0.19635E-01         0.00000E+00
    0.48945E-02        -0.19851E-01         0.00000E+00
    0.49484E-02        -0.20071E-01         0.00000E+00
    0.50095E-02        -0.20295E-01         0.00000E+00
    0.50776E-02        -0.20524E-01         0.00000E+00
    0.51523E-02        -0.20759E-01         0.00000E+00
    0.52335E-02        -0.21000E-01         0.00000E+00
    0.53207E-02        -0.21248E-01         0.00000E+00
    0.54135E-02        -0.21505E-01         0.00000E+00
    0.55114E-02        -0.21769E-01         0.00000E+00
    0.56140E-02        -0.22044E-01         0.00000E+00
    0.57204E-02        -0.22328E-01         0.00000E+00
    0.58300E-02        -0.22624E-01         0.00000E+00
    0.59419E-02        -0.22933E-01         0.00000E+00
    0.60552E-02        -0.23255E-01         0.00000E+00
    0.61687E-02        -0.23591E-01         0.00000E+00
    0.62811E-02        -0.23943E-01         0.00000E+00
    0.63911E-02        -0.24313E-01         0.00000E+00
    0.64970E-02        -0.24701E-01         0.00000E+00
    0.65971E-02        -0.25109E-01         0.00000E+00
    0.66893E-02        -0.25538E-01         0.00000E+00
    0.67715E-02        -0.25991E-01         0.00000E+00
    0.68413E-02        -0.26468E-01         0.00000E+00
    0.68960E-02        -0.26972E-01         0.00000E+00
    0.69329E-02        -0.27504E-01         0.00000E+00
    0.69489E-02        -0.28065E-01         0.00000E+00
    0.69407E-02        -0.28656E-01         0.00000E+00
    0.69050E-02        -0.29277E-01         0.00000E+00
    0.68381E-02        -0.29930E-01         0.00000E+00
    0.67360E-02        -0.30612E-01         0.00000E+00
    0.65949E-02        -0.31323E-01         0.00000E+00
    0.64101E-02        -0.32057E-01         0.00000E+00
    0.61768E-02        -0.32809E-01         0.00000E+00
    0.58893E-02        -0.33572E-01         0.00000E+00
    0.55406E-02        -0.34332E-01         0.00000E+00
    0.51216E-02        -0.35075E-01         0.00000E+00
    0.46202E-02        -0.35781E-01         0.00000E+00
    0.40190E-02        -0.36425E-01         0.00000E+00
    0.32940E-02        -0.36978E-01         0.00000E+00
    0.24121E-02        -0.37407E-01         0.00000E+00
    0.13309E-02        -0.37682E-01         0.00000E+00
    0.00000E+00        -0.37777E-01         0.00000E+00
    0.00000E+00         0.78641E-02         0.00000E+00
    0.18108E-02         0.77329E-02         0.00000E+00
    0.32903E-02         0.73522E-02         0.00000E+00
    0.45025E-02         0.67555E-02         0.00000E+00
    0.55019E-02         0.59866E-02         0.00000E+00
    0.63314E-02         0.50904E-02         0.00000E+00
    0.70225E-02         0.41078E-02         0.00000E+00
    0.75979E-02         0.30735E-02         0.00000E+00
    0.80743E-02         0.20156E-02         0.00000E+00
    0.84638E-02         0.95578E-03         0.00000E+00
    0.87762E-02        -0.89500E-04         0.00000E+00
    0.90195E-02        -0.11085E-02         0.00000E+00
    0.92006E-02        -0.20932E-02         0.00000E+00
    0.93260E-02        -0.30384E-02         0.00000E+00
    0.94014E-02        -0.39412E-02         0.00000E+00
    0.94323E-02        -0.48003E-02         0.00000E+00
    0.94240E-02        -0.56156E-02         0.00000E+00
    0.93811E-02        -0.63880E-02         0.00000E+00
    0.93084E-02        -0.71190E-02         0.00000E+00
    0.92100E-02        -0.78102E-02         0.00000E+00
    0.90899E-02        -0.84639E-02         0.00000E+00
    0.89518E-02        -0.90821E-02         0.00000E+00
    0.87990E-02        -0.96671E-02         0.00000E+00
    0.86344E-02        -0.10221E-01         0.00000E+00
    0.84609E-02        -0.10746E-01         0.00000E+00
    0.82809E-02        -0.11244E-01         0.00000E+00
    0.80965E-02        -0.11717E-01         0.00000E+00
    0.79097E-02        -0.12167E-01         0.00000E+00
    0.77222E-02        -0.12595E-01         0.00000E+00
    0.75355E-02        -0.13003E-01         0.00000E+00
    0.73508E-02        -0.13393E-01         0.00000E+00
    0.71694E-02        -0.13765E-01         0.00000E+00
    0.69921E-02        -0.14122E-01         0.00000E+00
    0.68199E-02        -0.14464E-01         0.00000E+00
    0.66534E-02        -0.14792E-01         0.00000E+00
    0.64932E-02        -0.15108E-01         0.00000E+00
    0.63399E-02        -0.15412E-01         0.00000E+00
    0.61938E-02        -0.15706E-01         0.00000E+00
    0.60554E-02        -0.15990E-01         0.00000E+00
    0.59249E-02        -0.16264E-01         0.00000E+00
    0.58025E-02        -0.16531E-01         0.00000E+00
    0.56885E-02        -0.16790E-01         0.00000E+00
    0.55829E-02        -0.17042E-01         0.00000E+00
    0.54860E-02        -0.17288E-01         0.00000E+00
    0.53978E-02        -0.17528E-01         0.00000E+00
    0.53183E-02        -0.17763E-01         0.00000E+00
    0.52476E-02        -0.17995E-01         0.00000E+00
    0.51857E-02        -0.18222E-01         0.00000E+00
    0.51326E-02        -0.18446E-01         0.00000E+00
    0.50884E-02        -0.18668E-01         0.00000E+00
    0.50530E-02        -0.18888E-01         0.00000E+00
    0.50263E-02        -0.19106E-01         0.00000E+00
    0.50084E-02        -0.19324E-01         0.00000E+00
    0.49991E-02        -0.19541E-01         0.00000E+00
    0.49985E-02        -0.19758E-01         0.00000E+00
    0.50064E-02        -0.19976E-01         0.00000E+00
    0.50228E-02        -0.20195E-01         0.00000E+00
    0.50476E-02        -0.20415E-01         0.00000E+00
    0.50807E-02        -0.20639E-01         0.00000E+00
    0.51219E-02        -0.20865E-01         0.00000E+00
    0.51712E-02        -0.21094E-01         0.00000E+00
    0.52282E-02        -0.21328E-01         0.00000E+00
    0.52928E-02        -0.21566E-01         0.00000E+00
    0.53649E-02        -0.21810E-01         0.00000E+00
    0.54440E-02        -0.22060E-01         0.00000E+00
    0.55299E-02        -0.22316E-01         0.00000E+00
    0.56223E-02        -0.22580E-01         0.00000E+00
    0.57205E-02        -0.22853E-01         0.00000E+00
    0.58243E-02        -0.23134E-01         0.00000E+00
    0.59329E-02        -0.23426E-01         0.00000E+00
    0.60456E-02        -0.23728E-01         0.00000E+00
    0.61618E-02        -0.24043E-01         0.00000E+00
    0.62805E-02        -0.24370E-01         0.00000E+00
    0.64006E-02        -0.24712E-01         0.00000E+00
    0.65210E-02        -0.25069E-01         0.00000E+00
    0.66403E-02        -0.25443E-01         0.00000E+00
    0.67571E-02        -0.25836E-01         0.00000E+00
    0.68696E-02        -0.26247E-01         0.00000E+00
    0.69760E-02        -0.26680E-01         0.00000E+00
    0.70742E-02        -0.27136E-01         0.00000E+00
    0.71618E-02        -0.27616E-01         0.00000E+00
    0.72362E-02        -0.28123E-01         0.00000E+00
    0.72948E-02        -0.28657E-01         0.00000E+00
    0.73343E-02        -0.29221E-01         0.00000E+00
    0.73517E-02        -0.29815E-01         0.00000E+00
    0.73433E-02        -0.30442E-01         0.00000E+00
    0.73055E-02        -0.31101E-01         0.00000E+00
    0.72344E-02        -0.31793E-01         0.00000E+00
    0.71257E-02        -0.32516E-01         0.00000E+00
    0.69749E-02        -0.33268E-01         0.00000E+00
    0.67774E-02        -0.34047E-01         0.00000E+00
    0.65276E-02        -0.34844E-01         0.00000E+00
    0.62196E-02        -0.35652E-01         0.00000E+00
    0.58460E-02        -0.36458E-01         0.00000E+00
    0.53973E-02        -0.37246E-01         0.00000E+00
    0.48611E-02        -0.37994E-01         0.00000E+00
    0.42201E-02        -0.38676E-01         0.00000E+00
    0.34502E-02        -0.39261E-01         0.00000E+00
    0.25190E-02        -0.39714E-01         0.00000E+00
    0.13851E-02        -0.40004E-01         0.00000E+00
    0.00000E+00        -0.40104E-01         0.00000E+00
    0.00000E+00         0.82830E-02         0.00000E+00
    0.18800E-02         0.81452E-02         0.00000E+00
    0.34267E-02         0.77446E-02         0.00000E+00
    0.47022E-02         0.71158E-02         0.00000E+00
    0.57597E-02         0.63045E-02         0.00000E+00
    0.66409E-02         0.53581E-02         0.00000E+00
    0.73771E-02         0.43201E-02         0.00000E+00
    0.79911E-02         0.32274E-02         0.00000E+00
    0.84996E-02         0.21098E-02         0.00000E+00
    0.89154E-02         0.99035E-03         0.00000E+00
    0.92486E-02        -0.11368E-03         0.00000E+00
    0.95079E-02        -0.11899E-02         0.00000E+00
    0.97006E-02        -0.22298E-02         0.00000E+00
    0.98337E-02        -0.32280E-02         0.00000E+00
    0.99136E-02        -0.41814E-02         0.00000E+00
    0.99460E-02        -0.50888E-02         0.00000E+00
    0.99367E-02        -0.59499E-02         0.00000E+00
    0.98908E-02        -0.67659E-02         0.00000E+00
    0.98133E-02        -0.75381E-02         0.00000E+00
    0.97086E-02        -0.82685E-02         0.00000E+00
    0.95811E-02        -0.89594E-02         0.00000E+00
    0.94346E-02        -0.96128E-02         0.00000E+00
    0.92727E-02        -0.10231E-01         0.00000E+00
    0.90984E-02        -0.10817E-01         0.00000E+00
    0.89148E-02        -0.11372E-01         0.00000E+00
    0.87244E-02        -0.11899E-01         0.00000E+00
    0.85295E-02        -0.12399E-01         0.00000E+00
    0.83321E-02        -0.12875E-01         0.00000E+00
    0.81340E-02        -0.13329E-01         0.00000E+00
    0.79368E-02        -0.13761E-01         0.00000E+00
    0.77419E-02        -0.14173E-01         0.00000E+00
    0.75504E-02        -0.14568E-01         0.00000E+00
    0.73634E-02        -0.14946E-01         0.00000E+00
    0.71817E-02        -0.15308E-01         0.00000E+00
    0.70061E-02        -0.15656E-01         0.00000E+00
    0.68372E-02        -0.15990E-01         0.00000E+00
    0.66755E-02        -0.16313E-01         0.00000E+00
    0.65215E-02        -0.16624E-01         0.00000E+00
    0.63756E-02        -0.16924E-01         0.00000E+00
    0.62380E-02        -0.17216E-01         0.00000E+00
    0.61090E-02        -0.17498E-01         0.00000E+00
    0.59889E-02        -0.17772E-01         0.00000E+00
    0.58777E-02        -0.18040E-01         0.00000E+00
    0.57755E-02        -0.18300E-01         0.00000E+00
    0.56825E-02        -0.18555E-01         0.00000E+00
    0.55988E-02        -0.18805E-01         0.00000E+00
    0.55243E-02        -0.19050E-01         0.00000E+00
    0.54591E-02        -0.19291E-01         0.00000E+00
    0.54033E-02        -0.19529E-01         0.00000E+00
    0.53567E-02        -0.19765E-01         0.00000E+00
    0.53193E-02        -0.19998E-01         0.00000E+00
    0.52913E-02        -0.20229E-01         0.00000E+00
    0.52724E-02        -0.20460E-01         0.00000E+00
    0.52627E-02        -0.20690E-01         0.00000E+00
    0.52620E-02        -0.20920E-01         0.00000E+00
    0.52704E-02        -0.21151E-01         0.00000E+00
    0.52878E-02        -0.21383E-01         0.00000E+00
    0.53139E-02        -0.21618E-01         0.00000E+00
    0.53488E-02        -0.21854E-01         0.00000E+00
    0.53923E-02        -0.22094E-01         0.00000E+00
    0.54442E-02        -0.22337E-01         0.00000E+00
    0.55043E-02        -0.22585E-01         0.00000E+00
    0.55725E-02        -0.22837E-01         0.00000E+00
    0.56485E-02        -0.23096E-01         0.00000E+00
    0.57320E-02        -0.23361E-01         0.00000E+00
    0.58226E-02        -0.23632E-01         0.00000E+00
    0.59200E-02        -0.23912E-01         0.00000E+00
    0.60238E-02        -0.24201E-01         0.00000E+00
    0.61333E-02        -0.24499E-01         0.00000E+00
    0.62479E-02        -0.24808E-01         0.00000E+00
    0.63670E-02        -0.25129E-01         0.00000E+00
    0.64897E-02        -0.25462E-01         0.00000E+00
    0.66151E-02        -0.25808E-01         0.00000E+00
    0.67420E-02        -0.26170E-01         0.00000E+00
    0.68693E-02        -0.26548E-01         0.00000E+00
    0.69956E-02        -0.26944E-01         0.00000E+00
    0.71192E-02        -0.27359E-01         0.00000E+00
    0.72384E-02        -0.27794E-01         0.00000E+00
    0.73512E-02        -0.28252E-01         0.00000E+00
    0.74554E-02        -0.28734E-01         0.00000E+00
    0.75484E-02        -0.29242E-01         0.00000E+00
    0.76276E-02        -0.29777E-01         0.00000E+00
    0.76900E-02        -0.30342E-01         0.00000E+00
    0.77324E-02        -0.30937E-01         0.00000E+00
    0.77513E-02        -0.31565E-01         0.00000E+00
    0.77429E-02        -0.32227E-01         0.00000E+00
    0.77032E-02        -0.32923E-01         0.00000E+00
    0.76279E-02        -0.33654E-01         0.00000E+00
    0.75126E-02        -0.34418E-01         0.00000E+00
    0.73524E-02        -0.35212E-01         0.00000E+00
    0.71421E-02        -0.36034E-01         0.00000E+00
    0.68759E-02        -0.36877E-01         0.00000E+00
    0.65473E-02        -0.37730E-01         0.00000E+00
    0.61486E-02        -0.38582E-01         0.00000E+00
    0.56700E-02        -0.39414E-01         0.00000E+00
    0.50990E-02        -0.40204E-01         0.00000E+00
    0.44180E-02        -0.40924E-01         0.00000E+00
    0.36035E-02        -0.41541E-01         0.00000E+00
    0.26237E-02        -0.42020E-01         0.00000E+00
    0.14382E-02        -0.42324E-01         0.00000E+00
    0.00000E+00        -0.42429E-01         0.00000E+00
    0.00000E+00         0.87007E-02         0.00000E+00
    0.19479E-02         0.85560E-02         0.00000E+00
    0.35606E-02         0.81351E-02         0.00000E+00
    0.48988E-02         0.74736E-02         0.00000E+00
    0.60140E-02         0.66195E-02         0.00000E+00
    0.69470E-02         0.56227E-02         0.00000E+00
    0.77285E-02         0.45293E-02         0.00000E+00
    0.83812E-02         0.33783E-02         0.00000E+00
    0.89220E-02         0.22011E-02         0.00000E+00
    0.93641E-02         0.10222E-02         0.00000E+00
    0.97182E-02        -0.14026E-03         0.00000E+00
    0.99932E-02        -0.12734E-02         0.00000E+00
    0.10197E-01        -0.23682E-02         0.00000E+00
    0.10338E-01        -0.34191E-02         0.00000E+00
    0.10422E-01        -0.44229E-02         0.00000E+00
    0.10456E-01        -0.53782E-02         0.00000E+00
    0.10446E-01        -0.62850E-02         0.00000E+00
    0.10396E-01        -0.71442E-02         0.00000E+00
    0.10314E-01        -0.79575E-02         0.00000E+00
    0.10203E-01        -0.87270E-02         0.00000E+00
    0.10068E-01        -0.94548E-02         0.00000E+00
    0.99129E-02        -0.10143E-01         0.00000E+00
    0.97417E-02        -0.10795E-01         0.00000E+00
    0.95577E-02        -0.11413E-01         0.00000E+00
    0.93639E-02        -0.11998E-01         0.00000E+00
    0.91631E-02        -0.12554E-01         0.00000E+00
    0.89576E-02        -0.13081E-01         0.00000E+00
    0.87496E-02        -0.13583E-01         0.00000E+00
    0.85410E-02        -0.14062E-01         0.00000E+00
    0.83334E-02        -0.14518E-01         0.00000E+00
    0.81283E-02        -0.14953E-01         0.00000E+00
    0.79268E-02        -0.15370E-01         0.00000E+00
    0.77300E-02        -0.15769E-01         0.00000E+00
    0.75389E-02        -0.16151E-01         0.00000E+00
    0.73543E-02        -0.16518E-01         0.00000E+00
    0.71767E-02        -0.16872E-01         0.00000E+00
    0.70068E-02        -0.17212E-01         0.00000E+00
    0.68449E-02        -0.17541E-01         0.00000E+00
    0.66916E-02        -0.17859E-01         0.00000E+00
    0.65470E-02        -0.18166E-01         0.00000E+00
    0.64115E-02        -0.18465E-01         0.00000E+00
    0.62853E-02        -0.18755E-01         0.00000E+00
    0.61684E-02        -0.19037E-01         0.00000E+00
    0.60611E-02        -0.19313E-01         0.00000E+00
    0.59635E-02        -0.19582E-01         0.00000E+00
    0.58755E-02        -0.19846E-01         0.00000E+00
    0.57973E-02        -0.20105E-01         0.00000E+00
    0.57289E-02        -0.20361E-01         0.00000E+00
    0.56702E-02        -0.20612E-01         0.00000E+00
    0.56213E-02        -0.20861E-01         0.00000E+00
    0.55821E-02        -0.21107E-01         0.00000E+00
    0.55526E-02        -0.21352E-01         0.00000E+00
    0.55328E-02        -0.21596E-01         0.00000E+00
    0.55226E-02        -0.21839E-01         0.00000E+00
    0.55220E-02        -0.22083E-01         0.00000E+00
    0.55309E-02        -0.22327E-01         0.00000E+00
    0.55491E-02        -0.22572E-01         0.00000E+00
    0.55766E-02        -0.22820E-01         0.00000E+00
    0.56133E-02        -0.23070E-01         0.00000E+00
    0.56590E-02        -0.23323E-01         0.00000E+00
    0.57136E-02        -0.23580E-01         0.00000E+00
    0.57768E-02        -0.23842E-01         0.00000E+00
    0.58485E-02        -0.24109E-01         0.00000E+00
    0.59284E-02        -0.24382E-01         0.00000E+00
    0.60162E-02        -0.24662E-01         0.00000E+00
    0.61116E-02        -0.24949E-01         0.00000E+00
    0.62140E-02        -0.25245E-01         0.00000E+00
    0.63232E-02        -0.25550E-01         0.00000E+00
    0.64384E-02        -0.25865E-01         0.00000E+00
    0.65590E-02        -0.26191E-01         0.00000E+00
    0.66844E-02        -0.26529E-01         0.00000E+00
    0.68136E-02        -0.26881E-01         0.00000E+00
    0.69457E-02        -0.27247E-01         0.00000E+00
    0.70795E-02        -0.27629E-01         0.00000E+00
    0.72138E-02        -0.28028E-01         0.00000E+00
    0.73470E-02        -0.28445E-01         0.00000E+00
    0.74775E-02        -0.28883E-01         0.00000E+00
    0.76034E-02        -0.29342E-01         0.00000E+00
    0.77226E-02        -0.29824E-01         0.00000E+00
    0.78329E-02        -0.30332E-01         0.00000E+00
    0.79315E-02        -0.30867E-01         0.00000E+00
    0.80155E-02        -0.31431E-01         0.00000E+00
    0.80820E-02        -0.32026E-01         0.00000E+00
    0.81273E-02        -0.32654E-01         0.00000E+00
    0.81478E-02        -0.33315E-01         0.00000E+00
    0.81395E-02        -0.34012E-01         0.00000E+00
    0.80981E-02        -0.34745E-01         0.00000E+00
    0.80189E-02        -0.35514E-01         0.00000E+00
    0.78971E-02        -0.36318E-01         0.00000E+00
    0.77275E-02        -0.37155E-01         0.00000E+00
    0.75045E-02        -0.38020E-01         0.00000E+00
    0.72218E-02        -0.38907E-01         0.00000E+00
    0.68726E-02        -0.39806E-01         0.00000E+00
    0.64487E-02        -0.40703E-01         0.00000E+00
    0.59402E-02        -0.41580E-01         0.00000E+00
    0.53342E-02        -0.42412E-01         0.00000E+00
    0.46134E-02        -0.43170E-01         0.00000E+00
    0.37545E-02        -0.43820E-01         0.00000E+00
    0.27265E-02        -0.44323E-01         0.00000E+00
    0.14903E-02        -0.44643E-01         0.00000E+00
    0.00000E+00        -0.44753E-01         0.00000E+00
    0.00000E+00         0.91176E-02         0.00000E+00
    0.20146E-02         0.89657E-02         0.00000E+00
    0.36926E-02         0.85239E-02         0.00000E+00
    0.50929E-02         0.78293E-02         0.00000E+00
    0.62655E-02         0.69319E-02         0.00000E+00
    0.72502E-02         0.58844E-02         0.00000E+00
    0.80771E-02         0.47354E-02         0.00000E+00
    0.87686E-02         0.35260E-02         0.00000E+00
    0.93418E-02         0.22895E-02         0.00000E+00
    0.98103E-02         0.10514E-02         0.00000E+00
    0.10185E-01        -0.16926E-03         0.00000E+00
    0.10476E-01        -0.13590E-02         0.00000E+00
    0.10691E-01        -0.25084E-02         0.00000E+00
    0.10840E-01        -0.36117E-02         0.00000E+00
    0.10928E-01        -0.46655E-02         0.00000E+00
    0.10962E-01        -0.56685E-02         0.00000E+00
    0.10951E-01        -0.66207E-02         0.00000E+00
    0.10898E-01        -0.75230E-02         0.00000E+00
    0.10811E-01        -0.83772E-02         0.00000E+00
    0.10693E-01        -0.91855E-02         0.00000E+00
    0.10550E-01        -0.99501E-02         0.00000E+00
    0.10387E-01        -0.10674E-01         0.00000E+00
    0.10206E-01        -0.11359E-01         0.00000E+00
    0.10012E-01        -0.12008E-01         0.00000E+00
    0.98082E-02        -0.12623E-01         0.00000E+00
    0.95970E-02        -0.13208E-01         0.00000E+00
    0.93810E-02        -0.13763E-01         0.00000E+00
    0.91624E-02        -0.14291E-01         0.00000E+00
    0.89433E-02        -0.14794E-01         0.00000E+00
    0.87253E-02        -0.15274E-01         0.00000E+00
    0.85099E-02        -0.15732E-01         0.00000E+00
    0.82985E-02        -0.16171E-01         0.00000E+00
    0.80921E-02        -0.16591E-01         0.00000E+00
    0.78917E-02        -0.16994E-01         0.00000E+00
    0.76980E-02        -0.17380E-01         0.00000E+00
    0.75118E-02        -0.17753E-01         0.00000E+00
    0.73337E-02        -0.18111E-01         0.00000E+00
    0.71640E-02        -0.18458E-01         0.00000E+00
    0.70033E-02        -0.18792E-01         0.00000E+00
    0.68519E-02        -0.19117E-01         0.00000E+00
    0.67099E-02        -0.19431E-01         0.00000E+00
    0.65776E-02        -0.19737E-01         0.00000E+00
    0.64552E-02        -0.20034E-01         0.00000E+00
    0.63429E-02        -0.20325E-01         0.00000E+00
    0.62406E-02        -0.20609E-01         0.00000E+00
    0.61484E-02        -0.20887E-01         0.00000E+00
    0.60665E-02        -0.21160E-01         0.00000E+00
    0.59949E-02        -0.21429E-01         0.00000E+00
    0.59334E-02        -0.21695E-01         0.00000E+00
    0.58822E-02        -0.21957E-01         0.00000E+00
    0.58412E-02        -0.22217E-01         0.00000E+00
    0.58104E-02        -0.22475E-01         0.00000E+00
    0.57896E-02        -0.22732E-01         0.00000E+00
    0.57790E-02        -0.22988E-01         0.00000E+00
    0.57784E-02        -0.23245E-01         0.00000E+00
    0.57877E-02        -0.23502E-01         0.00000E+00
    0.58068E-02        -0.23761E-01         0.00000E+00
    0.58357E-02        -0.24022E-01         0.00000E+00
    0.58741E-02        -0.24286E-01         0.00000E+00
    0.59221E-02        -0.24553E-01         0.00000E+00
    0.59793E-02        -0.24824E-01         0.00000E+00
    0.60456E-02        -0.25100E-01         0.00000E+00
    0.61208E-02        -0.25381E-01         0.00000E+00
    0.62046E-02        -0.25669E-01         0.00000E+00
    0.62967E-02        -0.25964E-01         0.00000E+00
    0.63967E-02        -0.26266E-01         0.00000E+00
    0.65042E-02        -0.26578E-01         0.00000E+00
    0.66187E-02        -0.26899E-01         0.00000E+00
    0.67396E-02        -0.27230E-01         0.00000E+00
    0.68663E-02        -0.27574E-01         0.00000E+00
    0.69979E-02        -0.27930E-01         0.00000E+00
    0.71337E-02        -0.28300E-01         0.00000E+00
    0.72725E-02        -0.28686E-01         0.00000E+00
    0.74131E-02        -0.29087E-01         0.00000E+00
    0.75543E-02        -0.29507E-01         0.00000E+00
    0.76944E-02        -0.29946E-01         0.00000E+00
    0.78318E-02        -0.30406E-01         0.00000E+00
    0.79645E-02        -0.30889E-01         0.00000E+00
    0.80903E-02        -0.31397E-01         0.00000E+00
    0.82067E-02        -0.31931E-01         0.00000E+00
    0.83109E-02        -0.32493E-01         0.00000E+00
    0.84000E-02        -0.33085E-01         0.00000E+00
    0.84706E-02        -0.33710E-01         0.00000E+00
    0.85190E-02        -0.34369E-01         0.00000E+00
    0.85414E-02        -0.35064E-01         0.00000E+00
    0.85333E-02        -0.35796E-01         0.00000E+00
    0.84903E-02        -0.36565E-01         0.00000E+00
    0.84074E-02        -0.37373E-01         0.00000E+00
    0.82793E-02        -0.38217E-01         0.00000E+00
    0.81004E-02        -0.39096E-01         0.00000E+00
    0.78648E-02        -0.40004E-01         0.00000E+00
    0.75657E-02        -0.40936E-01         0.00000E+00
    0.71959E-02        -0.41880E-01         0.00000E+00
    0.67468E-02        -0.42822E-01         0.00000E+00
    0.62083E-02        -0.43743E-01         0.00000E+00
    0.55672E-02        -0.44618E-01         0.00000E+00
    0.48065E-02        -0.45415E-01         0.00000E+00
    0.39034E-02        -0.46097E-01         0.00000E+00
    0.28278E-02        -0.46626E-01         0.00000E+00
    0.15415E-02        -0.46962E-01         0.00000E+00
    0.00000E+00        -0.47077E-01         0.00000E+00
    0.00000E+00         0.95340E-02         0.00000E+00
    0.20804E-02         0.93748E-02         0.00000E+00
    0.38229E-02         0.89116E-02         0.00000E+00
    0.52848E-02         0.81831E-02         0.00000E+00
    0.65147E-02         0.72418E-02         0.00000E+00
    0.75511E-02         0.61432E-02         0.00000E+00
    0.84235E-02         0.49384E-02         0.00000E+00
    0.91539E-02         0.36708E-02         0.00000E+00
    0.97595E-02         0.23750E-02         0.00000E+00
    0.10254E-01         0.10779E-02         0.00000E+00
    0.10650E-01        -0.20070E-03         0.00000E+00
    0.10956E-01        -0.14467E-02         0.00000E+00
    0.11183E-01        -0.26505E-02         0.00000E+00
    0.11338E-01        -0.38058E-02         0.00000E+00
    0.11430E-01        -0.49095E-02         0.00000E+00
    0.11466E-01        -0.59599E-02         0.00000E+00
    0.11452E-01        -0.69571E-02         0.00000E+00
    0.11396E-01        -0.79024E-02         0.00000E+00
    0.11303E-01        -0.87973E-02         0.00000E+00
    0.11179E-01        -0.96442E-02         0.00000E+00
    0.11028E-01        -0.10446E-01         0.00000E+00
    0.10856E-01        -0.11204E-01         0.00000E+00
    0.10666E-01        -0.11922E-01         0.00000E+00
    0.10462E-01        -0.12603E-01         0.00000E+00
    0.10248E-01        -0.13248E-01         0.00000E+00
    0.10026E-01        -0.13861E-01         0.00000E+00
    0.97995E-02        -0.14444E-01         0.00000E+00
    0.95703E-02        -0.14998E-01         0.00000E+00
    0.93407E-02        -0.15526E-01         0.00000E+00
    0.91123E-02        -0.16030E-01         0.00000E+00
    0.88868E-02        -0.16511E-01         0.00000E+00
    0.86655E-02        -0.16971E-01         0.00000E+00
    0.84495E-02        -0.17412E-01         0.00000E+00
    0.82398E-02        -0.17835E-01         0.00000E+00
    0.80372E-02        -0.18242E-01         0.00000E+00
    0.78425E-02        -0.18633E-01         0.00000E+00
    0.76562E-02        -0.19010E-01         0.00000E+00
    0.74789E-02        -0.19374E-01         0.00000E+00
    0.73108E-02        -0.19726E-01         0.00000E+00
    0.71525E-02        -0.20066E-01         0.00000E+00
    0.70041E-02        -0.20397E-01         0.00000E+00
    0.68659E-02        -0.20718E-01         0.00000E+00
    0.67380E-02        -0.21031E-01         0.00000E+00
    0.66206E-02        -0.21337E-01         0.00000E+00
    0.65137E-02        -0.21635E-01         0.00000E+00
    0.64175E-02        -0.21928E-01         0.00000E+00
    0.63319E-02        -0.22215E-01         0.00000E+00
    0.62571E-02        -0.22498E-01         0.00000E+00
    0.61929E-02        -0.22777E-01         0.00000E+00
    0.61394E-02        -0.23053E-01         0.00000E+00
    0.60966E-02        -0.23326E-01         0.00000E+00
    0.60644E-02        -0.23597E-01         0.00000E+00
    0.60428E-02        -0.23868E-01         0.00000E+00
    0.60317E-02        -0.24137E-01         0.00000E+00
    0.60311E-02        -0.24407E-01         0.00000E+00
    0.60408E-02        -0.24678E-01         0.00000E+00
    0.60609E-02        -0.24950E-01         0.00000E+00
    0.60911E-02        -0.25224E-01         0.00000E+00
    0.61313E-02        -0.25502E-01         0.00000E+00
    0.61815E-02        -0.25782E-01         0.00000E+00
    0.62413E-02        -0.26067E-01         0.00000E+00
    0.63107E-02        -0.26358E-01         0.00000E+00
    0.63893E-02        -0.26653E-01         0.00000E+00
    0.64770E-02        -0.26956E-01         0.00000E+00
    0.65733E-02        -0.27266E-01         0.00000E+00
    0.66780E-02        -0.27584E-01         0.00000E+00
    0.67905E-02        -0.27911E-01         0.00000E+00
    0.69103E-02        -0.28248E-01         0.00000E+00
    0.70369E-02        -0.28597E-01         0.00000E+00
    0.71696E-02        -0.28957E-01         0.00000E+00
    0.73075E-02        -0.29331E-01         0.00000E+00
    0.74497E-02        -0.29720E-01         0.00000E+00
    0.75952E-02        -0.30125E-01         0.00000E+00
    0.77427E-02        -0.30546E-01         0.00000E+00
    0.78908E-02        -0.30987E-01         0.00000E+00
    0.80380E-02        -0.31448E-01         0.00000E+00
    0.81823E-02        -0.31930E-01         0.00000E+00
    0.83219E-02        -0.32437E-01         0.00000E+00
    0.84542E-02        -0.32969E-01         0.00000E+00
    0.85768E-02        -0.33529E-01         0.00000E+00
    0.86868E-02        -0.34118E-01         0.00000E+00
    0.87811E-02        -0.34739E-01         0.00000E+00
    0.88559E-02        -0.35394E-01         0.00000E+00
    0.89077E-02        -0.36085E-01         0.00000E+00
    0.89320E-02        -0.36812E-01         0.00000E+00
    0.89244E-02        -0.37579E-01         0.00000E+00
    0.88800E-02        -0.38385E-01         0.00000E+00
    0.87936E-02        -0.39230E-01         0.00000E+00
    0.86594E-02        -0.40115E-01         0.00000E+00
    0.84714E-02        -0.41035E-01         0.00000E+00
    0.82233E-02        -0.41986E-01         0.00000E+00
    0.79079E-02        -0.42962E-01         0.00000E+00
    0.75175E-02        -0.43951E-01         0.00000E+00
    0.70433E-02        -0.44938E-01         0.00000E+00
    0.64746E-02        -0.45904E-01         0.00000E+00
    0.57984E-02        -0.46821E-01         0.00000E+00
    0.49979E-02        -0.47657E-01         0.00000E+00
    0.40508E-02        -0.48373E-01         0.00000E+00
    0.29278E-02        -0.48927E-01         0.00000E+00
    0.15920E-02        -0.49279E-01         0.00000E+00
    0.00000E+00        -0.49400E-01         0.00000E+00
    0.00000E+00         0.99502E-02         0.00000E+00
    0.21455E-02         0.97835E-02         0.00000E+00
    0.39519E-02         0.92983E-02         0.00000E+00
    0.54751E-02         0.85352E-02         0.00000E+00
    0.67621E-02         0.75494E-02         0.00000E+00
    0.78504E-02         0.63993E-02         0.00000E+00
    0.87682E-02         0.51385E-02         0.00000E+00
    0.95375E-02         0.38125E-02         0.00000E+00
    0.10176E-01         0.24576E-02         0.00000E+00
    0.10697E-01         0.11017E-02         0.00000E+00
    0.11112E-01        -0.23460E-03         0.00000E+00
    0.11434E-01        -0.15366E-02         0.00000E+00
    0.11672E-01        -0.27944E-02         0.00000E+00
    0.11834E-01        -0.40015E-02         0.00000E+00
    0.11929E-01        -0.51547E-02         0.00000E+00
    0.11965E-01        -0.62522E-02         0.00000E+00
    0.11950E-01        -0.72944E-02         0.00000E+00
    0.11890E-01        -0.82822E-02         0.00000E+00
    0.11792E-01        -0.92177E-02         0.00000E+00
    0.11660E-01        -0.10103E-01         0.00000E+00
    0.11502E-01        -0.10941E-01         0.00000E+00
    0.11320E-01        -0.11734E-01         0.00000E+00
    0.11121E-01        -0.12485E-01         0.00000E+00
    0.10907E-01        -0.13197E-01         0.00000E+00
    0.10683E-01        -0.13873E-01         0.00000E+00
    0.10450E-01        -0.14514E-01         0.00000E+00
    0.10213E-01        -0.15124E-01         0.00000E+00
    0.99734E-02        -0.15704E-01         0.00000E+00
    0.97333E-02        -0.16257E-01         0.00000E+00
    0.94946E-02        -0.16785E-01         0.00000E+00
    0.92590E-02        -0.17289E-01         0.00000E+00
    0.90278E-02        -0.17771E-01         0.00000E+00
    0.88022E-02        -0.18233E-01         0.00000E+00
    0.85833E-02        -0.18677E-01         0.00000E+00
    0.83719E-02        -0.19103E-01         0.00000E+00
    0.81687E-02        -0.19513E-01         0.00000E+00
    0.79743E-02        -0.19908E-01         0.00000E+00
    0.77893E-02        -0.20289E-01         0.00000E+00
    0.76141E-02        -0.20658E-01         0.00000E+00
    0.74490E-02        -0.21016E-01         0.00000E+00
    0.72942E-02        -0.21362E-01         0.00000E+00
    0.71501E-02        -0.21699E-01         0.00000E+00
    0.70168E-02        -0.22028E-01         0.00000E+00
    0.68944E-02        -0.22348E-01         0.00000E+00
    0.67830E-02        -0.22661E-01         0.00000E+00
    0.66827E-02        -0.22968E-01         0.00000E+00
    0.65935E-02        -0.23270E-01         0.00000E+00
    0.65155E-02        -0.23566E-01         0.00000E+00
    0.64486E-02        -0.23859E-01         0.00000E+00
    0.63929E-02        -0.24148E-01         0.00000E+00
    0.63483E-02        -0.24435E-01         0.00000E+00
    0.63148E-02        -0.24720E-01         0.00000E+00
    0.62923E-02        -0.25003E-01         0.00000E+00
    0.62808E-02        -0.25286E-01         0.00000E+00
    0.62802E-02        -0.25570E-01         0.00000E+00
    0.62904E-02        -0.25854E-01         0.00000E+00
    0.63113E-02        -0.26139E-01         0.00000E+00
    0.63428E-02        -0.26427E-01         0.00000E+00
    0.63848E-02        -0.26718E-01         0.00000E+00
    0.64371E-02        -0.27012E-01         0.00000E+00
    0.64996E-02        -0.27311E-01         0.00000E+00
    0.65720E-02        -0.27616E-01         0.00000E+00
    0.66541E-02        -0.27926E-01         0.00000E+00
    0.67456E-02        -0.28243E-01         0.00000E+00
    0.68462E-02        -0.28568E-01         0.00000E+00
    0.69554E-02        -0.28901E-01         0.00000E+00
    0.70729E-02        -0.29244E-01         0.00000E+00
    0.71981E-02        -0.29598E-01         0.00000E+00
    0.73303E-02        -0.29963E-01         0.00000E+00
    0.74690E-02        -0.30341E-01         0.00000E+00
    0.76131E-02        -0.30733E-01         0.00000E+00
    0.77618E-02        -0.31140E-01         0.00000E+00
    0.79140E-02        -0.31564E-01         0.00000E+00
    0.80684E-02        -0.32006E-01         0.00000E+00
    0.82234E-02        -0.32467E-01         0.00000E+00
    0.83776E-02        -0.32949E-01         0.00000E+00
    0.85290E-02        -0.33455E-01         0.00000E+00
    0.86754E-02        -0.33985E-01         0.00000E+00
    0.88144E-02        -0.34542E-01         0.00000E+00
    0.89434E-02        -0.35127E-01         0.00000E+00
    0.90593E-02        -0.35744E-01         0.00000E+00
    0.91587E-02        -0.36393E-01         0.00000E+00
    0.92381E-02        -0.37078E-01         0.00000E+00
    0.92933E-02        -0.37799E-01         0.00000E+00
    0.93198E-02        -0.38560E-01         0.00000E+00
    0.93129E-02        -0.39361E-01         0.00000E+00
    0.92674E-02        -0.40203E-01         0.00000E+00
    0.91776E-02        -0.41087E-01         0.00000E+00
    0.90375E-02        -0.42011E-01         0.00000E+00
    0.88407E-02        -0.42972E-01         0.00000E+00
    0.85803E-02        -0.43967E-01         0.00000E+00
    0.82487E-02        -0.44986E-01         0.00000E+00
    0.78378E-02        -0.46020E-01         0.00000E+00
    0.73384E-02        -0.47053E-01         0.00000E+00
    0.67395E-02        -0.48063E-01         0.00000E+00
    0.60283E-02        -0.49022E-01         0.00000E+00
    0.51879E-02        -0.49898E-01         0.00000E+00
    0.41968E-02        -0.50647E-01         0.00000E+00
    0.30268E-02        -0.51228E-01         0.00000E+00
    0.16420E-02        -0.51597E-01         0.00000E+00
    0.00000E+00        -0.51724E-01         0.00000E+00
    0.00000E+00         0.10367E-01         0.00000E+00
    0.22101E-02         0.10192E-01         0.00000E+00
    0.40799E-02         0.96843E-02         0.00000E+00
    0.56642E-02         0.88858E-02         0.00000E+00
    0.70084E-02         0.78548E-02         0.00000E+00
    0.81484E-02         0.66526E-02         0.00000E+00
    0.91118E-02         0.53356E-02         0.00000E+00
    0.99201E-02         0.39512E-02         0.00000E+00
    0.10590E-01         0.25372E-02         0.00000E+00
    0.11137E-01         0.11227E-02         0.00000E+00
    0.11574E-01        -0.27098E-03         0.00000E+00
    0.11911E-01        -0.16287E-02         0.00000E+00
    0.12159E-01        -0.29402E-02         0.00000E+00
    0.12327E-01        -0.41988E-02         0.00000E+00
    0.12426E-01        -0.54011E-02         0.00000E+00
    0.12462E-01        -0.65456E-02         0.00000E+00
    0.12445E-01        -0.76324E-02         0.00000E+00
    0.12381E-01        -0.86627E-02         0.00000E+00
    0.12276E-01        -0.96384E-02         0.00000E+00
    0.12138E-01        -0.10562E-01         0.00000E+00
    0.11971E-01        -0.11436E-01         0.00000E+00
    0.11780E-01        -0.12264E-01         0.00000E+00
    0.11571E-01        -0.13048E-01         0.00000E+00
    0.11348E-01        -0.13792E-01         0.00000E+00
    0.11113E-01        -0.14497E-01         0.00000E+00
    0.10870E-01        -0.15167E-01         0.00000E+00
    0.10622E-01        -0.15804E-01         0.00000E+00
    0.10372E-01        -0.16410E-01         0.00000E+00
    0.10121E-01        -0.16988E-01         0.00000E+00
    0.98721E-02        -0.17539E-01         0.00000E+00
    0.96263E-02        -0.18066E-01         0.00000E+00
    0.93853E-02        -0.18571E-01         0.00000E+00
    0.91503E-02        -0.19054E-01         0.00000E+00
    0.89222E-02        -0.19518E-01         0.00000E+00
    0.87020E-02        -0.19963E-01         0.00000E+00
    0.84904E-02        -0.20392E-01         0.00000E+00
    0.82880E-02        -0.20805E-01         0.00000E+00
    0.80954E-02        -0.21205E-01         0.00000E+00
    0.79130E-02        -0.21591E-01         0.00000E+00
    0.77412E-02        -0.21965E-01         0.00000E+00
    0.75802E-02        -0.22327E-01         0.00000E+00
    0.74302E-02        -0.22680E-01         0.00000E+00
    0.72915E-02        -0.23024E-01         0.00000E+00
    0.71642E-02        -0.23359E-01         0.00000E+00
    0.70483E-02        -0.23687E-01         0.00000E+00
    0.69440E-02        -0.24008E-01         0.00000E+00
    0.68512E-02        -0.24324E-01         0.00000E+00
    0.67701E-02        -0.24635E-01         0.00000E+00
    0.67005E-02        -0.24941E-01         0.00000E+00
    0.66426E-02        -0.25244E-01         0.00000E+00
    0.65962E-02        -0.25544E-01         0.00000E+00
    0.65614E-02        -0.25842E-01         0.00000E+00
    0.65380E-02        -0.26139E-01         0.00000E+00
    0.65261E-02        -0.26435E-01         0.00000E+00
    0.65255E-02        -0.26732E-01         0.00000E+00
    0.65362E-02        -0.27029E-01         0.00000E+00
    0.65580E-02        -0.27328E-01         0.00000E+00
    0.65908E-02        -0.27630E-01         0.00000E+00
    0.66346E-02        -0.27934E-01         0.00000E+00
    0.66891E-02        -0.28242E-01         0.00000E+00
    0.67542E-02        -0.28555E-01         0.00000E+00
    0.68296E-02        -0.28874E-01         0.00000E+00
    0.69151E-02        -0.29198E-01         0.00000E+00
    0.70104E-02        -0.29530E-01         0.00000E+00
    0.71152E-02        -0.29870E-01         0.00000E+00
    0.72290E-02        -0.30219E-01         0.00000E+00
    0.73514E-02        -0.30578E-01         0.00000E+00
    0.74819E-02        -0.30948E-01         0.00000E+00
    0.76198E-02        -0.31330E-01         0.00000E+00
    0.77643E-02        -0.31725E-01         0.00000E+00
    0.79147E-02        -0.32135E-01         0.00000E+00
    0.80699E-02        -0.32561E-01         0.00000E+00
    0.82288E-02        -0.33004E-01         0.00000E+00
    0.83900E-02        -0.33465E-01         0.00000E+00
    0.85521E-02        -0.33947E-01         0.00000E+00
    0.87133E-02        -0.34451E-01         0.00000E+00
    0.88717E-02        -0.34979E-01         0.00000E+00
    0.90251E-02        -0.35533E-01         0.00000E+00
    0.91708E-02        -0.36114E-01         0.00000E+00
    0.93063E-02        -0.36725E-01         0.00000E+00
    0.94282E-02        -0.37369E-01         0.00000E+00
    0.95331E-02        -0.38047E-01         0.00000E+00
    0.96171E-02        -0.38761E-01         0.00000E+00
    0.96759E-02        -0.39514E-01         0.00000E+00
    0.97049E-02        -0.40307E-01         0.00000E+00
    0.96990E-02        -0.41142E-01         0.00000E+00
    0.96525E-02        -0.42021E-01         0.00000E+00
    0.95597E-02        -0.42942E-01         0.00000E+00
    0.94139E-02        -0.43905E-01         0.00000E+00
    0.92085E-02        -0.44908E-01         0.00000E+00
    0.89360E-02        -0.45945E-01         0.00000E+00
    0.85884E-02        -0.47008E-01         0.00000E+00
    0.81572E-02        -0.48087E-01         0.00000E+00
    0.76326E-02        -0.49165E-01         0.00000E+00
    0.70036E-02        -0.50219E-01         0.00000E+00
    0.62572E-02        -0.51221E-01         0.00000E+00
    0.53770E-02        -0.52136E-01         0.00000E+00
    0.43420E-02        -0.52921E-01         0.00000E+00
    0.31251E-02        -0.53528E-01         0.00000E+00
    0.16916E-02        -0.53914E-01         0.00000E+00
    0.00000E+00        -0.54047E-01         0.00000E+00
    0.00000E+00         0.10784E-01         0.00000E+00
    0.22744E-02         0.10601E-01         0.00000E+00
    0.42075E-02         0.10070E-01         0.00000E+00
    0.58527E-02         0.92351E-02         0.00000E+00
    0.72540E-02         0.81580E-02         0.00000E+00
    0.84459E-02         0.69033E-02         0.00000E+00
    0.94549E-02         0.55297E-02         0.00000E+00
    0.10302E-01         0.40869E-02         0.00000E+00
    0.11005E-01         0.26140E-02         0.00000E+00
    0.11577E-01         0.11410E-02         0.00000E+00
    0.12034E-01        -0.30984E-03         0.00000E+00
    0.12385E-01        -0.17230E-02         0.00000E+00
    0.12643E-01        -0.30878E-02         0.00000E+00
    0.12818E-01        -0.43977E-02         0.00000E+00
    0.12920E-01        -0.56489E-02         0.00000E+00
    0.12956E-01        -0.68400E-02         0.00000E+00
    0.12936E-01        -0.79712E-02         0.00000E+00
    0.12867E-01        -0.90437E-02         0.00000E+00
    0.12757E-01        -0.10060E-01         0.00000E+00
    0.12611E-01        -0.11021E-01         0.00000E+00
    0.12436E-01        -0.11932E-01         0.00000E+00
    0.12236E-01        -0.12794E-01         0.00000E+00
    0.12017E-01        -0.13611E-01         0.00000E+00
    0.11783E-01        -0.14386E-01         0.00000E+00
    0.11538E-01        -0.15121E-01         0.00000E+00
    0.11284E-01        -0.15819E-01         0.00000E+00
    0.11026E-01        -0.16483E-01         0.00000E+00
    0.10765E-01        -0.17115E-01         0.00000E+00
    0.10504E-01        -0.17718E-01         0.00000E+00
    0.10245E-01        -0.18294E-01         0.00000E+00
    0.99889E-02        -0.18843E-01         0.00000E+00
    0.97381E-02        -0.19370E-01         0.00000E+00
    0.94936E-02        -0.19874E-01         0.00000E+00
    0.92564E-02        -0.20358E-01         0.00000E+00
    0.90275E-02        -0.20823E-01         0.00000E+00
    0.88075E-02        -0.21271E-01         0.00000E+00
    0.85972E-02        -0.21703E-01         0.00000E+00
    0.83971E-02        -0.22119E-01         0.00000E+00
    0.82076E-02        -0.22522E-01         0.00000E+00
    0.80291E-02        -0.22913E-01         0.00000E+00
    0.78619E-02        -0.23292E-01         0.00000E+00
    0.77061E-02        -0.23661E-01         0.00000E+00
    0.75621E-02        -0.24020E-01         0.00000E+00
    0.74299E-02        -0.24370E-01         0.00000E+00
    0.73096E-02        -0.24713E-01         0.00000E+00
    0.72013E-02        -0.25048E-01         0.00000E+00
    0.71050E-02        -0.25378E-01         0.00000E+00
    0.70208E-02        -0.25703E-01         0.00000E+00
    0.69486E-02        -0.26023E-01         0.00000E+00
    0.68885E-02        -0.26339E-01         0.00000E+00
    0.68404E-02        -0.26653E-01         0.00000E+00
    0.68043E-02        -0.26965E-01         0.00000E+00
    0.67801E-02        -0.27275E-01         0.00000E+00
    0.67677E-02        -0.27585E-01         0.00000E+00
    0.67671E-02        -0.27894E-01         0.00000E+00
    0.67783E-02        -0.28205E-01         0.00000E+00
    0.68010E-02        -0.28517E-01         0.00000E+00
    0.68351E-02        -0.28832E-01         0.00000E+00
    0.68806E-02        -0.29150E-01         0.00000E+00
    0.69373E-02        -0.29473E-01         0.00000E+00
    0.70049E-02        -0.29799E-01         0.00000E+00
    0.70833E-02        -0.30132E-01         0.00000E+00
    0.71722E-02        -0.30471E-01         0.00000E+00
    0.72713E-02        -0.30818E-01         0.00000E+00
    0.73803E-02        -0.31173E-01         0.00000E+00
    0.74987E-02        -0.31537E-01         0.00000E+00
    0.76260E-02        -0.31912E-01         0.00000E+00
    0.77618E-02        -0.32298E-01         0.00000E+00
    0.79053E-02        -0.32697E-01         0.00000E+00
    0.80557E-02        -0.33110E-01         0.00000E+00
    0.82123E-02        -0.33538E-01         0.00000E+00
    0.83740E-02        -0.33982E-01         0.00000E+00
    0.85396E-02        -0.34444E-01         0.00000E+00
    0.87077E-02        -0.34925E-01         0.00000E+00
    0.88768E-02        -0.35428E-01         0.00000E+00
    0.90451E-02        -0.35954E-01         0.00000E+00
    0.92106E-02        -0.36504E-01         0.00000E+00
    0.93709E-02        -0.37081E-01         0.00000E+00
    0.95236E-02        -0.37687E-01         0.00000E+00
    0.96656E-02        -0.38324E-01         0.00000E+00
    0.97937E-02        -0.38994E-01         0.00000E+00
    0.99042E-02        -0.39700E-01         0.00000E+00
    0.99930E-02        -0.40444E-01         0.00000E+00
    0.10056E-01        -0.41227E-01         0.00000E+00
    0.10087E-01        -0.42053E-01         0.00000E+00
    0.10083E-01        -0.42923E-01         0.00000E+00
    0.10036E-01        -0.43837E-01         0.00000E+00
    0.99399E-02        -0.44796E-01         0.00000E+00
    0.97888E-02        -0.45798E-01         0.00000E+00
    0.95751E-02        -0.46842E-01         0.00000E+00
    0.92907E-02        -0.47921E-01         0.00000E+00
    0.89274E-02        -0.49028E-01         0.00000E+00
    0.84759E-02        -0.50152E-01         0.00000E+00
    0.79263E-02        -0.51274E-01         0.00000E+00
    0.72673E-02        -0.52373E-01         0.00000E+00
    0.64857E-02        -0.53419E-01         0.00000E+00
    0.55655E-02        -0.54373E-01         0.00000E+00
    0.44867E-02        -0.55193E-01         0.00000E+00
    0.32229E-02        -0.55828E-01         0.00000E+00
    0.17409E-02        -0.56232E-01         0.00000E+00
    0.00000E+00        -0.56371E-01         0.00000E+00
    0.00000E+00         0.11202E-01         0.00000E+00
    0.23385E-02         0.11011E-01         0.00000E+00
    0.43348E-02         0.10455E-01         0.00000E+00
    0.60410E-02         0.95833E-02         0.00000E+00
    0.74996E-02         0.84594E-02         0.00000E+00
    0.87434E-02         0.71514E-02         0.00000E+00
    0.97981E-02         0.57210E-02         0.00000E+00
    0.10684E-01         0.42196E-02         0.00000E+00
    0.11419E-01         0.26878E-02         0.00000E+00
    0.12017E-01         0.11566E-02         0.00000E+00
    0.12493E-01        -0.35118E-03         0.00000E+00
    0.12859E-01        -0.18195E-02         0.00000E+00
    0.13127E-01        -0.32374E-02         0.00000E+00
    0.13307E-01        -0.45982E-02         0.00000E+00
    0.13411E-01        -0.58980E-02         0.00000E+00
    0.13447E-01        -0.71355E-02         0.00000E+00
    0.13424E-01        -0.83108E-02         0.00000E+00
    0.13351E-01        -0.94252E-02         0.00000E+00
    0.13234E-01        -0.10481E-01         0.00000E+00
    0.13080E-01        -0.11481E-01         0.00000E+00
    0.12896E-01        -0.12427E-01         0.00000E+00
    0.12687E-01        -0.13324E-01         0.00000E+00
    0.12459E-01        -0.14174E-01         0.00000E+00
    0.12214E-01        -0.14979E-01         0.00000E+00
    0.11958E-01        -0.15744E-01         0.00000E+00
    0.11694E-01        -0.16471E-01         0.00000E+00
    0.11425E-01        -0.17162E-01         0.00000E+00
    0.11154E-01        -0.17820E-01         0.00000E+00
    0.10882E-01        -0.18448E-01         0.00000E+00
    0.10612E-01        -0.19047E-01         0.00000E+00
    0.10347E-01        -0.19620E-01         0.00000E+00
    0.10086E-01        -0.20168E-01         0.00000E+00
    0.98322E-02        -0.20693E-01         0.00000E+00
    0.95860E-02        -0.21198E-01         0.00000E+00
    0.93483E-02        -0.21682E-01         0.00000E+00
    0.91201E-02        -0.22149E-01         0.00000E+00
    0.89019E-02        -0.22599E-01         0.00000E+00
    0.86943E-02        -0.23034E-01         0.00000E+00
    0.84978E-02        -0.23454E-01         0.00000E+00
    0.83127E-02        -0.23861E-01         0.00000E+00
    0.81393E-02        -0.24256E-01         0.00000E+00
    0.79779E-02        -0.24641E-01         0.00000E+00
    0.78286E-02        -0.25015E-01         0.00000E+00
    0.76915E-02        -0.25380E-01         0.00000E+00
    0.75669E-02        -0.25738E-01         0.00000E+00
    0.74546E-02        -0.26088E-01         0.00000E+00
    0.73549E-02        -0.26432E-01         0.00000E+00
    0.72676E-02        -0.26771E-01         0.00000E+00
    0.71929E-02        -0.27104E-01         0.00000E+00
    0.71306E-02        -0.27435E-01         0.00000E+00
    0.70808E-02        -0.27762E-01         0.00000E+00
    0.70434E-02        -0.28087E-01         0.00000E+00
    0.70183E-02        -0.28411E-01         0.00000E+00
    0.70056E-02        -0.28734E-01         0.00000E+00
    0.70050E-02        -0.29057E-01         0.00000E+00
    0.70166E-02        -0.29381E-01         0.00000E+00
    0.70402E-02        -0.29707E-01         0.00000E+00
    0.70756E-02        -0.30035E-01         0.00000E+00
    0.71229E-02        -0.30367E-01         0.00000E+00
    0.71817E-02        -0.30703E-01         0.00000E+00
    0.72519E-02        -0.31044E-01         0.00000E+00
    0.73332E-02        -0.31391E-01         0.00000E+00
    0.74255E-02        -0.31744E-01         0.00000E+00
    0.75284E-02        -0.32106E-01         0.00000E+00
    0.76415E-02        -0.32476E-01         0.00000E+00
    0.77644E-02        -0.32856E-01         0.00000E+00
    0.78966E-02        -0.33246E-01         0.00000E+00
    0.80376E-02        -0.33649E-01         0.00000E+00
    0.81867E-02        -0.34065E-01         0.00000E+00
    0.83431E-02        -0.34495E-01         0.00000E+00
    0.85059E-02        -0.34940E-01         0.00000E+00
    0.86740E-02        -0.35403E-01         0.00000E+00
    0.88463E-02        -0.35884E-01         0.00000E+00
    0.90213E-02        -0.36386E-01         0.00000E+00
    0.91975E-02        -0.36909E-01         0.00000E+00
    0.93729E-02        -0.37456E-01         0.00000E+00
    0.95456E-02        -0.38029E-01         0.00000E+00
    0.97130E-02        -0.38629E-01         0.00000E+00
    0.98726E-02        -0.39260E-01         0.00000E+00
    0.10021E-01        -0.39922E-01         0.00000E+00
    0.10156E-01        -0.40619E-01         0.00000E+00
    0.10272E-01        -0.41353E-01         0.00000E+00
    0.10366E-01        -0.42126E-01         0.00000E+00
    0.10433E-01        -0.42941E-01         0.00000E+00
    0.10467E-01        -0.43799E-01         0.00000E+00
    0.10464E-01        -0.44703E-01         0.00000E+00
    0.10417E-01        -0.45652E-01         0.00000E+00
    0.10319E-01        -0.46649E-01         0.00000E+00
    0.10162E-01        -0.47690E-01         0.00000E+00
    0.99406E-02        -0.48774E-01         0.00000E+00
    0.96447E-02        -0.49896E-01         0.00000E+00
    0.92659E-02        -0.51046E-01         0.00000E+00
    0.87944E-02        -0.52214E-01         0.00000E+00
    0.82199E-02        -0.53381E-01         0.00000E+00
    0.75309E-02        -0.54525E-01         0.00000E+00
    0.67141E-02        -0.55614E-01         0.00000E+00
    0.57540E-02        -0.56609E-01         0.00000E+00
    0.46312E-02        -0.57464E-01         0.00000E+00
    0.33206E-02        -0.58127E-01         0.00000E+00
    0.17900E-02        -0.58550E-01         0.00000E+00
    0.00000E+00        -0.58695E-01         0.00000E+00
    0.00000E+00         0.11622E-01         0.00000E+00
    0.24026E-02         0.11422E-01         0.00000E+00
    0.44622E-02         0.10841E-01         0.00000E+00
    0.62297E-02         0.99306E-02         0.00000E+00
    0.77457E-02         0.87589E-02         0.00000E+00
    0.90416E-02         0.73971E-02         0.00000E+00
    0.10142E-01         0.59095E-02         0.00000E+00
    0.11066E-01         0.43493E-02         0.00000E+00
    0.11833E-01         0.27587E-02         0.00000E+00
    0.12456E-01         0.11695E-02         0.00000E+00
    0.12952E-01        -0.39500E-03         0.00000E+00
    0.13332E-01        -0.19182E-02         0.00000E+00
    0.13609E-01        -0.33889E-02         0.00000E+00
    0.13795E-01        -0.48003E-02         0.00000E+00
    0.13900E-01        -0.61485E-02         0.00000E+00
    0.13935E-01        -0.74320E-02         0.00000E+00
    0.13909E-01        -0.86512E-02         0.00000E+00
    0.13831E-01        -0.98074E-02         0.00000E+00
    0.13707E-01        -0.10903E-01         0.00000E+00
    0.13546E-01        -0.11940E-01         0.00000E+00
    0.13353E-01        -0.12923E-01         0.00000E+00
    0.13134E-01        -0.13854E-01         0.00000E+00
    0.12895E-01        -0.14736E-01         0.00000E+00
    0.12641E-01        -0.15573E-01         0.00000E+00
    0.12374E-01        -0.16367E-01         0.00000E+00
    0.12099E-01        -0.17122E-01         0.00000E+00
    0.11819E-01        -0.17841E-01         0.00000E+00
    0.11537E-01        -0.18525E-01         0.00000E+00
    0.11255E-01        -0.19177E-01         0.00000E+00
    0.10975E-01        -0.19800E-01         0.00000E+00
    0.10700E-01        -0.20396E-01         0.00000E+00
    0.10429E-01        -0.20966E-01         0.00000E+00
    0.10166E-01        -0.21512E-01         0.00000E+00
    0.99108E-02        -0.22037E-01         0.00000E+00
    0.96645E-02        -0.22541E-01         0.00000E+00
    0.94281E-02        -0.23027E-01         0.00000E+00
    0.92021E-02        -0.23495E-01         0.00000E+00
    0.89871E-02        -0.23947E-01         0.00000E+00
    0.87836E-02        -0.24385E-01         0.00000E+00
    0.85920E-02        -0.24809E-01         0.00000E+00
    0.84125E-02        -0.25220E-01         0.00000E+00
    0.82454E-02        -0.25620E-01         0.00000E+00
    0.80909E-02        -0.26010E-01         0.00000E+00
    0.79491E-02        -0.26390E-01         0.00000E+00
    0.78201E-02        -0.26763E-01         0.00000E+00
    0.77040E-02        -0.27127E-01         0.00000E+00
    0.76008E-02        -0.27486E-01         0.00000E+00
    0.75105E-02        -0.27838E-01         0.00000E+00
    0.74332E-02        -0.28186E-01         0.00000E+00
    0.73688E-02        -0.28530E-01         0.00000E+00
    0.73173E-02        -0.28871E-01         0.00000E+00
    0.72786E-02        -0.29209E-01         0.00000E+00
    0.72528E-02        -0.29546E-01         0.00000E+00
    0.72396E-02        -0.29883E-01         0.00000E+00
    0.72391E-02        -0.30219E-01         0.00000E+00
    0.72511E-02        -0.30557E-01         0.00000E+00
    0.72756E-02        -0.30896E-01         0.00000E+00
    0.73124E-02        -0.31238E-01         0.00000E+00
    0.73613E-02        -0.31583E-01         0.00000E+00
    0.74222E-02        -0.31933E-01         0.00000E+00
    0.74950E-02        -0.32288E-01         0.00000E+00
    0.75793E-02        -0.32649E-01         0.00000E+00
    0.76749E-02        -0.33018E-01         0.00000E+00
    0.77815E-02        -0.33394E-01         0.00000E+00
    0.78987E-02        -0.33779E-01         0.00000E+00
    0.80262E-02        -0.34175E-01         0.00000E+00
    0.81633E-02        -0.34581E-01         0.00000E+00
    0.83095E-02        -0.35000E-01         0.00000E+00
    0.84642E-02        -0.35432E-01         0.00000E+00
    0.86265E-02        -0.35880E-01         0.00000E+00
    0.87954E-02        -0.36343E-01         0.00000E+00
    0.89700E-02        -0.36824E-01         0.00000E+00
    0.91490E-02        -0.37325E-01         0.00000E+00
    0.93309E-02        -0.37846E-01         0.00000E+00
    0.95141E-02        -0.38390E-01         0.00000E+00
    0.96968E-02        -0.38959E-01         0.00000E+00
    0.98766E-02        -0.39554E-01         0.00000E+00
    0.10051E-01        -0.40178E-01         0.00000E+00
    0.10218E-01        -0.40832E-01         0.00000E+00
    0.10374E-01        -0.41520E-01         0.00000E+00
    0.10514E-01        -0.42244E-01         0.00000E+00
    0.10637E-01        -0.43006E-01         0.00000E+00
    0.10736E-01        -0.43808E-01         0.00000E+00
    0.10807E-01        -0.44654E-01         0.00000E+00
    0.10845E-01        -0.45544E-01         0.00000E+00
    0.10843E-01        -0.46481E-01         0.00000E+00
    0.10796E-01        -0.47467E-01         0.00000E+00
    0.10696E-01        -0.48500E-01         0.00000E+00
    0.10535E-01        -0.49580E-01         0.00000E+00
    0.10305E-01        -0.50705E-01         0.00000E+00
    0.99983E-02        -0.51868E-01         0.00000E+00
    0.96042E-02        -0.53062E-01         0.00000E+00
    0.91130E-02        -0.54274E-01         0.00000E+00
    0.85139E-02        -0.55486E-01         0.00000E+00
    0.77949E-02        -0.56674E-01         0.00000E+00
    0.69430E-02        -0.57807E-01         0.00000E+00
    0.59429E-02        -0.58843E-01         0.00000E+00
    0.47759E-02        -0.59735E-01         0.00000E+00
    0.34183E-02        -0.60427E-01         0.00000E+00
    0.18392E-02        -0.60869E-01         0.00000E+00
    0.00000E+00        -0.61021E-01         0.00000E+00
    0.00000E+00         0.12043E-01         0.00000E+00
    0.24670E-02         0.11834E-01         0.00000E+00
    0.45902E-02         0.11227E-01         0.00000E+00
    0.64192E-02         0.10277E-01         0.00000E+00
    0.79929E-02         0.90566E-02         0.00000E+00
    0.93410E-02         0.76403E-02         0.00000E+00
    0.10487E-01         0.60951E-02         0.00000E+00
    0.11450E-01         0.44761E-02         0.00000E+00
    0.12248E-01         0.28267E-02         0.00000E+00
    0.12896E-01         0.11796E-02         0.00000E+00
    0.13410E-01        -0.44129E-03         0.00000E+00
    0.13804E-01        -0.20190E-02         0.00000E+00
    0.14090E-01        -0.35423E-02         0.00000E+00
    0.14281E-01        -0.50039E-02         0.00000E+00
    0.14387E-01        -0.64002E-02         0.00000E+00
    0.14421E-01        -0.77296E-02         0.00000E+00
    0.14392E-01        -0.89924E-02         0.00000E+00
    0.14307E-01        -0.10190E-01         0.00000E+00
    0.14177E-01        -0.11325E-01         0.00000E+00
    0.14007E-01        -0.12400E-01         0.00000E+00
    0.13805E-01        -0.13419E-01         0.00000E+00
    0.13577E-01        -0.14384E-01         0.00000E+00
    0.13328E-01        -0.15298E-01         0.00000E+00
    0.13062E-01        -0.16166E-01         0.00000E+00
    0.12785E-01        -0.16990E-01         0.00000E+00
    0.12499E-01        -0.17774E-01         0.00000E+00
    0.12209E-01        -0.18519E-01         0.00000E+00
    0.11916E-01        -0.19229E-01         0.00000E+00
    0.11623E-01        -0.19906E-01         0.00000E+00
    0.11333E-01        -0.20553E-01         0.00000E+00
    0.11048E-01        -0.21171E-01         0.00000E+00
    0.10768E-01        -0.21763E-01         0.00000E+00
    0.10495E-01        -0.22331E-01         0.00000E+00
    0.10231E-01        -0.22876E-01         0.00000E+00
    0.99760E-02        -0.23400E-01         0.00000E+00
    0.97314E-02        -0.23904E-01         0.00000E+00
    0.94977E-02        -0.24391E-01         0.00000E+00
    0.92754E-02        -0.24861E-01         0.00000E+00
    0.90650E-02        -0.25315E-01         0.00000E+00
    0.88669E-02        -0.25756E-01         0.00000E+00
    0.86814E-02        -0.26184E-01         0.00000E+00
    0.85087E-02        -0.26600E-01         0.00000E+00
    0.83490E-02        -0.27005E-01         0.00000E+00
    0.82025E-02        -0.27400E-01         0.00000E+00
    0.80692E-02        -0.27787E-01         0.00000E+00
    0.79493E-02        -0.28166E-01         0.00000E+00
    0.78427E-02        -0.28539E-01         0.00000E+00
    0.77495E-02        -0.28906E-01         0.00000E+00
    0.76696E-02        -0.29267E-01         0.00000E+00
    0.76032E-02        -0.29625E-01         0.00000E+00
    0.75500E-02        -0.29979E-01         0.00000E+00
    0.75101E-02        -0.30331E-01         0.00000E+00
    0.74834E-02        -0.30682E-01         0.00000E+00
    0.74699E-02        -0.31032E-01         0.00000E+00
    0.74694E-02        -0.31382E-01         0.00000E+00
    0.74819E-02        -0.31733E-01         0.00000E+00
    0.75072E-02        -0.32085E-01         0.00000E+00
    0.75453E-02        -0.32441E-01         0.00000E+00
    0.75959E-02        -0.32800E-01         0.00000E+00
    0.76590E-02        -0.33164E-01         0.00000E+00
    0.77342E-02        -0.33533E-01         0.00000E+00
    0.78215E-02        -0.33908E-01         0.00000E+00
    0.79204E-02        -0.34291E-01         0.00000E+00
    0.80307E-02        -0.34682E-01         0.00000E+00
    0.81520E-02        -0.35083E-01         0.00000E+00
    0.82840E-02        -0.35493E-01         0.00000E+00
    0.84259E-02        -0.35916E-01         0.00000E+00
    0.85774E-02        -0.36351E-01         0.00000E+00
    0.87376E-02        -0.36800E-01         0.00000E+00
    0.89057E-02        -0.37265E-01         0.00000E+00
    0.90809E-02        -0.37746E-01         0.00000E+00
    0.92620E-02        -0.38246E-01         0.00000E+00
    0.94476E-02        -0.38766E-01         0.00000E+00
    0.96365E-02        -0.39307E-01         0.00000E+00
    0.98268E-02        -0.39872E-01         0.00000E+00
    0.10017E-01        -0.40462E-01         0.00000E+00
    0.10204E-01        -0.41079E-01         0.00000E+00
    0.10386E-01        -0.41726E-01         0.00000E+00
    0.10560E-01        -0.42405E-01         0.00000E+00
    0.10722E-01        -0.43118E-01         0.00000E+00
    0.10870E-01        -0.43869E-01         0.00000E+00
    0.10998E-01        -0.44658E-01         0.00000E+00
    0.11103E-01        -0.45490E-01         0.00000E+00
    0.11178E-01        -0.46366E-01         0.00000E+00
    0.11220E-01        -0.47288E-01         0.00000E+00
    0.11220E-01        -0.48259E-01         0.00000E+00
    0.11173E-01        -0.49280E-01         0.00000E+00
    0.11071E-01        -0.50350E-01         0.00000E+00
    0.10906E-01        -0.51469E-01         0.00000E+00
    0.10670E-01        -0.52634E-01         0.00000E+00
    0.10352E-01        -0.53839E-01         0.00000E+00
    0.99428E-02        -0.55076E-01         0.00000E+00
    0.94322E-02        -0.56332E-01         0.00000E+00
    0.88086E-02        -0.57589E-01         0.00000E+00
    0.80599E-02        -0.58822E-01         0.00000E+00
    0.71728E-02        -0.59998E-01         0.00000E+00
    0.61325E-02        -0.61076E-01         0.00000E+00
    0.49213E-02        -0.62005E-01         0.00000E+00
    0.35165E-02        -0.62727E-01         0.00000E+00
    0.18886E-02        -0.63189E-01         0.00000E+00
    0.00000E+00        -0.63348E-01         0.00000E+00
    0.00000E+00         0.12467E-01         0.00000E+00
    0.25318E-02         0.12248E-01         0.00000E+00
    0.47191E-02         0.11614E-01         0.00000E+00
    0.66101E-02         0.10623E-01         0.00000E+00
    0.82419E-02         0.93527E-02         0.00000E+00
    0.96424E-02         0.78812E-02         0.00000E+00
    0.10834E-01         0.62780E-02         0.00000E+00
    0.11835E-01         0.46000E-02         0.00000E+00
    0.12664E-01         0.28919E-02         0.00000E+00
    0.13337E-01         0.11870E-02         0.00000E+00
    0.13869E-01        -0.49004E-03         0.00000E+00
    0.14276E-01        -0.21221E-02         0.00000E+00
    0.14570E-01        -0.36975E-02         0.00000E+00
    0.14765E-01        -0.52092E-02         0.00000E+00
    0.14873E-01        -0.66533E-02         0.00000E+00
    0.14905E-01        -0.80282E-02         0.00000E+00
    0.14871E-01        -0.93345E-02         0.00000E+00
    0.14781E-01        -0.10574E-01         0.00000E+00
    0.14643E-01        -0.11748E-01         0.00000E+00
    0.14465E-01        -0.12860E-01         0.00000E+00
    0.14253E-01        -0.13915E-01         0.00000E+00
    0.14015E-01        -0.14913E-01         0.00000E+00
    0.13755E-01        -0.15861E-01         0.00000E+00
    0.13479E-01        -0.16759E-01         0.00000E+00
    0.13191E-01        -0.17613E-01         0.00000E+00
    0.12895E-01        -0.18424E-01         0.00000E+00
    0.12593E-01        -0.19197E-01         0.00000E+00
    0.12290E-01        -0.19933E-01         0.00000E+00
    0.11987E-01        -0.20634E-01         0.00000E+00
    0.11686E-01        -0.21305E-01         0.00000E+00
    0.11391E-01        -0.21946E-01         0.00000E+00
    0.11101E-01        -0.22560E-01         0.00000E+00
    0.10819E-01        -0.23149E-01         0.00000E+00
    0.10546E-01        -0.23714E-01         0.00000E+00
    0.10283E-01        -0.24258E-01         0.00000E+00
    0.10030E-01        -0.24781E-01         0.00000E+00
    0.97887E-02        -0.25286E-01         0.00000E+00
    0.95591E-02        -0.25774E-01         0.00000E+00
    0.93419E-02        -0.26246E-01         0.00000E+00
    0.91374E-02        -0.26703E-01         0.00000E+00
    0.89459E-02        -0.27147E-01         0.00000E+00
    0.87677E-02        -0.27579E-01         0.00000E+00
    0.86030E-02        -0.27999E-01         0.00000E+00
    0.84518E-02        -0.28410E-01         0.00000E+00
    0.83143E-02        -0.28812E-01         0.00000E+00
    0.81905E-02        -0.29205E-01         0.00000E+00
    0.80806E-02        -0.29592E-01         0.00000E+00
    0.79845E-02        -0.29973E-01         0.00000E+00
    0.79021E-02        -0.30348E-01         0.00000E+00
    0.78336E-02        -0.30720E-01         0.00000E+00
    0.77788E-02        -0.31088E-01         0.00000E+00
    0.77376E-02        -0.31453E-01         0.00000E+00
    0.77102E-02        -0.31817E-01         0.00000E+00
    0.76962E-02        -0.32180E-01         0.00000E+00
    0.76958E-02        -0.32544E-01         0.00000E+00
    0.77088E-02        -0.32908E-01         0.00000E+00
    0.77350E-02        -0.33275E-01         0.00000E+00
    0.77743E-02        -0.33644E-01         0.00000E+00
    0.78267E-02        -0.34017E-01         0.00000E+00
    0.78918E-02        -0.34395E-01         0.00000E+00
    0.79696E-02        -0.34778E-01         0.00000E+00
    0.80597E-02        -0.35167E-01         0.00000E+00
    0.81620E-02        -0.35565E-01         0.00000E+00
    0.82760E-02        -0.35971E-01         0.00000E+00
    0.84014E-02        -0.36386E-01         0.00000E+00
    0.85377E-02        -0.36813E-01         0.00000E+00
    0.86845E-02        -0.37251E-01         0.00000E+00
    0.88412E-02        -0.37703E-01         0.00000E+00
    0.90069E-02        -0.38169E-01         0.00000E+00
    0.91809E-02        -0.38651E-01         0.00000E+00
    0.93622E-02        -0.39150E-01         0.00000E+00
    0.95498E-02        -0.39668E-01         0.00000E+00
    0.97422E-02        -0.40207E-01         0.00000E+00
    0.99380E-02        -0.40768E-01         0.00000E+00
    0.10135E-01        -0.41353E-01         0.00000E+00
    0.10333E-01        -0.41965E-01         0.00000E+00
    0.10527E-01        -0.42604E-01         0.00000E+00
    0.10716E-01        -0.43275E-01         0.00000E+00
    0.10898E-01        -0.43978E-01         0.00000E+00
    0.11067E-01        -0.44717E-01         0.00000E+00
    0.11222E-01        -0.45493E-01         0.00000E+00
    0.11356E-01        -0.46311E-01         0.00000E+00
    0.11467E-01        -0.47171E-01         0.00000E+00
    0.11547E-01        -0.48078E-01         0.00000E+00
    0.11592E-01        -0.49032E-01         0.00000E+00
    0.11595E-01        -0.50037E-01         0.00000E+00
    0.11549E-01        -0.51092E-01         0.00000E+00
    0.11446E-01        -0.52199E-01         0.00000E+00
    0.11277E-01        -0.53356E-01         0.00000E+00
    0.11033E-01        -0.54561E-01         0.00000E+00
    0.10705E-01        -0.55807E-01         0.00000E+00
    0.10282E-01        -0.57087E-01         0.00000E+00
    0.97522E-02        -0.58387E-01         0.00000E+00
    0.91045E-02        -0.59689E-01         0.00000E+00
    0.83262E-02        -0.60967E-01         0.00000E+00
    0.74040E-02        -0.62188E-01         0.00000E+00
    0.63235E-02        -0.63308E-01         0.00000E+00
    0.50676E-02        -0.64274E-01         0.00000E+00
    0.36153E-02        -0.65028E-01         0.00000E+00
    0.19383E-02        -0.65510E-01         0.00000E+00
    0.00000E+00        -0.65676E-01         0.00000E+00
    0.00000E+00         0.12893E-01         0.00000E+00
    0.25973E-02         0.12664E-01         0.00000E+00
    0.48494E-02         0.12001E-01         0.00000E+00
    0.68030E-02         0.10969E-01         0.00000E+00
    0.84933E-02         0.96472E-02         0.00000E+00
    0.99463E-02         0.81197E-02         0.00000E+00
    0.11183E-01         0.64581E-02         0.00000E+00
    0.12223E-01         0.47211E-02         0.00000E+00
    0.13082E-01         0.29542E-02         0.00000E+00
    0.13779E-01         0.11918E-02         0.00000E+00
    0.14329E-01        -0.54122E-03         0.00000E+00
    0.14747E-01        -0.22273E-02         0.00000E+00
    0.15049E-01        -0.38547E-02         0.00000E+00
    0.15248E-01        -0.54161E-02         0.00000E+00
    0.15356E-01        -0.69076E-02         0.00000E+00
    0.15386E-01        -0.83279E-02         0.00000E+00
    0.15347E-01        -0.96773E-02         0.00000E+00
    0.15251E-01        -0.10958E-01         0.00000E+00
    0.15105E-01        -0.12171E-01         0.00000E+00
    0.14918E-01        -0.13321E-01         0.00000E+00
    0.14697E-01        -0.14410E-01         0.00000E+00
    0.14449E-01        -0.15443E-01         0.00000E+00
    0.14179E-01        -0.16423E-01         0.00000E+00
    0.13892E-01        -0.17352E-01         0.00000E+00
    0.13592E-01        -0.18235E-01         0.00000E+00
    0.13285E-01        -0.19075E-01         0.00000E+00
    0.12973E-01        -0.19874E-01         0.00000E+00
    0.12658E-01        -0.20636E-01         0.00000E+00
    0.12345E-01        -0.21362E-01         0.00000E+00
    0.12034E-01        -0.22057E-01         0.00000E+00
    0.11729E-01        -0.22721E-01         0.00000E+00
    0.11430E-01        -0.23356E-01         0.00000E+00
    0.11139E-01        -0.23966E-01         0.00000E+00
    0.10857E-01        -0.24552E-01         0.00000E+00
    0.10585E-01        -0.25115E-01         0.00000E+00
    0.10324E-01        -0.25658E-01         0.00000E+00
    0.10075E-01        -0.26181E-01         0.00000E+00
    0.98383E-02        -0.26686E-01         0.00000E+00
    0.96143E-02        -0.27175E-01         0.00000E+00
    0.94035E-02        -0.27649E-01         0.00000E+00
    0.92061E-02        -0.28110E-01         0.00000E+00
    0.90224E-02        -0.28557E-01         0.00000E+00
    0.88526E-02        -0.28993E-01         0.00000E+00
    0.86968E-02        -0.29419E-01         0.00000E+00
    0.85552E-02        -0.29836E-01         0.00000E+00
    0.84277E-02        -0.30244E-01         0.00000E+00
    0.83144E-02        -0.30645E-01         0.00000E+00
    0.82154E-02        -0.31040E-01         0.00000E+00
    0.81306E-02        -0.31429E-01         0.00000E+00
    0.80600E-02        -0.31815E-01         0.00000E+00
    0.80036E-02        -0.32196E-01         0.00000E+00
    0.79613E-02        -0.32575E-01         0.00000E+00
    0.79330E-02        -0.32953E-01         0.00000E+00
    0.79188E-02        -0.33329E-01         0.00000E+00
    0.79184E-02        -0.33706E-01         0.00000E+00
    0.79318E-02        -0.34084E-01         0.00000E+00
    0.79589E-02        -0.34464E-01         0.00000E+00
    0.79995E-02        -0.34847E-01         0.00000E+00
    0.80535E-02        -0.35234E-01         0.00000E+00
    0.81208E-02        -0.35625E-01         0.00000E+00
    0.82010E-02        -0.36023E-01         0.00000E+00
    0.82940E-02        -0.36427E-01         0.00000E+00
    0.83995E-02        -0.36839E-01         0.00000E+00
    0.85172E-02        -0.37259E-01         0.00000E+00
    0.86467E-02        -0.37690E-01         0.00000E+00
    0.87875E-02        -0.38132E-01         0.00000E+00
    0.89391E-02        -0.38586E-01         0.00000E+00
    0.91009E-02        -0.39054E-01         0.00000E+00
    0.92721E-02        -0.39537E-01         0.00000E+00
    0.94520E-02        -0.40036E-01         0.00000E+00
    0.96395E-02        -0.40554E-01         0.00000E+00
    0.98335E-02        -0.41090E-01         0.00000E+00
    0.10033E-01        -0.41648E-01         0.00000E+00
    0.10235E-01        -0.42229E-01         0.00000E+00
    0.10440E-01        -0.42835E-01         0.00000E+00
    0.10645E-01        -0.43468E-01         0.00000E+00
    0.10847E-01        -0.44130E-01         0.00000E+00
    0.11043E-01        -0.44823E-01         0.00000E+00
    0.11232E-01        -0.45551E-01         0.00000E+00
    0.11409E-01        -0.46315E-01         0.00000E+00
    0.11570E-01        -0.47118E-01         0.00000E+00
    0.11711E-01        -0.47963E-01         0.00000E+00
    0.11828E-01        -0.48852E-01         0.00000E+00
    0.11914E-01        -0.49789E-01         0.00000E+00
    0.11963E-01        -0.50775E-01         0.00000E+00
    0.11969E-01        -0.51813E-01         0.00000E+00
    0.11924E-01        -0.52903E-01         0.00000E+00
    0.11819E-01        -0.54046E-01         0.00000E+00
    0.11647E-01        -0.55242E-01         0.00000E+00
    0.11397E-01        -0.56486E-01         0.00000E+00
    0.11059E-01        -0.57774E-01         0.00000E+00
    0.10622E-01        -0.59097E-01         0.00000E+00
    0.10074E-01        -0.60441E-01         0.00000E+00
    0.94020E-02        -0.61787E-01         0.00000E+00
    0.85944E-02        -0.63110E-01         0.00000E+00
    0.76372E-02        -0.64375E-01         0.00000E+00
    0.65162E-02        -0.65538E-01         0.00000E+00
    0.52155E-02        -0.66543E-01         0.00000E+00
    0.37152E-02        -0.67329E-01         0.00000E+00
    0.19885E-02        -0.67832E-01         0.00000E+00
    0.00000E+00        -0.68006E-01         0.00000E+00
    0.00000E+00         0.13321E-01         0.00000E+00
    0.26637E-02         0.13082E-01         0.00000E+00
    0.49815E-02         0.12390E-01         0.00000E+00
    0.69985E-02         0.11314E-01         0.00000E+00
    0.87477E-02         0.99402E-02         0.00000E+00
    0.10254E-01         0.83559E-02         0.00000E+00
    0.11536E-01         0.66355E-02         0.00000E+00
    0.12613E-01         0.48392E-02         0.00000E+00
    0.13503E-01         0.30137E-02         0.00000E+00
    0.14223E-01         0.11939E-02         0.00000E+00
    0.14790E-01        -0.59481E-03         0.00000E+00
    0.15220E-01        -0.23346E-02         0.00000E+00
    0.15528E-01        -0.40136E-02         0.00000E+00
    0.15730E-01        -0.56245E-02         0.00000E+00
    0.15838E-01        -0.71633E-02         0.00000E+00
    0.15865E-01        -0.86286E-02         0.00000E+00
    0.15821E-01        -0.10021E-01         0.00000E+00
    0.15718E-01        -0.11342E-01         0.00000E+00
    0.15564E-01        -0.12595E-01         0.00000E+00
    0.15368E-01        -0.13782E-01         0.00000E+00
    0.15137E-01        -0.14907E-01         0.00000E+00
    0.14878E-01        -0.15973E-01         0.00000E+00
    0.14597E-01        -0.16985E-01         0.00000E+00
    0.14299E-01        -0.17945E-01         0.00000E+00
    0.13989E-01        -0.18857E-01         0.00000E+00
    0.13670E-01        -0.19725E-01         0.00000E+00
    0.13347E-01        -0.20551E-01         0.00000E+00
    0.13022E-01        -0.21339E-01         0.00000E+00
    0.12698E-01        -0.22090E-01         0.00000E+00
    0.12377E-01        -0.22808E-01         0.00000E+00
    0.12062E-01        -0.23495E-01         0.00000E+00
    0.11753E-01        -0.24152E-01         0.00000E+00
    0.11453E-01        -0.24783E-01         0.00000E+00
    0.11162E-01        -0.25389E-01         0.00000E+00
    0.10882E-01        -0.25972E-01         0.00000E+00
    0.10613E-01        -0.26534E-01         0.00000E+00
    0.10357E-01        -0.27075E-01         0.00000E+00
    0.10113E-01        -0.27599E-01         0.00000E+00
    0.98822E-02        -0.28105E-01         0.00000E+00
    0.96651E-02        -0.28596E-01         0.00000E+00
    0.94619E-02        -0.29072E-01         0.00000E+00
    0.92728E-02        -0.29536E-01         0.00000E+00
    0.90980E-02        -0.29987E-01         0.00000E+00
    0.89377E-02        -0.30428E-01         0.00000E+00
    0.87919E-02        -0.30860E-01         0.00000E+00
    0.86607E-02        -0.31283E-01         0.00000E+00
    0.85442E-02        -0.31698E-01         0.00000E+00
    0.84423E-02        -0.32107E-01         0.00000E+00
    0.83551E-02        -0.32510E-01         0.00000E+00
    0.82825E-02        -0.32909E-01         0.00000E+00
    0.82245E-02        -0.33304E-01         0.00000E+00
    0.81810E-02        -0.33697E-01         0.00000E+00
    0.81520E-02        -0.34088E-01         0.00000E+00
    0.81374E-02        -0.34478E-01         0.00000E+00
    0.81370E-02        -0.34869E-01         0.00000E+00
    0.81509E-02        -0.35260E-01         0.00000E+00
    0.81789E-02        -0.35654E-01         0.00000E+00
    0.82208E-02        -0.36050E-01         0.00000E+00
    0.82765E-02        -0.36451E-01         0.00000E+00
    0.83458E-02        -0.36856E-01         0.00000E+00
    0.84285E-02        -0.37268E-01         0.00000E+00
    0.85244E-02        -0.37686E-01         0.00000E+00
    0.86331E-02        -0.38113E-01         0.00000E+00
    0.87545E-02        -0.38548E-01         0.00000E+00
    0.88880E-02        -0.38994E-01         0.00000E+00
    0.90332E-02        -0.39452E-01         0.00000E+00
    0.91895E-02        -0.39922E-01         0.00000E+00
    0.93565E-02        -0.40406E-01         0.00000E+00
    0.95332E-02        -0.40906E-01         0.00000E+00
    0.97189E-02        -0.41423E-01         0.00000E+00
    0.99126E-02        -0.41958E-01         0.00000E+00
    0.10113E-01        -0.42513E-01         0.00000E+00
    0.10319E-01        -0.43090E-01         0.00000E+00
    0.10529E-01        -0.43691E-01         0.00000E+00
    0.10741E-01        -0.44317E-01         0.00000E+00
    0.10953E-01        -0.44971E-01         0.00000E+00
    0.11162E-01        -0.45655E-01         0.00000E+00
    0.11366E-01        -0.46372E-01         0.00000E+00
    0.11562E-01        -0.47124E-01         0.00000E+00
    0.11747E-01        -0.47913E-01         0.00000E+00
    0.11915E-01        -0.48742E-01         0.00000E+00
    0.12063E-01        -0.49615E-01         0.00000E+00
    0.12186E-01        -0.50533E-01         0.00000E+00
    0.12277E-01        -0.51500E-01         0.00000E+00
    0.12331E-01        -0.52518E-01         0.00000E+00
    0.12340E-01        -0.53588E-01         0.00000E+00
    0.12297E-01        -0.54713E-01         0.00000E+00
    0.12192E-01        -0.55893E-01         0.00000E+00
    0.12017E-01        -0.57126E-01         0.00000E+00
    0.11761E-01        -0.58410E-01         0.00000E+00
    0.11414E-01        -0.59739E-01         0.00000E+00
    0.10963E-01        -0.61104E-01         0.00000E+00
    0.10397E-01        -0.62492E-01         0.00000E+00
    0.97016E-02        -0.63883E-01         0.00000E+00
    0.88649E-02        -0.65252E-01         0.00000E+00
    0.78727E-02        -0.66561E-01         0.00000E+00
    0.67113E-02        -0.67767E-01         0.00000E+00
    0.53653E-02        -0.68812E-01         0.00000E+00
    0.38163E-02        -0.69630E-01         0.00000E+00
    0.20394E-02        -0.70156E-01         0.00000E+00
    0.00000E+00        -0.70338E-01         0.00000E+00
    0.00000E+00         0.13753E-01         0.00000E+00
    0.27313E-02         0.13502E-01         0.00000E+00
    0.51158E-02         0.12780E-01         0.00000E+00
    0.71971E-02         0.11658E-01         0.00000E+00
    0.90060E-02         0.10232E-01         0.00000E+00
    0.10565E-01         0.85899E-02         0.00000E+00
    0.11892E-01         0.68102E-02         0.00000E+00
    0.13007E-01         0.49546E-02         0.00000E+00
    0.13926E-01         0.30705E-02         0.00000E+00
    0.14668E-01         0.11934E-02         0.00000E+00
    0.15252E-01        -0.65078E-03         0.00000E+00
    0.15693E-01        -0.24441E-02         0.00000E+00
    0.16008E-01        -0.41744E-02         0.00000E+00
    0.16212E-01        -0.58344E-02         0.00000E+00
    0.16319E-01        -0.74202E-02         0.00000E+00
    0.16342E-01        -0.89304E-02         0.00000E+00
    0.16293E-01        -0.10365E-01         0.00000E+00
    0.16182E-01        -0.11727E-01         0.00000E+00
    0.16020E-01        -0.13019E-01         0.00000E+00
    0.15814E-01        -0.14243E-01         0.00000E+00
    0.15573E-01        -0.15403E-01         0.00000E+00
    0.15303E-01        -0.16503E-01         0.00000E+00
    0.15011E-01        -0.17547E-01         0.00000E+00
    0.14702E-01        -0.18538E-01         0.00000E+00
    0.14381E-01        -0.19479E-01         0.00000E+00
    0.14051E-01        -0.20375E-01         0.00000E+00
    0.13717E-01        -0.21228E-01         0.00000E+00
    0.13381E-01        -0.22041E-01         0.00000E+00
    0.13046E-01        -0.22817E-01         0.00000E+00
    0.12716E-01        -0.23559E-01         0.00000E+00
    0.12390E-01        -0.24268E-01         0.00000E+00
    0.12072E-01        -0.24948E-01         0.00000E+00
    0.11763E-01        -0.25600E-01         0.00000E+00
    0.11463E-01        -0.26227E-01         0.00000E+00
    0.11175E-01        -0.26829E-01         0.00000E+00
    0.10898E-01        -0.27409E-01         0.00000E+00
    0.10634E-01        -0.27969E-01         0.00000E+00
    0.10383E-01        -0.28510E-01         0.00000E+00
    0.10146E-01        -0.29034E-01         0.00000E+00
    0.99223E-02        -0.29542E-01         0.00000E+00
    0.97133E-02        -0.30034E-01         0.00000E+00
    0.95188E-02        -0.30514E-01         0.00000E+00
    0.93391E-02        -0.30981E-01         0.00000E+00
    0.91743E-02        -0.31437E-01         0.00000E+00
    0.90244E-02        -0.31883E-01         0.00000E+00
    0.88896E-02        -0.32321E-01         0.00000E+00
    0.87699E-02        -0.32751E-01         0.00000E+00
    0.86652E-02        -0.33174E-01         0.00000E+00
    0.85756E-02        -0.33591E-01         0.00000E+00
    0.85010E-02        -0.34004E-01         0.00000E+00
    0.84414E-02        -0.34413E-01         0.00000E+00
    0.83968E-02        -0.34819E-01         0.00000E+00
    0.83670E-02        -0.35224E-01         0.00000E+00
    0.83521E-02        -0.35627E-01         0.00000E+00
    0.83518E-02        -0.36031E-01         0.00000E+00
    0.83661E-02        -0.36436E-01         0.00000E+00
    0.83949E-02        -0.36843E-01         0.00000E+00
    0.84381E-02        -0.37254E-01         0.00000E+00
    0.84954E-02        -0.37668E-01         0.00000E+00
    0.85668E-02        -0.38087E-01         0.00000E+00
    0.86520E-02        -0.38513E-01         0.00000E+00
    0.87507E-02        -0.38946E-01         0.00000E+00
    0.88627E-02        -0.39387E-01         0.00000E+00
    0.89877E-02        -0.39837E-01         0.00000E+00
    0.91252E-02        -0.40299E-01         0.00000E+00
    0.92747E-02        -0.40772E-01         0.00000E+00
    0.94359E-02        -0.41258E-01         0.00000E+00
    0.96079E-02        -0.41758E-01         0.00000E+00
    0.97902E-02        -0.42275E-01         0.00000E+00
    0.99817E-02        -0.42809E-01         0.00000E+00
    0.10182E-01        -0.43362E-01         0.00000E+00
    0.10388E-01        -0.43936E-01         0.00000E+00
    0.10601E-01        -0.44532E-01         0.00000E+00
    0.10818E-01        -0.45152E-01         0.00000E+00
    0.11037E-01        -0.45799E-01         0.00000E+00
    0.11256E-01        -0.46475E-01         0.00000E+00
    0.11474E-01        -0.47181E-01         0.00000E+00
    0.11686E-01        -0.47921E-01         0.00000E+00
    0.11889E-01        -0.48696E-01         0.00000E+00
    0.12081E-01        -0.49511E-01         0.00000E+00
    0.12257E-01        -0.50366E-01         0.00000E+00
    0.12412E-01        -0.51266E-01         0.00000E+00
    0.12541E-01        -0.52213E-01         0.00000E+00
    0.12639E-01        -0.53210E-01         0.00000E+00
    0.12697E-01        -0.54259E-01         0.00000E+00
    0.12710E-01        -0.55363E-01         0.00000E+00
    0.12669E-01        -0.56522E-01         0.00000E+00
    0.12564E-01        -0.57738E-01         0.00000E+00
    0.12387E-01        -0.59009E-01         0.00000E+00
    0.12126E-01        -0.60332E-01         0.00000E+00
    0.11769E-01        -0.61702E-01         0.00000E+00
    0.11306E-01        -0.63110E-01         0.00000E+00
    0.10722E-01        -0.64541E-01         0.00000E+00
    0.10004E-01        -0.65977E-01         0.00000E+00
    0.91382E-02        -0.67391E-01         0.00000E+00
    0.81113E-02        -0.68746E-01         0.00000E+00
    0.69091E-02        -0.69995E-01         0.00000E+00
    0.55174E-02        -0.71080E-01         0.00000E+00
    0.39192E-02        -0.71933E-01         0.00000E+00
    0.20911E-02        -0.72482E-01         0.00000E+00
    0.00000E+00        -0.72673E-01         0.00000E+00
    0.00000E+00         0.14188E-01         0.00000E+00
    0.28002E-02         0.13926E-01         0.00000E+00
    0.52528E-02         0.13171E-01         0.00000E+00
    0.73996E-02         0.12003E-01         0.00000E+00
    0.92688E-02         0.10522E-01         0.00000E+00
    0.10881E-01         0.88216E-02         0.00000E+00
    0.12253E-01         0.69823E-02         0.00000E+00
    0.13404E-01         0.50671E-02         0.00000E+00
    0.14353E-01         0.31245E-02         0.00000E+00
    0.15117E-01         0.11903E-02         0.00000E+00
    0.15715E-01        -0.70909E-03         0.00000E+00
    0.16167E-01        -0.25556E-02         0.00000E+00
    0.16487E-01        -0.43370E-02         0.00000E+00
    0.16692E-01        -0.60459E-02         0.00000E+00
    0.16798E-01        -0.76784E-02         0.00000E+00
    0.16817E-01        -0.92331E-02         0.00000E+00
    0.16762E-01        -0.10711E-01         0.00000E+00
    0.16643E-01        -0.12113E-01         0.00000E+00
    0.16472E-01        -0.13443E-01         0.00000E+00
    0.16256E-01        -0.14704E-01         0.00000E+00
    0.16005E-01        -0.15899E-01         0.00000E+00
    0.15724E-01        -0.17033E-01         0.00000E+00
    0.15421E-01        -0.18109E-01         0.00000E+00
    0.15100E-01        -0.19130E-01         0.00000E+00
    0.14767E-01        -0.20101E-01         0.00000E+00
    0.14427E-01        -0.21025E-01         0.00000E+00
    0.14081E-01        -0.21905E-01         0.00000E+00
    0.13735E-01        -0.22743E-01         0.00000E+00
    0.13390E-01        -0.23544E-01         0.00000E+00
    0.13049E-01        -0.24309E-01         0.00000E+00
    0.12713E-01        -0.25042E-01         0.00000E+00
    0.12386E-01        -0.25743E-01         0.00000E+00
    0.12067E-01        -0.26417E-01         0.00000E+00
    0.11759E-01        -0.27063E-01         0.00000E+00
    0.11462E-01        -0.27685E-01         0.00000E+00
    0.11178E-01        -0.28285E-01         0.00000E+00
    0.10906E-01        -0.28863E-01         0.00000E+00
    0.10648E-01        -0.29422E-01         0.00000E+00
    0.10404E-01        -0.29963E-01         0.00000E+00
    0.10175E-01        -0.30487E-01         0.00000E+00
    0.99602E-02        -0.30996E-01         0.00000E+00
    0.97604E-02        -0.31492E-01         0.00000E+00
    0.95759E-02        -0.31974E-01         0.00000E+00
    0.94066E-02        -0.32446E-01         0.00000E+00
    0.92527E-02        -0.32907E-01         0.00000E+00
    0.91143E-02        -0.33359E-01         0.00000E+00
    0.89914E-02        -0.33803E-01         0.00000E+00
    0.88840E-02        -0.34240E-01         0.00000E+00
    0.87920E-02        -0.34672E-01         0.00000E+00
    0.87155E-02        -0.35098E-01         0.00000E+00
    0.86543E-02        -0.35521E-01         0.00000E+00
    0.86086E-02        -0.35941E-01         0.00000E+00
    0.85781E-02        -0.36359E-01         0.00000E+00
    0.85628E-02        -0.36776E-01         0.00000E+00
    0.85626E-02        -0.37194E-01         0.00000E+00
    0.85774E-02        -0.37612E-01         0.00000E+00
    0.86070E-02        -0.38033E-01         0.00000E+00
    0.86515E-02        -0.38457E-01         0.00000E+00
    0.87105E-02        -0.38885E-01         0.00000E+00
    0.87839E-02        -0.39318E-01         0.00000E+00
    0.88715E-02        -0.39758E-01         0.00000E+00
    0.89730E-02        -0.40205E-01         0.00000E+00
    0.90883E-02        -0.40661E-01         0.00000E+00
    0.92168E-02        -0.41127E-01         0.00000E+00
    0.93583E-02        -0.41603E-01         0.00000E+00
    0.95122E-02        -0.42092E-01         0.00000E+00
    0.96781E-02        -0.42594E-01         0.00000E+00
    0.98552E-02        -0.43111E-01         0.00000E+00
    0.10043E-01        -0.43644E-01         0.00000E+00
    0.10240E-01        -0.44195E-01         0.00000E+00
    0.10446E-01        -0.44766E-01         0.00000E+00
    0.10660E-01        -0.45358E-01         0.00000E+00
    0.10879E-01        -0.45974E-01         0.00000E+00
    0.11103E-01        -0.46614E-01         0.00000E+00
    0.11329E-01        -0.47281E-01         0.00000E+00
    0.11556E-01        -0.47978E-01         0.00000E+00
    0.11781E-01        -0.48707E-01         0.00000E+00
    0.12001E-01        -0.49470E-01         0.00000E+00
    0.12213E-01        -0.50269E-01         0.00000E+00
    0.12412E-01        -0.51109E-01         0.00000E+00
    0.12596E-01        -0.51990E-01         0.00000E+00
    0.12758E-01        -0.52918E-01         0.00000E+00
    0.12894E-01        -0.53893E-01         0.00000E+00
    0.12998E-01        -0.54920E-01         0.00000E+00
    0.13061E-01        -0.56000E-01         0.00000E+00
    0.13078E-01        -0.57137E-01         0.00000E+00
    0.13039E-01        -0.58331E-01         0.00000E+00
    0.12936E-01        -0.59582E-01         0.00000E+00
    0.12756E-01        -0.60890E-01         0.00000E+00
    0.12491E-01        -0.62253E-01         0.00000E+00
    0.12126E-01        -0.63663E-01         0.00000E+00
    0.11650E-01        -0.65113E-01         0.00000E+00
    0.11049E-01        -0.66588E-01         0.00000E+00
    0.10309E-01        -0.68069E-01         0.00000E+00
    0.94150E-02        -0.69528E-01         0.00000E+00
    0.83534E-02        -0.70928E-01         0.00000E+00
    0.71104E-02        -0.72222E-01         0.00000E+00
    0.56724E-02        -0.73349E-01         0.00000E+00
    0.40241E-02        -0.74237E-01         0.00000E+00
    0.21439E-02        -0.74811E-01         0.00000E+00
    0.00000E+00        -0.75010E-01         0.00000E+00
    0.00000E+00         0.14627E-01         0.00000E+00
    0.28708E-02         0.14352E-01         0.00000E+00
    0.53931E-02         0.13564E-01         0.00000E+00
    0.76066E-02         0.12348E-01         0.00000E+00
    0.95369E-02         0.10810E-01         0.00000E+00
    0.11202E-01         0.90511E-02         0.00000E+00
    0.12620E-01         0.71518E-02         0.00000E+00
    0.13807E-01         0.51770E-02         0.00000E+00
    0.14783E-01         0.31758E-02         0.00000E+00
    0.15568E-01         0.11848E-02         0.00000E+00
    0.16182E-01        -0.76969E-03         0.00000E+00
    0.16642E-01        -0.26691E-02         0.00000E+00
    0.16967E-01        -0.45014E-02         0.00000E+00
    0.17173E-01        -0.62589E-02         0.00000E+00
    0.17276E-01        -0.79378E-02         0.00000E+00
    0.17290E-01        -0.95369E-02         0.00000E+00
    0.17228E-01        -0.11057E-01         0.00000E+00
    0.17101E-01        -0.12499E-01         0.00000E+00
    0.16920E-01        -0.13868E-01         0.00000E+00
    0.16695E-01        -0.15165E-01         0.00000E+00
    0.16432E-01        -0.16396E-01         0.00000E+00
    0.16140E-01        -0.17563E-01         0.00000E+00
    0.15826E-01        -0.18670E-01         0.00000E+00
    0.15494E-01        -0.19722E-01         0.00000E+00
    0.15149E-01        -0.20723E-01         0.00000E+00
    0.14797E-01        -0.21674E-01         0.00000E+00
    0.14441E-01        -0.22581E-01         0.00000E+00
    0.14083E-01        -0.23445E-01         0.00000E+00
    0.13728E-01        -0.24271E-01         0.00000E+00
    0.13377E-01        -0.25060E-01         0.00000E+00
    0.13031E-01        -0.25815E-01         0.00000E+00
    0.12694E-01        -0.26538E-01         0.00000E+00
    0.12367E-01        -0.27233E-01         0.00000E+00
    0.12050E-01        -0.27900E-01         0.00000E+00
    0.11745E-01        -0.28541E-01         0.00000E+00
    0.11453E-01        -0.29160E-01         0.00000E+00
    0.11174E-01        -0.29756E-01         0.00000E+00
    0.10909E-01        -0.30333E-01         0.00000E+00
    0.10658E-01        -0.30891E-01         0.00000E+00
    0.10423E-01        -0.31432E-01         0.00000E+00
    0.10203E-01        -0.31958E-01         0.00000E+00
    0.99976E-02        -0.32469E-01         0.00000E+00
    0.98082E-02        -0.32968E-01         0.00000E+00
    0.96346E-02        -0.33454E-01         0.00000E+00
    0.94768E-02        -0.33930E-01         0.00000E+00
    0.93348E-02        -0.34397E-01         0.00000E+00
    0.92087E-02        -0.34855E-01         0.00000E+00
    0.90986E-02        -0.35307E-01         0.00000E+00
    0.90043E-02        -0.35752E-01         0.00000E+00
    0.89259E-02        -0.36193E-01         0.00000E+00
    0.88632E-02        -0.36629E-01         0.00000E+00
    0.88163E-02        -0.37063E-01         0.00000E+00
    0.87851E-02        -0.37494E-01         0.00000E+00
    0.87695E-02        -0.37925E-01         0.00000E+00
    0.87694E-02        -0.38356E-01         0.00000E+00
    0.87846E-02        -0.38788E-01         0.00000E+00
    0.88152E-02        -0.39223E-01         0.00000E+00
    0.88608E-02        -0.39660E-01         0.00000E+00
    0.89215E-02        -0.40102E-01         0.00000E+00
    0.89969E-02        -0.40550E-01         0.00000E+00
    0.90869E-02        -0.41004E-01         0.00000E+00
    0.91913E-02        -0.41465E-01         0.00000E+00
    0.93097E-02        -0.41936E-01         0.00000E+00
    0.94418E-02        -0.42416E-01         0.00000E+00
    0.95873E-02        -0.42908E-01         0.00000E+00
    0.97455E-02        -0.43412E-01         0.00000E+00
    0.99161E-02        -0.43930E-01         0.00000E+00
    0.10098E-01        -0.44463E-01         0.00000E+00
    0.10291E-01        -0.45014E-01         0.00000E+00
    0.10495E-01        -0.45582E-01         0.00000E+00
    0.10707E-01        -0.46171E-01         0.00000E+00
    0.10927E-01        -0.46782E-01         0.00000E+00
    0.11153E-01        -0.47416E-01         0.00000E+00
    0.11384E-01        -0.48076E-01         0.00000E+00
    0.11618E-01        -0.48764E-01         0.00000E+00
    0.11852E-01        -0.49482E-01         0.00000E+00
    0.12085E-01        -0.50233E-01         0.00000E+00
    0.12312E-01        -0.51018E-01         0.00000E+00
    0.12532E-01        -0.51842E-01         0.00000E+00
    0.12740E-01        -0.52706E-01         0.00000E+00
    0.12931E-01        -0.53614E-01         0.00000E+00
    0.13101E-01        -0.54569E-01         0.00000E+00
    0.13244E-01        -0.55573E-01         0.00000E+00
    0.13354E-01        -0.56629E-01         0.00000E+00
    0.13424E-01        -0.57741E-01         0.00000E+00
    0.13445E-01        -0.58910E-01         0.00000E+00
    0.13409E-01        -0.60138E-01         0.00000E+00
    0.13307E-01        -0.61425E-01         0.00000E+00
    0.13126E-01        -0.62771E-01         0.00000E+00
    0.12857E-01        -0.64172E-01         0.00000E+00
    0.12485E-01        -0.65623E-01         0.00000E+00
    0.11997E-01        -0.67115E-01         0.00000E+00
    0.11380E-01        -0.68633E-01         0.00000E+00
    0.10618E-01        -0.70159E-01         0.00000E+00
    0.96957E-02        -0.71663E-01         0.00000E+00
    0.85997E-02        -0.73109E-01         0.00000E+00
    0.73157E-02        -0.74447E-01         0.00000E+00
    0.58309E-02        -0.75617E-01         0.00000E+00
    0.41315E-02        -0.76541E-01         0.00000E+00
    0.21979E-02        -0.77141E-01         0.00000E+00
    0.00000E+00        -0.77350E-01         0.00000E+00
    0.00000E+00         0.15070E-01         0.00000E+00
    0.29434E-02         0.14782E-01         0.00000E+00
    0.55373E-02         0.13958E-01         0.00000E+00
    0.78190E-02         0.12692E-01         0.00000E+00
    0.98112E-02         0.11098E-01         0.00000E+00
    0.11530E-01         0.92785E-02         0.00000E+00
    0.12992E-01         0.73187E-02         0.00000E+00
    0.14215E-01         0.52841E-02         0.00000E+00
    0.15218E-01         0.32245E-02         0.00000E+00
    0.16023E-01         0.11767E-02         0.00000E+00
    0.16650E-01        -0.83254E-03         0.00000E+00
    0.17119E-01        -0.27847E-02         0.00000E+00
    0.17447E-01        -0.46674E-02         0.00000E+00
    0.17653E-01        -0.64733E-02         0.00000E+00
    0.17753E-01        -0.81984E-02         0.00000E+00
    0.17762E-01        -0.98416E-02         0.00000E+00
    0.17692E-01        -0.11404E-01         0.00000E+00
    0.17557E-01        -0.12886E-01         0.00000E+00
    0.17366E-01        -0.14293E-01         0.00000E+00
    0.17129E-01        -0.15627E-01         0.00000E+00
    0.16856E-01        -0.16892E-01         0.00000E+00
    0.16552E-01        -0.18093E-01         0.00000E+00
    0.16226E-01        -0.19232E-01         0.00000E+00
    0.15882E-01        -0.20315E-01         0.00000E+00
    0.15527E-01        -0.21344E-01         0.00000E+00
    0.15163E-01        -0.22324E-01         0.00000E+00
    0.14795E-01        -0.23257E-01         0.00000E+00
    0.14427E-01        -0.24147E-01         0.00000E+00
    0.14061E-01        -0.24997E-01         0.00000E+00
    0.13699E-01        -0.25810E-01         0.00000E+00
    0.13344E-01        -0.26587E-01         0.00000E+00
    0.12998E-01        -0.27333E-01         0.00000E+00
    0.12661E-01        -0.28048E-01         0.00000E+00
    0.12336E-01        -0.28736E-01         0.00000E+00
    0.12023E-01        -0.29397E-01         0.00000E+00
    0.11723E-01        -0.30034E-01         0.00000E+00
    0.11437E-01        -0.30650E-01         0.00000E+00
    0.11165E-01        -0.31244E-01         0.00000E+00
    0.10908E-01        -0.31820E-01         0.00000E+00
    0.10666E-01        -0.32377E-01         0.00000E+00
    0.10440E-01        -0.32919E-01         0.00000E+00
    0.10230E-01        -0.33447E-01         0.00000E+00
    0.10036E-01        -0.33961E-01         0.00000E+00
    0.98583E-02        -0.34462E-01         0.00000E+00
    0.96965E-02        -0.34953E-01         0.00000E+00
    0.95511E-02        -0.35435E-01         0.00000E+00
    0.94219E-02        -0.35908E-01         0.00000E+00
    0.93091E-02        -0.36373E-01         0.00000E+00
    0.92125E-02        -0.36833E-01         0.00000E+00
    0.91322E-02        -0.37287E-01         0.00000E+00
    0.90680E-02        -0.37737E-01         0.00000E+00
    0.90201E-02        -0.38184E-01         0.00000E+00
    0.89881E-02        -0.38629E-01         0.00000E+00
    0.89722E-02        -0.39074E-01         0.00000E+00
    0.89722E-02        -0.39518E-01         0.00000E+00
    0.89879E-02        -0.39964E-01         0.00000E+00
    0.90193E-02        -0.40412E-01         0.00000E+00
    0.90662E-02        -0.40864E-01         0.00000E+00
    0.91285E-02        -0.41320E-01         0.00000E+00
    0.92059E-02        -0.41781E-01         0.00000E+00
    0.92983E-02        -0.42249E-01         0.00000E+00
    0.94055E-02        -0.42725E-01         0.00000E+00
    0.95271E-02        -0.43210E-01         0.00000E+00
    0.96627E-02        -0.43706E-01         0.00000E+00
    0.98121E-02        -0.44212E-01         0.00000E+00
    0.99747E-02        -0.44732E-01         0.00000E+00
    0.10150E-01        -0.45266E-01         0.00000E+00
    0.10337E-01        -0.45816E-01         0.00000E+00
    0.10536E-01        -0.46383E-01         0.00000E+00
    0.10745E-01        -0.46969E-01         0.00000E+00
    0.10963E-01        -0.47576E-01         0.00000E+00
    0.11189E-01        -0.48205E-01         0.00000E+00
    0.11422E-01        -0.48858E-01         0.00000E+00
    0.11661E-01        -0.49538E-01         0.00000E+00
    0.11902E-01        -0.50247E-01         0.00000E+00
    0.12144E-01        -0.50986E-01         0.00000E+00
    0.12384E-01        -0.51759E-01         0.00000E+00
    0.12620E-01        -0.52567E-01         0.00000E+00
    0.12848E-01        -0.53415E-01         0.00000E+00
    0.13064E-01        -0.54304E-01         0.00000E+00
    0.13263E-01        -0.55238E-01         0.00000E+00
    0.13441E-01        -0.56220E-01         0.00000E+00
    0.13591E-01        -0.57252E-01         0.00000E+00
    0.13708E-01        -0.58338E-01         0.00000E+00
    0.13784E-01        -0.59481E-01         0.00000E+00
    0.13810E-01        -0.60682E-01         0.00000E+00
    0.13778E-01        -0.61944E-01         0.00000E+00
    0.13677E-01        -0.63267E-01         0.00000E+00
    0.13497E-01        -0.64649E-01         0.00000E+00
    0.13224E-01        -0.66089E-01         0.00000E+00
    0.12845E-01        -0.67581E-01         0.00000E+00
    0.12347E-01        -0.69114E-01         0.00000E+00
    0.11714E-01        -0.70676E-01         0.00000E+00
    0.10930E-01        -0.72246E-01         0.00000E+00
    0.99809E-02        -0.73796E-01         0.00000E+00
    0.88507E-02        -0.75288E-01         0.00000E+00
    0.75256E-02        -0.76672E-01         0.00000E+00
    0.59934E-02        -0.77885E-01         0.00000E+00
    0.42418E-02        -0.78847E-01         0.00000E+00
    0.22534E-02        -0.79474E-01         0.00000E+00
    0.00000E+00        -0.79693E-01         0.00000E+00
    0.00000E+00         0.15517E-01         0.00000E+00
    0.30184E-02         0.15216E-01         0.00000E+00
    0.56861E-02         0.14354E-01         0.00000E+00
    0.80376E-02         0.13036E-01         0.00000E+00
    0.10092E-01         0.11384E-01         0.00000E+00
    0.11865E-01         0.95036E-02         0.00000E+00
    0.13371E-01         0.74831E-02         0.00000E+00
    0.14629E-01         0.53886E-02         0.00000E+00
    0.15659E-01         0.32706E-02         0.00000E+00
    0.16483E-01         0.11662E-02         0.00000E+00
    0.17122E-01        -0.89756E-03         0.00000E+00
    0.17597E-01        -0.29021E-02         0.00000E+00
    0.17928E-01        -0.48351E-02         0.00000E+00
    0.18134E-01        -0.66891E-02         0.00000E+00
    0.18230E-01        -0.84601E-02         0.00000E+00
    0.18232E-01        -0.10147E-01         0.00000E+00
    0.18154E-01        -0.11751E-01         0.00000E+00
    0.18009E-01        -0.13274E-01         0.00000E+00
    0.17808E-01        -0.14719E-01         0.00000E+00
    0.17560E-01        -0.16089E-01         0.00000E+00
    0.17275E-01        -0.17389E-01         0.00000E+00
    0.16960E-01        -0.18623E-01         0.00000E+00
    0.16622E-01        -0.19794E-01         0.00000E+00
    0.16266E-01        -0.20907E-01         0.00000E+00
    0.15899E-01        -0.21965E-01         0.00000E+00
    0.15524E-01        -0.22973E-01         0.00000E+00
    0.15145E-01        -0.23933E-01         0.00000E+00
    0.14766E-01        -0.24848E-01         0.00000E+00
    0.14389E-01        -0.25723E-01         0.00000E+00
    0.14017E-01        -0.26559E-01         0.00000E+00
    0.13652E-01        -0.27360E-01         0.00000E+00
    0.13296E-01        -0.28127E-01         0.00000E+00
    0.12951E-01        -0.28864E-01         0.00000E+00
    0.12617E-01        -0.29571E-01         0.00000E+00
    0.12296E-01        -0.30252E-01         0.00000E+00
    0.11988E-01        -0.30909E-01         0.00000E+00
    0.11695E-01        -0.31542E-01         0.00000E+00
    0.11416E-01        -0.32155E-01         0.00000E+00
    0.11153E-01        -0.32747E-01         0.00000E+00
    0.10905E-01        -0.33322E-01         0.00000E+00
    0.10674E-01        -0.33881E-01         0.00000E+00
    0.10459E-01        -0.34424E-01         0.00000E+00
    0.10260E-01        -0.34953E-01         0.00000E+00
    0.10078E-01        -0.35470E-01         0.00000E+00
    0.99120E-02        -0.35976E-01         0.00000E+00
    0.97630E-02        -0.36472E-01         0.00000E+00
    0.96308E-02        -0.36960E-01         0.00000E+00
    0.95153E-02        -0.37440E-01         0.00000E+00
    0.94165E-02        -0.37913E-01         0.00000E+00
    0.93343E-02        -0.38381E-01         0.00000E+00
    0.92688E-02        -0.38845E-01         0.00000E+00
    0.92197E-02        -0.39306E-01         0.00000E+00
    0.91871E-02        -0.39765E-01         0.00000E+00
    0.91709E-02        -0.40223E-01         0.00000E+00
    0.91709E-02        -0.40681E-01         0.00000E+00
    0.91871E-02        -0.41140E-01         0.00000E+00
    0.92194E-02        -0.41602E-01         0.00000E+00
    0.92675E-02        -0.42067E-01         0.00000E+00
    0.93314E-02        -0.42537E-01         0.00000E+00
    0.94109E-02        -0.43012E-01         0.00000E+00
    0.95057E-02        -0.43495E-01         0.00000E+00
    0.96156E-02        -0.43985E-01         0.00000E+00
    0.97403E-02        -0.44485E-01         0.00000E+00
    0.98795E-02        -0.44995E-01         0.00000E+00
    0.10033E-01        -0.45517E-01         0.00000E+00
    0.10200E-01        -0.46053E-01         0.00000E+00
    0.10380E-01        -0.46603E-01         0.00000E+00
    0.10572E-01        -0.47169E-01         0.00000E+00
    0.10776E-01        -0.47753E-01         0.00000E+00
    0.10991E-01        -0.48356E-01         0.00000E+00
    0.11215E-01        -0.48981E-01         0.00000E+00
    0.11448E-01        -0.49628E-01         0.00000E+00
    0.11688E-01        -0.50301E-01         0.00000E+00
    0.11933E-01        -0.51000E-01         0.00000E+00
    0.12182E-01        -0.51729E-01         0.00000E+00
    0.12432E-01        -0.52490E-01         0.00000E+00
    0.12680E-01        -0.53285E-01         0.00000E+00
    0.12924E-01        -0.54116E-01         0.00000E+00
    0.13160E-01        -0.54988E-01         0.00000E+00
    0.13384E-01        -0.55902E-01         0.00000E+00
    0.13592E-01        -0.56862E-01         0.00000E+00
    0.13777E-01        -0.57870E-01         0.00000E+00
    0.13936E-01        -0.58931E-01         0.00000E+00
    0.14060E-01        -0.60047E-01         0.00000E+00
    0.14142E-01        -0.61220E-01         0.00000E+00
    0.14174E-01        -0.62454E-01         0.00000E+00
    0.14146E-01        -0.63749E-01         0.00000E+00
    0.14048E-01        -0.65107E-01         0.00000E+00
    0.13867E-01        -0.66527E-01         0.00000E+00
    0.13592E-01        -0.68005E-01         0.00000E+00
    0.13207E-01        -0.69537E-01         0.00000E+00
    0.12699E-01        -0.71112E-01         0.00000E+00
    0.12051E-01        -0.72717E-01         0.00000E+00
    0.11247E-01        -0.74332E-01         0.00000E+00
    0.10271E-01        -0.75927E-01         0.00000E+00
    0.91071E-02        -0.77465E-01         0.00000E+00
    0.77408E-02        -0.78896E-01         0.00000E+00
    0.61606E-02        -0.80153E-01         0.00000E+00
    0.43555E-02        -0.81155E-01         0.00000E+00
    0.23108E-02        -0.81810E-01         0.00000E+00
    0.00000E+00        -0.82039E-01         0.00000E+00
    0.00000E+00         0.15970E-01         0.00000E+00
    0.30961E-02         0.15653E-01         0.00000E+00
    0.58400E-02         0.14752E-01         0.00000E+00
    0.82632E-02         0.13380E-01         0.00000E+00
    0.10382E-01         0.11668E-01         0.00000E+00
    0.12208E-01         0.97267E-02         0.00000E+00
    0.13758E-01         0.76450E-02         0.00000E+00
    0.15049E-01         0.54906E-02         0.00000E+00
    0.16105E-01         0.33142E-02         0.00000E+00
    0.16946E-01         0.11534E-02         0.00000E+00
    0.17597E-01        -0.96470E-03         0.00000E+00
    0.18078E-01        -0.30215E-02         0.00000E+00
    0.18411E-01        -0.50045E-02         0.00000E+00
    0.18614E-01        -0.69062E-02         0.00000E+00
    0.18705E-01        -0.87230E-02         0.00000E+00
    0.18701E-01        -0.10454E-01         0.00000E+00
    0.18614E-01        -0.12099E-01         0.00000E+00
    0.18459E-01        -0.13662E-01         0.00000E+00
    0.18247E-01        -0.15145E-01         0.00000E+00
    0.17988E-01        -0.16551E-01         0.00000E+00
    0.17691E-01        -0.17886E-01         0.00000E+00
    0.17363E-01        -0.19153E-01         0.00000E+00
    0.17013E-01        -0.20356E-01         0.00000E+00
    0.16645E-01        -0.21499E-01         0.00000E+00
    0.16266E-01        -0.22586E-01         0.00000E+00
    0.15879E-01        -0.23621E-01         0.00000E+00
    0.15489E-01        -0.24608E-01         0.00000E+00
    0.15099E-01        -0.25549E-01         0.00000E+00
    0.14712E-01        -0.26449E-01         0.00000E+00
    0.14330E-01        -0.27309E-01         0.00000E+00
    0.13955E-01        -0.28132E-01         0.00000E+00
    0.13590E-01        -0.28921E-01         0.00000E+00
    0.13235E-01        -0.29679E-01         0.00000E+00
    0.12893E-01        -0.30407E-01         0.00000E+00
    0.12564E-01        -0.31108E-01         0.00000E+00
    0.12248E-01        -0.31783E-01         0.00000E+00
    0.11948E-01        -0.32435E-01         0.00000E+00
    0.11662E-01        -0.33065E-01         0.00000E+00
    0.11393E-01        -0.33675E-01         0.00000E+00
    0.11139E-01        -0.34267E-01         0.00000E+00
    0.10903E-01        -0.34842E-01         0.00000E+00
    0.10682E-01        -0.35401E-01         0.00000E+00
    0.10479E-01        -0.35946E-01         0.00000E+00
    0.10292E-01        -0.36478E-01         0.00000E+00
    0.10123E-01        -0.36999E-01         0.00000E+00
    0.99707E-02        -0.37510E-01         0.00000E+00
    0.98355E-02        -0.38012E-01         0.00000E+00
    0.97174E-02        -0.38506E-01         0.00000E+00
    0.96164E-02        -0.38993E-01         0.00000E+00
    0.95324E-02        -0.39475E-01         0.00000E+00
    0.94654E-02        -0.39953E-01         0.00000E+00
    0.94153E-02        -0.40427E-01         0.00000E+00
    0.93820E-02        -0.40900E-01         0.00000E+00
    0.93655E-02        -0.41372E-01         0.00000E+00
    0.93656E-02        -0.41843E-01         0.00000E+00
    0.93823E-02        -0.42316E-01         0.00000E+00
    0.94154E-02        -0.42792E-01         0.00000E+00
    0.94648E-02        -0.43271E-01         0.00000E+00
    0.95302E-02        -0.43754E-01         0.00000E+00
    0.96117E-02        -0.44244E-01         0.00000E+00
    0.97089E-02        -0.44741E-01         0.00000E+00
    0.98215E-02        -0.45245E-01         0.00000E+00
    0.99493E-02        -0.45760E-01         0.00000E+00
    0.10092E-01        -0.46285E-01         0.00000E+00
    0.10249E-01        -0.46822E-01         0.00000E+00
    0.10420E-01        -0.47373E-01         0.00000E+00
    0.10605E-01        -0.47940E-01         0.00000E+00
    0.10802E-01        -0.48522E-01         0.00000E+00
    0.11012E-01        -0.49123E-01         0.00000E+00
    0.11232E-01        -0.49744E-01         0.00000E+00
    0.11463E-01        -0.50386E-01         0.00000E+00
    0.11702E-01        -0.51052E-01         0.00000E+00
    0.11949E-01        -0.51744E-01         0.00000E+00
    0.12201E-01        -0.52463E-01         0.00000E+00
    0.12457E-01        -0.53212E-01         0.00000E+00
    0.12715E-01        -0.53994E-01         0.00000E+00
    0.12972E-01        -0.54811E-01         0.00000E+00
    0.13224E-01        -0.55665E-01         0.00000E+00
    0.13468E-01        -0.56561E-01         0.00000E+00
    0.13701E-01        -0.57499E-01         0.00000E+00
    0.13917E-01        -0.58485E-01         0.00000E+00
    0.14111E-01        -0.59521E-01         0.00000E+00
    0.14278E-01        -0.60609E-01         0.00000E+00
    0.14410E-01        -0.61755E-01         0.00000E+00
    0.14499E-01        -0.62959E-01         0.00000E+00
    0.14537E-01        -0.64225E-01         0.00000E+00
    0.14514E-01        -0.65554E-01         0.00000E+00
    0.14419E-01        -0.66947E-01         0.00000E+00
    0.14239E-01        -0.68403E-01         0.00000E+00
    0.13962E-01        -0.69920E-01         0.00000E+00
    0.13572E-01        -0.71491E-01         0.00000E+00
    0.13055E-01        -0.73108E-01         0.00000E+00
    0.12393E-01        -0.74756E-01         0.00000E+00
    0.11570E-01        -0.76415E-01         0.00000E+00
    0.10567E-01        -0.78056E-01         0.00000E+00
    0.93696E-02        -0.79641E-01         0.00000E+00
    0.79621E-02        -0.81118E-01         0.00000E+00
    0.63331E-02        -0.82421E-01         0.00000E+00
    0.44732E-02        -0.83463E-01         0.00000E+00
    0.23702E-02        -0.84149E-01         0.00000E+00
    0.00000E+00        -0.84389E-01         0.00000E+00
    0.00000E+00         0.16427E-01         0.00000E+00
    0.31770E-02         0.16095E-01         0.00000E+00
    0.60001E-02         0.15152E-01         0.00000E+00
    0.84969E-02         0.13724E-01         0.00000E+00
    0.10680E-01         0.11951E-01         0.00000E+00
    0.12560E-01         0.99476E-02         0.00000E+00
    0.14153E-01         0.78045E-02         0.00000E+00
    0.15477E-01         0.55900E-02         0.00000E+00
    0.16557E-01         0.33554E-02         0.00000E+00
    0.17415E-01         0.11384E-02         0.00000E+00
    0.18076E-01        -0.10339E-02         0.00000E+00
    0.18562E-01        -0.31426E-02         0.00000E+00
    0.18895E-01        -0.51753E-02         0.00000E+00
    0.19095E-01        -0.71247E-02         0.00000E+00
    0.19180E-01        -0.89870E-02         0.00000E+00
    0.19168E-01        -0.10761E-01         0.00000E+00
    0.19072E-01        -0.12448E-01         0.00000E+00
    0.18906E-01        -0.14050E-01         0.00000E+00
    0.18683E-01        -0.15571E-01         0.00000E+00
    0.18411E-01        -0.17014E-01         0.00000E+00
    0.18102E-01        -0.18383E-01         0.00000E+00
    0.17762E-01        -0.19683E-01         0.00000E+00
    0.17399E-01        -0.20917E-01         0.00000E+00
    0.17020E-01        -0.22091E-01         0.00000E+00
    0.16628E-01        -0.23207E-01         0.00000E+00
    0.16230E-01        -0.24270E-01         0.00000E+00
    0.15828E-01        -0.25283E-01         0.00000E+00
    0.15427E-01        -0.26250E-01         0.00000E+00
    0.15029E-01        -0.27174E-01         0.00000E+00
    0.14637E-01        -0.28058E-01         0.00000E+00
    0.14253E-01        -0.28904E-01         0.00000E+00
    0.13878E-01        -0.29715E-01         0.00000E+00
    0.13515E-01        -0.30493E-01         0.00000E+00
    0.13164E-01        -0.31242E-01         0.00000E+00
    0.12827E-01        -0.31962E-01         0.00000E+00
    0.12504E-01        -0.32657E-01         0.00000E+00
    0.12196E-01        -0.33327E-01         0.00000E+00
    0.11904E-01        -0.33975E-01         0.00000E+00
    0.11628E-01        -0.34603E-01         0.00000E+00
    0.11369E-01        -0.35211E-01         0.00000E+00
    0.11127E-01        -0.35802E-01         0.00000E+00
    0.10901E-01        -0.36377E-01         0.00000E+00
    0.10693E-01        -0.36938E-01         0.00000E+00
    0.10503E-01        -0.37486E-01         0.00000E+00
    0.10330E-01        -0.38022E-01         0.00000E+00
    0.10174E-01        -0.38547E-01         0.00000E+00
    0.10036E-01        -0.39063E-01         0.00000E+00
    0.99153E-02        -0.39572E-01         0.00000E+00
    0.98120E-02        -0.40073E-01         0.00000E+00
    0.97263E-02        -0.40569E-01         0.00000E+00
    0.96578E-02        -0.41061E-01         0.00000E+00
    0.96067E-02        -0.41549E-01         0.00000E+00
    0.95728E-02        -0.42035E-01         0.00000E+00
    0.95560E-02        -0.42520E-01         0.00000E+00
    0.95562E-02        -0.43006E-01         0.00000E+00
    0.95733E-02        -0.43492E-01         0.00000E+00
    0.96073E-02        -0.43982E-01         0.00000E+00
    0.96579E-02        -0.44474E-01         0.00000E+00
    0.97250E-02        -0.44972E-01         0.00000E+00
    0.98084E-02        -0.45476E-01         0.00000E+00
    0.99079E-02        -0.45986E-01         0.00000E+00
    0.10023E-01        -0.46506E-01         0.00000E+00
    0.10154E-01        -0.47035E-01         0.00000E+00
    0.10300E-01        -0.47575E-01         0.00000E+00
    0.10461E-01        -0.48128E-01         0.00000E+00
    0.10637E-01        -0.48694E-01         0.00000E+00
    0.10826E-01        -0.49276E-01         0.00000E+00
    0.11028E-01        -0.49875E-01         0.00000E+00
    0.11243E-01        -0.50493E-01         0.00000E+00
    0.11469E-01        -0.51131E-01         0.00000E+00
    0.11706E-01        -0.51791E-01         0.00000E+00
    0.11952E-01        -0.52476E-01         0.00000E+00
    0.12206E-01        -0.53186E-01         0.00000E+00
    0.12465E-01        -0.53925E-01         0.00000E+00
    0.12729E-01        -0.54695E-01         0.00000E+00
    0.12994E-01        -0.55498E-01         0.00000E+00
    0.13259E-01        -0.56337E-01         0.00000E+00
    0.13520E-01        -0.57214E-01         0.00000E+00
    0.13773E-01        -0.58133E-01         0.00000E+00
    0.14014E-01        -0.59097E-01         0.00000E+00
    0.14239E-01        -0.60108E-01         0.00000E+00
    0.14442E-01        -0.61171E-01         0.00000E+00
    0.14617E-01        -0.62288E-01         0.00000E+00
    0.14757E-01        -0.63462E-01         0.00000E+00
    0.14854E-01        -0.64697E-01         0.00000E+00
    0.14898E-01        -0.65995E-01         0.00000E+00
    0.14881E-01        -0.67357E-01         0.00000E+00
    0.14789E-01        -0.68785E-01         0.00000E+00
    0.14612E-01        -0.70278E-01         0.00000E+00
    0.14334E-01        -0.71833E-01         0.00000E+00
    0.13940E-01        -0.73444E-01         0.00000E+00
    0.13414E-01        -0.75102E-01         0.00000E+00
    0.12740E-01        -0.76793E-01         0.00000E+00
    0.11897E-01        -0.78497E-01         0.00000E+00
    0.10869E-01        -0.80183E-01         0.00000E+00
    0.96388E-02        -0.81815E-01         0.00000E+00
    0.81901E-02        -0.83339E-01         0.00000E+00
    0.65117E-02        -0.84688E-01         0.00000E+00
    0.45955E-02        -0.85773E-01         0.00000E+00
    0.24320E-02        -0.86490E-01         0.00000E+00
    0.00000E+00        -0.86743E-01         0.00000E+00
    0.00000E+00         0.16890E-01         0.00000E+00
    0.32617E-02         0.16540E-01         0.00000E+00
    0.61671E-02         0.15553E-01         0.00000E+00
    0.87399E-02         0.14068E-01         0.00000E+00
    0.10989E-01         0.12232E-01         0.00000E+00
    0.12922E-01         0.10166E-01         0.00000E+00
    0.14557E-01         0.79616E-02         0.00000E+00
    0.15913E-01         0.56870E-02         0.00000E+00
    0.17016E-01         0.33942E-02         0.00000E+00
    0.17889E-01         0.11212E-02         0.00000E+00
    0.18558E-01        -0.11050E-02         0.00000E+00
    0.19048E-01        -0.32654E-02         0.00000E+00
    0.19380E-01        -0.53477E-02         0.00000E+00
    0.19576E-01        -0.73444E-02         0.00000E+00
    0.19655E-01        -0.92520E-02         0.00000E+00
    0.19634E-01        -0.11069E-01         0.00000E+00
    0.19528E-01        -0.12798E-01         0.00000E+00
    0.19351E-01        -0.14439E-01         0.00000E+00
    0.19115E-01        -0.15998E-01         0.00000E+00
    0.18831E-01        -0.17477E-01         0.00000E+00
    0.18509E-01        -0.18880E-01         0.00000E+00
    0.18157E-01        -0.20213E-01         0.00000E+00
    0.17781E-01        -0.21479E-01         0.00000E+00
    0.17389E-01        -0.22683E-01         0.00000E+00
    0.16986E-01        -0.23828E-01         0.00000E+00
    0.16575E-01        -0.24919E-01         0.00000E+00
    0.16162E-01        -0.25959E-01         0.00000E+00
    0.15750E-01        -0.26951E-01         0.00000E+00
    0.15341E-01        -0.27899E-01         0.00000E+00
    0.14939E-01        -0.28806E-01         0.00000E+00
    0.14545E-01        -0.29675E-01         0.00000E+00
    0.14161E-01        -0.30508E-01         0.00000E+00
    0.13789E-01        -0.31308E-01         0.00000E+00
    0.13430E-01        -0.32077E-01         0.00000E+00
    0.13084E-01        -0.32817E-01         0.00000E+00
    0.12754E-01        -0.33530E-01         0.00000E+00
    0.12439E-01        -0.34219E-01         0.00000E+00
    0.12141E-01        -0.34885E-01         0.00000E+00
    0.11859E-01        -0.35530E-01         0.00000E+00
    0.11594E-01        -0.36155E-01         0.00000E+00
    0.11346E-01        -0.36763E-01         0.00000E+00
    0.11116E-01        -0.37354E-01         0.00000E+00
    0.10904E-01        -0.37930E-01         0.00000E+00
    0.10709E-01        -0.38493E-01         0.00000E+00
    0.10532E-01        -0.39044E-01         0.00000E+00
    0.10373E-01        -0.39584E-01         0.00000E+00
    0.10232E-01        -0.40115E-01         0.00000E+00
    0.10109E-01        -0.40638E-01         0.00000E+00
    0.10003E-01        -0.41153E-01         0.00000E+00
    0.99159E-02        -0.41663E-01         0.00000E+00
    0.98461E-02        -0.42168E-01         0.00000E+00
    0.97940E-02        -0.42670E-01         0.00000E+00
    0.97594E-02        -0.43170E-01         0.00000E+00
    0.97423E-02        -0.43669E-01         0.00000E+00
    0.97427E-02        -0.44168E-01         0.00000E+00
    0.97603E-02        -0.44668E-01         0.00000E+00
    0.97951E-02        -0.45171E-01         0.00000E+00
    0.98469E-02        -0.45678E-01         0.00000E+00
    0.99156E-02        -0.46189E-01         0.00000E+00
    0.10001E-01        -0.46707E-01         0.00000E+00
    0.10103E-01        -0.47232E-01         0.00000E+00
    0.10221E-01        -0.47766E-01         0.00000E+00
    0.10355E-01        -0.48310E-01         0.00000E+00
    0.10505E-01        -0.48865E-01         0.00000E+00
    0.10669E-01        -0.49433E-01         0.00000E+00
    0.10849E-01        -0.50015E-01         0.00000E+00
    0.11043E-01        -0.50613E-01         0.00000E+00
    0.11250E-01        -0.51229E-01         0.00000E+00
    0.11470E-01        -0.51863E-01         0.00000E+00
    0.11702E-01        -0.52519E-01         0.00000E+00
    0.11945E-01        -0.53197E-01         0.00000E+00
    0.12197E-01        -0.53900E-01         0.00000E+00
    0.12458E-01        -0.54629E-01         0.00000E+00
    0.12725E-01        -0.55388E-01         0.00000E+00
    0.12996E-01        -0.56178E-01         0.00000E+00
    0.13270E-01        -0.57002E-01         0.00000E+00
    0.13543E-01        -0.57863E-01         0.00000E+00
    0.13812E-01        -0.58763E-01         0.00000E+00
    0.14073E-01        -0.59706E-01         0.00000E+00
    0.14324E-01        -0.60694E-01         0.00000E+00
    0.14558E-01        -0.61732E-01         0.00000E+00
    0.14770E-01        -0.62821E-01         0.00000E+00
    0.14953E-01        -0.63966E-01         0.00000E+00
    0.15102E-01        -0.65169E-01         0.00000E+00
    0.15207E-01        -0.66435E-01         0.00000E+00
    0.15259E-01        -0.67764E-01         0.00000E+00
    0.15247E-01        -0.69160E-01         0.00000E+00
    0.15160E-01        -0.70623E-01         0.00000E+00
    0.14985E-01        -0.72152E-01         0.00000E+00
    0.14707E-01        -0.73745E-01         0.00000E+00
    0.14311E-01        -0.75396E-01         0.00000E+00
    0.13778E-01        -0.77095E-01         0.00000E+00
    0.13091E-01        -0.78829E-01         0.00000E+00
    0.12231E-01        -0.80576E-01         0.00000E+00
    0.11179E-01        -0.82309E-01         0.00000E+00
    0.99156E-02        -0.83987E-01         0.00000E+00
    0.84257E-02        -0.85560E-01         0.00000E+00
    0.66972E-02        -0.86956E-01         0.00000E+00
    0.47230E-02        -0.88085E-01         0.00000E+00
    0.24966E-02        -0.88835E-01         0.00000E+00
    0.00000E+00        -0.89101E-01         0.00000E+00
    0.00000E+00         0.17359E-01         0.00000E+00
    0.33506E-02         0.16991E-01         0.00000E+00
    0.63421E-02         0.15956E-01         0.00000E+00
    0.89931E-02         0.14411E-01         0.00000E+00
    0.11308E-01         0.12513E-01         0.00000E+00
    0.13295E-01         0.10383E-01         0.00000E+00
    0.14971E-01         0.81165E-02         0.00000E+00
    0.16358E-01         0.57817E-02         0.00000E+00
    0.17482E-01         0.34309E-02         0.00000E+00
    0.18369E-01         0.11019E-02         0.00000E+00
    0.19046E-01        -0.11780E-02         0.00000E+00
    0.19538E-01        -0.33899E-02         0.00000E+00
    0.19868E-01        -0.55215E-02         0.00000E+00
    0.20059E-01        -0.75653E-02         0.00000E+00
    0.20130E-01        -0.95180E-02         0.00000E+00
    0.20098E-01        -0.11378E-01         0.00000E+00
    0.19981E-01        -0.13148E-01         0.00000E+00
    0.19792E-01        -0.14829E-01         0.00000E+00
    0.19544E-01        -0.16425E-01         0.00000E+00
    0.19248E-01        -0.17940E-01         0.00000E+00
    0.18912E-01        -0.19377E-01         0.00000E+00
    0.18547E-01        -0.20743E-01         0.00000E+00
    0.18159E-01        -0.22041E-01         0.00000E+00
    0.17754E-01        -0.23274E-01         0.00000E+00
    0.17338E-01        -0.24448E-01         0.00000E+00
    0.16916E-01        -0.25567E-01         0.00000E+00
    0.16491E-01        -0.26633E-01         0.00000E+00
    0.16068E-01        -0.27651E-01         0.00000E+00
    0.15648E-01        -0.28624E-01         0.00000E+00
    0.15236E-01        -0.29555E-01         0.00000E+00
    0.14832E-01        -0.30446E-01         0.00000E+00
    0.14439E-01        -0.31301E-01         0.00000E+00
    0.14058E-01        -0.32122E-01         0.00000E+00
    0.13690E-01        -0.32911E-01         0.00000E+00
    0.13337E-01        -0.33671E-01         0.00000E+00
    0.13000E-01        -0.34404E-01         0.00000E+00
    0.12678E-01        -0.35111E-01         0.00000E+00
    0.12373E-01        -0.35795E-01         0.00000E+00
    0.12085E-01        -0.36457E-01         0.00000E+00
    0.11814E-01        -0.37099E-01         0.00000E+00
    0.11561E-01        -0.37723E-01         0.00000E+00
    0.11326E-01        -0.38330E-01         0.00000E+00
    0.11109E-01        -0.38922E-01         0.00000E+00
    0.10910E-01        -0.39501E-01         0.00000E+00
    0.10730E-01        -0.40067E-01         0.00000E+00
    0.10568E-01        -0.40621E-01         0.00000E+00
    0.10424E-01        -0.41167E-01         0.00000E+00
    0.10298E-01        -0.41703E-01         0.00000E+00
    0.10191E-01        -0.42233E-01         0.00000E+00
    0.10101E-01        -0.42757E-01         0.00000E+00
    0.10030E-01        -0.43276E-01         0.00000E+00
    0.99771E-02        -0.43792E-01         0.00000E+00
    0.99419E-02        -0.44305E-01         0.00000E+00
    0.99246E-02        -0.44818E-01         0.00000E+00
    0.99250E-02        -0.45331E-01         0.00000E+00
    0.99431E-02        -0.45845E-01         0.00000E+00
    0.99787E-02        -0.46361E-01         0.00000E+00
    0.10032E-01        -0.46882E-01         0.00000E+00
    0.10102E-01        -0.47407E-01         0.00000E+00
    0.10189E-01        -0.47939E-01         0.00000E+00
    0.10293E-01        -0.48478E-01         0.00000E+00
    0.10414E-01        -0.49026E-01         0.00000E+00
    0.10551E-01        -0.49585E-01         0.00000E+00
    0.10704E-01        -0.50155E-01         0.00000E+00
    0.10873E-01        -0.50738E-01         0.00000E+00
    0.11057E-01        -0.51336E-01         0.00000E+00
    0.11255E-01        -0.51950E-01         0.00000E+00
    0.11467E-01        -0.52582E-01         0.00000E+00
    0.11693E-01        -0.53234E-01         0.00000E+00
    0.11931E-01        -0.53907E-01         0.00000E+00
    0.12180E-01        -0.54603E-01         0.00000E+00
    0.12439E-01        -0.55324E-01         0.00000E+00
    0.12706E-01        -0.56073E-01         0.00000E+00
    0.12980E-01        -0.56851E-01         0.00000E+00
    0.13259E-01        -0.57662E-01         0.00000E+00
    0.13541E-01        -0.58507E-01         0.00000E+00
    0.13822E-01        -0.59390E-01         0.00000E+00
    0.14100E-01        -0.60313E-01         0.00000E+00
    0.14370E-01        -0.61279E-01         0.00000E+00
    0.14630E-01        -0.62292E-01         0.00000E+00
    0.14873E-01        -0.63355E-01         0.00000E+00
    0.15094E-01        -0.64471E-01         0.00000E+00
    0.15287E-01        -0.65643E-01         0.00000E+00
    0.15445E-01        -0.66876E-01         0.00000E+00
    0.15558E-01        -0.68172E-01         0.00000E+00
    0.15618E-01        -0.69533E-01         0.00000E+00
    0.15613E-01        -0.70962E-01         0.00000E+00
    0.15532E-01        -0.72460E-01         0.00000E+00
    0.15360E-01        -0.74025E-01         0.00000E+00
    0.15083E-01        -0.75655E-01         0.00000E+00
    0.14685E-01        -0.77346E-01         0.00000E+00
    0.14146E-01        -0.79086E-01         0.00000E+00
    0.13448E-01        -0.80862E-01         0.00000E+00
    0.12572E-01        -0.82654E-01         0.00000E+00
    0.11495E-01        -0.84433E-01         0.00000E+00
    0.10201E-01        -0.86158E-01         0.00000E+00
    0.86698E-02        -0.87779E-01         0.00000E+00
    0.68906E-02        -0.89223E-01         0.00000E+00
    0.48566E-02        -0.90398E-01         0.00000E+00
    0.25644E-02        -0.91184E-01         0.00000E+00
    0.00000E+00        -0.91464E-01         0.00000E+00
    0.00000E+00         0.17834E-01         0.00000E+00
    0.34445E-02         0.17445E-01         0.00000E+00
    0.65263E-02         0.16361E-01         0.00000E+00
    0.92581E-02         0.14754E-01         0.00000E+00
    0.11640E-01         0.12791E-01         0.00000E+00
    0.13680E-01         0.10598E-01         0.00000E+00
    0.15396E-01         0.82691E-02         0.00000E+00
    0.16813E-01         0.58742E-02         0.00000E+00
    0.17956E-01         0.34654E-02         0.00000E+00
    0.18855E-01         0.10806E-02         0.00000E+00
    0.19538E-01        -0.12528E-02         0.00000E+00
    0.20030E-01        -0.35159E-02         0.00000E+00
    0.20357E-01        -0.56965E-02         0.00000E+00
    0.20542E-01        -0.77874E-02         0.00000E+00
    0.20604E-01        -0.97848E-02         0.00000E+00
    0.20562E-01        -0.11688E-01         0.00000E+00
    0.20433E-01        -0.13499E-01         0.00000E+00
    0.20231E-01        -0.15219E-01         0.00000E+00
    0.19970E-01        -0.16852E-01         0.00000E+00
    0.19660E-01        -0.18403E-01         0.00000E+00
    0.19311E-01        -0.19875E-01         0.00000E+00
    0.18933E-01        -0.21273E-01         0.00000E+00
    0.18531E-01        -0.22602E-01         0.00000E+00
    0.18113E-01        -0.23866E-01         0.00000E+00
    0.17685E-01        -0.25069E-01         0.00000E+00
    0.17251E-01        -0.26215E-01         0.00000E+00
    0.16815E-01        -0.27308E-01         0.00000E+00
    0.16380E-01        -0.28352E-01         0.00000E+00
    0.15950E-01        -0.29349E-01         0.00000E+00
    0.15527E-01        -0.30303E-01         0.00000E+00
    0.15114E-01        -0.31217E-01         0.00000E+00
    0.14712E-01        -0.32094E-01         0.00000E+00
    0.14322E-01        -0.32936E-01         0.00000E+00
    0.13946E-01        -0.33746E-01         0.00000E+00
    0.13585E-01        -0.34525E-01         0.00000E+00
    0.13240E-01        -0.35277E-01         0.00000E+00
    0.12911E-01        -0.36003E-01         0.00000E+00
    0.12600E-01        -0.36704E-01         0.00000E+00
    0.12305E-01        -0.37384E-01         0.00000E+00
    0.12029E-01        -0.38043E-01         0.00000E+00
    0.11771E-01        -0.38683E-01         0.00000E+00
    0.11531E-01        -0.39307E-01         0.00000E+00
    0.11310E-01        -0.39914E-01         0.00000E+00
    0.11107E-01        -0.40508E-01         0.00000E+00
    0.10923E-01        -0.41089E-01         0.00000E+00
    0.10758E-01        -0.41658E-01         0.00000E+00
    0.10611E-01        -0.42218E-01         0.00000E+00
    0.10483E-01        -0.42769E-01         0.00000E+00
    0.10374E-01        -0.43313E-01         0.00000E+00
    0.10283E-01        -0.43851E-01         0.00000E+00
    0.10210E-01        -0.44384E-01         0.00000E+00
    0.10156E-01        -0.44913E-01         0.00000E+00
    0.10120E-01        -0.45441E-01         0.00000E+00
    0.10103E-01        -0.45967E-01         0.00000E+00
    0.10103E-01        -0.46493E-01         0.00000E+00
    0.10122E-01        -0.47021E-01         0.00000E+00
    0.10158E-01        -0.47551E-01         0.00000E+00
    0.10212E-01        -0.48085E-01         0.00000E+00
    0.10284E-01        -0.48625E-01         0.00000E+00
    0.10373E-01        -0.49171E-01         0.00000E+00
    0.10480E-01        -0.49724E-01         0.00000E+00
    0.10603E-01        -0.50287E-01         0.00000E+00
    0.10743E-01        -0.50860E-01         0.00000E+00
    0.10900E-01        -0.51445E-01         0.00000E+00
    0.11072E-01        -0.52044E-01         0.00000E+00
    0.11260E-01        -0.52658E-01         0.00000E+00
    0.11463E-01        -0.53288E-01         0.00000E+00
    0.11680E-01        -0.53936E-01         0.00000E+00
    0.11911E-01        -0.54604E-01         0.00000E+00
    0.12155E-01        -0.55294E-01         0.00000E+00
    0.12410E-01        -0.56008E-01         0.00000E+00
    0.12675E-01        -0.56748E-01         0.00000E+00
    0.12950E-01        -0.57516E-01         0.00000E+00
    0.13231E-01        -0.58314E-01         0.00000E+00
    0.13518E-01        -0.59145E-01         0.00000E+00
    0.13807E-01        -0.60011E-01         0.00000E+00
    0.14097E-01        -0.60916E-01         0.00000E+00
    0.14384E-01        -0.61862E-01         0.00000E+00
    0.14663E-01        -0.62852E-01         0.00000E+00
    0.14932E-01        -0.63889E-01         0.00000E+00
    0.15185E-01        -0.64978E-01         0.00000E+00
    0.15416E-01        -0.66120E-01         0.00000E+00
    0.15619E-01        -0.67321E-01         0.00000E+00
    0.15785E-01        -0.68582E-01         0.00000E+00
    0.15908E-01        -0.69908E-01         0.00000E+00
    0.15976E-01        -0.71301E-01         0.00000E+00
    0.15979E-01        -0.72763E-01         0.00000E+00
    0.15904E-01        -0.74295E-01         0.00000E+00
    0.15737E-01        -0.75897E-01         0.00000E+00
    0.15462E-01        -0.77565E-01         0.00000E+00
    0.15062E-01        -0.79294E-01         0.00000E+00
    0.14519E-01        -0.81075E-01         0.00000E+00
    0.13811E-01        -0.82894E-01         0.00000E+00
    0.12919E-01        -0.84731E-01         0.00000E+00
    0.11821E-01        -0.86555E-01         0.00000E+00
    0.10495E-01        -0.88328E-01         0.00000E+00
    0.89234E-02        -0.89996E-01         0.00000E+00
    0.70928E-02        -0.91490E-01         0.00000E+00
    0.49971E-02        -0.92711E-01         0.00000E+00
    0.26361E-02        -0.93536E-01         0.00000E+00
    0.00000E+00        -0.93831E-01         0.00000E+00
    0.00000E+00         0.18315E-01         0.00000E+00
    0.35443E-02         0.17905E-01         0.00000E+00
    0.67211E-02         0.16768E-01         0.00000E+00
    0.95362E-02         0.15097E-01         0.00000E+00
    0.11986E-01         0.13068E-01         0.00000E+00
    0.14079E-01         0.10811E-01         0.00000E+00
    0.15834E-01         0.84196E-02         0.00000E+00
    0.17277E-01         0.59646E-02         0.00000E+00
    0.18439E-01         0.34978E-02         0.00000E+00
    0.19349E-01         0.10575E-02         0.00000E+00
    0.20035E-01        -0.13292E-02         0.00000E+00
    0.20527E-01        -0.36434E-02         0.00000E+00
    0.20849E-01        -0.58729E-02         0.00000E+00
    0.21026E-01        -0.80104E-02         0.00000E+00
    0.21078E-01        -0.10053E-01         0.00000E+00
    0.21025E-01        -0.11999E-01         0.00000E+00
    0.20883E-01        -0.13850E-01         0.00000E+00
    0.20668E-01        -0.15609E-01         0.00000E+00
    0.20393E-01        -0.17280E-01         0.00000E+00
    0.20069E-01        -0.18866E-01         0.00000E+00
    0.19706E-01        -0.20372E-01         0.00000E+00
    0.19314E-01        -0.21804E-01         0.00000E+00
    0.18899E-01        -0.23164E-01         0.00000E+00
    0.18468E-01        -0.24458E-01         0.00000E+00
    0.18027E-01        -0.25689E-01         0.00000E+00
    0.17581E-01        -0.26863E-01         0.00000E+00
    0.17133E-01        -0.27983E-01         0.00000E+00
    0.16687E-01        -0.29052E-01         0.00000E+00
    0.16246E-01        -0.30074E-01         0.00000E+00
    0.15813E-01        -0.31051E-01         0.00000E+00
    0.15390E-01        -0.31988E-01         0.00000E+00
    0.14979E-01        -0.32887E-01         0.00000E+00
    0.14580E-01        -0.33750E-01         0.00000E+00
    0.14196E-01        -0.34580E-01         0.00000E+00
    0.13828E-01        -0.35379E-01         0.00000E+00
    0.13475E-01        -0.36150E-01         0.00000E+00
    0.13140E-01        -0.36894E-01         0.00000E+00
    0.12822E-01        -0.37614E-01         0.00000E+00
    0.12522E-01        -0.38310E-01         0.00000E+00
    0.12240E-01        -0.38987E-01         0.00000E+00
    0.11977E-01        -0.39643E-01         0.00000E+00
    0.11732E-01        -0.40283E-01         0.00000E+00
    0.11506E-01        -0.40906E-01         0.00000E+00
    0.11300E-01        -0.41515E-01         0.00000E+00
    0.11112E-01        -0.42111E-01         0.00000E+00
    0.10944E-01        -0.42695E-01         0.00000E+00
    0.10794E-01        -0.43270E-01         0.00000E+00
    0.10664E-01        -0.43835E-01         0.00000E+00
    0.10552E-01        -0.44393E-01         0.00000E+00
    0.10459E-01        -0.44945E-01         0.00000E+00
    0.10386E-01        -0.45491E-01         0.00000E+00
    0.10331E-01        -0.46035E-01         0.00000E+00
    0.10294E-01        -0.46576E-01         0.00000E+00
    0.10276E-01        -0.47115E-01         0.00000E+00
    0.10277E-01        -0.47655E-01         0.00000E+00
    0.10296E-01        -0.48197E-01         0.00000E+00
    0.10333E-01        -0.48741E-01         0.00000E+00
    0.10389E-01        -0.49289E-01         0.00000E+00
    0.10462E-01        -0.49842E-01         0.00000E+00
    0.10553E-01        -0.50402E-01         0.00000E+00
    0.10662E-01        -0.50970E-01         0.00000E+00
    0.10788E-01        -0.51548E-01         0.00000E+00
    0.10931E-01        -0.52136E-01         0.00000E+00
    0.11091E-01        -0.52736E-01         0.00000E+00
    0.11267E-01        -0.53350E-01         0.00000E+00
    0.11459E-01        -0.53979E-01         0.00000E+00
    0.11667E-01        -0.54625E-01         0.00000E+00
    0.11889E-01        -0.55290E-01         0.00000E+00
    0.12125E-01        -0.55975E-01         0.00000E+00
    0.12374E-01        -0.56682E-01         0.00000E+00
    0.12636E-01        -0.57414E-01         0.00000E+00
    0.12908E-01        -0.58172E-01         0.00000E+00
    0.13189E-01        -0.58959E-01         0.00000E+00
    0.13478E-01        -0.59777E-01         0.00000E+00
    0.13772E-01        -0.60628E-01         0.00000E+00
    0.14070E-01        -0.61516E-01         0.00000E+00
    0.14368E-01        -0.62442E-01         0.00000E+00
    0.14664E-01        -0.63411E-01         0.00000E+00
    0.14953E-01        -0.64424E-01         0.00000E+00
    0.15231E-01        -0.65486E-01         0.00000E+00
    0.15493E-01        -0.66600E-01         0.00000E+00
    0.15734E-01        -0.67770E-01         0.00000E+00
    0.15947E-01        -0.68998E-01         0.00000E+00
    0.16124E-01        -0.70289E-01         0.00000E+00
    0.16256E-01        -0.71645E-01         0.00000E+00
    0.16333E-01        -0.73069E-01         0.00000E+00
    0.16344E-01        -0.74564E-01         0.00000E+00
    0.16276E-01        -0.76130E-01         0.00000E+00
    0.16115E-01        -0.77767E-01         0.00000E+00
    0.15843E-01        -0.79473E-01         0.00000E+00
    0.15443E-01        -0.81241E-01         0.00000E+00
    0.14896E-01        -0.83063E-01         0.00000E+00
    0.14181E-01        -0.84925E-01         0.00000E+00
    0.13274E-01        -0.86805E-01         0.00000E+00
    0.12154E-01        -0.88675E-01         0.00000E+00
    0.10799E-01        -0.90496E-01         0.00000E+00
    0.91872E-02        -0.92213E-01         0.00000E+00
    0.73049E-02        -0.93756E-01         0.00000E+00
    0.51457E-02        -0.95027E-01         0.00000E+00
    0.27122E-02        -0.95891E-01         0.00000E+00
    0.00000E+00        -0.96203E-01         0.00000E+00
    0.00000E+00         0.18804E-01         0.00000E+00
    0.36509E-02         0.18369E-01         0.00000E+00
    0.69280E-02         0.17175E-01         0.00000E+00
    0.98290E-02         0.15439E-01         0.00000E+00
    0.12347E-01         0.13344E-01         0.00000E+00
    0.14491E-01         0.11022E-01         0.00000E+00
    0.16283E-01         0.85681E-02         0.00000E+00
    0.17753E-01         0.60530E-02         0.00000E+00
    0.18931E-01         0.35285E-02         0.00000E+00
    0.19849E-01         0.10327E-02         0.00000E+00
    0.20538E-01        -0.14071E-02         0.00000E+00
    0.21027E-01        -0.37722E-02         0.00000E+00
    0.21343E-01        -0.60503E-02         0.00000E+00
    0.21511E-01        -0.82344E-02         0.00000E+00
    0.21552E-01        -0.10321E-01         0.00000E+00
    0.21486E-01        -0.12310E-01         0.00000E+00
    0.21331E-01        -0.14202E-01         0.00000E+00
    0.21102E-01        -0.16000E-01         0.00000E+00
    0.20812E-01        -0.17708E-01         0.00000E+00
    0.20474E-01        -0.19330E-01         0.00000E+00
    0.20097E-01        -0.20870E-01         0.00000E+00
    0.19690E-01        -0.22334E-01         0.00000E+00
    0.19262E-01        -0.23725E-01         0.00000E+00
    0.18818E-01        -0.25049E-01         0.00000E+00
    0.18364E-01        -0.26310E-01         0.00000E+00
    0.17905E-01        -0.27511E-01         0.00000E+00
    0.17446E-01        -0.28657E-01         0.00000E+00
    0.16989E-01        -0.29752E-01         0.00000E+00
    0.16537E-01        -0.30798E-01         0.00000E+00
    0.16094E-01        -0.31799E-01         0.00000E+00
    0.15661E-01        -0.32759E-01         0.00000E+00
    0.15241E-01        -0.33679E-01         0.00000E+00
    0.14834E-01        -0.34564E-01         0.00000E+00
    0.14441E-01        -0.35414E-01         0.00000E+00
    0.14065E-01        -0.36233E-01         0.00000E+00
    0.13705E-01        -0.37023E-01         0.00000E+00
    0.13363E-01        -0.37785E-01         0.00000E+00
    0.13039E-01        -0.38523E-01         0.00000E+00
    0.12733E-01        -0.39237E-01         0.00000E+00
    0.12445E-01        -0.39930E-01         0.00000E+00
    0.12177E-01        -0.40603E-01         0.00000E+00
    0.11928E-01        -0.41259E-01         0.00000E+00
    0.11698E-01        -0.41898E-01         0.00000E+00
    0.11488E-01        -0.42522E-01         0.00000E+00
    0.11297E-01        -0.43133E-01         0.00000E+00
    0.11125E-01        -0.43732E-01         0.00000E+00
    0.10973E-01        -0.44321E-01         0.00000E+00
    0.10840E-01        -0.44901E-01         0.00000E+00
    0.10726E-01        -0.45473E-01         0.00000E+00
    0.10632E-01        -0.46038E-01         0.00000E+00
    0.10557E-01        -0.46599E-01         0.00000E+00
    0.10501E-01        -0.47156E-01         0.00000E+00
    0.10464E-01        -0.47711E-01         0.00000E+00
    0.10446E-01        -0.48264E-01         0.00000E+00
    0.10447E-01        -0.48818E-01         0.00000E+00
    0.10466E-01        -0.49373E-01         0.00000E+00
    0.10505E-01        -0.49931E-01         0.00000E+00
    0.10561E-01        -0.50493E-01         0.00000E+00
    0.10636E-01        -0.51060E-01         0.00000E+00
    0.10729E-01        -0.51634E-01         0.00000E+00
    0.10840E-01        -0.52217E-01         0.00000E+00
    0.10969E-01        -0.52808E-01         0.00000E+00
    0.11115E-01        -0.53411E-01         0.00000E+00
    0.11278E-01        -0.54026E-01         0.00000E+00
    0.11458E-01        -0.54655E-01         0.00000E+00
    0.11654E-01        -0.55300E-01         0.00000E+00
    0.11866E-01        -0.55963E-01         0.00000E+00
    0.12093E-01        -0.56644E-01         0.00000E+00
    0.12335E-01        -0.57346E-01         0.00000E+00
    0.12589E-01        -0.58071E-01         0.00000E+00
    0.12857E-01        -0.58820E-01         0.00000E+00
    0.13135E-01        -0.59597E-01         0.00000E+00
    0.13424E-01        -0.60403E-01         0.00000E+00
    0.13720E-01        -0.61240E-01         0.00000E+00
    0.14022E-01        -0.62112E-01         0.00000E+00
    0.14328E-01        -0.63020E-01         0.00000E+00
    0.14635E-01        -0.63969E-01         0.00000E+00
    0.14939E-01        -0.64960E-01         0.00000E+00
    0.15238E-01        -0.65997E-01         0.00000E+00
    0.15526E-01        -0.67084E-01         0.00000E+00
    0.15799E-01        -0.68223E-01         0.00000E+00
    0.16050E-01        -0.69419E-01         0.00000E+00
    0.16273E-01        -0.70675E-01         0.00000E+00
    0.16460E-01        -0.71994E-01         0.00000E+00
    0.16603E-01        -0.73381E-01         0.00000E+00
    0.16690E-01        -0.74836E-01         0.00000E+00
    0.16710E-01        -0.76364E-01         0.00000E+00
    0.16650E-01        -0.77964E-01         0.00000E+00
    0.16494E-01        -0.79637E-01         0.00000E+00
    0.16227E-01        -0.81380E-01         0.00000E+00
    0.15829E-01        -0.83188E-01         0.00000E+00
    0.15280E-01        -0.85050E-01         0.00000E+00
    0.14557E-01        -0.86954E-01         0.00000E+00
    0.13638E-01        -0.88878E-01         0.00000E+00
    0.12498E-01        -0.90794E-01         0.00000E+00
    0.11113E-01        -0.92662E-01         0.00000E+00
    0.94625E-02        -0.94429E-01         0.00000E+00
    0.75282E-02        -0.96022E-01         0.00000E+00
    0.53034E-02        -0.97343E-01         0.00000E+00
    0.27934E-02        -0.98250E-01         0.00000E+00
    0.00000E+00        -0.98580E-01         0.00000E+00
    0.00000E+00         0.19300E-01         0.00000E+00
    0.37655E-02         0.18838E-01         0.00000E+00
    0.71489E-02         0.17584E-01         0.00000E+00
    0.10138E-01         0.15780E-01         0.00000E+00
    0.12724E-01         0.13618E-01         0.00000E+00
    0.14919E-01         0.11231E-01         0.00000E+00
    0.16747E-01         0.87148E-02         0.00000E+00
    0.18240E-01         0.61395E-02         0.00000E+00
    0.19433E-01         0.35573E-02         0.00000E+00
    0.20357E-01         0.10063E-02         0.00000E+00
    0.21047E-01        -0.14864E-02         0.00000E+00
    0.21532E-01        -0.39022E-02         0.00000E+00
    0.21840E-01        -0.62288E-02         0.00000E+00
    0.21997E-01        -0.84593E-02         0.00000E+00
    0.22026E-01        -0.10590E-01         0.00000E+00
    0.21947E-01        -0.12621E-01         0.00000E+00
    0.21777E-01        -0.14554E-01         0.00000E+00
    0.21533E-01        -0.16391E-01         0.00000E+00
    0.21228E-01        -0.18136E-01         0.00000E+00
    0.20875E-01        -0.19793E-01         0.00000E+00
    0.20484E-01        -0.21368E-01         0.00000E+00
    0.20063E-01        -0.22864E-01         0.00000E+00
    0.19620E-01        -0.24287E-01         0.00000E+00
    0.19163E-01        -0.25641E-01         0.00000E+00
    0.18696E-01        -0.26930E-01         0.00000E+00
    0.18225E-01        -0.28159E-01         0.00000E+00
    0.17753E-01        -0.29332E-01         0.00000E+00
    0.17285E-01        -0.30451E-01         0.00000E+00
    0.16823E-01        -0.31522E-01         0.00000E+00
    0.16370E-01        -0.32547E-01         0.00000E+00
    0.15927E-01        -0.33529E-01         0.00000E+00
    0.15497E-01        -0.34472E-01         0.00000E+00
    0.15081E-01        -0.35377E-01         0.00000E+00
    0.14681E-01        -0.36248E-01         0.00000E+00
    0.14297E-01        -0.37087E-01         0.00000E+00
    0.13930E-01        -0.37895E-01         0.00000E+00
    0.13581E-01        -0.38676E-01         0.00000E+00
    0.13251E-01        -0.39432E-01         0.00000E+00
    0.12939E-01        -0.40163E-01         0.00000E+00
    0.12646E-01        -0.40873E-01         0.00000E+00
    0.12373E-01        -0.41563E-01         0.00000E+00
    0.12119E-01        -0.42235E-01         0.00000E+00
    0.11885E-01        -0.42889E-01         0.00000E+00
    0.11671E-01        -0.43529E-01         0.00000E+00
    0.11476E-01        -0.44155E-01         0.00000E+00
    0.11302E-01        -0.44769E-01         0.00000E+00
    0.11147E-01        -0.45372E-01         0.00000E+00
    0.11012E-01        -0.45966E-01         0.00000E+00
    0.10896E-01        -0.46552E-01         0.00000E+00
    0.10800E-01        -0.47132E-01         0.00000E+00
    0.10724E-01        -0.47707E-01         0.00000E+00
    0.10667E-01        -0.48277E-01         0.00000E+00
    0.10630E-01        -0.48846E-01         0.00000E+00
    0.10611E-01        -0.49413E-01         0.00000E+00
    0.10612E-01        -0.49980E-01         0.00000E+00
    0.10632E-01        -0.50549E-01         0.00000E+00
    0.10671E-01        -0.51121E-01         0.00000E+00
    0.10729E-01        -0.51697E-01         0.00000E+00
    0.10806E-01        -0.52278E-01         0.00000E+00
    0.10900E-01        -0.52866E-01         0.00000E+00
    0.11014E-01        -0.53463E-01         0.00000E+00
    0.11145E-01        -0.54069E-01         0.00000E+00
    0.11294E-01        -0.54687E-01         0.00000E+00
    0.11460E-01        -0.55317E-01         0.00000E+00
    0.11644E-01        -0.55961E-01         0.00000E+00
    0.11844E-01        -0.56622E-01         0.00000E+00
    0.12061E-01        -0.57300E-01         0.00000E+00
    0.12293E-01        -0.57998E-01         0.00000E+00
    0.12539E-01        -0.58717E-01         0.00000E+00
    0.12800E-01        -0.59459E-01         0.00000E+00
    0.13073E-01        -0.60226E-01         0.00000E+00
    0.13358E-01        -0.61021E-01         0.00000E+00
    0.13654E-01        -0.61846E-01         0.00000E+00
    0.13957E-01        -0.62703E-01         0.00000E+00
    0.14268E-01        -0.63595E-01         0.00000E+00
    0.14582E-01        -0.64525E-01         0.00000E+00
    0.14898E-01        -0.65495E-01         0.00000E+00
    0.15211E-01        -0.66509E-01         0.00000E+00
    0.15519E-01        -0.67570E-01         0.00000E+00
    0.15818E-01        -0.68681E-01         0.00000E+00
    0.16100E-01        -0.69846E-01         0.00000E+00
    0.16362E-01        -0.71068E-01         0.00000E+00
    0.16596E-01        -0.72352E-01         0.00000E+00
    0.16795E-01        -0.73700E-01         0.00000E+00
    0.16948E-01        -0.75116E-01         0.00000E+00
    0.17045E-01        -0.76603E-01         0.00000E+00
    0.17075E-01        -0.78163E-01         0.00000E+00
    0.17024E-01        -0.79798E-01         0.00000E+00
    0.16876E-01        -0.81507E-01         0.00000E+00
    0.16614E-01        -0.83286E-01         0.00000E+00
    0.16219E-01        -0.85133E-01         0.00000E+00
    0.15669E-01        -0.87036E-01         0.00000E+00
    0.14941E-01        -0.88982E-01         0.00000E+00
    0.14010E-01        -0.90950E-01         0.00000E+00
    0.12852E-01        -0.92912E-01         0.00000E+00
    0.11440E-01        -0.94827E-01         0.00000E+00
    0.97502E-02        -0.96643E-01         0.00000E+00
    0.77639E-02        -0.98287E-01         0.00000E+00
    0.54716E-02        -0.99659E-01         0.00000E+00
    0.28807E-02        -0.10061E+00         0.00000E+00
    0.00000E+00        -0.10096E+00         0.00000E+00
    0.00000E+00         0.19804E-01         0.00000E+00
    0.38897E-02         0.19311E-01         0.00000E+00
    0.73858E-02         0.17993E-01         0.00000E+00
    0.10466E-01         0.16120E-01         0.00000E+00
    0.13120E-01         0.13890E-01         0.00000E+00
    0.15363E-01         0.11438E-01         0.00000E+00
    0.17225E-01         0.88597E-02         0.00000E+00
    0.18740E-01         0.62244E-02         0.00000E+00
    0.19945E-01         0.35847E-02         0.00000E+00
    0.20874E-01         0.97847E-03         0.00000E+00
    0.21562E-01        -0.15670E-02         0.00000E+00
    0.22041E-01        -0.40333E-02         0.00000E+00
    0.22340E-01        -0.64083E-02         0.00000E+00
    0.22485E-01        -0.86850E-02         0.00000E+00
    0.22500E-01        -0.10860E-01         0.00000E+00
    0.22406E-01        -0.12934E-01         0.00000E+00
    0.22221E-01        -0.14907E-01         0.00000E+00
    0.21962E-01        -0.16782E-01         0.00000E+00
    0.21641E-01        -0.18564E-01         0.00000E+00
    0.21273E-01        -0.20257E-01         0.00000E+00
    0.20866E-01        -0.21866E-01         0.00000E+00
    0.20430E-01        -0.23395E-01         0.00000E+00
    0.19973E-01        -0.24849E-01         0.00000E+00
    0.19502E-01        -0.26232E-01         0.00000E+00
    0.19022E-01        -0.27550E-01         0.00000E+00
    0.18539E-01        -0.28807E-01         0.00000E+00
    0.18055E-01        -0.30006E-01         0.00000E+00
    0.17576E-01        -0.31151E-01         0.00000E+00
    0.17103E-01        -0.32246E-01         0.00000E+00
    0.16639E-01        -0.33295E-01         0.00000E+00
    0.16187E-01        -0.34300E-01         0.00000E+00
    0.15748E-01        -0.35264E-01         0.00000E+00
    0.15324E-01        -0.36191E-01         0.00000E+00
    0.14916E-01        -0.37082E-01         0.00000E+00
    0.14524E-01        -0.37940E-01         0.00000E+00
    0.14150E-01        -0.38768E-01         0.00000E+00
    0.13794E-01        -0.39567E-01         0.00000E+00
    0.13458E-01        -0.40341E-01         0.00000E+00
    0.13140E-01        -0.41090E-01         0.00000E+00
    0.12842E-01        -0.41816E-01         0.00000E+00
    0.12564E-01        -0.42523E-01         0.00000E+00
    0.12306E-01        -0.43210E-01         0.00000E+00
    0.12068E-01        -0.43881E-01         0.00000E+00
    0.11850E-01        -0.44536E-01         0.00000E+00
    0.11652E-01        -0.45177E-01         0.00000E+00
    0.11474E-01        -0.45805E-01         0.00000E+00
    0.11316E-01        -0.46423E-01         0.00000E+00
    0.11179E-01        -0.47032E-01         0.00000E+00
    0.11062E-01        -0.47632E-01         0.00000E+00
    0.10964E-01        -0.48226E-01         0.00000E+00
    0.10887E-01        -0.48814E-01         0.00000E+00
    0.10829E-01        -0.49399E-01         0.00000E+00
    0.10791E-01        -0.49981E-01         0.00000E+00
    0.10772E-01        -0.50562E-01         0.00000E+00
    0.10774E-01        -0.51143E-01         0.00000E+00
    0.10794E-01        -0.51725E-01         0.00000E+00
    0.10834E-01        -0.52311E-01         0.00000E+00
    0.10893E-01        -0.52900E-01         0.00000E+00
    0.10971E-01        -0.53496E-01         0.00000E+00
    0.11068E-01        -0.54098E-01         0.00000E+00
    0.11183E-01        -0.54709E-01         0.00000E+00
    0.11317E-01        -0.55330E-01         0.00000E+00
    0.11469E-01        -0.55962E-01         0.00000E+00
    0.11639E-01        -0.56607E-01         0.00000E+00
    0.11826E-01        -0.57267E-01         0.00000E+00
    0.12030E-01        -0.57943E-01         0.00000E+00
    0.12251E-01        -0.58638E-01         0.00000E+00
    0.12488E-01        -0.59352E-01         0.00000E+00
    0.12740E-01        -0.60088E-01         0.00000E+00
    0.13006E-01        -0.60847E-01         0.00000E+00
    0.13286E-01        -0.61633E-01         0.00000E+00
    0.13577E-01        -0.62446E-01         0.00000E+00
    0.13879E-01        -0.63290E-01         0.00000E+00
    0.14191E-01        -0.64167E-01         0.00000E+00
    0.14509E-01        -0.65079E-01         0.00000E+00
    0.14831E-01        -0.66030E-01         0.00000E+00
    0.15156E-01        -0.67022E-01         0.00000E+00
    0.15479E-01        -0.68058E-01         0.00000E+00
    0.15797E-01        -0.69143E-01         0.00000E+00
    0.16105E-01        -0.70278E-01         0.00000E+00
    0.16399E-01        -0.71468E-01         0.00000E+00
    0.16672E-01        -0.72717E-01         0.00000E+00
    0.16917E-01        -0.74028E-01         0.00000E+00
    0.17126E-01        -0.75405E-01         0.00000E+00
    0.17291E-01        -0.76851E-01         0.00000E+00
    0.17400E-01        -0.78370E-01         0.00000E+00
    0.17440E-01        -0.79962E-01         0.00000E+00
    0.17399E-01        -0.81631E-01         0.00000E+00
    0.17260E-01        -0.83375E-01         0.00000E+00
    0.17004E-01        -0.85192E-01         0.00000E+00
    0.16613E-01        -0.87077E-01         0.00000E+00
    0.16064E-01        -0.89020E-01         0.00000E+00
    0.15332E-01        -0.91008E-01         0.00000E+00
    0.14392E-01        -0.93020E-01         0.00000E+00
    0.13217E-01        -0.95028E-01         0.00000E+00
    0.11779E-01        -0.96991E-01         0.00000E+00
    0.10052E-01        -0.98856E-01         0.00000E+00
    0.80134E-02        -0.10055E+00         0.00000E+00
    0.56521E-02        -0.10198E+00         0.00000E+00
    0.29753E-02        -0.10298E+00         0.00000E+00
    0.00000E+00        -0.10335E+00         0.00000E+00
    0.00000E+00         0.20316E-01         0.00000E+00
    0.40255E-02         0.19789E-01         0.00000E+00
    0.76413E-02         0.18403E-01         0.00000E+00
    0.10814E-01         0.16459E-01         0.00000E+00
    0.13535E-01         0.14162E-01         0.00000E+00
    0.15825E-01         0.11644E-01         0.00000E+00
    0.17719E-01         0.90031E-02         0.00000E+00
    0.19254E-01         0.63078E-02         0.00000E+00
    0.20468E-01         0.36106E-02         0.00000E+00
    0.21399E-01         0.94940E-03         0.00000E+00
    0.22084E-01        -0.16488E-02         0.00000E+00
    0.22555E-01        -0.41654E-02         0.00000E+00
    0.22843E-01        -0.65886E-02         0.00000E+00
    0.22975E-01        -0.89114E-02         0.00000E+00
    0.22975E-01        -0.11131E-01         0.00000E+00
    0.22865E-01        -0.13246E-01         0.00000E+00
    0.22664E-01        -0.15260E-01         0.00000E+00
    0.22388E-01        -0.17174E-01         0.00000E+00
    0.22051E-01        -0.18993E-01         0.00000E+00
    0.21666E-01        -0.20721E-01         0.00000E+00
    0.21244E-01        -0.22364E-01         0.00000E+00
    0.20793E-01        -0.23925E-01         0.00000E+00
    0.20322E-01        -0.25410E-01         0.00000E+00
    0.19837E-01        -0.26824E-01         0.00000E+00
    0.19344E-01        -0.28170E-01         0.00000E+00
    0.18847E-01        -0.29454E-01         0.00000E+00
    0.18352E-01        -0.30680E-01         0.00000E+00
    0.17861E-01        -0.31851E-01         0.00000E+00
    0.17377E-01        -0.32970E-01         0.00000E+00
    0.16904E-01        -0.34043E-01         0.00000E+00
    0.16442E-01        -0.35070E-01         0.00000E+00
    0.15994E-01        -0.36056E-01         0.00000E+00
    0.15561E-01        -0.37004E-01         0.00000E+00
    0.15145E-01        -0.37915E-01         0.00000E+00
    0.14746E-01        -0.38793E-01         0.00000E+00
    0.14365E-01        -0.39640E-01         0.00000E+00
    0.14002E-01        -0.40458E-01         0.00000E+00
    0.13660E-01        -0.41249E-01         0.00000E+00
    0.13336E-01        -0.42016E-01         0.00000E+00
    0.13033E-01        -0.42760E-01         0.00000E+00
    0.12750E-01        -0.43482E-01         0.00000E+00
    0.12487E-01        -0.44186E-01         0.00000E+00
    0.12245E-01        -0.44872E-01         0.00000E+00
    0.12024E-01        -0.45542E-01         0.00000E+00
    0.11822E-01        -0.46198E-01         0.00000E+00
    0.11642E-01        -0.46842E-01         0.00000E+00
    0.11482E-01        -0.47474E-01         0.00000E+00
    0.11342E-01        -0.48097E-01         0.00000E+00
    0.11223E-01        -0.48712E-01         0.00000E+00
    0.11124E-01        -0.49319E-01         0.00000E+00
    0.11045E-01        -0.49922E-01         0.00000E+00
    0.10986E-01        -0.50520E-01         0.00000E+00
    0.10948E-01        -0.51116E-01         0.00000E+00
    0.10929E-01        -0.51710E-01         0.00000E+00
    0.10930E-01        -0.52305E-01         0.00000E+00
    0.10951E-01        -0.52902E-01         0.00000E+00
    0.10992E-01        -0.53501E-01         0.00000E+00
    0.11052E-01        -0.54104E-01         0.00000E+00
    0.11132E-01        -0.54714E-01         0.00000E+00
    0.11230E-01        -0.55330E-01         0.00000E+00
    0.11348E-01        -0.55955E-01         0.00000E+00
    0.11484E-01        -0.56591E-01         0.00000E+00
    0.11639E-01        -0.57238E-01         0.00000E+00
    0.11812E-01        -0.57898E-01         0.00000E+00
    0.12003E-01        -0.58573E-01         0.00000E+00
    0.12211E-01        -0.59265E-01         0.00000E+00
    0.12437E-01        -0.59975E-01         0.00000E+00
    0.12678E-01        -0.60706E-01         0.00000E+00
    0.12936E-01        -0.61459E-01         0.00000E+00
    0.13207E-01        -0.62236E-01         0.00000E+00
    0.13493E-01        -0.63039E-01         0.00000E+00
    0.13791E-01        -0.63871E-01         0.00000E+00
    0.14100E-01        -0.64734E-01         0.00000E+00
    0.14419E-01        -0.65630E-01         0.00000E+00
    0.14745E-01        -0.66563E-01         0.00000E+00
    0.15076E-01        -0.67535E-01         0.00000E+00
    0.15410E-01        -0.68548E-01         0.00000E+00
    0.15742E-01        -0.69607E-01         0.00000E+00
    0.16070E-01        -0.70715E-01         0.00000E+00
    0.16389E-01        -0.71875E-01         0.00000E+00
    0.16694E-01        -0.73091E-01         0.00000E+00
    0.16978E-01        -0.74366E-01         0.00000E+00
    0.17235E-01        -0.75705E-01         0.00000E+00
    0.17456E-01        -0.77110E-01         0.00000E+00
    0.17633E-01        -0.78586E-01         0.00000E+00
    0.17753E-01        -0.80136E-01         0.00000E+00
    0.17806E-01        -0.81761E-01         0.00000E+00
    0.17775E-01        -0.83463E-01         0.00000E+00
    0.17646E-01        -0.85243E-01         0.00000E+00
    0.17398E-01        -0.87097E-01         0.00000E+00
    0.17013E-01        -0.89020E-01         0.00000E+00
    0.16466E-01        -0.91004E-01         0.00000E+00
    0.15732E-01        -0.93034E-01         0.00000E+00
    0.14784E-01        -0.95090E-01         0.00000E+00
    0.13594E-01        -0.97143E-01         0.00000E+00
    0.12131E-01        -0.99154E-01         0.00000E+00
    0.10368E-01        -0.10107E+00         0.00000E+00
    0.82784E-02        -0.10282E+00         0.00000E+00
    0.58466E-02        -0.10429E+00         0.00000E+00
    0.30787E-02        -0.10535E+00         0.00000E+00
    0.00000E+00        -0.10575E+00         0.00000E+00
    0.00000E+00         0.20837E-01         0.00000E+00
    0.41754E-02         0.20270E-01         0.00000E+00
    0.79182E-02         0.18812E-01         0.00000E+00
    0.11184E-01         0.16797E-01         0.00000E+00
    0.13971E-01         0.14431E-01         0.00000E+00
    0.16306E-01         0.11849E-01         0.00000E+00
    0.18229E-01         0.91451E-02         0.00000E+00
    0.19781E-01         0.63899E-02         0.00000E+00
    0.21002E-01         0.36353E-02         0.00000E+00
    0.21934E-01         0.91924E-03         0.00000E+00
    0.22612E-01        -0.17314E-02         0.00000E+00
    0.23074E-01        -0.42983E-02         0.00000E+00
    0.23349E-01        -0.67695E-02         0.00000E+00
    0.23466E-01        -0.91383E-02         0.00000E+00
    0.23450E-01        -0.11402E-01         0.00000E+00
    0.23323E-01        -0.13559E-01         0.00000E+00
    0.23104E-01        -0.15613E-01         0.00000E+00
    0.22811E-01        -0.17566E-01         0.00000E+00
    0.22457E-01        -0.19422E-01         0.00000E+00
    0.22056E-01        -0.21185E-01         0.00000E+00
    0.21617E-01        -0.22862E-01         0.00000E+00
    0.21151E-01        -0.24455E-01         0.00000E+00
    0.20665E-01        -0.25972E-01         0.00000E+00
    0.20166E-01        -0.27415E-01         0.00000E+00
    0.19659E-01        -0.28791E-01         0.00000E+00
    0.19150E-01        -0.30102E-01         0.00000E+00
    0.18643E-01        -0.31354E-01         0.00000E+00
    0.18140E-01        -0.32550E-01         0.00000E+00
    0.17646E-01        -0.33694E-01         0.00000E+00
    0.17162E-01        -0.34790E-01         0.00000E+00
    0.16691E-01        -0.35840E-01         0.00000E+00
    0.16234E-01        -0.36848E-01         0.00000E+00
    0.15793E-01        -0.37817E-01         0.00000E+00
    0.15368E-01        -0.38749E-01         0.00000E+00
    0.14962E-01        -0.39646E-01         0.00000E+00
    0.14574E-01        -0.40512E-01         0.00000E+00
    0.14205E-01        -0.41349E-01         0.00000E+00
    0.13856E-01        -0.42158E-01         0.00000E+00
    0.13528E-01        -0.42942E-01         0.00000E+00
    0.13219E-01        -0.43703E-01         0.00000E+00
    0.12931E-01        -0.44442E-01         0.00000E+00
    0.12664E-01        -0.45161E-01         0.00000E+00
    0.12418E-01        -0.45863E-01         0.00000E+00
    0.12193E-01        -0.46549E-01         0.00000E+00
    0.11988E-01        -0.47220E-01         0.00000E+00
    0.11805E-01        -0.47878E-01         0.00000E+00
    0.11642E-01        -0.48525E-01         0.00000E+00
    0.11500E-01        -0.49162E-01         0.00000E+00
    0.11379E-01        -0.49791E-01         0.00000E+00
    0.11279E-01        -0.50413E-01         0.00000E+00
    0.11199E-01        -0.51029E-01         0.00000E+00
    0.11139E-01        -0.51641E-01         0.00000E+00
    0.11100E-01        -0.52251E-01         0.00000E+00
    0.11082E-01        -0.52859E-01         0.00000E+00
    0.11083E-01        -0.53468E-01         0.00000E+00
    0.11105E-01        -0.54078E-01         0.00000E+00
    0.11146E-01        -0.54691E-01         0.00000E+00
    0.11207E-01        -0.55308E-01         0.00000E+00
    0.11288E-01        -0.55932E-01         0.00000E+00
    0.11389E-01        -0.56562E-01         0.00000E+00
    0.11508E-01        -0.57202E-01         0.00000E+00
    0.11647E-01        -0.57851E-01         0.00000E+00
    0.11805E-01        -0.58513E-01         0.00000E+00
    0.11981E-01        -0.59189E-01         0.00000E+00
    0.12176E-01        -0.59879E-01         0.00000E+00
    0.12388E-01        -0.60587E-01         0.00000E+00
    0.12618E-01        -0.61313E-01         0.00000E+00
    0.12864E-01        -0.62060E-01         0.00000E+00
    0.13127E-01        -0.62830E-01         0.00000E+00
    0.13404E-01        -0.63624E-01         0.00000E+00
    0.13696E-01        -0.64445E-01         0.00000E+00
    0.14001E-01        -0.65295E-01         0.00000E+00
    0.14317E-01        -0.66177E-01         0.00000E+00
    0.14643E-01        -0.67093E-01         0.00000E+00
    0.14977E-01        -0.68046E-01         0.00000E+00
    0.15317E-01        -0.69039E-01         0.00000E+00
    0.15659E-01        -0.70075E-01         0.00000E+00
    0.16002E-01        -0.71157E-01         0.00000E+00
    0.16340E-01        -0.72288E-01         0.00000E+00
    0.16669E-01        -0.73472E-01         0.00000E+00
    0.16985E-01        -0.74713E-01         0.00000E+00
    0.17281E-01        -0.76015E-01         0.00000E+00
    0.17550E-01        -0.77381E-01         0.00000E+00
    0.17784E-01        -0.78815E-01         0.00000E+00
    0.17973E-01        -0.80321E-01         0.00000E+00
    0.18106E-01        -0.81901E-01         0.00000E+00
    0.18171E-01        -0.83559E-01         0.00000E+00
    0.18152E-01        -0.85295E-01         0.00000E+00
    0.18034E-01        -0.87110E-01         0.00000E+00
    0.17796E-01        -0.89001E-01         0.00000E+00
    0.17417E-01        -0.90962E-01         0.00000E+00
    0.16874E-01        -0.92986E-01         0.00000E+00
    0.16140E-01        -0.95058E-01         0.00000E+00
    0.15186E-01        -0.97158E-01         0.00000E+00
    0.13983E-01        -0.99257E-01         0.00000E+00
    0.12498E-01        -0.10132E+00         0.00000E+00
    0.10700E-01        -0.10328E+00         0.00000E+00
    0.85603E-02        -0.10508E+00         0.00000E+00
    0.60573E-02        -0.10661E+00         0.00000E+00
    0.31927E-02        -0.10772E+00         0.00000E+00
    0.00000E+00        -0.10815E+00         0.00000E+00
    0.00000E+00         0.21367E-01         0.00000E+00
    0.43428E-02         0.20754E-01         0.00000E+00
    0.82198E-02         0.19220E-01         0.00000E+00
    0.11579E-01         0.17134E-01         0.00000E+00
    0.14429E-01         0.14700E-01         0.00000E+00
    0.16808E-01         0.12052E-01         0.00000E+00
    0.18757E-01         0.92859E-02         0.00000E+00
    0.20323E-01         0.64709E-02         0.00000E+00
    0.21549E-01         0.36590E-02         0.00000E+00
    0.22477E-01         0.88818E-03         0.00000E+00
    0.23148E-01        -0.18149E-02         0.00000E+00
    0.23598E-01        -0.44319E-02         0.00000E+00
    0.23858E-01        -0.69511E-02         0.00000E+00
    0.23959E-01        -0.93657E-02         0.00000E+00
    0.23925E-01        -0.11673E-01         0.00000E+00
    0.23780E-01        -0.13873E-01         0.00000E+00
    0.23543E-01        -0.15966E-01         0.00000E+00
    0.23232E-01        -0.17958E-01         0.00000E+00
    0.22860E-01        -0.19850E-01         0.00000E+00
    0.22442E-01        -0.21649E-01         0.00000E+00
    0.21987E-01        -0.23360E-01         0.00000E+00
    0.21505E-01        -0.24986E-01         0.00000E+00
    0.21004E-01        -0.26533E-01         0.00000E+00
    0.20490E-01        -0.28007E-01         0.00000E+00
    0.19970E-01        -0.29411E-01         0.00000E+00
    0.19448E-01        -0.30750E-01         0.00000E+00
    0.18928E-01        -0.32028E-01         0.00000E+00
    0.18414E-01        -0.33250E-01         0.00000E+00
    0.17909E-01        -0.34418E-01         0.00000E+00
    0.17415E-01        -0.35537E-01         0.00000E+00
    0.16934E-01        -0.36610E-01         0.00000E+00
    0.16469E-01        -0.37640E-01         0.00000E+00
    0.16019E-01        -0.38630E-01         0.00000E+00
    0.15587E-01        -0.39582E-01         0.00000E+00
    0.15173E-01        -0.40500E-01         0.00000E+00
    0.14778E-01        -0.41385E-01         0.00000E+00
    0.14403E-01        -0.42240E-01         0.00000E+00
    0.14048E-01        -0.43067E-01         0.00000E+00
    0.13714E-01        -0.43868E-01         0.00000E+00
    0.13400E-01        -0.44646E-01         0.00000E+00
    0.13108E-01        -0.45401E-01         0.00000E+00
    0.12836E-01        -0.46137E-01         0.00000E+00
    0.12586E-01        -0.46855E-01         0.00000E+00
    0.12357E-01        -0.47556E-01         0.00000E+00
    0.12150E-01        -0.48242E-01         0.00000E+00
    0.11963E-01        -0.48915E-01         0.00000E+00
    0.11798E-01        -0.49576E-01         0.00000E+00
    0.11654E-01        -0.50228E-01         0.00000E+00
    0.11531E-01        -0.50871E-01         0.00000E+00
    0.11429E-01        -0.51506E-01         0.00000E+00
    0.11348E-01        -0.52137E-01         0.00000E+00
    0.11288E-01        -0.52763E-01         0.00000E+00
    0.11249E-01        -0.53386E-01         0.00000E+00
    0.11230E-01        -0.54008E-01         0.00000E+00
    0.11231E-01        -0.54630E-01         0.00000E+00
    0.11253E-01        -0.55254E-01         0.00000E+00
    0.11295E-01        -0.55881E-01         0.00000E+00
    0.11358E-01        -0.56512E-01         0.00000E+00
    0.11440E-01        -0.57149E-01         0.00000E+00
    0.11543E-01        -0.57794E-01         0.00000E+00
    0.11664E-01        -0.58448E-01         0.00000E+00
    0.11806E-01        -0.59112E-01         0.00000E+00
    0.11966E-01        -0.59789E-01         0.00000E+00
    0.12146E-01        -0.60479E-01         0.00000E+00
    0.12344E-01        -0.61185E-01         0.00000E+00
    0.12560E-01        -0.61908E-01         0.00000E+00
    0.12795E-01        -0.62651E-01         0.00000E+00
    0.13046E-01        -0.63414E-01         0.00000E+00
    0.13313E-01        -0.64201E-01         0.00000E+00
    0.13596E-01        -0.65012E-01         0.00000E+00
    0.13894E-01        -0.65851E-01         0.00000E+00
    0.14205E-01        -0.66720E-01         0.00000E+00
    0.14529E-01        -0.67621E-01         0.00000E+00
    0.14862E-01        -0.68557E-01         0.00000E+00
    0.15205E-01        -0.69530E-01         0.00000E+00
    0.15553E-01        -0.70544E-01         0.00000E+00
    0.15905E-01        -0.71602E-01         0.00000E+00
    0.16257E-01        -0.72706E-01         0.00000E+00
    0.16605E-01        -0.73861E-01         0.00000E+00
    0.16945E-01        -0.75069E-01         0.00000E+00
    0.17273E-01        -0.76336E-01         0.00000E+00
    0.17581E-01        -0.77664E-01         0.00000E+00
    0.17862E-01        -0.79057E-01         0.00000E+00
    0.18109E-01        -0.80520E-01         0.00000E+00
    0.18312E-01        -0.82055E-01         0.00000E+00
    0.18458E-01        -0.83667E-01         0.00000E+00
    0.18536E-01        -0.85357E-01         0.00000E+00
    0.18531E-01        -0.87127E-01         0.00000E+00
    0.18424E-01        -0.88977E-01         0.00000E+00
    0.18197E-01        -0.90904E-01         0.00000E+00
    0.17827E-01        -0.92904E-01         0.00000E+00
    0.17290E-01        -0.94968E-01         0.00000E+00
    0.16557E-01        -0.97082E-01         0.00000E+00
    0.15600E-01        -0.99225E-01         0.00000E+00
    0.14385E-01        -0.10137E+00         0.00000E+00
    0.12880E-01        -0.10348E+00         0.00000E+00
    0.11049E-01        -0.10549E+00         0.00000E+00
    0.88608E-02        -0.10734E+00         0.00000E+00
    0.62868E-02        -0.10893E+00         0.00000E+00
    0.33200E-02        -0.11009E+00         0.00000E+00
    0.00000E+00        -0.11056E+00         0.00000E+00
    0.00000E+00         0.21908E-01         0.00000E+00
    0.45327E-02         0.21240E-01         0.00000E+00
    0.85497E-02         0.19628E-01         0.00000E+00
    0.12001E-01         0.17470E-01         0.00000E+00
    0.14913E-01         0.14968E-01         0.00000E+00
    0.17331E-01         0.12255E-01         0.00000E+00
    0.19304E-01         0.94259E-02         0.00000E+00
    0.20880E-01         0.65510E-02         0.00000E+00
    0.22108E-01         0.36820E-02         0.00000E+00
    0.23031E-01         0.85643E-03         0.00000E+00
    0.23692E-01        -0.18990E-02         0.00000E+00
    0.24127E-01        -0.45660E-02         0.00000E+00
    0.24371E-01        -0.71331E-02         0.00000E+00
    0.24453E-01        -0.95935E-02         0.00000E+00
    0.24400E-01        -0.11945E-01         0.00000E+00
    0.24236E-01        -0.14186E-01         0.00000E+00
    0.23980E-01        -0.16320E-01         0.00000E+00
    0.23650E-01        -0.18350E-01         0.00000E+00
    0.23260E-01        -0.20279E-01         0.00000E+00
    0.22823E-01        -0.22114E-01         0.00000E+00
    0.22351E-01        -0.23858E-01         0.00000E+00
    0.21853E-01        -0.25516E-01         0.00000E+00
    0.21337E-01        -0.27095E-01         0.00000E+00
    0.20809E-01        -0.28598E-01         0.00000E+00
    0.20275E-01        -0.30031E-01         0.00000E+00
    0.19740E-01        -0.31397E-01         0.00000E+00
    0.19208E-01        -0.32702E-01         0.00000E+00
    0.18683E-01        -0.33949E-01         0.00000E+00
    0.18167E-01        -0.35142E-01         0.00000E+00
    0.17663E-01        -0.36285E-01         0.00000E+00
    0.17172E-01        -0.37380E-01         0.00000E+00
    0.16697E-01        -0.38432E-01         0.00000E+00
    0.16239E-01        -0.39443E-01         0.00000E+00
    0.15799E-01        -0.40416E-01         0.00000E+00
    0.15378E-01        -0.41353E-01         0.00000E+00
    0.14977E-01        -0.42257E-01         0.00000E+00
    0.14595E-01        -0.43130E-01         0.00000E+00
    0.14234E-01        -0.43975E-01         0.00000E+00
    0.13895E-01        -0.44794E-01         0.00000E+00
    0.13576E-01        -0.45588E-01         0.00000E+00
    0.13279E-01        -0.46361E-01         0.00000E+00
    0.13003E-01        -0.47112E-01         0.00000E+00
    0.12749E-01        -0.47846E-01         0.00000E+00
    0.12517E-01        -0.48562E-01         0.00000E+00
    0.12306E-01        -0.49264E-01         0.00000E+00
    0.12117E-01        -0.49951E-01         0.00000E+00
    0.11950E-01        -0.50627E-01         0.00000E+00
    0.11804E-01        -0.51293E-01         0.00000E+00
    0.11679E-01        -0.51950E-01         0.00000E+00
    0.11576E-01        -0.52600E-01         0.00000E+00
    0.11493E-01        -0.53244E-01         0.00000E+00
    0.11432E-01        -0.53884E-01         0.00000E+00
    0.11392E-01        -0.54521E-01         0.00000E+00
    0.11373E-01        -0.55157E-01         0.00000E+00
    0.11375E-01        -0.55793E-01         0.00000E+00
    0.11398E-01        -0.56430E-01         0.00000E+00
    0.11441E-01        -0.57071E-01         0.00000E+00
    0.11504E-01        -0.57716E-01         0.00000E+00
    0.11588E-01        -0.58367E-01         0.00000E+00
    0.11692E-01        -0.59026E-01         0.00000E+00
    0.11816E-01        -0.59694E-01         0.00000E+00
    0.11960E-01        -0.60373E-01         0.00000E+00
    0.12123E-01        -0.61065E-01         0.00000E+00
    0.12306E-01        -0.61770E-01         0.00000E+00
    0.12508E-01        -0.62491E-01         0.00000E+00
    0.12728E-01        -0.63230E-01         0.00000E+00
    0.12966E-01        -0.63989E-01         0.00000E+00
    0.13222E-01        -0.64769E-01         0.00000E+00
    0.13495E-01        -0.65572E-01         0.00000E+00
    0.13784E-01        -0.66401E-01         0.00000E+00
    0.14088E-01        -0.67258E-01         0.00000E+00
    0.14406E-01        -0.68145E-01         0.00000E+00
    0.14736E-01        -0.69065E-01         0.00000E+00
    0.15077E-01        -0.70020E-01         0.00000E+00
    0.15427E-01        -0.71014E-01         0.00000E+00
    0.15784E-01        -0.72049E-01         0.00000E+00
    0.16145E-01        -0.73128E-01         0.00000E+00
    0.16507E-01        -0.74255E-01         0.00000E+00
    0.16866E-01        -0.75433E-01         0.00000E+00
    0.17218E-01        -0.76666E-01         0.00000E+00
    0.17557E-01        -0.77958E-01         0.00000E+00
    0.17877E-01        -0.79312E-01         0.00000E+00
    0.18172E-01        -0.80733E-01         0.00000E+00
    0.18432E-01        -0.82224E-01         0.00000E+00
    0.18649E-01        -0.83790E-01         0.00000E+00
    0.18810E-01        -0.85432E-01         0.00000E+00
    0.18902E-01        -0.87155E-01         0.00000E+00
    0.18910E-01        -0.88958E-01         0.00000E+00
    0.18817E-01        -0.90843E-01         0.00000E+00
    0.18602E-01        -0.92807E-01         0.00000E+00
    0.18242E-01        -0.94846E-01         0.00000E+00
    0.17713E-01        -0.96950E-01         0.00000E+00
    0.16984E-01        -0.99105E-01         0.00000E+00
    0.16025E-01        -0.10129E+00         0.00000E+00
    0.14802E-01        -0.10348E+00         0.00000E+00
    0.13278E-01        -0.10564E+00         0.00000E+00
    0.11417E-01        -0.10770E+00         0.00000E+00
    0.91817E-02        -0.10960E+00         0.00000E+00
    0.65376E-02        -0.11124E+00         0.00000E+00
    0.34643E-02        -0.11247E+00         0.00000E+00
    0.00000E+00        -0.11298E+00         0.00000E+00
    0.00000E+00         0.22459E-01         0.00000E+00
    0.47519E-02         0.21724E-01         0.00000E+00
    0.89114E-02         0.20034E-01         0.00000E+00
    0.12452E-01         0.17806E-01         0.00000E+00
    0.15422E-01         0.15235E-01         0.00000E+00
    0.17877E-01         0.12457E-01         0.00000E+00
    0.19870E-01         0.95652E-02         0.00000E+00
    0.21454E-01         0.66306E-02         0.00000E+00
    0.22680E-01         0.37044E-02         0.00000E+00
    0.23595E-01         0.82420E-03         0.00000E+00
    0.24243E-01        -0.19835E-02         0.00000E+00
    0.24662E-01        -0.47005E-02         0.00000E+00
    0.24887E-01        -0.73154E-02         0.00000E+00
    0.24949E-01        -0.98216E-02         0.00000E+00
    0.24876E-01        -0.12216E-01         0.00000E+00
    0.24691E-01        -0.14500E-01         0.00000E+00
    0.24415E-01        -0.16674E-01         0.00000E+00
    0.24065E-01        -0.18742E-01         0.00000E+00
    0.23656E-01        -0.20709E-01         0.00000E+00
    0.23201E-01        -0.22578E-01         0.00000E+00
    0.22712E-01        -0.24356E-01         0.00000E+00
    0.22197E-01        -0.26047E-01         0.00000E+00
    0.21665E-01        -0.27656E-01         0.00000E+00
    0.21122E-01        -0.29189E-01         0.00000E+00
    0.20574E-01        -0.30651E-01         0.00000E+00
    0.20026E-01        -0.32045E-01         0.00000E+00
    0.19482E-01        -0.33376E-01         0.00000E+00
    0.18945E-01        -0.34648E-01         0.00000E+00
    0.18419E-01        -0.35866E-01         0.00000E+00
    0.17904E-01        -0.37032E-01         0.00000E+00
    0.17405E-01        -0.38150E-01         0.00000E+00
    0.16921E-01        -0.39224E-01         0.00000E+00
    0.16454E-01        -0.40256E-01         0.00000E+00
    0.16007E-01        -0.41249E-01         0.00000E+00
    0.15578E-01        -0.42206E-01         0.00000E+00
    0.15170E-01        -0.43129E-01         0.00000E+00
    0.14782E-01        -0.44021E-01         0.00000E+00
    0.14416E-01        -0.44884E-01         0.00000E+00
    0.14071E-01        -0.45720E-01         0.00000E+00
    0.13747E-01        -0.46531E-01         0.00000E+00
    0.13445E-01        -0.47320E-01         0.00000E+00
    0.13166E-01        -0.48088E-01         0.00000E+00
    0.12908E-01        -0.48837E-01         0.00000E+00
    0.12672E-01        -0.49569E-01         0.00000E+00
    0.12458E-01        -0.50285E-01         0.00000E+00
    0.12267E-01        -0.50988E-01         0.00000E+00
    0.12097E-01        -0.51678E-01         0.00000E+00
    0.11949E-01        -0.52359E-01         0.00000E+00
    0.11822E-01        -0.53030E-01         0.00000E+00
    0.11717E-01        -0.53694E-01         0.00000E+00
    0.11634E-01        -0.54351E-01         0.00000E+00
    0.11572E-01        -0.55005E-01         0.00000E+00
    0.11532E-01        -0.55656E-01         0.00000E+00
    0.11513E-01        -0.56305E-01         0.00000E+00
    0.11515E-01        -0.56955E-01         0.00000E+00
    0.11537E-01        -0.57606E-01         0.00000E+00
    0.11581E-01        -0.58261E-01         0.00000E+00
    0.11646E-01        -0.58920E-01         0.00000E+00
    0.11731E-01        -0.59585E-01         0.00000E+00
    0.11837E-01        -0.60258E-01         0.00000E+00
    0.11963E-01        -0.60941E-01         0.00000E+00
    0.12110E-01        -0.61634E-01         0.00000E+00
    0.12276E-01        -0.62340E-01         0.00000E+00
    0.12462E-01        -0.63061E-01         0.00000E+00
    0.12667E-01        -0.63797E-01         0.00000E+00
    0.12891E-01        -0.64552E-01         0.00000E+00
    0.13134E-01        -0.65327E-01         0.00000E+00
    0.13394E-01        -0.66123E-01         0.00000E+00
    0.13672E-01        -0.66943E-01         0.00000E+00
    0.13967E-01        -0.67790E-01         0.00000E+00
    0.14277E-01        -0.68664E-01         0.00000E+00
    0.14601E-01        -0.69570E-01         0.00000E+00
    0.14938E-01        -0.70509E-01         0.00000E+00
    0.15287E-01        -0.71484E-01         0.00000E+00
    0.15645E-01        -0.72498E-01         0.00000E+00
    0.16011E-01        -0.73554E-01         0.00000E+00
    0.16382E-01        -0.74655E-01         0.00000E+00
    0.16753E-01        -0.75804E-01         0.00000E+00
    0.17123E-01        -0.77006E-01         0.00000E+00
    0.17486E-01        -0.78263E-01         0.00000E+00
    0.17837E-01        -0.79580E-01         0.00000E+00
    0.18170E-01        -0.80961E-01         0.00000E+00
    0.18478E-01        -0.82409E-01         0.00000E+00
    0.18753E-01        -0.83929E-01         0.00000E+00
    0.18984E-01        -0.85524E-01         0.00000E+00
    0.19160E-01        -0.87197E-01         0.00000E+00
    0.19267E-01        -0.88952E-01         0.00000E+00
    0.19291E-01        -0.90789E-01         0.00000E+00
    0.19212E-01        -0.92709E-01         0.00000E+00
    0.19011E-01        -0.94710E-01         0.00000E+00
    0.18664E-01        -0.96787E-01         0.00000E+00
    0.18143E-01        -0.98931E-01         0.00000E+00
    0.17420E-01        -0.10113E+00         0.00000E+00
    0.16462E-01        -0.10336E+00         0.00000E+00
    0.15233E-01        -0.10559E+00         0.00000E+00
    0.13694E-01        -0.10780E+00         0.00000E+00
    0.11805E-01        -0.10991E+00         0.00000E+00
    0.95246E-02        -0.11186E+00         0.00000E+00
    0.68126E-02        -0.11356E+00         0.00000E+00
    0.36309E-02        -0.11484E+00         0.00000E+00
    0.00000E+00        -0.11540E+00         0.00000E+00
    0.00000E+00         0.23022E-01         0.00000E+00
    0.50113E-02         0.22205E-01         0.00000E+00
    0.93076E-02         0.20441E-01         0.00000E+00
    0.12934E-01         0.18141E-01         0.00000E+00
    0.15960E-01         0.15502E-01         0.00000E+00
    0.18447E-01         0.12658E-01         0.00000E+00
    0.20456E-01         0.97042E-02         0.00000E+00
    0.22044E-01         0.67098E-02         0.00000E+00
    0.23266E-01         0.37265E-02         0.00000E+00
    0.24170E-01         0.79171E-03         0.00000E+00
    0.24802E-01        -0.20682E-02         0.00000E+00
    0.25202E-01        -0.48352E-02         0.00000E+00
    0.25407E-01        -0.74978E-02         0.00000E+00
    0.25447E-01        -0.10050E-01         0.00000E+00
    0.25352E-01        -0.12488E-01         0.00000E+00
    0.25146E-01        -0.14814E-01         0.00000E+00
    0.24848E-01        -0.17028E-01         0.00000E+00
    0.24477E-01        -0.19134E-01         0.00000E+00
    0.24048E-01        -0.21138E-01         0.00000E+00
    0.23575E-01        -0.23042E-01         0.00000E+00
    0.23067E-01        -0.24854E-01         0.00000E+00
    0.22536E-01        -0.26577E-01         0.00000E+00
    0.21988E-01        -0.28218E-01         0.00000E+00
    0.21430E-01        -0.29781E-01         0.00000E+00
    0.20868E-01        -0.31271E-01         0.00000E+00
    0.20307E-01        -0.32692E-01         0.00000E+00
    0.19750E-01        -0.34050E-01         0.00000E+00
    0.19202E-01        -0.35348E-01         0.00000E+00
    0.18665E-01        -0.36590E-01         0.00000E+00
    0.18140E-01        -0.37779E-01         0.00000E+00
    0.17631E-01        -0.38920E-01         0.00000E+00
    0.17138E-01        -0.40016E-01         0.00000E+00
    0.16664E-01        -0.41069E-01         0.00000E+00
    0.16208E-01        -0.42082E-01         0.00000E+00
    0.15773E-01        -0.43059E-01         0.00000E+00
    0.15358E-01        -0.44001E-01         0.00000E+00
    0.14964E-01        -0.44911E-01         0.00000E+00
    0.14592E-01        -0.45792E-01         0.00000E+00
    0.14241E-01        -0.46646E-01         0.00000E+00
    0.13913E-01        -0.47474E-01         0.00000E+00
    0.13607E-01        -0.48279E-01         0.00000E+00
    0.13323E-01        -0.49063E-01         0.00000E+00
    0.13062E-01        -0.49828E-01         0.00000E+00
    0.12822E-01        -0.50575E-01         0.00000E+00
    0.12606E-01        -0.51307E-01         0.00000E+00
    0.12411E-01        -0.52024E-01         0.00000E+00
    0.12239E-01        -0.52729E-01         0.00000E+00
    0.12089E-01        -0.53424E-01         0.00000E+00
    0.11961E-01        -0.54109E-01         0.00000E+00
    0.11855E-01        -0.54787E-01         0.00000E+00
    0.11770E-01        -0.55459E-01         0.00000E+00
    0.11708E-01        -0.56126E-01         0.00000E+00
    0.11667E-01        -0.56791E-01         0.00000E+00
    0.11647E-01        -0.57454E-01         0.00000E+00
    0.11650E-01        -0.58117E-01         0.00000E+00
    0.11673E-01        -0.58782E-01         0.00000E+00
    0.11718E-01        -0.59451E-01         0.00000E+00
    0.11783E-01        -0.60124E-01         0.00000E+00
    0.11870E-01        -0.60803E-01         0.00000E+00
    0.11978E-01        -0.61490E-01         0.00000E+00
    0.12106E-01        -0.62187E-01         0.00000E+00
    0.12255E-01        -0.62895E-01         0.00000E+00
    0.12424E-01        -0.63616E-01         0.00000E+00
    0.12613E-01        -0.64352E-01         0.00000E+00
    0.12821E-01        -0.65104E-01         0.00000E+00
    0.13049E-01        -0.65874E-01         0.00000E+00
    0.13296E-01        -0.66664E-01         0.00000E+00
    0.13562E-01        -0.67477E-01         0.00000E+00
    0.13845E-01        -0.68314E-01         0.00000E+00
    0.14145E-01        -0.69178E-01         0.00000E+00
    0.14460E-01        -0.70071E-01         0.00000E+00
    0.14791E-01        -0.70995E-01         0.00000E+00
    0.15136E-01        -0.71953E-01         0.00000E+00
    0.15492E-01        -0.72947E-01         0.00000E+00
    0.15859E-01        -0.73982E-01         0.00000E+00
    0.16233E-01        -0.75059E-01         0.00000E+00
    0.16613E-01        -0.76181E-01         0.00000E+00
    0.16995E-01        -0.77353E-01         0.00000E+00
    0.17376E-01        -0.78579E-01         0.00000E+00
    0.17750E-01        -0.79860E-01         0.00000E+00
    0.18114E-01        -0.81203E-01         0.00000E+00
    0.18460E-01        -0.82610E-01         0.00000E+00
    0.18782E-01        -0.84085E-01         0.00000E+00
    0.19071E-01        -0.85633E-01         0.00000E+00
    0.19318E-01        -0.87258E-01         0.00000E+00
    0.19509E-01        -0.88962E-01         0.00000E+00
    0.19633E-01        -0.90749E-01         0.00000E+00
    0.19673E-01        -0.92620E-01         0.00000E+00
    0.19610E-01        -0.94575E-01         0.00000E+00
    0.19424E-01        -0.96613E-01         0.00000E+00
    0.19091E-01        -0.98728E-01         0.00000E+00
    0.18582E-01        -0.10091E+00         0.00000E+00
    0.17867E-01        -0.10315E+00         0.00000E+00
    0.16912E-01        -0.10542E+00         0.00000E+00
    0.15679E-01        -0.10771E+00         0.00000E+00
    0.14128E-01        -0.10995E+00         0.00000E+00
    0.12214E-01        -0.11212E+00         0.00000E+00
    0.98915E-02        -0.11412E+00         0.00000E+00
    0.71137E-02        -0.11587E+00         0.00000E+00
    0.38279E-02        -0.11721E+00         0.00000E+00
    0.00000E+00        -0.11783E+00         0.00000E+00
CELL_DATA       5000
VECTORS vDarcy double 
    0.91678E-07         0.00000E+00         0.00000E+00
    0.87605E-07         0.30268E-20         0.00000E+00
    0.83718E-07        -0.93132E-21         0.00000E+00
    0.80010E-07         0.93132E-21         0.00000E+00
    0.76473E-07         0.00000E+00         0.00000E+00
    0.73100E-07        -0.62864E-20         0.00000E+00
    0.69882E-07        -0.76834E-20         0.00000E+00
    0.66813E-07        -0.23283E-21         0.00000E+00
    0.63887E-07         0.11642E-19         0.00000E+00
    0.61098E-07         0.93132E-20         0.00000E+00
    0.58438E-07        -0.93132E-21         0.00000E+00
    0.55904E-07        -0.13970E-20         0.00000E+00
    0.53489E-07        -0.13271E-19         0.00000E+00
    0.51188E-07        -0.23283E-20         0.00000E+00
    0.48996E-07        -0.18626E-20         0.00000E+00
    0.46909E-07        -0.69849E-20         0.00000E+00
    0.44922E-07        -0.62864E-20         0.00000E+00
    0.43031E-07        -0.13970E-20         0.00000E+00
    0.41232E-07        -0.65193E-20         0.00000E+00
    0.39521E-07        -0.48894E-20         0.00000E+00
    0.37894E-07         0.16298E-20         0.00000E+00
    0.36348E-07        -0.11409E-19         0.00000E+00
    0.34880E-07        -0.41910E-20         0.00000E+00
    0.33486E-07        -0.25611E-20         0.00000E+00
    0.32164E-07        -0.69849E-20         0.00000E+00
    0.30910E-07        -0.74506E-20         0.00000E+00
    0.29722E-07        -0.69849E-20         0.00000E+00
    0.28598E-07        -0.69849E-21         0.00000E+00
    0.27535E-07        -0.58208E-20         0.00000E+00
    0.26530E-07        -0.11874E-19         0.00000E+00
    0.25582E-07        -0.46566E-20         0.00000E+00
    0.24689E-07         0.55879E-20         0.00000E+00
    0.23849E-07         0.48894E-20         0.00000E+00
    0.23059E-07         0.46566E-21         0.00000E+00
    0.22319E-07        -0.46566E-21         0.00000E+00
    0.21626E-07        -0.23283E-21         0.00000E+00
    0.20979E-07        -0.39581E-20         0.00000E+00
    0.20377E-07        -0.41910E-20         0.00000E+00
    0.19819E-07         0.20955E-20         0.00000E+00
    0.19303E-07         0.72177E-20         0.00000E+00
    0.18828E-07         0.32596E-20         0.00000E+00
    0.18394E-07         0.23283E-21         0.00000E+00
    0.17998E-07         0.51223E-20         0.00000E+00
    0.17641E-07        -0.32596E-20         0.00000E+00
    0.17322E-07        -0.30268E-20         0.00000E+00
    0.17040E-07        -0.51223E-20         0.00000E+00
    0.16794E-07         0.53551E-20         0.00000E+00
    0.16584E-07         0.37253E-20         0.00000E+00
    0.16409E-07        -0.20955E-20         0.00000E+00
    0.16270E-07         0.39581E-20         0.00000E+00
    0.16165E-07        -0.51223E-20         0.00000E+00
    0.16094E-07        -0.58208E-20         0.00000E+00
    0.16058E-07         0.51223E-20         0.00000E+00
    0.16056E-07         0.13970E-20         0.00000E+00
    0.16089E-07        -0.41910E-20         0.00000E+00
    0.16156E-07        -0.30268E-20         0.00000E+00
    0.16257E-07        -0.27940E-20         0.00000E+00
    0.16393E-07        -0.13970E-20         0.00000E+00
    0.16564E-07        -0.20955E-20         0.00000E+00
    0.16770E-07         0.39581E-20         0.00000E+00
    0.17013E-07        -0.25611E-20         0.00000E+00
    0.17291E-07        -0.88476E-20         0.00000E+00
    0.17606E-07        -0.60536E-20         0.00000E+00
    0.17959E-07        -0.53551E-20         0.00000E+00
    0.18351E-07        -0.74506E-20         0.00000E+00
    0.18781E-07         0.23283E-20         0.00000E+00
    0.19252E-07         0.46566E-21         0.00000E+00
    0.19764E-07        -0.37253E-20         0.00000E+00
    0.20317E-07        -0.69849E-21         0.00000E+00
    0.20915E-07         0.41910E-20         0.00000E+00
    0.21557E-07         0.51223E-20         0.00000E+00
    0.22244E-07        -0.58208E-20         0.00000E+00
    0.22980E-07        -0.16298E-20         0.00000E+00
    0.23764E-07        -0.23283E-20         0.00000E+00
    0.24599E-07        -0.58208E-20         0.00000E+00
    0.25487E-07         0.20955E-20         0.00000E+00
    0.26429E-07         0.60536E-20         0.00000E+00
    0.27428E-07         0.18626E-20         0.00000E+00
    0.28485E-07         0.46566E-21         0.00000E+00
    0.29602E-07         0.41910E-20         0.00000E+00
    0.30784E-07         0.55879E-20         0.00000E+00
    0.32030E-07        -0.46566E-20         0.00000E+00
    0.33345E-07         0.93132E-21         0.00000E+00
    0.34732E-07         0.25611E-20         0.00000E+00
    0.36192E-07         0.46566E-21         0.00000E+00
    0.37730E-07        -0.69849E-21         0.00000E+00
    0.39348E-07        -0.32596E-20         0.00000E+00
    0.41050E-07        -0.37253E-20         0.00000E+00
    0.42840E-07         0.46566E-21         0.00000E+00
    0.44721E-07         0.65193E-20         0.00000E+00
    0.46698E-07         0.27940E-20         0.00000E+00
    0.48775E-07         0.32596E-20         0.00000E+00
    0.50955E-07        -0.67521E-20         0.00000E+00
    0.53244E-07        -0.10477E-20         0.00000E+00
    0.55647E-07         0.55879E-20         0.00000E+00
    0.58169E-07         0.23283E-20         0.00000E+00
    0.60815E-07        -0.34925E-21         0.00000E+00
    0.63591E-07        -0.34925E-20         0.00000E+00
    0.66502E-07        -0.71013E-20         0.00000E+00
    0.69556E-07        -0.43074E-20         0.00000E+00
    0.91678E-07         0.37253E-20         0.00000E+00
    0.87605E-07         0.39581E-20         0.00000E+00
    0.83718E-07        -0.32596E-20         0.00000E+00
    0.80010E-07         0.10245E-19         0.00000E+00
    0.76473E-07         0.20023E-19         0.00000E+00
    0.73100E-07         0.67521E-20         0.00000E+00
    0.69882E-07         0.26776E-19         0.00000E+00
    0.66813E-07         0.31665E-19         0.00000E+00
    0.63887E-07         0.16298E-20         0.00000E+00
    0.61098E-07        -0.10477E-19         0.00000E+00
    0.58438E-07        -0.69849E-20         0.00000E+00
    0.55904E-07         0.93132E-20         0.00000E+00
    0.53489E-07         0.13504E-19         0.00000E+00
    0.51188E-07        -0.60536E-20         0.00000E+00
    0.48996E-07        -0.11409E-19         0.00000E+00
    0.46909E-07        -0.13970E-19         0.00000E+00
    0.44922E-07        -0.14203E-19         0.00000E+00
    0.43031E-07        -0.46566E-20         0.00000E+00
    0.41232E-07        -0.10477E-19         0.00000E+00
    0.39521E-07        -0.30268E-20         0.00000E+00
    0.37894E-07         0.25611E-20         0.00000E+00
    0.36348E-07        -0.41910E-20         0.00000E+00
    0.34880E-07        -0.23283E-21         0.00000E+00
    0.33486E-07        -0.93132E-20         0.00000E+00
    0.32164E-07        -0.10245E-19         0.00000E+00
    0.30910E-07        -0.10943E-19         0.00000E+00
    0.29722E-07        -0.16065E-19         0.00000E+00
    0.28598E-07        -0.12573E-19         0.00000E+00
    0.27535E-07        -0.21420E-19         0.00000E+00
    0.26530E-07        -0.16298E-19         0.00000E+00
    0.25582E-07        -0.11642E-19         0.00000E+00
    0.24689E-07        -0.10710E-19         0.00000E+00
    0.23849E-07        -0.39581E-20         0.00000E+00
    0.23059E-07        -0.95461E-20         0.00000E+00
    0.22319E-07        -0.72177E-20         0.00000E+00
    0.21626E-07        -0.65193E-20         0.00000E+00
    0.20979E-07        -0.13271E-19         0.00000E+00
    0.20377E-07        -0.62864E-20         0.00000E+00
    0.19819E-07        -0.16298E-20         0.00000E+00
    0.19303E-07        -0.25611E-20         0.00000E+00
    0.18828E-07        -0.15600E-19         0.00000E+00
    0.18394E-07        -0.44238E-20         0.00000E+00
    0.17998E-07        -0.76834E-20         0.00000E+00
    0.17641E-07        -0.18626E-19         0.00000E+00
    0.17322E-07        -0.13504E-19         0.00000E+00
    0.17040E-07        -0.46566E-20         0.00000E+00
    0.16794E-07         0.81491E-20         0.00000E+00
    0.16584E-07        -0.76834E-20         0.00000E+00
    0.16409E-07        -0.11176E-19         0.00000E+00
    0.16270E-07         0.00000E+00         0.00000E+00
    0.16165E-07        -0.93132E-20         0.00000E+00
    0.16094E-07        -0.51223E-20         0.00000E+00
    0.16058E-07        -0.46566E-21         0.00000E+00
    0.16056E-07        -0.90804E-20         0.00000E+00
    0.16089E-07        -0.69849E-20         0.00000E+00
    0.16156E-07        -0.58208E-20         0.00000E+00
    0.16257E-07         0.65193E-20         0.00000E+00
    0.16393E-07        -0.32596E-20         0.00000E+00
    0.16564E-07        -0.14901E-19         0.00000E+00
    0.16770E-07        -0.10477E-19         0.00000E+00
    0.17013E-07        -0.13039E-19         0.00000E+00
    0.17291E-07        -0.14668E-19         0.00000E+00
    0.17606E-07        -0.15367E-19         0.00000E+00
    0.17959E-07        -0.93132E-21         0.00000E+00
    0.18351E-07         0.55879E-20         0.00000E+00
    0.18781E-07        -0.93132E-20         0.00000E+00
    0.19252E-07        -0.13271E-19         0.00000E+00
    0.19764E-07        -0.93132E-20         0.00000E+00
    0.20317E-07        -0.15134E-19         0.00000E+00
    0.20915E-07        -0.14203E-19         0.00000E+00
    0.21557E-07        -0.15367E-19         0.00000E+00
    0.22244E-07        -0.13504E-19         0.00000E+00
    0.22980E-07        -0.18859E-19         0.00000E+00
    0.23764E-07        -0.13271E-19         0.00000E+00
    0.24599E-07        -0.13970E-20         0.00000E+00
    0.25487E-07        -0.13504E-19         0.00000E+00
    0.26429E-07        -0.12806E-19         0.00000E+00
    0.27428E-07        -0.10710E-19         0.00000E+00
    0.28485E-07        -0.18626E-20         0.00000E+00
    0.29602E-07        -0.18626E-20         0.00000E+00
    0.30784E-07        -0.88476E-20         0.00000E+00
    0.32030E-07        -0.86147E-20         0.00000E+00
    0.33345E-07        -0.37253E-20         0.00000E+00
    0.34732E-07        -0.48894E-20         0.00000E+00
    0.36192E-07        -0.12573E-19         0.00000E+00
    0.37730E-07        -0.11642E-19         0.00000E+00
    0.39348E-07        -0.51223E-20         0.00000E+00
    0.41050E-07        -0.46566E-20         0.00000E+00
    0.42840E-07         0.69849E-21         0.00000E+00
    0.44721E-07         0.16298E-20         0.00000E+00
    0.46698E-07         0.93132E-21         0.00000E+00
    0.48775E-07        -0.13970E-20         0.00000E+00
    0.50955E-07         0.34925E-20         0.00000E+00
    0.53244E-07         0.13970E-20         0.00000E+00
    0.55647E-07        -0.52387E-20         0.00000E+00
    0.58169E-07        -0.30268E-20         0.00000E+00
    0.60815E-07        -0.53551E-20         0.00000E+00
    0.63591E-07        -0.94296E-20         0.00000E+00
    0.66502E-07        -0.26776E-20         0.00000E+00
    0.69556E-07        -0.17462E-20         0.00000E+00
    0.91678E-07        -0.18626E-19         0.00000E+00
    0.87605E-07        -0.10477E-19         0.00000E+00
    0.83718E-07         0.46566E-20         0.00000E+00
    0.80010E-07         0.13039E-19         0.00000E+00
    0.76473E-07         0.23516E-19         0.00000E+00
    0.73100E-07         0.18626E-19         0.00000E+00
    0.69882E-07         0.18626E-19         0.00000E+00
    0.66813E-07         0.22352E-19         0.00000E+00
    0.63887E-07         0.34925E-20         0.00000E+00
    0.61098E-07        -0.74506E-20         0.00000E+00
    0.58438E-07        -0.79162E-20         0.00000E+00
    0.55904E-07        -0.46566E-20         0.00000E+00
    0.53489E-07         0.51223E-20         0.00000E+00
    0.51188E-07        -0.69849E-21         0.00000E+00
    0.48996E-07        -0.11642E-19         0.00000E+00
    0.46909E-07        -0.13970E-19         0.00000E+00
    0.44922E-07        -0.13737E-19         0.00000E+00
    0.43031E-07        -0.10710E-19         0.00000E+00
    0.41232E-07        -0.86147E-20         0.00000E+00
    0.39521E-07         0.41910E-20         0.00000E+00
    0.37894E-07         0.48894E-20         0.00000E+00
    0.36348E-07        -0.13970E-20         0.00000E+00
    0.34880E-07        -0.51223E-20         0.00000E+00
    0.33486E-07        -0.30268E-20         0.00000E+00
    0.32164E-07         0.16298E-20         0.00000E+00
    0.30910E-07        -0.46566E-20         0.00000E+00
    0.29722E-07        -0.16764E-19         0.00000E+00
    0.28598E-07        -0.13504E-19         0.00000E+00
    0.27535E-07        -0.11409E-19         0.00000E+00
    0.26530E-07        -0.14668E-19         0.00000E+00
    0.25582E-07        -0.20489E-19         0.00000E+00
    0.24689E-07        -0.16298E-19         0.00000E+00
    0.23849E-07        -0.81491E-20         0.00000E+00
    0.23059E-07        -0.46566E-21         0.00000E+00
    0.22319E-07         0.46566E-20         0.00000E+00
    0.21626E-07        -0.44238E-20         0.00000E+00
    0.20979E-07        -0.12806E-19         0.00000E+00
    0.20377E-07         0.93132E-20         0.00000E+00
    0.19819E-07         0.88476E-20         0.00000E+00
    0.19303E-07         0.11874E-19         0.00000E+00
    0.18828E-07         0.13039E-19         0.00000E+00
    0.18394E-07        -0.11642E-20         0.00000E+00
    0.17998E-07        -0.93132E-20         0.00000E+00
    0.17641E-07        -0.44238E-20         0.00000E+00
    0.17322E-07        -0.79162E-20         0.00000E+00
    0.17040E-07        -0.44238E-20         0.00000E+00
    0.16794E-07        -0.69849E-20         0.00000E+00
    0.16584E-07        -0.13970E-19         0.00000E+00
    0.16409E-07        -0.27940E-20         0.00000E+00
    0.16270E-07        -0.13039E-19         0.00000E+00
    0.16165E-07        -0.12806E-19         0.00000E+00
    0.16094E-07        -0.95461E-20         0.00000E+00
    0.16058E-07        -0.14901E-19         0.00000E+00
    0.16056E-07        -0.12573E-19         0.00000E+00
    0.16089E-07        -0.34925E-20         0.00000E+00
    0.16156E-07         0.10012E-19         0.00000E+00
    0.16257E-07        -0.30268E-20         0.00000E+00
    0.16393E-07        -0.83819E-20         0.00000E+00
    0.16564E-07        -0.11642E-20         0.00000E+00
    0.16770E-07        -0.23283E-21         0.00000E+00
    0.17013E-07        -0.10477E-19         0.00000E+00
    0.17291E-07        -0.58208E-20         0.00000E+00
    0.17606E-07        -0.93132E-21         0.00000E+00
    0.17959E-07        -0.46566E-20         0.00000E+00
    0.18351E-07         0.18626E-20         0.00000E+00
    0.18781E-07         0.39581E-20         0.00000E+00
    0.19252E-07        -0.95461E-20         0.00000E+00
    0.19764E-07        -0.97789E-20         0.00000E+00
    0.20317E-07        -0.23283E-21         0.00000E+00
    0.20915E-07        -0.51223E-20         0.00000E+00
    0.21557E-07        -0.11874E-19         0.00000E+00
    0.22244E-07        -0.83819E-20         0.00000E+00
    0.22980E-07        -0.16065E-19         0.00000E+00
    0.23764E-07        -0.37253E-20         0.00000E+00
    0.24599E-07         0.10245E-19         0.00000E+00
    0.25487E-07         0.88476E-20         0.00000E+00
    0.26429E-07        -0.58208E-20         0.00000E+00
    0.27428E-07        -0.46566E-21         0.00000E+00
    0.28485E-07        -0.46566E-21         0.00000E+00
    0.29602E-07        -0.46566E-21         0.00000E+00
    0.30784E-07        -0.76834E-20         0.00000E+00
    0.32030E-07        -0.58208E-20         0.00000E+00
    0.33345E-07         0.53551E-20         0.00000E+00
    0.34732E-07         0.58208E-20         0.00000E+00
    0.36192E-07         0.69849E-20         0.00000E+00
    0.37730E-07         0.41910E-20         0.00000E+00
    0.39348E-07        -0.10012E-19         0.00000E+00
    0.41050E-07        -0.93132E-20         0.00000E+00
    0.42840E-07         0.83819E-20         0.00000E+00
    0.44721E-07         0.60536E-20         0.00000E+00
    0.46698E-07         0.32596E-20         0.00000E+00
    0.48775E-07        -0.18626E-20         0.00000E+00
    0.50955E-07         0.27940E-20         0.00000E+00
    0.53244E-07         0.12922E-19         0.00000E+00
    0.55647E-07         0.34925E-21         0.00000E+00
    0.58169E-07         0.12806E-20         0.00000E+00
    0.60815E-07         0.39581E-20         0.00000E+00
    0.63591E-07         0.55879E-20         0.00000E+00
    0.66502E-07         0.11991E-19         0.00000E+00
    0.69556E-07         0.48894E-20         0.00000E+00
    0.91678E-07         0.13970E-20         0.00000E+00
    0.87605E-07        -0.12573E-19         0.00000E+00
    0.83718E-07        -0.37253E-20         0.00000E+00
    0.80010E-07         0.46566E-20         0.00000E+00
    0.76473E-07         0.34925E-20         0.00000E+00
    0.73100E-07         0.17462E-19         0.00000E+00
    0.69882E-07         0.20955E-19         0.00000E+00
    0.66813E-07         0.67521E-20         0.00000E+00
    0.63887E-07         0.23283E-20         0.00000E+00
    0.61098E-07        -0.39581E-20         0.00000E+00
    0.58438E-07         0.20955E-20         0.00000E+00
    0.55904E-07         0.13737E-19         0.00000E+00
    0.53489E-07         0.14203E-19         0.00000E+00
    0.51188E-07         0.32596E-20         0.00000E+00
    0.48996E-07        -0.12573E-19         0.00000E+00
    0.46909E-07        -0.51223E-20         0.00000E+00
    0.44922E-07        -0.17928E-19         0.00000E+00
    0.43031E-07        -0.18161E-19         0.00000E+00
    0.41232E-07         0.72177E-20         0.00000E+00
    0.39521E-07        -0.20955E-20         0.00000E+00
    0.37894E-07        -0.44238E-20         0.00000E+00
    0.36348E-07        -0.27940E-20         0.00000E+00
    0.34880E-07        -0.13970E-20         0.00000E+00
    0.33486E-07         0.46566E-21         0.00000E+00
    0.32164E-07        -0.18626E-20         0.00000E+00
    0.30910E-07        -0.69849E-20         0.00000E+00
    0.29722E-07        -0.37253E-20         0.00000E+00
    0.28598E-07        -0.44238E-20         0.00000E+00
    0.27535E-07        -0.10477E-19         0.00000E+00
    0.26530E-07        -0.81491E-20         0.00000E+00
    0.25582E-07        -0.10012E-19         0.00000E+00
    0.24689E-07        -0.55879E-20         0.00000E+00
    0.23849E-07        -0.62864E-20         0.00000E+00
    0.23059E-07        -0.10245E-19         0.00000E+00
    0.22319E-07        -0.79162E-20         0.00000E+00
    0.21626E-07        -0.86147E-20         0.00000E+00
    0.20979E-07        -0.11642E-20         0.00000E+00
    0.20377E-07        -0.13970E-20         0.00000E+00
    0.19819E-07         0.46566E-21         0.00000E+00
    0.19303E-07        -0.11642E-20         0.00000E+00
    0.18828E-07         0.00000E+00         0.00000E+00
    0.18394E-07        -0.16298E-20         0.00000E+00
    0.17998E-07        -0.60536E-20         0.00000E+00
    0.17641E-07        -0.15367E-19         0.00000E+00
    0.17322E-07        -0.15832E-19         0.00000E+00
    0.17040E-07         0.20955E-20         0.00000E+00
    0.16794E-07         0.20955E-20         0.00000E+00
    0.16584E-07        -0.65193E-20         0.00000E+00
    0.16409E-07        -0.20955E-19         0.00000E+00
    0.16270E-07        -0.20489E-19         0.00000E+00
    0.16165E-07        -0.10477E-19         0.00000E+00
    0.16094E-07        -0.67521E-20         0.00000E+00
    0.16058E-07        -0.55879E-20         0.00000E+00
    0.16056E-07        -0.14901E-19         0.00000E+00
    0.16089E-07        -0.74506E-20         0.00000E+00
    0.16156E-07        -0.48894E-20         0.00000E+00
    0.16257E-07        -0.13039E-19         0.00000E+00
    0.16393E-07        -0.12573E-19         0.00000E+00
    0.16564E-07        -0.17229E-19         0.00000E+00
    0.16770E-07        -0.10710E-19         0.00000E+00
    0.17013E-07        -0.90804E-20         0.00000E+00
    0.17291E-07        -0.10012E-19         0.00000E+00
    0.17606E-07        -0.39581E-20         0.00000E+00
    0.17959E-07        -0.81491E-20         0.00000E+00
    0.18351E-07        -0.15134E-19         0.00000E+00
    0.18781E-07        -0.51223E-20         0.00000E+00
    0.19252E-07         0.20955E-20         0.00000E+00
    0.19764E-07        -0.41910E-20         0.00000E+00
    0.20317E-07         0.23283E-21         0.00000E+00
    0.20915E-07         0.60536E-20         0.00000E+00
    0.21557E-07         0.23283E-21         0.00000E+00
    0.22244E-07        -0.10943E-19         0.00000E+00
    0.22980E-07        -0.11409E-19         0.00000E+00
    0.23764E-07        -0.74506E-20         0.00000E+00
    0.24599E-07        -0.53551E-20         0.00000E+00
    0.25487E-07         0.13970E-20         0.00000E+00
    0.26429E-07        -0.11642E-19         0.00000E+00
    0.27428E-07        -0.13970E-19         0.00000E+00
    0.28485E-07         0.16298E-20         0.00000E+00
    0.29602E-07         0.95461E-20         0.00000E+00
    0.30784E-07        -0.39581E-20         0.00000E+00
    0.32030E-07        -0.41910E-20         0.00000E+00
    0.33345E-07         0.11176E-19         0.00000E+00
    0.34732E-07         0.41910E-20         0.00000E+00
    0.36192E-07         0.53551E-20         0.00000E+00
    0.37730E-07         0.90804E-20         0.00000E+00
    0.39348E-07        -0.32596E-20         0.00000E+00
    0.41050E-07        -0.34925E-20         0.00000E+00
    0.42840E-07        -0.18626E-20         0.00000E+00
    0.44721E-07         0.13970E-20         0.00000E+00
    0.46698E-07         0.41910E-20         0.00000E+00
    0.48775E-07        -0.23283E-21         0.00000E+00
    0.50955E-07         0.10012E-19         0.00000E+00
    0.53244E-07         0.11991E-19         0.00000E+00
    0.55647E-07         0.93132E-20         0.00000E+00
    0.58169E-07         0.76834E-20         0.00000E+00
    0.60815E-07         0.23283E-20         0.00000E+00
    0.63591E-07         0.16880E-19         0.00000E+00
    0.66502E-07         0.11874E-19         0.00000E+00
    0.69556E-07         0.15134E-20         0.00000E+00
    0.91678E-07         0.16065E-19         0.00000E+00
    0.87605E-07         0.86147E-20         0.00000E+00
    0.83718E-07         0.11642E-19         0.00000E+00
    0.80010E-07         0.18859E-19         0.00000E+00
    0.76473E-07         0.60536E-20         0.00000E+00
    0.73100E-07         0.18161E-19         0.00000E+00
    0.69882E-07         0.26776E-19         0.00000E+00
    0.66813E-07         0.23516E-19         0.00000E+00
    0.63887E-07         0.23283E-21         0.00000E+00
    0.61098E-07        -0.51223E-20         0.00000E+00
    0.58438E-07         0.13970E-19         0.00000E+00
    0.55904E-07         0.65193E-20         0.00000E+00
    0.53489E-07        -0.16298E-20         0.00000E+00
    0.51188E-07        -0.55879E-20         0.00000E+00
    0.48996E-07        -0.10710E-19         0.00000E+00
    0.46909E-07        -0.14901E-19         0.00000E+00
    0.44922E-07        -0.17462E-19         0.00000E+00
    0.43031E-07        -0.10012E-19         0.00000E+00
    0.41232E-07        -0.32596E-20         0.00000E+00
    0.39521E-07         0.37253E-20         0.00000E+00
    0.37894E-07         0.58208E-20         0.00000E+00
    0.36348E-07        -0.23283E-20         0.00000E+00
    0.34880E-07        -0.46566E-21         0.00000E+00
    0.33486E-07         0.34925E-20         0.00000E+00
    0.32164E-07        -0.88476E-20         0.00000E+00
    0.30910E-07        -0.37253E-20         0.00000E+00
    0.29722E-07        -0.32596E-20         0.00000E+00
    0.28598E-07        -0.20722E-19         0.00000E+00
    0.27535E-07        -0.16065E-19         0.00000E+00
    0.26530E-07        -0.16764E-19         0.00000E+00
    0.25582E-07        -0.83819E-20         0.00000E+00
    0.24689E-07         0.32596E-20         0.00000E+00
    0.23849E-07         0.27940E-20         0.00000E+00
    0.23059E-07         0.93132E-21         0.00000E+00
    0.22319E-07         0.18626E-20         0.00000E+00
    0.21626E-07         0.32596E-20         0.00000E+00
    0.20979E-07         0.23283E-20         0.00000E+00
    0.20377E-07        -0.11176E-19         0.00000E+00
    0.19819E-07         0.41910E-20         0.00000E+00
    0.19303E-07         0.22352E-19         0.00000E+00
    0.18828E-07         0.67521E-20         0.00000E+00
    0.18394E-07         0.11642E-20         0.00000E+00
    0.17998E-07        -0.93132E-21         0.00000E+00
    0.17641E-07        -0.51223E-20         0.00000E+00
    0.17322E-07        -0.72177E-20         0.00000E+00
    0.17040E-07        -0.32596E-20         0.00000E+00
    0.16794E-07        -0.23283E-21         0.00000E+00
    0.16584E-07         0.44238E-20         0.00000E+00
    0.16409E-07        -0.93132E-21         0.00000E+00
    0.16270E-07        -0.32596E-20         0.00000E+00
    0.16165E-07        -0.34925E-20         0.00000E+00
    0.16094E-07         0.93132E-21         0.00000E+00
    0.16058E-07         0.74506E-20         0.00000E+00
    0.16056E-07        -0.18626E-20         0.00000E+00
    0.16089E-07        -0.11409E-19         0.00000E+00
    0.16156E-07        -0.10477E-19         0.00000E+00
    0.16257E-07        -0.79162E-20         0.00000E+00
    0.16393E-07        -0.14435E-19         0.00000E+00
    0.16564E-07        -0.14668E-19         0.00000E+00
    0.16770E-07        -0.25611E-20         0.00000E+00
    0.17013E-07         0.16298E-20         0.00000E+00
    0.17291E-07        -0.53551E-20         0.00000E+00
    0.17606E-07        -0.27940E-20         0.00000E+00
    0.17959E-07         0.97789E-20         0.00000E+00
    0.18351E-07        -0.13271E-19         0.00000E+00
    0.18781E-07        -0.90804E-20         0.00000E+00
    0.19252E-07        -0.11176E-19         0.00000E+00
    0.19764E-07        -0.18626E-19         0.00000E+00
    0.20317E-07        -0.46566E-21         0.00000E+00
    0.20915E-07        -0.46566E-20         0.00000E+00
    0.21557E-07         0.23283E-20         0.00000E+00
    0.22244E-07         0.51223E-20         0.00000E+00
    0.22980E-07        -0.39581E-20         0.00000E+00
    0.23764E-07         0.27940E-20         0.00000E+00
    0.24599E-07         0.46566E-21         0.00000E+00
    0.25487E-07        -0.18626E-20         0.00000E+00
    0.26429E-07         0.25611E-20         0.00000E+00
    0.27428E-07         0.25611E-20         0.00000E+00
    0.28485E-07         0.30268E-20         0.00000E+00
    0.29602E-07        -0.46566E-21         0.00000E+00
    0.30784E-07        -0.25611E-20         0.00000E+00
    0.32030E-07        -0.93132E-20         0.00000E+00
    0.33345E-07        -0.13970E-20         0.00000E+00
    0.34732E-07         0.10012E-19         0.00000E+00
    0.36192E-07         0.79162E-20         0.00000E+00
    0.37730E-07        -0.60536E-20         0.00000E+00
    0.39348E-07        -0.11176E-19         0.00000E+00
    0.41050E-07         0.88476E-20         0.00000E+00
    0.42840E-07         0.51223E-20         0.00000E+00
    0.44721E-07        -0.39581E-20         0.00000E+00
    0.46698E-07        -0.69849E-21         0.00000E+00
    0.48775E-07         0.83819E-20         0.00000E+00
    0.50955E-07         0.48894E-20         0.00000E+00
    0.53244E-07         0.45402E-20         0.00000E+00
    0.55647E-07         0.14785E-19         0.00000E+00
    0.58169E-07         0.77998E-20         0.00000E+00
    0.60815E-07         0.77998E-20         0.00000E+00
    0.63591E-07         0.37253E-20         0.00000E+00
    0.66502E-07         0.37253E-20         0.00000E+00
    0.69556E-07         0.29104E-20         0.00000E+00
    0.91678E-07         0.69849E-20         0.00000E+00
    0.87605E-07         0.24913E-19         0.00000E+00
    0.83718E-07         0.28871E-19         0.00000E+00
    0.80010E-07         0.20722E-19         0.00000E+00
    0.76473E-07         0.15832E-19         0.00000E+00
    0.73100E-07         0.34692E-19         0.00000E+00
    0.69882E-07         0.29569E-19         0.00000E+00
    0.66813E-07         0.25379E-19         0.00000E+00
    0.63887E-07         0.26077E-19         0.00000E+00
    0.61098E-07         0.86147E-20         0.00000E+00
    0.58438E-07         0.12107E-19         0.00000E+00
    0.55904E-07        -0.93132E-21         0.00000E+00
    0.53489E-07        -0.69849E-20         0.00000E+00
    0.51188E-07         0.69849E-21         0.00000E+00
    0.48996E-07         0.13039E-19         0.00000E+00
    0.46909E-07         0.17229E-19         0.00000E+00
    0.44922E-07         0.41910E-20         0.00000E+00
    0.43031E-07         0.72177E-20         0.00000E+00
    0.41232E-07         0.46566E-20         0.00000E+00
    0.39521E-07         0.11642E-20         0.00000E+00
    0.37894E-07         0.12340E-19         0.00000E+00
    0.36348E-07         0.11409E-19         0.00000E+00
    0.34880E-07         0.27940E-20         0.00000E+00
    0.33486E-07         0.23283E-21         0.00000E+00
    0.32164E-07         0.83819E-20         0.00000E+00
    0.30910E-07         0.79162E-20         0.00000E+00
    0.29722E-07        -0.69849E-20         0.00000E+00
    0.28598E-07        -0.58208E-20         0.00000E+00
    0.27535E-07        -0.81491E-20         0.00000E+00
    0.26530E-07        -0.14901E-19         0.00000E+00
    0.25582E-07        -0.74506E-20         0.00000E+00
    0.24689E-07        -0.95461E-20         0.00000E+00
    0.23849E-07        -0.83819E-20         0.00000E+00
    0.23059E-07         0.11176E-19         0.00000E+00
    0.22319E-07         0.65193E-20         0.00000E+00
    0.21626E-07         0.16764E-19         0.00000E+00
    0.20979E-07         0.90804E-20         0.00000E+00
    0.20377E-07        -0.25611E-20         0.00000E+00
    0.19819E-07         0.58208E-20         0.00000E+00
    0.19303E-07         0.10943E-19         0.00000E+00
    0.18828E-07         0.17462E-19         0.00000E+00
    0.18394E-07         0.13271E-19         0.00000E+00
    0.17998E-07         0.37253E-20         0.00000E+00
    0.17641E-07        -0.16298E-20         0.00000E+00
    0.17322E-07         0.23283E-21         0.00000E+00
    0.17040E-07         0.95461E-20         0.00000E+00
    0.16794E-07         0.15367E-19         0.00000E+00
    0.16584E-07         0.65193E-20         0.00000E+00
    0.16409E-07         0.74506E-20         0.00000E+00
    0.16270E-07         0.13970E-19         0.00000E+00
    0.16165E-07         0.11874E-19         0.00000E+00
    0.16094E-07         0.83819E-20         0.00000E+00
    0.16058E-07         0.10245E-19         0.00000E+00
    0.16056E-07         0.13504E-19         0.00000E+00
    0.16089E-07         0.74506E-20         0.00000E+00
    0.16156E-07        -0.41910E-20         0.00000E+00
    0.16257E-07         0.11642E-20         0.00000E+00
    0.16393E-07         0.69849E-21         0.00000E+00
    0.16564E-07        -0.46566E-20         0.00000E+00
    0.16770E-07        -0.11642E-19         0.00000E+00
    0.17013E-07        -0.90804E-20         0.00000E+00
    0.17291E-07        -0.34925E-20         0.00000E+00
    0.17606E-07        -0.11176E-19         0.00000E+00
    0.17959E-07        -0.10245E-19         0.00000E+00
    0.18351E-07        -0.15832E-19         0.00000E+00
    0.18781E-07        -0.97789E-20         0.00000E+00
    0.19252E-07         0.25611E-20         0.00000E+00
    0.19764E-07         0.46566E-21         0.00000E+00
    0.20317E-07         0.46566E-20         0.00000E+00
    0.20915E-07         0.69849E-20         0.00000E+00
    0.21557E-07         0.51223E-20         0.00000E+00
    0.22244E-07         0.90804E-20         0.00000E+00
    0.22980E-07         0.14901E-19         0.00000E+00
    0.23764E-07         0.97789E-20         0.00000E+00
    0.24599E-07         0.60536E-20         0.00000E+00
    0.25487E-07         0.97789E-20         0.00000E+00
    0.26429E-07         0.20955E-19         0.00000E+00
    0.27428E-07         0.18161E-19         0.00000E+00
    0.28485E-07         0.10710E-19         0.00000E+00
    0.29602E-07         0.10245E-19         0.00000E+00
    0.30784E-07         0.62864E-20         0.00000E+00
    0.32030E-07         0.16298E-20         0.00000E+00
    0.33345E-07         0.10012E-19         0.00000E+00
    0.34732E-07         0.21886E-19         0.00000E+00
    0.36192E-07         0.11409E-19         0.00000E+00
    0.37730E-07        -0.69849E-21         0.00000E+00
    0.39348E-07         0.13970E-20         0.00000E+00
    0.41050E-07         0.14435E-19         0.00000E+00
    0.42840E-07         0.72177E-20         0.00000E+00
    0.44721E-07         0.62864E-20         0.00000E+00
    0.46698E-07         0.69849E-20         0.00000E+00
    0.48775E-07         0.11409E-19         0.00000E+00
    0.50955E-07         0.14203E-19         0.00000E+00
    0.53244E-07         0.17346E-19         0.00000E+00
    0.55647E-07         0.16182E-19         0.00000E+00
    0.58169E-07         0.60536E-20         0.00000E+00
    0.60815E-07         0.12456E-19         0.00000E+00
    0.63591E-07         0.73342E-20         0.00000E+00
    0.66502E-07        -0.43074E-20         0.00000E+00
    0.69556E-07        -0.34925E-21         0.00000E+00
    0.91678E-07         0.55879E-20         0.00000E+00
    0.87605E-07         0.11642E-19         0.00000E+00
    0.83718E-07         0.12573E-19         0.00000E+00
    0.80010E-07         0.27008E-19         0.00000E+00
    0.76473E-07         0.22352E-19         0.00000E+00
    0.73100E-07         0.86147E-20         0.00000E+00
    0.69882E-07         0.27707E-19         0.00000E+00
    0.66813E-07         0.22585E-19         0.00000E+00
    0.63887E-07         0.16298E-19         0.00000E+00
    0.61098E-07         0.37253E-20         0.00000E+00
    0.58438E-07        -0.65193E-20         0.00000E+00
    0.55904E-07         0.67521E-20         0.00000E+00
    0.53489E-07         0.14668E-19         0.00000E+00
    0.51188E-07        -0.93132E-21         0.00000E+00
    0.48996E-07        -0.27940E-20         0.00000E+00
    0.46909E-07         0.46566E-20         0.00000E+00
    0.44922E-07        -0.48894E-20         0.00000E+00
    0.43031E-07        -0.46566E-20         0.00000E+00
    0.41232E-07        -0.10012E-19         0.00000E+00
    0.39521E-07        -0.10477E-19         0.00000E+00
    0.37894E-07         0.81491E-20         0.00000E+00
    0.36348E-07         0.93132E-21         0.00000E+00
    0.34880E-07        -0.76834E-20         0.00000E+00
    0.33486E-07         0.51223E-20         0.00000E+00
    0.32164E-07         0.46566E-21         0.00000E+00
    0.30910E-07        -0.18626E-20         0.00000E+00
    0.29722E-07         0.46566E-20         0.00000E+00
    0.28598E-07         0.12107E-19         0.00000E+00
    0.27535E-07        -0.62864E-20         0.00000E+00
    0.26530E-07        -0.14668E-19         0.00000E+00
    0.25582E-07        -0.41910E-20         0.00000E+00
    0.24689E-07        -0.34925E-20         0.00000E+00
    0.23849E-07         0.11642E-20         0.00000E+00
    0.23059E-07         0.12573E-19         0.00000E+00
    0.22319E-07         0.10245E-19         0.00000E+00
    0.21626E-07         0.13271E-19         0.00000E+00
    0.20979E-07         0.20722E-19         0.00000E+00
    0.20377E-07         0.88476E-20         0.00000E+00
    0.19819E-07         0.39581E-20         0.00000E+00
    0.19303E-07         0.11409E-19         0.00000E+00
    0.18828E-07         0.81491E-20         0.00000E+00
    0.18394E-07         0.93132E-20         0.00000E+00
    0.17998E-07         0.11176E-19         0.00000E+00
    0.17641E-07         0.10943E-19         0.00000E+00
    0.17322E-07         0.27940E-20         0.00000E+00
    0.17040E-07         0.00000E+00         0.00000E+00
    0.16794E-07         0.34925E-20         0.00000E+00
    0.16584E-07         0.11642E-19         0.00000E+00
    0.16409E-07         0.13970E-20         0.00000E+00
    0.16270E-07        -0.69849E-21         0.00000E+00
    0.16165E-07         0.15832E-19         0.00000E+00
    0.16094E-07         0.11642E-19         0.00000E+00
    0.16058E-07         0.46566E-20         0.00000E+00
    0.16056E-07         0.16298E-19         0.00000E+00
    0.16089E-07         0.17229E-19         0.00000E+00
    0.16156E-07        -0.51223E-20         0.00000E+00
    0.16257E-07        -0.12806E-19         0.00000E+00
    0.16393E-07        -0.41910E-20         0.00000E+00
    0.16564E-07        -0.10477E-19         0.00000E+00
    0.16770E-07        -0.10477E-19         0.00000E+00
    0.17013E-07        -0.39581E-20         0.00000E+00
    0.17291E-07        -0.13271E-19         0.00000E+00
    0.17606E-07        -0.69849E-20         0.00000E+00
    0.17959E-07        -0.11642E-20         0.00000E+00
    0.18351E-07        -0.10245E-19         0.00000E+00
    0.18781E-07        -0.65193E-20         0.00000E+00
    0.19252E-07         0.44238E-20         0.00000E+00
    0.19764E-07        -0.93132E-21         0.00000E+00
    0.20317E-07         0.34925E-20         0.00000E+00
    0.20915E-07         0.17695E-19         0.00000E+00
    0.21557E-07         0.12107E-19         0.00000E+00
    0.22244E-07         0.74506E-20         0.00000E+00
    0.22980E-07        -0.39581E-20         0.00000E+00
    0.23764E-07        -0.48894E-20         0.00000E+00
    0.24599E-07         0.20023E-19         0.00000E+00
    0.25487E-07         0.11409E-19         0.00000E+00
    0.26429E-07         0.12107E-19         0.00000E+00
    0.27428E-07         0.23749E-19         0.00000E+00
    0.28485E-07         0.15600E-19         0.00000E+00
    0.29602E-07         0.12107E-19         0.00000E+00
    0.30784E-07         0.41910E-20         0.00000E+00
    0.32030E-07         0.46566E-20         0.00000E+00
    0.33345E-07         0.22817E-19         0.00000E+00
    0.34732E-07         0.24447E-19         0.00000E+00
    0.36192E-07         0.24447E-19         0.00000E+00
    0.37730E-07         0.22352E-19         0.00000E+00
    0.39348E-07         0.65193E-20         0.00000E+00
    0.41050E-07         0.53551E-20         0.00000E+00
    0.42840E-07         0.18626E-20         0.00000E+00
    0.44721E-07         0.55879E-20         0.00000E+00
    0.46698E-07         0.17229E-19         0.00000E+00
    0.48775E-07         0.86147E-20         0.00000E+00
    0.50955E-07         0.51223E-20         0.00000E+00
    0.53244E-07         0.18626E-19         0.00000E+00
    0.55647E-07         0.22002E-19         0.00000E+00
    0.58169E-07         0.21770E-19         0.00000E+00
    0.60815E-07         0.68685E-20         0.00000E+00
    0.63591E-07        -0.46566E-21         0.00000E+00
    0.66502E-07        -0.17462E-20         0.00000E+00
    0.69556E-07        -0.51223E-20         0.00000E+00
    0.91678E-07         0.10710E-19         0.00000E+00
    0.87605E-07         0.24447E-19         0.00000E+00
    0.83718E-07         0.35390E-19         0.00000E+00
    0.80010E-07         0.31199E-19         0.00000E+00
    0.76473E-07         0.44238E-19         0.00000E+00
    0.73100E-07         0.37020E-19         0.00000E+00
    0.69882E-07         0.14203E-19         0.00000E+00
    0.66813E-07         0.16764E-19         0.00000E+00
    0.63887E-07         0.23749E-19         0.00000E+00
    0.61098E-07         0.26543E-19         0.00000E+00
    0.58438E-07         0.20023E-19         0.00000E+00
    0.55904E-07         0.13271E-19         0.00000E+00
    0.53489E-07         0.62864E-20         0.00000E+00
    0.51188E-07         0.30268E-20         0.00000E+00
    0.48996E-07         0.72177E-20         0.00000E+00
    0.46909E-07         0.83819E-20         0.00000E+00
    0.44922E-07         0.14203E-19         0.00000E+00
    0.43031E-07         0.51223E-20         0.00000E+00
    0.41232E-07        -0.25611E-20         0.00000E+00
    0.39521E-07         0.81491E-20         0.00000E+00
    0.37894E-07         0.12806E-19         0.00000E+00
    0.36348E-07         0.13504E-19         0.00000E+00
    0.34880E-07         0.83819E-20         0.00000E+00
    0.33486E-07        -0.37616E-36         0.00000E+00
    0.32164E-07         0.17462E-19         0.00000E+00
    0.30910E-07         0.17695E-19         0.00000E+00
    0.29722E-07         0.27940E-20         0.00000E+00
    0.28598E-07         0.10477E-19         0.00000E+00
    0.27535E-07         0.13970E-19         0.00000E+00
    0.26530E-07         0.10710E-19         0.00000E+00
    0.25582E-07        -0.16298E-20         0.00000E+00
    0.24689E-07         0.17229E-19         0.00000E+00
    0.23849E-07         0.17928E-19         0.00000E+00
    0.23059E-07        -0.79162E-20         0.00000E+00
    0.22319E-07         0.13970E-20         0.00000E+00
    0.21626E-07         0.51223E-20         0.00000E+00
    0.20979E-07         0.10710E-19         0.00000E+00
    0.20377E-07         0.13504E-19         0.00000E+00
    0.19819E-07        -0.32596E-20         0.00000E+00
    0.19303E-07        -0.44238E-20         0.00000E+00
    0.18828E-07         0.13271E-19         0.00000E+00
    0.18394E-07         0.60536E-20         0.00000E+00
    0.17998E-07         0.00000E+00         0.00000E+00
    0.17641E-07         0.46566E-21         0.00000E+00
    0.17322E-07        -0.27940E-20         0.00000E+00
    0.17040E-07         0.39581E-20         0.00000E+00
    0.16794E-07         0.44238E-20         0.00000E+00
    0.16584E-07         0.90804E-20         0.00000E+00
    0.16409E-07        -0.93132E-21         0.00000E+00
    0.16270E-07         0.95461E-20         0.00000E+00
    0.16165E-07         0.14203E-19         0.00000E+00
    0.16094E-07         0.34925E-20         0.00000E+00
    0.16058E-07         0.46566E-21         0.00000E+00
    0.16056E-07         0.46566E-20         0.00000E+00
    0.16089E-07         0.55879E-20         0.00000E+00
    0.16156E-07        -0.27940E-20         0.00000E+00
    0.16257E-07        -0.79162E-20         0.00000E+00
    0.16393E-07        -0.37253E-20         0.00000E+00
    0.16564E-07        -0.32596E-20         0.00000E+00
    0.16770E-07        -0.19325E-19         0.00000E+00
    0.17013E-07        -0.16065E-19         0.00000E+00
    0.17291E-07        -0.18161E-19         0.00000E+00
    0.17606E-07        -0.88476E-20         0.00000E+00
    0.17959E-07        -0.55879E-20         0.00000E+00
    0.18351E-07        -0.10012E-19         0.00000E+00
    0.18781E-07        -0.46566E-20         0.00000E+00
    0.19252E-07         0.23283E-21         0.00000E+00
    0.19764E-07         0.48894E-20         0.00000E+00
    0.20317E-07        -0.23283E-21         0.00000E+00
    0.20915E-07         0.23283E-20         0.00000E+00
    0.21557E-07         0.41910E-20         0.00000E+00
    0.22244E-07         0.90804E-20         0.00000E+00
    0.22980E-07         0.10710E-19         0.00000E+00
    0.23764E-07         0.11176E-19         0.00000E+00
    0.24599E-07         0.21420E-19         0.00000E+00
    0.25487E-07         0.22352E-19         0.00000E+00
    0.26429E-07         0.26776E-19         0.00000E+00
    0.27428E-07         0.21653E-19         0.00000E+00
    0.28485E-07         0.15832E-19         0.00000E+00
    0.29602E-07         0.18161E-19         0.00000E+00
    0.30784E-07         0.11874E-19         0.00000E+00
    0.32030E-07         0.58208E-20         0.00000E+00
    0.33345E-07         0.13039E-19         0.00000E+00
    0.34732E-07         0.24214E-19         0.00000E+00
    0.36192E-07         0.30734E-19         0.00000E+00
    0.37730E-07         0.22119E-19         0.00000E+00
    0.39348E-07         0.95461E-20         0.00000E+00
    0.41050E-07         0.15600E-19         0.00000E+00
    0.42840E-07         0.20023E-19         0.00000E+00
    0.44721E-07         0.13039E-19         0.00000E+00
    0.46698E-07         0.86147E-20         0.00000E+00
    0.48775E-07         0.15832E-19         0.00000E+00
    0.50955E-07         0.23982E-19         0.00000E+00
    0.53244E-07         0.11059E-19         0.00000E+00
    0.55647E-07         0.16764E-19         0.00000E+00
    0.58169E-07         0.28056E-19         0.00000E+00
    0.60815E-07         0.26426E-19         0.00000E+00
    0.63591E-07         0.16182E-19         0.00000E+00
    0.66502E-07         0.12689E-19         0.00000E+00
    0.69556E-07         0.73342E-20         0.00000E+00
    0.91678E-07        -0.10710E-19         0.00000E+00
    0.87605E-07         0.14668E-19         0.00000E+00
    0.83718E-07         0.47497E-19         0.00000E+00
    0.80010E-07         0.23749E-19         0.00000E+00
    0.76473E-07         0.14435E-19         0.00000E+00
    0.73100E-07         0.15600E-19         0.00000E+00
    0.69882E-07         0.31898E-19         0.00000E+00
    0.66813E-07         0.21886E-19         0.00000E+00
    0.63887E-07         0.37253E-20         0.00000E+00
    0.61098E-07         0.12573E-19         0.00000E+00
    0.58438E-07         0.60536E-20         0.00000E+00
    0.55904E-07        -0.23283E-20         0.00000E+00
    0.53489E-07        -0.76834E-20         0.00000E+00
    0.51188E-07         0.60536E-20         0.00000E+00
    0.48996E-07        -0.37253E-20         0.00000E+00
    0.46909E-07        -0.19092E-19         0.00000E+00
    0.44922E-07        -0.95461E-20         0.00000E+00
    0.43031E-07        -0.86147E-20         0.00000E+00
    0.41232E-07        -0.13271E-19         0.00000E+00
    0.39521E-07         0.34925E-20         0.00000E+00
    0.37894E-07         0.10477E-19         0.00000E+00
    0.36348E-07        -0.23283E-21         0.00000E+00
    0.34880E-07         0.11176E-19         0.00000E+00
    0.33486E-07         0.12340E-19         0.00000E+00
    0.32164E-07        -0.11642E-20         0.00000E+00
    0.30910E-07         0.13970E-20         0.00000E+00
    0.29722E-07         0.58208E-20         0.00000E+00
    0.28598E-07        -0.27940E-20         0.00000E+00
    0.27535E-07        -0.67521E-20         0.00000E+00
    0.26530E-07         0.32596E-20         0.00000E+00
    0.25582E-07         0.65193E-20         0.00000E+00
    0.24689E-07        -0.25611E-20         0.00000E+00
    0.23849E-07        -0.30268E-20         0.00000E+00
    0.23059E-07         0.25611E-20         0.00000E+00
    0.22319E-07         0.16298E-20         0.00000E+00
    0.21626E-07         0.86147E-20         0.00000E+00
    0.20979E-07         0.27474E-19         0.00000E+00
    0.20377E-07         0.20955E-19         0.00000E+00
    0.19819E-07         0.65193E-20         0.00000E+00
    0.19303E-07        -0.11642E-20         0.00000E+00
    0.18828E-07         0.37253E-20         0.00000E+00
    0.18394E-07         0.12340E-19         0.00000E+00
    0.17998E-07         0.13504E-19         0.00000E+00
    0.17641E-07        -0.93132E-21         0.00000E+00
    0.17322E-07         0.65193E-20         0.00000E+00
    0.17040E-07        -0.60536E-20         0.00000E+00
    0.16794E-07        -0.18859E-19         0.00000E+00
    0.16584E-07         0.90804E-20         0.00000E+00
    0.16409E-07         0.79162E-20         0.00000E+00
    0.16270E-07         0.51223E-20         0.00000E+00
    0.16165E-07         0.22585E-19         0.00000E+00
    0.16094E-07         0.79162E-20         0.00000E+00
    0.16058E-07         0.41910E-20         0.00000E+00
    0.16056E-07         0.13504E-19         0.00000E+00
    0.16089E-07         0.23283E-20         0.00000E+00
    0.16156E-07         0.93132E-20         0.00000E+00
    0.16257E-07         0.10012E-19         0.00000E+00
    0.16393E-07         0.32596E-20         0.00000E+00
    0.16564E-07         0.93132E-21         0.00000E+00
    0.16770E-07        -0.11409E-19         0.00000E+00
    0.17013E-07        -0.11874E-19         0.00000E+00
    0.17291E-07        -0.32596E-20         0.00000E+00
    0.17606E-07        -0.62864E-20         0.00000E+00
    0.17959E-07        -0.72177E-20         0.00000E+00
    0.18351E-07        -0.18626E-20         0.00000E+00
    0.18781E-07        -0.93132E-21         0.00000E+00
    0.19252E-07         0.23283E-20         0.00000E+00
    0.19764E-07         0.86147E-20         0.00000E+00
    0.20317E-07         0.48894E-20         0.00000E+00
    0.20915E-07        -0.23283E-20         0.00000E+00
    0.21557E-07        -0.55879E-20         0.00000E+00
    0.22244E-07         0.13970E-19         0.00000E+00
    0.22980E-07         0.22585E-19         0.00000E+00
    0.23764E-07         0.17695E-19         0.00000E+00
    0.24599E-07         0.25146E-19         0.00000E+00
    0.25487E-07         0.18161E-19         0.00000E+00
    0.26429E-07         0.20955E-19         0.00000E+00
    0.27428E-07         0.27940E-19         0.00000E+00
    0.28485E-07         0.16298E-19         0.00000E+00
    0.29602E-07         0.10245E-19         0.00000E+00
    0.30784E-07         0.14203E-19         0.00000E+00
    0.32030E-07         0.76834E-20         0.00000E+00
    0.33345E-07         0.41910E-20         0.00000E+00
    0.34732E-07         0.25379E-19         0.00000E+00
    0.36192E-07         0.12107E-19         0.00000E+00
    0.37730E-07         0.10477E-19         0.00000E+00
    0.39348E-07         0.16531E-19         0.00000E+00
    0.41050E-07         0.13039E-19         0.00000E+00
    0.42840E-07         0.72177E-20         0.00000E+00
    0.44721E-07         0.27940E-20         0.00000E+00
    0.46698E-07         0.19558E-19         0.00000E+00
    0.48775E-07         0.30501E-19         0.00000E+00
    0.50955E-07         0.22585E-19         0.00000E+00
    0.53244E-07         0.20023E-19         0.00000E+00
    0.55647E-07         0.21886E-19         0.00000E+00
    0.58169E-07         0.30501E-19         0.00000E+00
    0.60815E-07         0.16997E-19         0.00000E+00
    0.63591E-07        -0.46566E-21         0.00000E+00
    0.66502E-07         0.81491E-21         0.00000E+00
    0.69556E-07         0.22119E-20         0.00000E+00
    0.91678E-07        -0.11176E-19         0.00000E+00
    0.87605E-07         0.33760E-19         0.00000E+00
    0.83718E-07         0.53085E-19         0.00000E+00
    0.80010E-07         0.22817E-19         0.00000E+00
    0.76473E-07         0.24214E-19         0.00000E+00
    0.73100E-07         0.39348E-19         0.00000E+00
    0.69882E-07         0.50059E-19         0.00000E+00
    0.66813E-07         0.37951E-19         0.00000E+00
    0.63887E-07         0.27707E-19         0.00000E+00
    0.61098E-07         0.37253E-20         0.00000E+00
    0.58438E-07         0.83819E-20         0.00000E+00
    0.55904E-07         0.15832E-19         0.00000E+00
    0.53489E-07         0.11409E-19         0.00000E+00
    0.51188E-07         0.27940E-20         0.00000E+00
    0.48996E-07         0.83819E-20         0.00000E+00
    0.46909E-07        -0.34925E-20         0.00000E+00
    0.44922E-07        -0.74506E-20         0.00000E+00
    0.43031E-07        -0.10245E-19         0.00000E+00
    0.41232E-07        -0.67521E-20         0.00000E+00
    0.39521E-07         0.11409E-19         0.00000E+00
    0.37894E-07         0.13737E-19         0.00000E+00
    0.36348E-07         0.16065E-19         0.00000E+00
    0.34880E-07         0.31898E-19         0.00000E+00
    0.33486E-07         0.16298E-19         0.00000E+00
    0.32164E-07         0.10245E-19         0.00000E+00
    0.30910E-07         0.90804E-20         0.00000E+00
    0.29722E-07         0.93132E-20         0.00000E+00
    0.28598E-07         0.83819E-20         0.00000E+00
    0.27535E-07         0.10012E-19         0.00000E+00
    0.26530E-07         0.25611E-20         0.00000E+00
    0.25582E-07         0.11176E-19         0.00000E+00
    0.24689E-07         0.15832E-19         0.00000E+00
    0.23849E-07         0.90804E-20         0.00000E+00
    0.23059E-07         0.65193E-20         0.00000E+00
    0.22319E-07         0.12107E-19         0.00000E+00
    0.21626E-07         0.93132E-20         0.00000E+00
    0.20979E-07         0.13737E-19         0.00000E+00
    0.20377E-07         0.18859E-19         0.00000E+00
    0.19819E-07         0.93132E-20         0.00000E+00
    0.19303E-07         0.81491E-20         0.00000E+00
    0.18828E-07         0.12340E-19         0.00000E+00
    0.18394E-07         0.83819E-20         0.00000E+00
    0.17998E-07         0.20023E-19         0.00000E+00
    0.17641E-07         0.69849E-20         0.00000E+00
    0.17322E-07        -0.23283E-20         0.00000E+00
    0.17040E-07         0.25611E-20         0.00000E+00
    0.16794E-07         0.41910E-20         0.00000E+00
    0.16584E-07         0.20955E-19         0.00000E+00
    0.16409E-07         0.18626E-19         0.00000E+00
    0.16270E-07         0.22352E-19         0.00000E+00
    0.16165E-07         0.62864E-20         0.00000E+00
    0.16094E-07         0.48894E-20         0.00000E+00
    0.16058E-07         0.24913E-19         0.00000E+00
    0.16056E-07         0.16764E-19         0.00000E+00
    0.16089E-07         0.20023E-19         0.00000E+00
    0.16156E-07         0.15134E-19         0.00000E+00
    0.16257E-07         0.32596E-20         0.00000E+00
    0.16393E-07        -0.83819E-20         0.00000E+00
    0.16564E-07         0.67521E-20         0.00000E+00
    0.16770E-07        -0.25611E-20         0.00000E+00
    0.17013E-07        -0.19325E-19         0.00000E+00
    0.17291E-07         0.27940E-20         0.00000E+00
    0.17606E-07         0.16298E-20         0.00000E+00
    0.17959E-07         0.37253E-20         0.00000E+00
    0.18351E-07         0.95461E-20         0.00000E+00
    0.18781E-07         0.18626E-20         0.00000E+00
    0.19252E-07         0.10943E-19         0.00000E+00
    0.19764E-07         0.12573E-19         0.00000E+00
    0.20317E-07         0.12107E-19         0.00000E+00
    0.20915E-07         0.12806E-19         0.00000E+00
    0.21557E-07         0.15832E-19         0.00000E+00
    0.22244E-07         0.10477E-19         0.00000E+00
    0.22980E-07         0.16997E-19         0.00000E+00
    0.23764E-07         0.30734E-19         0.00000E+00
    0.24599E-07         0.34226E-19         0.00000E+00
    0.25487E-07         0.26776E-19         0.00000E+00
    0.26429E-07         0.21188E-19         0.00000E+00
    0.27428E-07         0.23050E-19         0.00000E+00
    0.28485E-07         0.83819E-20         0.00000E+00
    0.29602E-07         0.41910E-20         0.00000E+00
    0.30784E-07         0.18394E-19         0.00000E+00
    0.32030E-07         0.12340E-19         0.00000E+00
    0.33345E-07         0.15832E-19         0.00000E+00
    0.34732E-07         0.67521E-20         0.00000E+00
    0.36192E-07         0.15600E-19         0.00000E+00
    0.37730E-07         0.27707E-19         0.00000E+00
    0.39348E-07         0.28173E-19         0.00000E+00
    0.41050E-07         0.28405E-19         0.00000E+00
    0.42840E-07         0.22817E-19         0.00000E+00
    0.44721E-07         0.93132E-20         0.00000E+00
    0.46698E-07         0.16531E-19         0.00000E+00
    0.48775E-07         0.24680E-19         0.00000E+00
    0.50955E-07         0.10943E-19         0.00000E+00
    0.53244E-07         0.88476E-20         0.00000E+00
    0.55647E-07         0.20955E-19         0.00000E+00
    0.58169E-07         0.19558E-19         0.00000E+00
    0.60815E-07         0.73342E-20         0.00000E+00
    0.63591E-07         0.17462E-20         0.00000E+00
    0.66502E-07         0.16647E-19         0.00000E+00
    0.69556E-07         0.11409E-19         0.00000E+00
    0.91678E-07         0.37253E-20         0.00000E+00
    0.87605E-07         0.15134E-19         0.00000E+00
    0.83718E-07         0.44703E-19         0.00000E+00
    0.80010E-07         0.53085E-19         0.00000E+00
    0.76473E-07         0.38883E-19         0.00000E+00
    0.73100E-07         0.34459E-19         0.00000E+00
    0.69882E-07         0.28173E-19         0.00000E+00
    0.66813E-07         0.26077E-19         0.00000E+00
    0.63887E-07         0.28405E-19         0.00000E+00
    0.61098E-07         0.13271E-19         0.00000E+00
    0.58438E-07         0.27008E-19         0.00000E+00
    0.55904E-07         0.19092E-19         0.00000E+00
    0.53489E-07         0.12107E-19         0.00000E+00
    0.51188E-07         0.21886E-19         0.00000E+00
    0.48996E-07         0.60536E-20         0.00000E+00
    0.46909E-07         0.69849E-20         0.00000E+00
    0.44922E-07         0.22119E-19         0.00000E+00
    0.43031E-07         0.14901E-19         0.00000E+00
    0.41232E-07         0.24680E-19         0.00000E+00
    0.39521E-07         0.31898E-19         0.00000E+00
    0.37894E-07         0.28638E-19         0.00000E+00
    0.36348E-07         0.16764E-19         0.00000E+00
    0.34880E-07         0.13737E-19         0.00000E+00
    0.33486E-07         0.22817E-19         0.00000E+00
    0.32164E-07         0.20955E-19         0.00000E+00
    0.30910E-07         0.15367E-19         0.00000E+00
    0.29722E-07         0.65193E-20         0.00000E+00
    0.28598E-07         0.10710E-19         0.00000E+00
    0.27535E-07         0.19092E-19         0.00000E+00
    0.26530E-07         0.17229E-19         0.00000E+00
    0.25582E-07         0.16298E-19         0.00000E+00
    0.24689E-07         0.22817E-19         0.00000E+00
    0.23849E-07         0.15134E-19         0.00000E+00
    0.23059E-07         0.12573E-19         0.00000E+00
    0.22319E-07         0.18161E-19         0.00000E+00
    0.21626E-07         0.21188E-19         0.00000E+00
    0.20979E-07         0.23050E-19         0.00000E+00
    0.20377E-07         0.23749E-19         0.00000E+00
    0.19819E-07         0.18161E-19         0.00000E+00
    0.19303E-07         0.16065E-19         0.00000E+00
    0.18828E-07         0.11642E-19         0.00000E+00
    0.18394E-07         0.25844E-19         0.00000E+00
    0.17998E-07         0.27008E-19         0.00000E+00
    0.17641E-07         0.83819E-20         0.00000E+00
    0.17322E-07        -0.41910E-20         0.00000E+00
    0.17040E-07         0.48894E-20         0.00000E+00
    0.16794E-07         0.10943E-19         0.00000E+00
    0.16584E-07         0.10245E-19         0.00000E+00
    0.16409E-07         0.13737E-19         0.00000E+00
    0.16270E-07         0.17229E-19         0.00000E+00
    0.16165E-07         0.30501E-19         0.00000E+00
    0.16094E-07         0.28405E-19         0.00000E+00
    0.16058E-07         0.58208E-20         0.00000E+00
    0.16056E-07         0.12806E-19         0.00000E+00
    0.16089E-07         0.11176E-19         0.00000E+00
    0.16156E-07         0.16065E-19         0.00000E+00
    0.16257E-07         0.30734E-19         0.00000E+00
    0.16393E-07         0.20256E-19         0.00000E+00
    0.16564E-07         0.14203E-19         0.00000E+00
    0.16770E-07         0.18626E-19         0.00000E+00
    0.17013E-07         0.12107E-19         0.00000E+00
    0.17291E-07         0.41910E-20         0.00000E+00
    0.17606E-07         0.10710E-19         0.00000E+00
    0.17959E-07         0.41910E-20         0.00000E+00
    0.18351E-07        -0.93132E-21         0.00000E+00
    0.18781E-07         0.13039E-19         0.00000E+00
    0.19252E-07         0.23283E-19         0.00000E+00
    0.19764E-07         0.26077E-19         0.00000E+00
    0.20317E-07         0.23749E-19         0.00000E+00
    0.20915E-07         0.23982E-19         0.00000E+00
    0.21557E-07         0.19558E-19         0.00000E+00
    0.22244E-07         0.11409E-19         0.00000E+00
    0.22980E-07         0.34226E-19         0.00000E+00
    0.23764E-07         0.40047E-19         0.00000E+00
    0.24599E-07         0.38650E-19         0.00000E+00
    0.25487E-07         0.46333E-19         0.00000E+00
    0.26429E-07         0.45635E-19         0.00000E+00
    0.27428E-07         0.35856E-19         0.00000E+00
    0.28485E-07         0.30268E-19         0.00000E+00
    0.29602E-07         0.29337E-19         0.00000E+00
    0.30784E-07         0.30734E-19         0.00000E+00
    0.32030E-07         0.19558E-19         0.00000E+00
    0.33345E-07         0.20489E-19         0.00000E+00
    0.34732E-07         0.33295E-19         0.00000E+00
    0.36192E-07         0.26310E-19         0.00000E+00
    0.37730E-07         0.30035E-19         0.00000E+00
    0.39348E-07         0.31432E-19         0.00000E+00
    0.41050E-07         0.22817E-19         0.00000E+00
    0.42840E-07         0.24214E-19         0.00000E+00
    0.44721E-07         0.33993E-19         0.00000E+00
    0.46698E-07         0.40513E-19         0.00000E+00
    0.48775E-07         0.34226E-19         0.00000E+00
    0.50955E-07         0.33062E-19         0.00000E+00
    0.53244E-07         0.24796E-19         0.00000E+00
    0.55647E-07         0.19791E-19         0.00000E+00
    0.58169E-07         0.14901E-19         0.00000E+00
    0.60815E-07         0.14668E-19         0.00000E+00
    0.63591E-07         0.16764E-19         0.00000E+00
    0.66502E-07         0.57044E-20         0.00000E+00
    0.69556E-07        -0.34925E-20         0.00000E+00
    0.91678E-07         0.12573E-19         0.00000E+00
    0.87605E-07         0.42375E-19         0.00000E+00
    0.83718E-07         0.35390E-19         0.00000E+00
    0.80010E-07         0.33062E-19         0.00000E+00
    0.76473E-07         0.20955E-19         0.00000E+00
    0.73100E-07         0.14203E-19         0.00000E+00
    0.69882E-07         0.43772E-19         0.00000E+00
    0.66813E-07         0.36089E-19         0.00000E+00
    0.63887E-07         0.19558E-19         0.00000E+00
    0.61098E-07         0.37719E-19         0.00000E+00
    0.58438E-07         0.38184E-19         0.00000E+00
    0.55904E-07         0.31665E-19         0.00000E+00
    0.53489E-07         0.32596E-19         0.00000E+00
    0.51188E-07         0.18859E-19         0.00000E+00
    0.48996E-07         0.11642E-19         0.00000E+00
    0.46909E-07         0.58208E-20         0.00000E+00
    0.44922E-07         0.76834E-20         0.00000E+00
    0.43031E-07         0.12573E-19         0.00000E+00
    0.41232E-07         0.13970E-19         0.00000E+00
    0.39521E-07         0.22119E-19         0.00000E+00
    0.37894E-07         0.15134E-19         0.00000E+00
    0.36348E-07         0.72177E-20         0.00000E+00
    0.34880E-07         0.19791E-19         0.00000E+00
    0.33486E-07         0.20023E-19         0.00000E+00
    0.32164E-07         0.16065E-19         0.00000E+00
    0.30910E-07         0.19092E-19         0.00000E+00
    0.29722E-07         0.13504E-19         0.00000E+00
    0.28598E-07        -0.23283E-20         0.00000E+00
    0.27535E-07        -0.81491E-20         0.00000E+00
    0.26530E-07        -0.30268E-20         0.00000E+00
    0.25582E-07         0.55879E-20         0.00000E+00
    0.24689E-07         0.13504E-19         0.00000E+00
    0.23849E-07         0.19558E-19         0.00000E+00
    0.23059E-07         0.60536E-20         0.00000E+00
    0.22319E-07         0.79162E-20         0.00000E+00
    0.21626E-07         0.23516E-19         0.00000E+00
    0.20979E-07         0.19791E-19         0.00000E+00
    0.20377E-07         0.88476E-20         0.00000E+00
    0.19819E-07        -0.11642E-20         0.00000E+00
    0.19303E-07         0.25611E-20         0.00000E+00
    0.18828E-07         0.17229E-19         0.00000E+00
    0.18394E-07         0.36322E-19         0.00000E+00
    0.17998E-07         0.14901E-19         0.00000E+00
    0.17641E-07         0.97789E-20         0.00000E+00
    0.17322E-07         0.16997E-19         0.00000E+00
    0.17040E-07         0.88476E-20         0.00000E+00
    0.16794E-07        -0.62864E-20         0.00000E+00
    0.16584E-07        -0.76834E-20         0.00000E+00
    0.16409E-07         0.79162E-20         0.00000E+00
    0.16270E-07         0.11642E-19         0.00000E+00
    0.16165E-07         0.16298E-19         0.00000E+00
    0.16094E-07         0.28871E-19         0.00000E+00
    0.16058E-07         0.28871E-19         0.00000E+00
    0.16056E-07         0.14435E-19         0.00000E+00
    0.16089E-07         0.16298E-19         0.00000E+00
    0.16156E-07         0.13970E-19         0.00000E+00
    0.16257E-07         0.81491E-20         0.00000E+00
    0.16393E-07         0.13271E-19         0.00000E+00
    0.16564E-07         0.20722E-19         0.00000E+00
    0.16770E-07         0.10477E-19         0.00000E+00
    0.17013E-07        -0.76834E-20         0.00000E+00
    0.17291E-07        -0.32596E-20         0.00000E+00
    0.17606E-07        -0.93132E-21         0.00000E+00
    0.17959E-07        -0.18626E-20         0.00000E+00
    0.18351E-07        -0.93132E-21         0.00000E+00
    0.18781E-07         0.13970E-20         0.00000E+00
    0.19252E-07         0.17928E-19         0.00000E+00
    0.19764E-07         0.10710E-19         0.00000E+00
    0.20317E-07        -0.20955E-20         0.00000E+00
    0.20915E-07         0.32596E-20         0.00000E+00
    0.21557E-07         0.55879E-20         0.00000E+00
    0.22244E-07         0.17695E-19         0.00000E+00
    0.22980E-07         0.24913E-19         0.00000E+00
    0.23764E-07         0.42841E-19         0.00000E+00
    0.24599E-07         0.48429E-19         0.00000E+00
    0.25487E-07         0.34226E-19         0.00000E+00
    0.26429E-07         0.31665E-19         0.00000E+00
    0.27428E-07         0.29802E-19         0.00000E+00
    0.28485E-07         0.20955E-19         0.00000E+00
    0.29602E-07         0.16531E-19         0.00000E+00
    0.30784E-07         0.29104E-19         0.00000E+00
    0.32030E-07         0.47032E-19         0.00000E+00
    0.33345E-07         0.31199E-19         0.00000E+00
    0.34732E-07         0.25611E-19         0.00000E+00
    0.36192E-07         0.29802E-19         0.00000E+00
    0.37730E-07         0.29802E-19         0.00000E+00
    0.39348E-07         0.31898E-19         0.00000E+00
    0.41050E-07         0.28405E-19         0.00000E+00
    0.42840E-07         0.21188E-19         0.00000E+00
    0.44721E-07         0.23283E-19         0.00000E+00
    0.46698E-07         0.25146E-19         0.00000E+00
    0.48775E-07         0.16298E-19         0.00000E+00
    0.50955E-07         0.17462E-19         0.00000E+00
    0.53244E-07         0.27358E-19         0.00000E+00
    0.55647E-07         0.27940E-19         0.00000E+00
    0.58169E-07         0.13853E-19         0.00000E+00
    0.60815E-07         0.77998E-20         0.00000E+00
    0.63591E-07         0.94296E-20         0.00000E+00
    0.66502E-07         0.82655E-20         0.00000E+00
    0.69556E-07         0.19791E-20         0.00000E+00
    0.91678E-07         0.19092E-19         0.00000E+00
    0.87605E-07         0.12573E-19         0.00000E+00
    0.83718E-07         0.14901E-19         0.00000E+00
    0.80010E-07         0.60769E-19         0.00000E+00
    0.76473E-07         0.62864E-19         0.00000E+00
    0.73100E-07         0.26310E-19         0.00000E+00
    0.69882E-07         0.38650E-19         0.00000E+00
    0.66813E-07         0.44936E-19         0.00000E+00
    0.63887E-07         0.33295E-19         0.00000E+00
    0.61098E-07         0.20256E-19         0.00000E+00
    0.58438E-07         0.17229E-19         0.00000E+00
    0.55904E-07         0.34226E-19         0.00000E+00
    0.53489E-07         0.18626E-19         0.00000E+00
    0.51188E-07         0.14435E-19         0.00000E+00
    0.48996E-07         0.15600E-19         0.00000E+00
    0.46909E-07         0.22352E-19         0.00000E+00
    0.44922E-07         0.15600E-19         0.00000E+00
    0.43031E-07        -0.18626E-20         0.00000E+00
    0.41232E-07         0.30268E-20         0.00000E+00
    0.39521E-07         0.48894E-20         0.00000E+00
    0.37894E-07         0.44238E-20         0.00000E+00
    0.36348E-07        -0.58208E-20         0.00000E+00
    0.34880E-07         0.23283E-20         0.00000E+00
    0.33486E-07         0.11874E-19         0.00000E+00
    0.32164E-07         0.74506E-20         0.00000E+00
    0.30910E-07         0.10710E-19         0.00000E+00
    0.29722E-07         0.41910E-20         0.00000E+00
    0.28598E-07        -0.90804E-20         0.00000E+00
    0.27535E-07        -0.13271E-19         0.00000E+00
    0.26530E-07        -0.51223E-20         0.00000E+00
    0.25582E-07         0.34925E-20         0.00000E+00
    0.24689E-07         0.18626E-20         0.00000E+00
    0.23849E-07         0.39581E-20         0.00000E+00
    0.23059E-07        -0.58208E-20         0.00000E+00
    0.22319E-07         0.25611E-20         0.00000E+00
    0.21626E-07         0.23050E-19         0.00000E+00
    0.20979E-07         0.13504E-19         0.00000E+00
    0.20377E-07         0.13970E-20         0.00000E+00
    0.19819E-07         0.53551E-20         0.00000E+00
    0.19303E-07         0.15367E-19         0.00000E+00
    0.18828E-07         0.14435E-19         0.00000E+00
    0.18394E-07         0.20023E-19         0.00000E+00
    0.17998E-07         0.46566E-21         0.00000E+00
    0.17641E-07        -0.72177E-20         0.00000E+00
    0.17322E-07        -0.81491E-20         0.00000E+00
    0.17040E-07        -0.14203E-19         0.00000E+00
    0.16794E-07        -0.55879E-20         0.00000E+00
    0.16584E-07        -0.23283E-20         0.00000E+00
    0.16409E-07         0.46566E-21         0.00000E+00
    0.16270E-07         0.69849E-20         0.00000E+00
    0.16165E-07         0.18394E-19         0.00000E+00
    0.16094E-07         0.12107E-19         0.00000E+00
    0.16058E-07         0.10943E-19         0.00000E+00
    0.16056E-07         0.20023E-19         0.00000E+00
    0.16089E-07         0.21420E-19         0.00000E+00
    0.16156E-07         0.12340E-19         0.00000E+00
    0.16257E-07         0.12573E-19         0.00000E+00
    0.16393E-07         0.69849E-20         0.00000E+00
    0.16564E-07        -0.46566E-20         0.00000E+00
    0.16770E-07        -0.20955E-20         0.00000E+00
    0.17013E-07        -0.13504E-19         0.00000E+00
    0.17291E-07        -0.25146E-19         0.00000E+00
    0.17606E-07        -0.15367E-19         0.00000E+00
    0.17959E-07        -0.32596E-20         0.00000E+00
    0.18351E-07        -0.32596E-20         0.00000E+00
    0.18781E-07        -0.27940E-20         0.00000E+00
    0.19252E-07        -0.62864E-20         0.00000E+00
    0.19764E-07         0.60536E-20         0.00000E+00
    0.20317E-07        -0.16298E-20         0.00000E+00
    0.20915E-07        -0.14901E-19         0.00000E+00
    0.21557E-07        -0.74506E-20         0.00000E+00
    0.22244E-07         0.46566E-21         0.00000E+00
    0.22980E-07         0.14435E-19         0.00000E+00
    0.23764E-07         0.27940E-19         0.00000E+00
    0.24599E-07         0.30966E-19         0.00000E+00
    0.25487E-07         0.37486E-19         0.00000E+00
    0.26429E-07         0.38184E-19         0.00000E+00
    0.27428E-07         0.31199E-19         0.00000E+00
    0.28485E-07         0.27008E-19         0.00000E+00
    0.29602E-07         0.23283E-19         0.00000E+00
    0.30784E-07         0.31199E-19         0.00000E+00
    0.32030E-07         0.24214E-19         0.00000E+00
    0.33345E-07         0.74506E-20         0.00000E+00
    0.34732E-07         0.18859E-19         0.00000E+00
    0.36192E-07         0.42608E-19         0.00000E+00
    0.37730E-07         0.36787E-19         0.00000E+00
    0.39348E-07         0.28173E-19         0.00000E+00
    0.41050E-07         0.14668E-19         0.00000E+00
    0.42840E-07         0.58208E-20         0.00000E+00
    0.44721E-07         0.14901E-19         0.00000E+00
    0.46698E-07         0.65193E-20         0.00000E+00
    0.48775E-07         0.79162E-20         0.00000E+00
    0.50955E-07         0.22119E-19         0.00000E+00
    0.53244E-07         0.20606E-19         0.00000E+00
    0.55647E-07         0.14785E-19         0.00000E+00
    0.58169E-07         0.93132E-20         0.00000E+00
    0.60815E-07         0.53551E-20         0.00000E+00
    0.63591E-07         0.12806E-19         0.00000E+00
    0.66502E-07         0.26776E-20         0.00000E+00
    0.69556E-07        -0.34925E-20         0.00000E+00
    0.91678E-07         0.18859E-19         0.00000E+00
    0.87605E-07         0.20023E-19         0.00000E+00
    0.83718E-07         0.16764E-19         0.00000E+00
    0.80010E-07         0.56112E-19         0.00000E+00
    0.76473E-07         0.75670E-19         0.00000E+00
    0.73100E-07         0.63796E-19         0.00000E+00
    0.69882E-07         0.49593E-19         0.00000E+00
    0.66813E-07         0.27940E-19         0.00000E+00
    0.63887E-07         0.76834E-20         0.00000E+00
    0.61098E-07         0.18394E-19         0.00000E+00
    0.58438E-07         0.45169E-19         0.00000E+00
    0.55904E-07         0.29104E-19         0.00000E+00
    0.53489E-07         0.26310E-19         0.00000E+00
    0.51188E-07         0.26776E-19         0.00000E+00
    0.48996E-07         0.19325E-19         0.00000E+00
    0.46909E-07         0.21653E-19         0.00000E+00
    0.44922E-07         0.62864E-20         0.00000E+00
    0.43031E-07        -0.13970E-20         0.00000E+00
    0.41232E-07         0.20489E-19         0.00000E+00
    0.39521E-07         0.32596E-19         0.00000E+00
    0.37894E-07         0.19791E-19         0.00000E+00
    0.36348E-07         0.17229E-19         0.00000E+00
    0.34880E-07         0.13504E-19         0.00000E+00
    0.33486E-07         0.10710E-19         0.00000E+00
    0.32164E-07         0.13504E-19         0.00000E+00
    0.30910E-07         0.20955E-19         0.00000E+00
    0.29722E-07         0.97789E-20         0.00000E+00
    0.28598E-07        -0.95461E-20         0.00000E+00
    0.27535E-07        -0.13970E-20         0.00000E+00
    0.26530E-07         0.81491E-20         0.00000E+00
    0.25582E-07         0.10710E-19         0.00000E+00
    0.24689E-07         0.14668E-19         0.00000E+00
    0.23849E-07         0.11642E-20         0.00000E+00
    0.23059E-07         0.37253E-20         0.00000E+00
    0.22319E-07         0.20489E-19         0.00000E+00
    0.21626E-07         0.19791E-19         0.00000E+00
    0.20979E-07         0.14203E-19         0.00000E+00
    0.20377E-07         0.11642E-19         0.00000E+00
    0.19819E-07         0.32131E-19         0.00000E+00
    0.19303E-07         0.27008E-19         0.00000E+00
    0.18828E-07         0.25844E-19         0.00000E+00
    0.18394E-07         0.43074E-19         0.00000E+00
    0.17998E-07         0.28638E-19         0.00000E+00
    0.17641E-07         0.97789E-20         0.00000E+00
    0.17322E-07        -0.11176E-19         0.00000E+00
    0.17040E-07        -0.46566E-21         0.00000E+00
    0.16794E-07         0.10477E-19         0.00000E+00
    0.16584E-07        -0.16298E-20         0.00000E+00
    0.16409E-07         0.23749E-19         0.00000E+00
    0.16270E-07         0.33062E-19         0.00000E+00
    0.16165E-07         0.15367E-19         0.00000E+00
    0.16094E-07         0.13271E-19         0.00000E+00
    0.16058E-07         0.14901E-19         0.00000E+00
    0.16056E-07         0.22352E-19         0.00000E+00
    0.16089E-07         0.13039E-19         0.00000E+00
    0.16156E-07         0.72177E-20         0.00000E+00
    0.16257E-07         0.13504E-19         0.00000E+00
    0.16393E-07         0.46566E-21         0.00000E+00
    0.16564E-07        -0.13504E-19         0.00000E+00
    0.16770E-07         0.00000E+00         0.00000E+00
    0.17013E-07         0.10477E-19         0.00000E+00
    0.17291E-07         0.53551E-20         0.00000E+00
    0.17606E-07         0.34925E-20         0.00000E+00
    0.17959E-07        -0.11874E-19         0.00000E+00
    0.18351E-07        -0.46566E-21         0.00000E+00
    0.18781E-07         0.69849E-20         0.00000E+00
    0.19252E-07         0.25611E-20         0.00000E+00
    0.19764E-07         0.16997E-19         0.00000E+00
    0.20317E-07         0.24447E-19         0.00000E+00
    0.20915E-07         0.14668E-19         0.00000E+00
    0.21557E-07         0.17695E-19         0.00000E+00
    0.22244E-07         0.23516E-19         0.00000E+00
    0.22980E-07         0.46100E-19         0.00000E+00
    0.23764E-07         0.33295E-19         0.00000E+00
    0.24599E-07         0.17695E-19         0.00000E+00
    0.25487E-07         0.26776E-19         0.00000E+00
    0.26429E-07         0.33295E-19         0.00000E+00
    0.27428E-07         0.25146E-19         0.00000E+00
    0.28485E-07         0.21420E-19         0.00000E+00
    0.29602E-07         0.14203E-19         0.00000E+00
    0.30784E-07         0.20256E-19         0.00000E+00
    0.32030E-07         0.30966E-19         0.00000E+00
    0.33345E-07         0.22817E-19         0.00000E+00
    0.34732E-07         0.15600E-19         0.00000E+00
    0.36192E-07         0.25146E-19         0.00000E+00
    0.37730E-07         0.31432E-19         0.00000E+00
    0.39348E-07         0.23749E-19         0.00000E+00
    0.41050E-07         0.24680E-19         0.00000E+00
    0.42840E-07         0.21886E-19         0.00000E+00
    0.44721E-07         0.10245E-19         0.00000E+00
    0.46698E-07         0.20489E-19         0.00000E+00
    0.48775E-07         0.46100E-19         0.00000E+00
    0.50955E-07         0.29569E-19         0.00000E+00
    0.53244E-07         0.13970E-19         0.00000E+00
    0.55647E-07         0.15483E-19         0.00000E+00
    0.58169E-07         0.60536E-20         0.00000E+00
    0.60815E-07         0.65193E-20         0.00000E+00
    0.63591E-07         0.23283E-21         0.00000E+00
    0.66502E-07        -0.31432E-20         0.00000E+00
    0.69556E-07        -0.19791E-20         0.00000E+00
    0.91678E-07         0.60536E-20         0.00000E+00
    0.87605E-07         0.35623E-19         0.00000E+00
    0.83718E-07         0.54482E-19         0.00000E+00
    0.80010E-07         0.15134E-19         0.00000E+00
    0.76473E-07         0.32596E-19         0.00000E+00
    0.73100E-07         0.47730E-19         0.00000E+00
    0.69882E-07         0.27474E-19         0.00000E+00
    0.66813E-07         0.33062E-19         0.00000E+00
    0.63887E-07         0.58906E-19         0.00000E+00
    0.61098E-07         0.59139E-19         0.00000E+00
    0.58438E-07         0.37253E-19         0.00000E+00
    0.55904E-07         0.31432E-19         0.00000E+00
    0.53489E-07         0.29802E-19         0.00000E+00
    0.51188E-07         0.16065E-19         0.00000E+00
    0.48996E-07        -0.13737E-19         0.00000E+00
    0.46909E-07         0.18626E-20         0.00000E+00
    0.44922E-07        -0.23283E-20         0.00000E+00
    0.43031E-07         0.13970E-20         0.00000E+00
    0.41232E-07         0.18394E-19         0.00000E+00
    0.39521E-07         0.58208E-20         0.00000E+00
    0.37894E-07         0.72177E-20         0.00000E+00
    0.36348E-07         0.20722E-19         0.00000E+00
    0.34880E-07         0.17462E-19         0.00000E+00
    0.33486E-07         0.20955E-19         0.00000E+00
    0.32164E-07         0.23516E-19         0.00000E+00
    0.30910E-07         0.93132E-20         0.00000E+00
    0.29722E-07         0.46566E-20         0.00000E+00
    0.28598E-07        -0.72177E-20         0.00000E+00
    0.27535E-07        -0.62864E-20         0.00000E+00
    0.26530E-07        -0.90804E-20         0.00000E+00
    0.25582E-07        -0.65193E-20         0.00000E+00
    0.24689E-07         0.88476E-20         0.00000E+00
    0.23849E-07         0.11874E-19         0.00000E+00
    0.23059E-07         0.13039E-19         0.00000E+00
    0.22319E-07         0.74506E-20         0.00000E+00
    0.21626E-07         0.76834E-20         0.00000E+00
    0.20979E-07         0.12340E-19         0.00000E+00
    0.20377E-07         0.17695E-19         0.00000E+00
    0.19819E-07         0.24913E-19         0.00000E+00
    0.19303E-07         0.27241E-19         0.00000E+00
    0.18828E-07         0.12806E-19         0.00000E+00
    0.18394E-07         0.23283E-20         0.00000E+00
    0.17998E-07         0.10710E-19         0.00000E+00
    0.17641E-07         0.11176E-19         0.00000E+00
    0.17322E-07         0.79162E-20         0.00000E+00
    0.17040E-07         0.69849E-21         0.00000E+00
    0.16794E-07         0.10710E-19         0.00000E+00
    0.16584E-07         0.48894E-20         0.00000E+00
    0.16409E-07        -0.51223E-20         0.00000E+00
    0.16270E-07         0.25611E-19         0.00000E+00
    0.16165E-07         0.18161E-19         0.00000E+00
    0.16094E-07         0.41910E-20         0.00000E+00
    0.16058E-07         0.20023E-19         0.00000E+00
    0.16056E-07         0.15832E-19         0.00000E+00
    0.16089E-07        -0.93132E-21         0.00000E+00
    0.16156E-07         0.44238E-20         0.00000E+00
    0.16257E-07         0.13970E-19         0.00000E+00
    0.16393E-07         0.60536E-20         0.00000E+00
    0.16564E-07        -0.55879E-20         0.00000E+00
    0.16770E-07        -0.13271E-19         0.00000E+00
    0.17013E-07        -0.93132E-21         0.00000E+00
    0.17291E-07         0.48894E-20         0.00000E+00
    0.17606E-07        -0.13970E-20         0.00000E+00
    0.17959E-07        -0.25611E-20         0.00000E+00
    0.18351E-07         0.93132E-21         0.00000E+00
    0.18781E-07         0.93132E-20         0.00000E+00
    0.19252E-07         0.81491E-20         0.00000E+00
    0.19764E-07         0.53551E-20         0.00000E+00
    0.20317E-07         0.37719E-19         0.00000E+00
    0.20915E-07         0.39581E-19         0.00000E+00
    0.21557E-07         0.13970E-19         0.00000E+00
    0.22244E-07         0.18161E-19         0.00000E+00
    0.22980E-07         0.25844E-19         0.00000E+00
    0.23764E-07         0.25379E-19         0.00000E+00
    0.24599E-07         0.13737E-19         0.00000E+00
    0.25487E-07         0.18394E-19         0.00000E+00
    0.26429E-07         0.37486E-19         0.00000E+00
    0.27428E-07         0.30268E-19         0.00000E+00
    0.28485E-07         0.55879E-20         0.00000E+00
    0.29602E-07         0.18626E-19         0.00000E+00
    0.30784E-07         0.23749E-19         0.00000E+00
    0.32030E-07         0.20256E-19         0.00000E+00
    0.33345E-07         0.20256E-19         0.00000E+00
    0.34732E-07         0.13271E-19         0.00000E+00
    0.36192E-07         0.24214E-19         0.00000E+00
    0.37730E-07         0.30734E-19         0.00000E+00
    0.39348E-07         0.30035E-19         0.00000E+00
    0.41050E-07         0.27707E-19         0.00000E+00
    0.42840E-07         0.32131E-19         0.00000E+00
    0.44721E-07         0.31665E-19         0.00000E+00
    0.46698E-07         0.25844E-19         0.00000E+00
    0.48775E-07         0.22352E-19         0.00000E+00
    0.50955E-07         0.10477E-19         0.00000E+00
    0.53244E-07         0.16997E-19         0.00000E+00
    0.55647E-07         0.12456E-19         0.00000E+00
    0.58169E-07         0.11874E-19         0.00000E+00
    0.60815E-07         0.15832E-19         0.00000E+00
    0.63591E-07        -0.69849E-21         0.00000E+00
    0.66502E-07         0.62864E-20         0.00000E+00
    0.69556E-07         0.13039E-19         0.00000E+00
    0.91678E-07         0.23749E-19         0.00000E+00
    0.87605E-07         0.41211E-19         0.00000E+00
    0.83718E-07         0.58673E-19         0.00000E+00
    0.80010E-07         0.40047E-19         0.00000E+00
    0.76473E-07         0.13970E-19         0.00000E+00
    0.73100E-07         0.38417E-19         0.00000E+00
    0.69882E-07         0.44005E-19         0.00000E+00
    0.66813E-07         0.46799E-19         0.00000E+00
    0.63887E-07         0.58906E-19         0.00000E+00
    0.61098E-07         0.19325E-19         0.00000E+00
    0.58438E-07         0.46566E-20         0.00000E+00
    0.55904E-07         0.19558E-19         0.00000E+00
    0.53489E-07         0.28871E-19         0.00000E+00
    0.51188E-07         0.28871E-19         0.00000E+00
    0.48996E-07         0.88476E-20         0.00000E+00
    0.46909E-07         0.23283E-20         0.00000E+00
    0.44922E-07         0.37253E-20         0.00000E+00
    0.43031E-07         0.83819E-20         0.00000E+00
    0.41232E-07         0.17229E-19         0.00000E+00
    0.39521E-07         0.16997E-19         0.00000E+00
    0.37894E-07         0.20256E-19         0.00000E+00
    0.36348E-07         0.18394E-19         0.00000E+00
    0.34880E-07         0.86147E-20         0.00000E+00
    0.33486E-07        -0.79162E-20         0.00000E+00
    0.32164E-07        -0.93132E-21         0.00000E+00
    0.30910E-07         0.67521E-20         0.00000E+00
    0.29722E-07         0.23283E-20         0.00000E+00
    0.28598E-07        -0.14203E-19         0.00000E+00
    0.27535E-07        -0.76834E-20         0.00000E+00
    0.26530E-07         0.23283E-20         0.00000E+00
    0.25582E-07        -0.34925E-20         0.00000E+00
    0.24689E-07         0.79162E-20         0.00000E+00
    0.23849E-07         0.10710E-19         0.00000E+00
    0.23059E-07        -0.69849E-21         0.00000E+00
    0.22319E-07         0.25611E-20         0.00000E+00
    0.21626E-07         0.67521E-20         0.00000E+00
    0.20979E-07         0.88476E-20         0.00000E+00
    0.20377E-07         0.23283E-21         0.00000E+00
    0.19819E-07         0.69849E-21         0.00000E+00
    0.19303E-07         0.29569E-19         0.00000E+00
    0.18828E-07         0.24680E-19         0.00000E+00
    0.18394E-07         0.55879E-20         0.00000E+00
    0.17998E-07         0.11176E-19         0.00000E+00
    0.17641E-07         0.81491E-20         0.00000E+00
    0.17322E-07         0.11176E-19         0.00000E+00
    0.17040E-07         0.12573E-19         0.00000E+00
    0.16794E-07        -0.11642E-20         0.00000E+00
    0.16584E-07        -0.58208E-20         0.00000E+00
    0.16409E-07        -0.46566E-21         0.00000E+00
    0.16270E-07        -0.39581E-20         0.00000E+00
    0.16165E-07        -0.11642E-19         0.00000E+00
    0.16094E-07         0.69849E-20         0.00000E+00
    0.16058E-07         0.11642E-19         0.00000E+00
    0.16056E-07         0.23283E-20         0.00000E+00
    0.16089E-07         0.12573E-19         0.00000E+00
    0.16156E-07         0.32596E-20         0.00000E+00
    0.16257E-07        -0.67521E-20         0.00000E+00
    0.16393E-07        -0.65193E-20         0.00000E+00
    0.16564E-07        -0.19791E-19         0.00000E+00
    0.16770E-07        -0.27008E-19         0.00000E+00
    0.17013E-07        -0.21653E-19         0.00000E+00
    0.17291E-07         0.37253E-20         0.00000E+00
    0.17606E-07        -0.65193E-20         0.00000E+00
    0.17959E-07        -0.21886E-19         0.00000E+00
    0.18351E-07        -0.16298E-20         0.00000E+00
    0.18781E-07         0.88476E-20         0.00000E+00
    0.19252E-07        -0.11642E-20         0.00000E+00
    0.19764E-07         0.12573E-19         0.00000E+00
    0.20317E-07         0.22817E-19         0.00000E+00
    0.20915E-07         0.13039E-19         0.00000E+00
    0.21557E-07         0.17229E-19         0.00000E+00
    0.22244E-07         0.28173E-19         0.00000E+00
    0.22980E-07         0.24214E-19         0.00000E+00
    0.23764E-07         0.17229E-19         0.00000E+00
    0.24599E-07         0.74506E-20         0.00000E+00
    0.25487E-07         0.10245E-19         0.00000E+00
    0.26429E-07         0.20955E-19         0.00000E+00
    0.27428E-07         0.21188E-19         0.00000E+00
    0.28485E-07         0.22352E-19         0.00000E+00
    0.29602E-07         0.20489E-19         0.00000E+00
    0.30784E-07         0.16298E-19         0.00000E+00
    0.32030E-07         0.74506E-20         0.00000E+00
    0.33345E-07         0.17695E-19         0.00000E+00
    0.34732E-07         0.27707E-19         0.00000E+00
    0.36192E-07         0.30268E-19         0.00000E+00
    0.37730E-07         0.44703E-19         0.00000E+00
    0.39348E-07         0.31665E-19         0.00000E+00
    0.41050E-07         0.10245E-19         0.00000E+00
    0.42840E-07         0.26310E-19         0.00000E+00
    0.44721E-07         0.31199E-19         0.00000E+00
    0.46698E-07         0.26077E-19         0.00000E+00
    0.48775E-07         0.29569E-19         0.00000E+00
    0.50955E-07         0.17229E-19         0.00000E+00
    0.53244E-07         0.13504E-19         0.00000E+00
    0.55647E-07         0.13388E-19         0.00000E+00
    0.58169E-07         0.17812E-19         0.00000E+00
    0.60815E-07         0.19325E-19         0.00000E+00
    0.63591E-07         0.15483E-19         0.00000E+00
    0.66502E-07        -0.26776E-20         0.00000E+00
    0.69556E-07        -0.10594E-19         0.00000E+00
    0.91678E-07         0.11176E-19         0.00000E+00
    0.87605E-07         0.40047E-19         0.00000E+00
    0.83718E-07         0.53551E-19         0.00000E+00
    0.80010E-07         0.48894E-19         0.00000E+00
    0.76473E-07         0.48894E-19         0.00000E+00
    0.73100E-07         0.69151E-19         0.00000E+00
    0.69882E-07         0.53318E-19         0.00000E+00
    0.66813E-07         0.25611E-19         0.00000E+00
    0.63887E-07         0.27474E-19         0.00000E+00
    0.61098E-07         0.50757E-19         0.00000E+00
    0.58438E-07         0.34459E-19         0.00000E+00
    0.55904E-07         0.12340E-19         0.00000E+00
    0.53489E-07         0.37253E-19         0.00000E+00
    0.51188E-07         0.26543E-19         0.00000E+00
    0.48996E-07         0.26077E-19         0.00000E+00
    0.46909E-07         0.13504E-19         0.00000E+00
    0.44922E-07        -0.88476E-20         0.00000E+00
    0.43031E-07        -0.69849E-21         0.00000E+00
    0.41232E-07         0.93132E-21         0.00000E+00
    0.39521E-07         0.72177E-20         0.00000E+00
    0.37894E-07        -0.23283E-21         0.00000E+00
    0.36348E-07         0.93132E-20         0.00000E+00
    0.34880E-07         0.13970E-19         0.00000E+00
    0.33486E-07         0.86147E-20         0.00000E+00
    0.32164E-07         0.51223E-20         0.00000E+00
    0.30910E-07        -0.93132E-21         0.00000E+00
    0.29722E-07         0.15134E-19         0.00000E+00
    0.28598E-07         0.51223E-20         0.00000E+00
    0.27535E-07        -0.62864E-20         0.00000E+00
    0.26530E-07         0.17229E-19         0.00000E+00
    0.25582E-07         0.46566E-21         0.00000E+00
    0.24689E-07        -0.17928E-19         0.00000E+00
    0.23849E-07         0.81491E-20         0.00000E+00
    0.23059E-07         0.17462E-19         0.00000E+00
    0.22319E-07         0.88476E-20         0.00000E+00
    0.21626E-07         0.15134E-19         0.00000E+00
    0.20979E-07         0.15832E-19         0.00000E+00
    0.20377E-07         0.17462E-19         0.00000E+00
    0.19819E-07         0.22119E-19         0.00000E+00
    0.19303E-07         0.39581E-20         0.00000E+00
    0.18828E-07         0.67521E-20         0.00000E+00
    0.18394E-07         0.11176E-19         0.00000E+00
    0.17998E-07        -0.10012E-19         0.00000E+00
    0.17641E-07        -0.10477E-19         0.00000E+00
    0.17322E-07        -0.69849E-20         0.00000E+00
    0.17040E-07        -0.14668E-19         0.00000E+00
    0.16794E-07         0.65193E-20         0.00000E+00
    0.16584E-07         0.88476E-20         0.00000E+00
    0.16409E-07         0.48894E-20         0.00000E+00
    0.16270E-07         0.62864E-20         0.00000E+00
    0.16165E-07         0.00000E+00         0.00000E+00
    0.16094E-07         0.79162E-20         0.00000E+00
    0.16058E-07         0.32596E-20         0.00000E+00
    0.16056E-07         0.86147E-20         0.00000E+00
    0.16089E-07        -0.93132E-21         0.00000E+00
    0.16156E-07        -0.37253E-20         0.00000E+00
    0.16257E-07        -0.46566E-20         0.00000E+00
    0.16393E-07        -0.13271E-19         0.00000E+00
    0.16564E-07        -0.41910E-20         0.00000E+00
    0.16770E-07        -0.34925E-20         0.00000E+00
    0.17013E-07         0.86147E-20         0.00000E+00
    0.17291E-07        -0.74506E-20         0.00000E+00
    0.17606E-07        -0.25611E-20         0.00000E+00
    0.17959E-07         0.46566E-21         0.00000E+00
    0.18351E-07         0.23283E-20         0.00000E+00
    0.18781E-07         0.20955E-20         0.00000E+00
    0.19252E-07         0.69849E-21         0.00000E+00
    0.19764E-07         0.18394E-19         0.00000E+00
    0.20317E-07         0.46566E-20         0.00000E+00
    0.20915E-07         0.13970E-20         0.00000E+00
    0.21557E-07         0.17695E-19         0.00000E+00
    0.22244E-07         0.31898E-19         0.00000E+00
    0.22980E-07         0.42841E-19         0.00000E+00
    0.23764E-07         0.28405E-19         0.00000E+00
    0.24599E-07         0.28405E-19         0.00000E+00
    0.25487E-07         0.33295E-19         0.00000E+00
    0.26429E-07         0.37719E-19         0.00000E+00
    0.27428E-07         0.39348E-19         0.00000E+00
    0.28485E-07         0.31199E-19         0.00000E+00
    0.29602E-07         0.15134E-19         0.00000E+00
    0.30784E-07         0.22119E-19         0.00000E+00
    0.32030E-07         0.28173E-19         0.00000E+00
    0.33345E-07         0.27940E-19         0.00000E+00
    0.34732E-07         0.32131E-19         0.00000E+00
    0.36192E-07         0.30734E-19         0.00000E+00
    0.37730E-07         0.43539E-19         0.00000E+00
    0.39348E-07         0.28405E-19         0.00000E+00
    0.41050E-07         0.23749E-19         0.00000E+00
    0.42840E-07         0.31665E-19         0.00000E+00
    0.44721E-07         0.22585E-19         0.00000E+00
    0.46698E-07         0.30734E-19         0.00000E+00
    0.48775E-07         0.28871E-19         0.00000E+00
    0.50955E-07         0.27474E-19         0.00000E+00
    0.53244E-07         0.35274E-19         0.00000E+00
    0.55647E-07         0.18161E-19         0.00000E+00
    0.58169E-07         0.73342E-20         0.00000E+00
    0.60815E-07         0.16065E-19         0.00000E+00
    0.63591E-07         0.10710E-19         0.00000E+00
    0.66502E-07         0.36089E-20         0.00000E+00
    0.69556E-07         0.13970E-20         0.00000E+00
    0.91678E-07         0.27474E-19         0.00000E+00
    0.87605E-07         0.44936E-19         0.00000E+00
    0.83718E-07         0.31199E-19         0.00000E+00
    0.80010E-07         0.51223E-19         0.00000E+00
    0.76473E-07         0.81956E-19         0.00000E+00
    0.73100E-07         0.51921E-19         0.00000E+00
    0.69882E-07         0.61933E-19         0.00000E+00
    0.66813E-07         0.39581E-19         0.00000E+00
    0.63887E-07         0.16065E-19         0.00000E+00
    0.61098E-07         0.42375E-19         0.00000E+00
    0.58438E-07         0.14435E-19         0.00000E+00
    0.55904E-07         0.48894E-20         0.00000E+00
    0.53489E-07         0.93132E-20         0.00000E+00
    0.51188E-07         0.14203E-19         0.00000E+00
    0.48996E-07         0.25611E-19         0.00000E+00
    0.46909E-07         0.46566E-20         0.00000E+00
    0.44922E-07        -0.10943E-19         0.00000E+00
    0.43031E-07        -0.16298E-19         0.00000E+00
    0.41232E-07        -0.58208E-20         0.00000E+00
    0.39521E-07         0.67521E-20         0.00000E+00
    0.37894E-07        -0.30268E-20         0.00000E+00
    0.36348E-07        -0.41910E-20         0.00000E+00
    0.34880E-07        -0.44238E-20         0.00000E+00
    0.33486E-07         0.65193E-20         0.00000E+00
    0.32164E-07         0.51223E-20         0.00000E+00
    0.30910E-07        -0.46566E-20         0.00000E+00
    0.29722E-07        -0.74506E-20         0.00000E+00
    0.28598E-07         0.51223E-20         0.00000E+00
    0.27535E-07         0.18859E-19         0.00000E+00
    0.26530E-07         0.14203E-19         0.00000E+00
    0.25582E-07        -0.74506E-20         0.00000E+00
    0.24689E-07        -0.51223E-20         0.00000E+00
    0.23849E-07         0.74506E-20         0.00000E+00
    0.23059E-07         0.34459E-19         0.00000E+00
    0.22319E-07         0.22585E-19         0.00000E+00
    0.21626E-07        -0.12107E-19         0.00000E+00
    0.20979E-07         0.53551E-20         0.00000E+00
    0.20377E-07         0.23749E-19         0.00000E+00
    0.19819E-07         0.10012E-19         0.00000E+00
    0.19303E-07        -0.88476E-20         0.00000E+00
    0.18828E-07         0.00000E+00         0.00000E+00
    0.18394E-07         0.93132E-20         0.00000E+00
    0.17998E-07         0.23283E-19         0.00000E+00
    0.17641E-07         0.16531E-19         0.00000E+00
    0.17322E-07         0.23283E-21         0.00000E+00
    0.17040E-07         0.25611E-20         0.00000E+00
    0.16794E-07         0.79162E-20         0.00000E+00
    0.16584E-07         0.41910E-20         0.00000E+00
    0.16409E-07        -0.16764E-19         0.00000E+00
    0.16270E-07        -0.69849E-20         0.00000E+00
    0.16165E-07        -0.93132E-21         0.00000E+00
    0.16094E-07        -0.83819E-20         0.00000E+00
    0.16058E-07        -0.55879E-20         0.00000E+00
    0.16056E-07         0.10245E-19         0.00000E+00
    0.16089E-07         0.74506E-20         0.00000E+00
    0.16156E-07         0.55879E-20         0.00000E+00
    0.16257E-07         0.86147E-20         0.00000E+00
    0.16393E-07        -0.11409E-19         0.00000E+00
    0.16564E-07        -0.10245E-19         0.00000E+00
    0.16770E-07        -0.60536E-20         0.00000E+00
    0.17013E-07        -0.11409E-19         0.00000E+00
    0.17291E-07        -0.88476E-20         0.00000E+00
    0.17606E-07        -0.14901E-19         0.00000E+00
    0.17959E-07        -0.14668E-19         0.00000E+00
    0.18351E-07         0.23283E-20         0.00000E+00
    0.18781E-07         0.12340E-19         0.00000E+00
    0.19252E-07         0.34925E-20         0.00000E+00
    0.19764E-07        -0.93132E-21         0.00000E+00
    0.20317E-07        -0.55879E-20         0.00000E+00
    0.20915E-07         0.41910E-20         0.00000E+00
    0.21557E-07         0.21420E-19         0.00000E+00
    0.22244E-07         0.37486E-19         0.00000E+00
    0.22980E-07         0.40513E-19         0.00000E+00
    0.23764E-07         0.36787E-19         0.00000E+00
    0.24599E-07         0.26077E-19         0.00000E+00
    0.25487E-07         0.30734E-19         0.00000E+00
    0.26429E-07         0.37253E-19         0.00000E+00
    0.27428E-07         0.22817E-19         0.00000E+00
    0.28485E-07         0.17695E-19         0.00000E+00
    0.29602E-07         0.16065E-19         0.00000E+00
    0.30784E-07         0.31199E-19         0.00000E+00
    0.32030E-07         0.26310E-19         0.00000E+00
    0.33345E-07         0.18626E-19         0.00000E+00
    0.34732E-07         0.32829E-19         0.00000E+00
    0.36192E-07         0.40047E-19         0.00000E+00
    0.37730E-07         0.41677E-19         0.00000E+00
    0.39348E-07         0.27940E-19         0.00000E+00
    0.41050E-07         0.15600E-19         0.00000E+00
    0.42840E-07         0.79162E-20         0.00000E+00
    0.44721E-07         0.33295E-19         0.00000E+00
    0.46698E-07         0.44703E-19         0.00000E+00
    0.48775E-07         0.16298E-19         0.00000E+00
    0.50955E-07         0.15600E-19         0.00000E+00
    0.53244E-07         0.24447E-19         0.00000E+00
    0.55647E-07         0.35623E-19         0.00000E+00
    0.58169E-07         0.25844E-19         0.00000E+00
    0.60815E-07         0.14668E-19         0.00000E+00
    0.63591E-07         0.74506E-20         0.00000E+00
    0.66502E-07         0.88476E-20         0.00000E+00
    0.69556E-07         0.16298E-20         0.00000E+00
    0.91678E-07         0.74506E-20         0.00000E+00
    0.87605E-07         0.76834E-20         0.00000E+00
    0.83718E-07         0.17229E-19         0.00000E+00
    0.80010E-07         0.49826E-19         0.00000E+00
    0.76473E-07         0.62399E-19         0.00000E+00
    0.73100E-07         0.33295E-19         0.00000E+00
    0.69882E-07         0.43539E-19         0.00000E+00
    0.66813E-07         0.40047E-19         0.00000E+00
    0.63887E-07         0.18394E-19         0.00000E+00
    0.61098E-07         0.28173E-19         0.00000E+00
    0.58438E-07         0.22817E-19         0.00000E+00
    0.55904E-07         0.10477E-19         0.00000E+00
    0.53489E-07         0.69849E-20         0.00000E+00
    0.51188E-07         0.14435E-19         0.00000E+00
    0.48996E-07        -0.27940E-20         0.00000E+00
    0.46909E-07        -0.21188E-19         0.00000E+00
    0.44922E-07        -0.12340E-19         0.00000E+00
    0.43031E-07        -0.27707E-19         0.00000E+00
    0.41232E-07        -0.74506E-20         0.00000E+00
    0.39521E-07         0.13271E-19         0.00000E+00
    0.37894E-07         0.17695E-19         0.00000E+00
    0.36348E-07         0.97789E-20         0.00000E+00
    0.34880E-07        -0.46566E-21         0.00000E+00
    0.33486E-07        -0.14901E-19         0.00000E+00
    0.32164E-07        -0.86147E-20         0.00000E+00
    0.30910E-07         0.30268E-20         0.00000E+00
    0.29722E-07         0.79162E-20         0.00000E+00
    0.28598E-07         0.25379E-19         0.00000E+00
    0.27535E-07         0.95461E-20         0.00000E+00
    0.26530E-07        -0.12573E-19         0.00000E+00
    0.25582E-07         0.10245E-19         0.00000E+00
    0.24689E-07        -0.10245E-19         0.00000E+00
    0.23849E-07         0.62864E-20         0.00000E+00
    0.23059E-07         0.37253E-19         0.00000E+00
    0.22319E-07         0.76834E-20         0.00000E+00
    0.21626E-07        -0.34925E-20         0.00000E+00
    0.20979E-07        -0.20722E-19         0.00000E+00
    0.20377E-07        -0.22352E-19         0.00000E+00
    0.19819E-07        -0.12806E-19         0.00000E+00
    0.19303E-07        -0.55879E-20         0.00000E+00
    0.18828E-07         0.37253E-20         0.00000E+00
    0.18394E-07        -0.34925E-20         0.00000E+00
    0.17998E-07        -0.30268E-20         0.00000E+00
    0.17641E-07         0.39581E-20         0.00000E+00
    0.17322E-07        -0.18626E-20         0.00000E+00
    0.17040E-07        -0.37253E-20         0.00000E+00
    0.16794E-07        -0.19558E-19         0.00000E+00
    0.16584E-07        -0.28405E-19         0.00000E+00
    0.16409E-07        -0.11176E-19         0.00000E+00
    0.16270E-07        -0.11176E-19         0.00000E+00
    0.16165E-07        -0.10710E-19         0.00000E+00
    0.16094E-07        -0.60536E-20         0.00000E+00
    0.16058E-07        -0.14203E-19         0.00000E+00
    0.16056E-07        -0.22817E-19         0.00000E+00
    0.16089E-07        -0.22119E-19         0.00000E+00
    0.16156E-07        -0.14901E-19         0.00000E+00
    0.16257E-07        -0.18161E-19         0.00000E+00
    0.16393E-07        -0.83819E-20         0.00000E+00
    0.16564E-07        -0.90804E-20         0.00000E+00
    0.16770E-07        -0.30966E-19         0.00000E+00
    0.17013E-07        -0.19092E-19         0.00000E+00
    0.17291E-07        -0.19791E-19         0.00000E+00
    0.17606E-07        -0.27008E-19         0.00000E+00
    0.17959E-07        -0.23982E-19         0.00000E+00
    0.18351E-07        -0.22119E-19         0.00000E+00
    0.18781E-07        -0.22119E-19         0.00000E+00
    0.19252E-07        -0.17695E-19         0.00000E+00
    0.19764E-07        -0.13039E-19         0.00000E+00
    0.20317E-07        -0.79162E-20         0.00000E+00
    0.20915E-07         0.27940E-20         0.00000E+00
    0.21557E-07         0.19092E-19         0.00000E+00
    0.22244E-07         0.26310E-19         0.00000E+00
    0.22980E-07         0.22119E-19         0.00000E+00
    0.23764E-07         0.32596E-19         0.00000E+00
    0.24599E-07         0.36787E-19         0.00000E+00
    0.25487E-07         0.19791E-19         0.00000E+00
    0.26429E-07         0.14435E-19         0.00000E+00
    0.27428E-07         0.19558E-19         0.00000E+00
    0.28485E-07         0.28173E-19         0.00000E+00
    0.29602E-07         0.25379E-19         0.00000E+00
    0.30784E-07         0.16764E-19         0.00000E+00
    0.32030E-07         0.20722E-19         0.00000E+00
    0.33345E-07         0.23516E-19         0.00000E+00
    0.34732E-07         0.32829E-19         0.00000E+00
    0.36192E-07         0.40047E-19         0.00000E+00
    0.37730E-07         0.30734E-19         0.00000E+00
    0.39348E-07         0.20955E-19         0.00000E+00
    0.41050E-07         0.13039E-19         0.00000E+00
    0.42840E-07         0.14435E-19         0.00000E+00
    0.44721E-07         0.30035E-19         0.00000E+00
    0.46698E-07         0.33993E-19         0.00000E+00
    0.48775E-07         0.21653E-19         0.00000E+00
    0.50955E-07         0.19791E-19         0.00000E+00
    0.53244E-07         0.12806E-19         0.00000E+00
    0.55647E-07         0.22119E-19         0.00000E+00
    0.58169E-07         0.27241E-19         0.00000E+00
    0.60815E-07         0.79162E-20         0.00000E+00
    0.63591E-07         0.18976E-19         0.00000E+00
    0.66502E-07         0.17346E-19         0.00000E+00
    0.69556E-07         0.53551E-20         0.00000E+00
    0.91678E-07         0.11176E-19         0.00000E+00
    0.87605E-07         0.15600E-19         0.00000E+00
    0.83718E-07         0.24680E-19         0.00000E+00
    0.80010E-07         0.52620E-19         0.00000E+00
    0.76473E-07         0.62399E-19         0.00000E+00
    0.73100E-07         0.29104E-19         0.00000E+00
    0.69882E-07         0.20256E-19         0.00000E+00
    0.66813E-07         0.45169E-19         0.00000E+00
    0.63887E-07         0.29569E-19         0.00000E+00
    0.61098E-07         0.25611E-20         0.00000E+00
    0.58438E-07         0.60536E-20         0.00000E+00
    0.55904E-07         0.90804E-20         0.00000E+00
    0.53489E-07         0.16531E-19         0.00000E+00
    0.51188E-07         0.23050E-19         0.00000E+00
    0.48996E-07         0.11642E-20         0.00000E+00
    0.46909E-07         0.46566E-21         0.00000E+00
    0.44922E-07         0.39581E-20         0.00000E+00
    0.43031E-07        -0.79162E-20         0.00000E+00
    0.41232E-07         0.39581E-20         0.00000E+00
    0.39521E-07        -0.53551E-20         0.00000E+00
    0.37894E-07         0.10943E-19         0.00000E+00
    0.36348E-07         0.20955E-19         0.00000E+00
    0.34880E-07        -0.11176E-19         0.00000E+00
    0.33486E-07        -0.31199E-19         0.00000E+00
    0.32164E-07        -0.21420E-19         0.00000E+00
    0.30910E-07        -0.18161E-19         0.00000E+00
    0.29722E-07        -0.74506E-20         0.00000E+00
    0.28598E-07         0.65193E-20         0.00000E+00
    0.27535E-07        -0.44238E-20         0.00000E+00
    0.26530E-07        -0.24680E-19         0.00000E+00
    0.25582E-07        -0.17229E-19         0.00000E+00
    0.24689E-07        -0.11176E-19         0.00000E+00
    0.23849E-07        -0.72177E-20         0.00000E+00
    0.23059E-07         0.17462E-19         0.00000E+00
    0.22319E-07         0.79162E-20         0.00000E+00
    0.21626E-07        -0.58208E-20         0.00000E+00
    0.20979E-07        -0.16997E-19         0.00000E+00
    0.20377E-07        -0.17695E-19         0.00000E+00
    0.19819E-07        -0.16298E-19         0.00000E+00
    0.19303E-07        -0.33295E-19         0.00000E+00
    0.18828E-07        -0.17695E-19         0.00000E+00
    0.18394E-07        -0.14203E-19         0.00000E+00
    0.17998E-07        -0.11409E-19         0.00000E+00
    0.17641E-07        -0.95461E-20         0.00000E+00
    0.17322E-07        -0.28405E-19         0.00000E+00
    0.17040E-07        -0.24913E-19         0.00000E+00
    0.16794E-07        -0.21420E-19         0.00000E+00
    0.16584E-07        -0.40978E-19         0.00000E+00
    0.16409E-07        -0.40978E-19         0.00000E+00
    0.16270E-07        -0.17462E-19         0.00000E+00
    0.16165E-07        -0.60536E-20         0.00000E+00
    0.16094E-07        -0.48894E-20         0.00000E+00
    0.16058E-07        -0.95461E-20         0.00000E+00
    0.16056E-07        -0.27241E-19         0.00000E+00
    0.16089E-07        -0.33528E-19         0.00000E+00
    0.16156E-07        -0.31665E-19         0.00000E+00
    0.16257E-07        -0.23050E-19         0.00000E+00
    0.16393E-07        -0.17462E-19         0.00000E+00
    0.16564E-07        -0.22119E-19         0.00000E+00
    0.16770E-07        -0.47730E-19         0.00000E+00
    0.17013E-07        -0.45169E-19         0.00000E+00
    0.17291E-07        -0.25146E-19         0.00000E+00
    0.17606E-07        -0.34925E-19         0.00000E+00
    0.17959E-07        -0.22585E-19         0.00000E+00
    0.18351E-07        -0.16764E-19         0.00000E+00
    0.18781E-07        -0.26077E-19         0.00000E+00
    0.19252E-07        -0.10710E-19         0.00000E+00
    0.19764E-07         0.37253E-20         0.00000E+00
    0.20317E-07         0.86147E-20         0.00000E+00
    0.20915E-07         0.65193E-20         0.00000E+00
    0.21557E-07         0.69849E-20         0.00000E+00
    0.22244E-07         0.13271E-19         0.00000E+00
    0.22980E-07         0.18394E-19         0.00000E+00
    0.23764E-07         0.18626E-19         0.00000E+00
    0.24599E-07         0.17462E-19         0.00000E+00
    0.25487E-07         0.22119E-19         0.00000E+00
    0.26429E-07         0.13039E-19         0.00000E+00
    0.27428E-07         0.62864E-20         0.00000E+00
    0.28485E-07         0.27008E-19         0.00000E+00
    0.29602E-07         0.24214E-19         0.00000E+00
    0.30784E-07         0.17928E-19         0.00000E+00
    0.32030E-07         0.20955E-19         0.00000E+00
    0.33345E-07         0.21653E-19         0.00000E+00
    0.34732E-07         0.29104E-19         0.00000E+00
    0.36192E-07         0.32363E-19         0.00000E+00
    0.37730E-07         0.33528E-19         0.00000E+00
    0.39348E-07         0.27241E-19         0.00000E+00
    0.41050E-07         0.23050E-19         0.00000E+00
    0.42840E-07         0.33062E-19         0.00000E+00
    0.44721E-07         0.35157E-19         0.00000E+00
    0.46698E-07         0.27474E-19         0.00000E+00
    0.48775E-07         0.27241E-19         0.00000E+00
    0.50955E-07         0.23982E-19         0.00000E+00
    0.53244E-07         0.25844E-19         0.00000E+00
    0.55647E-07         0.16531E-19         0.00000E+00
    0.58169E-07         0.22585E-19         0.00000E+00
    0.60815E-07         0.13271E-19         0.00000E+00
    0.63591E-07         0.64028E-20         0.00000E+00
    0.66502E-07         0.45402E-20         0.00000E+00
    0.69556E-07        -0.47730E-20         0.00000E+00
    0.91678E-07         0.46566E-20         0.00000E+00
    0.87605E-07         0.14668E-19         0.00000E+00
    0.83718E-07         0.59605E-19         0.00000E+00
    0.80010E-07         0.39116E-19         0.00000E+00
    0.76473E-07         0.93132E-21         0.00000E+00
    0.73100E-07         0.37951E-19         0.00000E+00
    0.69882E-07         0.24447E-19         0.00000E+00
    0.66813E-07         0.28405E-19         0.00000E+00
    0.63887E-07         0.20256E-19         0.00000E+00
    0.61098E-07         0.14203E-19         0.00000E+00
    0.58438E-07         0.31199E-19         0.00000E+00
    0.55904E-07         0.17695E-19         0.00000E+00
    0.53489E-07         0.20955E-19         0.00000E+00
    0.51188E-07         0.16531E-19         0.00000E+00
    0.48996E-07         0.16065E-19         0.00000E+00
    0.46909E-07         0.11642E-19         0.00000E+00
    0.44922E-07         0.65193E-20         0.00000E+00
    0.43031E-07        -0.93132E-21         0.00000E+00
    0.41232E-07        -0.62864E-20         0.00000E+00
    0.39521E-07        -0.39581E-20         0.00000E+00
    0.37894E-07         0.13737E-19         0.00000E+00
    0.36348E-07         0.23283E-19         0.00000E+00
    0.34880E-07         0.88476E-20         0.00000E+00
    0.33486E-07        -0.51223E-20         0.00000E+00
    0.32164E-07        -0.23283E-20         0.00000E+00
    0.30910E-07        -0.97789E-20         0.00000E+00
    0.29722E-07         0.55879E-20         0.00000E+00
    0.28598E-07         0.20955E-19         0.00000E+00
    0.27535E-07        -0.12340E-19         0.00000E+00
    0.26530E-07        -0.20955E-19         0.00000E+00
    0.25582E-07         0.16298E-19         0.00000E+00
    0.24689E-07         0.28871E-19         0.00000E+00
    0.23849E-07         0.22352E-19         0.00000E+00
    0.23059E-07         0.19791E-19         0.00000E+00
    0.22319E-07         0.48894E-20         0.00000E+00
    0.21626E-07         0.20955E-20         0.00000E+00
    0.20979E-07         0.00000E+00         0.00000E+00
    0.20377E-07        -0.27940E-20         0.00000E+00
    0.19819E-07         0.74506E-20         0.00000E+00
    0.19303E-07        -0.37253E-20         0.00000E+00
    0.18828E-07        -0.21420E-19         0.00000E+00
    0.18394E-07        -0.76834E-20         0.00000E+00
    0.17998E-07         0.13970E-20         0.00000E+00
    0.17641E-07        -0.18626E-20         0.00000E+00
    0.17322E-07        -0.93132E-20         0.00000E+00
    0.17040E-07        -0.26776E-19         0.00000E+00
    0.16794E-07        -0.29569E-19         0.00000E+00
    0.16584E-07        -0.20722E-19         0.00000E+00
    0.16409E-07        -0.97789E-20         0.00000E+00
    0.16270E-07        -0.34925E-20         0.00000E+00
    0.16165E-07         0.13970E-20         0.00000E+00
    0.16094E-07        -0.11409E-19         0.00000E+00
    0.16058E-07        -0.62864E-20         0.00000E+00
    0.16056E-07        -0.97789E-20         0.00000E+00
    0.16089E-07        -0.27008E-19         0.00000E+00
    0.16156E-07        -0.12806E-19         0.00000E+00
    0.16257E-07        -0.44238E-20         0.00000E+00
    0.16393E-07        -0.20955E-19         0.00000E+00
    0.16564E-07        -0.40280E-19         0.00000E+00
    0.16770E-07        -0.20489E-19         0.00000E+00
    0.17013E-07        -0.24913E-19         0.00000E+00
    0.17291E-07        -0.38184E-19         0.00000E+00
    0.17606E-07        -0.34925E-19         0.00000E+00
    0.17959E-07        -0.42375E-19         0.00000E+00
    0.18351E-07        -0.42375E-19         0.00000E+00
    0.18781E-07        -0.40978E-19         0.00000E+00
    0.19252E-07        -0.26310E-19         0.00000E+00
    0.19764E-07        -0.17928E-19         0.00000E+00
    0.20317E-07        -0.18626E-19         0.00000E+00
    0.20915E-07         0.51223E-20         0.00000E+00
    0.21557E-07        -0.23283E-20         0.00000E+00
    0.22244E-07        -0.11642E-20         0.00000E+00
    0.22980E-07         0.76834E-20         0.00000E+00
    0.23764E-07         0.32596E-20         0.00000E+00
    0.24599E-07         0.12107E-19         0.00000E+00
    0.25487E-07         0.22119E-19         0.00000E+00
    0.26429E-07         0.18161E-19         0.00000E+00
    0.27428E-07         0.13039E-19         0.00000E+00
    0.28485E-07         0.28405E-19         0.00000E+00
    0.29602E-07         0.19092E-19         0.00000E+00
    0.30784E-07        -0.44238E-20         0.00000E+00
    0.32030E-07         0.53551E-20         0.00000E+00
    0.33345E-07         0.62864E-20         0.00000E+00
    0.34732E-07         0.10245E-19         0.00000E+00
    0.36192E-07         0.21886E-19         0.00000E+00
    0.37730E-07         0.15134E-19         0.00000E+00
    0.39348E-07         0.76834E-20         0.00000E+00
    0.41050E-07         0.11409E-19         0.00000E+00
    0.42840E-07         0.15600E-19         0.00000E+00
    0.44721E-07         0.21653E-19         0.00000E+00
    0.46698E-07         0.48894E-20         0.00000E+00
    0.48775E-07         0.19791E-19         0.00000E+00
    0.50955E-07         0.25844E-19         0.00000E+00
    0.53244E-07         0.33760E-20         0.00000E+00
    0.55647E-07         0.86147E-20         0.00000E+00
    0.58169E-07         0.13621E-19         0.00000E+00
    0.60815E-07         0.12107E-19         0.00000E+00
    0.63591E-07         0.47730E-20         0.00000E+00
    0.66502E-07        -0.10477E-20         0.00000E+00
    0.69556E-07        -0.32596E-20         0.00000E+00
    0.91678E-07        -0.74506E-20         0.00000E+00
    0.87605E-07         0.11874E-19         0.00000E+00
    0.83718E-07         0.44703E-19         0.00000E+00
    0.80010E-07         0.27008E-19         0.00000E+00
    0.76473E-07         0.26543E-19         0.00000E+00
    0.73100E-07         0.53784E-19         0.00000E+00
    0.69882E-07         0.46100E-19         0.00000E+00
    0.66813E-07         0.37951E-19         0.00000E+00
    0.63887E-07         0.31432E-19         0.00000E+00
    0.61098E-07         0.60536E-20         0.00000E+00
    0.58438E-07        -0.37253E-20         0.00000E+00
    0.55904E-07         0.27008E-19         0.00000E+00
    0.53489E-07         0.29569E-19         0.00000E+00
    0.51188E-07         0.16764E-19         0.00000E+00
    0.48996E-07         0.14901E-19         0.00000E+00
    0.46909E-07         0.11176E-19         0.00000E+00
    0.44922E-07         0.20489E-19         0.00000E+00
    0.43031E-07         0.17229E-19         0.00000E+00
    0.41232E-07        -0.12340E-19         0.00000E+00
    0.39521E-07        -0.12340E-19         0.00000E+00
    0.37894E-07         0.10477E-19         0.00000E+00
    0.36348E-07         0.10710E-19         0.00000E+00
    0.34880E-07         0.44238E-20         0.00000E+00
    0.33486E-07        -0.10012E-19         0.00000E+00
    0.32164E-07        -0.27474E-19         0.00000E+00
    0.30910E-07        -0.18394E-19         0.00000E+00
    0.29722E-07         0.83819E-20         0.00000E+00
    0.28598E-07         0.15367E-19         0.00000E+00
    0.27535E-07         0.12806E-19         0.00000E+00
    0.26530E-07         0.20955E-20         0.00000E+00
    0.25582E-07        -0.23283E-20         0.00000E+00
    0.24689E-07         0.90804E-20         0.00000E+00
    0.23849E-07         0.22585E-19         0.00000E+00
    0.23059E-07         0.22585E-19         0.00000E+00
    0.22319E-07         0.15367E-19         0.00000E+00
    0.21626E-07         0.16997E-19         0.00000E+00
    0.20979E-07         0.16997E-19         0.00000E+00
    0.20377E-07         0.27940E-20         0.00000E+00
    0.19819E-07        -0.10245E-19         0.00000E+00
    0.19303E-07         0.23283E-21         0.00000E+00
    0.18828E-07        -0.17928E-19         0.00000E+00
    0.18394E-07        -0.13039E-19         0.00000E+00
    0.17998E-07        -0.37253E-20         0.00000E+00
    0.17641E-07        -0.97789E-20         0.00000E+00
    0.17322E-07        -0.90804E-20         0.00000E+00
    0.17040E-07        -0.15600E-19         0.00000E+00
    0.16794E-07        -0.25379E-19         0.00000E+00
    0.16584E-07        -0.31199E-19         0.00000E+00
    0.16409E-07        -0.11642E-19         0.00000E+00
    0.16270E-07        -0.19325E-19         0.00000E+00
    0.16165E-07        -0.62864E-20         0.00000E+00
    0.16094E-07         0.46566E-21         0.00000E+00
    0.16058E-07        -0.12573E-19         0.00000E+00
    0.16056E-07        -0.24447E-19         0.00000E+00
    0.16089E-07        -0.35390E-19         0.00000E+00
    0.16156E-07        -0.35157E-19         0.00000E+00
    0.16257E-07        -0.25146E-19         0.00000E+00
    0.16393E-07        -0.22352E-19         0.00000E+00
    0.16564E-07        -0.28871E-19         0.00000E+00
    0.16770E-07        -0.36322E-19         0.00000E+00
    0.17013E-07        -0.45868E-19         0.00000E+00
    0.17291E-07        -0.56578E-19         0.00000E+00
    0.17606E-07        -0.39814E-19         0.00000E+00
    0.17959E-07        -0.22119E-19         0.00000E+00
    0.18351E-07        -0.41677E-19         0.00000E+00
    0.18781E-07        -0.25146E-19         0.00000E+00
    0.19252E-07        -0.37253E-20         0.00000E+00
    0.19764E-07        -0.26543E-19         0.00000E+00
    0.20317E-07        -0.23982E-19         0.00000E+00
    0.20915E-07        -0.27008E-19         0.00000E+00
    0.21557E-07        -0.32596E-20         0.00000E+00
    0.22244E-07         0.16065E-19         0.00000E+00
    0.22980E-07        -0.20955E-20         0.00000E+00
    0.23764E-07        -0.10710E-19         0.00000E+00
    0.24599E-07         0.15600E-19         0.00000E+00
    0.25487E-07         0.18859E-19         0.00000E+00
    0.26429E-07         0.00000E+00         0.00000E+00
    0.27428E-07         0.93132E-21         0.00000E+00
    0.28485E-07        -0.93132E-20         0.00000E+00
    0.29602E-07        -0.19558E-19         0.00000E+00
    0.30784E-07        -0.25611E-20         0.00000E+00
    0.32030E-07         0.12340E-19         0.00000E+00
    0.33345E-07         0.18161E-19         0.00000E+00
    0.34732E-07         0.19791E-19         0.00000E+00
    0.36192E-07         0.15600E-19         0.00000E+00
    0.37730E-07         0.11642E-19         0.00000E+00
    0.39348E-07         0.26543E-19         0.00000E+00
    0.41050E-07         0.13039E-19         0.00000E+00
    0.42840E-07         0.88476E-20         0.00000E+00
    0.44721E-07         0.97789E-20         0.00000E+00
    0.46698E-07         0.90804E-20         0.00000E+00
    0.48775E-07         0.29104E-19         0.00000E+00
    0.50955E-07         0.43539E-19         0.00000E+00
    0.53244E-07         0.30966E-19         0.00000E+00
    0.55647E-07         0.22002E-19         0.00000E+00
    0.58169E-07         0.23749E-19         0.00000E+00
    0.60815E-07         0.16531E-19         0.00000E+00
    0.63591E-07         0.11758E-19         0.00000E+00
    0.66502E-07         0.10361E-19         0.00000E+00
    0.69556E-07         0.73342E-20         0.00000E+00
    0.91678E-07         0.13039E-19         0.00000E+00
    0.87605E-07         0.44936E-19         0.00000E+00
    0.83718E-07         0.38650E-19         0.00000E+00
    0.80010E-07         0.21420E-19         0.00000E+00
    0.76473E-07        -0.51223E-20         0.00000E+00
    0.73100E-07        -0.81491E-20         0.00000E+00
    0.69882E-07         0.30035E-19         0.00000E+00
    0.66813E-07         0.37253E-20         0.00000E+00
    0.63887E-07         0.81491E-20         0.00000E+00
    0.61098E-07         0.11176E-19         0.00000E+00
    0.58438E-07         0.20955E-19         0.00000E+00
    0.55904E-07         0.15832E-19         0.00000E+00
    0.53489E-07         0.23749E-19         0.00000E+00
    0.51188E-07         0.24913E-19         0.00000E+00
    0.48996E-07        -0.13970E-19         0.00000E+00
    0.46909E-07         0.12340E-19         0.00000E+00
    0.44922E-07         0.23516E-19         0.00000E+00
    0.43031E-07         0.32131E-19         0.00000E+00
    0.41232E-07         0.20722E-19         0.00000E+00
    0.39521E-07        -0.53551E-20         0.00000E+00
    0.37894E-07         0.24913E-19         0.00000E+00
    0.36348E-07         0.11409E-19         0.00000E+00
    0.34880E-07        -0.20955E-19         0.00000E+00
    0.33486E-07        -0.19558E-19         0.00000E+00
    0.32164E-07        -0.12107E-19         0.00000E+00
    0.30910E-07        -0.17462E-19         0.00000E+00
    0.29722E-07        -0.32596E-20         0.00000E+00
    0.28598E-07         0.37253E-20         0.00000E+00
    0.27535E-07        -0.16764E-19         0.00000E+00
    0.26530E-07        -0.21188E-19         0.00000E+00
    0.25582E-07        -0.10477E-19         0.00000E+00
    0.24689E-07         0.86147E-20         0.00000E+00
    0.23849E-07        -0.27940E-20         0.00000E+00
    0.23059E-07         0.16298E-20         0.00000E+00
    0.22319E-07         0.95461E-20         0.00000E+00
    0.21626E-07         0.10012E-19         0.00000E+00
    0.20979E-07        -0.34925E-20         0.00000E+00
    0.20377E-07        -0.11642E-19         0.00000E+00
    0.19819E-07        -0.21188E-19         0.00000E+00
    0.19303E-07        -0.35856E-19         0.00000E+00
    0.18828E-07         0.41910E-20         0.00000E+00
    0.18394E-07         0.16298E-19         0.00000E+00
    0.17998E-07        -0.15832E-19         0.00000E+00
    0.17641E-07        -0.31665E-19         0.00000E+00
    0.17322E-07        -0.44238E-19         0.00000E+00
    0.17040E-07        -0.44005E-19         0.00000E+00
    0.16794E-07        -0.37253E-19         0.00000E+00
    0.16584E-07        -0.15832E-19         0.00000E+00
    0.16409E-07        -0.14435E-19         0.00000E+00
    0.16270E-07        -0.14901E-19         0.00000E+00
    0.16165E-07        -0.23283E-20         0.00000E+00
    0.16094E-07        -0.18626E-20         0.00000E+00
    0.16058E-07        -0.12107E-19         0.00000E+00
    0.16056E-07        -0.13737E-19         0.00000E+00
    0.16089E-07        -0.26077E-19         0.00000E+00
    0.16156E-07        -0.33993E-19         0.00000E+00
    0.16257E-07        -0.30734E-19         0.00000E+00
    0.16393E-07        -0.14435E-19         0.00000E+00
    0.16564E-07        -0.48894E-20         0.00000E+00
    0.16770E-07        -0.29337E-19         0.00000E+00
    0.17013E-07        -0.41677E-19         0.00000E+00
    0.17291E-07        -0.32131E-19         0.00000E+00
    0.17606E-07        -0.22817E-19         0.00000E+00
    0.17959E-07        -0.22119E-19         0.00000E+00
    0.18351E-07        -0.28871E-19         0.00000E+00
    0.18781E-07        -0.23283E-20         0.00000E+00
    0.19252E-07         0.10943E-19         0.00000E+00
    0.19764E-07        -0.88476E-20         0.00000E+00
    0.20317E-07        -0.17695E-19         0.00000E+00
    0.20915E-07        -0.79162E-20         0.00000E+00
    0.21557E-07         0.14435E-19         0.00000E+00
    0.22244E-07         0.11874E-19         0.00000E+00
    0.22980E-07        -0.81491E-20         0.00000E+00
    0.23764E-07         0.74506E-20         0.00000E+00
    0.24599E-07         0.12340E-19         0.00000E+00
    0.25487E-07         0.76834E-20         0.00000E+00
    0.26429E-07         0.69849E-20         0.00000E+00
    0.27428E-07        -0.14901E-19         0.00000E+00
    0.28485E-07        -0.16764E-19         0.00000E+00
    0.29602E-07         0.14435E-19         0.00000E+00
    0.30784E-07         0.10477E-19         0.00000E+00
    0.32030E-07         0.13271E-19         0.00000E+00
    0.33345E-07         0.30734E-19         0.00000E+00
    0.34732E-07         0.19791E-19         0.00000E+00
    0.36192E-07         0.88476E-20         0.00000E+00
    0.37730E-07         0.16531E-19         0.00000E+00
    0.39348E-07         0.28871E-19         0.00000E+00
    0.41050E-07         0.33062E-19         0.00000E+00
    0.42840E-07         0.11642E-19         0.00000E+00
    0.44721E-07         0.55879E-20         0.00000E+00
    0.46698E-07         0.16764E-19         0.00000E+00
    0.48775E-07         0.20955E-19         0.00000E+00
    0.50955E-07         0.10012E-19         0.00000E+00
    0.53244E-07         0.67521E-20         0.00000E+00
    0.55647E-07         0.29104E-19         0.00000E+00
    0.58169E-07         0.30035E-19         0.00000E+00
    0.60815E-07         0.13970E-20         0.00000E+00
    0.63591E-07        -0.16880E-19         0.00000E+00
    0.66502E-07        -0.15134E-20         0.00000E+00
    0.69556E-07         0.51223E-20         0.00000E+00
    0.91678E-07        -0.13970E-19         0.00000E+00
    0.87605E-07        -0.17462E-19         0.00000E+00
    0.83718E-07         0.32596E-20         0.00000E+00
    0.80010E-07         0.43539E-19         0.00000E+00
    0.76473E-07         0.38883E-19         0.00000E+00
    0.73100E-07         0.29569E-19         0.00000E+00
    0.69882E-07         0.43772E-19         0.00000E+00
    0.66813E-07         0.42375E-19         0.00000E+00
    0.63887E-07         0.34925E-19         0.00000E+00
    0.61098E-07        -0.11642E-20         0.00000E+00
    0.58438E-07         0.97789E-20         0.00000E+00
    0.55904E-07         0.24214E-19         0.00000E+00
    0.53489E-07         0.23283E-19         0.00000E+00
    0.51188E-07         0.76834E-20         0.00000E+00
    0.48996E-07         0.20955E-20         0.00000E+00
    0.46909E-07         0.18626E-19         0.00000E+00
    0.44922E-07         0.25146E-19         0.00000E+00
    0.43031E-07         0.28638E-19         0.00000E+00
    0.41232E-07         0.10943E-19         0.00000E+00
    0.39521E-07        -0.72177E-20         0.00000E+00
    0.37894E-07        -0.13737E-19         0.00000E+00
    0.36348E-07         0.97789E-20         0.00000E+00
    0.34880E-07         0.18394E-19         0.00000E+00
    0.33486E-07         0.27940E-20         0.00000E+00
    0.32164E-07        -0.83819E-20         0.00000E+00
    0.30910E-07        -0.15832E-19         0.00000E+00
    0.29722E-07        -0.15832E-19         0.00000E+00
    0.28598E-07        -0.22352E-19         0.00000E+00
    0.27535E-07         0.10012E-19         0.00000E+00
    0.26530E-07         0.11642E-19         0.00000E+00
    0.25582E-07        -0.76834E-20         0.00000E+00
    0.24689E-07        -0.13970E-20         0.00000E+00
    0.23849E-07         0.10245E-19         0.00000E+00
    0.23059E-07        -0.23283E-21         0.00000E+00
    0.22319E-07         0.10477E-19         0.00000E+00
    0.21626E-07         0.30268E-20         0.00000E+00
    0.20979E-07        -0.11642E-19         0.00000E+00
    0.20377E-07        -0.10943E-19         0.00000E+00
    0.19819E-07        -0.18626E-19         0.00000E+00
    0.19303E-07        -0.25379E-19         0.00000E+00
    0.18828E-07        -0.27008E-19         0.00000E+00
    0.18394E-07        -0.32829E-19         0.00000E+00
    0.17998E-07        -0.33062E-19         0.00000E+00
    0.17641E-07        -0.25611E-19         0.00000E+00
    0.17322E-07        -0.33528E-19         0.00000E+00
    0.17040E-07        -0.29802E-19         0.00000E+00
    0.16794E-07        -0.31199E-19         0.00000E+00
    0.16584E-07        -0.41211E-19         0.00000E+00
    0.16409E-07        -0.30734E-19         0.00000E+00
    0.16270E-07        -0.17928E-19         0.00000E+00
    0.16165E-07        -0.25379E-19         0.00000E+00
    0.16094E-07        -0.29104E-19         0.00000E+00
    0.16058E-07        -0.38184E-19         0.00000E+00
    0.16056E-07        -0.42608E-19         0.00000E+00
    0.16089E-07        -0.46566E-19         0.00000E+00
    0.16156E-07        -0.37486E-19         0.00000E+00
    0.16257E-07        -0.18394E-19         0.00000E+00
    0.16393E-07        -0.18161E-19         0.00000E+00
    0.16564E-07        -0.40745E-19         0.00000E+00
    0.16770E-07        -0.53085E-19         0.00000E+00
    0.17013E-07        -0.38184E-19         0.00000E+00
    0.17291E-07        -0.43074E-19         0.00000E+00
    0.17606E-07        -0.46799E-19         0.00000E+00
    0.17959E-07        -0.24447E-19         0.00000E+00
    0.18351E-07        -0.20722E-19         0.00000E+00
    0.18781E-07        -0.93132E-20         0.00000E+00
    0.19252E-07         0.16298E-20         0.00000E+00
    0.19764E-07        -0.10245E-19         0.00000E+00
    0.20317E-07        -0.13271E-19         0.00000E+00
    0.20915E-07         0.25611E-20         0.00000E+00
    0.21557E-07         0.14901E-19         0.00000E+00
    0.22244E-07         0.11409E-19         0.00000E+00
    0.22980E-07         0.34925E-20         0.00000E+00
    0.23764E-07        -0.11176E-19         0.00000E+00
    0.24599E-07         0.25611E-20         0.00000E+00
    0.25487E-07         0.12107E-19         0.00000E+00
    0.26429E-07        -0.15367E-19         0.00000E+00
    0.27428E-07        -0.15600E-19         0.00000E+00
    0.28485E-07        -0.93132E-20         0.00000E+00
    0.29602E-07         0.93132E-21         0.00000E+00
    0.30784E-07        -0.72177E-20         0.00000E+00
    0.32030E-07        -0.13970E-20         0.00000E+00
    0.33345E-07         0.12806E-19         0.00000E+00
    0.34732E-07         0.10245E-19         0.00000E+00
    0.36192E-07         0.11176E-19         0.00000E+00
    0.37730E-07         0.76834E-20         0.00000E+00
    0.39348E-07         0.20256E-19         0.00000E+00
    0.41050E-07         0.31665E-19         0.00000E+00
    0.42840E-07         0.25146E-19         0.00000E+00
    0.44721E-07         0.18859E-19         0.00000E+00
    0.46698E-07         0.15134E-19         0.00000E+00
    0.48775E-07         0.10245E-19         0.00000E+00
    0.50955E-07         0.30501E-19         0.00000E+00
    0.53244E-07         0.38533E-19         0.00000E+00
    0.55647E-07         0.32131E-19         0.00000E+00
    0.58169E-07         0.19558E-19         0.00000E+00
    0.60815E-07         0.14668E-19         0.00000E+00
    0.63591E-07         0.77998E-20         0.00000E+00
    0.66502E-07         0.73342E-20         0.00000E+00
    0.69556E-07         0.73342E-20         0.00000E+00
    0.91678E-07        -0.81491E-20         0.00000E+00
    0.87605E-07        -0.10477E-19         0.00000E+00
    0.83718E-07         0.27008E-19         0.00000E+00
    0.80010E-07         0.33528E-19         0.00000E+00
    0.76473E-07         0.44703E-19         0.00000E+00
    0.73100E-07         0.41211E-19         0.00000E+00
    0.69882E-07         0.32829E-19         0.00000E+00
    0.66813E-07         0.27008E-19         0.00000E+00
    0.63887E-07        -0.69849E-21         0.00000E+00
    0.61098E-07         0.14901E-19         0.00000E+00
    0.58438E-07         0.33993E-19         0.00000E+00
    0.55904E-07         0.55181E-19         0.00000E+00
    0.53489E-07         0.38883E-19         0.00000E+00
    0.51188E-07         0.22352E-19         0.00000E+00
    0.48996E-07         0.35157E-19         0.00000E+00
    0.46909E-07         0.16764E-19         0.00000E+00
    0.44922E-07         0.18161E-19         0.00000E+00
    0.43031E-07         0.14203E-19         0.00000E+00
    0.41232E-07        -0.25844E-19         0.00000E+00
    0.39521E-07        -0.72177E-20         0.00000E+00
    0.37894E-07         0.23283E-21         0.00000E+00
    0.36348E-07         0.18626E-20         0.00000E+00
    0.34880E-07         0.93132E-20         0.00000E+00
    0.33486E-07        -0.27940E-20         0.00000E+00
    0.32164E-07        -0.97789E-20         0.00000E+00
    0.30910E-07        -0.12107E-19         0.00000E+00
    0.29722E-07        -0.16764E-19         0.00000E+00
    0.28598E-07         0.00000E+00         0.00000E+00
    0.27535E-07         0.14203E-19         0.00000E+00
    0.26530E-07        -0.83819E-20         0.00000E+00
    0.25582E-07        -0.13970E-20         0.00000E+00
    0.24689E-07         0.90804E-20         0.00000E+00
    0.23849E-07         0.39581E-20         0.00000E+00
    0.23059E-07        -0.97789E-20         0.00000E+00
    0.22319E-07         0.10012E-19         0.00000E+00
    0.21626E-07         0.23283E-19         0.00000E+00
    0.20979E-07        -0.46566E-21         0.00000E+00
    0.20377E-07        -0.27474E-19         0.00000E+00
    0.19819E-07        -0.12340E-19         0.00000E+00
    0.19303E-07        -0.34925E-20         0.00000E+00
    0.18828E-07        -0.32829E-19         0.00000E+00
    0.18394E-07        -0.48429E-19         0.00000E+00
    0.17998E-07        -0.30966E-19         0.00000E+00
    0.17641E-07        -0.13039E-19         0.00000E+00
    0.17322E-07        -0.31199E-19         0.00000E+00
    0.17040E-07        -0.42841E-19         0.00000E+00
    0.16794E-07        -0.40280E-19         0.00000E+00
    0.16584E-07        -0.42142E-19         0.00000E+00
    0.16409E-07        -0.32131E-19         0.00000E+00
    0.16270E-07        -0.21886E-19         0.00000E+00
    0.16165E-07        -0.33295E-19         0.00000E+00
    0.16094E-07        -0.42142E-19         0.00000E+00
    0.16058E-07        -0.48894E-19         0.00000E+00
    0.16056E-07        -0.40513E-19         0.00000E+00
    0.16089E-07        -0.30734E-19         0.00000E+00
    0.16156E-07        -0.42375E-19         0.00000E+00
    0.16257E-07        -0.26077E-19         0.00000E+00
    0.16393E-07        -0.29337E-19         0.00000E+00
    0.16564E-07        -0.37951E-19         0.00000E+00
    0.16770E-07        -0.40745E-19         0.00000E+00
    0.17013E-07        -0.32829E-19         0.00000E+00
    0.17291E-07        -0.32829E-19         0.00000E+00
    0.17606E-07        -0.27474E-19         0.00000E+00
    0.17959E-07        -0.76834E-20         0.00000E+00
    0.18351E-07        -0.11176E-19         0.00000E+00
    0.18781E-07         0.30268E-20         0.00000E+00
    0.19252E-07         0.27940E-20         0.00000E+00
    0.19764E-07        -0.30268E-20         0.00000E+00
    0.20317E-07         0.51223E-20         0.00000E+00
    0.20915E-07         0.12107E-19         0.00000E+00
    0.21557E-07         0.32596E-20         0.00000E+00
    0.22244E-07        -0.34925E-20         0.00000E+00
    0.22980E-07         0.62864E-20         0.00000E+00
    0.23764E-07         0.74506E-20         0.00000E+00
    0.24599E-07         0.14203E-19         0.00000E+00
    0.25487E-07         0.72177E-20         0.00000E+00
    0.26429E-07         0.46566E-20         0.00000E+00
    0.27428E-07         0.13970E-20         0.00000E+00
    0.28485E-07         0.13039E-19         0.00000E+00
    0.29602E-07         0.11176E-19         0.00000E+00
    0.30784E-07         0.11409E-19         0.00000E+00
    0.32030E-07         0.23982E-19         0.00000E+00
    0.33345E-07         0.93132E-20         0.00000E+00
    0.34732E-07         0.23982E-19         0.00000E+00
    0.36192E-07         0.11176E-19         0.00000E+00
    0.37730E-07         0.34925E-20         0.00000E+00
    0.39348E-07         0.29802E-19         0.00000E+00
    0.41050E-07         0.40047E-19         0.00000E+00
    0.42840E-07         0.35157E-19         0.00000E+00
    0.44721E-07         0.28405E-19         0.00000E+00
    0.46698E-07         0.38883E-19         0.00000E+00
    0.48775E-07         0.27241E-19         0.00000E+00
    0.50955E-07         0.16997E-19         0.00000E+00
    0.53244E-07         0.40513E-19         0.00000E+00
    0.55647E-07         0.34343E-19         0.00000E+00
    0.58169E-07         0.30152E-19         0.00000E+00
    0.60815E-07         0.24447E-19         0.00000E+00
    0.63591E-07         0.13853E-19         0.00000E+00
    0.66502E-07         0.13853E-19         0.00000E+00
    0.69556E-07         0.32596E-20         0.00000E+00
    0.91678E-07        -0.20489E-19         0.00000E+00
    0.87605E-07        -0.15134E-19         0.00000E+00
    0.83718E-07         0.26077E-19         0.00000E+00
    0.80010E-07         0.40978E-19         0.00000E+00
    0.76473E-07         0.44936E-19         0.00000E+00
    0.73100E-07         0.62864E-19         0.00000E+00
    0.69882E-07         0.42375E-19         0.00000E+00
    0.66813E-07         0.21420E-19         0.00000E+00
    0.63887E-07         0.34692E-19         0.00000E+00
    0.61098E-07         0.22352E-19         0.00000E+00
    0.58438E-07         0.88476E-20         0.00000E+00
    0.55904E-07         0.14435E-19         0.00000E+00
    0.53489E-07         0.16997E-19         0.00000E+00
    0.51188E-07         0.74506E-20         0.00000E+00
    0.48996E-07         0.46566E-20         0.00000E+00
    0.46909E-07         0.13737E-19         0.00000E+00
    0.44922E-07         0.15134E-19         0.00000E+00
    0.43031E-07         0.53551E-20         0.00000E+00
    0.41232E-07        -0.19325E-19         0.00000E+00
    0.39521E-07        -0.23050E-19         0.00000E+00
    0.37894E-07        -0.10012E-19         0.00000E+00
    0.36348E-07         0.41910E-20         0.00000E+00
    0.34880E-07         0.23283E-21         0.00000E+00
    0.33486E-07         0.10012E-19         0.00000E+00
    0.32164E-07         0.14435E-19         0.00000E+00
    0.30910E-07         0.12107E-19         0.00000E+00
    0.29722E-07         0.41910E-20         0.00000E+00
    0.28598E-07        -0.15600E-19         0.00000E+00
    0.27535E-07        -0.21653E-19         0.00000E+00
    0.26530E-07        -0.13039E-19         0.00000E+00
    0.25582E-07        -0.74506E-20         0.00000E+00
    0.24689E-07        -0.15832E-19         0.00000E+00
    0.23849E-07        -0.16764E-19         0.00000E+00
    0.23059E-07        -0.46566E-21         0.00000E+00
    0.22319E-07         0.16997E-19         0.00000E+00
    0.21626E-07         0.67521E-20         0.00000E+00
    0.20979E-07        -0.32596E-20         0.00000E+00
    0.20377E-07        -0.15134E-19         0.00000E+00
    0.19819E-07        -0.38417E-19         0.00000E+00
    0.19303E-07        -0.35390E-19         0.00000E+00
    0.18828E-07        -0.41677E-19         0.00000E+00
    0.18394E-07        -0.57044E-19         0.00000E+00
    0.17998E-07        -0.44703E-19         0.00000E+00
    0.17641E-07        -0.48662E-19         0.00000E+00
    0.17322E-07        -0.49127E-19         0.00000E+00
    0.17040E-07        -0.48196E-19         0.00000E+00
    0.16794E-07        -0.55879E-19         0.00000E+00
    0.16584E-07        -0.44238E-19         0.00000E+00
    0.16409E-07        -0.41444E-19         0.00000E+00
    0.16270E-07        -0.29569E-19         0.00000E+00
    0.16165E-07        -0.27940E-19         0.00000E+00
    0.16094E-07        -0.23982E-19         0.00000E+00
    0.16058E-07        -0.16764E-19         0.00000E+00
    0.16056E-07        -0.11874E-19         0.00000E+00
    0.16089E-07        -0.46566E-21         0.00000E+00
    0.16156E-07        -0.11409E-19         0.00000E+00
    0.16257E-07        -0.24214E-19         0.00000E+00
    0.16393E-07        -0.17928E-19         0.00000E+00
    0.16564E-07        -0.15134E-19         0.00000E+00
    0.16770E-07        -0.11642E-19         0.00000E+00
    0.17013E-07         0.46566E-21         0.00000E+00
    0.17291E-07        -0.10943E-19         0.00000E+00
    0.17606E-07        -0.27940E-19         0.00000E+00
    0.17959E-07        -0.11642E-19         0.00000E+00
    0.18351E-07         0.46566E-20         0.00000E+00
    0.18781E-07         0.32596E-20         0.00000E+00
    0.19252E-07        -0.20955E-20         0.00000E+00
    0.19764E-07        -0.48894E-20         0.00000E+00
    0.20317E-07        -0.58208E-20         0.00000E+00
    0.20915E-07         0.83819E-20         0.00000E+00
    0.21557E-07         0.12573E-19         0.00000E+00
    0.22244E-07         0.34925E-20         0.00000E+00
    0.22980E-07        -0.46566E-21         0.00000E+00
    0.23764E-07         0.17695E-19         0.00000E+00
    0.24599E-07         0.19791E-19         0.00000E+00
    0.25487E-07         0.90804E-20         0.00000E+00
    0.26429E-07         0.14901E-19         0.00000E+00
    0.27428E-07         0.23283E-19         0.00000E+00
    0.28485E-07         0.60536E-20         0.00000E+00
    0.29602E-07         0.11642E-19         0.00000E+00
    0.30784E-07         0.23516E-19         0.00000E+00
    0.32030E-07         0.29104E-19         0.00000E+00
    0.33345E-07         0.23283E-19         0.00000E+00
    0.34732E-07         0.13504E-19         0.00000E+00
    0.36192E-07         0.19791E-19         0.00000E+00
    0.37730E-07         0.23283E-19         0.00000E+00
    0.39348E-07         0.22585E-19         0.00000E+00
    0.41050E-07         0.28173E-19         0.00000E+00
    0.42840E-07         0.23516E-19         0.00000E+00
    0.44721E-07         0.21420E-19         0.00000E+00
    0.46698E-07         0.15134E-19         0.00000E+00
    0.48775E-07         0.14435E-19         0.00000E+00
    0.50955E-07         0.12573E-19         0.00000E+00
    0.53244E-07         0.62864E-20         0.00000E+00
    0.55647E-07         0.14203E-19         0.00000E+00
    0.58169E-07         0.31898E-19         0.00000E+00
    0.60815E-07         0.30152E-19         0.00000E+00
    0.63591E-07         0.16298E-19         0.00000E+00
    0.66502E-07         0.11059E-19         0.00000E+00
    0.69556E-07         0.18626E-20         0.00000E+00
    0.91678E-07        -0.41910E-20         0.00000E+00
    0.87605E-07         0.20023E-19         0.00000E+00
    0.83718E-07         0.42841E-19         0.00000E+00
    0.80010E-07         0.34692E-19         0.00000E+00
    0.76473E-07         0.42841E-19         0.00000E+00
    0.73100E-07         0.43074E-19         0.00000E+00
    0.69882E-07         0.69849E-19         0.00000E+00
    0.66813E-07         0.64261E-19         0.00000E+00
    0.63887E-07         0.18394E-19         0.00000E+00
    0.61098E-07         0.14668E-19         0.00000E+00
    0.58438E-07         0.25611E-19         0.00000E+00
    0.55904E-07         0.19325E-19         0.00000E+00
    0.53489E-07         0.10477E-19         0.00000E+00
    0.51188E-07         0.26543E-19         0.00000E+00
    0.48996E-07         0.18161E-19         0.00000E+00
    0.46909E-07         0.37253E-20         0.00000E+00
    0.44922E-07        -0.46566E-20         0.00000E+00
    0.43031E-07        -0.30268E-20         0.00000E+00
    0.41232E-07        -0.14203E-19         0.00000E+00
    0.39521E-07        -0.24913E-19         0.00000E+00
    0.37894E-07        -0.25611E-20         0.00000E+00
    0.36348E-07         0.14901E-19         0.00000E+00
    0.34880E-07         0.17928E-19         0.00000E+00
    0.33486E-07        -0.13970E-20         0.00000E+00
    0.32164E-07        -0.93132E-21         0.00000E+00
    0.30910E-07        -0.62864E-20         0.00000E+00
    0.29722E-07         0.46566E-21         0.00000E+00
    0.28598E-07        -0.65193E-20         0.00000E+00
    0.27535E-07        -0.81491E-20         0.00000E+00
    0.26530E-07        -0.74506E-20         0.00000E+00
    0.25582E-07        -0.12107E-19         0.00000E+00
    0.24689E-07        -0.74506E-20         0.00000E+00
    0.23849E-07        -0.46566E-20         0.00000E+00
    0.23059E-07         0.18859E-19         0.00000E+00
    0.22319E-07         0.22817E-19         0.00000E+00
    0.21626E-07         0.10710E-19         0.00000E+00
    0.20979E-07         0.41910E-20         0.00000E+00
    0.20377E-07        -0.18626E-19         0.00000E+00
    0.19819E-07        -0.16531E-19         0.00000E+00
    0.19303E-07        -0.20955E-19         0.00000E+00
    0.18828E-07        -0.44238E-19         0.00000E+00
    0.18394E-07        -0.33062E-19         0.00000E+00
    0.17998E-07        -0.43306E-19         0.00000E+00
    0.17641E-07        -0.45169E-19         0.00000E+00
    0.17322E-07        -0.39581E-19         0.00000E+00
    0.17040E-07        -0.65193E-19         0.00000E+00
    0.16794E-07        -0.52154E-19         0.00000E+00
    0.16584E-07        -0.54482E-19         0.00000E+00
    0.16409E-07        -0.42375E-19         0.00000E+00
    0.16270E-07        -0.20489E-19         0.00000E+00
    0.16165E-07        -0.39348E-19         0.00000E+00
    0.16094E-07        -0.38650E-19         0.00000E+00
    0.16058E-07        -0.13039E-19         0.00000E+00
    0.16056E-07        -0.17229E-19         0.00000E+00
    0.16089E-07        -0.32596E-19         0.00000E+00
    0.16156E-07        -0.17229E-19         0.00000E+00
    0.16257E-07        -0.13039E-19         0.00000E+00
    0.16393E-07        -0.20722E-19         0.00000E+00
    0.16564E-07        -0.24447E-19         0.00000E+00
    0.16770E-07        -0.10245E-19         0.00000E+00
    0.17013E-07        -0.12806E-19         0.00000E+00
    0.17291E-07        -0.27474E-19         0.00000E+00
    0.17606E-07        -0.10012E-19         0.00000E+00
    0.17959E-07        -0.93132E-21         0.00000E+00
    0.18351E-07         0.11642E-19         0.00000E+00
    0.18781E-07         0.15600E-19         0.00000E+00
    0.19252E-07         0.34925E-20         0.00000E+00
    0.19764E-07         0.55879E-20         0.00000E+00
    0.20317E-07         0.72177E-20         0.00000E+00
    0.20915E-07         0.15832E-19         0.00000E+00
    0.21557E-07         0.14901E-19         0.00000E+00
    0.22244E-07        -0.23283E-20         0.00000E+00
    0.22980E-07         0.95461E-20         0.00000E+00
    0.23764E-07         0.14901E-19         0.00000E+00
    0.24599E-07         0.65193E-20         0.00000E+00
    0.25487E-07         0.16065E-19         0.00000E+00
    0.26429E-07         0.37253E-19         0.00000E+00
    0.27428E-07         0.21886E-19         0.00000E+00
    0.28485E-07         0.11176E-19         0.00000E+00
    0.29602E-07         0.14435E-19         0.00000E+00
    0.30784E-07         0.20256E-19         0.00000E+00
    0.32030E-07         0.32829E-19         0.00000E+00
    0.33345E-07         0.15832E-19         0.00000E+00
    0.34732E-07         0.10943E-19         0.00000E+00
    0.36192E-07         0.18161E-19         0.00000E+00
    0.37730E-07         0.36554E-19         0.00000E+00
    0.39348E-07         0.34226E-19         0.00000E+00
    0.41050E-07         0.24214E-19         0.00000E+00
    0.42840E-07         0.21653E-19         0.00000E+00
    0.44721E-07         0.35390E-19         0.00000E+00
    0.46698E-07         0.16531E-19         0.00000E+00
    0.48775E-07        -0.16298E-20         0.00000E+00
    0.50955E-07         0.31898E-19         0.00000E+00
    0.53244E-07         0.32247E-19         0.00000E+00
    0.55647E-07         0.30035E-19         0.00000E+00
    0.58169E-07         0.26776E-19         0.00000E+00
    0.60815E-07         0.20722E-19         0.00000E+00
    0.63591E-07         0.19674E-19         0.00000E+00
    0.66502E-07        -0.68685E-20         0.00000E+00
    0.69556E-07        -0.13621E-19         0.00000E+00
    0.91678E-07        -0.11642E-19         0.00000E+00
    0.87605E-07         0.69849E-21         0.00000E+00
    0.83718E-07         0.46566E-20         0.00000E+00
    0.80010E-07         0.21420E-19         0.00000E+00
    0.76473E-07         0.40978E-19         0.00000E+00
    0.73100E-07         0.31432E-19         0.00000E+00
    0.69882E-07         0.44936E-19         0.00000E+00
    0.66813E-07         0.41910E-19         0.00000E+00
    0.63887E-07         0.31199E-19         0.00000E+00
    0.61098E-07         0.48894E-20         0.00000E+00
    0.58438E-07        -0.37253E-20         0.00000E+00
    0.55904E-07        -0.67521E-20         0.00000E+00
    0.53489E-07        -0.34925E-20         0.00000E+00
    0.51188E-07         0.13970E-20         0.00000E+00
    0.48996E-07         0.27474E-19         0.00000E+00
    0.46909E-07         0.25611E-19         0.00000E+00
    0.44922E-07         0.16764E-19         0.00000E+00
    0.43031E-07         0.13737E-19         0.00000E+00
    0.41232E-07         0.86147E-20         0.00000E+00
    0.39521E-07        -0.16298E-20         0.00000E+00
    0.37894E-07        -0.12107E-19         0.00000E+00
    0.36348E-07         0.17229E-19         0.00000E+00
    0.34880E-07         0.10477E-19         0.00000E+00
    0.33486E-07        -0.46566E-21         0.00000E+00
    0.32164E-07        -0.46566E-21         0.00000E+00
    0.30910E-07        -0.69849E-21         0.00000E+00
    0.29722E-07        -0.13970E-20         0.00000E+00
    0.28598E-07         0.17695E-19         0.00000E+00
    0.27535E-07         0.17462E-19         0.00000E+00
    0.26530E-07        -0.69849E-21         0.00000E+00
    0.25582E-07        -0.39581E-20         0.00000E+00
    0.24689E-07         0.32596E-20         0.00000E+00
    0.23849E-07         0.18161E-19         0.00000E+00
    0.23059E-07         0.23749E-19         0.00000E+00
    0.22319E-07         0.13737E-19         0.00000E+00
    0.21626E-07         0.95461E-20         0.00000E+00
    0.20979E-07         0.10012E-19         0.00000E+00
    0.20377E-07        -0.93132E-21         0.00000E+00
    0.19819E-07        -0.44238E-20         0.00000E+00
    0.19303E-07        -0.26543E-19         0.00000E+00
    0.18828E-07        -0.34459E-19         0.00000E+00
    0.18394E-07        -0.23050E-19         0.00000E+00
    0.17998E-07        -0.32131E-19         0.00000E+00
    0.17641E-07        -0.48894E-19         0.00000E+00
    0.17322E-07        -0.39348E-19         0.00000E+00
    0.17040E-07        -0.40280E-19         0.00000E+00
    0.16794E-07        -0.45169E-19         0.00000E+00
    0.16584E-07        -0.46333E-19         0.00000E+00
    0.16409E-07        -0.45169E-19         0.00000E+00
    0.16270E-07        -0.24680E-19         0.00000E+00
    0.16165E-07        -0.27474E-19         0.00000E+00
    0.16094E-07        -0.26543E-19         0.00000E+00
    0.16058E-07        -0.17229E-19         0.00000E+00
    0.16056E-07        -0.28405E-19         0.00000E+00
    0.16089E-07        -0.32131E-19         0.00000E+00
    0.16156E-07        -0.59139E-19         0.00000E+00
    0.16257E-07        -0.72643E-19         0.00000E+00
    0.16393E-07        -0.63563E-19         0.00000E+00
    0.16564E-07        -0.50757E-19         0.00000E+00
    0.16770E-07        -0.26310E-19         0.00000E+00
    0.17013E-07        -0.39348E-19         0.00000E+00
    0.17291E-07        -0.20722E-19         0.00000E+00
    0.17606E-07        -0.13504E-19         0.00000E+00
    0.17959E-07        -0.22119E-19         0.00000E+00
    0.18351E-07        -0.13039E-19         0.00000E+00
    0.18781E-07        -0.14668E-19         0.00000E+00
    0.19252E-07        -0.24680E-19         0.00000E+00
    0.19764E-07        -0.18161E-19         0.00000E+00
    0.20317E-07        -0.15832E-19         0.00000E+00
    0.20915E-07        -0.83819E-20         0.00000E+00
    0.21557E-07        -0.74506E-20         0.00000E+00
    0.22244E-07        -0.58208E-20         0.00000E+00
    0.22980E-07        -0.67521E-20         0.00000E+00
    0.23764E-07        -0.12573E-19         0.00000E+00
    0.24599E-07        -0.16298E-20         0.00000E+00
    0.25487E-07         0.60536E-20         0.00000E+00
    0.26429E-07         0.74506E-20         0.00000E+00
    0.27428E-07         0.41910E-20         0.00000E+00
    0.28485E-07         0.27940E-20         0.00000E+00
    0.29602E-07         0.13970E-20         0.00000E+00
    0.30784E-07        -0.74506E-20         0.00000E+00
    0.32030E-07         0.20256E-19         0.00000E+00
    0.33345E-07         0.37253E-19         0.00000E+00
    0.34732E-07         0.23516E-19         0.00000E+00
    0.36192E-07         0.95461E-20         0.00000E+00
    0.37730E-07        -0.23283E-21         0.00000E+00
    0.39348E-07         0.15134E-19         0.00000E+00
    0.41050E-07         0.23516E-19         0.00000E+00
    0.42840E-07         0.17462E-19         0.00000E+00
    0.44721E-07         0.37951E-19         0.00000E+00
    0.46698E-07         0.41910E-19         0.00000E+00
    0.48775E-07         0.17462E-19         0.00000E+00
    0.50955E-07         0.69849E-21         0.00000E+00
    0.53244E-07         0.12107E-19         0.00000E+00
    0.55647E-07         0.21653E-19         0.00000E+00
    0.58169E-07         0.26776E-19         0.00000E+00
    0.60815E-07         0.22585E-19         0.00000E+00
    0.63591E-07         0.15716E-19         0.00000E+00
    0.66502E-07         0.94296E-20         0.00000E+00
    0.69556E-07        -0.44238E-20         0.00000E+00
    0.91678E-07         0.93132E-20         0.00000E+00
    0.87605E-07         0.27241E-19         0.00000E+00
    0.83718E-07         0.19558E-19         0.00000E+00
    0.80010E-07         0.17229E-19         0.00000E+00
    0.76473E-07         0.40978E-19         0.00000E+00
    0.73100E-07         0.46333E-19         0.00000E+00
    0.69882E-07         0.26543E-19         0.00000E+00
    0.66813E-07         0.13970E-19         0.00000E+00
    0.63887E-07         0.35157E-19         0.00000E+00
    0.61098E-07         0.23749E-19         0.00000E+00
    0.58438E-07         0.79162E-20         0.00000E+00
    0.55904E-07         0.51223E-20         0.00000E+00
    0.53489E-07        -0.97789E-20         0.00000E+00
    0.51188E-07         0.46566E-21         0.00000E+00
    0.48996E-07         0.34459E-19         0.00000E+00
    0.46909E-07         0.38650E-19         0.00000E+00
    0.44922E-07         0.34459E-19         0.00000E+00
    0.43031E-07        -0.69849E-21         0.00000E+00
    0.41232E-07         0.11409E-19         0.00000E+00
    0.39521E-07         0.11874E-19         0.00000E+00
    0.37894E-07        -0.39581E-20         0.00000E+00
    0.36348E-07         0.65193E-20         0.00000E+00
    0.34880E-07         0.12573E-19         0.00000E+00
    0.33486E-07        -0.41910E-20         0.00000E+00
    0.32164E-07         0.81491E-20         0.00000E+00
    0.30910E-07         0.31665E-19         0.00000E+00
    0.29722E-07         0.14435E-19         0.00000E+00
    0.28598E-07         0.14668E-19         0.00000E+00
    0.27535E-07         0.22119E-19         0.00000E+00
    0.26530E-07         0.19558E-19         0.00000E+00
    0.25582E-07         0.16531E-19         0.00000E+00
    0.24689E-07         0.13970E-19         0.00000E+00
    0.23849E-07         0.13504E-19         0.00000E+00
    0.23059E-07         0.20023E-19         0.00000E+00
    0.22319E-07         0.12806E-19         0.00000E+00
    0.21626E-07        -0.53551E-20         0.00000E+00
    0.20979E-07        -0.12340E-19         0.00000E+00
    0.20377E-07         0.13970E-20         0.00000E+00
    0.19819E-07         0.90804E-20         0.00000E+00
    0.19303E-07        -0.16531E-19         0.00000E+00
    0.18828E-07        -0.38883E-19         0.00000E+00
    0.18394E-07        -0.42375E-19         0.00000E+00
    0.17998E-07        -0.28405E-19         0.00000E+00
    0.17641E-07        -0.40978E-19         0.00000E+00
    0.17322E-07        -0.64960E-19         0.00000E+00
    0.17040E-07        -0.53085E-19         0.00000E+00
    0.16794E-07        -0.52853E-19         0.00000E+00
    0.16584E-07        -0.47497E-19         0.00000E+00
    0.16409E-07        -0.46566E-19         0.00000E+00
    0.16270E-07        -0.27008E-19         0.00000E+00
    0.16165E-07        -0.19092E-19         0.00000E+00
    0.16094E-07        -0.34692E-19         0.00000E+00
    0.16058E-07        -0.26077E-19         0.00000E+00
    0.16056E-07        -0.20955E-19         0.00000E+00
    0.16089E-07        -0.31199E-19         0.00000E+00
    0.16156E-07        -0.51456E-19         0.00000E+00
    0.16257E-07        -0.61700E-19         0.00000E+00
    0.16393E-07        -0.68452E-19         0.00000E+00
    0.16564E-07        -0.40745E-19         0.00000E+00
    0.16770E-07        -0.23749E-19         0.00000E+00
    0.17013E-07        -0.34692E-19         0.00000E+00
    0.17291E-07        -0.21886E-19         0.00000E+00
    0.17606E-07        -0.37253E-20         0.00000E+00
    0.17959E-07         0.76834E-20         0.00000E+00
    0.18351E-07        -0.13970E-20         0.00000E+00
    0.18781E-07        -0.95461E-20         0.00000E+00
    0.19252E-07        -0.27940E-19         0.00000E+00
    0.19764E-07        -0.26543E-19         0.00000E+00
    0.20317E-07        -0.37253E-20         0.00000E+00
    0.20915E-07         0.46566E-21         0.00000E+00
    0.21557E-07         0.00000E+00         0.00000E+00
    0.22244E-07         0.95461E-20         0.00000E+00
    0.22980E-07         0.19791E-19         0.00000E+00
    0.23764E-07         0.29569E-19         0.00000E+00
    0.24599E-07         0.23283E-20         0.00000E+00
    0.25487E-07         0.00000E+00         0.00000E+00
    0.26429E-07         0.38650E-19         0.00000E+00
    0.27428E-07         0.28871E-19         0.00000E+00
    0.28485E-07         0.11642E-19         0.00000E+00
    0.29602E-07         0.13039E-19         0.00000E+00
    0.30784E-07         0.26776E-19         0.00000E+00
    0.32030E-07         0.10477E-19         0.00000E+00
    0.33345E-07        -0.23283E-20         0.00000E+00
    0.34732E-07         0.14668E-19         0.00000E+00
    0.36192E-07         0.81491E-20         0.00000E+00
    0.37730E-07         0.20955E-20         0.00000E+00
    0.39348E-07         0.17229E-19         0.00000E+00
    0.41050E-07         0.26310E-19         0.00000E+00
    0.42840E-07         0.28405E-19         0.00000E+00
    0.44721E-07         0.36089E-19         0.00000E+00
    0.46698E-07         0.36322E-19         0.00000E+00
    0.48775E-07         0.26310E-19         0.00000E+00
    0.50955E-07         0.32596E-19         0.00000E+00
    0.53244E-07         0.41211E-19         0.00000E+00
    0.55647E-07         0.16764E-19         0.00000E+00
    0.58169E-07         0.15716E-19         0.00000E+00
    0.60815E-07         0.16065E-19         0.00000E+00
    0.63591E-07         0.47730E-20         0.00000E+00
    0.66502E-07         0.14552E-19         0.00000E+00
    0.69556E-07         0.11059E-19         0.00000E+00
    0.91678E-07         0.21420E-19         0.00000E+00
    0.87605E-07         0.37486E-19         0.00000E+00
    0.83718E-07         0.44703E-19         0.00000E+00
    0.80010E-07         0.24214E-19         0.00000E+00
    0.76473E-07         0.42375E-19         0.00000E+00
    0.73100E-07         0.60769E-19         0.00000E+00
    0.69882E-07         0.40745E-19         0.00000E+00
    0.66813E-07         0.37253E-19         0.00000E+00
    0.63887E-07         0.81491E-20         0.00000E+00
    0.61098E-07         0.15832E-19         0.00000E+00
    0.58438E-07         0.28871E-19         0.00000E+00
    0.55904E-07        -0.10245E-19         0.00000E+00
    0.53489E-07        -0.19558E-19         0.00000E+00
    0.51188E-07         0.83819E-20         0.00000E+00
    0.48996E-07         0.35390E-19         0.00000E+00
    0.46909E-07         0.45635E-19         0.00000E+00
    0.44922E-07         0.37253E-19         0.00000E+00
    0.43031E-07         0.15832E-19         0.00000E+00
    0.41232E-07         0.81491E-20         0.00000E+00
    0.39521E-07         0.90804E-20         0.00000E+00
    0.37894E-07         0.76834E-20         0.00000E+00
    0.36348E-07        -0.12340E-19         0.00000E+00
    0.34880E-07        -0.46566E-21         0.00000E+00
    0.33486E-07         0.83819E-20         0.00000E+00
    0.32164E-07        -0.11642E-20         0.00000E+00
    0.30910E-07         0.97789E-20         0.00000E+00
    0.29722E-07        -0.23283E-20         0.00000E+00
    0.28598E-07        -0.37253E-20         0.00000E+00
    0.27535E-07         0.24214E-19         0.00000E+00
    0.26530E-07         0.25146E-19         0.00000E+00
    0.25582E-07         0.15832E-19         0.00000E+00
    0.24689E-07         0.25611E-19         0.00000E+00
    0.23849E-07         0.24680E-19         0.00000E+00
    0.23059E-07         0.95461E-20         0.00000E+00
    0.22319E-07         0.79162E-20         0.00000E+00
    0.21626E-07        -0.20955E-20         0.00000E+00
    0.20979E-07        -0.18394E-19         0.00000E+00
    0.20377E-07        -0.65193E-20         0.00000E+00
    0.19819E-07        -0.12806E-19         0.00000E+00
    0.19303E-07        -0.21653E-19         0.00000E+00
    0.18828E-07        -0.20955E-19         0.00000E+00
    0.18394E-07        -0.26077E-19         0.00000E+00
    0.17998E-07        -0.30268E-19         0.00000E+00
    0.17641E-07        -0.38883E-19         0.00000E+00
    0.17322E-07        -0.50757E-19         0.00000E+00
    0.17040E-07        -0.49127E-19         0.00000E+00
    0.16794E-07        -0.66590E-19         0.00000E+00
    0.16584E-07        -0.44005E-19         0.00000E+00
    0.16409E-07        -0.29337E-19         0.00000E+00
    0.16270E-07        -0.59837E-19         0.00000E+00
    0.16165E-07        -0.39348E-19         0.00000E+00
    0.16094E-07        -0.95461E-20         0.00000E+00
    0.16058E-07        -0.11642E-19         0.00000E+00
    0.16056E-07        -0.12107E-19         0.00000E+00
    0.16089E-07        -0.33993E-19         0.00000E+00
    0.16156E-07        -0.60536E-19         0.00000E+00
    0.16257E-07        -0.57276E-19         0.00000E+00
    0.16393E-07        -0.43772E-19         0.00000E+00
    0.16564E-07        -0.41910E-19         0.00000E+00
    0.16770E-07        -0.40513E-19         0.00000E+00
    0.17013E-07        -0.29569E-19         0.00000E+00
    0.17291E-07        -0.21420E-19         0.00000E+00
    0.17606E-07        -0.10245E-19         0.00000E+00
    0.17959E-07         0.69849E-20         0.00000E+00
    0.18351E-07        -0.23283E-21         0.00000E+00
    0.18781E-07        -0.10245E-19         0.00000E+00
    0.19252E-07        -0.10477E-19         0.00000E+00
    0.19764E-07        -0.10710E-19         0.00000E+00
    0.20317E-07        -0.25611E-20         0.00000E+00
    0.20915E-07        -0.81491E-20         0.00000E+00
    0.21557E-07        -0.41910E-20         0.00000E+00
    0.22244E-07         0.16065E-19         0.00000E+00
    0.22980E-07         0.21188E-19         0.00000E+00
    0.23764E-07         0.27940E-19         0.00000E+00
    0.24599E-07         0.26077E-19         0.00000E+00
    0.25487E-07         0.27707E-19         0.00000E+00
    0.26429E-07         0.16764E-19         0.00000E+00
    0.27428E-07         0.22817E-19         0.00000E+00
    0.28485E-07         0.18161E-19         0.00000E+00
    0.29602E-07         0.16764E-19         0.00000E+00
    0.30784E-07         0.76834E-20         0.00000E+00
    0.32030E-07        -0.15832E-19         0.00000E+00
    0.33345E-07        -0.10477E-19         0.00000E+00
    0.34732E-07        -0.23283E-21         0.00000E+00
    0.36192E-07         0.12573E-19         0.00000E+00
    0.37730E-07         0.72177E-20         0.00000E+00
    0.39348E-07         0.17695E-19         0.00000E+00
    0.41050E-07         0.26310E-19         0.00000E+00
    0.42840E-07         0.32596E-19         0.00000E+00
    0.44721E-07         0.23283E-19         0.00000E+00
    0.46698E-07         0.19092E-19         0.00000E+00
    0.48775E-07         0.33993E-19         0.00000E+00
    0.50955E-07         0.26543E-19         0.00000E+00
    0.53244E-07         0.28056E-19         0.00000E+00
    0.55647E-07         0.37020E-19         0.00000E+00
    0.58169E-07         0.22817E-19         0.00000E+00
    0.60815E-07         0.11874E-19         0.00000E+00
    0.63591E-07         0.18859E-19         0.00000E+00
    0.66502E-07         0.36089E-20         0.00000E+00
    0.69556E-07        -0.27940E-20         0.00000E+00
    0.91678E-07         0.18626E-19         0.00000E+00
    0.87605E-07         0.12340E-19         0.00000E+00
    0.83718E-07         0.20489E-19         0.00000E+00
    0.80010E-07         0.54017E-19         0.00000E+00
    0.76473E-07         0.61002E-19         0.00000E+00
    0.73100E-07         0.60303E-19         0.00000E+00
    0.69882E-07         0.31665E-19         0.00000E+00
    0.66813E-07         0.23749E-19         0.00000E+00
    0.63887E-07         0.25611E-19         0.00000E+00
    0.61098E-07         0.18161E-19         0.00000E+00
    0.58438E-07         0.13970E-20         0.00000E+00
    0.55904E-07        -0.23283E-19         0.00000E+00
    0.53489E-07        -0.46566E-20         0.00000E+00
    0.51188E-07        -0.30268E-20         0.00000E+00
    0.48996E-07         0.11642E-19         0.00000E+00
    0.46909E-07         0.35856E-19         0.00000E+00
    0.44922E-07         0.95461E-20         0.00000E+00
    0.43031E-07        -0.58208E-20         0.00000E+00
    0.41232E-07        -0.53551E-20         0.00000E+00
    0.39521E-07        -0.11642E-20         0.00000E+00
    0.37894E-07        -0.20955E-20         0.00000E+00
    0.36348E-07        -0.90804E-20         0.00000E+00
    0.34880E-07        -0.11874E-19         0.00000E+00
    0.33486E-07        -0.17229E-19         0.00000E+00
    0.32164E-07        -0.21188E-19         0.00000E+00
    0.30910E-07         0.00000E+00         0.00000E+00
    0.29722E-07         0.65193E-20         0.00000E+00
    0.28598E-07        -0.23283E-20         0.00000E+00
    0.27535E-07        -0.67521E-20         0.00000E+00
    0.26530E-07         0.69849E-20         0.00000E+00
    0.25582E-07        -0.25611E-19         0.00000E+00
    0.24689E-07        -0.29802E-19         0.00000E+00
    0.23849E-07         0.26310E-19         0.00000E+00
    0.23059E-07         0.23516E-19         0.00000E+00
    0.22319E-07         0.30268E-20         0.00000E+00
    0.21626E-07         0.10710E-19         0.00000E+00
    0.20979E-07         0.69849E-21         0.00000E+00
    0.20377E-07        -0.13970E-19         0.00000E+00
    0.19819E-07        -0.16298E-19         0.00000E+00
    0.19303E-07        -0.90804E-20         0.00000E+00
    0.18828E-07        -0.20489E-19         0.00000E+00
    0.18394E-07        -0.47032E-19         0.00000E+00
    0.17998E-07        -0.50757E-19         0.00000E+00
    0.17641E-07        -0.48662E-19         0.00000E+00
    0.17322E-07        -0.40978E-19         0.00000E+00
    0.17040E-07        -0.34925E-19         0.00000E+00
    0.16794E-07        -0.66357E-19         0.00000E+00
    0.16584E-07        -0.36322E-19         0.00000E+00
    0.16409E-07        -0.12573E-19         0.00000E+00
    0.16270E-07        -0.30966E-19         0.00000E+00
    0.16165E-07        -0.22585E-19         0.00000E+00
    0.16094E-07        -0.16997E-19         0.00000E+00
    0.16058E-07        -0.15832E-19         0.00000E+00
    0.16056E-07        -0.11409E-19         0.00000E+00
    0.16089E-07        -0.14901E-19         0.00000E+00
    0.16156E-07        -0.32131E-19         0.00000E+00
    0.16257E-07        -0.46566E-19         0.00000E+00
    0.16393E-07        -0.70315E-19         0.00000E+00
    0.16564E-07        -0.64960E-19         0.00000E+00
    0.16770E-07        -0.24447E-19         0.00000E+00
    0.17013E-07        -0.19791E-19         0.00000E+00
    0.17291E-07        -0.23283E-19         0.00000E+00
    0.17606E-07        -0.37253E-20         0.00000E+00
    0.17959E-07         0.39581E-20         0.00000E+00
    0.18351E-07         0.10943E-19         0.00000E+00
    0.18781E-07        -0.11874E-19         0.00000E+00
    0.19252E-07        -0.19558E-19         0.00000E+00
    0.19764E-07        -0.25611E-20         0.00000E+00
    0.20317E-07         0.16065E-19         0.00000E+00
    0.20915E-07         0.16764E-19         0.00000E+00
    0.21557E-07        -0.14901E-19         0.00000E+00
    0.22244E-07        -0.15134E-19         0.00000E+00
    0.22980E-07        -0.48894E-20         0.00000E+00
    0.23764E-07        -0.46566E-21         0.00000E+00
    0.24599E-07         0.11642E-19         0.00000E+00
    0.25487E-07         0.95461E-20         0.00000E+00
    0.26429E-07         0.44238E-20         0.00000E+00
    0.27428E-07         0.10245E-19         0.00000E+00
    0.28485E-07         0.19558E-19         0.00000E+00
    0.29602E-07         0.19558E-19         0.00000E+00
    0.30784E-07         0.97789E-20         0.00000E+00
    0.32030E-07         0.13737E-19         0.00000E+00
    0.33345E-07         0.13039E-19         0.00000E+00
    0.34732E-07         0.48894E-20         0.00000E+00
    0.36192E-07         0.12107E-19         0.00000E+00
    0.37730E-07         0.16764E-19         0.00000E+00
    0.39348E-07         0.10477E-19         0.00000E+00
    0.41050E-07         0.25611E-19         0.00000E+00
    0.42840E-07         0.20489E-19         0.00000E+00
    0.44721E-07         0.11409E-19         0.00000E+00
    0.46698E-07         0.29104E-19         0.00000E+00
    0.48775E-07         0.38184E-19         0.00000E+00
    0.50955E-07         0.17695E-19         0.00000E+00
    0.53244E-07         0.14901E-19         0.00000E+00
    0.55647E-07         0.11176E-19         0.00000E+00
    0.58169E-07        -0.25611E-20         0.00000E+00
    0.60815E-07         0.79162E-20         0.00000E+00
    0.63591E-07         0.19325E-19         0.00000E+00
    0.66502E-07         0.71013E-20         0.00000E+00
    0.69556E-07        -0.68685E-20         0.00000E+00
    0.91678E-07        -0.32596E-20         0.00000E+00
    0.87605E-07         0.34925E-20         0.00000E+00
    0.83718E-07         0.10245E-19         0.00000E+00
    0.80010E-07         0.40513E-19         0.00000E+00
    0.76473E-07         0.47497E-19         0.00000E+00
    0.73100E-07         0.29569E-19         0.00000E+00
    0.69882E-07         0.60769E-19         0.00000E+00
    0.66813E-07         0.45402E-19         0.00000E+00
    0.63887E-07         0.81956E-19         0.00000E+00
    0.61098E-07         0.54017E-19         0.00000E+00
    0.58438E-07        -0.12107E-19         0.00000E+00
    0.55904E-07        -0.32596E-20         0.00000E+00
    0.53489E-07         0.32596E-20         0.00000E+00
    0.51188E-07         0.60536E-20         0.00000E+00
    0.48996E-07         0.22352E-19         0.00000E+00
    0.46909E-07         0.11176E-19         0.00000E+00
    0.44922E-07         0.16298E-20         0.00000E+00
    0.43031E-07         0.14901E-19         0.00000E+00
    0.41232E-07         0.44238E-20         0.00000E+00
    0.39521E-07         0.22119E-19         0.00000E+00
    0.37894E-07        -0.48894E-20         0.00000E+00
    0.36348E-07        -0.22817E-19         0.00000E+00
    0.34880E-07        -0.30268E-20         0.00000E+00
    0.33486E-07         0.97789E-20         0.00000E+00
    0.32164E-07         0.23283E-19         0.00000E+00
    0.30910E-07         0.14435E-19         0.00000E+00
    0.29722E-07         0.17229E-19         0.00000E+00
    0.28598E-07         0.55879E-20         0.00000E+00
    0.27535E-07        -0.10477E-19         0.00000E+00
    0.26530E-07         0.97789E-20         0.00000E+00
    0.25582E-07         0.32131E-19         0.00000E+00
    0.24689E-07         0.36089E-19         0.00000E+00
    0.23849E-07         0.38417E-19         0.00000E+00
    0.23059E-07         0.23749E-19         0.00000E+00
    0.22319E-07         0.17229E-19         0.00000E+00
    0.21626E-07         0.83819E-20         0.00000E+00
    0.20979E-07         0.86147E-20         0.00000E+00
    0.20377E-07         0.21420E-19         0.00000E+00
    0.19819E-07         0.88476E-20         0.00000E+00
    0.19303E-07        -0.46566E-20         0.00000E+00
    0.18828E-07        -0.26543E-19         0.00000E+00
    0.18394E-07        -0.52154E-19         0.00000E+00
    0.17998E-07        -0.44238E-19         0.00000E+00
    0.17641E-07        -0.43772E-19         0.00000E+00
    0.17322E-07        -0.39581E-19         0.00000E+00
    0.17040E-07        -0.38417E-19         0.00000E+00
    0.16794E-07        -0.38883E-19         0.00000E+00
    0.16584E-07        -0.32363E-19         0.00000E+00
    0.16409E-07        -0.39814E-19         0.00000E+00
    0.16270E-07        -0.54948E-19         0.00000E+00
    0.16165E-07        -0.17695E-19         0.00000E+00
    0.16094E-07         0.11409E-19         0.00000E+00
    0.16058E-07        -0.41910E-20         0.00000E+00
    0.16056E-07        -0.88476E-20         0.00000E+00
    0.16089E-07        -0.26543E-19         0.00000E+00
    0.16156E-07        -0.29337E-19         0.00000E+00
    0.16257E-07        -0.45635E-19         0.00000E+00
    0.16393E-07        -0.64960E-19         0.00000E+00
    0.16564E-07        -0.49127E-19         0.00000E+00
    0.16770E-07        -0.32596E-19         0.00000E+00
    0.17013E-07        -0.24913E-19         0.00000E+00
    0.17291E-07        -0.26776E-19         0.00000E+00
    0.17606E-07        -0.18161E-19         0.00000E+00
    0.17959E-07        -0.51223E-20         0.00000E+00
    0.18351E-07        -0.18626E-20         0.00000E+00
    0.18781E-07        -0.83819E-20         0.00000E+00
    0.19252E-07         0.58208E-20         0.00000E+00
    0.19764E-07         0.15367E-19         0.00000E+00
    0.20317E-07         0.76834E-20         0.00000E+00
    0.20915E-07        -0.69849E-20         0.00000E+00
    0.21557E-07        -0.76834E-20         0.00000E+00
    0.22244E-07        -0.93132E-21         0.00000E+00
    0.22980E-07         0.53551E-20         0.00000E+00
    0.23764E-07         0.16764E-19         0.00000E+00
    0.24599E-07         0.10710E-19         0.00000E+00
    0.25487E-07        -0.53551E-20         0.00000E+00
    0.26429E-07        -0.46566E-21         0.00000E+00
    0.27428E-07         0.10710E-19         0.00000E+00
    0.28485E-07         0.18626E-20         0.00000E+00
    0.29602E-07         0.46566E-20         0.00000E+00
    0.30784E-07         0.53551E-20         0.00000E+00
    0.32030E-07         0.34925E-20         0.00000E+00
    0.33345E-07         0.79162E-20         0.00000E+00
    0.34732E-07         0.16298E-20         0.00000E+00
    0.36192E-07        -0.10477E-19         0.00000E+00
    0.37730E-07         0.51223E-20         0.00000E+00
    0.39348E-07         0.20955E-20         0.00000E+00
    0.41050E-07         0.46566E-20         0.00000E+00
    0.42840E-07         0.15832E-19         0.00000E+00
    0.44721E-07         0.28638E-19         0.00000E+00
    0.46698E-07         0.13271E-19         0.00000E+00
    0.48775E-07        -0.27940E-20         0.00000E+00
    0.50955E-07         0.16065E-19         0.00000E+00
    0.53244E-07         0.17346E-19         0.00000E+00
    0.55647E-07         0.13504E-19         0.00000E+00
    0.58169E-07         0.12573E-19         0.00000E+00
    0.60815E-07         0.20373E-19         0.00000E+00
    0.63591E-07         0.14668E-19         0.00000E+00
    0.66502E-07        -0.73342E-20         0.00000E+00
    0.69556E-07        -0.53551E-20         0.00000E+00
    0.91678E-07         0.10710E-19         0.00000E+00
    0.87605E-07         0.76834E-20         0.00000E+00
    0.83718E-07         0.20955E-20         0.00000E+00
    0.80010E-07         0.22817E-19         0.00000E+00
    0.76473E-07         0.52620E-19         0.00000E+00
    0.73100E-07         0.78231E-19         0.00000E+00
    0.69882E-07         0.67987E-19         0.00000E+00
    0.66813E-07         0.38650E-19         0.00000E+00
    0.63887E-07         0.34226E-19         0.00000E+00
    0.61098E-07         0.27707E-19         0.00000E+00
    0.58438E-07         0.46566E-21         0.00000E+00
    0.55904E-07         0.27940E-20         0.00000E+00
    0.53489E-07         0.32596E-19         0.00000E+00
    0.51188E-07         0.32363E-19         0.00000E+00
    0.48996E-07         0.18161E-19         0.00000E+00
    0.46909E-07         0.13504E-19         0.00000E+00
    0.44922E-07        -0.69849E-21         0.00000E+00
    0.43031E-07        -0.93132E-20         0.00000E+00
    0.41232E-07         0.67521E-20         0.00000E+00
    0.39521E-07         0.34925E-20         0.00000E+00
    0.37894E-07         0.20955E-20         0.00000E+00
    0.36348E-07        -0.27474E-19         0.00000E+00
    0.34880E-07        -0.30734E-19         0.00000E+00
    0.33486E-07         0.10012E-19         0.00000E+00
    0.32164E-07         0.41910E-20         0.00000E+00
    0.30910E-07         0.69849E-21         0.00000E+00
    0.29722E-07         0.23283E-19         0.00000E+00
    0.28598E-07         0.21653E-19         0.00000E+00
    0.27535E-07         0.53551E-20         0.00000E+00
    0.26530E-07         0.48894E-20         0.00000E+00
    0.25582E-07         0.11642E-19         0.00000E+00
    0.24689E-07         0.88476E-20         0.00000E+00
    0.23849E-07         0.69849E-21         0.00000E+00
    0.23059E-07        -0.37253E-20         0.00000E+00
    0.22319E-07        -0.51223E-20         0.00000E+00
    0.21626E-07        -0.46566E-20         0.00000E+00
    0.20979E-07        -0.16298E-20         0.00000E+00
    0.20377E-07        -0.18626E-20         0.00000E+00
    0.19819E-07        -0.90804E-20         0.00000E+00
    0.19303E-07        -0.67521E-20         0.00000E+00
    0.18828E-07        -0.20722E-19         0.00000E+00
    0.18394E-07        -0.37951E-19         0.00000E+00
    0.17998E-07        -0.42841E-19         0.00000E+00
    0.17641E-07        -0.40745E-19         0.00000E+00
    0.17322E-07        -0.42375E-19         0.00000E+00
    0.17040E-07        -0.41211E-19         0.00000E+00
    0.16794E-07        -0.35623E-19         0.00000E+00
    0.16584E-07        -0.41910E-19         0.00000E+00
    0.16409E-07        -0.45169E-19         0.00000E+00
    0.16270E-07        -0.33295E-19         0.00000E+00
    0.16165E-07        -0.22119E-19         0.00000E+00
    0.16094E-07        -0.15600E-19         0.00000E+00
    0.16058E-07        -0.26776E-19         0.00000E+00
    0.16056E-07        -0.24447E-19         0.00000E+00
    0.16089E-07        -0.13504E-19         0.00000E+00
    0.16156E-07        -0.72177E-20         0.00000E+00
    0.16257E-07        -0.37951E-19         0.00000E+00
    0.16393E-07        -0.43772E-19         0.00000E+00
    0.16564E-07        -0.10710E-19         0.00000E+00
    0.16770E-07        -0.27940E-19         0.00000E+00
    0.17013E-07        -0.18859E-19         0.00000E+00
    0.17291E-07        -0.13970E-20         0.00000E+00
    0.17606E-07         0.27940E-20         0.00000E+00
    0.17959E-07        -0.37253E-20         0.00000E+00
    0.18351E-07        -0.41910E-20         0.00000E+00
    0.18781E-07         0.93132E-21         0.00000E+00
    0.19252E-07        -0.34925E-20         0.00000E+00
    0.19764E-07         0.11642E-19         0.00000E+00
    0.20317E-07         0.30268E-20         0.00000E+00
    0.20915E-07        -0.23283E-20         0.00000E+00
    0.21557E-07         0.15134E-19         0.00000E+00
    0.22244E-07         0.10477E-19         0.00000E+00
    0.22980E-07         0.00000E+00         0.00000E+00
    0.23764E-07         0.10245E-19         0.00000E+00
    0.24599E-07         0.18626E-19         0.00000E+00
    0.25487E-07        -0.16298E-20         0.00000E+00
    0.26429E-07        -0.74506E-20         0.00000E+00
    0.27428E-07         0.55879E-20         0.00000E+00
    0.28485E-07        -0.79162E-20         0.00000E+00
    0.29602E-07         0.74506E-20         0.00000E+00
    0.30784E-07        -0.23283E-21         0.00000E+00
    0.32030E-07        -0.28173E-19         0.00000E+00
    0.33345E-07        -0.21653E-19         0.00000E+00
    0.34732E-07        -0.18626E-20         0.00000E+00
    0.36192E-07         0.44238E-20         0.00000E+00
    0.37730E-07        -0.16298E-20         0.00000E+00
    0.39348E-07         0.69849E-20         0.00000E+00
    0.41050E-07         0.26077E-19         0.00000E+00
    0.42840E-07         0.40513E-19         0.00000E+00
    0.44721E-07         0.25844E-19         0.00000E+00
    0.46698E-07         0.76834E-20         0.00000E+00
    0.48775E-07         0.67521E-20         0.00000E+00
    0.50955E-07         0.13039E-19         0.00000E+00
    0.53244E-07         0.30501E-19         0.00000E+00
    0.55647E-07         0.20722E-19         0.00000E+00
    0.58169E-07         0.65193E-20         0.00000E+00
    0.60815E-07         0.79162E-20         0.00000E+00
    0.63591E-07        -0.75670E-20         0.00000E+00
    0.66502E-07        -0.54715E-20         0.00000E+00
    0.69556E-07         0.46566E-20         0.00000E+00
    0.91678E-07         0.12107E-19         0.00000E+00
    0.87605E-07         0.13737E-19         0.00000E+00
    0.83718E-07         0.21420E-19         0.00000E+00
    0.80010E-07         0.39581E-19         0.00000E+00
    0.76473E-07         0.57742E-19         0.00000E+00
    0.73100E-07         0.31898E-19         0.00000E+00
    0.69882E-07         0.44471E-19         0.00000E+00
    0.66813E-07         0.58208E-19         0.00000E+00
    0.63887E-07         0.10477E-19         0.00000E+00
    0.61098E-07        -0.62864E-20         0.00000E+00
    0.58438E-07         0.22817E-19         0.00000E+00
    0.55904E-07         0.12573E-19         0.00000E+00
    0.53489E-07        -0.25611E-20         0.00000E+00
    0.51188E-07         0.15832E-19         0.00000E+00
    0.48996E-07         0.17928E-19         0.00000E+00
    0.46909E-07         0.20023E-19         0.00000E+00
    0.44922E-07         0.74506E-20         0.00000E+00
    0.43031E-07        -0.48894E-20         0.00000E+00
    0.41232E-07         0.37253E-20         0.00000E+00
    0.39521E-07         0.25611E-20         0.00000E+00
    0.37894E-07        -0.16065E-19         0.00000E+00
    0.36348E-07        -0.26077E-19         0.00000E+00
    0.34880E-07        -0.16065E-19         0.00000E+00
    0.33486E-07         0.13504E-19         0.00000E+00
    0.32164E-07         0.17462E-19         0.00000E+00
    0.30910E-07         0.24680E-19         0.00000E+00
    0.29722E-07         0.24214E-19         0.00000E+00
    0.28598E-07        -0.60536E-20         0.00000E+00
    0.27535E-07         0.20955E-20         0.00000E+00
    0.26530E-07         0.13737E-19         0.00000E+00
    0.25582E-07         0.41910E-20         0.00000E+00
    0.24689E-07        -0.37253E-20         0.00000E+00
    0.23849E-07        -0.19092E-19         0.00000E+00
    0.23059E-07        -0.26776E-19         0.00000E+00
    0.22319E-07        -0.13504E-19         0.00000E+00
    0.21626E-07        -0.62864E-20         0.00000E+00
    0.20979E-07        -0.10477E-19         0.00000E+00
    0.20377E-07        -0.14901E-19         0.00000E+00
    0.19819E-07        -0.23050E-19         0.00000E+00
    0.19303E-07        -0.93132E-20         0.00000E+00
    0.18828E-07        -0.36554E-19         0.00000E+00
    0.18394E-07        -0.50524E-19         0.00000E+00
    0.17998E-07        -0.33993E-19         0.00000E+00
    0.17641E-07        -0.47963E-19         0.00000E+00
    0.17322E-07        -0.52853E-19         0.00000E+00
    0.17040E-07        -0.60303E-19         0.00000E+00
    0.16794E-07        -0.34925E-19         0.00000E+00
    0.16584E-07        -0.33528E-19         0.00000E+00
    0.16409E-07        -0.25611E-19         0.00000E+00
    0.16270E-07        -0.86147E-20         0.00000E+00
    0.16165E-07        -0.26543E-19         0.00000E+00
    0.16094E-07        -0.13970E-19         0.00000E+00
    0.16058E-07         0.83819E-20         0.00000E+00
    0.16056E-07        -0.20256E-19         0.00000E+00
    0.16089E-07        -0.29802E-19         0.00000E+00
    0.16156E-07        -0.16065E-19         0.00000E+00
    0.16257E-07        -0.26543E-19         0.00000E+00
    0.16393E-07        -0.16298E-19         0.00000E+00
    0.16564E-07        -0.76834E-20         0.00000E+00
    0.16770E-07        -0.24680E-19         0.00000E+00
    0.17013E-07        -0.10943E-19         0.00000E+00
    0.17291E-07        -0.72177E-20         0.00000E+00
    0.17606E-07        -0.11176E-19         0.00000E+00
    0.17959E-07        -0.46566E-21         0.00000E+00
    0.18351E-07         0.76834E-20         0.00000E+00
    0.18781E-07         0.16764E-19         0.00000E+00
    0.19252E-07         0.11874E-19         0.00000E+00
    0.19764E-07         0.10245E-19         0.00000E+00
    0.20317E-07        -0.37253E-20         0.00000E+00
    0.20915E-07        -0.13039E-19         0.00000E+00
    0.21557E-07         0.18626E-20         0.00000E+00
    0.22244E-07         0.53551E-20         0.00000E+00
    0.22980E-07        -0.67521E-20         0.00000E+00
    0.23764E-07         0.46566E-21         0.00000E+00
    0.24599E-07         0.51223E-20         0.00000E+00
    0.25487E-07        -0.34925E-20         0.00000E+00
    0.26429E-07        -0.69849E-20         0.00000E+00
    0.27428E-07         0.93132E-21         0.00000E+00
    0.28485E-07         0.19558E-19         0.00000E+00
    0.29602E-07         0.21420E-19         0.00000E+00
    0.30784E-07        -0.18626E-20         0.00000E+00
    0.32030E-07         0.44238E-20         0.00000E+00
    0.33345E-07         0.10943E-19         0.00000E+00
    0.34732E-07         0.44238E-20         0.00000E+00
    0.36192E-07        -0.11409E-19         0.00000E+00
    0.37730E-07         0.23283E-21         0.00000E+00
    0.39348E-07         0.72177E-20         0.00000E+00
    0.41050E-07         0.27940E-20         0.00000E+00
    0.42840E-07         0.22585E-19         0.00000E+00
    0.44721E-07         0.20489E-19         0.00000E+00
    0.46698E-07         0.22352E-19         0.00000E+00
    0.48775E-07         0.19791E-19         0.00000E+00
    0.50955E-07        -0.34925E-20         0.00000E+00
    0.53244E-07         0.10477E-20         0.00000E+00
    0.55647E-07         0.20256E-19         0.00000E+00
    0.58169E-07         0.19092E-19         0.00000E+00
    0.60815E-07         0.13039E-19         0.00000E+00
    0.63591E-07         0.12456E-19         0.00000E+00
    0.66502E-07         0.48894E-20         0.00000E+00
    0.69556E-07         0.46566E-20         0.00000E+00
    0.91678E-07        -0.74506E-20         0.00000E+00
    0.87605E-07        -0.15134E-19         0.00000E+00
    0.83718E-07         0.12340E-19         0.00000E+00
    0.80010E-07         0.43306E-19         0.00000E+00
    0.76473E-07         0.41910E-19         0.00000E+00
    0.73100E-07         0.17928E-19         0.00000E+00
    0.69882E-07         0.21653E-19         0.00000E+00
    0.66813E-07         0.45169E-19         0.00000E+00
    0.63887E-07         0.55647E-19         0.00000E+00
    0.61098E-07         0.62166E-19         0.00000E+00
    0.58438E-07         0.41910E-19         0.00000E+00
    0.55904E-07         0.15367E-19         0.00000E+00
    0.53489E-07         0.90804E-20         0.00000E+00
    0.51188E-07         0.22352E-19         0.00000E+00
    0.48996E-07         0.27940E-20         0.00000E+00
    0.46909E-07        -0.53551E-20         0.00000E+00
    0.44922E-07         0.51223E-20         0.00000E+00
    0.43031E-07         0.88476E-20         0.00000E+00
    0.41232E-07         0.18859E-19         0.00000E+00
    0.39521E-07        -0.21188E-19         0.00000E+00
    0.37894E-07        -0.28173E-19         0.00000E+00
    0.36348E-07        -0.37719E-19         0.00000E+00
    0.34880E-07        -0.34692E-19         0.00000E+00
    0.33486E-07        -0.58208E-20         0.00000E+00
    0.32164E-07        -0.46566E-20         0.00000E+00
    0.30910E-07         0.69849E-20         0.00000E+00
    0.29722E-07        -0.13970E-20         0.00000E+00
    0.28598E-07         0.93132E-20         0.00000E+00
    0.27535E-07         0.22352E-19         0.00000E+00
    0.26530E-07         0.30268E-20         0.00000E+00
    0.25582E-07        -0.11874E-19         0.00000E+00
    0.24689E-07        -0.13039E-19         0.00000E+00
    0.23849E-07        -0.39581E-20         0.00000E+00
    0.23059E-07         0.48894E-20         0.00000E+00
    0.22319E-07        -0.19092E-19         0.00000E+00
    0.21626E-07        -0.20722E-19         0.00000E+00
    0.20979E-07        -0.26310E-19         0.00000E+00
    0.20377E-07        -0.29337E-19         0.00000E+00
    0.19819E-07        -0.19325E-19         0.00000E+00
    0.19303E-07        -0.11409E-19         0.00000E+00
    0.18828E-07        -0.27008E-19         0.00000E+00
    0.18394E-07        -0.36089E-19         0.00000E+00
    0.17998E-07        -0.36787E-19         0.00000E+00
    0.17641E-07        -0.45635E-19         0.00000E+00
    0.17322E-07        -0.39116E-19         0.00000E+00
    0.17040E-07        -0.44936E-19         0.00000E+00
    0.16794E-07        -0.28638E-19         0.00000E+00
    0.16584E-07        -0.33993E-19         0.00000E+00
    0.16409E-07        -0.42375E-19         0.00000E+00
    0.16270E-07        -0.24913E-19         0.00000E+00
    0.16165E-07        -0.22817E-19         0.00000E+00
    0.16094E-07        -0.17229E-19         0.00000E+00
    0.16058E-07        -0.12107E-19         0.00000E+00
    0.16056E-07        -0.17462E-19         0.00000E+00
    0.16089E-07        -0.21420E-19         0.00000E+00
    0.16156E-07        -0.97789E-20         0.00000E+00
    0.16257E-07        -0.12806E-19         0.00000E+00
    0.16393E-07        -0.65193E-20         0.00000E+00
    0.16564E-07        -0.60536E-20         0.00000E+00
    0.16770E-07        -0.35157E-19         0.00000E+00
    0.17013E-07        -0.86147E-20         0.00000E+00
    0.17291E-07        -0.37253E-20         0.00000E+00
    0.17606E-07        -0.23283E-19         0.00000E+00
    0.17959E-07        -0.11642E-19         0.00000E+00
    0.18351E-07        -0.12806E-19         0.00000E+00
    0.18781E-07         0.60536E-20         0.00000E+00
    0.19252E-07         0.28638E-19         0.00000E+00
    0.19764E-07         0.60536E-20         0.00000E+00
    0.20317E-07        -0.83819E-20         0.00000E+00
    0.20915E-07        -0.55879E-20         0.00000E+00
    0.21557E-07        -0.51223E-20         0.00000E+00
    0.22244E-07         0.15600E-19         0.00000E+00
    0.22980E-07         0.18859E-19         0.00000E+00
    0.23764E-07         0.10245E-19         0.00000E+00
    0.24599E-07         0.22352E-19         0.00000E+00
    0.25487E-07         0.14203E-19         0.00000E+00
    0.26429E-07        -0.65193E-20         0.00000E+00
    0.27428E-07         0.46566E-21         0.00000E+00
    0.28485E-07        -0.37253E-20         0.00000E+00
    0.29602E-07        -0.51223E-20         0.00000E+00
    0.30784E-07         0.13970E-20         0.00000E+00
    0.32030E-07         0.12340E-19         0.00000E+00
    0.33345E-07        -0.93132E-20         0.00000E+00
    0.34732E-07        -0.26776E-19         0.00000E+00
    0.36192E-07        -0.83819E-20         0.00000E+00
    0.37730E-07        -0.18626E-19         0.00000E+00
    0.39348E-07        -0.16298E-19         0.00000E+00
    0.41050E-07         0.32596E-20         0.00000E+00
    0.42840E-07         0.13970E-19         0.00000E+00
    0.44721E-07         0.20023E-19         0.00000E+00
    0.46698E-07         0.26077E-19         0.00000E+00
    0.48775E-07         0.37020E-19         0.00000E+00
    0.50955E-07         0.11176E-19         0.00000E+00
    0.53244E-07        -0.43074E-20         0.00000E+00
    0.55647E-07         0.55879E-20         0.00000E+00
    0.58169E-07         0.93132E-20         0.00000E+00
    0.60815E-07         0.37253E-20         0.00000E+00
    0.63591E-07         0.82655E-20         0.00000E+00
    0.66502E-07         0.11292E-19         0.00000E+00
    0.69556E-07         0.81491E-21         0.00000E+00
    0.91678E-07         0.35856E-19         0.00000E+00
    0.87605E-07         0.37951E-19         0.00000E+00
    0.83718E-07         0.14435E-19         0.00000E+00
    0.80010E-07         0.20955E-19         0.00000E+00
    0.76473E-07         0.29337E-19         0.00000E+00
    0.73100E-07         0.40280E-19         0.00000E+00
    0.69882E-07         0.62399E-19         0.00000E+00
    0.66813E-07         0.41910E-19         0.00000E+00
    0.63887E-07         0.40513E-19         0.00000E+00
    0.61098E-07         0.16997E-19         0.00000E+00
    0.58438E-07        -0.18626E-20         0.00000E+00
    0.55904E-07         0.23283E-20         0.00000E+00
    0.53489E-07        -0.13504E-19         0.00000E+00
    0.51188E-07         0.93132E-20         0.00000E+00
    0.48996E-07         0.23749E-19         0.00000E+00
    0.46909E-07         0.15367E-19         0.00000E+00
    0.44922E-07         0.11642E-19         0.00000E+00
    0.43031E-07        -0.53551E-20         0.00000E+00
    0.41232E-07        -0.18394E-19         0.00000E+00
    0.39521E-07        -0.21653E-19         0.00000E+00
    0.37894E-07        -0.20722E-19         0.00000E+00
    0.36348E-07        -0.13970E-19         0.00000E+00
    0.34880E-07        -0.13039E-19         0.00000E+00
    0.33486E-07        -0.30268E-20         0.00000E+00
    0.32164E-07         0.00000E+00         0.00000E+00
    0.30910E-07         0.16298E-19         0.00000E+00
    0.29722E-07         0.27940E-19         0.00000E+00
    0.28598E-07         0.20955E-19         0.00000E+00
    0.27535E-07         0.22585E-19         0.00000E+00
    0.26530E-07         0.40047E-19         0.00000E+00
    0.25582E-07         0.18859E-19         0.00000E+00
    0.24689E-07        -0.69849E-20         0.00000E+00
    0.23849E-07        -0.15600E-19         0.00000E+00
    0.23059E-07        -0.53551E-20         0.00000E+00
    0.22319E-07         0.11642E-20         0.00000E+00
    0.21626E-07        -0.21653E-19         0.00000E+00
    0.20979E-07        -0.17928E-19         0.00000E+00
    0.20377E-07        -0.22352E-19         0.00000E+00
    0.19819E-07        -0.30734E-19         0.00000E+00
    0.19303E-07        -0.39581E-19         0.00000E+00
    0.18828E-07        -0.29337E-19         0.00000E+00
    0.18394E-07        -0.42375E-19         0.00000E+00
    0.17998E-07        -0.65658E-19         0.00000E+00
    0.17641E-07        -0.42841E-19         0.00000E+00
    0.17322E-07        -0.32829E-19         0.00000E+00
    0.17040E-07        -0.33528E-19         0.00000E+00
    0.16794E-07        -0.43772E-19         0.00000E+00
    0.16584E-07        -0.47497E-19         0.00000E+00
    0.16409E-07        -0.28405E-19         0.00000E+00
    0.16270E-07        -0.17462E-19         0.00000E+00
    0.16165E-07        -0.23516E-19         0.00000E+00
    0.16094E-07        -0.13970E-19         0.00000E+00
    0.16058E-07         0.10477E-19         0.00000E+00
    0.16056E-07        -0.51223E-20         0.00000E+00
    0.16089E-07        -0.34459E-19         0.00000E+00
    0.16156E-07        -0.30035E-19         0.00000E+00
    0.16257E-07        -0.21653E-19         0.00000E+00
    0.16393E-07        -0.20023E-19         0.00000E+00
    0.16564E-07        -0.22817E-19         0.00000E+00
    0.16770E-07        -0.30734E-19         0.00000E+00
    0.17013E-07        -0.25379E-19         0.00000E+00
    0.17291E-07         0.46566E-21         0.00000E+00
    0.17606E-07        -0.18626E-20         0.00000E+00
    0.17959E-07        -0.24447E-19         0.00000E+00
    0.18351E-07         0.11642E-20         0.00000E+00
    0.18781E-07         0.16065E-19         0.00000E+00
    0.19252E-07         0.17462E-19         0.00000E+00
    0.19764E-07         0.13970E-19         0.00000E+00
    0.20317E-07        -0.12573E-19         0.00000E+00
    0.20915E-07        -0.26077E-19         0.00000E+00
    0.21557E-07        -0.83819E-20         0.00000E+00
    0.22244E-07        -0.62864E-20         0.00000E+00
    0.22980E-07         0.25611E-20         0.00000E+00
    0.23764E-07         0.18626E-19         0.00000E+00
    0.24599E-07         0.10245E-19         0.00000E+00
    0.25487E-07        -0.30268E-20         0.00000E+00
    0.26429E-07        -0.79162E-20         0.00000E+00
    0.27428E-07         0.65193E-20         0.00000E+00
    0.28485E-07         0.69849E-21         0.00000E+00
    0.29602E-07        -0.22119E-19         0.00000E+00
    0.30784E-07        -0.13039E-19         0.00000E+00
    0.32030E-07        -0.15134E-19         0.00000E+00
    0.33345E-07        -0.20023E-19         0.00000E+00
    0.34732E-07        -0.19558E-19         0.00000E+00
    0.36192E-07        -0.19092E-19         0.00000E+00
    0.37730E-07        -0.97789E-20         0.00000E+00
    0.39348E-07         0.32596E-20         0.00000E+00
    0.41050E-07         0.27474E-19         0.00000E+00
    0.42840E-07         0.25379E-19         0.00000E+00
    0.44721E-07        -0.23283E-21         0.00000E+00
    0.46698E-07         0.69849E-20         0.00000E+00
    0.48775E-07         0.24680E-19         0.00000E+00
    0.50955E-07         0.21188E-19         0.00000E+00
    0.53244E-07         0.18626E-19         0.00000E+00
    0.55647E-07         0.12689E-19         0.00000E+00
    0.58169E-07         0.81491E-20         0.00000E+00
    0.60815E-07        -0.65193E-20         0.00000E+00
    0.63591E-07        -0.50059E-20         0.00000E+00
    0.66502E-07        -0.87311E-20         0.00000E+00
    0.69556E-07        -0.91968E-20         0.00000E+00
    0.91678E-07         0.74506E-20         0.00000E+00
    0.87605E-07        -0.10012E-19         0.00000E+00
    0.83718E-07        -0.16298E-19         0.00000E+00
    0.80010E-07         0.21420E-19         0.00000E+00
    0.76473E-07         0.37020E-19         0.00000E+00
    0.73100E-07         0.44238E-19         0.00000E+00
    0.69882E-07         0.28405E-19         0.00000E+00
    0.66813E-07         0.44238E-19         0.00000E+00
    0.63887E-07         0.42142E-19         0.00000E+00
    0.61098E-07         0.25611E-19         0.00000E+00
    0.58438E-07         0.40513E-19         0.00000E+00
    0.55904E-07         0.65193E-20         0.00000E+00
    0.53489E-07         0.00000E+00         0.00000E+00
    0.51188E-07         0.25844E-19         0.00000E+00
    0.48996E-07         0.27008E-19         0.00000E+00
    0.46909E-07        -0.67521E-20         0.00000E+00
    0.44922E-07        -0.20256E-19         0.00000E+00
    0.43031E-07        -0.81491E-20         0.00000E+00
    0.41232E-07        -0.19092E-19         0.00000E+00
    0.39521E-07        -0.97789E-20         0.00000E+00
    0.37894E-07        -0.39581E-20         0.00000E+00
    0.36348E-07        -0.30268E-19         0.00000E+00
    0.34880E-07        -0.23283E-19         0.00000E+00
    0.33486E-07        -0.13504E-19         0.00000E+00
    0.32164E-07         0.88476E-20         0.00000E+00
    0.30910E-07        -0.74506E-20         0.00000E+00
    0.29722E-07        -0.46566E-21         0.00000E+00
    0.28598E-07         0.25611E-19         0.00000E+00
    0.27535E-07         0.22585E-19         0.00000E+00
    0.26530E-07         0.24913E-19         0.00000E+00
    0.25582E-07         0.20489E-19         0.00000E+00
    0.24689E-07        -0.69849E-20         0.00000E+00
    0.23849E-07        -0.18859E-19         0.00000E+00
    0.23059E-07        -0.18626E-20         0.00000E+00
    0.22319E-07        -0.53551E-20         0.00000E+00
    0.21626E-07        -0.12340E-19         0.00000E+00
    0.20979E-07        -0.72177E-20         0.00000E+00
    0.20377E-07        -0.97789E-20         0.00000E+00
    0.19819E-07        -0.32596E-20         0.00000E+00
    0.19303E-07        -0.17229E-19         0.00000E+00
    0.18828E-07        -0.11642E-19         0.00000E+00
    0.18394E-07        -0.16065E-19         0.00000E+00
    0.17998E-07        -0.54017E-19         0.00000E+00
    0.17641E-07        -0.29104E-19         0.00000E+00
    0.17322E-07        -0.76834E-20         0.00000E+00
    0.17040E-07        -0.15134E-19         0.00000E+00
    0.16794E-07        -0.37951E-19         0.00000E+00
    0.16584E-07        -0.33993E-19         0.00000E+00
    0.16409E-07        -0.23283E-19         0.00000E+00
    0.16270E-07        -0.20955E-19         0.00000E+00
    0.16165E-07        -0.58208E-20         0.00000E+00
    0.16094E-07        -0.10245E-19         0.00000E+00
    0.16058E-07        -0.30501E-19         0.00000E+00
    0.16056E-07        -0.27940E-19         0.00000E+00
    0.16089E-07        -0.27474E-19         0.00000E+00
    0.16156E-07        -0.15600E-19         0.00000E+00
    0.16257E-07         0.32596E-20         0.00000E+00
    0.16393E-07         0.32596E-20         0.00000E+00
    0.16564E-07        -0.16764E-19         0.00000E+00
    0.16770E-07        -0.19325E-19         0.00000E+00
    0.17013E-07        -0.13504E-19         0.00000E+00
    0.17291E-07        -0.79162E-20         0.00000E+00
    0.17606E-07        -0.11642E-19         0.00000E+00
    0.17959E-07        -0.21653E-19         0.00000E+00
    0.18351E-07        -0.72177E-20         0.00000E+00
    0.18781E-07         0.24680E-19         0.00000E+00
    0.19252E-07         0.31199E-19         0.00000E+00
    0.19764E-07         0.19558E-19         0.00000E+00
    0.20317E-07         0.30268E-20         0.00000E+00
    0.20915E-07        -0.15832E-19         0.00000E+00
    0.21557E-07        -0.20489E-19         0.00000E+00
    0.22244E-07        -0.86147E-20         0.00000E+00
    0.22980E-07        -0.17928E-19         0.00000E+00
    0.23764E-07        -0.46566E-20         0.00000E+00
    0.24599E-07         0.93132E-20         0.00000E+00
    0.25487E-07        -0.67521E-20         0.00000E+00
    0.26429E-07        -0.37253E-20         0.00000E+00
    0.27428E-07         0.13970E-20         0.00000E+00
    0.28485E-07         0.41910E-20         0.00000E+00
    0.29602E-07        -0.11642E-20         0.00000E+00
    0.30784E-07        -0.11176E-19         0.00000E+00
    0.32030E-07        -0.21188E-19         0.00000E+00
    0.33345E-07        -0.15600E-19         0.00000E+00
    0.34732E-07        -0.93132E-20         0.00000E+00
    0.36192E-07        -0.27940E-20         0.00000E+00
    0.37730E-07         0.65193E-20         0.00000E+00
    0.39348E-07         0.24680E-19         0.00000E+00
    0.41050E-07         0.21886E-19         0.00000E+00
    0.42840E-07         0.69849E-20         0.00000E+00
    0.44721E-07        -0.37253E-20         0.00000E+00
    0.46698E-07         0.18161E-19         0.00000E+00
    0.48775E-07         0.19325E-19         0.00000E+00
    0.50955E-07         0.15367E-19         0.00000E+00
    0.53244E-07         0.13271E-19         0.00000E+00
    0.55647E-07         0.50059E-20         0.00000E+00
    0.58169E-07         0.10012E-19         0.00000E+00
    0.60815E-07         0.14203E-19         0.00000E+00
    0.63591E-07         0.75670E-20         0.00000E+00
    0.66502E-07         0.57044E-20         0.00000E+00
    0.69556E-07         0.96625E-20         0.00000E+00
    0.91678E-07        -0.69849E-20         0.00000E+00
    0.87605E-07         0.95461E-20         0.00000E+00
    0.83718E-07         0.14435E-19         0.00000E+00
    0.80010E-07         0.18626E-20         0.00000E+00
    0.76473E-07         0.28871E-19         0.00000E+00
    0.73100E-07         0.57742E-19         0.00000E+00
    0.69882E-07         0.43074E-19         0.00000E+00
    0.66813E-07        -0.13970E-19         0.00000E+00
    0.63887E-07        -0.16065E-19         0.00000E+00
    0.61098E-07         0.18161E-19         0.00000E+00
    0.58438E-07         0.10710E-19         0.00000E+00
    0.55904E-07         0.51223E-20         0.00000E+00
    0.53489E-07         0.11409E-19         0.00000E+00
    0.51188E-07         0.23982E-19         0.00000E+00
    0.48996E-07        -0.93132E-21         0.00000E+00
    0.46909E-07        -0.32596E-20         0.00000E+00
    0.44922E-07         0.16531E-19         0.00000E+00
    0.43031E-07        -0.46566E-21         0.00000E+00
    0.41232E-07        -0.23982E-19         0.00000E+00
    0.39521E-07        -0.62864E-20         0.00000E+00
    0.37894E-07        -0.16298E-20         0.00000E+00
    0.36348E-07        -0.27474E-19         0.00000E+00
    0.34880E-07        -0.21188E-19         0.00000E+00
    0.33486E-07        -0.74506E-20         0.00000E+00
    0.32164E-07         0.93132E-21         0.00000E+00
    0.30910E-07         0.20023E-19         0.00000E+00
    0.29722E-07         0.10710E-19         0.00000E+00
    0.28598E-07         0.25844E-19         0.00000E+00
    0.27535E-07         0.29569E-19         0.00000E+00
    0.26530E-07         0.17462E-19         0.00000E+00
    0.25582E-07         0.22352E-19         0.00000E+00
    0.24689E-07        -0.11642E-19         0.00000E+00
    0.23849E-07        -0.22119E-19         0.00000E+00
    0.23059E-07        -0.13970E-20         0.00000E+00
    0.22319E-07        -0.81491E-20         0.00000E+00
    0.21626E-07        -0.33760E-19         0.00000E+00
    0.20979E-07        -0.37951E-19         0.00000E+00
    0.20377E-07         0.12806E-19         0.00000E+00
    0.19819E-07        -0.23283E-21         0.00000E+00
    0.19303E-07        -0.33295E-19         0.00000E+00
    0.18828E-07         0.93132E-21         0.00000E+00
    0.18394E-07        -0.13970E-19         0.00000E+00
    0.17998E-07        -0.35390E-19         0.00000E+00
    0.17641E-07        -0.31665E-19         0.00000E+00
    0.17322E-07        -0.31199E-19         0.00000E+00
    0.17040E-07        -0.18859E-19         0.00000E+00
    0.16794E-07        -0.17229E-19         0.00000E+00
    0.16584E-07        -0.10245E-19         0.00000E+00
    0.16409E-07        -0.23283E-19         0.00000E+00
    0.16270E-07        -0.30035E-19         0.00000E+00
    0.16165E-07        -0.16298E-20         0.00000E+00
    0.16094E-07        -0.13039E-19         0.00000E+00
    0.16058E-07        -0.27940E-19         0.00000E+00
    0.16056E-07        -0.25611E-19         0.00000E+00
    0.16089E-07        -0.23749E-19         0.00000E+00
    0.16156E-07        -0.31898E-19         0.00000E+00
    0.16257E-07        -0.20023E-19         0.00000E+00
    0.16393E-07         0.13504E-19         0.00000E+00
    0.16564E-07         0.79162E-20         0.00000E+00
    0.16770E-07        -0.32363E-19         0.00000E+00
    0.17013E-07        -0.33760E-19         0.00000E+00
    0.17291E-07        -0.23283E-19         0.00000E+00
    0.17606E-07        -0.46566E-20         0.00000E+00
    0.17959E-07         0.46566E-21         0.00000E+00
    0.18351E-07        -0.83819E-20         0.00000E+00
    0.18781E-07         0.17928E-19         0.00000E+00
    0.19252E-07         0.22585E-19         0.00000E+00
    0.19764E-07         0.23283E-20         0.00000E+00
    0.20317E-07        -0.37253E-20         0.00000E+00
    0.20915E-07        -0.23283E-20         0.00000E+00
    0.21557E-07         0.55879E-20         0.00000E+00
    0.22244E-07        -0.11642E-19         0.00000E+00
    0.22980E-07        -0.69849E-21         0.00000E+00
    0.23764E-07         0.37253E-20         0.00000E+00
    0.24599E-07        -0.86147E-20         0.00000E+00
    0.25487E-07        -0.65193E-20         0.00000E+00
    0.26429E-07        -0.23283E-19         0.00000E+00
    0.27428E-07        -0.88476E-20         0.00000E+00
    0.28485E-07         0.46566E-20         0.00000E+00
    0.29602E-07        -0.88476E-20         0.00000E+00
    0.30784E-07        -0.11642E-20         0.00000E+00
    0.32030E-07         0.30268E-20         0.00000E+00
    0.33345E-07        -0.55879E-20         0.00000E+00
    0.34732E-07        -0.16997E-19         0.00000E+00
    0.36192E-07        -0.51223E-20         0.00000E+00
    0.37730E-07         0.90804E-20         0.00000E+00
    0.39348E-07         0.24214E-19         0.00000E+00
    0.41050E-07         0.30966E-19         0.00000E+00
    0.42840E-07         0.16531E-19         0.00000E+00
    0.44721E-07         0.24680E-19         0.00000E+00
    0.46698E-07         0.15367E-19         0.00000E+00
    0.48775E-07         0.10245E-19         0.00000E+00
    0.50955E-07         0.74506E-20         0.00000E+00
    0.53244E-07         0.11525E-19         0.00000E+00
    0.55647E-07         0.22817E-19         0.00000E+00
    0.58169E-07         0.22119E-19         0.00000E+00
    0.60815E-07         0.37602E-19         0.00000E+00
    0.63591E-07         0.19674E-19         0.00000E+00
    0.66502E-07        -0.60536E-20         0.00000E+00
    0.69556E-07        -0.36089E-20         0.00000E+00
    0.91678E-07        -0.11176E-19         0.00000E+00
    0.87605E-07         0.14203E-19         0.00000E+00
    0.83718E-07         0.51688E-19         0.00000E+00
    0.80010E-07         0.35390E-19         0.00000E+00
    0.76473E-07         0.23749E-19         0.00000E+00
    0.73100E-07         0.24447E-19         0.00000E+00
    0.69882E-07         0.48894E-20         0.00000E+00
    0.66813E-07        -0.23283E-19         0.00000E+00
    0.63887E-07        -0.23516E-19         0.00000E+00
    0.61098E-07        -0.11642E-19         0.00000E+00
    0.58438E-07         0.27940E-20         0.00000E+00
    0.55904E-07         0.32596E-20         0.00000E+00
    0.53489E-07         0.74506E-20         0.00000E+00
    0.51188E-07         0.28405E-19         0.00000E+00
    0.48996E-07         0.25611E-20         0.00000E+00
    0.46909E-07         0.93132E-21         0.00000E+00
    0.44922E-07         0.14203E-19         0.00000E+00
    0.43031E-07        -0.13504E-19         0.00000E+00
    0.41232E-07        -0.44238E-20         0.00000E+00
    0.39521E-07         0.39581E-20         0.00000E+00
    0.37894E-07        -0.18859E-19         0.00000E+00
    0.36348E-07        -0.34925E-20         0.00000E+00
    0.34880E-07        -0.58208E-20         0.00000E+00
    0.33486E-07        -0.60536E-20         0.00000E+00
    0.32164E-07         0.23749E-19         0.00000E+00
    0.30910E-07         0.23749E-19         0.00000E+00
    0.29722E-07         0.23283E-19         0.00000E+00
    0.28598E-07         0.29337E-19         0.00000E+00
    0.27535E-07         0.30734E-19         0.00000E+00
    0.26530E-07         0.20023E-19         0.00000E+00
    0.25582E-07         0.15600E-19         0.00000E+00
    0.24689E-07         0.18161E-19         0.00000E+00
    0.23849E-07         0.11642E-20         0.00000E+00
    0.23059E-07        -0.69849E-21         0.00000E+00
    0.22319E-07        -0.27940E-19         0.00000E+00
    0.21626E-07        -0.41677E-19         0.00000E+00
    0.20979E-07        -0.27474E-19         0.00000E+00
    0.20377E-07        -0.23283E-20         0.00000E+00
    0.19819E-07         0.67521E-20         0.00000E+00
    0.19303E-07        -0.34925E-20         0.00000E+00
    0.18828E-07        -0.25379E-19         0.00000E+00
    0.18394E-07        -0.20023E-19         0.00000E+00
    0.17998E-07        -0.23749E-19         0.00000E+00
    0.17641E-07        -0.47963E-19         0.00000E+00
    0.17322E-07        -0.48894E-19         0.00000E+00
    0.17040E-07        -0.39581E-19         0.00000E+00
    0.16794E-07        -0.30501E-19         0.00000E+00
    0.16584E-07        -0.22585E-19         0.00000E+00
    0.16409E-07        -0.60536E-20         0.00000E+00
    0.16270E-07        -0.90804E-20         0.00000E+00
    0.16165E-07        -0.65193E-20         0.00000E+00
    0.16094E-07         0.15367E-19         0.00000E+00
    0.16058E-07        -0.11642E-19         0.00000E+00
    0.16056E-07        -0.35623E-19         0.00000E+00
    0.16089E-07        -0.26077E-19         0.00000E+00
    0.16156E-07        -0.15600E-19         0.00000E+00
    0.16257E-07        -0.88476E-20         0.00000E+00
    0.16393E-07         0.39581E-20         0.00000E+00
    0.16564E-07         0.65193E-20         0.00000E+00
    0.16770E-07        -0.76834E-20         0.00000E+00
    0.17013E-07        -0.34226E-19         0.00000E+00
    0.17291E-07        -0.45635E-19         0.00000E+00
    0.17606E-07        -0.34459E-19         0.00000E+00
    0.17959E-07        -0.67521E-20         0.00000E+00
    0.18351E-07         0.11176E-19         0.00000E+00
    0.18781E-07         0.23283E-20         0.00000E+00
    0.19252E-07        -0.55879E-20         0.00000E+00
    0.19764E-07        -0.44238E-20         0.00000E+00
    0.20317E-07        -0.90804E-20         0.00000E+00
    0.20915E-07        -0.81491E-20         0.00000E+00
    0.21557E-07         0.51223E-20         0.00000E+00
    0.22244E-07        -0.76834E-20         0.00000E+00
    0.22980E-07         0.72177E-20         0.00000E+00
    0.23764E-07         0.22352E-19         0.00000E+00
    0.24599E-07         0.46566E-21         0.00000E+00
    0.25487E-07         0.10245E-19         0.00000E+00
    0.26429E-07         0.00000E+00         0.00000E+00
    0.27428E-07        -0.88476E-20         0.00000E+00
    0.28485E-07         0.16065E-19         0.00000E+00
    0.29602E-07         0.12573E-19         0.00000E+00
    0.30784E-07        -0.30268E-20         0.00000E+00
    0.32030E-07        -0.11409E-19         0.00000E+00
    0.33345E-07        -0.93132E-21         0.00000E+00
    0.34732E-07         0.15367E-19         0.00000E+00
    0.36192E-07         0.13504E-19         0.00000E+00
    0.37730E-07         0.11874E-19         0.00000E+00
    0.39348E-07         0.10710E-19         0.00000E+00
    0.41050E-07         0.10710E-19         0.00000E+00
    0.42840E-07         0.88476E-20         0.00000E+00
    0.44721E-07         0.13504E-19         0.00000E+00
    0.46698E-07        -0.37253E-20         0.00000E+00
    0.48775E-07        -0.20955E-20         0.00000E+00
    0.50955E-07         0.10710E-19         0.00000E+00
    0.53244E-07         0.18510E-19         0.00000E+00
    0.55647E-07         0.12107E-19         0.00000E+00
    0.58169E-07         0.39581E-20         0.00000E+00
    0.60815E-07         0.11176E-19         0.00000E+00
    0.63591E-07         0.20256E-19         0.00000E+00
    0.66502E-07         0.11758E-19         0.00000E+00
    0.69556E-07         0.81491E-21         0.00000E+00
    0.91678E-07         0.60536E-20         0.00000E+00
    0.87605E-07         0.10477E-19         0.00000E+00
    0.83718E-07         0.27474E-19         0.00000E+00
    0.80010E-07         0.20023E-19         0.00000E+00
    0.76473E-07         0.23283E-19         0.00000E+00
    0.73100E-07         0.16531E-19         0.00000E+00
    0.69882E-07        -0.90804E-20         0.00000E+00
    0.66813E-07        -0.39581E-20         0.00000E+00
    0.63887E-07        -0.13504E-19         0.00000E+00
    0.61098E-07        -0.40513E-19         0.00000E+00
    0.58438E-07        -0.24214E-19         0.00000E+00
    0.55904E-07         0.65193E-20         0.00000E+00
    0.53489E-07         0.30268E-19         0.00000E+00
    0.51188E-07         0.18626E-19         0.00000E+00
    0.48996E-07         0.76834E-20         0.00000E+00
    0.46909E-07         0.51223E-20         0.00000E+00
    0.44922E-07        -0.13504E-19         0.00000E+00
    0.43031E-07        -0.22352E-19         0.00000E+00
    0.41232E-07        -0.20955E-20         0.00000E+00
    0.39521E-07        -0.10012E-19         0.00000E+00
    0.37894E-07         0.41910E-20         0.00000E+00
    0.36348E-07         0.15367E-19         0.00000E+00
    0.34880E-07        -0.62864E-20         0.00000E+00
    0.33486E-07        -0.13504E-19         0.00000E+00
    0.32164E-07        -0.34925E-20         0.00000E+00
    0.30910E-07         0.62864E-20         0.00000E+00
    0.29722E-07         0.51223E-20         0.00000E+00
    0.28598E-07         0.16531E-19         0.00000E+00
    0.27535E-07         0.25146E-19         0.00000E+00
    0.26530E-07        -0.41910E-20         0.00000E+00
    0.25582E-07        -0.18161E-19         0.00000E+00
    0.24689E-07         0.46566E-20         0.00000E+00
    0.23849E-07         0.25611E-20         0.00000E+00
    0.23059E-07        -0.97789E-20         0.00000E+00
    0.22319E-07        -0.41444E-19         0.00000E+00
    0.21626E-07        -0.31199E-19         0.00000E+00
    0.20979E-07         0.48894E-20         0.00000E+00
    0.20377E-07        -0.18161E-19         0.00000E+00
    0.19819E-07        -0.28173E-19         0.00000E+00
    0.19303E-07        -0.15134E-19         0.00000E+00
    0.18828E-07        -0.14203E-19         0.00000E+00
    0.18394E-07        -0.21653E-19         0.00000E+00
    0.17998E-07        -0.26077E-19         0.00000E+00
    0.17641E-07        -0.42841E-19         0.00000E+00
    0.17322E-07        -0.41677E-19         0.00000E+00
    0.17040E-07        -0.16065E-19         0.00000E+00
    0.16794E-07        -0.10245E-19         0.00000E+00
    0.16584E-07        -0.15134E-19         0.00000E+00
    0.16409E-07        -0.18161E-19         0.00000E+00
    0.16270E-07        -0.14435E-19         0.00000E+00
    0.16165E-07        -0.14203E-19         0.00000E+00
    0.16094E-07        -0.74506E-20         0.00000E+00
    0.16058E-07        -0.74506E-20         0.00000E+00
    0.16056E-07        -0.33528E-19         0.00000E+00
    0.16089E-07        -0.39581E-19         0.00000E+00
    0.16156E-07        -0.26543E-19         0.00000E+00
    0.16257E-07        -0.27940E-20         0.00000E+00
    0.16393E-07        -0.65193E-20         0.00000E+00
    0.16564E-07        -0.30966E-19         0.00000E+00
    0.16770E-07         0.20955E-20         0.00000E+00
    0.17013E-07        -0.31898E-19         0.00000E+00
    0.17291E-07        -0.44238E-19         0.00000E+00
    0.17606E-07        -0.19558E-19         0.00000E+00
    0.17959E-07        -0.69849E-20         0.00000E+00
    0.18351E-07        -0.17229E-19         0.00000E+00
    0.18781E-07        -0.24680E-19         0.00000E+00
    0.19252E-07        -0.69849E-21         0.00000E+00
    0.19764E-07        -0.69849E-21         0.00000E+00
    0.20317E-07        -0.53551E-20         0.00000E+00
    0.20915E-07        -0.41910E-20         0.00000E+00
    0.21557E-07        -0.25611E-19         0.00000E+00
    0.22244E-07        -0.23749E-19         0.00000E+00
    0.22980E-07        -0.22119E-19         0.00000E+00
    0.23764E-07        -0.79162E-20         0.00000E+00
    0.24599E-07         0.13504E-19         0.00000E+00
    0.25487E-07         0.17229E-19         0.00000E+00
    0.26429E-07         0.79162E-20         0.00000E+00
    0.27428E-07        -0.13970E-19         0.00000E+00
    0.28485E-07         0.83819E-20         0.00000E+00
    0.29602E-07         0.10245E-19         0.00000E+00
    0.30784E-07         0.69849E-20         0.00000E+00
    0.32030E-07         0.32596E-20         0.00000E+00
    0.33345E-07        -0.37253E-20         0.00000E+00
    0.34732E-07         0.46566E-20         0.00000E+00
    0.36192E-07        -0.10943E-19         0.00000E+00
    0.37730E-07        -0.88476E-20         0.00000E+00
    0.39348E-07         0.37253E-20         0.00000E+00
    0.41050E-07         0.83819E-20         0.00000E+00
    0.42840E-07         0.20722E-19         0.00000E+00
    0.44721E-07         0.19791E-19         0.00000E+00
    0.46698E-07         0.13970E-20         0.00000E+00
    0.48775E-07        -0.16298E-20         0.00000E+00
    0.50955E-07         0.18161E-19         0.00000E+00
    0.53244E-07         0.18394E-19         0.00000E+00
    0.55647E-07        -0.13504E-19         0.00000E+00
    0.58169E-07         0.39581E-20         0.00000E+00
    0.60815E-07         0.32829E-19         0.00000E+00
    0.63591E-07         0.34110E-19         0.00000E+00
    0.66502E-07         0.87311E-20         0.00000E+00
    0.69556E-07        -0.89640E-20         0.00000E+00
    0.91678E-07         0.74506E-20         0.00000E+00
    0.87605E-07         0.18394E-19         0.00000E+00
    0.83718E-07         0.10245E-19         0.00000E+00
    0.80010E-07         0.43539E-19         0.00000E+00
    0.76473E-07         0.30734E-19         0.00000E+00
    0.73100E-07         0.18626E-20         0.00000E+00
    0.69882E-07         0.23283E-20         0.00000E+00
    0.66813E-07         0.16298E-19         0.00000E+00
    0.63887E-07         0.88476E-20         0.00000E+00
    0.61098E-07        -0.20955E-20         0.00000E+00
    0.58438E-07         0.60536E-20         0.00000E+00
    0.55904E-07         0.15832E-19         0.00000E+00
    0.53489E-07         0.32131E-19         0.00000E+00
    0.51188E-07         0.21886E-19         0.00000E+00
    0.48996E-07         0.14901E-19         0.00000E+00
    0.46909E-07        -0.83819E-20         0.00000E+00
    0.44922E-07        -0.13504E-19         0.00000E+00
    0.43031E-07        -0.34925E-20         0.00000E+00
    0.41232E-07         0.13039E-19         0.00000E+00
    0.39521E-07         0.13039E-19         0.00000E+00
    0.37894E-07        -0.30268E-20         0.00000E+00
    0.36348E-07        -0.18626E-20         0.00000E+00
    0.34880E-07        -0.58208E-20         0.00000E+00
    0.33486E-07        -0.16298E-19         0.00000E+00
    0.32164E-07        -0.46566E-20         0.00000E+00
    0.30910E-07         0.55879E-20         0.00000E+00
    0.29722E-07         0.10710E-19         0.00000E+00
    0.28598E-07         0.19092E-19         0.00000E+00
    0.27535E-07        -0.86147E-20         0.00000E+00
    0.26530E-07        -0.11176E-19         0.00000E+00
    0.25582E-07        -0.22817E-19         0.00000E+00
    0.24689E-07        -0.13504E-19         0.00000E+00
    0.23849E-07        -0.88476E-20         0.00000E+00
    0.23059E-07        -0.32363E-19         0.00000E+00
    0.22319E-07        -0.29104E-19         0.00000E+00
    0.21626E-07        -0.15832E-19         0.00000E+00
    0.20979E-07         0.11409E-19         0.00000E+00
    0.20377E-07         0.58208E-20         0.00000E+00
    0.19819E-07        -0.12107E-19         0.00000E+00
    0.19303E-07        -0.46566E-20         0.00000E+00
    0.18828E-07        -0.34925E-20         0.00000E+00
    0.18394E-07        -0.67521E-20         0.00000E+00
    0.17998E-07        -0.13970E-19         0.00000E+00
    0.17641E-07        -0.21188E-19         0.00000E+00
    0.17322E-07        -0.39348E-19         0.00000E+00
    0.17040E-07        -0.31898E-19         0.00000E+00
    0.16794E-07        -0.29104E-19         0.00000E+00
    0.16584E-07        -0.37253E-19         0.00000E+00
    0.16409E-07        -0.95461E-20         0.00000E+00
    0.16270E-07         0.58208E-20         0.00000E+00
    0.16165E-07        -0.20489E-19         0.00000E+00
    0.16094E-07        -0.32596E-19         0.00000E+00
    0.16058E-07        -0.13039E-19         0.00000E+00
    0.16056E-07        -0.15134E-19         0.00000E+00
    0.16089E-07        -0.13504E-19         0.00000E+00
    0.16156E-07        -0.22352E-19         0.00000E+00
    0.16257E-07        -0.13737E-19         0.00000E+00
    0.16393E-07        -0.13970E-19         0.00000E+00
    0.16564E-07        -0.23516E-19         0.00000E+00
    0.16770E-07        -0.16531E-19         0.00000E+00
    0.17013E-07        -0.14668E-19         0.00000E+00
    0.17291E-07        -0.16065E-19         0.00000E+00
    0.17606E-07        -0.33993E-19         0.00000E+00
    0.17959E-07        -0.20722E-19         0.00000E+00
    0.18351E-07        -0.14668E-19         0.00000E+00
    0.18781E-07        -0.20023E-19         0.00000E+00
    0.19252E-07         0.13504E-19         0.00000E+00
    0.19764E-07         0.18161E-19         0.00000E+00
    0.20317E-07        -0.19558E-19         0.00000E+00
    0.20915E-07        -0.69849E-20         0.00000E+00
    0.21557E-07         0.39581E-20         0.00000E+00
    0.22244E-07        -0.12573E-19         0.00000E+00
    0.22980E-07        -0.16298E-19         0.00000E+00
    0.23764E-07        -0.15600E-19         0.00000E+00
    0.24599E-07         0.41910E-20         0.00000E+00
    0.25487E-07         0.15832E-19         0.00000E+00
    0.26429E-07         0.18626E-20         0.00000E+00
    0.27428E-07        -0.17695E-19         0.00000E+00
    0.28485E-07        -0.14901E-19         0.00000E+00
    0.29602E-07        -0.11642E-19         0.00000E+00
    0.30784E-07        -0.13271E-19         0.00000E+00
    0.32030E-07         0.18626E-20         0.00000E+00
    0.33345E-07         0.37253E-20         0.00000E+00
    0.34732E-07         0.93132E-20         0.00000E+00
    0.36192E-07         0.12573E-19         0.00000E+00
    0.37730E-07         0.13271E-19         0.00000E+00
    0.39348E-07        -0.90804E-20         0.00000E+00
    0.41050E-07        -0.69849E-20         0.00000E+00
    0.42840E-07         0.97789E-20         0.00000E+00
    0.44721E-07         0.81491E-20         0.00000E+00
    0.46698E-07        -0.23283E-21         0.00000E+00
    0.48775E-07         0.19791E-19         0.00000E+00
    0.50955E-07         0.38184E-19         0.00000E+00
    0.53244E-07         0.23865E-19         0.00000E+00
    0.55647E-07         0.41910E-20         0.00000E+00
    0.58169E-07        -0.10245E-19         0.00000E+00
    0.60815E-07         0.76834E-20         0.00000E+00
    0.63591E-07         0.22352E-19         0.00000E+00
    0.66502E-07         0.55879E-20         0.00000E+00
    0.69556E-07        -0.12806E-20         0.00000E+00
    0.91678E-07         0.19092E-19         0.00000E+00
    0.87605E-07         0.12107E-19         0.00000E+00
    0.83718E-07         0.55879E-20         0.00000E+00
    0.80010E-07         0.20955E-19         0.00000E+00
    0.76473E-07         0.16298E-19         0.00000E+00
    0.73100E-07         0.11642E-20         0.00000E+00
    0.69882E-07        -0.23283E-21         0.00000E+00
    0.66813E-07        -0.11642E-20         0.00000E+00
    0.63887E-07        -0.41910E-20         0.00000E+00
    0.61098E-07        -0.12806E-19         0.00000E+00
    0.58438E-07        -0.51223E-20         0.00000E+00
    0.55904E-07         0.10012E-19         0.00000E+00
    0.53489E-07         0.19558E-19         0.00000E+00
    0.51188E-07         0.18859E-19         0.00000E+00
    0.48996E-07         0.16764E-19         0.00000E+00
    0.46909E-07         0.90804E-20         0.00000E+00
    0.44922E-07        -0.18626E-20         0.00000E+00
    0.43031E-07        -0.86147E-20         0.00000E+00
    0.41232E-07        -0.25146E-19         0.00000E+00
    0.39521E-07        -0.17462E-19         0.00000E+00
    0.37894E-07        -0.34925E-19         0.00000E+00
    0.36348E-07        -0.33760E-19         0.00000E+00
    0.34880E-07        -0.24214E-19         0.00000E+00
    0.33486E-07        -0.13504E-19         0.00000E+00
    0.32164E-07        -0.18626E-20         0.00000E+00
    0.30910E-07        -0.97789E-20         0.00000E+00
    0.29722E-07         0.46566E-20         0.00000E+00
    0.28598E-07         0.22585E-19         0.00000E+00
    0.27535E-07         0.29104E-19         0.00000E+00
    0.26530E-07        -0.37253E-20         0.00000E+00
    0.25582E-07        -0.28638E-19         0.00000E+00
    0.24689E-07        -0.25146E-19         0.00000E+00
    0.23849E-07        -0.10012E-19         0.00000E+00
    0.23059E-07        -0.31432E-19         0.00000E+00
    0.22319E-07        -0.46566E-19         0.00000E+00
    0.21626E-07        -0.32596E-20         0.00000E+00
    0.20979E-07         0.86147E-20         0.00000E+00
    0.20377E-07        -0.23283E-19         0.00000E+00
    0.19819E-07        -0.24913E-19         0.00000E+00
    0.19303E-07         0.90804E-20         0.00000E+00
    0.18828E-07         0.17695E-19         0.00000E+00
    0.18394E-07         0.65193E-20         0.00000E+00
    0.17998E-07        -0.23283E-20         0.00000E+00
    0.17641E-07        -0.12107E-19         0.00000E+00
    0.17322E-07        -0.27940E-19         0.00000E+00
    0.17040E-07        -0.17462E-19         0.00000E+00
    0.16794E-07        -0.32596E-20         0.00000E+00
    0.16584E-07        -0.10710E-19         0.00000E+00
    0.16409E-07        -0.97789E-20         0.00000E+00
    0.16270E-07        -0.46566E-21         0.00000E+00
    0.16165E-07        -0.35157E-19         0.00000E+00
    0.16094E-07        -0.42841E-19         0.00000E+00
    0.16058E-07        -0.28173E-19         0.00000E+00
    0.16056E-07        -0.83819E-20         0.00000E+00
    0.16089E-07        -0.48894E-20         0.00000E+00
    0.16156E-07        -0.22817E-19         0.00000E+00
    0.16257E-07        -0.17462E-19         0.00000E+00
    0.16393E-07        -0.21653E-19         0.00000E+00
    0.16564E-07        -0.95461E-20         0.00000E+00
    0.16770E-07         0.88476E-20         0.00000E+00
    0.17013E-07        -0.11409E-19         0.00000E+00
    0.17291E-07        -0.15367E-19         0.00000E+00
    0.17606E-07        -0.60536E-20         0.00000E+00
    0.17959E-07        -0.20489E-19         0.00000E+00
    0.18351E-07        -0.33295E-19         0.00000E+00
    0.18781E-07        -0.42841E-19         0.00000E+00
    0.19252E-07        -0.35623E-19         0.00000E+00
    0.19764E-07        -0.16298E-20         0.00000E+00
    0.20317E-07        -0.44238E-20         0.00000E+00
    0.20915E-07        -0.22352E-19         0.00000E+00
    0.21557E-07        -0.14668E-19         0.00000E+00
    0.22244E-07        -0.13039E-19         0.00000E+00
    0.22980E-07        -0.83819E-20         0.00000E+00
    0.23764E-07        -0.55879E-20         0.00000E+00
    0.24599E-07        -0.46566E-20         0.00000E+00
    0.25487E-07        -0.16298E-20         0.00000E+00
    0.26429E-07        -0.74506E-20         0.00000E+00
    0.27428E-07        -0.20955E-20         0.00000E+00
    0.28485E-07        -0.16298E-20         0.00000E+00
    0.29602E-07        -0.41910E-20         0.00000E+00
    0.30784E-07        -0.11409E-19         0.00000E+00
    0.32030E-07         0.39581E-20         0.00000E+00
    0.33345E-07         0.13970E-20         0.00000E+00
    0.34732E-07        -0.93132E-20         0.00000E+00
    0.36192E-07        -0.20955E-19         0.00000E+00
    0.37730E-07        -0.16997E-19         0.00000E+00
    0.39348E-07         0.11176E-19         0.00000E+00
    0.41050E-07         0.65193E-20         0.00000E+00
    0.42840E-07        -0.37253E-20         0.00000E+00
    0.44721E-07         0.12573E-19         0.00000E+00
    0.46698E-07         0.11642E-19         0.00000E+00
    0.48775E-07         0.53551E-20         0.00000E+00
    0.50955E-07         0.10943E-19         0.00000E+00
    0.53244E-07         0.15367E-19         0.00000E+00
    0.55647E-07         0.18510E-19         0.00000E+00
    0.58169E-07         0.68685E-20         0.00000E+00
    0.60815E-07         0.14086E-19         0.00000E+00
    0.63591E-07         0.30268E-20         0.00000E+00
    0.66502E-07         0.22119E-20         0.00000E+00
    0.69556E-07         0.53551E-20         0.00000E+00
    0.91678E-07         0.46566E-20         0.00000E+00
    0.87605E-07         0.27707E-19         0.00000E+00
    0.83718E-07         0.26077E-19         0.00000E+00
    0.80010E-07         0.22352E-19         0.00000E+00
    0.76473E-07         0.12573E-19         0.00000E+00
    0.73100E-07        -0.14203E-19         0.00000E+00
    0.69882E-07        -0.30501E-19         0.00000E+00
    0.66813E-07        -0.34226E-19         0.00000E+00
    0.63887E-07        -0.14668E-19         0.00000E+00
    0.61098E-07        -0.10943E-19         0.00000E+00
    0.58438E-07        -0.10245E-19         0.00000E+00
    0.55904E-07         0.74506E-20         0.00000E+00
    0.53489E-07        -0.62864E-20         0.00000E+00
    0.51188E-07         0.27940E-20         0.00000E+00
    0.48996E-07         0.31665E-19         0.00000E+00
    0.46909E-07         0.69849E-20         0.00000E+00
    0.44922E-07        -0.27940E-20         0.00000E+00
    0.43031E-07        -0.93132E-20         0.00000E+00
    0.41232E-07        -0.17462E-19         0.00000E+00
    0.39521E-07        -0.10012E-19         0.00000E+00
    0.37894E-07        -0.13737E-19         0.00000E+00
    0.36348E-07        -0.16764E-19         0.00000E+00
    0.34880E-07        -0.25611E-20         0.00000E+00
    0.33486E-07        -0.27940E-20         0.00000E+00
    0.32164E-07        -0.14901E-19         0.00000E+00
    0.30910E-07        -0.18161E-19         0.00000E+00
    0.29722E-07        -0.37253E-20         0.00000E+00
    0.28598E-07         0.55879E-20         0.00000E+00
    0.27535E-07        -0.79162E-20         0.00000E+00
    0.26530E-07        -0.21420E-19         0.00000E+00
    0.25582E-07        -0.20023E-19         0.00000E+00
    0.24689E-07         0.17229E-19         0.00000E+00
    0.23849E-07        -0.20955E-20         0.00000E+00
    0.23059E-07        -0.41910E-19         0.00000E+00
    0.22319E-07        -0.23749E-19         0.00000E+00
    0.21626E-07         0.58208E-20         0.00000E+00
    0.20979E-07         0.16065E-19         0.00000E+00
    0.20377E-07         0.79162E-20         0.00000E+00
    0.19819E-07        -0.55879E-20         0.00000E+00
    0.19303E-07         0.16298E-20         0.00000E+00
    0.18828E-07         0.18626E-20         0.00000E+00
    0.18394E-07        -0.10012E-19         0.00000E+00
    0.17998E-07        -0.79162E-20         0.00000E+00
    0.17641E-07        -0.32363E-19         0.00000E+00
    0.17322E-07        -0.24447E-19         0.00000E+00
    0.17040E-07        -0.41910E-20         0.00000E+00
    0.16794E-07         0.95461E-20         0.00000E+00
    0.16584E-07         0.58208E-20         0.00000E+00
    0.16409E-07        -0.23283E-19         0.00000E+00
    0.16270E-07        -0.15134E-19         0.00000E+00
    0.16165E-07        -0.27474E-19         0.00000E+00
    0.16094E-07        -0.41677E-19         0.00000E+00
    0.16058E-07        -0.32131E-19         0.00000E+00
    0.16056E-07        -0.55879E-20         0.00000E+00
    0.16089E-07        -0.19092E-19         0.00000E+00
    0.16156E-07        -0.18161E-19         0.00000E+00
    0.16257E-07        -0.13504E-19         0.00000E+00
    0.16393E-07        -0.23982E-19         0.00000E+00
    0.16564E-07        -0.23982E-19         0.00000E+00
    0.16770E-07        -0.11874E-19         0.00000E+00
    0.17013E-07         0.20955E-20         0.00000E+00
    0.17291E-07        -0.27707E-19         0.00000E+00
    0.17606E-07        -0.40978E-19         0.00000E+00
    0.17959E-07        -0.32131E-19         0.00000E+00
    0.18351E-07        -0.43306E-19         0.00000E+00
    0.18781E-07        -0.27940E-19         0.00000E+00
    0.19252E-07        -0.12340E-19         0.00000E+00
    0.19764E-07        -0.22817E-19         0.00000E+00
    0.20317E-07        -0.10012E-19         0.00000E+00
    0.20915E-07         0.46566E-21         0.00000E+00
    0.21557E-07        -0.36787E-19         0.00000E+00
    0.22244E-07        -0.20023E-19         0.00000E+00
    0.22980E-07         0.76834E-20         0.00000E+00
    0.23764E-07         0.93132E-21         0.00000E+00
    0.24599E-07        -0.83819E-20         0.00000E+00
    0.25487E-07        -0.15600E-19         0.00000E+00
    0.26429E-07        -0.16298E-19         0.00000E+00
    0.27428E-07        -0.11642E-19         0.00000E+00
    0.28485E-07        -0.10710E-19         0.00000E+00
    0.29602E-07        -0.11176E-19         0.00000E+00
    0.30784E-07        -0.13271E-19         0.00000E+00
    0.32030E-07        -0.29104E-19         0.00000E+00
    0.33345E-07        -0.15134E-19         0.00000E+00
    0.34732E-07         0.25611E-20         0.00000E+00
    0.36192E-07        -0.55879E-20         0.00000E+00
    0.37730E-07        -0.13039E-19         0.00000E+00
    0.39348E-07        -0.16065E-19         0.00000E+00
    0.41050E-07        -0.30268E-20         0.00000E+00
    0.42840E-07         0.15134E-19         0.00000E+00
    0.44721E-07         0.19558E-19         0.00000E+00
    0.46698E-07         0.10012E-19         0.00000E+00
    0.48775E-07         0.19558E-19         0.00000E+00
    0.50955E-07         0.18394E-19         0.00000E+00
    0.53244E-07        -0.46566E-21         0.00000E+00
    0.55647E-07        -0.18808E-36         0.00000E+00
    0.58169E-07         0.44238E-20         0.00000E+00
    0.60815E-07         0.16298E-20         0.00000E+00
    0.63591E-07         0.54715E-20         0.00000E+00
    0.66502E-07         0.18743E-19         0.00000E+00
    0.69556E-07         0.12689E-19         0.00000E+00
    0.91678E-07         0.12573E-19         0.00000E+00
    0.87605E-07         0.13039E-19         0.00000E+00
    0.83718E-07         0.18161E-19         0.00000E+00
    0.80010E-07         0.26776E-19         0.00000E+00
    0.76473E-07        -0.88476E-20         0.00000E+00
    0.73100E-07        -0.40280E-19         0.00000E+00
    0.69882E-07        -0.35856E-19         0.00000E+00
    0.66813E-07        -0.11874E-19         0.00000E+00
    0.63887E-07         0.53551E-20         0.00000E+00
    0.61098E-07        -0.37253E-20         0.00000E+00
    0.58438E-07        -0.25146E-19         0.00000E+00
    0.55904E-07        -0.74506E-20         0.00000E+00
    0.53489E-07         0.20023E-19         0.00000E+00
    0.51188E-07         0.69849E-21         0.00000E+00
    0.48996E-07        -0.83819E-20         0.00000E+00
    0.46909E-07         0.15367E-19         0.00000E+00
    0.44922E-07        -0.27940E-20         0.00000E+00
    0.43031E-07         0.37253E-20         0.00000E+00
    0.41232E-07         0.17695E-19         0.00000E+00
    0.39521E-07        -0.34925E-20         0.00000E+00
    0.37894E-07        -0.25844E-19         0.00000E+00
    0.36348E-07        -0.37253E-19         0.00000E+00
    0.34880E-07        -0.25379E-19         0.00000E+00
    0.33486E-07        -0.14668E-19         0.00000E+00
    0.32164E-07        -0.13737E-19         0.00000E+00
    0.30910E-07        -0.17695E-19         0.00000E+00
    0.29722E-07        -0.83819E-20         0.00000E+00
    0.28598E-07        -0.51223E-20         0.00000E+00
    0.27535E-07        -0.12340E-19         0.00000E+00
    0.26530E-07        -0.33528E-19         0.00000E+00
    0.25582E-07        -0.25146E-19         0.00000E+00
    0.24689E-07        -0.55879E-20         0.00000E+00
    0.23849E-07        -0.19325E-19         0.00000E+00
    0.23059E-07        -0.20955E-19         0.00000E+00
    0.22319E-07        -0.88476E-20         0.00000E+00
    0.21626E-07        -0.76834E-20         0.00000E+00
    0.20979E-07        -0.14668E-19         0.00000E+00
    0.20377E-07        -0.69849E-20         0.00000E+00
    0.19819E-07         0.15600E-19         0.00000E+00
    0.19303E-07        -0.14668E-19         0.00000E+00
    0.18828E-07        -0.21420E-19         0.00000E+00
    0.18394E-07        -0.12573E-19         0.00000E+00
    0.17998E-07        -0.31199E-19         0.00000E+00
    0.17641E-07        -0.19092E-19         0.00000E+00
    0.17322E-07         0.20955E-20         0.00000E+00
    0.17040E-07        -0.13039E-19         0.00000E+00
    0.16794E-07        -0.65193E-20         0.00000E+00
    0.16584E-07        -0.16298E-20         0.00000E+00
    0.16409E-07        -0.14901E-19         0.00000E+00
    0.16270E-07        -0.21188E-19         0.00000E+00
    0.16165E-07        -0.95461E-20         0.00000E+00
    0.16094E-07        -0.14203E-19         0.00000E+00
    0.16058E-07        -0.27474E-19         0.00000E+00
    0.16056E-07        -0.20256E-19         0.00000E+00
    0.16089E-07        -0.18859E-19         0.00000E+00
    0.16156E-07         0.17928E-19         0.00000E+00
    0.16257E-07         0.11409E-19         0.00000E+00
    0.16393E-07        -0.23283E-20         0.00000E+00
    0.16564E-07        -0.32596E-20         0.00000E+00
    0.16770E-07        -0.79162E-20         0.00000E+00
    0.17013E-07        -0.46566E-20         0.00000E+00
    0.17291E-07        -0.18394E-19         0.00000E+00
    0.17606E-07        -0.18161E-19         0.00000E+00
    0.17959E-07        -0.12573E-19         0.00000E+00
    0.18351E-07        -0.22119E-19         0.00000E+00
    0.18781E-07        -0.21886E-19         0.00000E+00
    0.19252E-07        -0.86147E-20         0.00000E+00
    0.19764E-07        -0.55879E-20         0.00000E+00
    0.20317E-07        -0.12806E-19         0.00000E+00
    0.20915E-07        -0.19092E-19         0.00000E+00
    0.21557E-07        -0.27474E-19         0.00000E+00
    0.22244E-07        -0.11642E-20         0.00000E+00
    0.22980E-07         0.18626E-20         0.00000E+00
    0.23764E-07        -0.51223E-20         0.00000E+00
    0.24599E-07         0.23283E-21         0.00000E+00
    0.25487E-07        -0.97789E-20         0.00000E+00
    0.26429E-07        -0.55879E-20         0.00000E+00
    0.27428E-07        -0.79162E-20         0.00000E+00
    0.28485E-07        -0.24680E-19         0.00000E+00
    0.29602E-07        -0.76834E-20         0.00000E+00
    0.30784E-07         0.72177E-20         0.00000E+00
    0.32030E-07         0.90804E-20         0.00000E+00
    0.33345E-07         0.79162E-20         0.00000E+00
    0.34732E-07        -0.46566E-21         0.00000E+00
    0.36192E-07         0.69849E-20         0.00000E+00
    0.37730E-07         0.17695E-19         0.00000E+00
    0.39348E-07         0.10477E-19         0.00000E+00
    0.41050E-07         0.41910E-20         0.00000E+00
    0.42840E-07        -0.69849E-21         0.00000E+00
    0.44721E-07        -0.46566E-20         0.00000E+00
    0.46698E-07         0.15367E-19         0.00000E+00
    0.48775E-07        -0.11642E-20         0.00000E+00
    0.50955E-07         0.25611E-20         0.00000E+00
    0.53244E-07         0.24447E-19         0.00000E+00
    0.55647E-07         0.17462E-19         0.00000E+00
    0.58169E-07         0.11642E-21         0.00000E+00
    0.60815E-07         0.60536E-20         0.00000E+00
    0.63591E-07        -0.81491E-21         0.00000E+00
    0.66502E-07         0.33760E-20         0.00000E+00
    0.69556E-07         0.30268E-20         0.00000E+00
    0.91678E-07         0.60536E-20         0.00000E+00
    0.87605E-07         0.40280E-19         0.00000E+00
    0.83718E-07         0.50291E-19         0.00000E+00
    0.80010E-07         0.60536E-20         0.00000E+00
    0.76473E-07         0.69849E-21         0.00000E+00
    0.73100E-07         0.97789E-20         0.00000E+00
    0.69882E-07        -0.27474E-19         0.00000E+00
    0.66813E-07        -0.32596E-19         0.00000E+00
    0.63887E-07         0.14435E-19         0.00000E+00
    0.61098E-07         0.97789E-20         0.00000E+00
    0.58438E-07         0.13970E-20         0.00000E+00
    0.55904E-07        -0.27940E-20         0.00000E+00
    0.53489E-07        -0.15367E-19         0.00000E+00
    0.51188E-07         0.23283E-20         0.00000E+00
    0.48996E-07        -0.23283E-21         0.00000E+00
    0.46909E-07         0.69849E-20         0.00000E+00
    0.44922E-07        -0.18626E-20         0.00000E+00
    0.43031E-07         0.23283E-20         0.00000E+00
    0.41232E-07         0.18161E-19         0.00000E+00
    0.39521E-07         0.00000E+00         0.00000E+00
    0.37894E-07        -0.20256E-19         0.00000E+00
    0.36348E-07        -0.15832E-19         0.00000E+00
    0.34880E-07        -0.14435E-19         0.00000E+00
    0.33486E-07         0.32596E-20         0.00000E+00
    0.32164E-07         0.10477E-19         0.00000E+00
    0.30910E-07        -0.69849E-20         0.00000E+00
    0.29722E-07         0.13970E-20         0.00000E+00
    0.28598E-07         0.25611E-20         0.00000E+00
    0.27535E-07         0.76834E-20         0.00000E+00
    0.26530E-07        -0.23749E-19         0.00000E+00
    0.25582E-07        -0.47963E-19         0.00000E+00
    0.24689E-07        -0.41910E-20         0.00000E+00
    0.23849E-07         0.34925E-20         0.00000E+00
    0.23059E-07        -0.65193E-20         0.00000E+00
    0.22319E-07        -0.15832E-19         0.00000E+00
    0.21626E-07        -0.20955E-19         0.00000E+00
    0.20979E-07        -0.16065E-19         0.00000E+00
    0.20377E-07        -0.97789E-20         0.00000E+00
    0.19819E-07         0.25611E-20         0.00000E+00
    0.19303E-07         0.95461E-20         0.00000E+00
    0.18828E-07         0.13039E-19         0.00000E+00
    0.18394E-07        -0.34925E-20         0.00000E+00
    0.17998E-07        -0.27474E-19         0.00000E+00
    0.17641E-07        -0.12573E-19         0.00000E+00
    0.17322E-07         0.74506E-20         0.00000E+00
    0.17040E-07        -0.19092E-19         0.00000E+00
    0.16794E-07        -0.97789E-20         0.00000E+00
    0.16584E-07         0.15367E-19         0.00000E+00
    0.16409E-07         0.74506E-20         0.00000E+00
    0.16270E-07        -0.14901E-19         0.00000E+00
    0.16165E-07        -0.20489E-19         0.00000E+00
    0.16094E-07        -0.24680E-19         0.00000E+00
    0.16058E-07        -0.17229E-19         0.00000E+00
    0.16056E-07        -0.27940E-20         0.00000E+00
    0.16089E-07        -0.22119E-19         0.00000E+00
    0.16156E-07        -0.15600E-19         0.00000E+00
    0.16257E-07         0.16298E-19         0.00000E+00
    0.16393E-07         0.37253E-20         0.00000E+00
    0.16564E-07         0.93132E-21         0.00000E+00
    0.16770E-07        -0.11642E-20         0.00000E+00
    0.17013E-07        -0.19325E-19         0.00000E+00
    0.17291E-07        -0.18859E-19         0.00000E+00
    0.17606E-07        -0.21420E-19         0.00000E+00
    0.17959E-07        -0.19092E-19         0.00000E+00
    0.18351E-07        -0.16997E-19         0.00000E+00
    0.18781E-07        -0.24913E-19         0.00000E+00
    0.19252E-07        -0.22585E-19         0.00000E+00
    0.19764E-07        -0.30268E-19         0.00000E+00
    0.20317E-07        -0.29104E-19         0.00000E+00
    0.20915E-07        -0.20489E-19         0.00000E+00
    0.21557E-07        -0.20256E-19         0.00000E+00
    0.22244E-07        -0.20722E-19         0.00000E+00
    0.22980E-07        -0.19791E-19         0.00000E+00
    0.23764E-07        -0.46566E-21         0.00000E+00
    0.24599E-07         0.11642E-20         0.00000E+00
    0.25487E-07        -0.15134E-19         0.00000E+00
    0.26429E-07        -0.14901E-19         0.00000E+00
    0.27428E-07        -0.18161E-19         0.00000E+00
    0.28485E-07        -0.39581E-19         0.00000E+00
    0.29602E-07        -0.30966E-19         0.00000E+00
    0.30784E-07        -0.72177E-20         0.00000E+00
    0.32030E-07        -0.11874E-19         0.00000E+00
    0.33345E-07        -0.16531E-19         0.00000E+00
    0.34732E-07        -0.86147E-20         0.00000E+00
    0.36192E-07         0.23283E-21         0.00000E+00
    0.37730E-07        -0.79162E-20         0.00000E+00
    0.39348E-07         0.32596E-20         0.00000E+00
    0.41050E-07        -0.93132E-21         0.00000E+00
    0.42840E-07         0.79162E-20         0.00000E+00
    0.44721E-07         0.62864E-20         0.00000E+00
    0.46698E-07         0.93132E-21         0.00000E+00
    0.48775E-07         0.15367E-19         0.00000E+00
    0.50955E-07         0.28173E-19         0.00000E+00
    0.53244E-07         0.20256E-19         0.00000E+00
    0.55647E-07        -0.27940E-20         0.00000E+00
    0.58169E-07         0.10361E-19         0.00000E+00
    0.60815E-07         0.13504E-19         0.00000E+00
    0.63591E-07         0.71013E-20         0.00000E+00
    0.66502E-07        -0.17462E-20         0.00000E+00
    0.69556E-07        -0.53551E-20         0.00000E+00
    0.91678E-07         0.39581E-19         0.00000E+00
    0.87605E-07         0.47265E-19         0.00000E+00
    0.83718E-07         0.31199E-19         0.00000E+00
    0.80010E-07         0.30268E-19         0.00000E+00
    0.76473E-07         0.36089E-19         0.00000E+00
    0.73100E-07         0.19558E-19         0.00000E+00
    0.69882E-07        -0.23982E-19         0.00000E+00
    0.66813E-07        -0.88476E-20         0.00000E+00
    0.63887E-07         0.15367E-19         0.00000E+00
    0.61098E-07         0.30268E-19         0.00000E+00
    0.58438E-07         0.24214E-19         0.00000E+00
    0.55904E-07         0.69849E-20         0.00000E+00
    0.53489E-07         0.16065E-19         0.00000E+00
    0.51188E-07         0.22119E-19         0.00000E+00
    0.48996E-07         0.69849E-20         0.00000E+00
    0.46909E-07         0.11642E-19         0.00000E+00
    0.44922E-07         0.39581E-20         0.00000E+00
    0.43031E-07        -0.27940E-20         0.00000E+00
    0.41232E-07         0.16298E-20         0.00000E+00
    0.39521E-07         0.69849E-21         0.00000E+00
    0.37894E-07         0.46566E-21         0.00000E+00
    0.36348E-07        -0.31432E-19         0.00000E+00
    0.34880E-07        -0.34925E-19         0.00000E+00
    0.33486E-07        -0.46566E-20         0.00000E+00
    0.32164E-07        -0.97789E-20         0.00000E+00
    0.30910E-07        -0.23749E-19         0.00000E+00
    0.29722E-07        -0.20955E-19         0.00000E+00
    0.28598E-07        -0.18626E-19         0.00000E+00
    0.27535E-07         0.62864E-20         0.00000E+00
    0.26530E-07         0.46566E-20         0.00000E+00
    0.25582E-07        -0.21886E-19         0.00000E+00
    0.24689E-07        -0.36787E-19         0.00000E+00
    0.23849E-07        -0.28173E-19         0.00000E+00
    0.23059E-07        -0.16764E-19         0.00000E+00
    0.22319E-07        -0.41910E-20         0.00000E+00
    0.21626E-07        -0.23283E-21         0.00000E+00
    0.20979E-07         0.34925E-20         0.00000E+00
    0.20377E-07        -0.23283E-20         0.00000E+00
    0.19819E-07         0.20955E-20         0.00000E+00
    0.19303E-07         0.90804E-20         0.00000E+00
    0.18828E-07         0.11642E-20         0.00000E+00
    0.18394E-07        -0.14203E-19         0.00000E+00
    0.17998E-07        -0.22352E-19         0.00000E+00
    0.17641E-07         0.32596E-20         0.00000E+00
    0.17322E-07        -0.67521E-20         0.00000E+00
    0.17040E-07        -0.12340E-19         0.00000E+00
    0.16794E-07         0.16298E-20         0.00000E+00
    0.16584E-07         0.10710E-19         0.00000E+00
    0.16409E-07         0.39581E-20         0.00000E+00
    0.16270E-07        -0.27241E-19         0.00000E+00
    0.16165E-07        -0.27940E-19         0.00000E+00
    0.16094E-07        -0.93132E-21         0.00000E+00
    0.16058E-07        -0.60536E-20         0.00000E+00
    0.16056E-07        -0.15832E-19         0.00000E+00
    0.16089E-07        -0.23283E-20         0.00000E+00
    0.16156E-07         0.44238E-20         0.00000E+00
    0.16257E-07         0.20256E-19         0.00000E+00
    0.16393E-07         0.60536E-20         0.00000E+00
    0.16564E-07        -0.23749E-19         0.00000E+00
    0.16770E-07        -0.12340E-19         0.00000E+00
    0.17013E-07         0.23283E-21         0.00000E+00
    0.17291E-07        -0.15832E-19         0.00000E+00
    0.17606E-07        -0.33993E-19         0.00000E+00
    0.17959E-07        -0.76834E-20         0.00000E+00
    0.18351E-07         0.46566E-21         0.00000E+00
    0.18781E-07        -0.11874E-19         0.00000E+00
    0.19252E-07        -0.12573E-19         0.00000E+00
    0.19764E-07        -0.27474E-19         0.00000E+00
    0.20317E-07        -0.29337E-19         0.00000E+00
    0.20915E-07        -0.19558E-19         0.00000E+00
    0.21557E-07        -0.14435E-19         0.00000E+00
    0.22244E-07        -0.23283E-20         0.00000E+00
    0.22980E-07         0.41910E-20         0.00000E+00
    0.23764E-07         0.00000E+00         0.00000E+00
    0.24599E-07        -0.18626E-20         0.00000E+00
    0.25487E-07        -0.27241E-19         0.00000E+00
    0.26429E-07        -0.10012E-19         0.00000E+00
    0.27428E-07        -0.46566E-20         0.00000E+00
    0.28485E-07        -0.32829E-19         0.00000E+00
    0.29602E-07        -0.11642E-19         0.00000E+00
    0.30784E-07         0.72177E-20         0.00000E+00
    0.32030E-07        -0.58208E-20         0.00000E+00
    0.33345E-07        -0.10710E-19         0.00000E+00
    0.34732E-07        -0.97789E-20         0.00000E+00
    0.36192E-07        -0.13039E-19         0.00000E+00
    0.37730E-07        -0.22119E-19         0.00000E+00
    0.39348E-07        -0.21886E-19         0.00000E+00
    0.41050E-07        -0.14203E-19         0.00000E+00
    0.42840E-07         0.60536E-20         0.00000E+00
    0.44721E-07         0.12806E-19         0.00000E+00
    0.46698E-07        -0.37253E-20         0.00000E+00
    0.48775E-07        -0.88476E-20         0.00000E+00
    0.50955E-07         0.25611E-19         0.00000E+00
    0.53244E-07         0.23050E-19         0.00000E+00
    0.55647E-07         0.53551E-20         0.00000E+00
    0.58169E-07         0.10012E-19         0.00000E+00
    0.60815E-07         0.86147E-20         0.00000E+00
    0.63591E-07         0.86147E-20         0.00000E+00
    0.66502E-07         0.53551E-20         0.00000E+00
    0.69556E-07         0.84983E-20         0.00000E+00
    0.91678E-07         0.15134E-19         0.00000E+00
    0.87605E-07         0.24680E-19         0.00000E+00
    0.83718E-07         0.27940E-20         0.00000E+00
    0.80010E-07        -0.83819E-20         0.00000E+00
    0.76473E-07        -0.14901E-19         0.00000E+00
    0.73100E-07        -0.20256E-19         0.00000E+00
    0.69882E-07        -0.53551E-20         0.00000E+00
    0.66813E-07        -0.20489E-19         0.00000E+00
    0.63887E-07        -0.23982E-19         0.00000E+00
    0.61098E-07        -0.20955E-20         0.00000E+00
    0.58438E-07        -0.12107E-19         0.00000E+00
    0.55904E-07         0.46566E-21         0.00000E+00
    0.53489E-07         0.13970E-19         0.00000E+00
    0.51188E-07         0.97789E-20         0.00000E+00
    0.48996E-07        -0.18808E-36         0.00000E+00
    0.46909E-07        -0.27940E-20         0.00000E+00
    0.44922E-07         0.10477E-19         0.00000E+00
    0.43031E-07         0.93132E-21         0.00000E+00
    0.41232E-07        -0.10245E-19         0.00000E+00
    0.39521E-07         0.86147E-20         0.00000E+00
    0.37894E-07        -0.13737E-19         0.00000E+00
    0.36348E-07        -0.22119E-19         0.00000E+00
    0.34880E-07        -0.23283E-19         0.00000E+00
    0.33486E-07         0.46566E-21         0.00000E+00
    0.32164E-07         0.17229E-19         0.00000E+00
    0.30910E-07         0.51223E-20         0.00000E+00
    0.29722E-07        -0.10710E-19         0.00000E+00
    0.28598E-07        -0.15134E-19         0.00000E+00
    0.27535E-07        -0.20955E-20         0.00000E+00
    0.26530E-07         0.16764E-19         0.00000E+00
    0.25582E-07         0.13504E-19         0.00000E+00
    0.24689E-07        -0.16298E-19         0.00000E+00
    0.23849E-07        -0.19558E-19         0.00000E+00
    0.23059E-07        -0.13970E-19         0.00000E+00
    0.22319E-07        -0.46566E-20         0.00000E+00
    0.21626E-07         0.11874E-19         0.00000E+00
    0.20979E-07        -0.11642E-20         0.00000E+00
    0.20377E-07        -0.24680E-19         0.00000E+00
    0.19819E-07        -0.23283E-20         0.00000E+00
    0.19303E-07         0.00000E+00         0.00000E+00
    0.18828E-07        -0.21653E-19         0.00000E+00
    0.18394E-07        -0.19558E-19         0.00000E+00
    0.17998E-07        -0.83819E-20         0.00000E+00
    0.17641E-07         0.10245E-19         0.00000E+00
    0.17322E-07         0.12107E-19         0.00000E+00
    0.17040E-07         0.10710E-19         0.00000E+00
    0.16794E-07         0.13737E-19         0.00000E+00
    0.16584E-07         0.46566E-20         0.00000E+00
    0.16409E-07        -0.69849E-20         0.00000E+00
    0.16270E-07        -0.20256E-19         0.00000E+00
    0.16165E-07        -0.17928E-19         0.00000E+00
    0.16094E-07         0.69849E-21         0.00000E+00
    0.16058E-07        -0.11642E-19         0.00000E+00
    0.16056E-07        -0.22585E-19         0.00000E+00
    0.16089E-07        -0.81491E-20         0.00000E+00
    0.16156E-07         0.62864E-20         0.00000E+00
    0.16257E-07         0.81491E-20         0.00000E+00
    0.16393E-07         0.16764E-19         0.00000E+00
    0.16564E-07         0.39581E-20         0.00000E+00
    0.16770E-07        -0.16298E-19         0.00000E+00
    0.17013E-07        -0.18626E-20         0.00000E+00
    0.17291E-07        -0.39581E-20         0.00000E+00
    0.17606E-07        -0.16065E-19         0.00000E+00
    0.17959E-07        -0.24447E-19         0.00000E+00
    0.18351E-07        -0.22119E-19         0.00000E+00
    0.18781E-07        -0.13271E-19         0.00000E+00
    0.19252E-07        -0.28871E-19         0.00000E+00
    0.19764E-07        -0.23749E-19         0.00000E+00
    0.20317E-07        -0.30501E-19         0.00000E+00
    0.20915E-07        -0.33760E-19         0.00000E+00
    0.21557E-07        -0.16997E-19         0.00000E+00
    0.22244E-07        -0.48894E-20         0.00000E+00
    0.22980E-07         0.69849E-20         0.00000E+00
    0.23764E-07         0.11874E-19         0.00000E+00
    0.24599E-07         0.62864E-20         0.00000E+00
    0.25487E-07        -0.18626E-19         0.00000E+00
    0.26429E-07         0.11642E-20         0.00000E+00
    0.27428E-07         0.10245E-19         0.00000E+00
    0.28485E-07        -0.12107E-19         0.00000E+00
    0.29602E-07         0.46566E-21         0.00000E+00
    0.30784E-07        -0.69849E-20         0.00000E+00
    0.32030E-07         0.69849E-21         0.00000E+00
    0.33345E-07         0.37253E-20         0.00000E+00
    0.34732E-07        -0.46566E-21         0.00000E+00
    0.36192E-07         0.44238E-20         0.00000E+00
    0.37730E-07        -0.74506E-20         0.00000E+00
    0.39348E-07        -0.12107E-19         0.00000E+00
    0.41050E-07        -0.18626E-20         0.00000E+00
    0.42840E-07         0.12573E-19         0.00000E+00
    0.44721E-07         0.25611E-20         0.00000E+00
    0.46698E-07         0.13504E-19         0.00000E+00
    0.48775E-07         0.30966E-19         0.00000E+00
    0.50955E-07         0.30966E-19         0.00000E+00
    0.53244E-07         0.21304E-19         0.00000E+00
    0.55647E-07         0.15483E-19         0.00000E+00
    0.58169E-07         0.95461E-20         0.00000E+00
    0.60815E-07        -0.30268E-20         0.00000E+00
    0.63591E-07         0.72177E-20         0.00000E+00
    0.66502E-07         0.20838E-19         0.00000E+00
    0.69556E-07         0.58208E-20         0.00000E+00
    0.91678E-07        -0.17695E-19         0.00000E+00
    0.87605E-07        -0.95461E-20         0.00000E+00
    0.83718E-07        -0.14435E-19         0.00000E+00
    0.80010E-07        -0.42375E-19         0.00000E+00
    0.76473E-07        -0.13039E-19         0.00000E+00
    0.73100E-07        -0.12806E-19         0.00000E+00
    0.69882E-07        -0.17462E-19         0.00000E+00
    0.66813E-07        -0.83819E-20         0.00000E+00
    0.63887E-07        -0.16298E-20         0.00000E+00
    0.61098E-07         0.13737E-19         0.00000E+00
    0.58438E-07         0.15832E-19         0.00000E+00
    0.55904E-07         0.76834E-20         0.00000E+00
    0.53489E-07        -0.67521E-20         0.00000E+00
    0.51188E-07         0.27940E-20         0.00000E+00
    0.48996E-07         0.16764E-19         0.00000E+00
    0.46909E-07         0.20256E-19         0.00000E+00
    0.44922E-07         0.19092E-19         0.00000E+00
    0.43031E-07        -0.58208E-20         0.00000E+00
    0.41232E-07        -0.20955E-19         0.00000E+00
    0.39521E-07         0.69849E-21         0.00000E+00
    0.37894E-07         0.34925E-20         0.00000E+00
    0.36348E-07        -0.23283E-21         0.00000E+00
    0.34880E-07        -0.12573E-19         0.00000E+00
    0.33486E-07         0.51223E-20         0.00000E+00
    0.32164E-07         0.22352E-19         0.00000E+00
    0.30910E-07         0.93132E-20         0.00000E+00
    0.29722E-07         0.72177E-20         0.00000E+00
    0.28598E-07         0.32596E-20         0.00000E+00
    0.27535E-07        -0.13504E-19         0.00000E+00
    0.26530E-07         0.20489E-19         0.00000E+00
    0.25582E-07         0.41444E-19         0.00000E+00
    0.24689E-07         0.32596E-20         0.00000E+00
    0.23849E-07        -0.23283E-19         0.00000E+00
    0.23059E-07         0.69849E-21         0.00000E+00
    0.22319E-07         0.20722E-19         0.00000E+00
    0.21626E-07         0.44238E-20         0.00000E+00
    0.20979E-07         0.30268E-20         0.00000E+00
    0.20377E-07        -0.32596E-20         0.00000E+00
    0.19819E-07        -0.30268E-20         0.00000E+00
    0.19303E-07        -0.11874E-19         0.00000E+00
    0.18828E-07        -0.12806E-19         0.00000E+00
    0.18394E-07        -0.23283E-20         0.00000E+00
    0.17998E-07        -0.17695E-19         0.00000E+00
    0.17641E-07        -0.16764E-19         0.00000E+00
    0.17322E-07         0.13970E-20         0.00000E+00
    0.17040E-07         0.88476E-20         0.00000E+00
    0.16794E-07        -0.25611E-20         0.00000E+00
    0.16584E-07        -0.93132E-20         0.00000E+00
    0.16409E-07        -0.26077E-19         0.00000E+00
    0.16270E-07        -0.36089E-19         0.00000E+00
    0.16165E-07        -0.11409E-19         0.00000E+00
    0.16094E-07        -0.10245E-19         0.00000E+00
    0.16058E-07        -0.12573E-19         0.00000E+00
    0.16056E-07        -0.16764E-19         0.00000E+00
    0.16089E-07        -0.27474E-19         0.00000E+00
    0.16156E-07        -0.37253E-20         0.00000E+00
    0.16257E-07         0.18626E-20         0.00000E+00
    0.16393E-07        -0.39581E-20         0.00000E+00
    0.16564E-07        -0.15600E-19         0.00000E+00
    0.16770E-07        -0.29104E-19         0.00000E+00
    0.17013E-07        -0.16298E-20         0.00000E+00
    0.17291E-07        -0.67521E-20         0.00000E+00
    0.17606E-07        -0.65193E-20         0.00000E+00
    0.17959E-07        -0.97789E-20         0.00000E+00
    0.18351E-07        -0.15600E-19         0.00000E+00
    0.18781E-07         0.44238E-20         0.00000E+00
    0.19252E-07        -0.30035E-19         0.00000E+00
    0.19764E-07        -0.15600E-19         0.00000E+00
    0.20317E-07         0.37616E-36         0.00000E+00
    0.20915E-07        -0.22352E-19         0.00000E+00
    0.21557E-07        -0.72177E-20         0.00000E+00
    0.22244E-07         0.67521E-20         0.00000E+00
    0.22980E-07         0.81491E-20         0.00000E+00
    0.23764E-07         0.93132E-20         0.00000E+00
    0.24599E-07        -0.11642E-19         0.00000E+00
    0.25487E-07        -0.14203E-19         0.00000E+00
    0.26429E-07        -0.19558E-19         0.00000E+00
    0.27428E-07        -0.15832E-19         0.00000E+00
    0.28485E-07         0.55879E-20         0.00000E+00
    0.29602E-07        -0.30268E-20         0.00000E+00
    0.30784E-07        -0.34925E-20         0.00000E+00
    0.32030E-07        -0.69849E-21         0.00000E+00
    0.33345E-07         0.81491E-20         0.00000E+00
    0.34732E-07         0.14668E-19         0.00000E+00
    0.36192E-07        -0.23283E-20         0.00000E+00
    0.37730E-07        -0.39581E-20         0.00000E+00
    0.39348E-07        -0.13504E-19         0.00000E+00
    0.41050E-07        -0.93132E-20         0.00000E+00
    0.42840E-07         0.37253E-20         0.00000E+00
    0.44721E-07         0.00000E+00         0.00000E+00
    0.46698E-07         0.55879E-20         0.00000E+00
    0.48775E-07         0.14901E-19         0.00000E+00
    0.50955E-07         0.81491E-20         0.00000E+00
    0.53244E-07         0.81491E-21         0.00000E+00
    0.55647E-07         0.69849E-20         0.00000E+00
    0.58169E-07         0.20955E-20         0.00000E+00
    0.60815E-07         0.41910E-20         0.00000E+00
    0.63591E-07         0.15018E-19         0.00000E+00
    0.66502E-07         0.22701E-19         0.00000E+00
    0.69556E-07         0.50059E-20         0.00000E+00
    0.91678E-07        -0.11176E-19         0.00000E+00
    0.87605E-07         0.33528E-19         0.00000E+00
    0.83718E-07         0.34925E-19         0.00000E+00
    0.80010E-07        -0.14435E-19         0.00000E+00
    0.76473E-07        -0.27474E-19         0.00000E+00
    0.73100E-07        -0.29104E-19         0.00000E+00
    0.69882E-07        -0.11409E-19         0.00000E+00
    0.66813E-07         0.21886E-19         0.00000E+00
    0.63887E-07         0.47265E-19         0.00000E+00
    0.61098E-07        -0.30268E-20         0.00000E+00
    0.58438E-07        -0.69849E-20         0.00000E+00
    0.55904E-07         0.55879E-20         0.00000E+00
    0.53489E-07         0.32596E-20         0.00000E+00
    0.51188E-07         0.55879E-20         0.00000E+00
    0.48996E-07         0.14901E-19         0.00000E+00
    0.46909E-07         0.88476E-20         0.00000E+00
    0.44922E-07         0.25611E-20         0.00000E+00
    0.43031E-07        -0.27940E-20         0.00000E+00
    0.41232E-07        -0.15600E-19         0.00000E+00
    0.39521E-07         0.20722E-19         0.00000E+00
    0.37894E-07         0.10012E-19         0.00000E+00
    0.36348E-07        -0.14203E-19         0.00000E+00
    0.34880E-07        -0.22585E-19         0.00000E+00
    0.33486E-07        -0.22817E-19         0.00000E+00
    0.32164E-07         0.10943E-19         0.00000E+00
    0.30910E-07         0.12573E-19         0.00000E+00
    0.29722E-07        -0.11642E-20         0.00000E+00
    0.28598E-07         0.25611E-20         0.00000E+00
    0.27535E-07        -0.62864E-20         0.00000E+00
    0.26530E-07         0.11642E-20         0.00000E+00
    0.25582E-07         0.12806E-19         0.00000E+00
    0.24689E-07         0.11642E-19         0.00000E+00
    0.23849E-07         0.25611E-20         0.00000E+00
    0.23059E-07         0.46566E-21         0.00000E+00
    0.22319E-07        -0.32596E-20         0.00000E+00
    0.21626E-07        -0.62864E-20         0.00000E+00
    0.20979E-07        -0.24913E-19         0.00000E+00
    0.20377E-07        -0.34692E-19         0.00000E+00
    0.19819E-07        -0.12340E-19         0.00000E+00
    0.19303E-07        -0.10710E-19         0.00000E+00
    0.18828E-07        -0.15600E-19         0.00000E+00
    0.18394E-07        -0.19791E-19         0.00000E+00
    0.17998E-07        -0.20955E-19         0.00000E+00
    0.17641E-07        -0.20955E-19         0.00000E+00
    0.17322E-07        -0.41910E-20         0.00000E+00
    0.17040E-07        -0.10943E-19         0.00000E+00
    0.16794E-07        -0.30035E-19         0.00000E+00
    0.16584E-07        -0.22585E-19         0.00000E+00
    0.16409E-07        -0.34925E-19         0.00000E+00
    0.16270E-07        -0.17229E-19         0.00000E+00
    0.16165E-07         0.86147E-20         0.00000E+00
    0.16094E-07        -0.17695E-19         0.00000E+00
    0.16058E-07        -0.30268E-19         0.00000E+00
    0.16056E-07        -0.20722E-19         0.00000E+00
    0.16089E-07        -0.97789E-20         0.00000E+00
    0.16156E-07        -0.23283E-20         0.00000E+00
    0.16257E-07         0.10245E-19         0.00000E+00
    0.16393E-07        -0.41910E-20         0.00000E+00
    0.16564E-07        -0.13039E-19         0.00000E+00
    0.16770E-07        -0.25844E-19         0.00000E+00
    0.17013E-07        -0.26310E-19         0.00000E+00
    0.17291E-07        -0.16298E-19         0.00000E+00
    0.17606E-07        -0.93132E-21         0.00000E+00
    0.17959E-07         0.51223E-20         0.00000E+00
    0.18351E-07        -0.58208E-20         0.00000E+00
    0.18781E-07         0.27940E-20         0.00000E+00
    0.19252E-07        -0.16764E-19         0.00000E+00
    0.19764E-07        -0.13039E-19         0.00000E+00
    0.20317E-07         0.14203E-19         0.00000E+00
    0.20915E-07        -0.11176E-19         0.00000E+00
    0.21557E-07        -0.25146E-19         0.00000E+00
    0.22244E-07        -0.23982E-19         0.00000E+00
    0.22980E-07         0.23283E-21         0.00000E+00
    0.23764E-07         0.21886E-19         0.00000E+00
    0.24599E-07         0.32596E-20         0.00000E+00
    0.25487E-07        -0.18859E-19         0.00000E+00
    0.26429E-07        -0.21420E-19         0.00000E+00
    0.27428E-07        -0.14901E-19         0.00000E+00
    0.28485E-07        -0.60536E-20         0.00000E+00
    0.29602E-07        -0.20955E-20         0.00000E+00
    0.30784E-07         0.53551E-20         0.00000E+00
    0.32030E-07         0.20722E-19         0.00000E+00
    0.33345E-07         0.13737E-19         0.00000E+00
    0.34732E-07        -0.13271E-19         0.00000E+00
    0.36192E-07        -0.16298E-19         0.00000E+00
    0.37730E-07         0.81491E-20         0.00000E+00
    0.39348E-07         0.34925E-20         0.00000E+00
    0.41050E-07        -0.60536E-20         0.00000E+00
    0.42840E-07         0.25611E-20         0.00000E+00
    0.44721E-07         0.23283E-21         0.00000E+00
    0.46698E-07         0.23283E-21         0.00000E+00
    0.48775E-07         0.44238E-20         0.00000E+00
    0.50955E-07         0.74506E-20         0.00000E+00
    0.53244E-07        -0.87311E-20         0.00000E+00
    0.55647E-07        -0.84983E-20         0.00000E+00
    0.58169E-07         0.17462E-19         0.00000E+00
    0.60815E-07         0.29104E-20         0.00000E+00
    0.63591E-07         0.64028E-20         0.00000E+00
    0.66502E-07         0.19092E-19         0.00000E+00
    0.69556E-07         0.89640E-20         0.00000E+00
    0.91678E-07        -0.74506E-20         0.00000E+00
    0.87605E-07        -0.23982E-19         0.00000E+00
    0.83718E-07        -0.27008E-19         0.00000E+00
    0.80010E-07        -0.29569E-19         0.00000E+00
    0.76473E-07        -0.21188E-19         0.00000E+00
    0.73100E-07        -0.11176E-19         0.00000E+00
    0.69882E-07        -0.27241E-19         0.00000E+00
    0.66813E-07        -0.97789E-20         0.00000E+00
    0.63887E-07         0.14668E-19         0.00000E+00
    0.61098E-07         0.13737E-19         0.00000E+00
    0.58438E-07         0.18161E-19         0.00000E+00
    0.55904E-07         0.93132E-20         0.00000E+00
    0.53489E-07        -0.79162E-20         0.00000E+00
    0.51188E-07        -0.23283E-21         0.00000E+00
    0.48996E-07         0.25611E-20         0.00000E+00
    0.46909E-07        -0.30268E-20         0.00000E+00
    0.44922E-07        -0.23283E-20         0.00000E+00
    0.43031E-07         0.90804E-20         0.00000E+00
    0.41232E-07        -0.65193E-20         0.00000E+00
    0.39521E-07        -0.25146E-19         0.00000E+00
    0.37894E-07        -0.10710E-19         0.00000E+00
    0.36348E-07        -0.58208E-20         0.00000E+00
    0.34880E-07        -0.58208E-20         0.00000E+00
    0.33486E-07         0.44238E-20         0.00000E+00
    0.32164E-07        -0.12107E-19         0.00000E+00
    0.30910E-07        -0.97789E-20         0.00000E+00
    0.29722E-07        -0.97789E-20         0.00000E+00
    0.28598E-07        -0.20256E-19         0.00000E+00
    0.27535E-07        -0.95461E-20         0.00000E+00
    0.26530E-07        -0.17229E-19         0.00000E+00
    0.25582E-07        -0.21653E-19         0.00000E+00
    0.24689E-07        -0.10012E-19         0.00000E+00
    0.23849E-07        -0.18626E-20         0.00000E+00
    0.23059E-07        -0.76834E-20         0.00000E+00
    0.22319E-07        -0.18626E-20         0.00000E+00
    0.21626E-07        -0.13970E-20         0.00000E+00
    0.20979E-07        -0.30035E-19         0.00000E+00
    0.20377E-07        -0.20256E-19         0.00000E+00
    0.19819E-07        -0.76834E-20         0.00000E+00
    0.19303E-07         0.13970E-20         0.00000E+00
    0.18828E-07         0.55879E-20         0.00000E+00
    0.18394E-07        -0.16298E-20         0.00000E+00
    0.17998E-07         0.55879E-20         0.00000E+00
    0.17641E-07         0.18626E-20         0.00000E+00
    0.17322E-07        -0.13737E-19         0.00000E+00
    0.17040E-07        -0.13737E-19         0.00000E+00
    0.16794E-07        -0.69849E-20         0.00000E+00
    0.16584E-07        -0.13970E-19         0.00000E+00
    0.16409E-07        -0.15367E-19         0.00000E+00
    0.16270E-07        -0.39581E-20         0.00000E+00
    0.16165E-07        -0.72177E-20         0.00000E+00
    0.16094E-07        -0.83819E-20         0.00000E+00
    0.16058E-07         0.13970E-20         0.00000E+00
    0.16056E-07        -0.69849E-21         0.00000E+00
    0.16089E-07        -0.12806E-19         0.00000E+00
    0.16156E-07        -0.10012E-19         0.00000E+00
    0.16257E-07        -0.11176E-19         0.00000E+00
    0.16393E-07        -0.15832E-19         0.00000E+00
    0.16564E-07        -0.11409E-19         0.00000E+00
    0.16770E-07         0.25611E-20         0.00000E+00
    0.17013E-07        -0.10477E-19         0.00000E+00
    0.17291E-07        -0.37253E-20         0.00000E+00
    0.17606E-07         0.88476E-20         0.00000E+00
    0.17959E-07         0.39581E-20         0.00000E+00
    0.18351E-07        -0.25611E-20         0.00000E+00
    0.18781E-07         0.30268E-20         0.00000E+00
    0.19252E-07         0.74506E-20         0.00000E+00
    0.19764E-07         0.23283E-21         0.00000E+00
    0.20317E-07         0.51223E-20         0.00000E+00
    0.20915E-07         0.74506E-20         0.00000E+00
    0.21557E-07         0.46566E-20         0.00000E+00
    0.22244E-07         0.11642E-20         0.00000E+00
    0.22980E-07         0.88476E-20         0.00000E+00
    0.23764E-07         0.13039E-19         0.00000E+00
    0.24599E-07        -0.32596E-20         0.00000E+00
    0.25487E-07        -0.20256E-19         0.00000E+00
    0.26429E-07        -0.88476E-20         0.00000E+00
    0.27428E-07         0.55879E-20         0.00000E+00
    0.28485E-07        -0.58208E-20         0.00000E+00
    0.29602E-07        -0.86147E-20         0.00000E+00
    0.30784E-07         0.13970E-20         0.00000E+00
    0.32030E-07         0.55879E-20         0.00000E+00
    0.33345E-07         0.51223E-20         0.00000E+00
    0.34732E-07        -0.11642E-20         0.00000E+00
    0.36192E-07        -0.15600E-19         0.00000E+00
    0.37730E-07        -0.15600E-19         0.00000E+00
    0.39348E-07        -0.46566E-20         0.00000E+00
    0.41050E-07         0.27940E-20         0.00000E+00
    0.42840E-07        -0.46566E-20         0.00000E+00
    0.44721E-07        -0.39581E-20         0.00000E+00
    0.46698E-07        -0.13970E-20         0.00000E+00
    0.48775E-07         0.60536E-20         0.00000E+00
    0.50955E-07        -0.13970E-20         0.00000E+00
    0.53244E-07        -0.10710E-19         0.00000E+00
    0.55647E-07        -0.96625E-20         0.00000E+00
    0.58169E-07        -0.25611E-20         0.00000E+00
    0.60815E-07         0.14203E-19         0.00000E+00
    0.63591E-07         0.58208E-20         0.00000E+00
    0.66502E-07        -0.47730E-20         0.00000E+00
    0.69556E-07        -0.47730E-20         0.00000E+00
POINT_DATA       5151
VECTORS vDarcyNodal double 
    0.91678E-07         0.00000E+00         0.00000E+00
    0.89641E-07         0.00000E+00         0.00000E+00
    0.85661E-07         0.00000E+00         0.00000E+00
    0.81864E-07         0.00000E+00         0.00000E+00
    0.78242E-07         0.00000E+00         0.00000E+00
    0.74786E-07         0.00000E+00         0.00000E+00
    0.71491E-07        -0.74506E-20         0.00000E+00
    0.68347E-07        -0.74506E-20         0.00000E+00
    0.65350E-07         0.74506E-20         0.00000E+00
    0.62492E-07         0.18626E-19         0.00000E+00
    0.59768E-07        -0.37253E-20         0.00000E+00
    0.57171E-07        -0.37253E-20         0.00000E+00
    0.54697E-07        -0.37253E-20         0.00000E+00
    0.52339E-07        -0.18626E-19         0.00000E+00
    0.50092E-07         0.13039E-19         0.00000E+00
    0.47953E-07        -0.18626E-19         0.00000E+00
    0.45916E-07         0.00000E+00         0.00000E+00
    0.43977E-07        -0.11176E-19         0.00000E+00
    0.42132E-07         0.37253E-20         0.00000E+00
    0.40377E-07        -0.14901E-19         0.00000E+00
    0.38708E-07         0.37253E-20         0.00000E+00
    0.37121E-07         0.00000E+00         0.00000E+00
    0.35614E-07        -0.18626E-19         0.00000E+00
    0.34183E-07         0.13039E-19         0.00000E+00
    0.32825E-07        -0.14901E-19         0.00000E+00
    0.31537E-07         0.00000E+00         0.00000E+00
    0.30316E-07        -0.11176E-19         0.00000E+00
    0.29160E-07        -0.18626E-20         0.00000E+00
    0.28066E-07         0.11176E-19         0.00000E+00
    0.27033E-07        -0.18626E-19         0.00000E+00
    0.26056E-07         0.00000E+00         0.00000E+00
    0.25136E-07        -0.74506E-20         0.00000E+00
    0.24269E-07         0.11176E-19         0.00000E+00
    0.23454E-07         0.00000E+00         0.00000E+00
    0.22689E-07        -0.37253E-20         0.00000E+00
    0.21972E-07         0.00000E+00         0.00000E+00
    0.21303E-07         0.18626E-20         0.00000E+00
    0.20678E-07        -0.74506E-20         0.00000E+00
    0.20098E-07         0.00000E+00         0.00000E+00
    0.19561E-07         0.37253E-20         0.00000E+00
    0.19066E-07         0.11176E-19         0.00000E+00
    0.18611E-07        -0.11176E-19         0.00000E+00
    0.18196E-07         0.11176E-19         0.00000E+00
    0.17820E-07        -0.37253E-20         0.00000E+00
    0.17482E-07        -0.37253E-20         0.00000E+00
    0.17181E-07        -0.37253E-20         0.00000E+00
    0.16917E-07        -0.55879E-20         0.00000E+00
    0.16689E-07         0.18626E-19         0.00000E+00
    0.16497E-07        -0.74506E-20         0.00000E+00
    0.16339E-07         0.37253E-20         0.00000E+00
    0.16217E-07         0.37253E-20         0.00000E+00
    0.16129E-07        -0.11176E-19         0.00000E+00
    0.16076E-07         0.37253E-20         0.00000E+00
    0.16057E-07         0.37253E-20         0.00000E+00
    0.16073E-07         0.00000E+00         0.00000E+00
    0.16122E-07         0.00000E+00         0.00000E+00
    0.16206E-07        -0.74506E-20         0.00000E+00
    0.16325E-07        -0.18626E-20         0.00000E+00
    0.16479E-07        -0.37253E-20         0.00000E+00
    0.16667E-07         0.00000E+00         0.00000E+00
    0.16892E-07         0.37253E-20         0.00000E+00
    0.17152E-07        -0.74506E-20         0.00000E+00
    0.17449E-07        -0.74506E-20         0.00000E+00
    0.17783E-07        -0.37253E-20         0.00000E+00
    0.18155E-07        -0.74506E-20         0.00000E+00
    0.18566E-07        -0.37253E-20         0.00000E+00
    0.19017E-07         0.55879E-20         0.00000E+00
    0.19508E-07        -0.37253E-20         0.00000E+00
    0.20040E-07         0.00000E+00         0.00000E+00
    0.20616E-07        -0.18626E-20         0.00000E+00
    0.21236E-07         0.18626E-19         0.00000E+00
    0.21900E-07        -0.11176E-19         0.00000E+00
    0.22612E-07         0.00000E+00         0.00000E+00
    0.23372E-07         0.00000E+00         0.00000E+00
    0.24182E-07        -0.37253E-20         0.00000E+00
    0.25043E-07        -0.11176E-19         0.00000E+00
    0.25958E-07         0.14901E-19         0.00000E+00
    0.26928E-07        -0.37253E-20         0.00000E+00
    0.27956E-07         0.74506E-20         0.00000E+00
    0.29044E-07        -0.55879E-20         0.00000E+00
    0.30193E-07         0.14901E-19         0.00000E+00
    0.31407E-07        -0.18626E-20         0.00000E+00
    0.32688E-07        -0.74506E-20         0.00000E+00
    0.34039E-07         0.55879E-20         0.00000E+00
    0.35462E-07         0.00000E+00         0.00000E+00
    0.36961E-07         0.00000E+00         0.00000E+00
    0.38539E-07        -0.37253E-20         0.00000E+00
    0.40199E-07         0.00000E+00         0.00000E+00
    0.41945E-07        -0.74506E-20         0.00000E+00
    0.43781E-07         0.11176E-19         0.00000E+00
    0.45710E-07         0.74506E-20         0.00000E+00
    0.47736E-07         0.18626E-20         0.00000E+00
    0.49865E-07         0.00000E+00         0.00000E+00
    0.52100E-07        -0.74506E-20         0.00000E+00
    0.54446E-07         0.37253E-20         0.00000E+00
    0.56908E-07         0.74506E-20         0.00000E+00
    0.59492E-07         0.00000E+00         0.00000E+00
    0.62203E-07         0.18626E-20         0.00000E+00
    0.65047E-07        -0.13039E-19         0.00000E+00
    0.68029E-07        -0.37253E-20         0.00000E+00
    0.69556E-07         0.00000E+00         0.00000E+00
    0.91678E-07         0.00000E+00         0.00000E+00
    0.89641E-07         0.37253E-20         0.00000E+00
    0.85661E-07        -0.37253E-20         0.00000E+00
    0.81864E-07        -0.18626E-20         0.00000E+00
    0.78242E-07         0.11176E-19         0.00000E+00
    0.74786E-07         0.93132E-20         0.00000E+00
    0.71491E-07        -0.37253E-20         0.00000E+00
    0.68347E-07         0.21968E-19         0.00000E+00
    0.65350E-07         0.93132E-20         0.00000E+00
    0.62492E-07         0.38661E-20         0.00000E+00
    0.59768E-07        -0.55879E-20         0.00000E+00
    0.57171E-07        -0.37253E-20         0.00000E+00
    0.54697E-07         0.10245E-19         0.00000E+00
    0.52339E-07        -0.11176E-19         0.00000E+00
    0.50092E-07         0.16900E-20         0.00000E+00
    0.47953E-07        -0.14901E-19         0.00000E+00
    0.45916E-07        -0.93132E-20         0.00000E+00
    0.43977E-07        -0.10245E-19         0.00000E+00
    0.42132E-07         0.42178E-21         0.00000E+00
    0.40377E-07        -0.16764E-19         0.00000E+00
    0.38708E-07         0.74506E-20         0.00000E+00
    0.37121E-07        -0.37253E-20         0.00000E+00
    0.35614E-07        -0.93132E-20         0.00000E+00
    0.34183E-07         0.53062E-20         0.00000E+00
    0.32825E-07        -0.16764E-19         0.00000E+00
    0.31537E-07        -0.93132E-21         0.00000E+00
    0.30316E-07        -0.16764E-19         0.00000E+00
    0.29160E-07        -0.59531E-20         0.00000E+00
    0.28066E-07        -0.57419E-20         0.00000E+00
    0.27033E-07        -0.22401E-19         0.00000E+00
    0.26056E-07        -0.46566E-20         0.00000E+00
    0.25136E-07        -0.11176E-19         0.00000E+00
    0.24269E-07         0.18626E-20         0.00000E+00
    0.23454E-07         0.17219E-20         0.00000E+00
    0.22689E-07        -0.11176E-19         0.00000E+00
    0.21972E-07         0.18626E-20         0.00000E+00
    0.21303E-07        -0.96643E-20         0.00000E+00
    0.20678E-07        -0.83819E-20         0.00000E+00
    0.20098E-07         0.00000E+00         0.00000E+00
    0.19561E-07         0.00000E+00         0.00000E+00
    0.19066E-07         0.37253E-20         0.00000E+00
    0.18611E-07        -0.16764E-19         0.00000E+00
    0.18196E-07         0.12107E-19         0.00000E+00
    0.17820E-07        -0.14901E-19         0.00000E+00
    0.17482E-07        -0.74506E-20         0.00000E+00
    0.17181E-07        -0.93132E-20         0.00000E+00
    0.16917E-07        -0.17174E-20         0.00000E+00
    0.16689E-07         0.14877E-19         0.00000E+00
    0.16497E-07        -0.16764E-19         0.00000E+00
    0.16339E-07         0.35123E-20         0.00000E+00
    0.16217E-07        -0.18626E-20         0.00000E+00
    0.16129E-07        -0.11176E-19         0.00000E+00
    0.16076E-07         0.18626E-20         0.00000E+00
    0.16057E-07         0.18626E-20         0.00000E+00
    0.16073E-07        -0.95988E-20         0.00000E+00
    0.16122E-07        -0.18626E-20         0.00000E+00
    0.16206E-07        -0.35541E-20         0.00000E+00
    0.16325E-07         0.69200E-20         0.00000E+00
    0.16479E-07        -0.10876E-19         0.00000E+00
    0.16667E-07        -0.46566E-20         0.00000E+00
    0.16892E-07        -0.37253E-20         0.00000E+00
    0.17152E-07        -0.10245E-19         0.00000E+00
    0.17449E-07        -0.11176E-19         0.00000E+00
    0.17783E-07        -0.74506E-20         0.00000E+00
    0.18155E-07         0.00000E+00         0.00000E+00
    0.18566E-07         0.00000E+00         0.00000E+00
    0.19017E-07        -0.57897E-20         0.00000E+00
    0.19508E-07        -0.74506E-20         0.00000E+00
    0.20040E-07        -0.93132E-21         0.00000E+00
    0.20616E-07        -0.15213E-19         0.00000E+00
    0.21236E-07         0.37483E-20         0.00000E+00
    0.21900E-07        -0.20489E-19         0.00000E+00
    0.22612E-07         0.18626E-20         0.00000E+00
    0.23372E-07        -0.20454E-19         0.00000E+00
    0.24182E-07         0.37253E-20         0.00000E+00
    0.25043E-07        -0.13039E-19         0.00000E+00
    0.25958E-07         0.18626E-20         0.00000E+00
    0.26928E-07        -0.13039E-19         0.00000E+00
    0.27956E-07         0.37253E-20         0.00000E+00
    0.29044E-07        -0.53439E-20         0.00000E+00
    0.30193E-07         0.74506E-20         0.00000E+00
    0.31407E-07        -0.91751E-20         0.00000E+00
    0.32688E-07        -0.22183E-20         0.00000E+00
    0.34039E-07        -0.99490E-22         0.00000E+00
    0.35462E-07        -0.55879E-20         0.00000E+00
    0.36961E-07        -0.83819E-20         0.00000E+00
    0.38539E-07        -0.55879E-20         0.00000E+00
    0.40199E-07         0.00000E+00         0.00000E+00
    0.41945E-07        -0.74506E-20         0.00000E+00
    0.43781E-07         0.11176E-19         0.00000E+00
    0.45710E-07         0.18626E-20         0.00000E+00
    0.47736E-07         0.54356E-20         0.00000E+00
    0.49865E-07        -0.51679E-20         0.00000E+00
    0.52100E-07         0.46566E-20         0.00000E+00
    0.54446E-07        -0.17968E-20         0.00000E+00
    0.56908E-07         0.18626E-20         0.00000E+00
    0.59492E-07        -0.93132E-21         0.00000E+00
    0.62203E-07        -0.33713E-20         0.00000E+00
    0.65047E-07        -0.88921E-20         0.00000E+00
    0.68029E-07        -0.93132E-21         0.00000E+00
    0.69556E-07         0.00000E+00         0.00000E+00
    0.91678E-07         0.00000E+00         0.00000E+00
    0.89641E-07        -0.11176E-19         0.00000E+00
    0.85661E-07         0.37253E-20         0.00000E+00
    0.81864E-07        -0.44216E-20         0.00000E+00
    0.78242E-07         0.27940E-19         0.00000E+00
    0.74786E-07         0.18626E-19         0.00000E+00
    0.71491E-07         0.58447E-20         0.00000E+00
    0.68347E-07         0.39499E-19         0.00000E+00
    0.65350E-07         0.18626E-19         0.00000E+00
    0.62492E-07        -0.13179E-19         0.00000E+00
    0.59768E-07        -0.37253E-20         0.00000E+00
    0.57171E-07        -0.55879E-20         0.00000E+00
    0.54697E-07         0.12853E-19         0.00000E+00
    0.52339E-07         0.37253E-20         0.00000E+00
    0.50092E-07        -0.11935E-19         0.00000E+00
    0.47953E-07        -0.11185E-19         0.00000E+00
    0.45916E-07        -0.16764E-19         0.00000E+00
    0.43977E-07        -0.89633E-20         0.00000E+00
    0.42132E-07        -0.97350E-20         0.00000E+00
    0.40377E-07        -0.93132E-20         0.00000E+00
    0.38708E-07         0.93132E-20         0.00000E+00
    0.37121E-07        -0.37433E-20         0.00000E+00
    0.35614E-07        -0.37253E-20         0.00000E+00
    0.34183E-07        -0.15809E-20         0.00000E+00
    0.32825E-07        -0.13444E-19         0.00000E+00
    0.31537E-07         0.33186E-20         0.00000E+00
    0.30316E-07        -0.20489E-19         0.00000E+00
    0.29160E-07        -0.11742E-19         0.00000E+00
    0.28066E-07        -0.16610E-19         0.00000E+00
    0.27033E-07        -0.18577E-19         0.00000E+00
    0.26056E-07        -0.11421E-19         0.00000E+00
    0.25136E-07        -0.20489E-19         0.00000E+00
    0.24269E-07        -0.93132E-20         0.00000E+00
    0.23454E-07         0.14077E-21         0.00000E+00
    0.22689E-07        -0.11147E-19         0.00000E+00
    0.21972E-07         0.65193E-20         0.00000E+00
    0.21303E-07        -0.20138E-19         0.00000E+00
    0.20678E-07        -0.32987E-20         0.00000E+00
    0.20098E-07         0.55879E-20         0.00000E+00
    0.19561E-07         0.00000E+00         0.00000E+00
    0.19066E-07         0.74506E-20         0.00000E+00
    0.18611E-07        -0.11031E-19         0.00000E+00
    0.18196E-07         0.43775E-20         0.00000E+00
    0.17820E-07        -0.16764E-19         0.00000E+00
    0.17482E-07        -0.55879E-20         0.00000E+00
    0.17181E-07        -0.13970E-19         0.00000E+00
    0.16917E-07         0.73053E-20         0.00000E+00
    0.16689E-07        -0.74264E-20         0.00000E+00
    0.16497E-07        -0.13134E-19         0.00000E+00
    0.16339E-07         0.21300E-21         0.00000E+00
    0.16217E-07        -0.14572E-19         0.00000E+00
    0.16129E-07        -0.55879E-20         0.00000E+00
    0.16076E-07        -0.74506E-20         0.00000E+00
    0.16057E-07        -0.55879E-20         0.00000E+00
    0.16073E-07        -0.16478E-19         0.00000E+00
    0.16122E-07         0.37253E-20         0.00000E+00
    0.16206E-07         0.35541E-20         0.00000E+00
    0.16325E-07         0.00000E+00         0.00000E+00
    0.16479E-07        -0.11475E-19         0.00000E+00
    0.16667E-07        -0.36587E-20         0.00000E+00
    0.16892E-07        -0.65193E-20         0.00000E+00
    0.17152E-07        -0.14377E-19         0.00000E+00
    0.17449E-07        -0.74506E-20         0.00000E+00
    0.17783E-07        -0.93132E-20         0.00000E+00
    0.18155E-07         0.00000E+00         0.00000E+00
    0.18566E-07         0.93132E-20         0.00000E+00
    0.19017E-07        -0.11905E-19         0.00000E+00
    0.19508E-07        -0.74506E-20         0.00000E+00
    0.20040E-07        -0.71119E-20         0.00000E+00
    0.20616E-07        -0.99328E-20         0.00000E+00
    0.21236E-07        -0.13039E-19         0.00000E+00
    0.21900E-07        -0.14901E-19         0.00000E+00
    0.22612E-07        -0.55879E-20         0.00000E+00
    0.23372E-07        -0.27974E-19         0.00000E+00
    0.24182E-07         0.71587E-20         0.00000E+00
    0.25043E-07         0.37253E-20         0.00000E+00
    0.25958E-07        -0.93132E-20         0.00000E+00
    0.26928E-07        -0.14901E-19         0.00000E+00
    0.27956E-07         0.00000E+00         0.00000E+00
    0.29044E-07        -0.30380E-20         0.00000E+00
    0.30193E-07        -0.18626E-20         0.00000E+00
    0.31407E-07        -0.14108E-19         0.00000E+00
    0.32688E-07         0.37253E-20         0.00000E+00
    0.34039E-07         0.10308E-20         0.00000E+00
    0.35462E-07         0.35797E-21         0.00000E+00
    0.36961E-07        -0.38609E-20         0.00000E+00
    0.38539E-07        -0.46566E-20         0.00000E+00
    0.40199E-07        -0.11176E-19         0.00000E+00
    0.41945E-07        -0.18626E-20         0.00000E+00
    0.43781E-07         0.13039E-19         0.00000E+00
    0.45710E-07        -0.18626E-20         0.00000E+00
    0.47736E-07         0.76029E-20         0.00000E+00
    0.49865E-07        -0.97333E-20         0.00000E+00
    0.52100E-07         0.15174E-19         0.00000E+00
    0.54446E-07        -0.65869E-22         0.00000E+00
    0.56908E-07        -0.75594E-20         0.00000E+00
    0.59492E-07         0.58373E-20         0.00000E+00
    0.62203E-07        -0.40793E-20         0.00000E+00
    0.65047E-07         0.42355E-20         0.00000E+00
    0.68029E-07         0.60367E-20         0.00000E+00
    0.69556E-07         0.00000E+00         0.00000E+00
    0.91678E-07         0.00000E+00         0.00000E+00
    0.89641E-07        -0.14901E-19         0.00000E+00
    0.85661E-07        -0.55879E-20         0.00000E+00
    0.81864E-07         0.62842E-20         0.00000E+00
    0.78242E-07         0.14901E-19         0.00000E+00
    0.74786E-07         0.14577E-19         0.00000E+00
    0.71491E-07         0.20232E-19         0.00000E+00
    0.68347E-07         0.18626E-19         0.00000E+00
    0.65350E-07         0.13039E-19         0.00000E+00
    0.62492E-07        -0.54471E-20         0.00000E+00
    0.59768E-07        -0.65466E-20         0.00000E+00
    0.57171E-07         0.37253E-20         0.00000E+00
    0.54697E-07         0.85669E-20         0.00000E+00
    0.52339E-07         0.13039E-19         0.00000E+00
    0.50092E-07        -0.13039E-19         0.00000E+00
    0.47953E-07        -0.14892E-19         0.00000E+00
    0.45916E-07        -0.46566E-20         0.00000E+00
    0.43977E-07        -0.25496E-19         0.00000E+00
    0.42132E-07        -0.51662E-20         0.00000E+00
    0.40377E-07         0.37253E-20         0.00000E+00
    0.38708E-07        -0.12241E-21         0.00000E+00
    0.37121E-07         0.00000E+00         0.00000E+00
    0.35614E-07        -0.55879E-20         0.00000E+00
    0.34183E-07        -0.21444E-20         0.00000E+00
    0.32825E-07        -0.33196E-20         0.00000E+00
    0.31537E-07         0.41320E-20         0.00000E+00
    0.30316E-07        -0.14901E-19         0.00000E+00
    0.29160E-07        -0.37253E-20         0.00000E+00
    0.28066E-07        -0.16764E-19         0.00000E+00
    0.27033E-07        -0.65193E-20         0.00000E+00
    0.26056E-07        -0.11862E-19         0.00000E+00
    0.25136E-07        -0.16764E-19         0.00000E+00
    0.24269E-07        -0.74506E-20         0.00000E+00
    0.23454E-07        -0.93132E-20         0.00000E+00
    0.22689E-07        -0.37540E-20         0.00000E+00
    0.21972E-07        -0.73879E-21         0.00000E+00
    0.21303E-07        -0.11527E-19         0.00000E+00
    0.20678E-07        -0.13579E-20         0.00000E+00
    0.20098E-07         0.55879E-20         0.00000E+00
    0.19561E-07         0.18626E-20         0.00000E+00
    0.19066E-07         0.74587E-20         0.00000E+00
    0.18611E-07        -0.14529E-21         0.00000E+00
    0.18196E-07        -0.46566E-20         0.00000E+00
    0.17820E-07        -0.97230E-20         0.00000E+00
    0.17482E-07        -0.11176E-19         0.00000E+00
    0.17181E-07        -0.14238E-19         0.00000E+00
    0.16917E-07         0.13184E-19         0.00000E+00
    0.16689E-07        -0.16764E-19         0.00000E+00
    0.16497E-07        -0.54928E-20         0.00000E+00
    0.16339E-07        -0.16764E-19         0.00000E+00
    0.16217E-07        -0.17093E-19         0.00000E+00
    0.16129E-07        -0.78958E-20         0.00000E+00
    0.16076E-07        -0.55879E-20         0.00000E+00
    0.16057E-07        -0.13039E-19         0.00000E+00
    0.16073E-07        -0.16764E-19         0.00000E+00
    0.16122E-07         0.93132E-20         0.00000E+00
    0.16206E-07        -0.37253E-20         0.00000E+00
    0.16325E-07        -0.12107E-19         0.00000E+00
    0.16479E-07        -0.93132E-20         0.00000E+00
    0.16667E-07        -0.84485E-20         0.00000E+00
    0.16892E-07        -0.38941E-20         0.00000E+00
    0.17152E-07        -0.13970E-19         0.00000E+00
    0.17449E-07        -0.18626E-20         0.00000E+00
    0.17783E-07        -0.74506E-20         0.00000E+00
    0.18155E-07        -0.93132E-20         0.00000E+00
    0.18566E-07        -0.23252E-20         0.00000E+00
    0.19017E-07        -0.18626E-20         0.00000E+00
    0.19508E-07        -0.55228E-20         0.00000E+00
    0.20040E-07        -0.10583E-19         0.00000E+00
    0.20616E-07         0.10245E-19         0.00000E+00
    0.21236E-07        -0.74736E-20         0.00000E+00
    0.21900E-07        -0.21368E-20         0.00000E+00
    0.22612E-07        -0.16764E-19         0.00000E+00
    0.23372E-07        -0.74506E-20         0.00000E+00
    0.24182E-07        -0.52961E-20         0.00000E+00
    0.25043E-07         0.11805E-19         0.00000E+00
    0.25958E-07        -0.37731E-20         0.00000E+00
    0.26928E-07        -0.14901E-19         0.00000E+00
    0.27956E-07        -0.37253E-20         0.00000E+00
    0.29044E-07         0.65193E-20         0.00000E+00
    0.30193E-07        -0.28250E-21         0.00000E+00
    0.31407E-07        -0.93132E-20         0.00000E+00
    0.32688E-07         0.55879E-20         0.00000E+00
    0.34039E-07         0.12107E-19         0.00000E+00
    0.35462E-07         0.00000E+00         0.00000E+00
    0.36961E-07         0.12243E-19         0.00000E+00
    0.38539E-07        -0.64992E-21         0.00000E+00
    0.40199E-07        -0.14901E-19         0.00000E+00
    0.41945E-07         0.18626E-20         0.00000E+00
    0.43781E-07         0.74506E-20         0.00000E+00
    0.45710E-07         0.14345E-21         0.00000E+00
    0.47736E-07         0.63669E-20         0.00000E+00
    0.49865E-07        -0.51679E-20         0.00000E+00
    0.52100E-07         0.16491E-19         0.00000E+00
    0.54446E-07         0.18626E-20         0.00000E+00
    0.56908E-07         0.37253E-20         0.00000E+00
    0.59492E-07         0.44073E-20         0.00000E+00
    0.62203E-07         0.59420E-20         0.00000E+00
    0.65047E-07         0.17695E-19         0.00000E+00
    0.68029E-07         0.60705E-20         0.00000E+00
    0.69556E-07         0.00000E+00         0.00000E+00
    0.91678E-07         0.00000E+00         0.00000E+00
    0.89641E-07         0.14593E-19         0.00000E+00
    0.85661E-07        -0.19284E-19         0.00000E+00
    0.81864E-07         0.26077E-19         0.00000E+00
    0.78242E-07        -0.14669E-20         0.00000E+00
    0.74786E-07         0.11501E-19         0.00000E+00
    0.71491E-07         0.29802E-19         0.00000E+00
    0.68347E-07         0.18626E-19         0.00000E+00
    0.65350E-07         0.10504E-19         0.00000E+00
    0.62492E-07        -0.57287E-20         0.00000E+00
    0.59768E-07        -0.27667E-20         0.00000E+00
    0.57171E-07         0.15832E-19         0.00000E+00
    0.54697E-07         0.55879E-20         0.00000E+00
    0.52339E-07         0.93132E-20         0.00000E+00
    0.50092E-07        -0.15832E-19         0.00000E+00
    0.47953E-07        -0.13039E-19         0.00000E+00
    0.45916E-07        -0.57712E-20         0.00000E+00
    0.43977E-07        -0.27940E-19         0.00000E+00
    0.42132E-07        -0.22844E-20         0.00000E+00
    0.40377E-07         0.27940E-20         0.00000E+00
    0.38708E-07         0.10537E-20         0.00000E+00
    0.37121E-07         0.37433E-20         0.00000E+00
    0.35614E-07        -0.55879E-20         0.00000E+00
    0.34183E-07         0.12131E-20         0.00000E+00
    0.32825E-07         0.18626E-20         0.00000E+00
    0.31537E-07        -0.13563E-19         0.00000E+00
    0.30316E-07         0.18626E-20         0.00000E+00
    0.29160E-07        -0.74506E-20         0.00000E+00
    0.28066E-07        -0.18626E-19         0.00000E+00
    0.27033E-07        -0.10294E-19         0.00000E+00
    0.26056E-07        -0.13039E-19         0.00000E+00
    0.25136E-07        -0.37253E-20         0.00000E+00
    0.24269E-07         0.21788E-20         0.00000E+00
    0.23454E-07        -0.74506E-20         0.00000E+00
    0.22689E-07        -0.18626E-20         0.00000E+00
    0.21972E-07        -0.27940E-20         0.00000E+00
    0.21303E-07         0.31451E-20         0.00000E+00
    0.20678E-07        -0.93132E-21         0.00000E+00
    0.20098E-07        -0.11176E-19         0.00000E+00
    0.19561E-07         0.14901E-19         0.00000E+00
    0.19066E-07         0.55879E-20         0.00000E+00
    0.18611E-07         0.14529E-21         0.00000E+00
    0.18196E-07        -0.15836E-20         0.00000E+00
    0.17820E-07        -0.51782E-20         0.00000E+00
    0.17482E-07        -0.15832E-19         0.00000E+00
    0.17181E-07        -0.83819E-20         0.00000E+00
    0.16917E-07         0.63740E-20         0.00000E+00
    0.16689E-07        -0.18626E-20         0.00000E+00
    0.16497E-07        -0.55879E-20         0.00000E+00
    0.16339E-07        -0.16977E-19         0.00000E+00
    0.16217E-07        -0.55879E-20         0.00000E+00
    0.16129E-07        -0.70054E-20         0.00000E+00
    0.16076E-07         0.37253E-20         0.00000E+00
    0.16057E-07        -0.18626E-20         0.00000E+00
    0.16073E-07        -0.16764E-19         0.00000E+00
    0.16122E-07         0.93132E-21         0.00000E+00
    0.16206E-07        -0.13970E-19         0.00000E+00
    0.16325E-07        -0.78514E-20         0.00000E+00
    0.16479E-07        -0.20190E-19         0.00000E+00
    0.16667E-07        -0.11176E-19         0.00000E+00
    0.16892E-07        -0.44878E-20         0.00000E+00
    0.17152E-07        -0.23868E-20         0.00000E+00
    0.17449E-07        -0.80995E-20         0.00000E+00
    0.17783E-07         0.37253E-20         0.00000E+00
    0.18155E-07        -0.46566E-20         0.00000E+00
    0.18566E-07        -0.22352E-19         0.00000E+00
    0.19017E-07         0.65193E-20         0.00000E+00
    0.19508E-07        -0.18626E-19         0.00000E+00
    0.20040E-07        -0.65193E-20         0.00000E+00
    0.20616E-07         0.62075E-20         0.00000E+00
    0.21236E-07        -0.18626E-20         0.00000E+00
    0.21900E-07         0.58621E-20         0.00000E+00
    0.22612E-07        -0.11176E-19         0.00000E+00
    0.23372E-07         0.00000E+00         0.00000E+00
    0.24182E-07        -0.40171E-20         0.00000E+00
    0.25043E-07        -0.15609E-20         0.00000E+00
    0.25958E-07         0.47810E-22         0.00000E+00
    0.26928E-07        -0.93132E-20         0.00000E+00
    0.27956E-07        -0.37253E-20         0.00000E+00
    0.29044E-07         0.72066E-20         0.00000E+00
    0.30193E-07        -0.18626E-20         0.00000E+00
    0.31407E-07        -0.65193E-20         0.00000E+00
    0.32688E-07        -0.18626E-20         0.00000E+00
    0.34039E-07         0.11076E-19         0.00000E+00
    0.35462E-07         0.18626E-20         0.00000E+00
    0.36961E-07         0.93132E-20         0.00000E+00
    0.38539E-07        -0.58693E-20         0.00000E+00
    0.40199E-07        -0.74506E-20         0.00000E+00
    0.41945E-07         0.12107E-19         0.00000E+00
    0.43781E-07        -0.65193E-20         0.00000E+00
    0.45710E-07         0.93132E-21         0.00000E+00
    0.47736E-07        -0.77897E-21         0.00000E+00
    0.49865E-07         0.88932E-20         0.00000E+00
    0.52100E-07         0.55879E-20         0.00000E+00
    0.54446E-07         0.74506E-20         0.00000E+00
    0.56908E-07         0.14901E-19         0.00000E+00
    0.59492E-07         0.18626E-20         0.00000E+00
    0.62203E-07         0.70966E-20         0.00000E+00
    0.65047E-07         0.12528E-19         0.00000E+00
    0.68029E-07         0.83819E-20         0.00000E+00
    0.69556E-07         0.00000E+00         0.00000E+00
    0.91678E-07         0.00000E+00         0.00000E+00
    0.89641E-07         0.22660E-19         0.00000E+00
    0.85661E-07         0.81080E-20         0.00000E+00
    0.81864E-07         0.31665E-19         0.00000E+00
    0.78242E-07         0.51922E-20         0.00000E+00
    0.74786E-07         0.16764E-19         0.00000E+00
    0.71491E-07         0.39116E-19         0.00000E+00
    0.68347E-07         0.16380E-19         0.00000E+00
    0.65350E-07         0.33268E-19         0.00000E+00
    0.62492E-07        -0.17218E-20         0.00000E+00
    0.59768E-07         0.55879E-20         0.00000E+00
    0.57171E-07         0.18545E-19         0.00000E+00
    0.54697E-07        -0.12107E-19         0.00000E+00
    0.52339E-07         0.18626E-20         0.00000E+00
    0.50092E-07        -0.66919E-20         0.00000E+00
    0.47953E-07         0.93132E-20         0.00000E+00
    0.45916E-07        -0.54046E-20         0.00000E+00
    0.43977E-07        -0.74506E-20         0.00000E+00
    0.42132E-07         0.41471E-20         0.00000E+00
    0.40377E-07        -0.34564E-20         0.00000E+00
    0.38708E-07         0.55879E-20         0.00000E+00
    0.37121E-07         0.13021E-19         0.00000E+00
    0.35614E-07        -0.20153E-20         0.00000E+00
    0.34183E-07         0.62375E-20         0.00000E+00
    0.32825E-07         0.18626E-20         0.00000E+00
    0.31537E-07        -0.40668E-21         0.00000E+00
    0.30316E-07         0.37253E-20         0.00000E+00
    0.29160E-07        -0.14901E-19         0.00000E+00
    0.28066E-07        -0.16918E-19         0.00000E+00
    0.27033E-07        -0.92640E-20         0.00000E+00
    0.26056E-07        -0.17695E-19         0.00000E+00
    0.25136E-07         0.27940E-20         0.00000E+00
    0.24269E-07        -0.77668E-20         0.00000E+00
    0.23454E-07         0.55879E-20         0.00000E+00
    0.22689E-07         0.37253E-20         0.00000E+00
    0.21972E-07         0.44641E-20         0.00000E+00
    0.21303E-07         0.16413E-19         0.00000E+00
    0.20678E-07        -0.70240E-20         0.00000E+00
    0.20098E-07        -0.53105E-20         0.00000E+00
    0.19561E-07         0.14901E-19         0.00000E+00
    0.19066E-07         0.16756E-19         0.00000E+00
    0.18611E-07         0.73053E-20         0.00000E+00
    0.18196E-07         0.43775E-20         0.00000E+00
    0.17820E-07         0.00000E+00         0.00000E+00
    0.17482E-07        -0.70569E-20         0.00000E+00
    0.17181E-07        -0.13260E-20         0.00000E+00
    0.16917E-07         0.83819E-20         0.00000E+00
    0.16689E-07         0.74506E-20         0.00000E+00
    0.16497E-07         0.17675E-20         0.00000E+00
    0.16339E-07         0.55879E-20         0.00000E+00
    0.16217E-07         0.52583E-20         0.00000E+00
    0.16129E-07         0.32801E-20         0.00000E+00
    0.16076E-07         0.55879E-20         0.00000E+00
    0.16057E-07         0.11176E-19         0.00000E+00
    0.16073E-07        -0.28562E-21         0.00000E+00
    0.16122E-07        -0.65767E-20         0.00000E+00
    0.16206E-07        -0.91420E-20         0.00000E+00
    0.16325E-07         0.22634E-20         0.00000E+00
    0.16479E-07        -0.17063E-19         0.00000E+00
    0.16667E-07        -0.37253E-20         0.00000E+00
    0.16892E-07        -0.13039E-19         0.00000E+00
    0.17152E-07         0.65193E-20         0.00000E+00
    0.17449E-07        -0.16115E-19         0.00000E+00
    0.17783E-07         0.37253E-20         0.00000E+00
    0.18155E-07        -0.35118E-20         0.00000E+00
    0.18566E-07        -0.24214E-19         0.00000E+00
    0.19017E-07         0.81801E-20         0.00000E+00
    0.19508E-07        -0.14901E-19         0.00000E+00
    0.20040E-07        -0.24553E-20         0.00000E+00
    0.20616E-07         0.55879E-20         0.00000E+00
    0.21236E-07        -0.18626E-20         0.00000E+00
    0.21900E-07         0.11176E-19         0.00000E+00
    0.22612E-07         0.37253E-20         0.00000E+00
    0.23372E-07         0.74506E-20         0.00000E+00
    0.24182E-07         0.58798E-20         0.00000E+00
    0.25043E-07        -0.18626E-20         0.00000E+00
    0.25958E-07         0.55879E-20         0.00000E+00
    0.26928E-07         0.14901E-19         0.00000E+00
    0.27956E-07         0.73048E-20         0.00000E+00
    0.29044E-07         0.88700E-20         0.00000E+00
    0.30193E-07         0.27940E-20         0.00000E+00
    0.31407E-07         0.13818E-21         0.00000E+00
    0.32688E-07        -0.55879E-20         0.00000E+00
    0.34039E-07         0.17795E-19         0.00000E+00
    0.35462E-07         0.12681E-19         0.00000E+00
    0.36961E-07         0.83819E-20         0.00000E+00
    0.38539E-07        -0.16764E-19         0.00000E+00
    0.40199E-07         0.55879E-20         0.00000E+00
    0.41945E-07         0.16881E-19         0.00000E+00
    0.43781E-07        -0.41913E-20         0.00000E+00
    0.45710E-07         0.43697E-20         0.00000E+00
    0.47736E-07         0.10837E-20         0.00000E+00
    0.49865E-07         0.24214E-19         0.00000E+00
    0.52100E-07        -0.18626E-20         0.00000E+00
    0.54446E-07         0.22352E-19         0.00000E+00
    0.56908E-07         0.94220E-20         0.00000E+00
    0.59492E-07         0.58373E-20         0.00000E+00
    0.62203E-07         0.14324E-19         0.00000E+00
    0.65047E-07        -0.27940E-20         0.00000E+00
    0.68029E-07         0.51054E-20         0.00000E+00
    0.69556E-07         0.00000E+00         0.00000E+00
    0.91678E-07         0.00000E+00         0.00000E+00
    0.89641E-07         0.15209E-19         0.00000E+00
    0.85661E-07         0.19284E-19         0.00000E+00
    0.81864E-07         0.23518E-19         0.00000E+00
    0.78242E-07         0.25681E-19         0.00000E+00
    0.74786E-07         0.11176E-19         0.00000E+00
    0.71491E-07         0.31922E-19         0.00000E+00
    0.68347E-07         0.24214E-19         0.00000E+00
    0.65350E-07         0.25818E-19         0.00000E+00
    0.62492E-07         0.15692E-19         0.00000E+00
    0.59768E-07        -0.37253E-20         0.00000E+00
    0.57171E-07         0.85443E-20         0.00000E+00
    0.54697E-07         0.16776E-20         0.00000E+00
    0.52339E-07         0.55879E-20         0.00000E+00
    0.50092E-07        -0.83819E-20         0.00000E+00
    0.47953E-07         0.20480E-19         0.00000E+00
    0.45916E-07         0.18329E-21         0.00000E+00
    0.43977E-07        -0.18626E-20         0.00000E+00
    0.42132E-07         0.33035E-20         0.00000E+00
    0.40377E-07        -0.86508E-20         0.00000E+00
    0.38708E-07        -0.18626E-20         0.00000E+00
    0.37121E-07         0.24214E-19         0.00000E+00
    0.35614E-07        -0.10871E-19         0.00000E+00
    0.34183E-07         0.52201E-20         0.00000E+00
    0.32825E-07        -0.40567E-21         0.00000E+00
    0.31537E-07         0.93132E-20         0.00000E+00
    0.30316E-07        -0.37253E-20         0.00000E+00
    0.29160E-07         0.00000E+00         0.00000E+00
    0.28066E-07         0.55879E-20         0.00000E+00
    0.27033E-07        -0.13039E-19         0.00000E+00
    0.26056E-07        -0.12352E-19         0.00000E+00
    0.25136E-07        -0.43335E-21         0.00000E+00
    0.24269E-07        -0.10561E-19         0.00000E+00
    0.23454E-07         0.93132E-20         0.00000E+00
    0.22689E-07         0.11176E-19         0.00000E+00
    0.21972E-07         0.55879E-20         0.00000E+00
    0.21303E-07         0.22703E-19         0.00000E+00
    0.20678E-07         0.23674E-20         0.00000E+00
    0.20098E-07        -0.27748E-21         0.00000E+00
    0.19561E-07         0.93132E-20         0.00000E+00
    0.19066E-07         0.11176E-19         0.00000E+00
    0.18611E-07         0.13184E-19         0.00000E+00
    0.18196E-07         0.58670E-20         0.00000E+00
    0.17820E-07         0.11176E-19         0.00000E+00
    0.17482E-07        -0.50503E-20         0.00000E+00
    0.17181E-07         0.65193E-20         0.00000E+00
    0.16917E-07         0.17174E-20         0.00000E+00
    0.16689E-07         0.14877E-19         0.00000E+00
    0.16497E-07         0.55879E-20         0.00000E+00
    0.16339E-07         0.39383E-20         0.00000E+00
    0.16217E-07         0.77802E-20         0.00000E+00
    0.16129E-07         0.15346E-19         0.00000E+00
    0.16076E-07         0.37253E-20         0.00000E+00
    0.16057E-07         0.93132E-20         0.00000E+00
    0.16073E-07         0.20775E-19         0.00000E+00
    0.16122E-07         0.57446E-22         0.00000E+00
    0.16206E-07        -0.11347E-19         0.00000E+00
    0.16325E-07         0.14619E-20         0.00000E+00
    0.16479E-07        -0.55879E-20         0.00000E+00
    0.16667E-07        -0.11176E-19         0.00000E+00
    0.16892E-07        -0.13039E-19         0.00000E+00
    0.17152E-07        -0.13385E-20         0.00000E+00
    0.17449E-07        -0.12107E-19         0.00000E+00
    0.17783E-07        -0.37253E-20         0.00000E+00
    0.18155E-07        -0.67328E-20         0.00000E+00
    0.18566E-07        -0.19558E-19         0.00000E+00
    0.19017E-07         0.39271E-20         0.00000E+00
    0.19508E-07         0.36602E-20         0.00000E+00
    0.20040E-07        -0.46566E-20         0.00000E+00
    0.20616E-07         0.10245E-19         0.00000E+00
    0.21236E-07         0.11176E-19         0.00000E+00
    0.21900E-07         0.55879E-20         0.00000E+00
    0.22612E-07         0.13389E-19         0.00000E+00
    0.23372E-07        -0.18626E-20         0.00000E+00
    0.24182E-07         0.55879E-20         0.00000E+00
    0.25043E-07         0.15832E-19         0.00000E+00
    0.25958E-07         0.37253E-20         0.00000E+00
    0.26928E-07         0.24214E-19         0.00000E+00
    0.27956E-07         0.18772E-19         0.00000E+00
    0.29044E-07         0.13970E-19         0.00000E+00
    0.30193E-07         0.86644E-20         0.00000E+00
    0.31407E-07         0.45184E-20         0.00000E+00
    0.32688E-07         0.40810E-20         0.00000E+00
    0.34039E-07         0.30734E-19         0.00000E+00
    0.35462E-07         0.12107E-19         0.00000E+00
    0.36961E-07         0.21285E-19         0.00000E+00
    0.38539E-07        -0.37253E-20         0.00000E+00
    0.40199E-07         0.11176E-19         0.00000E+00
    0.41945E-07         0.10127E-19         0.00000E+00
    0.43781E-07         0.62602E-24         0.00000E+00
    0.45710E-07         0.13039E-19         0.00000E+00
    0.47736E-07         0.11024E-19         0.00000E+00
    0.49865E-07         0.70305E-20         0.00000E+00
    0.52100E-07         0.12107E-19         0.00000E+00
    0.54446E-07         0.24280E-19         0.00000E+00
    0.56908E-07         0.16655E-19         0.00000E+00
    0.59492E-07         0.93132E-20         0.00000E+00
    0.62203E-07         0.89592E-20         0.00000E+00
    0.65047E-07         0.51021E-21         0.00000E+00
    0.68029E-07        -0.37253E-20         0.00000E+00
    0.69556E-07         0.00000E+00         0.00000E+00
    0.91678E-07         0.00000E+00         0.00000E+00
    0.89641E-07         0.18318E-19         0.00000E+00
    0.85661E-07         0.19832E-19         0.00000E+00
    0.81864E-07         0.24911E-19         0.00000E+00
    0.78242E-07         0.33923E-19         0.00000E+00
    0.74786E-07         0.31665E-19         0.00000E+00
    0.71491E-07         0.14644E-19         0.00000E+00
    0.68347E-07         0.26461E-19         0.00000E+00
    0.65350E-07         0.17955E-19         0.00000E+00
    0.62492E-07         0.25287E-19         0.00000E+00
    0.59768E-07         0.37253E-20         0.00000E+00
    0.57171E-07         0.65193E-20         0.00000E+00
    0.54697E-07         0.13224E-19         0.00000E+00
    0.52339E-07         0.55879E-20         0.00000E+00
    0.50092E-07        -0.44840E-20         0.00000E+00
    0.47953E-07         0.13039E-19         0.00000E+00
    0.45916E-07         0.74803E-21         0.00000E+00
    0.43977E-07         0.74506E-20         0.00000E+00
    0.42132E-07        -0.51662E-20         0.00000E+00
    0.40377E-07        -0.37253E-20         0.00000E+00
    0.38708E-07         0.18626E-20         0.00000E+00
    0.37121E-07         0.20489E-19         0.00000E+00
    0.35614E-07        -0.55879E-20         0.00000E+00
    0.34183E-07         0.71688E-20         0.00000E+00
    0.32825E-07        -0.14570E-20         0.00000E+00
    0.31537E-07         0.20489E-19         0.00000E+00
    0.30316E-07        -0.37253E-20         0.00000E+00
    0.29160E-07         0.12107E-19         0.00000E+00
    0.28066E-07         0.11330E-19         0.00000E+00
    0.27033E-07        -0.74998E-20         0.00000E+00
    0.26056E-07         0.00000E+00         0.00000E+00
    0.25136E-07        -0.28586E-20         0.00000E+00
    0.24269E-07         0.19874E-19         0.00000E+00
    0.23454E-07         0.17219E-20         0.00000E+00
    0.22689E-07         0.18626E-20         0.00000E+00
    0.21972E-07         0.76431E-20         0.00000E+00
    0.21303E-07         0.70995E-20         0.00000E+00
    0.20678E-07         0.20489E-19         0.00000E+00
    0.20098E-07        -0.37253E-20         0.00000E+00
    0.19561E-07         0.55879E-20         0.00000E+00
    0.19066E-07         0.18626E-20         0.00000E+00
    0.18611E-07         0.16619E-19         0.00000E+00
    0.18196E-07         0.00000E+00         0.00000E+00
    0.17820E-07         0.14901E-19         0.00000E+00
    0.17482E-07        -0.46566E-20         0.00000E+00
    0.17181E-07         0.62509E-20         0.00000E+00
    0.16917E-07        -0.54427E-20         0.00000E+00
    0.16689E-07         0.13039E-19         0.00000E+00
    0.16497E-07         0.75457E-20         0.00000E+00
    0.16339E-07        -0.74506E-20         0.00000E+00
    0.16217E-07         0.13039E-19         0.00000E+00
    0.16129E-07         0.11176E-19         0.00000E+00
    0.16076E-07         0.18626E-20         0.00000E+00
    0.16057E-07         0.37253E-20         0.00000E+00
    0.16073E-07         0.18626E-19         0.00000E+00
    0.16122E-07         0.00000E+00         0.00000E+00
    0.16206E-07        -0.11005E-19         0.00000E+00
    0.16325E-07        -0.79811E-20         0.00000E+00
    0.16479E-07         0.00000E+00         0.00000E+00
    0.16667E-07        -0.15832E-19         0.00000E+00
    0.16892E-07        -0.14901E-19         0.00000E+00
    0.17152E-07        -0.83819E-20         0.00000E+00
    0.17449E-07        -0.17978E-19         0.00000E+00
    0.17783E-07         0.93132E-21         0.00000E+00
    0.18155E-07        -0.83819E-20         0.00000E+00
    0.18566E-07        -0.97820E-20         0.00000E+00
    0.19017E-07         0.00000E+00         0.00000E+00
    0.19508E-07         0.65844E-20         0.00000E+00
    0.20040E-07        -0.33868E-21         0.00000E+00
    0.20616E-07         0.49684E-20         0.00000E+00
    0.21236E-07         0.13993E-19         0.00000E+00
    0.21900E-07         0.18626E-20         0.00000E+00
    0.22612E-07         0.14550E-19         0.00000E+00
    0.23372E-07        -0.74506E-20         0.00000E+00
    0.24182E-07         0.14901E-19         0.00000E+00
    0.25043E-07         0.19860E-19         0.00000E+00
    0.25958E-07         0.11176E-19         0.00000E+00
    0.26928E-07         0.24624E-19         0.00000E+00
    0.27956E-07         0.20489E-19         0.00000E+00
    0.29044E-07         0.15588E-19         0.00000E+00
    0.30193E-07         0.16764E-19         0.00000E+00
    0.31407E-07        -0.26558E-20         0.00000E+00
    0.32688E-07         0.15477E-19         0.00000E+00
    0.34039E-07         0.23184E-19         0.00000E+00
    0.35462E-07         0.23641E-19         0.00000E+00
    0.36961E-07         0.28871E-19         0.00000E+00
    0.38539E-07         0.13039E-19         0.00000E+00
    0.40199E-07         0.55879E-20         0.00000E+00
    0.41945E-07         0.17695E-19         0.00000E+00
    0.43781E-07         0.27940E-20         0.00000E+00
    0.45710E-07         0.15045E-19         0.00000E+00
    0.47736E-07         0.12107E-19         0.00000E+00
    0.49865E-07         0.97333E-20         0.00000E+00
    0.52100E-07         0.16106E-19         0.00000E+00
    0.54446E-07         0.13039E-19         0.00000E+00
    0.56908E-07         0.26186E-19         0.00000E+00
    0.59492E-07         0.22102E-19         0.00000E+00
    0.62203E-07         0.10599E-19         0.00000E+00
    0.65047E-07         0.74506E-20         0.00000E+00
    0.68029E-07         0.18965E-20         0.00000E+00
    0.69556E-07         0.00000E+00         0.00000E+00
    0.91678E-07         0.00000E+00         0.00000E+00
    0.89641E-07         0.37253E-20         0.00000E+00
    0.85661E-07         0.40978E-19         0.00000E+00
    0.81864E-07         0.36557E-19         0.00000E+00
    0.78242E-07         0.16764E-19         0.00000E+00
    0.74786E-07         0.42841E-19         0.00000E+00
    0.71491E-07         0.11433E-19         0.00000E+00
    0.68347E-07         0.31665E-19         0.00000E+00
    0.65350E-07         0.11176E-19         0.00000E+00
    0.62492E-07         0.18626E-19         0.00000E+00
    0.59768E-07         0.18626E-19         0.00000E+00
    0.57171E-07         0.64380E-20         0.00000E+00
    0.54697E-07         0.72656E-20         0.00000E+00
    0.52339E-07        -0.55879E-20         0.00000E+00
    0.50092E-07         0.14901E-19         0.00000E+00
    0.47953E-07        -0.11176E-19         0.00000E+00
    0.45916E-07         0.18626E-20         0.00000E+00
    0.43977E-07         0.93132E-21         0.00000E+00
    0.42132E-07        -0.37253E-20         0.00000E+00
    0.40377E-07        -0.11176E-19         0.00000E+00
    0.38708E-07         0.20489E-19         0.00000E+00
    0.37121E-07         0.18806E-20         0.00000E+00
    0.35614E-07         0.11023E-19         0.00000E+00
    0.34183E-07         0.86637E-20         0.00000E+00
    0.32825E-07        -0.40567E-21         0.00000E+00
    0.31537E-07         0.16764E-19         0.00000E+00
    0.30316E-07         0.37253E-20         0.00000E+00
    0.29160E-07         0.52227E-20         0.00000E+00
    0.28066E-07         0.18626E-20         0.00000E+00
    0.27033E-07         0.37253E-20         0.00000E+00
    0.26056E-07         0.93132E-20         0.00000E+00
    0.25136E-07        -0.22960E-20         0.00000E+00
    0.24269E-07         0.18626E-19         0.00000E+00
    0.23454E-07        -0.93132E-21         0.00000E+00
    0.22689E-07        -0.18626E-20         0.00000E+00
    0.21972E-07         0.37253E-20         0.00000E+00
    0.21303E-07         0.11176E-19         0.00000E+00
    0.20678E-07         0.22352E-19         0.00000E+00
    0.20098E-07         0.11176E-19         0.00000E+00
    0.19561E-07        -0.65193E-20         0.00000E+00
    0.19066E-07         0.37253E-20         0.00000E+00
    0.18611E-07         0.11321E-19         0.00000E+00
    0.18196E-07         0.93132E-20         0.00000E+00
    0.17820E-07         0.55879E-20         0.00000E+00
    0.17482E-07        -0.51943E-20         0.00000E+00
    0.17181E-07         0.11176E-19         0.00000E+00
    0.16917E-07        -0.13184E-19         0.00000E+00
    0.16689E-07         0.95548E-21         0.00000E+00
    0.16497E-07         0.16669E-19         0.00000E+00
    0.16339E-07        -0.83819E-20         0.00000E+00
    0.16217E-07         0.20489E-19         0.00000E+00
    0.16129E-07         0.14901E-19         0.00000E+00
    0.16076E-07        -0.37253E-20         0.00000E+00
    0.16057E-07         0.93132E-20         0.00000E+00
    0.16073E-07         0.11176E-19         0.00000E+00
    0.16122E-07        -0.55879E-20         0.00000E+00
    0.16206E-07         0.91420E-20         0.00000E+00
    0.16325E-07        -0.65193E-20         0.00000E+00
    0.16479E-07         0.55879E-20         0.00000E+00
    0.16667E-07        -0.12041E-19         0.00000E+00
    0.16892E-07        -0.22352E-19         0.00000E+00
    0.17152E-07        -0.79748E-20         0.00000E+00
    0.17449E-07        -0.90308E-20         0.00000E+00
    0.17783E-07        -0.28307E-20         0.00000E+00
    0.18155E-07        -0.12321E-19         0.00000E+00
    0.18566E-07         0.46259E-21         0.00000E+00
    0.19017E-07        -0.46566E-20         0.00000E+00
    0.19508E-07         0.64542E-20         0.00000E+00
    0.20040E-07         0.87206E-20         0.00000E+00
    0.20616E-07        -0.12431E-20         0.00000E+00
    0.21236E-07        -0.28170E-20         0.00000E+00
    0.21900E-07         0.18626E-20         0.00000E+00
    0.22612E-07         0.20840E-19         0.00000E+00
    0.23372E-07         0.13039E-19         0.00000E+00
    0.24182E-07         0.18626E-19         0.00000E+00
    0.25043E-07         0.22050E-19         0.00000E+00
    0.25958E-07         0.13970E-19         0.00000E+00
    0.26928E-07         0.31255E-19         0.00000E+00
    0.27956E-07         0.20343E-19         0.00000E+00
    0.29044E-07         0.14901E-19         0.00000E+00
    0.30193E-07         0.16764E-19         0.00000E+00
    0.31407E-07         0.82437E-20         0.00000E+00
    0.32688E-07         0.68749E-20         0.00000E+00
    0.34039E-07         0.15832E-19         0.00000E+00
    0.35462E-07         0.29444E-19         0.00000E+00
    0.36961E-07         0.12243E-19         0.00000E+00
    0.38539E-07         0.19558E-19         0.00000E+00
    0.40199E-07         0.71958E-20         0.00000E+00
    0.41945E-07         0.20606E-19         0.00000E+00
    0.43781E-07         0.69846E-20         0.00000E+00
    0.45710E-07         0.93132E-20         0.00000E+00
    0.47736E-07         0.17543E-19         0.00000E+00
    0.49865E-07         0.24726E-19         0.00000E+00
    0.52100E-07         0.18626E-19         0.00000E+00
    0.54446E-07         0.11110E-19         0.00000E+00
    0.56908E-07         0.26077E-19         0.00000E+00
    0.59492E-07         0.31914E-19         0.00000E+00
    0.62203E-07         0.13616E-19         0.00000E+00
    0.65047E-07         0.27940E-20         0.00000E+00
    0.68029E-07         0.97620E-20         0.00000E+00
    0.69556E-07         0.00000E+00         0.00000E+00
    0.91678E-07         0.00000E+00         0.00000E+00
    0.89641E-07        -0.14901E-19         0.00000E+00
    0.85661E-07         0.67055E-19         0.00000E+00
    0.81864E-07         0.32361E-19         0.00000E+00
    0.78242E-07         0.14901E-19         0.00000E+00
    0.74786E-07         0.20489E-19         0.00000E+00
    0.71491E-07         0.36996E-19         0.00000E+00
    0.68347E-07         0.40978E-19         0.00000E+00
    0.65350E-07         0.22352E-19         0.00000E+00
    0.62492E-07         0.65193E-20         0.00000E+00
    0.59768E-07         0.93132E-20         0.00000E+00
    0.57171E-07         0.65193E-20         0.00000E+00
    0.54697E-07         0.57730E-20         0.00000E+00
    0.52339E-07        -0.55879E-20         0.00000E+00
    0.50092E-07         0.13039E-19         0.00000E+00
    0.47953E-07        -0.11167E-19         0.00000E+00
    0.45916E-07        -0.11176E-19         0.00000E+00
    0.43977E-07        -0.52380E-20         0.00000E+00
    0.42132E-07        -0.12107E-19         0.00000E+00
    0.40377E-07        -0.11176E-19         0.00000E+00
    0.38708E-07         0.24214E-19         0.00000E+00
    0.37121E-07         0.00000E+00         0.00000E+00
    0.35614E-07         0.20489E-19         0.00000E+00
    0.34183E-07         0.20489E-19         0.00000E+00
    0.32825E-07         0.10650E-19         0.00000E+00
    0.31537E-07        -0.93132E-21         0.00000E+00
    0.30316E-07         0.13039E-19         0.00000E+00
    0.29160E-07         0.12965E-20         0.00000E+00
    0.28066E-07         0.00000E+00         0.00000E+00
    0.27033E-07         0.49194E-22         0.00000E+00
    0.26056E-07         0.58328E-20         0.00000E+00
    0.25136E-07         0.97466E-20         0.00000E+00
    0.24269E-07         0.55879E-20         0.00000E+00
    0.23454E-07         0.10721E-20         0.00000E+00
    0.22689E-07         0.93419E-20         0.00000E+00
    0.21972E-07         0.83819E-20         0.00000E+00
    0.21303E-07         0.13970E-19         0.00000E+00
    0.20678E-07         0.22352E-19         0.00000E+00
    0.20098E-07         0.18626E-19         0.00000E+00
    0.19561E-07        -0.45239E-20         0.00000E+00
    0.19066E-07         0.11176E-19         0.00000E+00
    0.18611E-07         0.54426E-20         0.00000E+00
    0.18196E-07         0.16764E-19         0.00000E+00
    0.17820E-07         0.14491E-19         0.00000E+00
    0.17482E-07        -0.10638E-19         0.00000E+00
    0.17181E-07         0.13970E-19         0.00000E+00
    0.16917E-07        -0.17550E-19         0.00000E+00
    0.16689E-07         0.27698E-20         0.00000E+00
    0.16497E-07         0.28035E-19         0.00000E+00
    0.16339E-07        -0.25810E-20         0.00000E+00
    0.16217E-07         0.27940E-19         0.00000E+00
    0.16129E-07         0.14174E-20         0.00000E+00
    0.16076E-07         0.13039E-19         0.00000E+00
    0.16057E-07         0.13970E-19         0.00000E+00
    0.16073E-07         0.18626E-19         0.00000E+00
    0.16122E-07         0.37253E-20         0.00000E+00
    0.16206E-07         0.20660E-19         0.00000E+00
    0.16325E-07        -0.69200E-20         0.00000E+00
    0.16479E-07         0.21622E-20         0.00000E+00
    0.16667E-07         0.64527E-20         0.00000E+00
    0.16892E-07        -0.22352E-19         0.00000E+00
    0.17152E-07        -0.74506E-20         0.00000E+00
    0.17449E-07         0.74506E-20         0.00000E+00
    0.17783E-07        -0.83452E-20         0.00000E+00
    0.18155E-07         0.30075E-20         0.00000E+00
    0.18566E-07         0.46566E-20         0.00000E+00
    0.19017E-07        -0.20645E-20         0.00000E+00
    0.19508E-07         0.14901E-19         0.00000E+00
    0.20040E-07         0.83819E-20         0.00000E+00
    0.20616E-07         0.12419E-19         0.00000E+00
    0.21236E-07        -0.37253E-20         0.00000E+00
    0.21900E-07         0.13039E-19         0.00000E+00
    0.22612E-07         0.12688E-19         0.00000E+00
    0.23372E-07         0.29802E-19         0.00000E+00
    0.24182E-07         0.20489E-19         0.00000E+00
    0.25043E-07         0.35390E-19         0.00000E+00
    0.25958E-07         0.92654E-20         0.00000E+00
    0.26928E-07         0.29802E-19         0.00000E+00
    0.27956E-07         0.18772E-19         0.00000E+00
    0.29044E-07         0.18626E-20         0.00000E+00
    0.30193E-07         0.13039E-19         0.00000E+00
    0.31407E-07         0.20489E-19         0.00000E+00
    0.32688E-07         0.33696E-20         0.00000E+00
    0.34039E-07         0.18726E-19         0.00000E+00
    0.35462E-07         0.13396E-19         0.00000E+00
    0.36961E-07         0.13970E-19         0.00000E+00
    0.38539E-07         0.21702E-19         0.00000E+00
    0.40199E-07         0.22607E-19         0.00000E+00
    0.41945E-07         0.19440E-19         0.00000E+00
    0.43781E-07         0.11176E-19         0.00000E+00
    0.45710E-07         0.37253E-20         0.00000E+00
    0.47736E-07         0.32901E-19         0.00000E+00
    0.49865E-07         0.21840E-19         0.00000E+00
    0.52100E-07         0.93132E-20         0.00000E+00
    0.54446E-07         0.18692E-19         0.00000E+00
    0.56908E-07         0.22352E-19         0.00000E+00
    0.59492E-07         0.27690E-19         0.00000E+00
    0.62203E-07        -0.15086E-20         0.00000E+00
    0.65047E-07         0.42355E-20         0.00000E+00
    0.68029E-07         0.14901E-19         0.00000E+00
    0.69556E-07         0.18626E-20         0.00000E+00
    0.91678E-07         0.00000E+00         0.00000E+00
    0.89641E-07        -0.37253E-20         0.00000E+00
    0.85661E-07         0.52154E-19         0.00000E+00
    0.81864E-07         0.40282E-19         0.00000E+00
    0.78242E-07         0.39116E-19         0.00000E+00
    0.74786E-07         0.20489E-19         0.00000E+00
    0.71491E-07         0.56136E-19         0.00000E+00
    0.68347E-07         0.20489E-19         0.00000E+00
    0.65350E-07         0.46566E-19         0.00000E+00
    0.62492E-07         0.82411E-20         0.00000E+00
    0.59768E-07         0.83819E-20         0.00000E+00
    0.57171E-07         0.30815E-19         0.00000E+00
    0.54697E-07         0.44716E-20         0.00000E+00
    0.52339E-07         0.14901E-19         0.00000E+00
    0.50092E-07         0.93132E-20         0.00000E+00
    0.47953E-07         0.74506E-20         0.00000E+00
    0.45916E-07        -0.37253E-20         0.00000E+00
    0.43977E-07         0.17345E-19         0.00000E+00
    0.42132E-07        -0.12529E-19         0.00000E+00
    0.40377E-07         0.26077E-19         0.00000E+00
    0.38708E-07         0.19558E-19         0.00000E+00
    0.37121E-07         0.21402E-19         0.00000E+00
    0.35614E-07         0.15054E-19         0.00000E+00
    0.34183E-07         0.28871E-19         0.00000E+00
    0.32825E-07         0.13564E-19         0.00000E+00
    0.31537E-07         0.17170E-19         0.00000E+00
    0.30316E-07         0.74506E-20         0.00000E+00
    0.29160E-07         0.74506E-20         0.00000E+00
    0.28066E-07         0.93132E-20         0.00000E+00
    0.27033E-07         0.16715E-19         0.00000E+00
    0.26056E-07         0.74506E-20         0.00000E+00
    0.25136E-07         0.20056E-19         0.00000E+00
    0.24269E-07         0.16764E-19         0.00000E+00
    0.23454E-07         0.10245E-19         0.00000E+00
    0.22689E-07         0.92845E-20         0.00000E+00
    0.21972E-07         0.16571E-19         0.00000E+00
    0.21303E-07         0.16184E-19         0.00000E+00
    0.20678E-07         0.22352E-19         0.00000E+00
    0.20098E-07         0.19558E-19         0.00000E+00
    0.19561E-07         0.91805E-20         0.00000E+00
    0.19066E-07         0.13039E-19         0.00000E+00
    0.18611E-07         0.13039E-19         0.00000E+00
    0.18196E-07         0.20489E-19         0.00000E+00
    0.17820E-07         0.25146E-19         0.00000E+00
    0.17482E-07        -0.10245E-19         0.00000E+00
    0.17181E-07         0.43883E-20         0.00000E+00
    0.16917E-07        -0.14524E-21         0.00000E+00
    0.16689E-07         0.14901E-19         0.00000E+00
    0.16497E-07         0.18626E-19         0.00000E+00
    0.16339E-07         0.12826E-19         0.00000E+00
    0.16217E-07         0.26077E-19         0.00000E+00
    0.16129E-07         0.78958E-20         0.00000E+00
    0.16076E-07         0.24214E-19         0.00000E+00
    0.16057E-07         0.78681E-20         0.00000E+00
    0.16073E-07         0.24214E-19         0.00000E+00
    0.16122E-07         0.74506E-20         0.00000E+00
    0.16206E-07         0.22181E-19         0.00000E+00
    0.16325E-07         0.13039E-19         0.00000E+00
    0.16479E-07         0.00000E+00         0.00000E+00
    0.16667E-07         0.19624E-19         0.00000E+00
    0.16892E-07        -0.93132E-21         0.00000E+00
    0.17152E-07        -0.18626E-20         0.00000E+00
    0.17449E-07         0.74506E-20         0.00000E+00
    0.17783E-07         0.65559E-20         0.00000E+00
    0.18155E-07         0.71781E-21         0.00000E+00
    0.18566E-07         0.60567E-20         0.00000E+00
    0.19017E-07         0.14172E-19         0.00000E+00
    0.19508E-07         0.20489E-19         0.00000E+00
    0.20040E-07         0.20150E-19         0.00000E+00
    0.20616E-07         0.14901E-19         0.00000E+00
    0.21236E-07         0.20512E-19         0.00000E+00
    0.21900E-07         0.14901E-19         0.00000E+00
    0.22612E-07         0.93132E-20         0.00000E+00
    0.23372E-07         0.44703E-19         0.00000E+00
    0.24182E-07         0.26077E-19         0.00000E+00
    0.25043E-07         0.44703E-19         0.00000E+00
    0.25958E-07         0.30781E-19         0.00000E+00
    0.26928E-07         0.29802E-19         0.00000E+00
    0.27956E-07         0.27940E-19         0.00000E+00
    0.29044E-07         0.74506E-20         0.00000E+00
    0.30193E-07         0.24214E-19         0.00000E+00
    0.31407E-07         0.27940E-19         0.00000E+00
    0.32688E-07         0.12463E-19         0.00000E+00
    0.34039E-07         0.26909E-19         0.00000E+00
    0.35462E-07         0.17695E-19         0.00000E+00
    0.36961E-07         0.23147E-19         0.00000E+00
    0.38539E-07         0.30734E-19         0.00000E+00
    0.40199E-07         0.29802E-19         0.00000E+00
    0.41945E-07         0.23283E-19         0.00000E+00
    0.43781E-07         0.22352E-19         0.00000E+00
    0.45710E-07         0.22495E-19         0.00000E+00
    0.47736E-07         0.31360E-19         0.00000E+00
    0.49865E-07         0.25657E-19         0.00000E+00
    0.52100E-07         0.14901E-19         0.00000E+00
    0.54446E-07         0.20489E-19         0.00000E+00
    0.56908E-07         0.16655E-19         0.00000E+00
    0.59492E-07         0.18626E-19         0.00000E+00
    0.62203E-07         0.43026E-20         0.00000E+00
    0.65047E-07         0.20910E-19         0.00000E+00
    0.68029E-07         0.74506E-20         0.00000E+00
    0.69556E-07         0.27327E-20         0.00000E+00
    0.91678E-07         0.00000E+00         0.00000E+00
    0.89641E-07         0.14901E-19         0.00000E+00
    0.85661E-07         0.39116E-19         0.00000E+00
    0.81864E-07         0.35390E-19         0.00000E+00
    0.78242E-07         0.52154E-19         0.00000E+00
    0.74786E-07         0.89886E-20         0.00000E+00
    0.71491E-07         0.40978E-19         0.00000E+00
    0.68347E-07         0.29802E-19         0.00000E+00
    0.65350E-07         0.30734E-19         0.00000E+00
    0.62492E-07         0.16764E-19         0.00000E+00
    0.59768E-07         0.34432E-19         0.00000E+00
    0.57171E-07         0.35309E-19         0.00000E+00
    0.54697E-07         0.13970E-19         0.00000E+00
    0.52339E-07         0.31665E-19         0.00000E+00
    0.50092E-07         0.93132E-20         0.00000E+00
    0.47953E-07         0.93040E-20         0.00000E+00
    0.45916E-07         0.46566E-20         0.00000E+00
    0.43977E-07         0.24214E-19         0.00000E+00
    0.42132E-07         0.37253E-20         0.00000E+00
    0.40377E-07         0.34728E-19         0.00000E+00
    0.38708E-07         0.18504E-19         0.00000E+00
    0.37121E-07         0.21438E-19         0.00000E+00
    0.35614E-07         0.35727E-20         0.00000E+00
    0.34183E-07         0.26727E-19         0.00000E+00
    0.32825E-07         0.15832E-19         0.00000E+00
    0.31537E-07         0.21014E-19         0.00000E+00
    0.30316E-07         0.11176E-19         0.00000E+00
    0.29160E-07         0.74506E-20         0.00000E+00
    0.28066E-07         0.18626E-20         0.00000E+00
    0.27033E-07         0.74998E-20         0.00000E+00
    0.26056E-07         0.72057E-20         0.00000E+00
    0.25136E-07         0.16764E-19         0.00000E+00
    0.24269E-07         0.17695E-19         0.00000E+00
    0.23454E-07         0.16623E-19         0.00000E+00
    0.22689E-07         0.37253E-20         0.00000E+00
    0.21972E-07         0.17888E-19         0.00000E+00
    0.21303E-07         0.24214E-19         0.00000E+00
    0.20678E-07         0.22352E-19         0.00000E+00
    0.20098E-07         0.95907E-20         0.00000E+00
    0.19561E-07         0.74506E-20         0.00000E+00
    0.19066E-07         0.93214E-20         0.00000E+00
    0.18611E-07         0.22352E-19         0.00000E+00
    0.18196E-07         0.37253E-19         0.00000E+00
    0.17820E-07         0.50664E-20         0.00000E+00
    0.17482E-07         0.11570E-19         0.00000E+00
    0.17181E-07         0.46566E-20         0.00000E+00
    0.16917E-07         0.75958E-20         0.00000E+00
    0.16689E-07         0.24161E-22         0.00000E+00
    0.16497E-07         0.55879E-20         0.00000E+00
    0.16339E-07         0.14901E-19         0.00000E+00
    0.16217E-07         0.11176E-19         0.00000E+00
    0.16129E-07         0.33528E-19         0.00000E+00
    0.16076E-07         0.20489E-19         0.00000E+00
    0.16057E-07         0.15415E-19         0.00000E+00
    0.16073E-07         0.13039E-19         0.00000E+00
    0.16122E-07         0.13039E-19         0.00000E+00
    0.16206E-07         0.16935E-19         0.00000E+00
    0.16325E-07         0.23283E-19         0.00000E+00
    0.16479E-07         0.10876E-19         0.00000E+00
    0.16667E-07         0.22352E-19         0.00000E+00
    0.16892E-07         0.11938E-19         0.00000E+00
    0.17152E-07        -0.37253E-20         0.00000E+00
    0.17449E-07         0.37253E-20         0.00000E+00
    0.17783E-07         0.74506E-20         0.00000E+00
    0.18155E-07        -0.35118E-20         0.00000E+00
    0.18566E-07         0.55879E-20         0.00000E+00
    0.19017E-07         0.12837E-19         0.00000E+00
    0.19508E-07         0.27940E-19         0.00000E+00
    0.20040E-07         0.10583E-19         0.00000E+00
    0.20616E-07         0.11176E-19         0.00000E+00
    0.21236E-07         0.16764E-19         0.00000E+00
    0.21900E-07         0.12107E-19         0.00000E+00
    0.22612E-07         0.18626E-19         0.00000E+00
    0.23372E-07         0.42841E-19         0.00000E+00
    0.24182E-07         0.40047E-19         0.00000E+00
    0.25043E-07         0.44703E-19         0.00000E+00
    0.25958E-07         0.36322E-19         0.00000E+00
    0.26928E-07         0.37253E-19         0.00000E+00
    0.27956E-07         0.26077E-19         0.00000E+00
    0.29044E-07         0.26077E-19         0.00000E+00
    0.30193E-07         0.20489E-19         0.00000E+00
    0.31407E-07         0.42979E-19         0.00000E+00
    0.32688E-07         0.24790E-19         0.00000E+00
    0.34039E-07         0.30734E-19         0.00000E+00
    0.35462E-07         0.28513E-19         0.00000E+00
    0.36961E-07         0.25146E-19         0.00000E+00
    0.38539E-07         0.33246E-19         0.00000E+00
    0.40199E-07         0.30057E-19         0.00000E+00
    0.41945E-07         0.21538E-19         0.00000E+00
    0.43781E-07         0.23283E-19         0.00000E+00
    0.45710E-07         0.33528E-19         0.00000E+00
    0.47736E-07         0.29023E-19         0.00000E+00
    0.49865E-07         0.20909E-19         0.00000E+00
    0.52100E-07         0.28871E-19         0.00000E+00
    0.54446E-07         0.26011E-19         0.00000E+00
    0.56908E-07         0.20489E-19         0.00000E+00
    0.59492E-07         0.93132E-20         0.00000E+00
    0.62203E-07         0.12461E-19         0.00000E+00
    0.65047E-07         0.16764E-19         0.00000E+00
    0.68029E-07         0.00000E+00         0.00000E+00
    0.69556E-07        -0.27327E-20         0.00000E+00
    0.91678E-07         0.00000E+00         0.00000E+00
    0.89641E-07         0.29494E-19         0.00000E+00
    0.85661E-07         0.21694E-19         0.00000E+00
    0.81864E-07         0.28636E-19         0.00000E+00
    0.78242E-07         0.65588E-19         0.00000E+00
    0.74786E-07         0.20814E-19         0.00000E+00
    0.71491E-07         0.23958E-19         0.00000E+00
    0.68347E-07         0.59605E-19         0.00000E+00
    0.65350E-07         0.18886E-19         0.00000E+00
    0.62492E-07         0.35390E-19         0.00000E+00
    0.59768E-07         0.24242E-19         0.00000E+00
    0.57171E-07         0.35390E-19         0.00000E+00
    0.54697E-07         0.33713E-19         0.00000E+00
    0.52339E-07         0.22352E-19         0.00000E+00
    0.50092E-07         0.93132E-20         0.00000E+00
    0.47953E-07         0.13048E-19         0.00000E+00
    0.45916E-07         0.16581E-19         0.00000E+00
    0.43977E-07         0.65193E-20         0.00000E+00
    0.42132E-07         0.37253E-20         0.00000E+00
    0.40377E-07         0.11838E-19         0.00000E+00
    0.38708E-07         0.15955E-19         0.00000E+00
    0.37121E-07         0.55879E-20         0.00000E+00
    0.35614E-07         0.00000E+00         0.00000E+00
    0.34183E-07         0.20489E-19         0.00000E+00
    0.32825E-07         0.11582E-19         0.00000E+00
    0.31537E-07         0.13039E-19         0.00000E+00
    0.30316E-07         0.18626E-19         0.00000E+00
    0.29160E-07        -0.18626E-20         0.00000E+00
    0.28066E-07        -0.11176E-19         0.00000E+00
    0.27033E-07        -0.13088E-19         0.00000E+00
    0.26056E-07         0.21075E-20         0.00000E+00
    0.25136E-07         0.74506E-20         0.00000E+00
    0.24269E-07         0.77668E-20         0.00000E+00
    0.23454E-07         0.14111E-19         0.00000E+00
    0.22689E-07        -0.14901E-19         0.00000E+00
    0.21972E-07         0.24214E-19         0.00000E+00
    0.21303E-07         0.18626E-19         0.00000E+00
    0.20678E-07         0.14901E-19         0.00000E+00
    0.20098E-07        -0.49341E-20         0.00000E+00
    0.19561E-07         0.83819E-20         0.00000E+00
    0.19066E-07         0.11176E-19         0.00000E+00
    0.18611E-07         0.24214E-19         0.00000E+00
    0.18196E-07         0.29802E-19         0.00000E+00
    0.17820E-07        -0.15311E-19         0.00000E+00
    0.17482E-07         0.16908E-19         0.00000E+00
    0.17181E-07        -0.43883E-20         0.00000E+00
    0.16917E-07        -0.18626E-20         0.00000E+00
    0.16689E-07        -0.83819E-20         0.00000E+00
    0.16497E-07         0.17675E-20         0.00000E+00
    0.16339E-07         0.55879E-20         0.00000E+00
    0.16217E-07         0.93132E-20         0.00000E+00
    0.16129E-07         0.24660E-19         0.00000E+00
    0.16076E-07         0.16764E-19         0.00000E+00
    0.16057E-07         0.21420E-19         0.00000E+00
    0.16073E-07         0.13039E-19         0.00000E+00
    0.16122E-07         0.22352E-19         0.00000E+00
    0.16206E-07         0.63481E-20         0.00000E+00
    0.16325E-07         0.13439E-19         0.00000E+00
    0.16479E-07         0.77501E-20         0.00000E+00
    0.16667E-07         0.93132E-20         0.00000E+00
    0.16892E-07        -0.16938E-20         0.00000E+00
    0.17152E-07        -0.20489E-19         0.00000E+00
    0.17449E-07        -0.93132E-20         0.00000E+00
    0.17783E-07        -0.74873E-20         0.00000E+00
    0.18155E-07         0.00000E+00         0.00000E+00
    0.18566E-07         0.00000E+00         0.00000E+00
    0.19017E-07         0.20181E-21         0.00000E+00
    0.19508E-07         0.93132E-20         0.00000E+00
    0.20040E-07         0.46566E-20         0.00000E+00
    0.20616E-07        -0.96250E-20         0.00000E+00
    0.21236E-07        -0.18626E-20         0.00000E+00
    0.21900E-07         0.43825E-20         0.00000E+00
    0.22612E-07         0.13039E-19         0.00000E+00
    0.23372E-07         0.27940E-19         0.00000E+00
    0.24182E-07         0.43480E-19         0.00000E+00
    0.25043E-07         0.31665E-19         0.00000E+00
    0.25958E-07         0.39163E-19         0.00000E+00
    0.26928E-07         0.31665E-19         0.00000E+00
    0.27956E-07         0.27940E-19         0.00000E+00
    0.29044E-07         0.20489E-19         0.00000E+00
    0.30193E-07         0.20489E-19         0.00000E+00
    0.31407E-07         0.42841E-19         0.00000E+00
    0.32688E-07         0.30158E-19         0.00000E+00
    0.34039E-07         0.15001E-19         0.00000E+00
    0.35462E-07         0.30160E-19         0.00000E+00
    0.36961E-07         0.40182E-19         0.00000E+00
    0.38539E-07         0.28221E-19         0.00000E+00
    0.40199E-07         0.31410E-19         0.00000E+00
    0.41945E-07         0.10010E-19         0.00000E+00
    0.43781E-07         0.18160E-19         0.00000E+00
    0.45710E-07         0.20346E-19         0.00000E+00
    0.47736E-07         0.11176E-19         0.00000E+00
    0.49865E-07         0.13039E-19         0.00000E+00
    0.52100E-07         0.29256E-19         0.00000E+00
    0.54446E-07         0.20489E-19         0.00000E+00
    0.56908E-07         0.22352E-19         0.00000E+00
    0.59492E-07         0.21120E-20         0.00000E+00
    0.62203E-07         0.10822E-19         0.00000E+00
    0.65047E-07         0.13039E-19         0.00000E+00
    0.68029E-07         0.00000E+00         0.00000E+00
    0.69556E-07         0.00000E+00         0.00000E+00
    0.91678E-07         0.00000E+00         0.00000E+00
    0.89641E-07         0.39424E-19         0.00000E+00
    0.85661E-07        -0.49306E-20         0.00000E+00
    0.81864E-07         0.33998E-19         0.00000E+00
    0.78242E-07         0.83423E-19         0.00000E+00
    0.74786E-07         0.55879E-19         0.00000E+00
    0.71491E-07         0.34041E-19         0.00000E+00
    0.68347E-07         0.54017E-19         0.00000E+00
    0.65350E-07         0.20230E-19         0.00000E+00
    0.62492E-07         0.22352E-19         0.00000E+00
    0.59768E-07         0.20489E-19         0.00000E+00
    0.57171E-07         0.40978E-19         0.00000E+00
    0.54697E-07         0.23844E-19         0.00000E+00
    0.52339E-07         0.20489E-19         0.00000E+00
    0.50092E-07         0.18626E-19         0.00000E+00
    0.47953E-07         0.14901E-19         0.00000E+00
    0.45916E-07         0.28123E-19         0.00000E+00
    0.43977E-07        -0.52380E-20         0.00000E+00
    0.42132E-07         0.37253E-20         0.00000E+00
    0.40377E-07         0.19558E-19         0.00000E+00
    0.38708E-07         0.16764E-19         0.00000E+00
    0.37121E-07         0.46566E-20         0.00000E+00
    0.35614E-07         0.74506E-20         0.00000E+00
    0.34183E-07         0.10245E-19         0.00000E+00
    0.32825E-07         0.12227E-19         0.00000E+00
    0.31537E-07         0.74506E-20         0.00000E+00
    0.30316E-07         0.26077E-19         0.00000E+00
    0.29160E-07        -0.11176E-19         0.00000E+00
    0.28066E-07        -0.93132E-20         0.00000E+00
    0.27033E-07        -0.36761E-20         0.00000E+00
    0.26056E-07         0.74506E-20         0.00000E+00
    0.25136E-07         0.93132E-20         0.00000E+00
    0.24269E-07         0.62031E-20         0.00000E+00
    0.23454E-07         0.00000E+00         0.00000E+00
    0.22689E-07        -0.18340E-20         0.00000E+00
    0.21972E-07         0.26077E-19         0.00000E+00
    0.21303E-07         0.16764E-19         0.00000E+00
    0.20678E-07         0.11176E-19         0.00000E+00
    0.20098E-07         0.46566E-20         0.00000E+00
    0.19561E-07         0.31532E-19         0.00000E+00
    0.19066E-07         0.93132E-20         0.00000E+00
    0.18611E-07         0.33528E-19         0.00000E+00
    0.18196E-07         0.30734E-19         0.00000E+00
    0.17820E-07         0.22724E-20         0.00000E+00
    0.17482E-07         0.39367E-21         0.00000E+00
    0.17181E-07        -0.18626E-19         0.00000E+00
    0.16917E-07         0.46566E-20         0.00000E+00
    0.16689E-07        -0.24161E-22         0.00000E+00
    0.16497E-07        -0.37253E-20         0.00000E+00
    0.16339E-07         0.26077E-19         0.00000E+00
    0.16217E-07         0.11176E-19         0.00000E+00
    0.16129E-07         0.23769E-19         0.00000E+00
    0.16076E-07         0.37253E-20         0.00000E+00
    0.16057E-07         0.23701E-19         0.00000E+00
    0.16073E-07         0.16764E-19         0.00000E+00
    0.16122E-07         0.14901E-19         0.00000E+00
    0.16206E-07         0.55879E-20         0.00000E+00
    0.16325E-07         0.15432E-19         0.00000E+00
    0.16479E-07        -0.77501E-20         0.00000E+00
    0.16667E-07        -0.93132E-20         0.00000E+00
    0.16892E-07         0.83819E-20         0.00000E+00
    0.17152E-07        -0.13039E-19         0.00000E+00
    0.17449E-07        -0.55879E-20         0.00000E+00
    0.17783E-07        -0.74506E-20         0.00000E+00
    0.18155E-07        -0.93132E-20         0.00000E+00
    0.18566E-07         0.74506E-20         0.00000E+00
    0.19017E-07        -0.18626E-20         0.00000E+00
    0.19508E-07        -0.37253E-20         0.00000E+00
    0.20040E-07         0.24807E-19         0.00000E+00
    0.20616E-07        -0.83819E-20         0.00000E+00
    0.21236E-07         0.74275E-20         0.00000E+00
    0.21900E-07         0.55879E-20         0.00000E+00
    0.22612E-07         0.18626E-19         0.00000E+00
    0.23372E-07         0.40978E-19         0.00000E+00
    0.24182E-07         0.24798E-19         0.00000E+00
    0.25043E-07         0.20489E-19         0.00000E+00
    0.25958E-07         0.41862E-19         0.00000E+00
    0.26928E-07         0.28871E-19         0.00000E+00
    0.27956E-07         0.27940E-19         0.00000E+00
    0.29044E-07         0.18626E-19         0.00000E+00
    0.30193E-07         0.20207E-19         0.00000E+00
    0.31407E-07         0.29664E-19         0.00000E+00
    0.32688E-07         0.24214E-19         0.00000E+00
    0.34039E-07         0.82824E-20         0.00000E+00
    0.35462E-07         0.27940E-19         0.00000E+00
    0.36961E-07         0.40978E-19         0.00000E+00
    0.38539E-07         0.30452E-19         0.00000E+00
    0.40199E-07         0.22607E-19         0.00000E+00
    0.41945E-07         0.15019E-19         0.00000E+00
    0.43781E-07         0.13039E-19         0.00000E+00
    0.45710E-07         0.13039E-19         0.00000E+00
    0.47736E-07         0.14901E-19         0.00000E+00
    0.49865E-07         0.37253E-19         0.00000E+00
    0.52100E-07         0.18241E-19         0.00000E+00
    0.54446E-07         0.18692E-19         0.00000E+00
    0.56908E-07         0.12107E-19         0.00000E+00
    0.59492E-07         0.18626E-20         0.00000E+00
    0.62203E-07         0.11530E-19         0.00000E+00
    0.65047E-07         0.37253E-20         0.00000E+00
    0.68029E-07        -0.27940E-20         0.00000E+00
    0.69556E-07         0.00000E+00         0.00000E+00
    0.91678E-07         0.00000E+00         0.00000E+00
    0.89641E-07         0.20181E-19         0.00000E+00
    0.85661E-07         0.29145E-19         0.00000E+00
    0.81864E-07         0.37949E-19         0.00000E+00
    0.78242E-07         0.35786E-19         0.00000E+00
    0.74786E-07         0.74506E-19         0.00000E+00
    0.71491E-07         0.36065E-19         0.00000E+00
    0.68347E-07         0.37253E-19         0.00000E+00
    0.65350E-07         0.24474E-19         0.00000E+00
    0.62492E-07         0.40978E-19         0.00000E+00
    0.59768E-07         0.40978E-19         0.00000E+00
    0.57171E-07         0.37253E-19         0.00000E+00
    0.54697E-07         0.25331E-19         0.00000E+00
    0.52339E-07         0.35390E-19         0.00000E+00
    0.50092E-07         0.55879E-20         0.00000E+00
    0.47953E-07         0.18534E-20         0.00000E+00
    0.45916E-07         0.18443E-19         0.00000E+00
    0.43977E-07        -0.14320E-19         0.00000E+00
    0.42132E-07         0.14901E-19         0.00000E+00
    0.40377E-07         0.24483E-19         0.00000E+00
    0.38708E-07         0.11176E-19         0.00000E+00
    0.37121E-07         0.14883E-19         0.00000E+00
    0.35614E-07         0.22352E-19         0.00000E+00
    0.34183E-07         0.99628E-20         0.00000E+00
    0.32825E-07         0.25551E-19         0.00000E+00
    0.31537E-07         0.93132E-20         0.00000E+00
    0.30316E-07         0.20489E-19         0.00000E+00
    0.29160E-07        -0.74506E-20         0.00000E+00
    0.28066E-07        -0.74506E-20         0.00000E+00
    0.27033E-07         0.18135E-20         0.00000E+00
    0.26056E-07        -0.21075E-20         0.00000E+00
    0.25136E-07         0.74506E-20         0.00000E+00
    0.24269E-07         0.18011E-19         0.00000E+00
    0.23454E-07        -0.17219E-20         0.00000E+00
    0.22689E-07         0.18598E-19         0.00000E+00
    0.21972E-07         0.11915E-19         0.00000E+00
    0.21303E-07         0.18626E-19         0.00000E+00
    0.20678E-07         0.93132E-20         0.00000E+00
    0.20098E-07         0.21698E-19         0.00000E+00
    0.19561E-07         0.30866E-19         0.00000E+00
    0.19066E-07         0.20481E-19         0.00000E+00
    0.18611E-07         0.18626E-19         0.00000E+00
    0.18196E-07         0.28592E-19         0.00000E+00
    0.17820E-07         0.12629E-19         0.00000E+00
    0.17482E-07         0.69129E-20         0.00000E+00
    0.17181E-07        -0.10245E-19         0.00000E+00
    0.16917E-07         0.85271E-20         0.00000E+00
    0.16689E-07         0.12131E-19         0.00000E+00
    0.16497E-07        -0.82867E-20         0.00000E+00
    0.16339E-07         0.27940E-19         0.00000E+00
    0.16217E-07         0.23885E-19         0.00000E+00
    0.16129E-07         0.11176E-19         0.00000E+00
    0.16076E-07         0.93132E-20         0.00000E+00
    0.16057E-07         0.28967E-19         0.00000E+00
    0.16073E-07         0.93132E-20         0.00000E+00
    0.16122E-07         0.00000E+00         0.00000E+00
    0.16206E-07         0.13039E-19         0.00000E+00
    0.16325E-07         0.74506E-20         0.00000E+00
    0.16479E-07        -0.15631E-20         0.00000E+00
    0.16667E-07        -0.13970E-19         0.00000E+00
    0.16892E-07         0.26251E-20         0.00000E+00
    0.17152E-07         0.74506E-20         0.00000E+00
    0.17449E-07         0.58703E-20         0.00000E+00
    0.17783E-07        -0.55879E-20         0.00000E+00
    0.18155E-07        -0.11176E-19         0.00000E+00
    0.18566E-07         0.14432E-19         0.00000E+00
    0.19017E-07         0.55879E-20         0.00000E+00
    0.19508E-07         0.55879E-20         0.00000E+00
    0.20040E-07         0.22352E-19         0.00000E+00
    0.20616E-07         0.36633E-19         0.00000E+00
    0.21236E-07         0.15856E-19         0.00000E+00
    0.21900E-07         0.13970E-19         0.00000E+00
    0.22612E-07         0.28291E-19         0.00000E+00
    0.23372E-07         0.42841E-19         0.00000E+00
    0.24182E-07         0.17403E-19         0.00000E+00
    0.25043E-07         0.11478E-19         0.00000E+00
    0.25958E-07         0.31665E-19         0.00000E+00
    0.26928E-07         0.35912E-19         0.00000E+00
    0.27956E-07         0.20489E-19         0.00000E+00
    0.29044E-07         0.65193E-20         0.00000E+00
    0.30193E-07         0.27291E-19         0.00000E+00
    0.31407E-07         0.16764E-19         0.00000E+00
    0.32688E-07         0.37253E-19         0.00000E+00
    0.34039E-07         0.11176E-19         0.00000E+00
    0.35462E-07         0.18984E-19         0.00000E+00
    0.36961E-07         0.32596E-19         0.00000E+00
    0.38539E-07         0.28221E-19         0.00000E+00
    0.40199E-07         0.24636E-19         0.00000E+00
    0.41945E-07         0.27126E-19         0.00000E+00
    0.43781E-07         0.27940E-19         0.00000E+00
    0.45710E-07         0.17695E-19         0.00000E+00
    0.47736E-07         0.32444E-19         0.00000E+00
    0.49865E-07         0.33948E-19         0.00000E+00
    0.52100E-07         0.55879E-20         0.00000E+00
    0.54446E-07         0.22286E-19         0.00000E+00
    0.56908E-07         0.48742E-20         0.00000E+00
    0.59492E-07         0.99952E-20         0.00000E+00
    0.62203E-07         0.11176E-19         0.00000E+00
    0.65047E-07        -0.11176E-19         0.00000E+00
    0.68029E-07         0.16281E-19         0.00000E+00
    0.69556E-07         0.00000E+00         0.00000E+00
    0.91678E-07         0.00000E+00         0.00000E+00
    0.89641E-07         0.26385E-19         0.00000E+00
    0.85661E-07         0.49086E-19         0.00000E+00
    0.81864E-07         0.60301E-19         0.00000E+00
    0.78242E-07        -0.78463E-20         0.00000E+00
    0.74786E-07         0.54017E-19         0.00000E+00
    0.71491E-07         0.36996E-19         0.00000E+00
    0.68347E-07         0.33528E-19         0.00000E+00
    0.65350E-07         0.47238E-19         0.00000E+00
    0.62492E-07         0.67055E-19         0.00000E+00
    0.59768E-07         0.16764E-19         0.00000E+00
    0.57171E-07         0.24214E-19         0.00000E+00
    0.54697E-07         0.26262E-19         0.00000E+00
    0.52339E-07         0.35390E-19         0.00000E+00
    0.50092E-07         0.74506E-20         0.00000E+00
    0.47953E-07        -0.11167E-19         0.00000E+00
    0.45916E-07         0.16016E-19         0.00000E+00
    0.43977E-07        -0.13970E-19         0.00000E+00
    0.42132E-07         0.22352E-19         0.00000E+00
    0.40377E-07         0.13701E-19         0.00000E+00
    0.38708E-07         0.74506E-20         0.00000E+00
    0.37121E-07         0.21438E-19         0.00000E+00
    0.35614E-07         0.20489E-19         0.00000E+00
    0.34183E-07         0.24262E-20         0.00000E+00
    0.32825E-07         0.14376E-19         0.00000E+00
    0.31537E-07         0.10245E-19         0.00000E+00
    0.30316E-07         0.74506E-20         0.00000E+00
    0.29160E-07        -0.55879E-20         0.00000E+00
    0.28066E-07        -0.14901E-19         0.00000E+00
    0.27033E-07         0.18626E-20         0.00000E+00
    0.26056E-07        -0.53431E-20         0.00000E+00
    0.25136E-07        -0.18626E-20         0.00000E+00
    0.24269E-07         0.19242E-19         0.00000E+00
    0.23454E-07         0.35845E-20         0.00000E+00
    0.22689E-07         0.93132E-20         0.00000E+00
    0.21972E-07         0.29865E-20         0.00000E+00
    0.21303E-07         0.11176E-19         0.00000E+00
    0.20678E-07         0.93132E-20         0.00000E+00
    0.20098E-07         0.90357E-20         0.00000E+00
    0.19561E-07         0.14901E-19         0.00000E+00
    0.19066E-07         0.42833E-19         0.00000E+00
    0.18611E-07        -0.54426E-20         0.00000E+00
    0.18196E-07         0.13318E-19         0.00000E+00
    0.17820E-07         0.93132E-20         0.00000E+00
    0.17482E-07         0.83819E-20         0.00000E+00
    0.17181E-07         0.11444E-19         0.00000E+00
    0.16917E-07         0.93132E-21         0.00000E+00
    0.16689E-07         0.74747E-20         0.00000E+00
    0.16497E-07        -0.11366E-19         0.00000E+00
    0.16339E-07         0.74506E-20         0.00000E+00
    0.16217E-07         0.77802E-20         0.00000E+00
    0.16129E-07         0.00000E+00         0.00000E+00
    0.16076E-07         0.11176E-19         0.00000E+00
    0.16057E-07         0.19975E-19         0.00000E+00
    0.16073E-07        -0.18626E-20         0.00000E+00
    0.16122E-07         0.93132E-20         0.00000E+00
    0.16206E-07         0.00000E+00         0.00000E+00
    0.16325E-07         0.27940E-20         0.00000E+00
    0.16479E-07        -0.55879E-20         0.00000E+00
    0.16667E-07        -0.19624E-19         0.00000E+00
    0.16892E-07        -0.23114E-19         0.00000E+00
    0.17152E-07        -0.18626E-20         0.00000E+00
    0.17449E-07         0.90308E-20         0.00000E+00
    0.17783E-07        -0.16764E-19         0.00000E+00
    0.18155E-07        -0.93132E-20         0.00000E+00
    0.18566E-07         0.97820E-20         0.00000E+00
    0.19017E-07         0.93132E-20         0.00000E+00
    0.19508E-07        -0.18626E-20         0.00000E+00
    0.20040E-07         0.23283E-19         0.00000E+00
    0.20616E-07         0.37253E-19         0.00000E+00
    0.21236E-07         0.15809E-19         0.00000E+00
    0.21900E-07         0.16107E-19         0.00000E+00
    0.22612E-07         0.29451E-19         0.00000E+00
    0.23372E-07         0.22352E-19         0.00000E+00
    0.24182E-07         0.18626E-19         0.00000E+00
    0.25043E-07        -0.30177E-21         0.00000E+00
    0.25958E-07         0.27940E-19         0.00000E+00
    0.26928E-07         0.30212E-19         0.00000E+00
    0.27956E-07         0.24214E-19         0.00000E+00
    0.29044E-07         0.53439E-20         0.00000E+00
    0.30193E-07         0.34741E-19         0.00000E+00
    0.31407E-07         0.74506E-20         0.00000E+00
    0.32688E-07         0.25146E-19         0.00000E+00
    0.34039E-07         0.17695E-19         0.00000E+00
    0.35462E-07         0.25719E-19         0.00000E+00
    0.36961E-07         0.30598E-19         0.00000E+00
    0.38539E-07         0.40978E-19         0.00000E+00
    0.40199E-07         0.18626E-19         0.00000E+00
    0.41945E-07         0.20489E-19         0.00000E+00
    0.43781E-07         0.40978E-19         0.00000E+00
    0.45710E-07         0.20346E-19         0.00000E+00
    0.47736E-07         0.32901E-19         0.00000E+00
    0.49865E-07         0.17695E-19         0.00000E+00
    0.52100E-07         0.14355E-19         0.00000E+00
    0.54446E-07         0.14835E-19         0.00000E+00
    0.56908E-07         0.93132E-20         0.00000E+00
    0.59492E-07         0.20056E-19         0.00000E+00
    0.62203E-07         0.14901E-19         0.00000E+00
    0.65047E-07         0.00000E+00         0.00000E+00
    0.68029E-07         0.32765E-20         0.00000E+00
    0.69556E-07         0.00000E+00         0.00000E+00
    0.91678E-07         0.00000E+00         0.00000E+00
    0.89641E-07         0.33528E-19         0.00000E+00
    0.85661E-07         0.44703E-19         0.00000E+00
    0.81864E-07         0.63330E-19         0.00000E+00
    0.78242E-07         0.20489E-19         0.00000E+00
    0.74786E-07         0.40978E-19         0.00000E+00
    0.71491E-07         0.74506E-19         0.00000E+00
    0.68347E-07         0.22352E-19         0.00000E+00
    0.65350E-07         0.52154E-19         0.00000E+00
    0.62492E-07         0.35390E-19         0.00000E+00
    0.59768E-07         0.40978E-19         0.00000E+00
    0.57171E-07         0.81215E-22         0.00000E+00
    0.54697E-07         0.31665E-19         0.00000E+00
    0.52339E-07         0.35390E-19         0.00000E+00
    0.50092E-07         0.18626E-19         0.00000E+00
    0.47953E-07         0.18617E-19         0.00000E+00
    0.45916E-07        -0.37253E-20         0.00000E+00
    0.43977E-07        -0.15127E-20         0.00000E+00
    0.42132E-07         0.11176E-19         0.00000E+00
    0.40377E-07         0.62504E-20         0.00000E+00
    0.38708E-07         0.16764E-19         0.00000E+00
    0.37121E-07         0.55699E-20         0.00000E+00
    0.35614E-07         0.24367E-19         0.00000E+00
    0.34183E-07        -0.28175E-21         0.00000E+00
    0.32825E-07         0.37253E-20         0.00000E+00
    0.31537E-07        -0.52464E-21         0.00000E+00
    0.30316E-07         0.74506E-20         0.00000E+00
    0.29160E-07         0.80167E-20         0.00000E+00
    0.28066E-07        -0.18626E-19         0.00000E+00
    0.27033E-07         0.56371E-20         0.00000E+00
    0.26056E-07         0.14656E-19         0.00000E+00
    0.25136E-07        -0.19060E-19         0.00000E+00
    0.24269E-07         0.74506E-20         0.00000E+00
    0.23454E-07         0.11176E-19         0.00000E+00
    0.22689E-07         0.74793E-20         0.00000E+00
    0.21972E-07         0.44641E-20         0.00000E+00
    0.21303E-07         0.16764E-19         0.00000E+00
    0.20678E-07         0.55879E-20         0.00000E+00
    0.20098E-07         0.11830E-19         0.00000E+00
    0.19561E-07         0.11176E-19         0.00000E+00
    0.19066E-07         0.22360E-19         0.00000E+00
    0.18611E-07         0.93132E-20         0.00000E+00
    0.18196E-07         0.11176E-19         0.00000E+00
    0.17820E-07        -0.37253E-20         0.00000E+00
    0.17482E-07         0.10753E-20         0.00000E+00
    0.17181E-07         0.34570E-20         0.00000E+00
    0.16917E-07        -0.66645E-20         0.00000E+00
    0.16689E-07         0.11176E-19         0.00000E+00
    0.16497E-07        -0.81916E-20         0.00000E+00
    0.16339E-07         0.13039E-19         0.00000E+00
    0.16217E-07        -0.14901E-19         0.00000E+00
    0.16129E-07         0.41705E-20         0.00000E+00
    0.16076E-07         0.93132E-20         0.00000E+00
    0.16057E-07         0.55879E-20         0.00000E+00
    0.16073E-07         0.37253E-20         0.00000E+00
    0.16122E-07         0.37253E-20         0.00000E+00
    0.16206E-07        -0.37253E-20         0.00000E+00
    0.16325E-07        -0.89124E-20         0.00000E+00
    0.16479E-07        -0.11176E-19         0.00000E+00
    0.16667E-07        -0.17629E-19         0.00000E+00
    0.16892E-07        -0.12276E-19         0.00000E+00
    0.17152E-07        -0.55879E-20         0.00000E+00
    0.17449E-07         0.18626E-20         0.00000E+00
    0.17783E-07        -0.11176E-19         0.00000E+00
    0.18155E-07        -0.11894E-19         0.00000E+00
    0.18566E-07         0.13039E-19         0.00000E+00
    0.19017E-07        -0.18626E-20         0.00000E+00
    0.19508E-07         0.37253E-20         0.00000E+00
    0.20040E-07         0.27347E-19         0.00000E+00
    0.20616E-07         0.34135E-20         0.00000E+00
    0.21236E-07         0.13970E-19         0.00000E+00
    0.21900E-07         0.20489E-19         0.00000E+00
    0.22612E-07         0.39116E-19         0.00000E+00
    0.23372E-07         0.27940E-19         0.00000E+00
    0.24182E-07         0.16764E-19         0.00000E+00
    0.25043E-07         0.13340E-19         0.00000E+00
    0.25958E-07         0.31665E-19         0.00000E+00
    0.26928E-07         0.26077E-19         0.00000E+00
    0.27956E-07         0.33528E-19         0.00000E+00
    0.29044E-07         0.19115E-19         0.00000E+00
    0.30193E-07         0.16481E-19         0.00000E+00
    0.31407E-07         0.24214E-19         0.00000E+00
    0.32688E-07         0.14545E-19         0.00000E+00
    0.34039E-07         0.33627E-19         0.00000E+00
    0.35462E-07         0.27582E-19         0.00000E+00
    0.36961E-07         0.33528E-19         0.00000E+00
    0.38539E-07         0.53085E-19         0.00000E+00
    0.40199E-07         0.77054E-20         0.00000E+00
    0.41945E-07         0.25842E-19         0.00000E+00
    0.43781E-07         0.32596E-19         0.00000E+00
    0.45710E-07         0.21564E-19         0.00000E+00
    0.47736E-07         0.37253E-19         0.00000E+00
    0.49865E-07         0.20069E-19         0.00000E+00
    0.52100E-07         0.24761E-19         0.00000E+00
    0.54446E-07         0.23283E-19         0.00000E+00
    0.56908E-07         0.72330E-20         0.00000E+00
    0.59492E-07         0.21853E-19         0.00000E+00
    0.62203E-07         0.16410E-19         0.00000E+00
    0.65047E-07         0.11176E-19         0.00000E+00
    0.68029E-07        -0.74506E-20         0.00000E+00
    0.69556E-07         0.00000E+00         0.00000E+00
    0.91678E-07         0.00000E+00         0.00000E+00
    0.89641E-07         0.33528E-19         0.00000E+00
    0.85661E-07         0.48429E-19         0.00000E+00
    0.81864E-07         0.33528E-19         0.00000E+00
    0.78242E-07         0.65193E-19         0.00000E+00
    0.74786E-07         0.63330E-19         0.00000E+00
    0.71491E-07         0.57742E-19         0.00000E+00
    0.68347E-07         0.54017E-19         0.00000E+00
    0.65350E-07         0.13039E-19         0.00000E+00
    0.62492E-07         0.35390E-19         0.00000E+00
    0.59768E-07         0.65193E-19         0.00000E+00
    0.57171E-07        -0.17858E-19         0.00000E+00
    0.54697E-07         0.28871E-19         0.00000E+00
    0.52339E-07         0.20489E-19         0.00000E+00
    0.50092E-07         0.18626E-19         0.00000E+00
    0.47953E-07         0.34459E-19         0.00000E+00
    0.45916E-07        -0.16764E-19         0.00000E+00
    0.43977E-07        -0.59379E-20         0.00000E+00
    0.42132E-07        -0.11176E-19         0.00000E+00
    0.40377E-07         0.30629E-20         0.00000E+00
    0.38708E-07         0.11176E-19         0.00000E+00
    0.37121E-07        -0.13039E-19         0.00000E+00
    0.35614E-07         0.14596E-19         0.00000E+00
    0.34183E-07        -0.43749E-20         0.00000E+00
    0.32825E-07         0.15832E-19         0.00000E+00
    0.31537E-07        -0.83819E-20         0.00000E+00
    0.30316E-07         0.00000E+00         0.00000E+00
    0.29160E-07         0.68845E-20         0.00000E+00
    0.28066E-07        -0.18626E-20         0.00000E+00
    0.27033E-07         0.14901E-19         0.00000E+00
    0.26056E-07         0.16764E-19         0.00000E+00
    0.25136E-07        -0.22352E-19         0.00000E+00
    0.24269E-07        -0.18626E-20         0.00000E+00
    0.23454E-07         0.18626E-19         0.00000E+00
    0.22689E-07         0.35362E-19         0.00000E+00
    0.21972E-07        -0.44641E-20         0.00000E+00
    0.21303E-07         0.74506E-20         0.00000E+00
    0.20678E-07         0.11176E-19         0.00000E+00
    0.20098E-07         0.29148E-19         0.00000E+00
    0.19561E-07         0.46566E-20         0.00000E+00
    0.19066E-07        -0.74506E-20         0.00000E+00
    0.18611E-07         0.14901E-19         0.00000E+00
    0.18196E-07         0.53089E-20         0.00000E+00
    0.17820E-07         0.87917E-20         0.00000E+00
    0.17482E-07        -0.57319E-20         0.00000E+00
    0.17181E-07        -0.49249E-20         0.00000E+00
    0.16917E-07        -0.45114E-20         0.00000E+00
    0.16689E-07         0.20465E-19         0.00000E+00
    0.16497E-07        -0.55879E-20         0.00000E+00
    0.16339E-07        -0.55879E-20         0.00000E+00
    0.16217E-07         0.18626E-20         0.00000E+00
    0.16129E-07        -0.23078E-20         0.00000E+00
    0.16076E-07         0.00000E+00         0.00000E+00
    0.16057E-07        -0.18626E-20         0.00000E+00
    0.16073E-07         0.18626E-19         0.00000E+00
    0.16122E-07        -0.11176E-19         0.00000E+00
    0.16206E-07         0.14901E-19         0.00000E+00
    0.16325E-07        -0.13439E-19         0.00000E+00
    0.16479E-07        -0.11176E-19         0.00000E+00
    0.16667E-07        -0.65858E-20         0.00000E+00
    0.16892E-07        -0.27940E-20         0.00000E+00
    0.17152E-07        -0.18626E-20         0.00000E+00
    0.17449E-07        -0.13039E-19         0.00000E+00
    0.17783E-07        -0.55879E-20         0.00000E+00
    0.18155E-07        -0.95267E-20         0.00000E+00
    0.18566E-07         0.14901E-19         0.00000E+00
    0.19017E-07         0.00000E+00         0.00000E+00
    0.19508E-07         0.83819E-20         0.00000E+00
    0.20040E-07         0.74506E-20         0.00000E+00
    0.20616E-07        -0.55879E-20         0.00000E+00
    0.21236E-07         0.12130E-19         0.00000E+00
    0.21900E-07         0.26077E-19         0.00000E+00
    0.22612E-07         0.45054E-19         0.00000E+00
    0.23372E-07         0.37253E-19         0.00000E+00
    0.24182E-07         0.26077E-19         0.00000E+00
    0.25043E-07         0.22050E-19         0.00000E+00
    0.25958E-07         0.40978E-19         0.00000E+00
    0.26928E-07         0.29802E-19         0.00000E+00
    0.27956E-07         0.31665E-19         0.00000E+00
    0.29044E-07         0.16764E-19         0.00000E+00
    0.30193E-07         0.16764E-19         0.00000E+00
    0.31407E-07         0.39116E-19         0.00000E+00
    0.32688E-07         0.17119E-19         0.00000E+00
    0.34039E-07         0.31565E-19         0.00000E+00
    0.35462E-07         0.35390E-19         0.00000E+00
    0.36961E-07         0.38184E-19         0.00000E+00
    0.38539E-07         0.49079E-19         0.00000E+00
    0.40199E-07         0.90585E-20         0.00000E+00
    0.41945E-07         0.30037E-19         0.00000E+00
    0.43781E-07         0.97792E-20         0.00000E+00
    0.45710E-07         0.46710E-19         0.00000E+00
    0.47736E-07         0.26704E-19         0.00000E+00
    0.49865E-07         0.19978E-19         0.00000E+00
    0.52100E-07         0.22079E-19         0.00000E+00
    0.54446E-07         0.38250E-19         0.00000E+00
    0.56908E-07         0.14901E-19         0.00000E+00
    0.59492E-07         0.18626E-19         0.00000E+00
    0.62203E-07         0.12461E-19         0.00000E+00
    0.65047E-07         0.74506E-20         0.00000E+00
    0.68029E-07         0.74506E-20         0.00000E+00
    0.69556E-07        -0.18626E-20         0.00000E+00
    0.91678E-07         0.00000E+00         0.00000E+00
    0.89641E-07         0.29802E-19         0.00000E+00
    0.85661E-07         0.26077E-19         0.00000E+00
    0.81864E-07         0.17460E-19         0.00000E+00
    0.78242E-07         0.81956E-19         0.00000E+00
    0.74786E-07         0.57742E-19         0.00000E+00
    0.71491E-07         0.23958E-19         0.00000E+00
    0.68347E-07         0.78231E-19         0.00000E+00
    0.65350E-07         0.37253E-20         0.00000E+00
    0.62492E-07         0.35390E-19         0.00000E+00
    0.59768E-07         0.42841E-19         0.00000E+00
    0.57171E-07        -0.17814E-20         0.00000E+00
    0.54697E-07         0.19743E-19         0.00000E+00
    0.52339E-07        -0.37253E-20         0.00000E+00
    0.50092E-07         0.33528E-19         0.00000E+00
    0.47953E-07        -0.13961E-19         0.00000E+00
    0.45916E-07        -0.18626E-20         0.00000E+00
    0.43977E-07        -0.22933E-19         0.00000E+00
    0.42132E-07        -0.22352E-19         0.00000E+00
    0.40377E-07         0.74506E-20         0.00000E+00
    0.38708E-07         0.13039E-19         0.00000E+00
    0.37121E-07         0.93132E-21         0.00000E+00
    0.35614E-07         0.38779E-20         0.00000E+00
    0.34183E-07        -0.83819E-20         0.00000E+00
    0.32825E-07        -0.14570E-20         0.00000E+00
    0.31537E-07         0.52464E-21         0.00000E+00
    0.30316E-07        -0.37253E-20         0.00000E+00
    0.29160E-07         0.37253E-20         0.00000E+00
    0.28066E-07         0.22352E-19         0.00000E+00
    0.27033E-07         0.55879E-20         0.00000E+00
    0.26056E-07        -0.34804E-20         0.00000E+00
    0.25136E-07         0.41586E-20         0.00000E+00
    0.24269E-07        -0.20489E-19         0.00000E+00
    0.23454E-07         0.35249E-19         0.00000E+00
    0.22689E-07         0.35419E-19         0.00000E+00
    0.21972E-07        -0.74506E-20         0.00000E+00
    0.21303E-07        -0.11176E-19         0.00000E+00
    0.20678E-07        -0.55879E-20         0.00000E+00
    0.20098E-07         0.74506E-20         0.00000E+00
    0.19561E-07        -0.94459E-20         0.00000E+00
    0.19066E-07        -0.55798E-20         0.00000E+00
    0.18611E-07         0.93132E-20         0.00000E+00
    0.18196E-07        -0.37253E-20         0.00000E+00
    0.17820E-07         0.22873E-19         0.00000E+00
    0.17482E-07        -0.17187E-20         0.00000E+00
    0.17181E-07         0.93132E-21         0.00000E+00
    0.16917E-07        -0.12218E-20         0.00000E+00
    0.16689E-07        -0.13063E-19         0.00000E+00
    0.16497E-07        -0.13039E-19         0.00000E+00
    0.16339E-07        -0.16764E-19         0.00000E+00
    0.16217E-07        -0.18626E-20         0.00000E+00
    0.16129E-07        -0.70054E-20         0.00000E+00
    0.16076E-07        -0.93132E-20         0.00000E+00
    0.16057E-07        -0.12107E-19         0.00000E+00
    0.16073E-07        -0.21483E-20         0.00000E+00
    0.16122E-07        -0.93132E-20         0.00000E+00
    0.16206E-07        -0.93132E-21         0.00000E+00
    0.16325E-07        -0.98438E-20         0.00000E+00
    0.16479E-07        -0.77501E-20         0.00000E+00
    0.16667E-07        -0.13039E-19         0.00000E+00
    0.16892E-07        -0.26840E-19         0.00000E+00
    0.17152E-07        -0.46566E-20         0.00000E+00
    0.17449E-07        -0.20489E-19         0.00000E+00
    0.17783E-07        -0.22352E-19         0.00000E+00
    0.18155E-07        -0.18413E-19         0.00000E+00
    0.18566E-07         0.14001E-20         0.00000E+00
    0.19017E-07        -0.93132E-20         0.00000E+00
    0.19508E-07        -0.45915E-20         0.00000E+00
    0.20040E-07        -0.11176E-19         0.00000E+00
    0.20616E-07        -0.18626E-20         0.00000E+00
    0.21236E-07         0.55649E-20         0.00000E+00
    0.21900E-07         0.33528E-19         0.00000E+00
    0.22612E-07         0.35039E-19         0.00000E+00
    0.23372E-07         0.26077E-19         0.00000E+00
    0.24182E-07         0.40978E-19         0.00000E+00
    0.25043E-07         0.18626E-19         0.00000E+00
    0.25958E-07         0.27940E-19         0.00000E+00
    0.26928E-07         0.20489E-19         0.00000E+00
    0.27956E-07         0.20489E-19         0.00000E+00
    0.29044E-07         0.27008E-19         0.00000E+00
    0.30193E-07         0.15832E-19         0.00000E+00
    0.31407E-07         0.32596E-19         0.00000E+00
    0.32688E-07         0.18271E-19         0.00000E+00
    0.34039E-07         0.26177E-19         0.00000E+00
    0.35462E-07         0.39116E-19         0.00000E+00
    0.36961E-07         0.42045E-19         0.00000E+00
    0.38539E-07         0.30084E-19         0.00000E+00
    0.40199E-07         0.16342E-19         0.00000E+00
    0.41945E-07         0.12804E-19         0.00000E+00
    0.43781E-07         0.12573E-19         0.00000E+00
    0.45710E-07         0.53085E-19         0.00000E+00
    0.47736E-07         0.20641E-19         0.00000E+00
    0.49865E-07         0.18718E-19         0.00000E+00
    0.52100E-07         0.17037E-19         0.00000E+00
    0.54446E-07         0.20555E-19         0.00000E+00
    0.56908E-07         0.39116E-19         0.00000E+00
    0.59492E-07         0.14901E-19         0.00000E+00
    0.62203E-07         0.98905E-20         0.00000E+00
    0.65047E-07         0.22352E-19         0.00000E+00
    0.68029E-07         0.55879E-20         0.00000E+00
    0.69556E-07         0.99261E-21         0.00000E+00
    0.91678E-07         0.00000E+00         0.00000E+00
    0.89641E-07         0.18626E-19         0.00000E+00
    0.85661E-07         0.74506E-20         0.00000E+00
    0.81864E-07         0.34694E-19         0.00000E+00
    0.78242E-07         0.68918E-19         0.00000E+00
    0.74786E-07         0.52154E-19         0.00000E+00
    0.71491E-07         0.11433E-19         0.00000E+00
    0.68347E-07         0.52154E-19         0.00000E+00
    0.65350E-07         0.33528E-19         0.00000E+00
    0.62492E-07         0.18626E-19         0.00000E+00
    0.59768E-07         0.18626E-19         0.00000E+00
    0.57171E-07         0.10326E-19         0.00000E+00
    0.54697E-07         0.91282E-20         0.00000E+00
    0.52339E-07         0.10813E-19         0.00000E+00
    0.50092E-07         0.26077E-19         0.00000E+00
    0.47953E-07        -0.31665E-19         0.00000E+00
    0.45916E-07         0.11176E-19         0.00000E+00
    0.43977E-07        -0.19558E-19         0.00000E+00
    0.42132E-07        -0.14901E-19         0.00000E+00
    0.40377E-07         0.93132E-20         0.00000E+00
    0.38708E-07         0.00000E+00         0.00000E+00
    0.37121E-07         0.26113E-19         0.00000E+00
    0.35614E-07         0.76032E-20         0.00000E+00
    0.34183E-07        -0.16114E-19         0.00000E+00
    0.32825E-07        -0.27414E-19         0.00000E+00
    0.31537E-07        -0.18626E-20         0.00000E+00
    0.30316E-07        -0.12692E-19         0.00000E+00
    0.29160E-07         0.14901E-19         0.00000E+00
    0.28066E-07         0.13039E-19         0.00000E+00
    0.27033E-07        -0.93132E-20         0.00000E+00
    0.26056E-07        -0.24214E-19         0.00000E+00
    0.25136E-07         0.15335E-19         0.00000E+00
    0.24269E-07        -0.33528E-19         0.00000E+00
    0.23454E-07         0.34459E-19         0.00000E+00
    0.22689E-07         0.20489E-19         0.00000E+00
    0.21972E-07        -0.37253E-20         0.00000E+00
    0.21303E-07        -0.74506E-20         0.00000E+00
    0.20678E-07        -0.29802E-19         0.00000E+00
    0.20098E-07        -0.93132E-20         0.00000E+00
    0.19561E-07        -0.21288E-19         0.00000E+00
    0.19066E-07        -0.18626E-19         0.00000E+00
    0.18611E-07         0.37253E-20         0.00000E+00
    0.18196E-07        -0.23004E-19         0.00000E+00
    0.17820E-07         0.54761E-20         0.00000E+00
    0.17482E-07        -0.12107E-19         0.00000E+00
    0.17181E-07        -0.20221E-19         0.00000E+00
    0.16917E-07        -0.55879E-20         0.00000E+00
    0.16689E-07        -0.33528E-19         0.00000E+00
    0.16497E-07        -0.35390E-19         0.00000E+00
    0.16339E-07        -0.20489E-19         0.00000E+00
    0.16217E-07        -0.89836E-20         0.00000E+00
    0.16129E-07        -0.78958E-20         0.00000E+00
    0.16076E-07        -0.37253E-20         0.00000E+00
    0.16057E-07        -0.21003E-19         0.00000E+00
    0.16073E-07        -0.29802E-19         0.00000E+00
    0.16122E-07        -0.26077E-19         0.00000E+00
    0.16206E-07        -0.22181E-19         0.00000E+00
    0.16325E-07        -0.17695E-19         0.00000E+00
    0.16479E-07        -0.74506E-20         0.00000E+00
    0.16667E-07        -0.24214E-19         0.00000E+00
    0.16892E-07        -0.55879E-19         0.00000E+00
    0.17152E-07        -0.10769E-19         0.00000E+00
    0.17449E-07        -0.31665E-19         0.00000E+00
    0.17783E-07        -0.31665E-19         0.00000E+00
    0.18155E-07        -0.16046E-19         0.00000E+00
    0.18566E-07        -0.18164E-19         0.00000E+00
    0.19017E-07        -0.28141E-19         0.00000E+00
    0.19508E-07        -0.27940E-20         0.00000E+00
    0.20040E-07        -0.83819E-20         0.00000E+00
    0.20616E-07         0.74506E-20         0.00000E+00
    0.21236E-07         0.18626E-20         0.00000E+00
    0.21900E-07         0.24214E-19         0.00000E+00
    0.22612E-07         0.18626E-19         0.00000E+00
    0.23372E-07         0.20489E-19         0.00000E+00
    0.24182E-07         0.29802E-19         0.00000E+00
    0.25043E-07         0.20489E-19         0.00000E+00
    0.25958E-07         0.16764E-19         0.00000E+00
    0.26928E-07         0.93132E-20         0.00000E+00
    0.27956E-07         0.14901E-19         0.00000E+00
    0.29044E-07         0.43528E-19         0.00000E+00
    0.30193E-07         0.62368E-20         0.00000E+00
    0.31407E-07         0.28078E-19         0.00000E+00
    0.32688E-07         0.18051E-19         0.00000E+00
    0.34039E-07         0.32497E-19         0.00000E+00
    0.35462E-07         0.26650E-19         0.00000E+00
    0.36961E-07         0.43772E-19         0.00000E+00
    0.38539E-07         0.21789E-19         0.00000E+00
    0.40199E-07         0.27685E-19         0.00000E+00
    0.41945E-07         0.65193E-20         0.00000E+00
    0.43781E-07         0.40978E-19         0.00000E+00
    0.45710E-07         0.25934E-19         0.00000E+00
    0.47736E-07         0.34307E-19         0.00000E+00
    0.49865E-07         0.13039E-19         0.00000E+00
    0.52100E-07         0.27940E-19         0.00000E+00
    0.54446E-07         0.11176E-19         0.00000E+00
    0.56908E-07         0.29802E-19         0.00000E+00
    0.59492E-07         0.18626E-19         0.00000E+00
    0.62203E-07         0.37253E-20         0.00000E+00
    0.65047E-07         0.27940E-19         0.00000E+00
    0.68029E-07        -0.37253E-20         0.00000E+00
    0.69556E-07         0.87004E-21         0.00000E+00
    0.91678E-07         0.00000E+00         0.00000E+00
    0.89641E-07         0.14901E-19         0.00000E+00
    0.85661E-07         0.14901E-19         0.00000E+00
    0.81864E-07         0.74506E-19         0.00000E+00
    0.78242E-07         0.22352E-19         0.00000E+00
    0.74786E-07         0.40978E-19         0.00000E+00
    0.71491E-07         0.29802E-19         0.00000E+00
    0.68347E-07         0.16764E-19         0.00000E+00
    0.65350E-07         0.55879E-19         0.00000E+00
    0.62492E-07        -0.37253E-20         0.00000E+00
    0.59768E-07         0.24214E-19         0.00000E+00
    0.57171E-07         0.11945E-19         0.00000E+00
    0.54697E-07         0.13970E-19         0.00000E+00
    0.52339E-07         0.20852E-19         0.00000E+00
    0.50092E-07         0.14901E-19         0.00000E+00
    0.47953E-07        -0.93132E-21         0.00000E+00
    0.45916E-07         0.13039E-19         0.00000E+00
    0.43977E-07        -0.22126E-20         0.00000E+00
    0.42132E-07        -0.74506E-20         0.00000E+00
    0.40377E-07         0.00000E+00         0.00000E+00
    0.38708E-07        -0.55879E-20         0.00000E+00
    0.37121E-07         0.26972E-19         0.00000E+00
    0.35614E-07         0.14596E-19         0.00000E+00
    0.34183E-07        -0.15832E-19         0.00000E+00
    0.32825E-07        -0.15832E-19         0.00000E+00
    0.31537E-07        -0.93132E-20         0.00000E+00
    0.30316E-07        -0.18973E-19         0.00000E+00
    0.29160E-07         0.18626E-19         0.00000E+00
    0.28066E-07         0.55879E-20         0.00000E+00
    0.27033E-07        -0.24264E-19         0.00000E+00
    0.26056E-07        -0.14901E-19         0.00000E+00
    0.25136E-07         0.14468E-19         0.00000E+00
    0.24269E-07         0.37253E-20         0.00000E+00
    0.23454E-07         0.14111E-19         0.00000E+00
    0.22689E-07         0.20460E-19         0.00000E+00
    0.21972E-07        -0.74506E-20         0.00000E+00
    0.21303E-07         0.00000E+00         0.00000E+00
    0.20678E-07        -0.16764E-19         0.00000E+00
    0.20098E-07        -0.37253E-20         0.00000E+00
    0.19561E-07        -0.74506E-20         0.00000E+00
    0.19066E-07        -0.27940E-19         0.00000E+00
    0.18611E-07        -0.11176E-19         0.00000E+00
    0.18196E-07        -0.86610E-20         0.00000E+00
    0.17820E-07        -0.17509E-20         0.00000E+00
    0.17482E-07        -0.98509E-20         0.00000E+00
    0.17181E-07        -0.31002E-19         0.00000E+00
    0.16917E-07        -0.17695E-19         0.00000E+00
    0.16689E-07        -0.31665E-19         0.00000E+00
    0.16497E-07        -0.29802E-19         0.00000E+00
    0.16339E-07        -0.24214E-19         0.00000E+00
    0.16217E-07         0.15330E-20         0.00000E+00
    0.16129E-07        -0.74506E-20         0.00000E+00
    0.16076E-07        -0.74506E-20         0.00000E+00
    0.16057E-07        -0.27940E-20         0.00000E+00
    0.16073E-07        -0.35105E-19         0.00000E+00
    0.16122E-07        -0.27940E-19         0.00000E+00
    0.16206E-07        -0.16004E-19         0.00000E+00
    0.16325E-07        -0.12508E-19         0.00000E+00
    0.16479E-07        -0.26077E-19         0.00000E+00
    0.16667E-07        -0.37253E-19         0.00000E+00
    0.16892E-07        -0.33528E-19         0.00000E+00
    0.17152E-07        -0.36729E-19         0.00000E+00
    0.17449E-07        -0.29802E-19         0.00000E+00
    0.17783E-07        -0.40978E-19         0.00000E+00
    0.18155E-07        -0.27940E-19         0.00000E+00
    0.18566E-07        -0.27940E-19         0.00000E+00
    0.19017E-07        -0.37051E-19         0.00000E+00
    0.19508E-07        -0.65093E-22         0.00000E+00
    0.20040E-07        -0.17102E-19         0.00000E+00
    0.20616E-07         0.55879E-20         0.00000E+00
    0.21236E-07         0.55879E-20         0.00000E+00
    0.21900E-07        -0.18626E-20         0.00000E+00
    0.22612E-07         0.14901E-19         0.00000E+00
    0.23372E-07         0.14901E-19         0.00000E+00
    0.24182E-07         0.55879E-20         0.00000E+00
    0.25043E-07         0.20489E-19         0.00000E+00
    0.25958E-07         0.20489E-19         0.00000E+00
    0.26928E-07         0.55879E-20         0.00000E+00
    0.27956E-07         0.13039E-19         0.00000E+00
    0.29044E-07         0.46566E-19         0.00000E+00
    0.30193E-07        -0.15801E-20         0.00000E+00
    0.31407E-07         0.15694E-19         0.00000E+00
    0.32688E-07         0.13039E-19         0.00000E+00
    0.34039E-07         0.20489E-19         0.00000E+00
    0.35462E-07         0.19342E-19         0.00000E+00
    0.36961E-07         0.35255E-19         0.00000E+00
    0.38539E-07         0.13601E-19         0.00000E+00
    0.40199E-07         0.20234E-19         0.00000E+00
    0.41945E-07         0.10362E-19         0.00000E+00
    0.43781E-07         0.39116E-19         0.00000E+00
    0.45710E-07         0.15976E-19         0.00000E+00
    0.47736E-07         0.12107E-19         0.00000E+00
    0.49865E-07         0.30734E-19         0.00000E+00
    0.52100E-07         0.14901E-19         0.00000E+00
    0.54446E-07         0.11176E-19         0.00000E+00
    0.56908E-07         0.14901E-19         0.00000E+00
    0.59492E-07         0.18626E-19         0.00000E+00
    0.62203E-07         0.55879E-20         0.00000E+00
    0.65047E-07         0.11176E-19         0.00000E+00
    0.68029E-07        -0.55879E-20         0.00000E+00
    0.69556E-07         0.00000E+00         0.00000E+00
    0.91678E-07         0.00000E+00         0.00000E+00
    0.89641E-07         0.00000E+00         0.00000E+00
    0.85661E-07         0.26077E-19         0.00000E+00
    0.81864E-07         0.81260E-19         0.00000E+00
    0.78242E-07        -0.13039E-19         0.00000E+00
    0.74786E-07         0.40978E-19         0.00000E+00
    0.71491E-07         0.54273E-19         0.00000E+00
    0.68347E-07         0.18626E-19         0.00000E+00
    0.65350E-07         0.48429E-19         0.00000E+00
    0.62492E-07         0.55879E-20         0.00000E+00
    0.59768E-07         0.16764E-19         0.00000E+00
    0.57171E-07         0.84631E-20         0.00000E+00
    0.54697E-07         0.37999E-19         0.00000E+00
    0.52339E-07         0.93132E-20         0.00000E+00
    0.50092E-07         0.22352E-19         0.00000E+00
    0.47953E-07         0.83727E-20         0.00000E+00
    0.45916E-07         0.93132E-20         0.00000E+00
    0.43977E-07         0.18976E-19         0.00000E+00
    0.42132E-07        -0.55879E-20         0.00000E+00
    0.40377E-07        -0.14901E-19         0.00000E+00
    0.38708E-07         0.18626E-20         0.00000E+00
    0.37121E-07         0.22352E-19         0.00000E+00
    0.35614E-07         0.76032E-20         0.00000E+00
    0.34183E-07         0.43749E-20         0.00000E+00
    0.32825E-07        -0.18101E-19         0.00000E+00
    0.31537E-07        -0.14901E-19         0.00000E+00
    0.30316E-07        -0.11176E-19         0.00000E+00
    0.29160E-07         0.24214E-19         0.00000E+00
    0.28066E-07         0.11176E-19         0.00000E+00
    0.27033E-07        -0.13039E-19         0.00000E+00
    0.26056E-07        -0.39701E-20         0.00000E+00
    0.25136E-07         0.18626E-19         0.00000E+00
    0.24269E-07         0.22352E-19         0.00000E+00
    0.23454E-07         0.26077E-19         0.00000E+00
    0.22689E-07         0.14930E-19         0.00000E+00
    0.21972E-07         0.55879E-20         0.00000E+00
    0.21303E-07         0.74506E-20         0.00000E+00
    0.20678E-07         0.74506E-20         0.00000E+00
    0.20098E-07        -0.11176E-19         0.00000E+00
    0.19561E-07         0.55879E-20         0.00000E+00
    0.19066E-07        -0.93214E-20         0.00000E+00
    0.18611E-07        -0.29802E-19         0.00000E+00
    0.18196E-07         0.95923E-20         0.00000E+00
    0.17820E-07        -0.13039E-19         0.00000E+00
    0.17482E-07         0.37253E-20         0.00000E+00
    0.17181E-07        -0.22352E-19         0.00000E+00
    0.16917E-07        -0.17550E-19         0.00000E+00
    0.16689E-07        -0.40978E-19         0.00000E+00
    0.16497E-07        -0.94084E-20         0.00000E+00
    0.16339E-07        -0.13039E-19         0.00000E+00
    0.16217E-07        -0.93132E-20         0.00000E+00
    0.16129E-07         0.18626E-20         0.00000E+00
    0.16076E-07        -0.13039E-19         0.00000E+00
    0.16057E-07        -0.13488E-20         0.00000E+00
    0.16073E-07        -0.35390E-19         0.00000E+00
    0.16122E-07        -0.29802E-19         0.00000E+00
    0.16206E-07        -0.16764E-19         0.00000E+00
    0.16325E-07        -0.14901E-19         0.00000E+00
    0.16479E-07        -0.25778E-19         0.00000E+00
    0.16667E-07        -0.44637E-19         0.00000E+00
    0.16892E-07        -0.12107E-19         0.00000E+00
    0.17152E-07        -0.57742E-19         0.00000E+00
    0.17449E-07        -0.39116E-19         0.00000E+00
    0.17783E-07        -0.39116E-19         0.00000E+00
    0.18155E-07        -0.29802E-19         0.00000E+00
    0.18566E-07        -0.52154E-19         0.00000E+00
    0.19017E-07        -0.11176E-19         0.00000E+00
    0.19508E-07        -0.19493E-19         0.00000E+00
    0.20040E-07        -0.23876E-19         0.00000E+00
    0.20616E-07        -0.18626E-19         0.00000E+00
    0.21236E-07        -0.37253E-20         0.00000E+00
    0.21900E-07        -0.37253E-20         0.00000E+00
    0.22612E-07         0.16764E-19         0.00000E+00
    0.23372E-07        -0.55879E-20         0.00000E+00
    0.24182E-07        -0.18626E-20         0.00000E+00
    0.25043E-07         0.26077E-19         0.00000E+00
    0.25958E-07         0.14901E-19         0.00000E+00
    0.26928E-07         0.00000E+00         0.00000E+00
    0.27956E-07         0.11176E-19         0.00000E+00
    0.29044E-07         0.93132E-20         0.00000E+00
    0.30193E-07        -0.55879E-20         0.00000E+00
    0.31407E-07         0.37253E-20         0.00000E+00
    0.32688E-07         0.18626E-19         0.00000E+00
    0.34039E-07         0.11176E-19         0.00000E+00
    0.35462E-07         0.19200E-19         0.00000E+00
    0.36961E-07         0.17831E-19         0.00000E+00
    0.38539E-07         0.11176E-19         0.00000E+00
    0.40199E-07         0.18626E-19         0.00000E+00
    0.41945E-07         0.37253E-20         0.00000E+00
    0.43781E-07         0.23282E-19         0.00000E+00
    0.45710E-07         0.93132E-20         0.00000E+00
    0.47736E-07        -0.77897E-21         0.00000E+00
    0.49865E-07         0.46055E-19         0.00000E+00
    0.52100E-07         0.20216E-19         0.00000E+00
    0.54446E-07         0.93132E-20         0.00000E+00
    0.56908E-07         0.24214E-19         0.00000E+00
    0.59492E-07         0.11425E-19         0.00000E+00
    0.62203E-07         0.16764E-19         0.00000E+00
    0.65047E-07         0.55879E-20         0.00000E+00
    0.68029E-07         0.74506E-20         0.00000E+00
    0.69556E-07         0.00000E+00         0.00000E+00
    0.91678E-07         0.00000E+00         0.00000E+00
    0.89641E-07         0.11176E-19         0.00000E+00
    0.85661E-07         0.44703E-19         0.00000E+00
    0.81864E-07         0.37253E-19         0.00000E+00
    0.78242E-07         0.11176E-19         0.00000E+00
    0.74786E-07         0.74506E-20         0.00000E+00
    0.71491E-07         0.39116E-19         0.00000E+00
    0.68347E-07         0.33528E-19         0.00000E+00
    0.65350E-07         0.93132E-20         0.00000E+00
    0.62492E-07         0.33528E-19         0.00000E+00
    0.59768E-07        -0.13039E-19         0.00000E+00
    0.57171E-07         0.28871E-19         0.00000E+00
    0.54697E-07         0.14901E-19         0.00000E+00
    0.52339E-07         0.39116E-19         0.00000E+00
    0.50092E-07         0.18626E-20         0.00000E+00
    0.47953E-07         0.18626E-20         0.00000E+00
    0.45916E-07         0.18626E-19         0.00000E+00
    0.43977E-07         0.23864E-19         0.00000E+00
    0.42132E-07         0.22352E-19         0.00000E+00
    0.40377E-07        -0.13039E-19         0.00000E+00
    0.38708E-07        -0.37253E-20         0.00000E+00
    0.37121E-07         0.37253E-19         0.00000E+00
    0.35614E-07        -0.16764E-19         0.00000E+00
    0.34183E-07        -0.93132E-21         0.00000E+00
    0.32825E-07        -0.30734E-19         0.00000E+00
    0.31537E-07        -0.12632E-19         0.00000E+00
    0.30316E-07        -0.20489E-19         0.00000E+00
    0.29160E-07         0.24214E-19         0.00000E+00
    0.28066E-07        -0.74506E-20         0.00000E+00
    0.27033E-07         0.00000E+00         0.00000E+00
    0.26056E-07        -0.20489E-19         0.00000E+00
    0.25136E-07         0.51546E-20         0.00000E+00
    0.24269E-07         0.13039E-19         0.00000E+00
    0.23454E-07         0.93132E-20         0.00000E+00
    0.22689E-07         0.14872E-19         0.00000E+00
    0.21972E-07         0.93132E-20         0.00000E+00
    0.21303E-07         0.14901E-19         0.00000E+00
    0.20678E-07         0.00000E+00         0.00000E+00
    0.20098E-07        -0.11176E-19         0.00000E+00
    0.19561E-07        -0.20489E-19         0.00000E+00
    0.19066E-07        -0.13970E-19         0.00000E+00
    0.18611E-07         0.18626E-20         0.00000E+00
    0.18196E-07         0.18626E-20         0.00000E+00
    0.17820E-07        -0.20489E-19         0.00000E+00
    0.17482E-07        -0.21420E-19         0.00000E+00
    0.17181E-07        -0.30734E-19         0.00000E+00
    0.16917E-07        -0.26077E-19         0.00000E+00
    0.16689E-07        -0.36322E-19         0.00000E+00
    0.16497E-07        -0.93132E-20         0.00000E+00
    0.16339E-07        -0.16764E-19         0.00000E+00
    0.16217E-07        -0.20819E-19         0.00000E+00
    0.16129E-07         0.74506E-20         0.00000E+00
    0.16076E-07        -0.93132E-20         0.00000E+00
    0.16057E-07        -0.13039E-19         0.00000E+00
    0.16073E-07        -0.26077E-19         0.00000E+00
    0.16122E-07        -0.37253E-19         0.00000E+00
    0.16206E-07        -0.29802E-19         0.00000E+00
    0.16325E-07        -0.27940E-19         0.00000E+00
    0.16479E-07        -0.74506E-20         0.00000E+00
    0.16667E-07        -0.29802E-19         0.00000E+00
    0.16892E-07        -0.34628E-19         0.00000E+00
    0.17152E-07        -0.54017E-19         0.00000E+00
    0.17449E-07        -0.36039E-19         0.00000E+00
    0.17783E-07        -0.27940E-19         0.00000E+00
    0.18155E-07        -0.16764E-19         0.00000E+00
    0.18566E-07        -0.50291E-19         0.00000E+00
    0.19017E-07         0.24214E-19         0.00000E+00
    0.19508E-07        -0.18626E-19         0.00000E+00
    0.20040E-07        -0.17102E-19         0.00000E+00
    0.20616E-07        -0.24214E-19         0.00000E+00
    0.21236E-07        -0.93132E-20         0.00000E+00
    0.21900E-07         0.20489E-19         0.00000E+00
    0.22612E-07         0.55879E-20         0.00000E+00
    0.23372E-07        -0.11176E-19         0.00000E+00
    0.24182E-07         0.74506E-20         0.00000E+00
    0.25043E-07         0.14901E-19         0.00000E+00
    0.25958E-07         0.11176E-19         0.00000E+00
    0.26928E-07        -0.37253E-20         0.00000E+00
    0.27956E-07        -0.11176E-19         0.00000E+00
    0.29044E-07        -0.13039E-19         0.00000E+00
    0.30193E-07         0.11176E-19         0.00000E+00
    0.31407E-07         0.00000E+00         0.00000E+00
    0.32688E-07         0.27940E-19         0.00000E+00
    0.34039E-07         0.26077E-19         0.00000E+00
    0.35462E-07         0.16190E-19         0.00000E+00
    0.36961E-07         0.83819E-20         0.00000E+00
    0.38539E-07         0.19558E-19         0.00000E+00
    0.40199E-07         0.33782E-19         0.00000E+00
    0.41945E-07         0.13039E-19         0.00000E+00
    0.43781E-07         0.97792E-20         0.00000E+00
    0.45710E-07         0.93132E-20         0.00000E+00
    0.47736E-07         0.13039E-19         0.00000E+00
    0.49865E-07         0.33528E-19         0.00000E+00
    0.52100E-07         0.21420E-19         0.00000E+00
    0.54446E-07         0.16764E-19         0.00000E+00
    0.56908E-07         0.35499E-19         0.00000E+00
    0.59492E-07         0.14901E-19         0.00000E+00
    0.62203E-07         0.55879E-20         0.00000E+00
    0.65047E-07        -0.37253E-20         0.00000E+00
    0.68029E-07         0.16764E-19         0.00000E+00
    0.69556E-07         0.00000E+00         0.00000E+00
    0.91678E-07         0.00000E+00         0.00000E+00
    0.89641E-07         0.18626E-20         0.00000E+00
    0.85661E-07         0.26077E-19         0.00000E+00
    0.81864E-07         0.11872E-19         0.00000E+00
    0.78242E-07         0.54017E-19         0.00000E+00
    0.74786E-07        -0.22352E-19         0.00000E+00
    0.71491E-07         0.44447E-19         0.00000E+00
    0.68347E-07         0.24214E-19         0.00000E+00
    0.65350E-07         0.25146E-19         0.00000E+00
    0.62492E-07         0.20489E-19         0.00000E+00
    0.59768E-07        -0.93132E-20         0.00000E+00
    0.57171E-07         0.38103E-19         0.00000E+00
    0.54697E-07         0.20477E-20         0.00000E+00
    0.52339E-07         0.44703E-19         0.00000E+00
    0.50092E-07        -0.13039E-19         0.00000E+00
    0.47953E-07         0.18626E-20         0.00000E+00
    0.45916E-07         0.30734E-19         0.00000E+00
    0.43977E-07         0.16182E-19         0.00000E+00
    0.42132E-07         0.42841E-19         0.00000E+00
    0.40377E-07        -0.11176E-19         0.00000E+00
    0.38708E-07        -0.37253E-20         0.00000E+00
    0.37121E-07         0.13057E-19         0.00000E+00
    0.35614E-07         0.72980E-20         0.00000E+00
    0.34183E-07        -0.90315E-20         0.00000E+00
    0.32825E-07        -0.51823E-20         0.00000E+00
    0.31537E-07        -0.16764E-19         0.00000E+00
    0.30316E-07        -0.14901E-19         0.00000E+00
    0.29160E-07        -0.55879E-20         0.00000E+00
    0.28066E-07        -0.13039E-19         0.00000E+00
    0.27033E-07         0.18626E-20         0.00000E+00
    0.26056E-07        -0.13039E-19         0.00000E+00
    0.25136E-07        -0.55879E-20         0.00000E+00
    0.24269E-07         0.12107E-19         0.00000E+00
    0.23454E-07        -0.27940E-20         0.00000E+00
    0.22689E-07         0.74793E-20         0.00000E+00
    0.21972E-07         0.11176E-19         0.00000E+00
    0.21303E-07         0.37253E-20         0.00000E+00
    0.20678E-07        -0.13970E-19         0.00000E+00
    0.20098E-07        -0.74506E-20         0.00000E+00
    0.19561E-07        -0.29802E-19         0.00000E+00
    0.19066E-07        -0.32588E-19         0.00000E+00
    0.18611E-07         0.93132E-20         0.00000E+00
    0.18196E-07        -0.25146E-19         0.00000E+00
    0.17820E-07        -0.21942E-19         0.00000E+00
    0.17482E-07        -0.35928E-19         0.00000E+00
    0.17181E-07        -0.42573E-19         0.00000E+00
    0.16917E-07        -0.31665E-19         0.00000E+00
    0.16689E-07        -0.36297E-19         0.00000E+00
    0.16497E-07        -0.24119E-19         0.00000E+00
    0.16339E-07        -0.22352E-19         0.00000E+00
    0.16217E-07        -0.14572E-19         0.00000E+00
    0.16129E-07        -0.11176E-19         0.00000E+00
    0.16076E-07        -0.18626E-19         0.00000E+00
    0.16057E-07        -0.27940E-19         0.00000E+00
    0.16073E-07        -0.29802E-19         0.00000E+00
    0.16122E-07        -0.44703E-19         0.00000E+00
    0.16206E-07        -0.27940E-19         0.00000E+00
    0.16325E-07        -0.22352E-19         0.00000E+00
    0.16479E-07        -0.93132E-20         0.00000E+00
    0.16667E-07        -0.37253E-19         0.00000E+00
    0.16892E-07        -0.42841E-19         0.00000E+00
    0.17152E-07        -0.38184E-19         0.00000E+00
    0.17449E-07        -0.35673E-19         0.00000E+00
    0.17783E-07        -0.33528E-19         0.00000E+00
    0.18155E-07        -0.16764E-19         0.00000E+00
    0.18566E-07        -0.30265E-19         0.00000E+00
    0.19017E-07         0.15832E-19         0.00000E+00
    0.19508E-07        -0.46566E-20         0.00000E+00
    0.20040E-07        -0.17356E-19         0.00000E+00
    0.20616E-07        -0.12107E-19         0.00000E+00
    0.21236E-07         0.74506E-20         0.00000E+00
    0.21900E-07         0.20489E-19         0.00000E+00
    0.22612E-07         0.37253E-20         0.00000E+00
    0.23372E-07        -0.27940E-20         0.00000E+00
    0.24182E-07        -0.93132E-21         0.00000E+00
    0.25043E-07         0.13039E-19         0.00000E+00
    0.25958E-07         0.37253E-20         0.00000E+00
    0.26928E-07        -0.13039E-19         0.00000E+00
    0.27956E-07        -0.14901E-19         0.00000E+00
    0.29044E-07        -0.93132E-20         0.00000E+00
    0.30193E-07         0.24214E-19         0.00000E+00
    0.31407E-07        -0.18626E-19         0.00000E+00
    0.32688E-07         0.29802E-19         0.00000E+00
    0.34039E-07         0.18626E-19         0.00000E+00
    0.35462E-07         0.10818E-19         0.00000E+00
    0.36961E-07         0.45210E-20         0.00000E+00
    0.38539E-07         0.19276E-19         0.00000E+00
    0.40199E-07         0.29802E-19         0.00000E+00
    0.41945E-07         0.33645E-19         0.00000E+00
    0.43781E-07         0.93132E-21         0.00000E+00
    0.45710E-07         0.26865E-19         0.00000E+00
    0.47736E-07         0.65193E-20         0.00000E+00
    0.49865E-07         0.21420E-19         0.00000E+00
    0.52100E-07         0.19831E-19         0.00000E+00
    0.54446E-07         0.24149E-19         0.00000E+00
    0.56908E-07         0.35390E-19         0.00000E+00
    0.59492E-07         0.12789E-19         0.00000E+00
    0.62203E-07         0.55879E-20         0.00000E+00
    0.65047E-07        -0.74506E-20         0.00000E+00
    0.68029E-07         0.14901E-19         0.00000E+00
    0.69556E-07         0.00000E+00         0.00000E+00
    0.91678E-07         0.00000E+00         0.00000E+00
    0.89641E-07        -0.26385E-19         0.00000E+00
    0.85661E-07        -0.81080E-20         0.00000E+00
    0.81864E-07         0.30969E-19         0.00000E+00
    0.78242E-07         0.43237E-19         0.00000E+00
    0.74786E-07         0.40978E-19         0.00000E+00
    0.71491E-07         0.31922E-19         0.00000E+00
    0.68347E-07         0.44703E-19         0.00000E+00
    0.65350E-07         0.27268E-19         0.00000E+00
    0.62492E-07         0.74506E-20         0.00000E+00
    0.59768E-07         0.74506E-20         0.00000E+00
    0.57171E-07         0.37253E-19         0.00000E+00
    0.54697E-07         0.41724E-19         0.00000E+00
    0.52339E-07         0.18626E-19         0.00000E+00
    0.50092E-07         0.93132E-20         0.00000E+00
    0.47953E-07         0.25146E-19         0.00000E+00
    0.45916E-07         0.11924E-19         0.00000E+00
    0.43977E-07         0.29802E-19         0.00000E+00
    0.42132E-07         0.93132E-20         0.00000E+00
    0.40377E-07        -0.24214E-19         0.00000E+00
    0.38708E-07         0.74506E-20         0.00000E+00
    0.37121E-07        -0.22370E-19         0.00000E+00
    0.35614E-07         0.33528E-19         0.00000E+00
    0.34183E-07        -0.40070E-20         0.00000E+00
    0.32825E-07         0.70449E-20         0.00000E+00
    0.31537E-07        -0.25146E-19         0.00000E+00
    0.30316E-07         0.18626E-20         0.00000E+00
    0.29160E-07        -0.35390E-19         0.00000E+00
    0.28066E-07         0.14901E-19         0.00000E+00
    0.27033E-07         0.37253E-20         0.00000E+00
    0.26056E-07         0.00000E+00         0.00000E+00
    0.25136E-07        -0.10743E-19         0.00000E+00
    0.24269E-07         0.13355E-19         0.00000E+00
    0.23454E-07         0.14077E-21         0.00000E+00
    0.22689E-07        -0.74506E-20         0.00000E+00
    0.21972E-07         0.25885E-19         0.00000E+00
    0.21303E-07         0.37253E-20         0.00000E+00
    0.20678E-07        -0.16337E-19         0.00000E+00
    0.20098E-07        -0.24214E-19         0.00000E+00
    0.19561E-07        -0.74506E-20         0.00000E+00
    0.19066E-07        -0.22360E-19         0.00000E+00
    0.18611E-07        -0.37398E-19         0.00000E+00
    0.18196E-07        -0.44051E-19         0.00000E+00
    0.17820E-07        -0.20899E-19         0.00000E+00
    0.17482E-07        -0.16764E-19         0.00000E+00
    0.17181E-07        -0.48160E-19         0.00000E+00
    0.16917E-07        -0.30588E-19         0.00000E+00
    0.16689E-07        -0.46566E-19         0.00000E+00
    0.16497E-07        -0.40142E-19         0.00000E+00
    0.16339E-07        -0.26077E-19         0.00000E+00
    0.16217E-07        -0.17093E-19         0.00000E+00
    0.16129E-07        -0.40492E-19         0.00000E+00
    0.16076E-07        -0.31665E-19         0.00000E+00
    0.16057E-07        -0.52154E-19         0.00000E+00
    0.16073E-07        -0.33528E-19         0.00000E+00
    0.16122E-07        -0.46566E-19         0.00000E+00
    0.16206E-07        -0.35390E-19         0.00000E+00
    0.16325E-07        -0.11176E-19         0.00000E+00
    0.16479E-07        -0.35390E-19         0.00000E+00
    0.16667E-07        -0.42841E-19         0.00000E+00
    0.16892E-07        -0.50291E-19         0.00000E+00
    0.17152E-07        -0.24622E-19         0.00000E+00
    0.17449E-07        -0.52803E-19         0.00000E+00
    0.17783E-07        -0.26077E-19         0.00000E+00
    0.18155E-07        -0.10245E-19         0.00000E+00
    0.18566E-07        -0.20027E-19         0.00000E+00
    0.19017E-07         0.15103E-19         0.00000E+00
    0.19508E-07        -0.57181E-20         0.00000E+00
    0.20040E-07        -0.93132E-20         0.00000E+00
    0.20616E-07         0.31058E-20         0.00000E+00
    0.21236E-07         0.11199E-19         0.00000E+00
    0.21900E-07         0.18626E-20         0.00000E+00
    0.22612E-07         0.74506E-20         0.00000E+00
    0.23372E-07         0.56227E-20         0.00000E+00
    0.24182E-07        -0.58798E-20         0.00000E+00
    0.25043E-07         0.20489E-19         0.00000E+00
    0.25958E-07        -0.18626E-20         0.00000E+00
    0.26928E-07        -0.11176E-19         0.00000E+00
    0.27956E-07        -0.37253E-20         0.00000E+00
    0.29044E-07         0.93132E-20         0.00000E+00
    0.30193E-07         0.18626E-20         0.00000E+00
    0.31407E-07         0.55879E-20         0.00000E+00
    0.32688E-07         0.18626E-19         0.00000E+00
    0.34039E-07         0.83819E-20         0.00000E+00
    0.35462E-07         0.24572E-19         0.00000E+00
    0.36961E-07        -0.46566E-20         0.00000E+00
    0.38539E-07         0.15183E-19         0.00000E+00
    0.40199E-07         0.31665E-19         0.00000E+00
    0.41945E-07         0.40978E-19         0.00000E+00
    0.43781E-07         0.21886E-19         0.00000E+00
    0.45710E-07         0.25934E-19         0.00000E+00
    0.47736E-07         0.27161E-19         0.00000E+00
    0.49865E-07         0.88020E-20         0.00000E+00
    0.52100E-07         0.38842E-19         0.00000E+00
    0.54446E-07         0.36322E-19         0.00000E+00
    0.56908E-07         0.27940E-19         0.00000E+00
    0.59492E-07         0.22601E-19         0.00000E+00
    0.62203E-07         0.18626E-19         0.00000E+00
    0.65047E-07         0.93132E-20         0.00000E+00
    0.68029E-07         0.13039E-19         0.00000E+00
    0.69556E-07         0.00000E+00         0.00000E+00
    0.91678E-07         0.00000E+00         0.00000E+00
    0.89641E-07        -0.23598E-19         0.00000E+00
    0.85661E-07        -0.42732E-20         0.00000E+00
    0.81864E-07         0.58438E-19         0.00000E+00
    0.78242E-07         0.16904E-19         0.00000E+00
    0.74786E-07         0.70781E-19         0.00000E+00
    0.71491E-07         0.33271E-19         0.00000E+00
    0.68347E-07         0.39116E-19         0.00000E+00
    0.65350E-07         0.78629E-20         0.00000E+00
    0.62492E-07         0.24214E-19         0.00000E+00
    0.59768E-07         0.16764E-19         0.00000E+00
    0.57171E-07         0.27171E-19         0.00000E+00
    0.54697E-07         0.43957E-19         0.00000E+00
    0.52339E-07         0.13039E-19         0.00000E+00
    0.50092E-07         0.13039E-19         0.00000E+00
    0.47953E-07         0.27018E-19         0.00000E+00
    0.45916E-07         0.59545E-20         0.00000E+00
    0.43977E-07         0.24214E-19         0.00000E+00
    0.42132E-07        -0.10245E-19         0.00000E+00
    0.40377E-07        -0.33528E-19         0.00000E+00
    0.38708E-07         0.18626E-20         0.00000E+00
    0.37121E-07        -0.13039E-19         0.00000E+00
    0.35614E-07         0.17069E-19         0.00000E+00
    0.34183E-07        -0.78184E-20         0.00000E+00
    0.32825E-07         0.15307E-19         0.00000E+00
    0.31537E-07        -0.87886E-20         0.00000E+00
    0.30316E-07         0.11176E-19         0.00000E+00
    0.29160E-07        -0.24214E-19         0.00000E+00
    0.28066E-07         0.93132E-20         0.00000E+00
    0.27033E-07        -0.20489E-19         0.00000E+00
    0.26056E-07        -0.68648E-21         0.00000E+00
    0.25136E-07        -0.74506E-20         0.00000E+00
    0.24269E-07        -0.15637E-20         0.00000E+00
    0.23454E-07        -0.13320E-19         0.00000E+00
    0.22689E-07         0.37253E-20         0.00000E+00
    0.21972E-07         0.20682E-19         0.00000E+00
    0.21303E-07         0.93132E-20         0.00000E+00
    0.20678E-07        -0.10671E-19         0.00000E+00
    0.20098E-07        -0.31665E-19         0.00000E+00
    0.19561E-07        -0.22352E-19         0.00000E+00
    0.19066E-07        -0.19550E-19         0.00000E+00
    0.18611E-07        -0.53871E-19         0.00000E+00
    0.18196E-07        -0.53738E-19         0.00000E+00
    0.17820E-07        -0.23805E-19         0.00000E+00
    0.17482E-07        -0.40834E-19         0.00000E+00
    0.17181E-07        -0.38721E-19         0.00000E+00
    0.16917E-07        -0.52445E-19         0.00000E+00
    0.16689E-07        -0.41002E-19         0.00000E+00
    0.16497E-07        -0.43677E-19         0.00000E+00
    0.16339E-07        -0.31665E-19         0.00000E+00
    0.16217E-07        -0.23885E-19         0.00000E+00
    0.16129E-07        -0.37739E-19         0.00000E+00
    0.16076E-07        -0.29802E-19         0.00000E+00
    0.16057E-07        -0.35390E-19         0.00000E+00
    0.16073E-07        -0.18626E-19         0.00000E+00
    0.16122E-07        -0.13039E-19         0.00000E+00
    0.16206E-07        -0.40978E-19         0.00000E+00
    0.16325E-07        -0.13039E-19         0.00000E+00
    0.16479E-07        -0.37552E-19         0.00000E+00
    0.16667E-07        -0.20556E-19         0.00000E+00
    0.16892E-07        -0.33359E-19         0.00000E+00
    0.17152E-07        -0.52417E-21         0.00000E+00
    0.17449E-07        -0.43123E-19         0.00000E+00
    0.17783E-07        -0.11213E-19         0.00000E+00
    0.18155E-07        -0.35118E-20         0.00000E+00
    0.18566E-07        -0.23252E-20         0.00000E+00
    0.19017E-07         0.61156E-20         0.00000E+00
    0.19508E-07        -0.80114E-21         0.00000E+00
    0.20040E-07        -0.55879E-20         0.00000E+00
    0.20616E-07         0.71388E-20         0.00000E+00
    0.21236E-07         0.11153E-19         0.00000E+00
    0.21900E-07         0.37253E-20         0.00000E+00
    0.22612E-07        -0.18626E-20         0.00000E+00
    0.23372E-07         0.10210E-19         0.00000E+00
    0.24182E-07         0.18918E-19         0.00000E+00
    0.25043E-07         0.13039E-19         0.00000E+00
    0.25958E-07         0.18626E-20         0.00000E+00
    0.26928E-07         0.16764E-19         0.00000E+00
    0.27956E-07         0.37253E-20         0.00000E+00
    0.29044E-07         0.20489E-19         0.00000E+00
    0.30193E-07         0.55879E-20         0.00000E+00
    0.31407E-07         0.33528E-19         0.00000E+00
    0.32688E-07         0.22352E-19         0.00000E+00
    0.34039E-07         0.15001E-19         0.00000E+00
    0.35462E-07         0.18268E-19         0.00000E+00
    0.36961E-07         0.94488E-20         0.00000E+00
    0.38539E-07         0.18345E-19         0.00000E+00
    0.40199E-07         0.35390E-19         0.00000E+00
    0.41945E-07         0.32362E-19         0.00000E+00
    0.43781E-07         0.26078E-19         0.00000E+00
    0.45710E-07         0.23570E-19         0.00000E+00
    0.47736E-07         0.30429E-19         0.00000E+00
    0.49865E-07         0.13130E-19         0.00000E+00
    0.52100E-07         0.17968E-19         0.00000E+00
    0.54446E-07         0.28006E-19         0.00000E+00
    0.56908E-07         0.20380E-19         0.00000E+00
    0.59492E-07         0.40729E-19         0.00000E+00
    0.62203E-07         0.16764E-19         0.00000E+00
    0.65047E-07         0.18626E-19         0.00000E+00
    0.68029E-07         0.93132E-20         0.00000E+00
    0.69556E-07         0.00000E+00         0.00000E+00
    0.91678E-07         0.00000E+00         0.00000E+00
    0.89641E-07        -0.22968E-19         0.00000E+00
    0.85661E-07         0.26625E-19         0.00000E+00
    0.81864E-07         0.38419E-19         0.00000E+00
    0.78242E-07         0.31525E-19         0.00000E+00
    0.74786E-07         0.55879E-19         0.00000E+00
    0.71491E-07         0.50548E-19         0.00000E+00
    0.68347E-07         0.59605E-19         0.00000E+00
    0.65350E-07         0.26596E-19         0.00000E+00
    0.62492E-07         0.24355E-19         0.00000E+00
    0.59768E-07         0.14901E-19         0.00000E+00
    0.57171E-07         0.22189E-19         0.00000E+00
    0.54697E-07         0.15647E-19         0.00000E+00
    0.52339E-07         0.11176E-19         0.00000E+00
    0.50092E-07         0.18626E-19         0.00000E+00
    0.47953E-07         0.74414E-20         0.00000E+00
    0.45916E-07         0.80153E-20         0.00000E+00
    0.43977E-07        -0.93132E-21         0.00000E+00
    0.42132E-07         0.69410E-20         0.00000E+00
    0.40377E-07        -0.37253E-19         0.00000E+00
    0.38708E-07        -0.93132E-20         0.00000E+00
    0.37121E-07        -0.37253E-20         0.00000E+00
    0.35614E-07         0.20184E-19         0.00000E+00
    0.34183E-07        -0.33575E-20         0.00000E+00
    0.32825E-07         0.89076E-20         0.00000E+00
    0.31537E-07         0.65193E-20         0.00000E+00
    0.30316E-07         0.18626E-20         0.00000E+00
    0.29160E-07         0.00000E+00         0.00000E+00
    0.28066E-07        -0.22352E-19         0.00000E+00
    0.27033E-07        -0.93132E-20         0.00000E+00
    0.26056E-07        -0.12352E-19         0.00000E+00
    0.25136E-07        -0.97466E-20         0.00000E+00
    0.24269E-07        -0.17063E-19         0.00000E+00
    0.23454E-07        -0.15811E-20         0.00000E+00
    0.22689E-07         0.20489E-19         0.00000E+00
    0.21972E-07         0.16764E-19         0.00000E+00
    0.21303E-07         0.33742E-20         0.00000E+00
    0.20678E-07         0.13579E-20         0.00000E+00
    0.20098E-07        -0.33528E-19         0.00000E+00
    0.19561E-07        -0.20489E-19         0.00000E+00
    0.19066E-07        -0.39132E-19         0.00000E+00
    0.18611E-07        -0.46566E-19         0.00000E+00
    0.18196E-07        -0.42841E-19         0.00000E+00
    0.17820E-07        -0.46976E-19         0.00000E+00
    0.17482E-07        -0.45779E-19         0.00000E+00
    0.17181E-07        -0.39510E-19         0.00000E+00
    0.16917E-07        -0.75147E-19         0.00000E+00
    0.16689E-07        -0.35366E-19         0.00000E+00
    0.16497E-07        -0.63330E-19         0.00000E+00
    0.16339E-07        -0.22352E-19         0.00000E+00
    0.16217E-07        -0.29802E-19         0.00000E+00
    0.16129E-07        -0.35390E-19         0.00000E+00
    0.16076E-07        -0.29802E-19         0.00000E+00
    0.16057E-07        -0.18626E-20         0.00000E+00
    0.16073E-07        -0.29802E-19         0.00000E+00
    0.16122E-07        -0.18626E-20         0.00000E+00
    0.16206E-07        -0.26077E-19         0.00000E+00
    0.16325E-07        -0.14901E-19         0.00000E+00
    0.16479E-07        -0.25778E-19         0.00000E+00
    0.16667E-07        -0.14835E-19         0.00000E+00
    0.16892E-07        -0.57568E-20         0.00000E+00
    0.17152E-07        -0.55879E-20         0.00000E+00
    0.17449E-07        -0.29520E-19         0.00000E+00
    0.17783E-07        -0.13002E-19         0.00000E+00
    0.18155E-07         0.32983E-20         0.00000E+00
    0.18566E-07         0.16758E-19         0.00000E+00
    0.19017E-07         0.59915E-20         0.00000E+00
    0.19508E-07        -0.99642E-21         0.00000E+00
    0.20040E-07         0.18626E-20         0.00000E+00
    0.20616E-07         0.31179E-21         0.00000E+00
    0.21236E-07         0.22352E-19         0.00000E+00
    0.21900E-07         0.37253E-20         0.00000E+00
    0.22612E-07        -0.15118E-20         0.00000E+00
    0.23372E-07         0.14005E-19         0.00000E+00
    0.24182E-07         0.18335E-19         0.00000E+00
    0.25043E-07         0.55879E-20         0.00000E+00
    0.25958E-07         0.16764E-19         0.00000E+00
    0.26928E-07         0.35390E-19         0.00000E+00
    0.27956E-07         0.37253E-20         0.00000E+00
    0.29044E-07         0.16764E-19         0.00000E+00
    0.30193E-07         0.13039E-19         0.00000E+00
    0.31407E-07         0.35390E-19         0.00000E+00
    0.32688E-07         0.27940E-19         0.00000E+00
    0.34039E-07         0.15733E-19         0.00000E+00
    0.35462E-07         0.11534E-19         0.00000E+00
    0.36961E-07         0.25010E-19         0.00000E+00
    0.38539E-07         0.31015E-19         0.00000E+00
    0.40199E-07         0.23960E-19         0.00000E+00
    0.41945E-07         0.28174E-19         0.00000E+00
    0.43781E-07         0.19092E-19         0.00000E+00
    0.45710E-07         0.39760E-19         0.00000E+00
    0.47736E-07        -0.52832E-20         0.00000E+00
    0.49865E-07         0.20398E-19         0.00000E+00
    0.52100E-07         0.26735E-19         0.00000E+00
    0.54446E-07         0.83160E-20         0.00000E+00
    0.56908E-07         0.31774E-19         0.00000E+00
    0.59492E-07         0.27940E-19         0.00000E+00
    0.62203E-07         0.23637E-19         0.00000E+00
    0.65047E-07         0.16764E-19         0.00000E+00
    0.68029E-07        -0.93132E-20         0.00000E+00
    0.69556E-07         0.00000E+00         0.00000E+00
    0.91678E-07         0.00000E+00         0.00000E+00
    0.89641E-07        -0.14593E-19         0.00000E+00
    0.85661E-07         0.37910E-19         0.00000E+00
    0.81864E-07         0.13735E-19         0.00000E+00
    0.78242E-07         0.42445E-19         0.00000E+00
    0.74786E-07         0.39116E-19         0.00000E+00
    0.71491E-07         0.36996E-19         0.00000E+00
    0.68347E-07         0.76368E-19         0.00000E+00
    0.65350E-07         0.34199E-19         0.00000E+00
    0.62492E-07         0.14760E-19         0.00000E+00
    0.59768E-07         0.74506E-20         0.00000E+00
    0.57171E-07         0.12188E-19         0.00000E+00
    0.54697E-07         0.20477E-20         0.00000E+00
    0.52339E-07         0.55879E-20         0.00000E+00
    0.50092E-07         0.18626E-19         0.00000E+00
    0.47953E-07         0.31665E-19         0.00000E+00
    0.45916E-07        -0.44733E-20         0.00000E+00
    0.43977E-07         0.14551E-19         0.00000E+00
    0.42132E-07        -0.22844E-20         0.00000E+00
    0.40377E-07        -0.74506E-20         0.00000E+00
    0.38708E-07        -0.16764E-19         0.00000E+00
    0.37121E-07         0.37253E-20         0.00000E+00
    0.35614E-07         0.28092E-19         0.00000E+00
    0.34183E-07         0.21444E-20         0.00000E+00
    0.32825E-07        -0.70449E-20         0.00000E+00
    0.31537E-07         0.69259E-20         0.00000E+00
    0.30316E-07        -0.13039E-19         0.00000E+00
    0.29160E-07         0.74506E-20         0.00000E+00
    0.28066E-07         0.37253E-20         0.00000E+00
    0.27033E-07         0.18626E-20         0.00000E+00
    0.26056E-07        -0.13039E-19         0.00000E+00
    0.25136E-07        -0.55879E-20         0.00000E+00
    0.24269E-07         0.61512E-21         0.00000E+00
    0.23454E-07         0.10104E-19         0.00000E+00
    0.22689E-07         0.29774E-19         0.00000E+00
    0.21972E-07         0.55879E-20         0.00000E+00
    0.21303E-07         0.15252E-19         0.00000E+00
    0.20678E-07        -0.32205E-20         0.00000E+00
    0.20098E-07        -0.16764E-19         0.00000E+00
    0.19561E-07        -0.37253E-20         0.00000E+00
    0.19066E-07        -0.43756E-19         0.00000E+00
    0.18611E-07        -0.35390E-19         0.00000E+00
    0.18196E-07        -0.20489E-19         0.00000E+00
    0.17820E-07        -0.55470E-19         0.00000E+00
    0.17482E-07        -0.42303E-19         0.00000E+00
    0.17181E-07        -0.38721E-19         0.00000E+00
    0.16917E-07        -0.65483E-19         0.00000E+00
    0.16689E-07        -0.30734E-19         0.00000E+00
    0.16497E-07        -0.67055E-19         0.00000E+00
    0.16339E-07        -0.22352E-19         0.00000E+00
    0.16217E-07        -0.20489E-19         0.00000E+00
    0.16129E-07        -0.44703E-19         0.00000E+00
    0.16076E-07        -0.20489E-19         0.00000E+00
    0.16057E-07        -0.11176E-19         0.00000E+00
    0.16073E-07        -0.35390E-19         0.00000E+00
    0.16122E-07        -0.27940E-19         0.00000E+00
    0.16206E-07        -0.48429E-19         0.00000E+00
    0.16325E-07        -0.39116E-19         0.00000E+00
    0.16479E-07        -0.44703E-19         0.00000E+00
    0.16667E-07        -0.26077E-19         0.00000E+00
    0.16892E-07        -0.93132E-20         0.00000E+00
    0.17152E-07        -0.40978E-19         0.00000E+00
    0.17449E-07        -0.74506E-20         0.00000E+00
    0.17783E-07        -0.16764E-19         0.00000E+00
    0.18155E-07        -0.81684E-20         0.00000E+00
    0.18566E-07         0.69880E-20         0.00000E+00
    0.19017E-07        -0.20645E-20         0.00000E+00
    0.19508E-07        -0.17630E-19         0.00000E+00
    0.20040E-07         0.37253E-20         0.00000E+00
    0.20616E-07        -0.15213E-19         0.00000E+00
    0.21236E-07         0.22352E-19         0.00000E+00
    0.21900E-07        -0.13039E-19         0.00000E+00
    0.22612E-07         0.70998E-20         0.00000E+00
    0.23372E-07         0.89660E-21         0.00000E+00
    0.24182E-07        -0.63948E-21         0.00000E+00
    0.25043E-07         0.18626E-20         0.00000E+00
    0.25958E-07         0.18626E-19         0.00000E+00
    0.26928E-07         0.24214E-19         0.00000E+00
    0.27956E-07        -0.18626E-20         0.00000E+00
    0.29044E-07         0.13039E-19         0.00000E+00
    0.30193E-07         0.18626E-20         0.00000E+00
    0.31407E-07         0.13039E-19         0.00000E+00
    0.32688E-07         0.39116E-19         0.00000E+00
    0.34039E-07         0.18626E-19         0.00000E+00
    0.35462E-07         0.18626E-19         0.00000E+00
    0.36961E-07         0.74506E-20         0.00000E+00
    0.38539E-07         0.26727E-19         0.00000E+00
    0.40199E-07         0.24469E-19         0.00000E+00
    0.41945E-07         0.21303E-19         0.00000E+00
    0.43781E-07         0.20489E-19         0.00000E+00
    0.45710E-07         0.54304E-19         0.00000E+00
    0.47736E-07         0.63669E-20         0.00000E+00
    0.49865E-07         0.94044E-20         0.00000E+00
    0.52100E-07         0.25146E-19         0.00000E+00
    0.54446E-07         0.16764E-19         0.00000E+00
    0.56908E-07         0.33419E-19         0.00000E+00
    0.59492E-07         0.22352E-19         0.00000E+00
    0.62203E-07         0.21066E-19         0.00000E+00
    0.65047E-07         0.22352E-19         0.00000E+00
    0.68029E-07        -0.16764E-19         0.00000E+00
    0.69556E-07         0.00000E+00         0.00000E+00
    0.91678E-07         0.00000E+00         0.00000E+00
    0.89641E-07        -0.37253E-20         0.00000E+00
    0.85661E-07         0.33528E-19         0.00000E+00
    0.81864E-07        -0.81469E-20         0.00000E+00
    0.78242E-07         0.48429E-19         0.00000E+00
    0.74786E-07         0.27940E-19         0.00000E+00
    0.71491E-07         0.50548E-19         0.00000E+00
    0.68347E-07         0.18626E-19         0.00000E+00
    0.65350E-07         0.39116E-19         0.00000E+00
    0.62492E-07         0.26077E-19         0.00000E+00
    0.59768E-07         0.93132E-20         0.00000E+00
    0.57171E-07        -0.55879E-20         0.00000E+00
    0.54697E-07         0.44716E-20         0.00000E+00
    0.52339E-07        -0.18626E-19         0.00000E+00
    0.50092E-07         0.18626E-19         0.00000E+00
    0.47953E-07         0.46566E-19         0.00000E+00
    0.45916E-07         0.16764E-19         0.00000E+00
    0.43977E-07         0.32946E-19         0.00000E+00
    0.42132E-07        -0.20489E-19         0.00000E+00
    0.40377E-07         0.35390E-19         0.00000E+00
    0.38708E-07        -0.22352E-19         0.00000E+00
    0.37121E-07         0.74506E-20         0.00000E+00
    0.35614E-07         0.16764E-19         0.00000E+00
    0.34183E-07         0.77323E-20         0.00000E+00
    0.32825E-07        -0.12513E-19         0.00000E+00
    0.31537E-07         0.24214E-19         0.00000E+00
    0.30316E-07         0.55879E-20         0.00000E+00
    0.29160E-07         0.37253E-20         0.00000E+00
    0.28066E-07         0.27940E-19         0.00000E+00
    0.27033E-07         0.93132E-20         0.00000E+00
    0.26056E-07         0.74506E-20         0.00000E+00
    0.25136E-07         0.41586E-20         0.00000E+00
    0.24269E-07         0.11176E-19         0.00000E+00
    0.23454E-07         0.18626E-19         0.00000E+00
    0.22689E-07         0.24243E-19         0.00000E+00
    0.21972E-07         0.18626E-20         0.00000E+00
    0.21303E-07         0.18626E-20         0.00000E+00
    0.20678E-07        -0.55879E-20         0.00000E+00
    0.20098E-07         0.74506E-20         0.00000E+00
    0.19561E-07        -0.55879E-20         0.00000E+00
    0.19066E-07        -0.35390E-19         0.00000E+00
    0.18611E-07        -0.39116E-19         0.00000E+00
    0.18196E-07        -0.26077E-19         0.00000E+00
    0.17820E-07        -0.33528E-19         0.00000E+00
    0.17482E-07        -0.56811E-19         0.00000E+00
    0.17181E-07        -0.48160E-19         0.00000E+00
    0.16917E-07        -0.45344E-19         0.00000E+00
    0.16689E-07        -0.49384E-19         0.00000E+00
    0.16497E-07        -0.46661E-19         0.00000E+00
    0.16339E-07        -0.46566E-19         0.00000E+00
    0.16217E-07        -0.59175E-20         0.00000E+00
    0.16129E-07        -0.42841E-19         0.00000E+00
    0.16076E-07        -0.18626E-19         0.00000E+00
    0.16057E-07        -0.24214E-19         0.00000E+00
    0.16073E-07        -0.22352E-19         0.00000E+00
    0.16122E-07        -0.39116E-19         0.00000E+00
    0.16206E-07        -0.72643E-19         0.00000E+00
    0.16325E-07        -0.62399E-19         0.00000E+00
    0.16479E-07        -0.68918E-19         0.00000E+00
    0.16667E-07        -0.20556E-19         0.00000E+00
    0.16892E-07        -0.29802E-19         0.00000E+00
    0.17152E-07        -0.44703E-19         0.00000E+00
    0.17449E-07        -0.28241E-21         0.00000E+00
    0.17783E-07        -0.11176E-19         0.00000E+00
    0.18155E-07        -0.74506E-20         0.00000E+00
    0.18566E-07        -0.60505E-20         0.00000E+00
    0.19017E-07        -0.18626E-19         0.00000E+00
    0.19508E-07        -0.36322E-19         0.00000E+00
    0.20040E-07        -0.11176E-19         0.00000E+00
    0.20616E-07        -0.74506E-20         0.00000E+00
    0.21236E-07         0.00000E+00         0.00000E+00
    0.21900E-07        -0.55879E-20         0.00000E+00
    0.22612E-07         0.14901E-19         0.00000E+00
    0.23372E-07         0.37253E-20         0.00000E+00
    0.24182E-07         0.74506E-20         0.00000E+00
    0.25043E-07        -0.11176E-19         0.00000E+00
    0.25958E-07         0.18626E-19         0.00000E+00
    0.26928E-07         0.22352E-19         0.00000E+00
    0.27956E-07         0.74506E-20         0.00000E+00
    0.29044E-07         0.55879E-20         0.00000E+00
    0.30193E-07         0.74506E-20         0.00000E+00
    0.31407E-07         0.14901E-19         0.00000E+00
    0.32688E-07         0.16764E-19         0.00000E+00
    0.34039E-07         0.22352E-19         0.00000E+00
    0.35462E-07         0.14901E-19         0.00000E+00
    0.36961E-07         0.27940E-20         0.00000E+00
    0.38539E-07         0.00000E+00         0.00000E+00
    0.40199E-07         0.33273E-19         0.00000E+00
    0.41945E-07         0.15832E-19         0.00000E+00
    0.43781E-07         0.32596E-19         0.00000E+00
    0.45710E-07         0.44560E-19         0.00000E+00
    0.47736E-07         0.36322E-19         0.00000E+00
    0.49865E-07         0.82907E-20         0.00000E+00
    0.52100E-07         0.25419E-19         0.00000E+00
    0.54446E-07         0.26143E-19         0.00000E+00
    0.56908E-07         0.13147E-19         0.00000E+00
    0.59492E-07         0.30052E-19         0.00000E+00
    0.62203E-07         0.93132E-20         0.00000E+00
    0.65047E-07         0.20489E-19         0.00000E+00
    0.68029E-07         0.74506E-20         0.00000E+00
    0.69556E-07         0.00000E+00         0.00000E+00
    0.91678E-07         0.00000E+00         0.00000E+00
    0.89641E-07         0.26077E-19         0.00000E+00
    0.85661E-07         0.44703E-19         0.00000E+00
    0.81864E-07         0.18626E-19         0.00000E+00
    0.78242E-07         0.24214E-19         0.00000E+00
    0.74786E-07         0.54017E-19         0.00000E+00
    0.71491E-07         0.52154E-19         0.00000E+00
    0.68347E-07         0.13039E-19         0.00000E+00
    0.65350E-07         0.37253E-19         0.00000E+00
    0.62492E-07         0.55879E-20         0.00000E+00
    0.59768E-07         0.39116E-19         0.00000E+00
    0.57171E-07        -0.93132E-21         0.00000E+00
    0.54697E-07        -0.74506E-20         0.00000E+00
    0.52339E-07        -0.20489E-19         0.00000E+00
    0.50092E-07         0.27940E-19         0.00000E+00
    0.47953E-07         0.43772E-19         0.00000E+00
    0.45916E-07         0.42841E-19         0.00000E+00
    0.43977E-07         0.27008E-19         0.00000E+00
    0.42132E-07        -0.93132E-20         0.00000E+00
    0.40377E-07         0.24214E-19         0.00000E+00
    0.38708E-07         0.00000E+00         0.00000E+00
    0.37121E-07         0.18626E-20         0.00000E+00
    0.35614E-07        -0.55879E-20         0.00000E+00
    0.34183E-07         0.18345E-19         0.00000E+00
    0.32825E-07        -0.15832E-19         0.00000E+00
    0.31537E-07         0.21945E-19         0.00000E+00
    0.30316E-07         0.16764E-19         0.00000E+00
    0.29160E-07        -0.55879E-20         0.00000E+00
    0.28066E-07         0.13039E-19         0.00000E+00
    0.27033E-07         0.33577E-19         0.00000E+00
    0.26056E-07         0.11176E-19         0.00000E+00
    0.25136E-07         0.22352E-19         0.00000E+00
    0.24269E-07         0.13039E-19         0.00000E+00
    0.23454E-07         0.26077E-19         0.00000E+00
    0.22689E-07         0.37253E-20         0.00000E+00
    0.21972E-07         0.17695E-19         0.00000E+00
    0.21303E-07        -0.27940E-19         0.00000E+00
    0.20678E-07        -0.55879E-20         0.00000E+00
    0.20098E-07         0.18626E-20         0.00000E+00
    0.19561E-07        -0.74506E-20         0.00000E+00
    0.19066E-07        -0.31673E-19         0.00000E+00
    0.18611E-07        -0.29802E-19         0.00000E+00
    0.18196E-07        -0.39116E-19         0.00000E+00
    0.17820E-07        -0.22352E-19         0.00000E+00
    0.17482E-07        -0.58136E-19         0.00000E+00
    0.17181E-07        -0.58405E-19         0.00000E+00
    0.16917E-07        -0.47643E-19         0.00000E+00
    0.16689E-07        -0.70781E-19         0.00000E+00
    0.16497E-07        -0.24119E-19         0.00000E+00
    0.16339E-07        -0.52154E-19         0.00000E+00
    0.16217E-07        -0.38786E-19         0.00000E+00
    0.16129E-07        -0.20489E-19         0.00000E+00
    0.16076E-07        -0.25146E-19         0.00000E+00
    0.16057E-07        -0.12107E-19         0.00000E+00
    0.16073E-07        -0.18626E-19         0.00000E+00
    0.16122E-07        -0.46566E-19         0.00000E+00
    0.16206E-07        -0.67055E-19         0.00000E+00
    0.16325E-07        -0.53616E-19         0.00000E+00
    0.16479E-07        -0.57742E-19         0.00000E+00
    0.16667E-07        -0.25079E-19         0.00000E+00
    0.16892E-07        -0.39116E-19         0.00000E+00
    0.17152E-07        -0.26077E-19         0.00000E+00
    0.17449E-07        -0.11176E-19         0.00000E+00
    0.17783E-07         0.37253E-20         0.00000E+00
    0.18155E-07         0.93132E-20         0.00000E+00
    0.18566E-07        -0.88506E-20         0.00000E+00
    0.19017E-07        -0.11176E-19         0.00000E+00
    0.19508E-07        -0.30799E-19         0.00000E+00
    0.20040E-07        -0.83819E-20         0.00000E+00
    0.20616E-07         0.46566E-20         0.00000E+00
    0.21236E-07        -0.13039E-19         0.00000E+00
    0.21900E-07         0.93132E-20         0.00000E+00
    0.22612E-07         0.20489E-19         0.00000E+00
    0.23372E-07         0.24214E-19         0.00000E+00
    0.24182E-07         0.27940E-19         0.00000E+00
    0.25043E-07        -0.37253E-20         0.00000E+00
    0.25958E-07         0.33528E-19         0.00000E+00
    0.26928E-07         0.18626E-19         0.00000E+00
    0.27956E-07         0.27940E-19         0.00000E+00
    0.29044E-07         0.55879E-20         0.00000E+00
    0.30193E-07         0.24214E-19         0.00000E+00
    0.31407E-07         0.13039E-19         0.00000E+00
    0.32688E-07        -0.14901E-19         0.00000E+00
    0.34039E-07         0.55879E-20         0.00000E+00
    0.35462E-07         0.93132E-20         0.00000E+00
    0.36961E-07         0.11311E-19         0.00000E+00
    0.38539E-07        -0.18626E-20         0.00000E+00
    0.40199E-07         0.35390E-19         0.00000E+00
    0.41945E-07         0.17578E-19         0.00000E+00
    0.43781E-07         0.44238E-19         0.00000E+00
    0.45710E-07         0.13826E-19         0.00000E+00
    0.47736E-07         0.39895E-19         0.00000E+00
    0.49865E-07         0.20069E-19         0.00000E+00
    0.52100E-07         0.39116E-19         0.00000E+00
    0.54446E-07         0.28871E-19         0.00000E+00
    0.56908E-07         0.24323E-19         0.00000E+00
    0.59492E-07         0.12789E-19         0.00000E+00
    0.62203E-07         0.16764E-19         0.00000E+00
    0.65047E-07         0.14901E-19         0.00000E+00
    0.68029E-07         0.74506E-20         0.00000E+00
    0.69556E-07         0.00000E+00         0.00000E+00
    0.91678E-07         0.00000E+00         0.00000E+00
    0.89641E-07         0.37253E-19         0.00000E+00
    0.85661E-07         0.14901E-19         0.00000E+00
    0.81864E-07         0.52850E-19         0.00000E+00
    0.78242E-07         0.24214E-19         0.00000E+00
    0.74786E-07         0.76368E-19         0.00000E+00
    0.71491E-07         0.44447E-19         0.00000E+00
    0.68347E-07         0.24214E-19         0.00000E+00
    0.65350E-07         0.37253E-19         0.00000E+00
    0.62492E-07        -0.18626E-20         0.00000E+00
    0.59768E-07         0.39116E-19         0.00000E+00
    0.57171E-07        -0.45754E-20         0.00000E+00
    0.54697E-07        -0.27755E-19         0.00000E+00
    0.52339E-07         0.55879E-20         0.00000E+00
    0.50092E-07        -0.18626E-20         0.00000E+00
    0.47953E-07         0.49369E-19         0.00000E+00
    0.45916E-07         0.33528E-19         0.00000E+00
    0.43977E-07         0.10826E-19         0.00000E+00
    0.42132E-07        -0.18626E-20         0.00000E+00
    0.40377E-07         0.00000E+00         0.00000E+00
    0.38708E-07         0.74506E-20         0.00000E+00
    0.37121E-07         0.17992E-22         0.00000E+00
    0.35614E-07        -0.18474E-19         0.00000E+00
    0.34183E-07         0.11458E-19         0.00000E+00
    0.32825E-07        -0.19152E-19         0.00000E+00
    0.31537E-07        -0.37253E-20         0.00000E+00
    0.30316E-07         0.11176E-19         0.00000E+00
    0.29160E-07        -0.55879E-20         0.00000E+00
    0.28066E-07        -0.18626E-20         0.00000E+00
    0.27033E-07         0.20440E-19         0.00000E+00
    0.26056E-07         0.13283E-19         0.00000E+00
    0.25136E-07        -0.22352E-19         0.00000E+00
    0.24269E-07         0.18626E-19         0.00000E+00
    0.23454E-07         0.37253E-19         0.00000E+00
    0.22689E-07        -0.37540E-20         0.00000E+00
    0.21972E-07         0.14709E-19         0.00000E+00
    0.21303E-07        -0.74506E-20         0.00000E+00
    0.20678E-07        -0.93132E-20         0.00000E+00
    0.20098E-07        -0.11176E-19         0.00000E+00
    0.19561E-07        -0.18626E-19         0.00000E+00
    0.19066E-07        -0.14901E-19         0.00000E+00
    0.18611E-07        -0.27940E-19         0.00000E+00
    0.18196E-07        -0.48429E-19         0.00000E+00
    0.17820E-07        -0.36731E-19         0.00000E+00
    0.17482E-07        -0.53229E-19         0.00000E+00
    0.17181E-07        -0.39116E-19         0.00000E+00
    0.16917E-07        -0.46421E-19         0.00000E+00
    0.16689E-07        -0.82839E-19         0.00000E+00
    0.16497E-07         0.18626E-20         0.00000E+00
    0.16339E-07        -0.44703E-19         0.00000E+00
    0.16217E-07        -0.50291E-19         0.00000E+00
    0.16129E-07        -0.13039E-19         0.00000E+00
    0.16076E-07        -0.11918E-19         0.00000E+00
    0.16057E-07        -0.17278E-19         0.00000E+00
    0.16073E-07        -0.55879E-20         0.00000E+00
    0.16122E-07        -0.42841E-19         0.00000E+00
    0.16206E-07        -0.50291E-19         0.00000E+00
    0.16325E-07        -0.58143E-19         0.00000E+00
    0.16479E-07        -0.55879E-19         0.00000E+00
    0.16667E-07        -0.54083E-19         0.00000E+00
    0.16892E-07        -0.16595E-19         0.00000E+00
    0.17152E-07        -0.33528E-19         0.00000E+00
    0.17449E-07        -0.74506E-20         0.00000E+00
    0.17783E-07        -0.55879E-20         0.00000E+00
    0.18155E-07         0.16764E-19         0.00000E+00
    0.18566E-07        -0.37253E-20         0.00000E+00
    0.19017E-07        -0.16764E-19         0.00000E+00
    0.19508E-07        -0.14901E-19         0.00000E+00
    0.20040E-07         0.15240E-20         0.00000E+00
    0.20616E-07         0.13350E-19         0.00000E+00
    0.21236E-07        -0.74506E-20         0.00000E+00
    0.21900E-07        -0.11176E-19         0.00000E+00
    0.22612E-07         0.14901E-19         0.00000E+00
    0.23372E-07         0.55879E-20         0.00000E+00
    0.24182E-07         0.18626E-19         0.00000E+00
    0.25043E-07         0.16764E-19         0.00000E+00
    0.25958E-07         0.20489E-19         0.00000E+00
    0.26928E-07        -0.18626E-20         0.00000E+00
    0.27956E-07         0.31665E-19         0.00000E+00
    0.29044E-07         0.74506E-20         0.00000E+00
    0.30193E-07         0.27940E-19         0.00000E+00
    0.31407E-07        -0.83819E-20         0.00000E+00
    0.32688E-07         0.93132E-20         0.00000E+00
    0.34039E-07        -0.37253E-20         0.00000E+00
    0.35462E-07         0.83819E-20         0.00000E+00
    0.36961E-07         0.15697E-19         0.00000E+00
    0.38539E-07         0.30754E-20         0.00000E+00
    0.40199E-07         0.20489E-19         0.00000E+00
    0.41945E-07         0.31900E-19         0.00000E+00
    0.43781E-07         0.20489E-19         0.00000E+00
    0.45710E-07         0.10245E-19         0.00000E+00
    0.47736E-07         0.37558E-19         0.00000E+00
    0.49865E-07         0.34879E-19         0.00000E+00
    0.52100E-07         0.14355E-19         0.00000E+00
    0.54446E-07         0.30602E-19         0.00000E+00
    0.56908E-07         0.18409E-19         0.00000E+00
    0.59492E-07         0.18626E-20         0.00000E+00
    0.62203E-07         0.17695E-19         0.00000E+00
    0.65047E-07         0.24214E-19         0.00000E+00
    0.68029E-07        -0.93132E-20         0.00000E+00
    0.69556E-07         0.00000E+00         0.00000E+00
    0.91678E-07         0.00000E+00         0.00000E+00
    0.89641E-07         0.14901E-19         0.00000E+00
    0.85661E-07         0.00000E+00         0.00000E+00
    0.81864E-07         0.29802E-19         0.00000E+00
    0.78242E-07         0.67055E-19         0.00000E+00
    0.74786E-07         0.40978E-19         0.00000E+00
    0.71491E-07         0.52154E-19         0.00000E+00
    0.68347E-07         0.35390E-19         0.00000E+00
    0.65350E-07         0.35390E-19         0.00000E+00
    0.62492E-07         0.70781E-19         0.00000E+00
    0.59768E-07         0.37253E-20         0.00000E+00
    0.57171E-07        -0.15064E-19         0.00000E+00
    0.54697E-07        -0.11176E-19         0.00000E+00
    0.52339E-07         0.11176E-19         0.00000E+00
    0.50092E-07        -0.93132E-20         0.00000E+00
    0.47953E-07         0.46557E-19         0.00000E+00
    0.45916E-07         0.37253E-20         0.00000E+00
    0.43977E-07         0.59379E-20         0.00000E+00
    0.42132E-07         0.93132E-21         0.00000E+00
    0.40377E-07        -0.37253E-20         0.00000E+00
    0.38708E-07         0.20489E-19         0.00000E+00
    0.37121E-07        -0.26095E-19         0.00000E+00
    0.35614E-07        -0.77558E-20         0.00000E+00
    0.34183E-07        -0.21444E-20         0.00000E+00
    0.32825E-07        -0.93132E-21         0.00000E+00
    0.31537E-07         0.37253E-20         0.00000E+00
    0.30316E-07         0.74506E-20         0.00000E+00
    0.29160E-07         0.16764E-19         0.00000E+00
    0.28066E-07        -0.13039E-19         0.00000E+00
    0.27033E-07        -0.37253E-20         0.00000E+00
    0.26056E-07         0.20244E-19         0.00000E+00
    0.25136E-07        -0.14901E-19         0.00000E+00
    0.24269E-07         0.26077E-19         0.00000E+00
    0.23454E-07         0.41910E-19         0.00000E+00
    0.22689E-07         0.56166E-20         0.00000E+00
    0.21972E-07         0.16025E-19         0.00000E+00
    0.21303E-07         0.74506E-20         0.00000E+00
    0.20678E-07         0.18626E-20         0.00000E+00
    0.20098E-07         0.55879E-20         0.00000E+00
    0.19561E-07        -0.13039E-19         0.00000E+00
    0.19066E-07        -0.27858E-20         0.00000E+00
    0.18611E-07        -0.44849E-19         0.00000E+00
    0.18196E-07        -0.54948E-19         0.00000E+00
    0.17820E-07        -0.39227E-19         0.00000E+00
    0.17482E-07        -0.52154E-19         0.00000E+00
    0.17181E-07        -0.31933E-19         0.00000E+00
    0.16917E-07        -0.48574E-19         0.00000E+00
    0.16689E-07        -0.57766E-19         0.00000E+00
    0.16497E-07        -0.11176E-19         0.00000E+00
    0.16339E-07        -0.43772E-19         0.00000E+00
    0.16217E-07        -0.42841E-19         0.00000E+00
    0.16129E-07         0.00000E+00         0.00000E+00
    0.16076E-07        -0.37253E-20         0.00000E+00
    0.16057E-07        -0.18626E-19         0.00000E+00
    0.16073E-07        -0.18626E-20         0.00000E+00
    0.16122E-07        -0.35390E-19         0.00000E+00
    0.16206E-07        -0.24214E-19         0.00000E+00
    0.16325E-07        -0.72242E-19         0.00000E+00
    0.16479E-07        -0.61467E-19         0.00000E+00
    0.16667E-07        -0.51156E-19         0.00000E+00
    0.16892E-07        -0.37253E-20         0.00000E+00
    0.17152E-07        -0.39116E-19         0.00000E+00
    0.17449E-07        -0.10245E-19         0.00000E+00
    0.17783E-07        -0.13039E-19         0.00000E+00
    0.18155E-07         0.93132E-20         0.00000E+00
    0.18566E-07         0.18626E-20         0.00000E+00
    0.19017E-07        -0.18626E-19         0.00000E+00
    0.19508E-07         0.55879E-20         0.00000E+00
    0.20040E-07         0.77893E-20         0.00000E+00
    0.20616E-07         0.15521E-19         0.00000E+00
    0.21236E-07        -0.93132E-20         0.00000E+00
    0.21900E-07        -0.13970E-19         0.00000E+00
    0.22612E-07        -0.18626E-20         0.00000E+00
    0.23372E-07         0.74506E-20         0.00000E+00
    0.24182E-07         0.74506E-20         0.00000E+00
    0.25043E-07         0.13039E-19         0.00000E+00
    0.25958E-07        -0.11176E-19         0.00000E+00
    0.26928E-07         0.11176E-19         0.00000E+00
    0.27956E-07         0.74506E-20         0.00000E+00
    0.29044E-07         0.13039E-19         0.00000E+00
    0.30193E-07         0.93132E-20         0.00000E+00
    0.31407E-07         0.75888E-20         0.00000E+00
    0.32688E-07         0.13039E-19         0.00000E+00
    0.34039E-07         0.13039E-19         0.00000E+00
    0.35462E-07        -0.87399E-20         0.00000E+00
    0.36961E-07         0.93132E-20         0.00000E+00
    0.38539E-07         0.15270E-19         0.00000E+00
    0.40199E-07         0.25477E-21         0.00000E+00
    0.41945E-07         0.29802E-19         0.00000E+00
    0.43781E-07         0.55879E-20         0.00000E+00
    0.45710E-07         0.34602E-19         0.00000E+00
    0.47736E-07         0.99399E-20         0.00000E+00
    0.49865E-07         0.23794E-19         0.00000E+00
    0.52100E-07         0.70654E-20         0.00000E+00
    0.54446E-07         0.24280E-19         0.00000E+00
    0.56908E-07        -0.18626E-20         0.00000E+00
    0.59492E-07         0.93132E-20         0.00000E+00
    0.62203E-07         0.21774E-19         0.00000E+00
    0.65047E-07         0.10245E-19         0.00000E+00
    0.68029E-07        -0.93132E-20         0.00000E+00
    0.69556E-07         0.00000E+00         0.00000E+00
    0.91678E-07         0.00000E+00         0.00000E+00
    0.89641E-07         0.74506E-20         0.00000E+00
    0.85661E-07         0.37253E-20         0.00000E+00
    0.81864E-07         0.30290E-20         0.00000E+00
    0.78242E-07         0.59605E-19         0.00000E+00
    0.74786E-07         0.39116E-19         0.00000E+00
    0.71491E-07         0.72900E-19         0.00000E+00
    0.68347E-07         0.52154E-19         0.00000E+00
    0.65350E-07         0.35390E-19         0.00000E+00
    0.62492E-07         0.77441E-19         0.00000E+00
    0.59768E-07         0.18626E-20         0.00000E+00
    0.57171E-07        -0.17695E-19         0.00000E+00
    0.54697E-07         0.15647E-19         0.00000E+00
    0.52339E-07         0.22352E-19         0.00000E+00
    0.50092E-07         0.14901E-19         0.00000E+00
    0.47953E-07         0.27940E-19         0.00000E+00
    0.45916E-07        -0.18626E-20         0.00000E+00
    0.43977E-07         0.58138E-21         0.00000E+00
    0.42132E-07         0.88037E-20         0.00000E+00
    0.40377E-07         0.37253E-20         0.00000E+00
    0.38708E-07         0.18626E-19         0.00000E+00
    0.37121E-07        -0.20489E-19         0.00000E+00
    0.35614E-07        -0.31665E-19         0.00000E+00
    0.34183E-07         0.43749E-20         0.00000E+00
    0.32825E-07         0.12633E-19         0.00000E+00
    0.31537E-07         0.13039E-19         0.00000E+00
    0.30316E-07         0.00000E+00         0.00000E+00
    0.29160E-07         0.39116E-19         0.00000E+00
    0.28066E-07        -0.11176E-19         0.00000E+00
    0.27033E-07         0.18626E-20         0.00000E+00
    0.26056E-07         0.13039E-19         0.00000E+00
    0.25136E-07         0.27506E-19         0.00000E+00
    0.24269E-07         0.18626E-19         0.00000E+00
    0.23454E-07         0.18767E-19         0.00000E+00
    0.22689E-07        -0.37540E-20         0.00000E+00
    0.21972E-07         0.13039E-19         0.00000E+00
    0.21303E-07        -0.78017E-20         0.00000E+00
    0.20678E-07         0.11176E-19         0.00000E+00
    0.20098E-07         0.93132E-20         0.00000E+00
    0.19561E-07        -0.93132E-20         0.00000E+00
    0.19066E-07        -0.37334E-20         0.00000E+00
    0.18611E-07        -0.40047E-19         0.00000E+00
    0.18196E-07        -0.49918E-19         0.00000E+00
    0.17820E-07        -0.39935E-19         0.00000E+00
    0.17482E-07        -0.47497E-19         0.00000E+00
    0.17181E-07        -0.36053E-19         0.00000E+00
    0.16917E-07        -0.44703E-19         0.00000E+00
    0.16689E-07        -0.27916E-19         0.00000E+00
    0.16497E-07        -0.46566E-19         0.00000E+00
    0.16339E-07        -0.39329E-19         0.00000E+00
    0.16217E-07        -0.46566E-19         0.00000E+00
    0.16129E-07         0.37253E-20         0.00000E+00
    0.16076E-07        -0.68968E-20         0.00000E+00
    0.16057E-07        -0.24118E-19         0.00000E+00
    0.16073E-07        -0.93132E-20         0.00000E+00
    0.16122E-07        -0.27940E-19         0.00000E+00
    0.16206E-07        -0.74506E-20         0.00000E+00
    0.16325E-07        -0.78632E-19         0.00000E+00
    0.16479E-07        -0.27940E-19         0.00000E+00
    0.16667E-07        -0.31665E-19         0.00000E+00
    0.16892E-07        -0.30902E-19         0.00000E+00
    0.17152E-07        -0.11176E-19         0.00000E+00
    0.17449E-07        -0.15550E-19         0.00000E+00
    0.17783E-07        -0.18260E-20         0.00000E+00
    0.18155E-07        -0.11176E-19         0.00000E+00
    0.18566E-07         0.74506E-20         0.00000E+00
    0.19017E-07        -0.11176E-19         0.00000E+00
    0.19508E-07         0.13039E-19         0.00000E+00
    0.20040E-07         0.12700E-19         0.00000E+00
    0.20616E-07        -0.34135E-20         0.00000E+00
    0.21236E-07        -0.55649E-20         0.00000E+00
    0.21900E-07         0.14627E-19         0.00000E+00
    0.22612E-07        -0.55879E-20         0.00000E+00
    0.23372E-07         0.11211E-19         0.00000E+00
    0.24182E-07         0.11176E-19         0.00000E+00
    0.25043E-07         0.14901E-19         0.00000E+00
    0.25958E-07        -0.24214E-19         0.00000E+00
    0.26928E-07         0.14901E-19         0.00000E+00
    0.27956E-07        -0.37253E-20         0.00000E+00
    0.29044E-07        -0.18626E-20         0.00000E+00
    0.30193E-07         0.13039E-19         0.00000E+00
    0.31407E-07        -0.10383E-19         0.00000E+00
    0.32688E-07        -0.10245E-19         0.00000E+00
    0.34039E-07         0.00000E+00         0.00000E+00
    0.35462E-07         0.35797E-21         0.00000E+00
    0.36961E-07        -0.55879E-20         0.00000E+00
    0.38539E-07         0.80134E-20         0.00000E+00
    0.40199E-07        -0.25477E-21         0.00000E+00
    0.41945E-07         0.29802E-19         0.00000E+00
    0.43781E-07         0.26077E-19         0.00000E+00
    0.45710E-07         0.26865E-19         0.00000E+00
    0.47736E-07        -0.34206E-20         0.00000E+00
    0.49865E-07         0.93132E-20         0.00000E+00
    0.52100E-07         0.18353E-19         0.00000E+00
    0.54446E-07         0.29736E-19         0.00000E+00
    0.56908E-07         0.38341E-20         0.00000E+00
    0.59492E-07         0.14901E-19         0.00000E+00
    0.62203E-07         0.16764E-19         0.00000E+00
    0.65047E-07        -0.10755E-19         0.00000E+00
    0.68029E-07        -0.33820E-22         0.00000E+00
    0.69556E-07         0.00000E+00         0.00000E+00
    0.91678E-07         0.00000E+00         0.00000E+00
    0.89641E-07         0.22352E-19         0.00000E+00
    0.85661E-07         0.00000E+00         0.00000E+00
    0.81864E-07         0.19323E-19         0.00000E+00
    0.78242E-07         0.40978E-19         0.00000E+00
    0.74786E-07         0.67055E-19         0.00000E+00
    0.71491E-07         0.48172E-19         0.00000E+00
    0.68347E-07         0.63330E-19         0.00000E+00
    0.65350E-07         0.35390E-19         0.00000E+00
    0.62492E-07         0.10104E-19         0.00000E+00
    0.59768E-07         0.13039E-19         0.00000E+00
    0.57171E-07         0.10326E-19         0.00000E+00
    0.54697E-07         0.85669E-20         0.00000E+00
    0.52339E-07         0.27940E-19         0.00000E+00
    0.50092E-07         0.18626E-19         0.00000E+00
    0.47953E-07         0.16773E-19         0.00000E+00
    0.45916E-07         0.14901E-19         0.00000E+00
    0.43977E-07        -0.10245E-19         0.00000E+00
    0.42132E-07        -0.22844E-20         0.00000E+00
    0.40377E-07         0.11176E-19         0.00000E+00
    0.38708E-07        -0.55879E-20         0.00000E+00
    0.37121E-07        -0.55879E-20         0.00000E+00
    0.35614E-07        -0.48276E-19         0.00000E+00
    0.34183E-07         0.93132E-21         0.00000E+00
    0.32825E-07         0.19963E-19         0.00000E+00
    0.31537E-07         0.40668E-21         0.00000E+00
    0.30316E-07         0.24214E-19         0.00000E+00
    0.29160E-07         0.22352E-19         0.00000E+00
    0.28066E-07        -0.55879E-20         0.00000E+00
    0.27033E-07         0.74506E-20         0.00000E+00
    0.26056E-07         0.95581E-20         0.00000E+00
    0.25136E-07         0.41586E-20         0.00000E+00
    0.24269E-07        -0.37253E-20         0.00000E+00
    0.23454E-07        -0.14111E-19         0.00000E+00
    0.22689E-07        -0.16764E-19         0.00000E+00
    0.21972E-07         0.00000E+00         0.00000E+00
    0.21303E-07        -0.89621E-20         0.00000E+00
    0.20678E-07        -0.55879E-20         0.00000E+00
    0.20098E-07        -0.93132E-20         0.00000E+00
    0.19561E-07        -0.21420E-19         0.00000E+00
    0.19066E-07         0.46485E-20         0.00000E+00
    0.18611E-07        -0.64116E-19         0.00000E+00
    0.18196E-07        -0.23656E-19         0.00000E+00
    0.17820E-07        -0.52154E-19         0.00000E+00
    0.17482E-07        -0.37109E-19         0.00000E+00
    0.17181E-07        -0.60141E-19         0.00000E+00
    0.16917E-07        -0.40047E-19         0.00000E+00
    0.16689E-07        -0.28895E-19         0.00000E+00
    0.16497E-07        -0.46566E-19         0.00000E+00
    0.16339E-07        -0.20276E-19         0.00000E+00
    0.16217E-07        -0.20489E-19         0.00000E+00
    0.16129E-07        -0.30734E-19         0.00000E+00
    0.16076E-07         0.11201E-20         0.00000E+00
    0.16057E-07        -0.17791E-19         0.00000E+00
    0.16073E-07        -0.26077E-19         0.00000E+00
    0.16122E-07        -0.20489E-19         0.00000E+00
    0.16206E-07        -0.37253E-20         0.00000E+00
    0.16325E-07        -0.59204E-19         0.00000E+00
    0.16479E-07         0.00000E+00         0.00000E+00
    0.16667E-07        -0.16830E-19         0.00000E+00
    0.16892E-07        -0.35221E-19         0.00000E+00
    0.17152E-07         0.74506E-20         0.00000E+00
    0.17449E-07        -0.13039E-19         0.00000E+00
    0.17783E-07         0.92765E-20         0.00000E+00
    0.18155E-07        -0.13970E-19         0.00000E+00
    0.18566E-07         0.20489E-19         0.00000E+00
    0.19017E-07         0.00000E+00         0.00000E+00
    0.19508E-07         0.93132E-20         0.00000E+00
    0.20040E-07         0.12446E-19         0.00000E+00
    0.20616E-07        -0.11488E-19         0.00000E+00
    0.21236E-07        -0.74736E-20         0.00000E+00
    0.21900E-07         0.23557E-19         0.00000E+00
    0.22612E-07        -0.55879E-20         0.00000E+00
    0.23372E-07         0.18279E-20         0.00000E+00
    0.24182E-07         0.74506E-20         0.00000E+00
    0.25043E-07         0.13039E-19         0.00000E+00
    0.25958E-07        -0.20489E-19         0.00000E+00
    0.26928E-07         0.55879E-20         0.00000E+00
    0.27956E-07        -0.37253E-20         0.00000E+00
    0.29044E-07         0.14901E-19         0.00000E+00
    0.30193E-07         0.13039E-19         0.00000E+00
    0.31407E-07        -0.12107E-19         0.00000E+00
    0.32688E-07        -0.78063E-20         0.00000E+00
    0.34039E-07         0.19621E-20         0.00000E+00
    0.35462E-07         0.37253E-20         0.00000E+00
    0.36961E-07        -0.12107E-19         0.00000E+00
    0.38539E-07         0.74506E-20         0.00000E+00
    0.40199E-07         0.58427E-20         0.00000E+00
    0.41945E-07         0.21186E-19         0.00000E+00
    0.43781E-07         0.40047E-19         0.00000E+00
    0.45710E-07         0.68061E-20         0.00000E+00
    0.47736E-07         0.19405E-19         0.00000E+00
    0.49865E-07         0.74506E-20         0.00000E+00
    0.52100E-07         0.58610E-20         0.00000E+00
    0.54446E-07         0.28006E-19         0.00000E+00
    0.56908E-07         0.12930E-19         0.00000E+00
    0.59492E-07         0.13039E-19         0.00000E+00
    0.62203E-07         0.10245E-19         0.00000E+00
    0.65047E-07        -0.97343E-20         0.00000E+00
    0.68029E-07         0.74844E-20         0.00000E+00
    0.69556E-07         0.00000E+00         0.00000E+00
    0.91678E-07         0.00000E+00         0.00000E+00
    0.89641E-07         0.37253E-20         0.00000E+00
    0.85661E-07         0.00000E+00         0.00000E+00
    0.81864E-07         0.29802E-19         0.00000E+00
    0.78242E-07         0.50291E-19         0.00000E+00
    0.74786E-07         0.44703E-19         0.00000E+00
    0.71491E-07         0.93132E-20         0.00000E+00
    0.68347E-07         0.57742E-19         0.00000E+00
    0.65350E-07         0.44703E-19         0.00000E+00
    0.62492E-07         0.24214E-19         0.00000E+00
    0.59768E-07         0.35390E-19         0.00000E+00
    0.57171E-07         0.30734E-19         0.00000E+00
    0.54697E-07        -0.18626E-20         0.00000E+00
    0.52339E-07         0.13039E-19         0.00000E+00
    0.50092E-07         0.22352E-19         0.00000E+00
    0.47953E-07        -0.37253E-20         0.00000E+00
    0.45916E-07         0.18626E-19         0.00000E+00
    0.43977E-07        -0.52380E-20         0.00000E+00
    0.42132E-07         0.13039E-19         0.00000E+00
    0.40377E-07         0.93132E-20         0.00000E+00
    0.38708E-07        -0.29802E-19         0.00000E+00
    0.37121E-07        -0.13039E-19         0.00000E+00
    0.35614E-07        -0.48429E-19         0.00000E+00
    0.34183E-07        -0.34435E-20         0.00000E+00
    0.32825E-07         0.13039E-19         0.00000E+00
    0.31537E-07        -0.93132E-21         0.00000E+00
    0.30316E-07         0.29802E-19         0.00000E+00
    0.29160E-07        -0.55879E-20         0.00000E+00
    0.28066E-07         0.74506E-20         0.00000E+00
    0.27033E-07         0.13039E-19         0.00000E+00
    0.26056E-07         0.18626E-20         0.00000E+00
    0.25136E-07        -0.93132E-20         0.00000E+00
    0.24269E-07        -0.11176E-19         0.00000E+00
    0.23454E-07        -0.93132E-20         0.00000E+00
    0.22689E-07        -0.13010E-19         0.00000E+00
    0.21972E-07        -0.18819E-19         0.00000E+00
    0.21303E-07        -0.74506E-20         0.00000E+00
    0.20678E-07        -0.29802E-19         0.00000E+00
    0.20098E-07        -0.11176E-19         0.00000E+00
    0.19561E-07        -0.31798E-19         0.00000E+00
    0.19066E-07         0.11176E-19         0.00000E+00
    0.18611E-07        -0.74506E-19         0.00000E+00
    0.18196E-07        -0.11176E-19         0.00000E+00
    0.17820E-07        -0.62920E-19         0.00000E+00
    0.17482E-07        -0.29946E-19         0.00000E+00
    0.17181E-07        -0.63330E-19         0.00000E+00
    0.16917E-07        -0.43917E-19         0.00000E+00
    0.16689E-07        -0.20489E-19         0.00000E+00
    0.16497E-07        -0.46566E-19         0.00000E+00
    0.16339E-07        -0.20702E-19         0.00000E+00
    0.16217E-07        -0.14901E-19         0.00000E+00
    0.16129E-07        -0.33082E-19         0.00000E+00
    0.16076E-07         0.37253E-20         0.00000E+00
    0.16057E-07        -0.50741E-20         0.00000E+00
    0.16073E-07        -0.33528E-19         0.00000E+00
    0.16122E-07        -0.20489E-19         0.00000E+00
    0.16206E-07        -0.74506E-20         0.00000E+00
    0.16325E-07        -0.32997E-19         0.00000E+00
    0.16479E-07         0.71511E-20         0.00000E+00
    0.16667E-07        -0.20423E-19         0.00000E+00
    0.16892E-07        -0.35559E-19         0.00000E+00
    0.17152E-07         0.16764E-19         0.00000E+00
    0.17449E-07        -0.26359E-19         0.00000E+00
    0.17783E-07        -0.55879E-20         0.00000E+00
    0.18155E-07        -0.10962E-19         0.00000E+00
    0.18566E-07         0.74506E-20         0.00000E+00
    0.19017E-07         0.20489E-19         0.00000E+00
    0.19508E-07         0.18626E-19         0.00000E+00
    0.20040E-07        -0.65193E-20         0.00000E+00
    0.20616E-07        -0.55879E-20         0.00000E+00
    0.21236E-07        -0.13947E-19         0.00000E+00
    0.21900E-07         0.13039E-19         0.00000E+00
    0.22612E-07         0.93132E-20         0.00000E+00
    0.23372E-07         0.55879E-20         0.00000E+00
    0.24182E-07         0.55879E-20         0.00000E+00
    0.25043E-07         0.18626E-19         0.00000E+00
    0.25958E-07        -0.10197E-19         0.00000E+00
    0.26928E-07        -0.18626E-20         0.00000E+00
    0.27956E-07        -0.18626E-20         0.00000E+00
    0.29044E-07         0.16764E-19         0.00000E+00
    0.30193E-07         0.00000E+00         0.00000E+00
    0.31407E-07         0.38635E-20         0.00000E+00
    0.32688E-07         0.14326E-19         0.00000E+00
    0.34039E-07        -0.94127E-20         0.00000E+00
    0.35462E-07        -0.14901E-19         0.00000E+00
    0.36961E-07        -0.45210E-20         0.00000E+00
    0.38539E-07        -0.13320E-19         0.00000E+00
    0.40199E-07         0.34705E-20         0.00000E+00
    0.41945E-07         0.20974E-20         0.00000E+00
    0.43781E-07         0.35856E-19         0.00000E+00
    0.45710E-07         0.93132E-20         0.00000E+00
    0.47736E-07         0.40199E-19         0.00000E+00
    0.49865E-07         0.17275E-19         0.00000E+00
    0.52100E-07        -0.14243E-19         0.00000E+00
    0.54446E-07         0.74506E-20         0.00000E+00
    0.56908E-07         0.16764E-19         0.00000E+00
    0.59492E-07         0.11176E-19         0.00000E+00
    0.62203E-07         0.98905E-20         0.00000E+00
    0.65047E-07         0.15322E-19         0.00000E+00
    0.68029E-07         0.55879E-20         0.00000E+00
    0.69556E-07         0.00000E+00         0.00000E+00
    0.91678E-07         0.00000E+00         0.00000E+00
    0.89641E-07         0.26077E-19         0.00000E+00
    0.85661E-07         0.00000E+00         0.00000E+00
    0.81864E-07         0.22352E-19         0.00000E+00
    0.78242E-07         0.37253E-19         0.00000E+00
    0.74786E-07         0.29802E-19         0.00000E+00
    0.71491E-07         0.31665E-19         0.00000E+00
    0.68347E-07         0.52154E-19         0.00000E+00
    0.65350E-07         0.33528E-19         0.00000E+00
    0.62492E-07         0.65193E-19         0.00000E+00
    0.59768E-07         0.16764E-19         0.00000E+00
    0.57171E-07         0.23202E-19         0.00000E+00
    0.54697E-07        -0.55879E-20         0.00000E+00
    0.52339E-07         0.18626E-20         0.00000E+00
    0.50092E-07         0.26077E-19         0.00000E+00
    0.47953E-07        -0.37253E-20         0.00000E+00
    0.45916E-07         0.14901E-19         0.00000E+00
    0.43977E-07         0.15127E-20         0.00000E+00
    0.42132E-07         0.37253E-20         0.00000E+00
    0.40377E-07        -0.27940E-20         0.00000E+00
    0.38708E-07        -0.42841E-19         0.00000E+00
    0.37121E-07        -0.37253E-20         0.00000E+00
    0.35614E-07        -0.46719E-19         0.00000E+00
    0.34183E-07         0.64957E-21         0.00000E+00
    0.32825E-07        -0.93132E-20         0.00000E+00
    0.31537E-07         0.42499E-20         0.00000E+00
    0.30316E-07         0.18626E-19         0.00000E+00
    0.29160E-07         0.74506E-20         0.00000E+00
    0.28066E-07         0.20489E-19         0.00000E+00
    0.27033E-07         0.21420E-19         0.00000E+00
    0.26056E-07         0.20489E-19         0.00000E+00
    0.25136E-07        -0.13039E-19         0.00000E+00
    0.24269E-07        -0.55879E-20         0.00000E+00
    0.23454E-07        -0.11176E-19         0.00000E+00
    0.22689E-07         0.74219E-20         0.00000E+00
    0.21972E-07        -0.25885E-19         0.00000E+00
    0.21303E-07        -0.16764E-19         0.00000E+00
    0.20678E-07        -0.26077E-19         0.00000E+00
    0.20098E-07        -0.21420E-19         0.00000E+00
    0.19561E-07        -0.28738E-19         0.00000E+00
    0.19066E-07        -0.24198E-19         0.00000E+00
    0.18611E-07        -0.32596E-19         0.00000E+00
    0.18196E-07        -0.46566E-19         0.00000E+00
    0.17820E-07        -0.57742E-19         0.00000E+00
    0.17482E-07        -0.30196E-19         0.00000E+00
    0.17181E-07        -0.37916E-19         0.00000E+00
    0.16917E-07        -0.39902E-19         0.00000E+00
    0.16689E-07        -0.30734E-19         0.00000E+00
    0.16497E-07        -0.48429E-19         0.00000E+00
    0.16339E-07        -0.21207E-19         0.00000E+00
    0.16217E-07        -0.20489E-19         0.00000E+00
    0.16129E-07        -0.27454E-19         0.00000E+00
    0.16076E-07        -0.18626E-20         0.00000E+00
    0.16057E-07        -0.93132E-21         0.00000E+00
    0.16073E-07        -0.24214E-19         0.00000E+00
    0.16122E-07        -0.29802E-19         0.00000E+00
    0.16206E-07        -0.11176E-19         0.00000E+00
    0.16325E-07        -0.27008E-19         0.00000E+00
    0.16479E-07         0.21622E-20         0.00000E+00
    0.16667E-07        -0.31665E-19         0.00000E+00
    0.16892E-07        -0.32427E-19         0.00000E+00
    0.17152E-07        -0.27940E-20         0.00000E+00
    0.17449E-07         0.00000E+00         0.00000E+00
    0.17783E-07        -0.24214E-19         0.00000E+00
    0.18155E-07        -0.14183E-19         0.00000E+00
    0.18566E-07         0.37253E-20         0.00000E+00
    0.19017E-07         0.22352E-19         0.00000E+00
    0.19508E-07         0.22352E-19         0.00000E+00
    0.20040E-07        -0.77893E-20         0.00000E+00
    0.20616E-07        -0.13039E-19         0.00000E+00
    0.21236E-07        -0.17718E-19         0.00000E+00
    0.21900E-07         0.37253E-20         0.00000E+00
    0.22612E-07         0.74506E-20         0.00000E+00
    0.23372E-07         0.16764E-19         0.00000E+00
    0.24182E-07         0.13970E-19         0.00000E+00
    0.25043E-07         0.14901E-19         0.00000E+00
    0.25958E-07        -0.47044E-20         0.00000E+00
    0.26928E-07        -0.93132E-20         0.00000E+00
    0.27956E-07         0.10245E-19         0.00000E+00
    0.29044E-07        -0.12107E-19         0.00000E+00
    0.30193E-07        -0.93132E-20         0.00000E+00
    0.31407E-07        -0.13818E-21         0.00000E+00
    0.32688E-07         0.00000E+00         0.00000E+00
    0.34039E-07        -0.25046E-19         0.00000E+00
    0.35462E-07        -0.20847E-19         0.00000E+00
    0.36961E-07        -0.37253E-20         0.00000E+00
    0.38539E-07        -0.27940E-19         0.00000E+00
    0.40199E-07         0.11431E-19         0.00000E+00
    0.41945E-07         0.21303E-19         0.00000E+00
    0.43781E-07         0.25146E-19         0.00000E+00
    0.45710E-07        -0.20061E-20         0.00000E+00
    0.47736E-07         0.39895E-19         0.00000E+00
    0.49865E-07         0.26497E-19         0.00000E+00
    0.52100E-07         0.46566E-20         0.00000E+00
    0.54446E-07         0.74506E-20         0.00000E+00
    0.56908E-07         0.11176E-19         0.00000E+00
    0.59492E-07         0.55879E-20         0.00000E+00
    0.62203E-07        -0.37253E-20         0.00000E+00
    0.65047E-07         0.11686E-19         0.00000E+00
    0.68029E-07        -0.74506E-20         0.00000E+00
    0.69556E-07         0.00000E+00         0.00000E+00
    0.91678E-07         0.00000E+00         0.00000E+00
    0.89641E-07         0.40978E-19         0.00000E+00
    0.85661E-07        -0.11176E-19         0.00000E+00
    0.81864E-07         0.74506E-20         0.00000E+00
    0.78242E-07         0.33528E-19         0.00000E+00
    0.74786E-07         0.33528E-19         0.00000E+00
    0.71491E-07         0.52154E-19         0.00000E+00
    0.68347E-07         0.35390E-19         0.00000E+00
    0.65350E-07         0.50291E-19         0.00000E+00
    0.62492E-07         0.31665E-19         0.00000E+00
    0.59768E-07         0.12107E-19         0.00000E+00
    0.57171E-07         0.26158E-19         0.00000E+00
    0.54697E-07        -0.17695E-19         0.00000E+00
    0.52339E-07         0.18626E-20         0.00000E+00
    0.50092E-07         0.29802E-19         0.00000E+00
    0.47953E-07         0.14901E-19         0.00000E+00
    0.45916E-07        -0.74506E-20         0.00000E+00
    0.43977E-07        -0.43067E-20         0.00000E+00
    0.42132E-07        -0.93132E-20         0.00000E+00
    0.40377E-07        -0.26346E-19         0.00000E+00
    0.38708E-07        -0.37253E-20         0.00000E+00
    0.37121E-07        -0.18626E-19         0.00000E+00
    0.35614E-07        -0.25924E-19         0.00000E+00
    0.34183E-07        -0.96810E-20         0.00000E+00
    0.32825E-07        -0.55879E-20         0.00000E+00
    0.31537E-07         0.13039E-19         0.00000E+00
    0.30316E-07        -0.37253E-20         0.00000E+00
    0.29160E-07         0.27940E-19         0.00000E+00
    0.28066E-07         0.18626E-19         0.00000E+00
    0.27033E-07         0.26126E-19         0.00000E+00
    0.26056E-07         0.42841E-19         0.00000E+00
    0.25136E-07         0.00000E+00         0.00000E+00
    0.24269E-07        -0.13039E-19         0.00000E+00
    0.23454E-07        -0.17836E-19         0.00000E+00
    0.22689E-07         0.93419E-20         0.00000E+00
    0.21972E-07        -0.14901E-19         0.00000E+00
    0.21303E-07        -0.18626E-19         0.00000E+00
    0.20678E-07        -0.37253E-20         0.00000E+00
    0.20098E-07        -0.27286E-19         0.00000E+00
    0.19561E-07        -0.75833E-20         0.00000E+00
    0.19066E-07        -0.48429E-19         0.00000E+00
    0.18611E-07         0.11962E-19         0.00000E+00
    0.18196E-07        -0.70781E-19         0.00000E+00
    0.17820E-07        -0.48429E-19         0.00000E+00
    0.17482E-07        -0.24608E-19         0.00000E+00
    0.17181E-07        -0.15169E-19         0.00000E+00
    0.16917E-07        -0.39261E-19         0.00000E+00
    0.16689E-07        -0.47522E-19         0.00000E+00
    0.16497E-07        -0.35390E-19         0.00000E+00
    0.16339E-07        -0.18626E-19         0.00000E+00
    0.16217E-07        -0.20489E-19         0.00000E+00
    0.16129E-07        -0.93541E-20         0.00000E+00
    0.16076E-07        -0.14901E-19         0.00000E+00
    0.16057E-07        -0.51704E-20         0.00000E+00
    0.16073E-07        -0.29802E-19         0.00000E+00
    0.16122E-07        -0.29802E-19         0.00000E+00
    0.16206E-07        -0.14901E-19         0.00000E+00
    0.16325E-07        -0.42558E-20         0.00000E+00
    0.16479E-07        -0.93132E-20         0.00000E+00
    0.16667E-07        -0.28938E-19         0.00000E+00
    0.16892E-07        -0.20489E-19         0.00000E+00
    0.17152E-07        -0.18219E-19         0.00000E+00
    0.17449E-07         0.13039E-19         0.00000E+00
    0.17783E-07        -0.26077E-19         0.00000E+00
    0.18155E-07        -0.22352E-19         0.00000E+00
    0.18566E-07         0.18626E-19         0.00000E+00
    0.19017E-07         0.23081E-19         0.00000E+00
    0.19508E-07         0.28005E-19         0.00000E+00
    0.20040E-07         0.77893E-20         0.00000E+00
    0.20616E-07        -0.14901E-19         0.00000E+00
    0.21236E-07        -0.26077E-19         0.00000E+00
    0.21900E-07        -0.55879E-20         0.00000E+00
    0.22612E-07        -0.74506E-20         0.00000E+00
    0.23372E-07        -0.55879E-20         0.00000E+00
    0.24182E-07         0.18918E-19         0.00000E+00
    0.25043E-07        -0.27940E-20         0.00000E+00
    0.25958E-07        -0.74506E-20         0.00000E+00
    0.26928E-07        -0.74506E-20         0.00000E+00
    0.27956E-07         0.13824E-19         0.00000E+00
    0.29044E-07        -0.10001E-19         0.00000E+00
    0.30193E-07        -0.74506E-20         0.00000E+00
    0.31407E-07        -0.14763E-19         0.00000E+00
    0.32688E-07        -0.16764E-19         0.00000E+00
    0.34039E-07        -0.16664E-19         0.00000E+00
    0.35462E-07        -0.11176E-19         0.00000E+00
    0.36961E-07        -0.12107E-19         0.00000E+00
    0.38539E-07         0.18626E-20         0.00000E+00
    0.40199E-07         0.24214E-19         0.00000E+00
    0.41945E-07         0.25028E-19         0.00000E+00
    0.43781E-07         0.10711E-19         0.00000E+00
    0.45710E-07        -0.15689E-19         0.00000E+00
    0.47736E-07         0.38963E-19         0.00000E+00
    0.49865E-07         0.51127E-21         0.00000E+00
    0.52100E-07         0.34732E-19         0.00000E+00
    0.54446E-07         0.65869E-22         0.00000E+00
    0.56908E-07         0.16873E-19         0.00000E+00
    0.59492E-07         0.18626E-20         0.00000E+00
    0.62203E-07         0.93132E-20         0.00000E+00
    0.65047E-07         0.00000E+00         0.00000E+00
    0.68029E-07         0.00000E+00         0.00000E+00
    0.69556E-07         0.00000E+00         0.00000E+00
    0.91678E-07         0.00000E+00         0.00000E+00
    0.89641E-07         0.00000E+00         0.00000E+00
    0.85661E-07         0.37253E-20         0.00000E+00
    0.81864E-07        -0.44216E-20         0.00000E+00
    0.78242E-07         0.29802E-19         0.00000E+00
    0.74786E-07         0.40654E-19         0.00000E+00
    0.71491E-07         0.57999E-19         0.00000E+00
    0.68347E-07         0.13039E-19         0.00000E+00
    0.65350E-07         0.18626E-19         0.00000E+00
    0.62492E-07         0.74506E-20         0.00000E+00
    0.59768E-07         0.38157E-19         0.00000E+00
    0.57171E-07         0.16683E-19         0.00000E+00
    0.54697E-07        -0.39103E-20         0.00000E+00
    0.52339E-07         0.18626E-19         0.00000E+00
    0.50092E-07         0.29802E-19         0.00000E+00
    0.47953E-07        -0.74506E-20         0.00000E+00
    0.45916E-07        -0.55879E-20         0.00000E+00
    0.43977E-07        -0.18626E-20         0.00000E+00
    0.42132E-07        -0.55879E-20         0.00000E+00
    0.40377E-07        -0.36053E-19         0.00000E+00
    0.38708E-07         0.22229E-19         0.00000E+00
    0.37121E-07        -0.27940E-19         0.00000E+00
    0.35614E-07        -0.28092E-19         0.00000E+00
    0.34183E-07        -0.12107E-19         0.00000E+00
    0.32825E-07        -0.78563E-20         0.00000E+00
    0.31537E-07         0.18626E-19         0.00000E+00
    0.30316E-07        -0.55879E-20         0.00000E+00
    0.29160E-07         0.13039E-19         0.00000E+00
    0.28066E-07         0.37253E-19         0.00000E+00
    0.27033E-07         0.10195E-19         0.00000E+00
    0.26056E-07         0.33528E-19         0.00000E+00
    0.25136E-07         0.13039E-19         0.00000E+00
    0.24269E-07        -0.33528E-19         0.00000E+00
    0.23454E-07        -0.63785E-20         0.00000E+00
    0.22689E-07        -0.18626E-20         0.00000E+00
    0.21972E-07        -0.13039E-19         0.00000E+00
    0.21303E-07        -0.33528E-19         0.00000E+00
    0.20678E-07        -0.88867E-20         0.00000E+00
    0.20098E-07         0.11453E-19         0.00000E+00
    0.19561E-07        -0.12906E-19         0.00000E+00
    0.19066E-07        -0.37253E-19         0.00000E+00
    0.18611E-07         0.27940E-19         0.00000E+00
    0.18196E-07        -0.59605E-19         0.00000E+00
    0.17820E-07        -0.26077E-19         0.00000E+00
    0.17482E-07        -0.32203E-19         0.00000E+00
    0.17181E-07        -0.10639E-19         0.00000E+00
    0.16917E-07        -0.22207E-19         0.00000E+00
    0.16689E-07        -0.32596E-19         0.00000E+00
    0.16497E-07        -0.13039E-19         0.00000E+00
    0.16339E-07        -0.32596E-19         0.00000E+00
    0.16217E-07        -0.16764E-19         0.00000E+00
    0.16129E-07         0.93541E-20         0.00000E+00
    0.16076E-07        -0.31665E-19         0.00000E+00
    0.16057E-07        -0.25563E-19         0.00000E+00
    0.16073E-07        -0.27940E-19         0.00000E+00
    0.16122E-07        -0.22352E-19         0.00000E+00
    0.16206E-07        -0.26077E-19         0.00000E+00
    0.16325E-07         0.11176E-19         0.00000E+00
    0.16479E-07         0.52884E-20         0.00000E+00
    0.16667E-07        -0.11109E-19         0.00000E+00
    0.16892E-07        -0.33528E-19         0.00000E+00
    0.17152E-07        -0.12514E-19         0.00000E+00
    0.17449E-07        -0.16764E-19         0.00000E+00
    0.17783E-07         0.00000E+00         0.00000E+00
    0.18155E-07        -0.24214E-19         0.00000E+00
    0.18566E-07         0.13039E-19         0.00000E+00
    0.19017E-07         0.30935E-19         0.00000E+00
    0.19508E-07         0.22287E-19         0.00000E+00
    0.20040E-07        -0.33868E-21         0.00000E+00
    0.20616E-07        -0.37253E-20         0.00000E+00
    0.21236E-07        -0.13015E-19         0.00000E+00
    0.21900E-07        -0.37253E-20         0.00000E+00
    0.22612E-07        -0.16764E-19         0.00000E+00
    0.23372E-07         0.00000E+00         0.00000E+00
    0.24182E-07        -0.30858E-20         0.00000E+00
    0.25043E-07         0.30957E-20         0.00000E+00
    0.25958E-07        -0.16764E-19         0.00000E+00
    0.26928E-07        -0.16764E-19         0.00000E+00
    0.27956E-07         0.11322E-19         0.00000E+00
    0.29044E-07        -0.18626E-20         0.00000E+00
    0.30193E-07        -0.55879E-20         0.00000E+00
    0.31407E-07        -0.66574E-20         0.00000E+00
    0.32688E-07        -0.10245E-19         0.00000E+00
    0.34039E-07        -0.11375E-19         0.00000E+00
    0.35462E-07        -0.15475E-19         0.00000E+00
    0.36961E-07         0.26584E-20         0.00000E+00
    0.38539E-07         0.74506E-20         0.00000E+00
    0.40199E-07         0.37253E-19         0.00000E+00
    0.41945E-07         0.15950E-19         0.00000E+00
    0.43781E-07         0.88473E-20         0.00000E+00
    0.45710E-07         0.11820E-19         0.00000E+00
    0.47736E-07         0.26229E-19         0.00000E+00
    0.49865E-07         0.50767E-20         0.00000E+00
    0.52100E-07         0.17695E-19         0.00000E+00
    0.54446E-07         0.93132E-20         0.00000E+00
    0.56908E-07         0.14792E-19         0.00000E+00
    0.59492E-07         0.18626E-19         0.00000E+00
    0.62203E-07         0.35390E-19         0.00000E+00
    0.65047E-07        -0.46566E-20         0.00000E+00
    0.68029E-07         0.55879E-20         0.00000E+00
    0.69556E-07         0.00000E+00         0.00000E+00
    0.91678E-07         0.00000E+00         0.00000E+00
    0.89641E-07        -0.18626E-19         0.00000E+00
    0.85661E-07         0.48429E-19         0.00000E+00
    0.81864E-07         0.19323E-19         0.00000E+00
    0.78242E-07         0.20489E-19         0.00000E+00
    0.74786E-07         0.35390E-19         0.00000E+00
    0.71491E-07         0.46309E-19         0.00000E+00
    0.68347E-07         0.18626E-20         0.00000E+00
    0.65350E-07        -0.35390E-19         0.00000E+00
    0.62492E-07         0.00000E+00         0.00000E+00
    0.59768E-07         0.46566E-20         0.00000E+00
    0.57171E-07         0.84631E-20         0.00000E+00
    0.54697E-07         0.18502E-21         0.00000E+00
    0.52339E-07         0.22352E-19         0.00000E+00
    0.50092E-07         0.29802E-19         0.00000E+00
    0.47953E-07        -0.26086E-19         0.00000E+00
    0.45916E-07         0.20489E-19         0.00000E+00
    0.43977E-07         0.83819E-20         0.00000E+00
    0.42132E-07        -0.20489E-19         0.00000E+00
    0.40377E-07        -0.93132E-20         0.00000E+00
    0.38708E-07         0.74506E-20         0.00000E+00
    0.37121E-07        -0.25146E-19         0.00000E+00
    0.35614E-07        -0.54353E-20         0.00000E+00
    0.34183E-07        -0.20771E-19         0.00000E+00
    0.32825E-07         0.22683E-20         0.00000E+00
    0.31537E-07         0.22352E-19         0.00000E+00
    0.30316E-07         0.22352E-19         0.00000E+00
    0.29160E-07         0.93132E-20         0.00000E+00
    0.28066E-07         0.42841E-19         0.00000E+00
    0.27033E-07         0.17695E-19         0.00000E+00
    0.26056E-07         0.18382E-19         0.00000E+00
    0.25136E-07         0.20489E-19         0.00000E+00
    0.24269E-07        -0.16764E-19         0.00000E+00
    0.23454E-07        -0.93132E-21         0.00000E+00
    0.22689E-07        -0.37253E-20         0.00000E+00
    0.21972E-07        -0.27940E-19         0.00000E+00
    0.21303E-07        -0.46566E-19         0.00000E+00
    0.20678E-07        -0.15832E-19         0.00000E+00
    0.20098E-07         0.24214E-19         0.00000E+00
    0.19561E-07        -0.16764E-19         0.00000E+00
    0.19066E-07        -0.19558E-19         0.00000E+00
    0.18611E-07        -0.37253E-20         0.00000E+00
    0.18196E-07        -0.31665E-19         0.00000E+00
    0.17820E-07        -0.30212E-19         0.00000E+00
    0.17482E-07        -0.48429E-19         0.00000E+00
    0.17181E-07        -0.32596E-19         0.00000E+00
    0.16917E-07        -0.26222E-19         0.00000E+00
    0.16689E-07        -0.18602E-19         0.00000E+00
    0.16497E-07        -0.12107E-19         0.00000E+00
    0.16339E-07        -0.15114E-19         0.00000E+00
    0.16217E-07        -0.24214E-19         0.00000E+00
    0.16129E-07         0.16764E-19         0.00000E+00
    0.16076E-07        -0.11176E-19         0.00000E+00
    0.16057E-07        -0.29802E-19         0.00000E+00
    0.16073E-07        -0.31665E-19         0.00000E+00
    0.16122E-07        -0.18626E-19         0.00000E+00
    0.16206E-07        -0.31665E-19         0.00000E+00
    0.16325E-07         0.46566E-20         0.00000E+00
    0.16479E-07         0.11475E-19         0.00000E+00
    0.16667E-07         0.86476E-21         0.00000E+00
    0.16892E-07        -0.37422E-19         0.00000E+00
    0.17152E-07        -0.31665E-19         0.00000E+00
    0.17449E-07        -0.35390E-19         0.00000E+00
    0.17783E-07        -0.37253E-20         0.00000E+00
    0.18155E-07        -0.37253E-20         0.00000E+00
    0.18566E-07         0.93132E-20         0.00000E+00
    0.19017E-07         0.13970E-19         0.00000E+00
    0.19508E-07         0.37253E-20         0.00000E+00
    0.20040E-07        -0.80432E-20         0.00000E+00
    0.20616E-07        -0.74506E-20         0.00000E+00
    0.21236E-07        -0.55879E-20         0.00000E+00
    0.21900E-07         0.11176E-19         0.00000E+00
    0.22612E-07        -0.31665E-19         0.00000E+00
    0.23372E-07         0.39116E-19         0.00000E+00
    0.24182E-07        -0.16764E-19         0.00000E+00
    0.25043E-07         0.55879E-20         0.00000E+00
    0.25958E-07        -0.37253E-20         0.00000E+00
    0.26928E-07        -0.26077E-19         0.00000E+00
    0.27956E-07         0.83819E-20         0.00000E+00
    0.29044E-07         0.13970E-19         0.00000E+00
    0.30193E-07        -0.11176E-19         0.00000E+00
    0.31407E-07         0.74506E-20         0.00000E+00
    0.32688E-07        -0.13394E-19         0.00000E+00
    0.34039E-07         0.84814E-20         0.00000E+00
    0.35462E-07        -0.12465E-19         0.00000E+00
    0.36961E-07         0.18626E-19         0.00000E+00
    0.38539E-07         0.40067E-20         0.00000E+00
    0.40199E-07         0.31920E-19         0.00000E+00
    0.41945E-07         0.11176E-19         0.00000E+00
    0.43781E-07         0.17695E-19         0.00000E+00
    0.45710E-07         0.22352E-19         0.00000E+00
    0.47736E-07        -0.85343E-20         0.00000E+00
    0.49865E-07         0.12618E-19         0.00000E+00
    0.52100E-07         0.25209E-20         0.00000E+00
    0.54446E-07         0.24149E-19         0.00000E+00
    0.56908E-07         0.93132E-20         0.00000E+00
    0.59492E-07         0.13970E-19         0.00000E+00
    0.62203E-07         0.36322E-19         0.00000E+00
    0.65047E-07         0.97343E-20         0.00000E+00
    0.68029E-07         0.00000E+00         0.00000E+00
    0.69556E-07         0.00000E+00         0.00000E+00
    0.91678E-07         0.00000E+00         0.00000E+00
    0.89641E-07        -0.74506E-20         0.00000E+00
    0.85661E-07         0.37253E-19         0.00000E+00
    0.81864E-07         0.40282E-19         0.00000E+00
    0.78242E-07         0.16764E-19         0.00000E+00
    0.74786E-07         0.31990E-19         0.00000E+00
    0.71491E-07         0.11433E-19         0.00000E+00
    0.68347E-07        -0.18626E-19         0.00000E+00
    0.65350E-07        -0.55879E-20         0.00000E+00
    0.62492E-07        -0.30734E-19         0.00000E+00
    0.59768E-07        -0.21393E-19         0.00000E+00
    0.57171E-07         0.27128E-20         0.00000E+00
    0.54697E-07         0.11922E-19         0.00000E+00
    0.52339E-07         0.24214E-19         0.00000E+00
    0.50092E-07         0.22352E-19         0.00000E+00
    0.47953E-07        -0.11176E-19         0.00000E+00
    0.45916E-07         0.16764E-19         0.00000E+00
    0.43977E-07        -0.18045E-19         0.00000E+00
    0.42132E-07        -0.19558E-19         0.00000E+00
    0.40377E-07         0.13039E-19         0.00000E+00
    0.38708E-07        -0.16641E-19         0.00000E+00
    0.37121E-07         0.37433E-20         0.00000E+00
    0.35614E-07         0.72980E-20         0.00000E+00
    0.34183E-07        -0.22070E-19         0.00000E+00
    0.32825E-07         0.14570E-20         0.00000E+00
    0.31537E-07         0.18626E-19         0.00000E+00
    0.30316E-07         0.13039E-19         0.00000E+00
    0.29160E-07         0.14901E-19         0.00000E+00
    0.28066E-07         0.28871E-19         0.00000E+00
    0.27033E-07         0.25195E-19         0.00000E+00
    0.26056E-07        -0.13970E-19         0.00000E+00
    0.25136E-07         0.13039E-19         0.00000E+00
    0.24269E-07         0.74506E-20         0.00000E+00
    0.23454E-07        -0.29347E-20         0.00000E+00
    0.22689E-07        -0.93419E-20         0.00000E+00
    0.21972E-07        -0.54017E-19         0.00000E+00
    0.21303E-07        -0.13039E-19         0.00000E+00
    0.20678E-07        -0.10671E-19         0.00000E+00
    0.20098E-07        -0.93132E-20         0.00000E+00
    0.19561E-07        -0.13039E-19         0.00000E+00
    0.19066E-07        -0.10253E-19         0.00000E+00
    0.18611E-07        -0.29657E-19         0.00000E+00
    0.18196E-07        -0.93132E-20         0.00000E+00
    0.17820E-07        -0.42431E-19         0.00000E+00
    0.17482E-07        -0.47497E-19         0.00000E+00
    0.17181E-07        -0.37521E-19         0.00000E+00
    0.16917E-07        -0.20344E-19         0.00000E+00
    0.16689E-07        -0.19582E-19         0.00000E+00
    0.16497E-07        -0.20679E-19         0.00000E+00
    0.16339E-07        -0.44436E-20         0.00000E+00
    0.16217E-07        -0.22352E-19         0.00000E+00
    0.16129E-07         0.23488E-20         0.00000E+00
    0.16076E-07         0.37253E-20         0.00000E+00
    0.16057E-07        -0.22352E-19         0.00000E+00
    0.16073E-07        -0.48429E-19         0.00000E+00
    0.16122E-07        -0.14901E-19         0.00000E+00
    0.16206E-07        -0.27940E-19         0.00000E+00
    0.16325E-07         0.15432E-19         0.00000E+00
    0.16479E-07        -0.22651E-19         0.00000E+00
    0.16667E-07        -0.55879E-20         0.00000E+00
    0.16892E-07         0.93132E-21         0.00000E+00
    0.17152E-07        -0.65193E-19         0.00000E+00
    0.17449E-07        -0.24214E-19         0.00000E+00
    0.17783E-07        -0.27940E-19         0.00000E+00
    0.18155E-07         0.11176E-19         0.00000E+00
    0.18566E-07        -0.14901E-19         0.00000E+00
    0.19017E-07        -0.39271E-20         0.00000E+00
    0.19508E-07        -0.37253E-20         0.00000E+00
    0.20040E-07        -0.65193E-20         0.00000E+00
    0.20616E-07        -0.90014E-20         0.00000E+00
    0.21236E-07        -0.93132E-20         0.00000E+00
    0.21900E-07        -0.13970E-19         0.00000E+00
    0.22612E-07        -0.18626E-19         0.00000E+00
    0.23372E-07         0.55879E-20         0.00000E+00
    0.24182E-07         0.37253E-20         0.00000E+00
    0.25043E-07         0.52862E-20         0.00000E+00
    0.25958E-07         0.20489E-19         0.00000E+00
    0.26928E-07        -0.16764E-19         0.00000E+00
    0.27956E-07        -0.57337E-20         0.00000E+00
    0.29044E-07         0.27696E-19         0.00000E+00
    0.30193E-07        -0.74506E-20         0.00000E+00
    0.31407E-07         0.12107E-19         0.00000E+00
    0.32688E-07        -0.16408E-19         0.00000E+00
    0.34039E-07         0.13039E-19         0.00000E+00
    0.35462E-07         0.18626E-20         0.00000E+00
    0.36961E-07         0.93132E-21         0.00000E+00
    0.38539E-07         0.15812E-20         0.00000E+00
    0.40199E-07         0.10921E-19         0.00000E+00
    0.41945E-07         0.11176E-19         0.00000E+00
    0.43781E-07         0.22818E-19         0.00000E+00
    0.45710E-07         0.75940E-20         0.00000E+00
    0.47736E-07        -0.10092E-19         0.00000E+00
    0.49865E-07         0.32140E-20         0.00000E+00
    0.52100E-07         0.27008E-19         0.00000E+00
    0.54446E-07         0.93791E-20         0.00000E+00
    0.56908E-07        -0.93132E-20         0.00000E+00
    0.59492E-07         0.14469E-19         0.00000E+00
    0.62203E-07         0.29225E-19         0.00000E+00
    0.65047E-07         0.26587E-19         0.00000E+00
    0.68029E-07        -0.55879E-20         0.00000E+00
    0.69556E-07         0.18626E-20         0.00000E+00
    0.91678E-07         0.00000E+00         0.00000E+00
    0.89641E-07         0.11176E-19         0.00000E+00
    0.85661E-07         0.16764E-19         0.00000E+00
    0.81864E-07         0.18626E-19         0.00000E+00
    0.78242E-07         0.44703E-19         0.00000E+00
    0.74786E-07         0.11176E-19         0.00000E+00
    0.71491E-07         0.74506E-20         0.00000E+00
    0.68347E-07        -0.15285E-19         0.00000E+00
    0.65350E-07         0.27008E-19         0.00000E+00
    0.62492E-07        -0.33387E-19         0.00000E+00
    0.59768E-07        -0.74506E-20         0.00000E+00
    0.57171E-07        -0.13039E-19         0.00000E+00
    0.54697E-07         0.38184E-19         0.00000E+00
    0.52339E-07         0.24214E-19         0.00000E+00
    0.50092E-07         0.14729E-19         0.00000E+00
    0.47953E-07         0.55972E-20         0.00000E+00
    0.45916E-07        -0.83819E-20         0.00000E+00
    0.43977E-07        -0.19558E-19         0.00000E+00
    0.42132E-07        -0.88914E-20         0.00000E+00
    0.40377E-07         0.20489E-19         0.00000E+00
    0.38708E-07        -0.18626E-19         0.00000E+00
    0.37121E-07         0.15814E-19         0.00000E+00
    0.35614E-07        -0.18626E-20         0.00000E+00
    0.34183E-07        -0.11458E-19         0.00000E+00
    0.32825E-07        -0.18626E-19         0.00000E+00
    0.31537E-07         0.97199E-20         0.00000E+00
    0.30316E-07         0.37253E-20         0.00000E+00
    0.29160E-07         0.12673E-19         0.00000E+00
    0.28066E-07         0.22198E-19         0.00000E+00
    0.27033E-07        -0.55879E-20         0.00000E+00
    0.26056E-07        -0.99997E-20         0.00000E+00
    0.25136E-07        -0.29802E-19         0.00000E+00
    0.24269E-07         0.21420E-19         0.00000E+00
    0.23454E-07        -0.22211E-19         0.00000E+00
    0.22689E-07        -0.16764E-19         0.00000E+00
    0.21972E-07        -0.54209E-19         0.00000E+00
    0.21303E-07         0.89621E-20         0.00000E+00
    0.20678E-07         0.37253E-20         0.00000E+00
    0.20098E-07        -0.15832E-19         0.00000E+00
    0.19561E-07        -0.22352E-19         0.00000E+00
    0.19066E-07         0.00000E+00         0.00000E+00
    0.18611E-07        -0.15978E-19         0.00000E+00
    0.18196E-07        -0.11455E-19         0.00000E+00
    0.17820E-07        -0.27940E-19         0.00000E+00
    0.17482E-07        -0.33921E-19         0.00000E+00
    0.17181E-07        -0.44040E-19         0.00000E+00
    0.16917E-07        -0.66645E-20         0.00000E+00
    0.16689E-07        -0.33528E-19         0.00000E+00
    0.16497E-07        -0.19367E-19         0.00000E+00
    0.16339E-07        -0.10245E-19         0.00000E+00
    0.16217E-07        -0.18626E-20         0.00000E+00
    0.16129E-07        -0.34014E-19         0.00000E+00
    0.16076E-07        -0.74506E-20         0.00000E+00
    0.16057E-07        -0.13039E-19         0.00000E+00
    0.16073E-07        -0.37253E-19         0.00000E+00
    0.16122E-07        -0.11176E-19         0.00000E+00
    0.16206E-07        -0.37253E-19         0.00000E+00
    0.16325E-07         0.16764E-19         0.00000E+00
    0.16479E-07        -0.36953E-19         0.00000E+00
    0.16667E-07        -0.18560E-19         0.00000E+00
    0.16892E-07         0.29628E-20         0.00000E+00
    0.17152E-07        -0.49360E-19         0.00000E+00
    0.17449E-07        -0.11176E-19         0.00000E+00
    0.17783E-07        -0.39116E-19         0.00000E+00
    0.18155E-07         0.74506E-20         0.00000E+00
    0.18566E-07        -0.35390E-19         0.00000E+00
    0.19017E-07        -0.53861E-20         0.00000E+00
    0.19508E-07         0.20489E-19         0.00000E+00
    0.20040E-07        -0.40640E-20         0.00000E+00
    0.20616E-07        -0.22352E-19         0.00000E+00
    0.21236E-07         0.83819E-20         0.00000E+00
    0.21900E-07        -0.28214E-19         0.00000E+00
    0.22612E-07        -0.10245E-19         0.00000E+00
    0.23372E-07        -0.29802E-19         0.00000E+00
    0.24182E-07         0.46566E-20         0.00000E+00
    0.25043E-07         0.11176E-19         0.00000E+00
    0.25958E-07         0.20489E-19         0.00000E+00
    0.26928E-07        -0.11176E-19         0.00000E+00
    0.27956E-07        -0.23137E-19         0.00000E+00
    0.29044E-07         0.17008E-19         0.00000E+00
    0.30193E-07        -0.17046E-19         0.00000E+00
    0.31407E-07         0.14108E-19         0.00000E+00
    0.32688E-07        -0.96689E-20         0.00000E+00
    0.34039E-07         0.93132E-20         0.00000E+00
    0.35462E-07         0.18626E-20         0.00000E+00
    0.36961E-07        -0.17270E-20         0.00000E+00
    0.38539E-07         0.55879E-20         0.00000E+00
    0.40199E-07        -0.13039E-19         0.00000E+00
    0.41945E-07         0.14784E-19         0.00000E+00
    0.43781E-07         0.13039E-19         0.00000E+00
    0.45710E-07         0.94567E-20         0.00000E+00
    0.47736E-07        -0.94656E-20         0.00000E+00
    0.49865E-07         0.24726E-19         0.00000E+00
    0.52100E-07         0.29144E-19         0.00000E+00
    0.54446E-07         0.11176E-19         0.00000E+00
    0.56908E-07        -0.18626E-19         0.00000E+00
    0.59492E-07         0.14402E-19         0.00000E+00
    0.62203E-07         0.29448E-19         0.00000E+00
    0.65047E-07         0.28871E-19         0.00000E+00
    0.68029E-07        -0.13039E-19         0.00000E+00
    0.69556E-07         0.27327E-20         0.00000E+00
    0.91678E-07         0.00000E+00         0.00000E+00
    0.89641E-07         0.26385E-19         0.00000E+00
    0.85661E-07         0.11833E-19         0.00000E+00
    0.81864E-07         0.11872E-19         0.00000E+00
    0.78242E-07         0.51758E-19         0.00000E+00
    0.74786E-07        -0.37253E-20         0.00000E+00
    0.71491E-07         0.90565E-20         0.00000E+00
    0.68347E-07        -0.52043E-20         0.00000E+00
    0.65350E-07         0.22092E-19         0.00000E+00
    0.62492E-07        -0.16905E-19         0.00000E+00
    0.59768E-07         0.18626E-20         0.00000E+00
    0.57171E-07        -0.55067E-20         0.00000E+00
    0.54697E-07         0.29056E-19         0.00000E+00
    0.52339E-07         0.26077E-19         0.00000E+00
    0.50092E-07         0.13211E-19         0.00000E+00
    0.47953E-07         0.16764E-19         0.00000E+00
    0.45916E-07        -0.14718E-19         0.00000E+00
    0.43977E-07         0.22126E-20         0.00000E+00
    0.42132E-07        -0.14392E-19         0.00000E+00
    0.40377E-07         0.12002E-20         0.00000E+00
    0.38708E-07        -0.93132E-20         0.00000E+00
    0.37121E-07        -0.28871E-19         0.00000E+00
    0.35614E-07        -0.72980E-20         0.00000E+00
    0.34183E-07        -0.20207E-19         0.00000E+00
    0.32825E-07        -0.10770E-19         0.00000E+00
    0.31537E-07        -0.40668E-21         0.00000E+00
    0.30316E-07        -0.18626E-20         0.00000E+00
    0.29160E-07         0.15266E-19         0.00000E+00
    0.28066E-07         0.25300E-19         0.00000E+00
    0.27033E-07        -0.83819E-20         0.00000E+00
    0.26056E-07        -0.55879E-20         0.00000E+00
    0.25136E-07        -0.44703E-19         0.00000E+00
    0.24269E-07         0.71344E-20         0.00000E+00
    0.23454E-07        -0.20489E-19         0.00000E+00
    0.22689E-07        -0.42812E-19         0.00000E+00
    0.21972E-07        -0.31665E-19         0.00000E+00
    0.21303E-07         0.11527E-19         0.00000E+00
    0.20678E-07         0.93132E-20         0.00000E+00
    0.20098E-07        -0.28594E-19         0.00000E+00
    0.19561E-07        -0.74506E-20         0.00000E+00
    0.19066E-07         0.12107E-19         0.00000E+00
    0.18611E-07         0.48019E-20         0.00000E+00
    0.18196E-07        -0.37253E-20         0.00000E+00
    0.17820E-07        -0.93132E-20         0.00000E+00
    0.17482E-07        -0.22889E-19         0.00000E+00
    0.17181E-07        -0.46566E-19         0.00000E+00
    0.16917E-07        -0.78609E-21         0.00000E+00
    0.16689E-07        -0.29802E-19         0.00000E+00
    0.16497E-07        -0.18626E-19         0.00000E+00
    0.16339E-07         0.35123E-20         0.00000E+00
    0.16217E-07         0.55879E-20         0.00000E+00
    0.16129E-07        -0.61467E-19         0.00000E+00
    0.16076E-07        -0.13039E-19         0.00000E+00
    0.16057E-07        -0.30734E-19         0.00000E+00
    0.16073E-07         0.37253E-20         0.00000E+00
    0.16122E-07        -0.16764E-19         0.00000E+00
    0.16206E-07        -0.26077E-19         0.00000E+00
    0.16325E-07        -0.93132E-20         0.00000E+00
    0.16479E-07        -0.26377E-19         0.00000E+00
    0.16667E-07        -0.56545E-20         0.00000E+00
    0.16892E-07        -0.27940E-20         0.00000E+00
    0.17152E-07        -0.21945E-19         0.00000E+00
    0.17449E-07        -0.93132E-20         0.00000E+00
    0.17783E-07        -0.28871E-19         0.00000E+00
    0.18155E-07        -0.14901E-19         0.00000E+00
    0.18566E-07        -0.31665E-19         0.00000E+00
    0.19017E-07        -0.32798E-19         0.00000E+00
    0.19508E-07         0.93132E-20         0.00000E+00
    0.20040E-07         0.87206E-20         0.00000E+00
    0.20616E-07        -0.33528E-19         0.00000E+00
    0.21236E-07         0.46336E-20         0.00000E+00
    0.21900E-07        -0.10902E-19         0.00000E+00
    0.22612E-07        -0.11756E-19         0.00000E+00
    0.23372E-07        -0.14901E-19         0.00000E+00
    0.24182E-07        -0.77424E-20         0.00000E+00
    0.25043E-07         0.55879E-20         0.00000E+00
    0.25958E-07         0.74506E-20         0.00000E+00
    0.26928E-07        -0.11176E-19         0.00000E+00
    0.27956E-07        -0.13970E-19         0.00000E+00
    0.29044E-07         0.44126E-20         0.00000E+00
    0.30193E-07        -0.20489E-19         0.00000E+00
    0.31407E-07        -0.46566E-20         0.00000E+00
    0.32688E-07         0.12463E-19         0.00000E+00
    0.34039E-07        -0.37253E-20         0.00000E+00
    0.35462E-07         0.22206E-20         0.00000E+00
    0.36961E-07        -0.13174E-19         0.00000E+00
    0.38539E-07         0.83819E-20         0.00000E+00
    0.40199E-07        -0.95680E-20         0.00000E+00
    0.41945E-07         0.11293E-19         0.00000E+00
    0.43781E-07        -0.41913E-20         0.00000E+00
    0.45710E-07         0.22352E-19         0.00000E+00
    0.47736E-07        -0.16611E-19         0.00000E+00
    0.49865E-07         0.41398E-19         0.00000E+00
    0.52100E-07         0.71775E-20         0.00000E+00
    0.54446E-07         0.29802E-19         0.00000E+00
    0.56908E-07        -0.55879E-20         0.00000E+00
    0.59492E-07         0.37253E-20         0.00000E+00
    0.62203E-07         0.18049E-19         0.00000E+00
    0.65047E-07         0.60090E-20         0.00000E+00
    0.68029E-07         0.18626E-20         0.00000E+00
    0.69556E-07        -0.18626E-20         0.00000E+00
    0.91678E-07         0.00000E+00         0.00000E+00
    0.89641E-07         0.22043E-19         0.00000E+00
    0.85661E-07         0.16106E-19         0.00000E+00
    0.81864E-07         0.14901E-19         0.00000E+00
    0.78242E-07         0.28335E-19         0.00000E+00
    0.74786E-07         0.00000E+00         0.00000E+00
    0.71491E-07        -0.93132E-20         0.00000E+00
    0.68347E-07        -0.22352E-19         0.00000E+00
    0.65350E-07        -0.13710E-19         0.00000E+00
    0.62492E-07        -0.73098E-20         0.00000E+00
    0.59768E-07        -0.16764E-19         0.00000E+00
    0.57171E-07        -0.93132E-21         0.00000E+00
    0.54697E-07         0.18626E-19         0.00000E+00
    0.52339E-07         0.00000E+00         0.00000E+00
    0.50092E-07         0.20489E-19         0.00000E+00
    0.47953E-07         0.27940E-19         0.00000E+00
    0.45916E-07        -0.85652E-20         0.00000E+00
    0.43977E-07         0.43067E-20         0.00000E+00
    0.42132E-07        -0.20999E-19         0.00000E+00
    0.40377E-07        -0.19827E-19         0.00000E+00
    0.38708E-07        -0.93132E-20         0.00000E+00
    0.37121E-07        -0.36304E-19         0.00000E+00
    0.35614E-07        -0.16764E-19         0.00000E+00
    0.34183E-07        -0.77323E-20         0.00000E+00
    0.32825E-07        -0.93132E-20         0.00000E+00
    0.31537E-07        -0.93132E-20         0.00000E+00
    0.30316E-07        -0.14901E-19         0.00000E+00
    0.29160E-07         0.11176E-19         0.00000E+00
    0.28066E-07         0.16764E-19         0.00000E+00
    0.27033E-07         0.46074E-20         0.00000E+00
    0.26056E-07        -0.27940E-19         0.00000E+00
    0.25136E-07        -0.16764E-19         0.00000E+00
    0.24269E-07         0.86981E-20         0.00000E+00
    0.23454E-07        -0.16905E-19         0.00000E+00
    0.22689E-07        -0.57771E-19         0.00000E+00
    0.21972E-07        -0.10983E-19         0.00000E+00
    0.21303E-07         0.10825E-19         0.00000E+00
    0.20678E-07         0.14901E-19         0.00000E+00
    0.20098E-07        -0.26355E-19         0.00000E+00
    0.19561E-07        -0.55879E-20         0.00000E+00
    0.19066E-07         0.15841E-19         0.00000E+00
    0.18611E-07         0.63740E-20         0.00000E+00
    0.18196E-07        -0.53089E-20         0.00000E+00
    0.17820E-07        -0.41351E-20         0.00000E+00
    0.17482E-07        -0.39116E-19         0.00000E+00
    0.17181E-07        -0.14901E-19         0.00000E+00
    0.16917E-07        -0.85271E-20         0.00000E+00
    0.16689E-07         0.13970E-19         0.00000E+00
    0.16497E-07        -0.20584E-19         0.00000E+00
    0.16339E-07        -0.10032E-19         0.00000E+00
    0.16217E-07        -0.74506E-20         0.00000E+00
    0.16129E-07        -0.50291E-19         0.00000E+00
    0.16076E-07        -0.29802E-19         0.00000E+00
    0.16057E-07        -0.29385E-19         0.00000E+00
    0.16073E-07         0.10890E-19         0.00000E+00
    0.16122E-07        -0.33528E-19         0.00000E+00
    0.16206E-07        -0.74506E-20         0.00000E+00
    0.16325E-07        -0.24214E-19         0.00000E+00
    0.16479E-07        -0.22052E-19         0.00000E+00
    0.16667E-07        -0.93132E-20         0.00000E+00
    0.16892E-07         0.82131E-20         0.00000E+00
    0.17152E-07        -0.15308E-19         0.00000E+00
    0.17449E-07        -0.26077E-19         0.00000E+00
    0.17783E-07        -0.20526E-19         0.00000E+00
    0.18155E-07        -0.33528E-19         0.00000E+00
    0.18566E-07        -0.40516E-19         0.00000E+00
    0.19017E-07        -0.27738E-19         0.00000E+00
    0.19508E-07        -0.19558E-19         0.00000E+00
    0.20040E-07        -0.46566E-20         0.00000E+00
    0.20616E-07        -0.11488E-19         0.00000E+00
    0.21236E-07        -0.13039E-19         0.00000E+00
    0.21900E-07        -0.32870E-19         0.00000E+00
    0.22612E-07         0.00000E+00         0.00000E+00
    0.23372E-07         0.00000E+00         0.00000E+00
    0.24182E-07        -0.62274E-20         0.00000E+00
    0.25043E-07        -0.11176E-19         0.00000E+00
    0.25958E-07        -0.83819E-20         0.00000E+00
    0.26928E-07        -0.13970E-19         0.00000E+00
    0.27956E-07        -0.10771E-20         0.00000E+00
    0.29044E-07        -0.55879E-20         0.00000E+00
    0.30193E-07        -0.90307E-20         0.00000E+00
    0.31407E-07        -0.12245E-19         0.00000E+00
    0.32688E-07        -0.87376E-20         0.00000E+00
    0.34039E-07        -0.37253E-20         0.00000E+00
    0.35462E-07        -0.12893E-20         0.00000E+00
    0.36961E-07        -0.23147E-19         0.00000E+00
    0.38539E-07        -0.81005E-20         0.00000E+00
    0.40199E-07         0.21174E-20         0.00000E+00
    0.41945E-07         0.55879E-20         0.00000E+00
    0.43781E-07         0.97786E-20         0.00000E+00
    0.45710E-07         0.22352E-19         0.00000E+00
    0.47736E-07        -0.37253E-20         0.00000E+00
    0.49865E-07         0.30314E-19         0.00000E+00
    0.52100E-07         0.27308E-21         0.00000E+00
    0.54446E-07         0.14901E-19         0.00000E+00
    0.56908E-07         0.19715E-20         0.00000E+00
    0.59492E-07         0.95626E-20         0.00000E+00
    0.62203E-07         0.80279E-20         0.00000E+00
    0.65047E-07         0.60981E-20         0.00000E+00
    0.68029E-07         0.18626E-19         0.00000E+00
    0.69556E-07        -0.27327E-20         0.00000E+00
    0.91678E-07         0.00000E+00         0.00000E+00
    0.89641E-07         0.14901E-19         0.00000E+00
    0.85661E-07         0.24214E-19         0.00000E+00
    0.81864E-07         0.22352E-19         0.00000E+00
    0.78242E-07         0.27008E-19         0.00000E+00
    0.74786E-07        -0.24214E-19         0.00000E+00
    0.71491E-07        -0.27940E-19         0.00000E+00
    0.68347E-07        -0.39116E-19         0.00000E+00
    0.65350E-07        -0.83819E-20         0.00000E+00
    0.62492E-07        -0.10721E-20         0.00000E+00
    0.59768E-07        -0.14901E-19         0.00000E+00
    0.57171E-07        -0.18708E-19         0.00000E+00
    0.54697E-07         0.20489E-19         0.00000E+00
    0.52339E-07        -0.37253E-20         0.00000E+00
    0.50092E-07         0.37253E-20         0.00000E+00
    0.47953E-07         0.22343E-19         0.00000E+00
    0.45916E-07         0.27940E-20         0.00000E+00
    0.43977E-07        -0.93132E-20         0.00000E+00
    0.42132E-07        -0.42178E-21         0.00000E+00
    0.40377E-07        -0.18626E-20         0.00000E+00
    0.38708E-07        -0.11176E-19         0.00000E+00
    0.37121E-07        -0.26095E-19         0.00000E+00
    0.35614E-07        -0.28092E-19         0.00000E+00
    0.34183E-07        -0.64957E-21         0.00000E+00
    0.32825E-07        -0.18626E-19         0.00000E+00
    0.31537E-07        -0.93132E-20         0.00000E+00
    0.30316E-07        -0.24214E-19         0.00000E+00
    0.29160E-07         0.93132E-20         0.00000E+00
    0.28066E-07        -0.11176E-19         0.00000E+00
    0.27033E-07        -0.11127E-19         0.00000E+00
    0.26056E-07        -0.44948E-19         0.00000E+00
    0.25136E-07         0.18626E-20         0.00000E+00
    0.24269E-07         0.13970E-19         0.00000E+00
    0.23454E-07        -0.32596E-19         0.00000E+00
    0.22689E-07        -0.29802E-19         0.00000E+00
    0.21972E-07        -0.57805E-20         0.00000E+00
    0.21303E-07         0.22138E-20         0.00000E+00
    0.20678E-07        -0.37253E-20         0.00000E+00
    0.20098E-07         0.74506E-20         0.00000E+00
    0.19561E-07         0.00000E+00         0.00000E+00
    0.19066E-07        -0.14909E-19         0.00000E+00
    0.18611E-07        -0.35800E-20         0.00000E+00
    0.18196E-07        -0.20768E-19         0.00000E+00
    0.17820E-07        -0.20489E-19         0.00000E+00
    0.17482E-07        -0.27402E-19         0.00000E+00
    0.17181E-07         0.39936E-20         0.00000E+00
    0.16917E-07        -0.20489E-19         0.00000E+00
    0.16689E-07         0.27033E-19         0.00000E+00
    0.16497E-07        -0.24119E-19         0.00000E+00
    0.16339E-07        -0.13039E-19         0.00000E+00
    0.16217E-07        -0.26077E-19         0.00000E+00
    0.16129E-07        -0.11621E-19         0.00000E+00
    0.16076E-07        -0.47497E-19         0.00000E+00
    0.16057E-07        -0.87994E-20         0.00000E+00
    0.16073E-07        -0.20203E-19         0.00000E+00
    0.16122E-07        -0.17695E-19         0.00000E+00
    0.16206E-07         0.19729E-19         0.00000E+00
    0.16325E-07        -0.16764E-19         0.00000E+00
    0.16479E-07        -0.74506E-20         0.00000E+00
    0.16667E-07        -0.13970E-19         0.00000E+00
    0.16892E-07        -0.37253E-20         0.00000E+00
    0.17152E-07         0.14555E-20         0.00000E+00
    0.17449E-07        -0.45917E-19         0.00000E+00
    0.17783E-07        -0.13933E-19         0.00000E+00
    0.18155E-07        -0.30734E-19         0.00000E+00
    0.18566E-07        -0.32128E-19         0.00000E+00
    0.19017E-07        -0.16764E-19         0.00000E+00
    0.19508E-07        -0.73855E-20         0.00000E+00
    0.20040E-07        -0.21759E-19         0.00000E+00
    0.20616E-07        -0.15509E-20         0.00000E+00
    0.21236E-07        -0.20489E-19         0.00000E+00
    0.21900E-07        -0.40978E-19         0.00000E+00
    0.22612E-07         0.16413E-19         0.00000E+00
    0.23372E-07        -0.55879E-20         0.00000E+00
    0.24182E-07         0.93132E-21         0.00000E+00
    0.25043E-07        -0.13039E-19         0.00000E+00
    0.25958E-07        -0.13086E-19         0.00000E+00
    0.26928E-07        -0.10766E-19         0.00000E+00
    0.27956E-07        -0.83819E-20         0.00000E+00
    0.29044E-07        -0.26077E-19         0.00000E+00
    0.30193E-07         0.46566E-20         0.00000E+00
    0.31407E-07        -0.55879E-20         0.00000E+00
    0.32688E-07        -0.10820E-19         0.00000E+00
    0.34039E-07         0.37253E-20         0.00000E+00
    0.35462E-07         0.12893E-20         0.00000E+00
    0.36961E-07         0.00000E+00         0.00000E+00
    0.38539E-07         0.18626E-20         0.00000E+00
    0.40199E-07        -0.77054E-20         0.00000E+00
    0.41945E-07         0.10127E-19         0.00000E+00
    0.43781E-07         0.41913E-20         0.00000E+00
    0.45710E-07         0.12895E-19         0.00000E+00
    0.47736E-07         0.11176E-19         0.00000E+00
    0.49865E-07         0.55879E-20         0.00000E+00
    0.52100E-07         0.14901E-19         0.00000E+00
    0.54446E-07         0.92474E-20         0.00000E+00
    0.56908E-07         0.55879E-20         0.00000E+00
    0.59492E-07        -0.24933E-21         0.00000E+00
    0.62203E-07         0.74506E-20         0.00000E+00
    0.65047E-07         0.55879E-20         0.00000E+00
    0.68029E-07         0.18626E-19         0.00000E+00
    0.69556E-07         0.00000E+00         0.00000E+00
    0.91678E-07         0.00000E+00         0.00000E+00
    0.89641E-07         0.20797E-19         0.00000E+00
    0.85661E-07         0.30460E-19         0.00000E+00
    0.81864E-07         0.33528E-19         0.00000E+00
    0.78242E-07        -0.22584E-20         0.00000E+00
    0.74786E-07        -0.93132E-20         0.00000E+00
    0.71491E-07        -0.20489E-19         0.00000E+00
    0.68347E-07        -0.44703E-19         0.00000E+00
    0.65350E-07        -0.25949E-21         0.00000E+00
    0.62492E-07         0.23424E-19         0.00000E+00
    0.59768E-07        -0.19558E-19         0.00000E+00
    0.57171E-07        -0.85011E-21         0.00000E+00
    0.54697E-07        -0.93132E-20         0.00000E+00
    0.52339E-07         0.16764E-19         0.00000E+00
    0.50092E-07        -0.16764E-19         0.00000E+00
    0.47953E-07         0.11176E-19         0.00000E+00
    0.45916E-07         0.12290E-19         0.00000E+00
    0.43977E-07        -0.14901E-19         0.00000E+00
    0.42132E-07         0.22774E-19         0.00000E+00
    0.40377E-07         0.14901E-19         0.00000E+00
    0.38708E-07        -0.18626E-19         0.00000E+00
    0.37121E-07        -0.26077E-19         0.00000E+00
    0.35614E-07        -0.27787E-19         0.00000E+00
    0.34183E-07        -0.15465E-19         0.00000E+00
    0.32825E-07         0.18626E-20         0.00000E+00
    0.31537E-07        -0.37253E-20         0.00000E+00
    0.30316E-07        -0.20489E-19         0.00000E+00
    0.29160E-07         0.11176E-19         0.00000E+00
    0.28066E-07        -0.14901E-19         0.00000E+00
    0.27033E-07         0.74506E-20         0.00000E+00
    0.26056E-07        -0.65193E-19         0.00000E+00
    0.25136E-07        -0.78839E-20         0.00000E+00
    0.24269E-07        -0.31620E-21         0.00000E+00
    0.23454E-07        -0.21280E-19         0.00000E+00
    0.22689E-07        -0.93132E-20         0.00000E+00
    0.21972E-07        -0.18626E-19         0.00000E+00
    0.21303E-07        -0.59390E-20         0.00000E+00
    0.20678E-07        -0.24214E-19         0.00000E+00
    0.20098E-07         0.93132E-20         0.00000E+00
    0.19561E-07         0.74506E-20         0.00000E+00
    0.19066E-07        -0.15832E-19         0.00000E+00
    0.18611E-07         0.54426E-20         0.00000E+00
    0.18196E-07        -0.18626E-19         0.00000E+00
    0.17820E-07        -0.41090E-19         0.00000E+00
    0.17482E-07         0.10638E-19         0.00000E+00
    0.17181E-07        -0.37253E-20         0.00000E+00
    0.16917E-07        -0.26077E-19         0.00000E+00
    0.16689E-07         0.12107E-19         0.00000E+00
    0.16497E-07        -0.95167E-22         0.00000E+00
    0.16339E-07        -0.93132E-20         0.00000E+00
    0.16217E-07        -0.26077E-19         0.00000E+00
    0.16129E-07        -0.51427E-20         0.00000E+00
    0.16076E-07        -0.37064E-19         0.00000E+00
    0.16057E-07        -0.74506E-20         0.00000E+00
    0.16073E-07        -0.15832E-19         0.00000E+00
    0.16122E-07        -0.23341E-19         0.00000E+00
    0.16206E-07         0.24975E-19         0.00000E+00
    0.16325E-07         0.37253E-20         0.00000E+00
    0.16479E-07        -0.21622E-20         0.00000E+00
    0.16667E-07         0.99788E-21         0.00000E+00
    0.16892E-07        -0.11176E-19         0.00000E+00
    0.17152E-07        -0.98374E-20         0.00000E+00
    0.17449E-07        -0.27375E-19         0.00000E+00
    0.17783E-07        -0.11176E-19         0.00000E+00
    0.18155E-07        -0.20276E-19         0.00000E+00
    0.18566E-07        -0.18626E-19         0.00000E+00
    0.19017E-07        -0.25146E-19         0.00000E+00
    0.19508E-07        -0.56530E-20         0.00000E+00
    0.20040E-07        -0.30734E-19         0.00000E+00
    0.20616E-07        -0.11176E-19         0.00000E+00
    0.21236E-07        -0.29802E-19         0.00000E+00
    0.21900E-07        -0.19558E-19         0.00000E+00
    0.22612E-07        -0.33745E-20         0.00000E+00
    0.23372E-07        -0.11176E-19         0.00000E+00
    0.24182E-07         0.52961E-20         0.00000E+00
    0.25043E-07        -0.74506E-20         0.00000E+00
    0.25958E-07        -0.15785E-19         0.00000E+00
    0.26928E-07        -0.69293E-20         0.00000E+00
    0.27956E-07        -0.19412E-19         0.00000E+00
    0.29044E-07        -0.47497E-19         0.00000E+00
    0.30193E-07         0.99620E-20         0.00000E+00
    0.31407E-07        -0.65193E-20         0.00000E+00
    0.32688E-07         0.61636E-20         0.00000E+00
    0.34039E-07        -0.16764E-19         0.00000E+00
    0.35462E-07         0.12107E-19         0.00000E+00
    0.36961E-07        -0.37253E-20         0.00000E+00
    0.38539E-07         0.14338E-19         0.00000E+00
    0.40199E-07         0.25477E-21         0.00000E+00
    0.41945E-07         0.10487E-20         0.00000E+00
    0.43781E-07         0.37253E-20         0.00000E+00
    0.45710E-07         0.18626E-20         0.00000E+00
    0.47736E-07         0.12107E-19         0.00000E+00
    0.49865E-07        -0.18626E-20         0.00000E+00
    0.52100E-07         0.29802E-19         0.00000E+00
    0.54446E-07         0.13039E-19         0.00000E+00
    0.56908E-07         0.17538E-20         0.00000E+00
    0.59492E-07         0.95626E-20         0.00000E+00
    0.62203E-07         0.11176E-19         0.00000E+00
    0.65047E-07         0.18626E-20         0.00000E+00
    0.68029E-07        -0.14139E-20         0.00000E+00
    0.69556E-07         0.00000E+00         0.00000E+00
    0.91678E-07         0.00000E+00         0.00000E+00
    0.89641E-07         0.42224E-19         0.00000E+00
    0.85661E-07         0.47114E-19         0.00000E+00
    0.81864E-07         0.33528E-19         0.00000E+00
    0.78242E-07         0.79144E-21         0.00000E+00
    0.74786E-07         0.33203E-19         0.00000E+00
    0.71491E-07        -0.37253E-20         0.00000E+00
    0.68347E-07        -0.50291E-19         0.00000E+00
    0.65350E-07         0.98322E-20         0.00000E+00
    0.62492E-07         0.23142E-19         0.00000E+00
    0.59768E-07         0.23256E-19         0.00000E+00
    0.57171E-07         0.74506E-20         0.00000E+00
    0.54697E-07        -0.27940E-20         0.00000E+00
    0.52339E-07         0.55879E-20         0.00000E+00
    0.50092E-07         0.16764E-19         0.00000E+00
    0.47953E-07        -0.55879E-20         0.00000E+00
    0.45916E-07         0.21985E-19         0.00000E+00
    0.43977E-07        -0.18626E-19         0.00000E+00
    0.42132E-07         0.19136E-19         0.00000E+00
    0.40377E-07        -0.18626E-20         0.00000E+00
    0.38708E-07         0.36029E-20         0.00000E+00
    0.37121E-07        -0.20471E-19         0.00000E+00
    0.35614E-07        -0.27940E-19         0.00000E+00
    0.34183E-07        -0.24864E-19         0.00000E+00
    0.32825E-07         0.22352E-19         0.00000E+00
    0.31537E-07        -0.18626E-19         0.00000E+00
    0.30316E-07        -0.14901E-19         0.00000E+00
    0.29160E-07        -0.74506E-20         0.00000E+00
    0.28066E-07        -0.11176E-19         0.00000E+00
    0.27033E-07         0.22303E-19         0.00000E+00
    0.26056E-07        -0.40978E-19         0.00000E+00
    0.25136E-07        -0.27940E-19         0.00000E+00
    0.24269E-07        -0.12406E-19         0.00000E+00
    0.23454E-07        -0.16764E-19         0.00000E+00
    0.22689E-07        -0.74506E-20         0.00000E+00
    0.21972E-07        -0.14709E-19         0.00000E+00
    0.21303E-07        -0.89621E-20         0.00000E+00
    0.20678E-07        -0.18626E-20         0.00000E+00
    0.20098E-07        -0.74506E-20         0.00000E+00
    0.19561E-07         0.11176E-19         0.00000E+00
    0.19066E-07         0.83900E-20         0.00000E+00
    0.18611E-07         0.10766E-20         0.00000E+00
    0.18196E-07        -0.20210E-19         0.00000E+00
    0.17820E-07        -0.30212E-19         0.00000E+00
    0.17482E-07         0.19558E-19         0.00000E+00
    0.17181E-07        -0.17695E-19         0.00000E+00
    0.16917E-07        -0.11817E-19         0.00000E+00
    0.16689E-07         0.18385E-20         0.00000E+00
    0.16497E-07         0.24310E-19         0.00000E+00
    0.16339E-07        -0.13970E-19         0.00000E+00
    0.16217E-07        -0.27940E-19         0.00000E+00
    0.16129E-07        -0.19072E-19         0.00000E+00
    0.16076E-07        -0.67080E-20         0.00000E+00
    0.16057E-07        -0.20489E-19         0.00000E+00
    0.16073E-07         0.64570E-21         0.00000E+00
    0.16122E-07        -0.26020E-19         0.00000E+00
    0.16206E-07         0.13039E-19         0.00000E+00
    0.16325E-07         0.21420E-19         0.00000E+00
    0.16479E-07        -0.10876E-19         0.00000E+00
    0.16667E-07        -0.93132E-20         0.00000E+00
    0.16892E-07        -0.54191E-20         0.00000E+00
    0.17152E-07        -0.11176E-19         0.00000E+00
    0.17449E-07        -0.24497E-19         0.00000E+00
    0.17783E-07        -0.27940E-19         0.00000E+00
    0.18155E-07        -0.21352E-21         0.00000E+00
    0.18566E-07        -0.17226E-19         0.00000E+00
    0.19017E-07        -0.20691E-19         0.00000E+00
    0.19508E-07        -0.13905E-19         0.00000E+00
    0.20040E-07        -0.40640E-19         0.00000E+00
    0.20616E-07        -0.18938E-19         0.00000E+00
    0.21236E-07        -0.20489E-19         0.00000E+00
    0.21900E-07        -0.15558E-19         0.00000E+00
    0.22612E-07        -0.59388E-20         0.00000E+00
    0.23372E-07        -0.83819E-20         0.00000E+00
    0.24182E-07         0.86737E-20         0.00000E+00
    0.25043E-07        -0.13039E-19         0.00000E+00
    0.25958E-07        -0.29802E-19         0.00000E+00
    0.26928E-07         0.27940E-20         0.00000E+00
    0.27956E-07        -0.25146E-19         0.00000E+00
    0.29044E-07        -0.48185E-19         0.00000E+00
    0.30193E-07         0.74506E-20         0.00000E+00
    0.31407E-07        -0.91751E-20         0.00000E+00
    0.32688E-07        -0.46566E-20         0.00000E+00
    0.34039E-07        -0.20489E-19         0.00000E+00
    0.35462E-07         0.24360E-20         0.00000E+00
    0.36961E-07        -0.15832E-19         0.00000E+00
    0.38539E-07        -0.15551E-19         0.00000E+00
    0.40199E-07        -0.37253E-20         0.00000E+00
    0.41945E-07        -0.12107E-19         0.00000E+00
    0.43781E-07         0.27940E-19         0.00000E+00
    0.45710E-07        -0.37253E-20         0.00000E+00
    0.47736E-07        -0.77897E-21         0.00000E+00
    0.49865E-07         0.36341E-20         0.00000E+00
    0.52100E-07         0.50291E-19         0.00000E+00
    0.54446E-07        -0.73847E-20         0.00000E+00
    0.56908E-07         0.11176E-19         0.00000E+00
    0.59492E-07         0.72012E-20         0.00000E+00
    0.62203E-07         0.18626E-19         0.00000E+00
    0.65047E-07         0.93132E-21         0.00000E+00
    0.68029E-07         0.14139E-20         0.00000E+00
    0.69556E-07         0.00000E+00         0.00000E+00
    0.91678E-07         0.00000E+00         0.00000E+00
    0.89641E-07         0.52154E-19         0.00000E+00
    0.85661E-07         0.16764E-19         0.00000E+00
    0.81864E-07         0.14205E-19         0.00000E+00
    0.78242E-07         0.55879E-20         0.00000E+00
    0.74786E-07         0.14901E-19         0.00000E+00
    0.71491E-07        -0.12782E-19         0.00000E+00
    0.68347E-07        -0.16764E-19         0.00000E+00
    0.65350E-07        -0.12107E-19         0.00000E+00
    0.62492E-07         0.18626E-20         0.00000E+00
    0.59768E-07         0.27008E-19         0.00000E+00
    0.57171E-07        -0.13039E-19         0.00000E+00
    0.54697E-07         0.18441E-19         0.00000E+00
    0.52339E-07         0.93132E-20         0.00000E+00
    0.50092E-07         0.22352E-19         0.00000E+00
    0.47953E-07        -0.14901E-19         0.00000E+00
    0.45916E-07         0.23283E-19         0.00000E+00
    0.43977E-07        -0.74506E-20         0.00000E+00
    0.42132E-07         0.18626E-20         0.00000E+00
    0.40377E-07        -0.11176E-19         0.00000E+00
    0.38708E-07         0.22352E-19         0.00000E+00
    0.37121E-07        -0.31665E-19         0.00000E+00
    0.35614E-07        -0.22352E-19         0.00000E+00
    0.34183E-07        -0.35390E-19         0.00000E+00
    0.32825E-07         0.28465E-19         0.00000E+00
    0.31537E-07        -0.20082E-19         0.00000E+00
    0.30316E-07        -0.18626E-20         0.00000E+00
    0.29160E-07        -0.29802E-19         0.00000E+00
    0.28066E-07        -0.83819E-20         0.00000E+00
    0.27033E-07         0.11176E-19         0.00000E+00
    0.26056E-07         0.13039E-19         0.00000E+00
    0.25136E-07        -0.21918E-19         0.00000E+00
    0.24269E-07        -0.28871E-19         0.00000E+00
    0.23454E-07        -0.19558E-19         0.00000E+00
    0.22689E-07        -0.11176E-19         0.00000E+00
    0.21972E-07         0.37253E-20         0.00000E+00
    0.21303E-07         0.55879E-20         0.00000E+00
    0.20678E-07         0.00000E+00         0.00000E+00
    0.20098E-07        -0.25146E-19         0.00000E+00
    0.19561E-07         0.26077E-19         0.00000E+00
    0.19066E-07        -0.16764E-19         0.00000E+00
    0.18611E-07        -0.57332E-20         0.00000E+00
    0.18196E-07        -0.27940E-19         0.00000E+00
    0.17820E-07         0.00000E+00         0.00000E+00
    0.17482E-07         0.11714E-19         0.00000E+00
    0.17181E-07        -0.90449E-20         0.00000E+00
    0.16917E-07         0.63740E-20         0.00000E+00
    0.16689E-07         0.46808E-20         0.00000E+00
    0.16497E-07         0.93132E-20         0.00000E+00
    0.16339E-07        -0.13252E-19         0.00000E+00
    0.16217E-07        -0.33528E-19         0.00000E+00
    0.16129E-07        -0.88680E-20         0.00000E+00
    0.16076E-07         0.93132E-20         0.00000E+00
    0.16057E-07        -0.27940E-19         0.00000E+00
    0.16073E-07        -0.90276E-20         0.00000E+00
    0.16122E-07        -0.18626E-20         0.00000E+00
    0.16206E-07         0.13970E-19         0.00000E+00
    0.16325E-07         0.15302E-19         0.00000E+00
    0.16479E-07         0.93132E-20         0.00000E+00
    0.16667E-07        -0.26077E-19         0.00000E+00
    0.16892E-07        -0.37253E-20         0.00000E+00
    0.17152E-07         0.46566E-20         0.00000E+00
    0.17449E-07        -0.26077E-19         0.00000E+00
    0.17783E-07        -0.26077E-19         0.00000E+00
    0.18155E-07        -0.76641E-20         0.00000E+00
    0.18566E-07        -0.11176E-19         0.00000E+00
    0.19017E-07        -0.13768E-19         0.00000E+00
    0.19508E-07        -0.26077E-19         0.00000E+00
    0.20040E-07        -0.23622E-19         0.00000E+00
    0.20616E-07        -0.39116E-19         0.00000E+00
    0.21236E-07        -0.14901E-19         0.00000E+00
    0.21900E-07        -0.17695E-19         0.00000E+00
    0.22612E-07         0.11527E-19         0.00000E+00
    0.23372E-07         0.34718E-22         0.00000E+00
    0.24182E-07         0.13970E-19         0.00000E+00
    0.25043E-07        -0.13039E-19         0.00000E+00
    0.25958E-07        -0.36322E-19         0.00000E+00
    0.26928E-07         0.23804E-19         0.00000E+00
    0.27956E-07        -0.20635E-19         0.00000E+00
    0.29044E-07        -0.24458E-19         0.00000E+00
    0.30193E-07         0.11176E-19         0.00000E+00
    0.31407E-07        -0.15039E-19         0.00000E+00
    0.32688E-07         0.13394E-19         0.00000E+00
    0.34039E-07        -0.16764E-19         0.00000E+00
    0.35462E-07         0.18626E-20         0.00000E+00
    0.36961E-07        -0.14105E-19         0.00000E+00
    0.38539E-07        -0.16764E-19         0.00000E+00
    0.40199E-07        -0.20489E-19         0.00000E+00
    0.41945E-07         0.45392E-20         0.00000E+00
    0.43781E-07         0.14901E-19         0.00000E+00
    0.45710E-07         0.35818E-20         0.00000E+00
    0.47736E-07         0.10871E-19         0.00000E+00
    0.49865E-07         0.70305E-20         0.00000E+00
    0.52100E-07         0.46566E-19         0.00000E+00
    0.54446E-07        -0.19285E-20         0.00000E+00
    0.56908E-07         0.22461E-19         0.00000E+00
    0.59492E-07        -0.18626E-20         0.00000E+00
    0.62203E-07         0.93132E-20         0.00000E+00
    0.65047E-07         0.88030E-20         0.00000E+00
    0.68029E-07         0.18626E-19         0.00000E+00
    0.69556E-07         0.00000E+00         0.00000E+00
    0.91678E-07         0.00000E+00         0.00000E+00
    0.89641E-07        -0.34170E-20         0.00000E+00
    0.85661E-07         0.17421E-19         0.00000E+00
    0.81864E-07        -0.25381E-19         0.00000E+00
    0.78242E-07        -0.26473E-19         0.00000E+00
    0.74786E-07        -0.34006E-20         0.00000E+00
    0.71491E-07        -0.28196E-19         0.00000E+00
    0.68347E-07         0.42730E-20         0.00000E+00
    0.65350E-07        -0.32856E-19         0.00000E+00
    0.62492E-07         0.93132E-20         0.00000E+00
    0.59768E-07         0.28213E-20         0.00000E+00
    0.57171E-07         0.18626E-20         0.00000E+00
    0.54697E-07         0.76356E-20         0.00000E+00
    0.52339E-07         0.37253E-20         0.00000E+00
    0.50092E-07         0.91406E-20         0.00000E+00
    0.47953E-07         0.37345E-20         0.00000E+00
    0.45916E-07         0.12290E-19         0.00000E+00
    0.43977E-07         0.17695E-19         0.00000E+00
    0.42132E-07        -0.27940E-19         0.00000E+00
    0.40377E-07        -0.15937E-20         0.00000E+00
    0.38708E-07         0.75730E-20         0.00000E+00
    0.37121E-07        -0.14901E-19         0.00000E+00
    0.35614E-07        -0.74506E-20         0.00000E+00
    0.34183E-07        -0.26077E-19         0.00000E+00
    0.32825E-07         0.32071E-19         0.00000E+00
    0.31537E-07         0.89065E-20         0.00000E+00
    0.30316E-07         0.37253E-20         0.00000E+00
    0.29160E-07        -0.65193E-20         0.00000E+00
    0.28066E-07        -0.76046E-20         0.00000E+00
    0.27033E-07        -0.55387E-20         0.00000E+00
    0.26056E-07         0.43086E-19         0.00000E+00
    0.25136E-07         0.88799E-20         0.00000E+00
    0.24269E-07        -0.19874E-19         0.00000E+00
    0.23454E-07        -0.24355E-19         0.00000E+00
    0.22689E-07         0.93132E-20         0.00000E+00
    0.21972E-07         0.11176E-19         0.00000E+00
    0.21303E-07         0.74506E-20         0.00000E+00
    0.20678E-07        -0.27940E-20         0.00000E+00
    0.20098E-07        -0.23937E-19         0.00000E+00
    0.19561E-07         0.18626E-19         0.00000E+00
    0.19066E-07        -0.31673E-19         0.00000E+00
    0.18611E-07        -0.35800E-20         0.00000E+00
    0.18196E-07        -0.16764E-19         0.00000E+00
    0.17820E-07        -0.74506E-20         0.00000E+00
    0.17482E-07         0.27940E-20         0.00000E+00
    0.17181E-07         0.81136E-20         0.00000E+00
    0.16917E-07         0.11176E-19         0.00000E+00
    0.16689E-07        -0.93132E-21         0.00000E+00
    0.16497E-07        -0.37253E-20         0.00000E+00
    0.16339E-07        -0.30521E-19         0.00000E+00
    0.16217E-07        -0.26077E-19         0.00000E+00
    0.16129E-07        -0.23078E-20         0.00000E+00
    0.16076E-07        -0.74506E-20         0.00000E+00
    0.16057E-07        -0.16764E-19         0.00000E+00
    0.16073E-07        -0.22352E-19         0.00000E+00
    0.16122E-07        -0.11233E-19         0.00000E+00
    0.16206E-07         0.18798E-19         0.00000E+00
    0.16325E-07        -0.59887E-20         0.00000E+00
    0.16479E-07         0.20190E-19         0.00000E+00
    0.16667E-07        -0.31732E-19         0.00000E+00
    0.16892E-07        -0.14901E-19         0.00000E+00
    0.17152E-07         0.12631E-19         0.00000E+00
    0.17449E-07        -0.23932E-19         0.00000E+00
    0.17783E-07         0.18626E-20         0.00000E+00
    0.18155E-07        -0.39833E-19         0.00000E+00
    0.18566E-07         0.74506E-20         0.00000E+00
    0.19017E-07        -0.16764E-19         0.00000E+00
    0.19508E-07        -0.42841E-19         0.00000E+00
    0.20040E-07         0.27940E-20         0.00000E+00
    0.20616E-07        -0.31353E-19         0.00000E+00
    0.21236E-07        -0.27008E-19         0.00000E+00
    0.21900E-07        -0.27416E-21         0.00000E+00
    0.22612E-07         0.15118E-20         0.00000E+00
    0.23372E-07         0.17660E-19         0.00000E+00
    0.24182E-07         0.12232E-20         0.00000E+00
    0.25043E-07        -0.11176E-19         0.00000E+00
    0.25958E-07        -0.22400E-19         0.00000E+00
    0.26928E-07         0.13413E-20         0.00000E+00
    0.27956E-07        -0.10099E-19         0.00000E+00
    0.29044E-07         0.30380E-20         0.00000E+00
    0.30193E-07        -0.15801E-20         0.00000E+00
    0.31407E-07        -0.73124E-20         0.00000E+00
    0.32688E-07         0.10820E-19         0.00000E+00
    0.34039E-07         0.18626E-20         0.00000E+00
    0.35462E-07         0.13396E-19         0.00000E+00
    0.36961E-07        -0.11176E-19         0.00000E+00
    0.38539E-07         0.00000E+00         0.00000E+00
    0.40199E-07        -0.26077E-19         0.00000E+00
    0.41945E-07         0.10245E-19         0.00000E+00
    0.43781E-07         0.18626E-20         0.00000E+00
    0.45710E-07         0.38687E-20         0.00000E+00
    0.47736E-07         0.15054E-19         0.00000E+00
    0.49865E-07         0.27940E-19         0.00000E+00
    0.52100E-07         0.10903E-19         0.00000E+00
    0.54446E-07         0.93132E-20         0.00000E+00
    0.56908E-07         0.11067E-19         0.00000E+00
    0.59492E-07         0.18626E-20         0.00000E+00
    0.62203E-07         0.00000E+00         0.00000E+00
    0.65047E-07         0.27519E-19         0.00000E+00
    0.68029E-07         0.17213E-19         0.00000E+00
    0.69556E-07        -0.18626E-20         0.00000E+00
    0.91678E-07         0.00000E+00         0.00000E+00
    0.89641E-07        -0.29802E-19         0.00000E+00
    0.85661E-07         0.52154E-19         0.00000E+00
    0.81864E-07        -0.37949E-19         0.00000E+00
    0.78242E-07        -0.22352E-19         0.00000E+00
    0.74786E-07        -0.20489E-19         0.00000E+00
    0.71491E-07        -0.20232E-19         0.00000E+00
    0.68347E-07        -0.79983E-20         0.00000E+00
    0.65350E-07         0.22352E-19         0.00000E+00
    0.62492E-07         0.24214E-19         0.00000E+00
    0.59768E-07        -0.93132E-20         0.00000E+00
    0.57171E-07         0.17695E-19         0.00000E+00
    0.54697E-07        -0.67043E-20         0.00000E+00
    0.52339E-07         0.18626E-20         0.00000E+00
    0.50092E-07         0.38979E-20         0.00000E+00
    0.47953E-07         0.26077E-19         0.00000E+00
    0.45916E-07         0.00000E+00         0.00000E+00
    0.43977E-07         0.24564E-19         0.00000E+00
    0.42132E-07        -0.31665E-19         0.00000E+00
    0.40377E-07        -0.39942E-20         0.00000E+00
    0.38708E-07         0.20489E-19         0.00000E+00
    0.37121E-07        -0.55879E-20         0.00000E+00
    0.35614E-07        -0.74506E-20         0.00000E+00
    0.34183E-07        -0.26077E-19         0.00000E+00
    0.32825E-07         0.89076E-20         0.00000E+00
    0.31537E-07         0.24214E-19         0.00000E+00
    0.30316E-07        -0.18626E-20         0.00000E+00
    0.29160E-07         0.42914E-20         0.00000E+00
    0.28066E-07        -0.77732E-21         0.00000E+00
    0.27033E-07        -0.18676E-19         0.00000E+00
    0.26056E-07         0.40978E-19         0.00000E+00
    0.25136E-07         0.11609E-19         0.00000E+00
    0.24269E-07         0.55879E-20         0.00000E+00
    0.23454E-07        -0.24074E-19         0.00000E+00
    0.22689E-07         0.22380E-19         0.00000E+00
    0.21972E-07        -0.20552E-20         0.00000E+00
    0.21303E-07         0.18626E-20         0.00000E+00
    0.20678E-07        -0.20994E-19         0.00000E+00
    0.20098E-07        -0.17973E-19         0.00000E+00
    0.19561E-07         0.27940E-20         0.00000E+00
    0.19066E-07        -0.24214E-19         0.00000E+00
    0.18611E-07        -0.37253E-20         0.00000E+00
    0.18196E-07        -0.20489E-19         0.00000E+00
    0.17820E-07        -0.14901E-19         0.00000E+00
    0.17482E-07        -0.16908E-19         0.00000E+00
    0.17181E-07         0.13970E-19         0.00000E+00
    0.16917E-07        -0.13039E-19         0.00000E+00
    0.16689E-07        -0.23307E-19         0.00000E+00
    0.16497E-07        -0.94084E-20         0.00000E+00
    0.16339E-07        -0.51223E-19         0.00000E+00
    0.16217E-07        -0.37253E-20         0.00000E+00
    0.16129E-07        -0.14174E-20         0.00000E+00
    0.16076E-07        -0.26077E-19         0.00000E+00
    0.16057E-07        -0.16764E-19         0.00000E+00
    0.16073E-07        -0.20489E-19         0.00000E+00
    0.16122E-07        -0.14901E-19         0.00000E+00
    0.16206E-07         0.13799E-19         0.00000E+00
    0.16325E-07        -0.23932E-20         0.00000E+00
    0.16479E-07        -0.34258E-20         0.00000E+00
    0.16667E-07        -0.24148E-19         0.00000E+00
    0.16892E-07        -0.29802E-19         0.00000E+00
    0.17152E-07         0.13385E-20         0.00000E+00
    0.17449E-07        -0.24497E-19         0.00000E+00
    0.17783E-07         0.18626E-19         0.00000E+00
    0.18155E-07        -0.27940E-19         0.00000E+00
    0.18566E-07         0.11638E-19         0.00000E+00
    0.19017E-07        -0.27940E-20         0.00000E+00
    0.19508E-07        -0.48494E-19         0.00000E+00
    0.20040E-07         0.17102E-19         0.00000E+00
    0.20616E-07         0.00000E+00         0.00000E+00
    0.21236E-07        -0.32573E-19         0.00000E+00
    0.21900E-07        -0.25198E-20         0.00000E+00
    0.22612E-07        -0.11176E-19         0.00000E+00
    0.23372E-07         0.22352E-19         0.00000E+00
    0.24182E-07         0.59356E-20         0.00000E+00
    0.25043E-07        -0.14901E-19         0.00000E+00
    0.25958E-07        -0.13922E-19         0.00000E+00
    0.26928E-07        -0.29802E-19         0.00000E+00
    0.27956E-07        -0.27940E-20         0.00000E+00
    0.29044E-07         0.18626E-20         0.00000E+00
    0.30193E-07        -0.74506E-20         0.00000E+00
    0.31407E-07         0.11969E-19         0.00000E+00
    0.32688E-07         0.87376E-20         0.00000E+00
    0.34039E-07         0.14901E-19         0.00000E+00
    0.35462E-07        -0.15259E-19         0.00000E+00
    0.36961E-07        -0.27940E-20         0.00000E+00
    0.38539E-07         0.83819E-20         0.00000E+00
    0.40199E-07        -0.18626E-19         0.00000E+00
    0.41945E-07         0.20974E-20         0.00000E+00
    0.43781E-07         0.55879E-20         0.00000E+00
    0.45710E-07        -0.37253E-20         0.00000E+00
    0.47736E-07         0.37253E-20         0.00000E+00
    0.49865E-07         0.14901E-19         0.00000E+00
    0.52100E-07         0.18626E-20         0.00000E+00
    0.54446E-07        -0.11110E-19         0.00000E+00
    0.56908E-07         0.93132E-20         0.00000E+00
    0.59492E-07         0.95626E-20         0.00000E+00
    0.62203E-07        -0.18626E-20         0.00000E+00
    0.65047E-07         0.27008E-19         0.00000E+00
    0.68029E-07         0.11176E-19         0.00000E+00
    0.69556E-07        -0.87004E-21         0.00000E+00
    0.91678E-07         0.00000E+00         0.00000E+00
    0.89641E-07        -0.22352E-19         0.00000E+00
    0.85661E-07         0.27940E-19         0.00000E+00
    0.81864E-07        -0.17930E-19         0.00000E+00
    0.78242E-07        -0.28871E-19         0.00000E+00
    0.74786E-07        -0.22352E-19         0.00000E+00
    0.71491E-07        -0.17021E-19         0.00000E+00
    0.68347E-07        -0.26077E-19         0.00000E+00
    0.65350E-07         0.38184E-19         0.00000E+00
    0.62492E-07         0.23283E-19         0.00000E+00
    0.59768E-07        -0.10245E-19         0.00000E+00
    0.57171E-07         0.20408E-19         0.00000E+00
    0.54697E-07        -0.54029E-20         0.00000E+00
    0.52339E-07         0.00000E+00         0.00000E+00
    0.50092E-07         0.18626E-20         0.00000E+00
    0.47953E-07         0.14901E-19         0.00000E+00
    0.45916E-07        -0.10245E-19         0.00000E+00
    0.43977E-07         0.12689E-19         0.00000E+00
    0.42132E-07        -0.46566E-20         0.00000E+00
    0.40377E-07        -0.17695E-19         0.00000E+00
    0.38708E-07         0.93132E-20         0.00000E+00
    0.37121E-07        -0.93132E-20         0.00000E+00
    0.35614E-07        -0.11328E-19         0.00000E+00
    0.34183E-07        -0.15832E-19         0.00000E+00
    0.32825E-07        -0.42509E-20         0.00000E+00
    0.31537E-07         0.93132E-21         0.00000E+00
    0.30316E-07         0.00000E+00         0.00000E+00
    0.29160E-07        -0.12673E-19         0.00000E+00
    0.28066E-07        -0.37253E-20         0.00000E+00
    0.27033E-07        -0.14901E-19         0.00000E+00
    0.26056E-07        -0.18626E-20         0.00000E+00
    0.25136E-07        -0.37253E-20         0.00000E+00
    0.24269E-07         0.93132E-20         0.00000E+00
    0.23454E-07        -0.85227E-20         0.00000E+00
    0.22689E-07        -0.18913E-20         0.00000E+00
    0.21972E-07         0.00000E+00         0.00000E+00
    0.21303E-07        -0.65193E-20         0.00000E+00
    0.20678E-07        -0.44703E-19         0.00000E+00
    0.20098E-07        -0.83819E-20         0.00000E+00
    0.19561E-07        -0.85146E-20         0.00000E+00
    0.19066E-07        -0.18626E-20         0.00000E+00
    0.18611E-07        -0.57332E-20         0.00000E+00
    0.18196E-07        -0.20489E-19         0.00000E+00
    0.17820E-07         0.33155E-20         0.00000E+00
    0.17482E-07        -0.21814E-19         0.00000E+00
    0.17181E-07         0.66300E-21         0.00000E+00
    0.16917E-07        -0.26077E-19         0.00000E+00
    0.16689E-07        -0.13039E-19         0.00000E+00
    0.16497E-07        -0.25982E-19         0.00000E+00
    0.16339E-07        -0.26290E-19         0.00000E+00
    0.16217E-07         0.00000E+00         0.00000E+00
    0.16129E-07        -0.93132E-21         0.00000E+00
    0.16076E-07        -0.24214E-19         0.00000E+00
    0.16057E-07        -0.55879E-20         0.00000E+00
    0.16073E-07        -0.14255E-19         0.00000E+00
    0.16122E-07        -0.83819E-20         0.00000E+00
    0.16206E-07        -0.37253E-20         0.00000E+00
    0.16325E-07         0.93132E-21         0.00000E+00
    0.16479E-07        -0.20489E-19         0.00000E+00
    0.16667E-07        -0.56545E-20         0.00000E+00
    0.16892E-07        -0.16764E-19         0.00000E+00
    0.17152E-07        -0.20489E-19         0.00000E+00
    0.17449E-07        -0.18626E-20         0.00000E+00
    0.17783E-07         0.74506E-20         0.00000E+00
    0.18155E-07        -0.93132E-21         0.00000E+00
    0.18566E-07        -0.37253E-20         0.00000E+00
    0.19017E-07         0.11905E-19         0.00000E+00
    0.19508E-07        -0.21420E-19         0.00000E+00
    0.20040E-07         0.71119E-20         0.00000E+00
    0.20616E-07         0.10864E-19         0.00000E+00
    0.21236E-07        -0.12107E-19         0.00000E+00
    0.21900E-07        -0.10245E-19         0.00000E+00
    0.22612E-07        -0.65193E-20         0.00000E+00
    0.23372E-07         0.16764E-19         0.00000E+00
    0.24182E-07         0.16764E-19         0.00000E+00
    0.25043E-07        -0.16764E-19         0.00000E+00
    0.25958E-07        -0.20489E-19         0.00000E+00
    0.26928E-07        -0.11176E-19         0.00000E+00
    0.27956E-07         0.78558E-21         0.00000E+00
    0.29044E-07        -0.98013E-20         0.00000E+00
    0.30193E-07         0.00000E+00         0.00000E+00
    0.31407E-07         0.12107E-19         0.00000E+00
    0.32688E-07         0.14901E-19         0.00000E+00
    0.34039E-07         0.55879E-20         0.00000E+00
    0.35462E-07        -0.24214E-19         0.00000E+00
    0.36961E-07        -0.54523E-20         0.00000E+00
    0.38539E-07        -0.25126E-20         0.00000E+00
    0.40199E-07        -0.18626E-20         0.00000E+00
    0.41945E-07        -0.10487E-20         0.00000E+00
    0.43781E-07         0.18626E-20         0.00000E+00
    0.45710E-07        -0.73071E-20         0.00000E+00
    0.47736E-07         0.93132E-21         0.00000E+00
    0.49865E-07         0.11176E-19         0.00000E+00
    0.52100E-07        -0.27940E-20         0.00000E+00
    0.54446E-07        -0.18626E-19         0.00000E+00
    0.56908E-07         0.19715E-20         0.00000E+00
    0.59492E-07         0.12789E-19         0.00000E+00
    0.62203E-07         0.65193E-20         0.00000E+00
    0.65047E-07         0.97343E-20         0.00000E+00
    0.68029E-07         0.32765E-20         0.00000E+00
    0.69556E-07         0.87004E-21         0.00000E+00
    0.91678E-07         0.00000E+00         0.00000E+00
    0.89641E-07        -0.21735E-19         0.00000E+00
    0.85661E-07        -0.39663E-19         0.00000E+00
    0.81864E-07        -0.74506E-20         0.00000E+00
    0.78242E-07        -0.47358E-19         0.00000E+00
    0.74786E-07         0.68013E-20         0.00000E+00
    0.71491E-07        -0.29802E-19         0.00000E+00
    0.68347E-07        -0.29802E-19         0.00000E+00
    0.65350E-07         0.87943E-20         0.00000E+00
    0.62492E-07         0.20207E-19         0.00000E+00
    0.59768E-07         0.55333E-20         0.00000E+00
    0.57171E-07         0.20814E-19         0.00000E+00
    0.54697E-07        -0.37253E-20         0.00000E+00
    0.52339E-07        -0.11176E-19         0.00000E+00
    0.50092E-07         0.74506E-20         0.00000E+00
    0.47953E-07        -0.37253E-20         0.00000E+00
    0.45916E-07        -0.14961E-20         0.00000E+00
    0.43977E-07        -0.11628E-20         0.00000E+00
    0.42132E-07         0.15920E-19         0.00000E+00
    0.40377E-07        -0.28477E-19         0.00000E+00
    0.38708E-07        -0.22597E-19         0.00000E+00
    0.37121E-07         0.00000E+00         0.00000E+00
    0.35614E-07        -0.18016E-19         0.00000E+00
    0.34183E-07         0.61514E-20         0.00000E+00
    0.32825E-07         0.00000E+00         0.00000E+00
    0.31537E-07        -0.25028E-19         0.00000E+00
    0.30316E-07         0.37253E-20         0.00000E+00
    0.29160E-07        -0.26077E-19         0.00000E+00
    0.28066E-07        -0.11176E-19         0.00000E+00
    0.27033E-07        -0.11176E-19         0.00000E+00
    0.26056E-07        -0.26077E-19         0.00000E+00
    0.25136E-07        -0.11176E-19         0.00000E+00
    0.24269E-07        -0.43577E-20         0.00000E+00
    0.23454E-07         0.00000E+00         0.00000E+00
    0.22689E-07        -0.14844E-19         0.00000E+00
    0.21972E-07         0.11561E-19         0.00000E+00
    0.21303E-07        -0.16062E-19         0.00000E+00
    0.20678E-07        -0.44547E-19         0.00000E+00
    0.20098E-07         0.13077E-20         0.00000E+00
    0.19561E-07        -0.14901E-19         0.00000E+00
    0.19066E-07         0.14917E-19         0.00000E+00
    0.18611E-07         0.29058E-21         0.00000E+00
    0.18196E-07        -0.31671E-20         0.00000E+00
    0.17820E-07         0.11995E-19         0.00000E+00
    0.17482E-07        -0.11963E-19         0.00000E+00
    0.17181E-07        -0.14901E-19         0.00000E+00
    0.16917E-07        -0.15192E-19         0.00000E+00
    0.16689E-07         0.00000E+00         0.00000E+00
    0.16497E-07        -0.33528E-19         0.00000E+00
    0.16339E-07         0.27147E-20         0.00000E+00
    0.16217E-07        -0.10517E-19         0.00000E+00
    0.16129E-07        -0.97225E-21         0.00000E+00
    0.16076E-07        -0.14901E-19         0.00000E+00
    0.16057E-07         0.14901E-19         0.00000E+00
    0.16073E-07        -0.16193E-19         0.00000E+00
    0.16122E-07        -0.91983E-20         0.00000E+00
    0.16206E-07        -0.11176E-19         0.00000E+00
    0.16325E-07        -0.10115E-19         0.00000E+00
    0.16479E-07        -0.22951E-19         0.00000E+00
    0.16667E-07        -0.37253E-20         0.00000E+00
    0.16892E-07         0.74506E-20         0.00000E+00
    0.17152E-07        -0.26077E-19         0.00000E+00
    0.17449E-07         0.14901E-19         0.00000E+00
    0.17783E-07         0.36519E-20         0.00000E+00
    0.18155E-07         0.60150E-20         0.00000E+00
    0.18566E-07        -0.83758E-20         0.00000E+00
    0.19017E-07         0.11176E-19         0.00000E+00
    0.19508E-07         0.19928E-20         0.00000E+00
    0.20040E-07        -0.11853E-20         0.00000E+00
    0.20616E-07         0.11176E-19         0.00000E+00
    0.21236E-07         0.55418E-20         0.00000E+00
    0.21900E-07         0.24110E-20         0.00000E+00
    0.22612E-07         0.11610E-20         0.00000E+00
    0.23372E-07         0.11106E-19         0.00000E+00
    0.24182E-07         0.14206E-19         0.00000E+00
    0.25043E-07        -0.19230E-19         0.00000E+00
    0.25958E-07        -0.18531E-19         0.00000E+00
    0.26928E-07         0.82706E-20         0.00000E+00
    0.27956E-07         0.37253E-20         0.00000E+00
    0.29044E-07        -0.13925E-19         0.00000E+00
    0.30193E-07        -0.42903E-20         0.00000E+00
    0.31407E-07         0.95896E-20         0.00000E+00
    0.32688E-07        -0.71137E-21         0.00000E+00
    0.34039E-07         0.74506E-20         0.00000E+00
    0.35462E-07        -0.11892E-19         0.00000E+00
    0.36961E-07        -0.16493E-19         0.00000E+00
    0.38539E-07        -0.15464E-19         0.00000E+00
    0.40199E-07         0.74506E-20         0.00000E+00
    0.41945E-07         0.34905E-20         0.00000E+00
    0.43781E-07        -0.46560E-20         0.00000E+00
    0.45710E-07        -0.37253E-20         0.00000E+00
    0.47736E-07        -0.21673E-20         0.00000E+00
    0.49865E-07         0.14061E-19         0.00000E+00
    0.52100E-07        -0.12492E-19         0.00000E+00
    0.54446E-07        -0.74506E-20         0.00000E+00
    0.56908E-07        -0.11393E-19         0.00000E+00
    0.59492E-07         0.74506E-20         0.00000E+00
    0.62203E-07         0.19781E-19         0.00000E+00
    0.65047E-07        -0.54097E-20         0.00000E+00
    0.68029E-07        -0.89750E-21         0.00000E+00
    0.69556E-07        -0.17401E-20         0.00000E+00
CELL_DATA       5000
TENSORS stressef double 
   -0.14425E+08         0.54232E+06         0.00000E+00
    0.54232E+06        -0.27894E+08         0.00000E+00
    0.00000E+00         0.00000E+00        -0.14646E+08
 
   -0.14529E+08         0.13749E+07         0.00000E+00
    0.13749E+07        -0.28232E+08         0.00000E+00
    0.00000E+00         0.00000E+00        -0.14646E+08
 
   -0.14562E+08         0.18716E+07         0.00000E+00
    0.18716E+07        -0.28728E+08         0.00000E+00
    0.00000E+00         0.00000E+00        -0.14646E+08
 
   -0.14584E+08         0.22306E+07         0.00000E+00
    0.22306E+07        -0.29306E+08         0.00000E+00
    0.00000E+00         0.00000E+00        -0.14646E+08
 
   -0.14598E+08         0.25014E+07         0.00000E+00
    0.25014E+07        -0.29958E+08         0.00000E+00
    0.00000E+00         0.00000E+00        -0.14646E+08
 
   -0.14608E+08         0.27142E+07         0.00000E+00
    0.27142E+07        -0.30662E+08         0.00000E+00
    0.00000E+00         0.00000E+00        -0.14646E+08
 
   -0.14615E+08         0.28861E+07         0.00000E+00
    0.28861E+07        -0.31401E+08         0.00000E+00
    0.00000E+00         0.00000E+00        -0.14646E+08
 
   -0.14620E+08         0.30272E+07         0.00000E+00
    0.30272E+07        -0.32158E+08         0.00000E+00
    0.00000E+00         0.00000E+00        -0.14646E+08
 
   -0.14643E+08         0.31373E+07         0.00000E+00
    0.31373E+07        -0.32902E+08         0.00000E+00
    0.00000E+00         0.00000E+00        -0.14664E+08
 
   -0.14824E+08         0.31720E+07         0.00000E+00
    0.31720E+07        -0.33475E+08         0.00000E+00
    0.00000E+00         0.00000E+00        -0.14840E+08
 
   -0.15074E+08         0.31658E+07         0.00000E+00
    0.31658E+07        -0.33960E+08         0.00000E+00
    0.00000E+00         0.00000E+00        -0.15086E+08
 
   -0.15314E+08         0.31488E+07         0.00000E+00
    0.31488E+07        -0.34433E+08         0.00000E+00
    0.00000E+00         0.00000E+00        -0.15323E+08
 
   -0.15542E+08         0.31227E+07         0.00000E+00
    0.31227E+07        -0.34889E+08         0.00000E+00
    0.00000E+00         0.00000E+00        -0.15549E+08
 
   -0.15759E+08         0.30891E+07         0.00000E+00
    0.30891E+07        -0.35327E+08         0.00000E+00
    0.00000E+00         0.00000E+00        -0.15763E+08
 
   -0.15964E+08         0.30487E+07         0.00000E+00
    0.30487E+07        -0.35745E+08         0.00000E+00
    0.00000E+00         0.00000E+00        -0.15966E+08
 
   -0.16158E+08         0.30026E+07         0.00000E+00
    0.30026E+07        -0.36144E+08         0.00000E+00
    0.00000E+00         0.00000E+00        -0.16157E+08
 
   -0.16339E+08         0.29516E+07         0.00000E+00
    0.29516E+07        -0.36521E+08         0.00000E+00
    0.00000E+00         0.00000E+00        -0.16336E+08
 
   -0.16510E+08         0.28963E+07         0.00000E+00
    0.28963E+07        -0.36879E+08         0.00000E+00
    0.00000E+00         0.00000E+00        -0.16505E+08
 
   -0.16669E+08         0.28375E+07         0.00000E+00
    0.28375E+07        -0.37217E+08         0.00000E+00
    0.00000E+00         0.00000E+00        -0.16664E+08
 
   -0.16819E+08         0.27758E+07         0.00000E+00
    0.27758E+07        -0.37537E+08         0.00000E+00
    0.00000E+00         0.00000E+00        -0.16812E+08
 
   -0.16960E+08         0.27119E+07         0.00000E+00
    0.27119E+07        -0.37839E+08         0.00000E+00
    0.00000E+00         0.00000E+00        -0.16952E+08
 
   -0.17092E+08         0.26464E+07         0.00000E+00
    0.26464E+07        -0.38123E+08         0.00000E+00
    0.00000E+00         0.00000E+00        -0.17083E+08
 
   -0.17216E+08         0.25797E+07         0.00000E+00
    0.25797E+07        -0.38393E+08         0.00000E+00
    0.00000E+00         0.00000E+00        -0.17206E+08
 
   -0.17332E+08         0.25124E+07         0.00000E+00
    0.25124E+07        -0.38647E+08         0.00000E+00
    0.00000E+00         0.00000E+00        -0.17322E+08
 
   -0.17442E+08         0.24451E+07         0.00000E+00
    0.24451E+07        -0.38887E+08         0.00000E+00
    0.00000E+00         0.00000E+00        -0.17432E+08
 
   -0.17546E+08         0.23780E+07         0.00000E+00
    0.23780E+07        -0.39115E+08         0.00000E+00
    0.00000E+00         0.00000E+00        -0.17535E+08
 
   -0.17644E+08         0.23115E+07         0.00000E+00
    0.23115E+07        -0.39330E+08         0.00000E+00
    0.00000E+00         0.00000E+00        -0.17633E+08
 
   -0.17737E+08         0.22461E+07         0.00000E+00
    0.22461E+07        -0.39534E+08         0.00000E+00
    0.00000E+00         0.00000E+00        -0.17726E+08
 
   -0.17825E+08         0.21819E+07         0.00000E+00
    0.21819E+07        -0.39728E+08         0.00000E+00
    0.00000E+00         0.00000E+00        -0.17815E+08
 
   -0.17909E+08         0.21193E+07         0.00000E+00
    0.21193E+07        -0.39913E+08         0.00000E+00
    0.00000E+00         0.00000E+00        -0.17899E+08
 
   -0.17990E+08         0.20585E+07         0.00000E+00
    0.20585E+07        -0.40088E+08         0.00000E+00
    0.00000E+00         0.00000E+00        -0.17979E+08
 
   -0.18066E+08         0.19996E+07         0.00000E+00
    0.19996E+07        -0.40255E+08         0.00000E+00
    0.00000E+00         0.00000E+00        -0.18056E+08
 
   -0.18139E+08         0.19428E+07         0.00000E+00
    0.19428E+07        -0.40414E+08         0.00000E+00
    0.00000E+00         0.00000E+00        -0.18130E+08
 
   -0.18210E+08         0.18883E+07         0.00000E+00
    0.18883E+07        -0.40567E+08         0.00000E+00
    0.00000E+00         0.00000E+00        -0.18200E+08
 
   -0.18277E+08         0.18360E+07         0.00000E+00
    0.18360E+07        -0.40712E+08         0.00000E+00
    0.00000E+00         0.00000E+00        -0.18268E+08
 
   -0.18342E+08         0.17862E+07         0.00000E+00
    0.17862E+07        -0.40852E+08         0.00000E+00
    0.00000E+00         0.00000E+00        -0.18334E+08
 
   -0.18405E+08         0.17389E+07         0.00000E+00
    0.17389E+07        -0.40987E+08         0.00000E+00
    0.00000E+00         0.00000E+00        -0.18397E+08
 
   -0.18466E+08         0.16941E+07         0.00000E+00
    0.16941E+07        -0.41116E+08         0.00000E+00
    0.00000E+00         0.00000E+00        -0.18459E+08
 
   -0.18525E+08         0.16519E+07         0.00000E+00
    0.16519E+07        -0.41240E+08         0.00000E+00
    0.00000E+00         0.00000E+00        -0.18518E+08
 
   -0.18582E+08         0.16122E+07         0.00000E+00
    0.16122E+07        -0.41360E+08         0.00000E+00
    0.00000E+00         0.00000E+00        -0.18576E+08
 
   -0.18638E+08         0.15752E+07         0.00000E+00
    0.15752E+07        -0.41477E+08         0.00000E+00
    0.00000E+00         0.00000E+00        -0.18632E+08
 
   -0.18692E+08         0.15408E+07         0.00000E+00
    0.15408E+07        -0.41589E+08         0.00000E+00
    0.00000E+00         0.00000E+00        -0.18687E+08
 
   -0.18746E+08         0.15090E+07         0.00000E+00
    0.15090E+07        -0.41699E+08         0.00000E+00
    0.00000E+00         0.00000E+00        -0.18740E+08
 
   -0.18798E+08         0.14797E+07         0.00000E+00
    0.14797E+07        -0.41806E+08         0.00000E+00
    0.00000E+00         0.00000E+00        -0.18793E+08
 
   -0.18849E+08         0.14531E+07         0.00000E+00
    0.14531E+07        -0.41910E+08         0.00000E+00
    0.00000E+00         0.00000E+00        -0.18845E+08
 
   -0.18899E+08         0.14290E+07         0.00000E+00
    0.14290E+07        -0.42011E+08         0.00000E+00
    0.00000E+00         0.00000E+00        -0.18895E+08
 
   -0.18949E+08         0.14074E+07         0.00000E+00
    0.14074E+07        -0.42111E+08         0.00000E+00
    0.00000E+00         0.00000E+00        -0.18945E+08
 
   -0.18998E+08         0.13883E+07         0.00000E+00
    0.13883E+07        -0.42209E+08         0.00000E+00
    0.00000E+00         0.00000E+00        -0.18995E+08
 
   -0.19047E+08         0.13718E+07         0.00000E+00
    0.13718E+07        -0.42306E+08         0.00000E+00
    0.00000E+00         0.00000E+00        -0.19044E+08
 
   -0.19095E+08         0.13576E+07         0.00000E+00
    0.13576E+07        -0.42401E+08         0.00000E+00
    0.00000E+00         0.00000E+00        -0.19093E+08
 
   -0.19143E+08         0.13459E+07         0.00000E+00
    0.13459E+07        -0.42495E+08         0.00000E+00
    0.00000E+00         0.00000E+00        -0.19142E+08
 
   -0.19191E+08         0.13366E+07         0.00000E+00
    0.13366E+07        -0.42589E+08         0.00000E+00
    0.00000E+00         0.00000E+00        -0.19190E+08
 
   -0.19239E+08         0.13296E+07         0.00000E+00
    0.13296E+07        -0.42682E+08         0.00000E+00
    0.00000E+00         0.00000E+00        -0.19239E+08
 
   -0.19288E+08         0.13249E+07         0.00000E+00
    0.13249E+07        -0.42775E+08         0.00000E+00
    0.00000E+00         0.00000E+00        -0.19288E+08
 
   -0.19336E+08         0.13225E+07         0.00000E+00
    0.13225E+07        -0.42869E+08         0.00000E+00
    0.00000E+00         0.00000E+00        -0.19337E+08
 
   -0.19386E+08         0.13223E+07         0.00000E+00
    0.13223E+07        -0.42962E+08         0.00000E+00
    0.00000E+00         0.00000E+00        -0.19386E+08
 
   -0.19435E+08         0.13242E+07         0.00000E+00
    0.13242E+07        -0.43056E+08         0.00000E+00
    0.00000E+00         0.00000E+00        -0.19436E+08
 
   -0.19486E+08         0.13283E+07         0.00000E+00
    0.13283E+07        -0.43151E+08         0.00000E+00
    0.00000E+00         0.00000E+00        -0.19487E+08
 
   -0.19537E+08         0.13344E+07         0.00000E+00
    0.13344E+07        -0.43247E+08         0.00000E+00
    0.00000E+00         0.00000E+00        -0.19539E+08
 
   -0.19589E+08         0.13425E+07         0.00000E+00
    0.13425E+07        -0.43344E+08         0.00000E+00
    0.00000E+00         0.00000E+00        -0.19591E+08
 
   -0.19642E+08         0.13525E+07         0.00000E+00
    0.13525E+07        -0.43443E+08         0.00000E+00
    0.00000E+00         0.00000E+00        -0.19645E+08
 
   -0.19696E+08         0.13643E+07         0.00000E+00
    0.13643E+07        -0.43544E+08         0.00000E+00
    0.00000E+00         0.00000E+00        -0.19700E+08
 
   -0.19752E+08         0.13779E+07         0.00000E+00
    0.13779E+07        -0.43647E+08         0.00000E+00
    0.00000E+00         0.00000E+00        -0.19756E+08
 
   -0.19810E+08         0.13932E+07         0.00000E+00
    0.13932E+07        -0.43753E+08         0.00000E+00
    0.00000E+00         0.00000E+00        -0.19814E+08
 
   -0.19869E+08         0.14100E+07         0.00000E+00
    0.14100E+07        -0.43861E+08         0.00000E+00
    0.00000E+00         0.00000E+00        -0.19873E+08
 
   -0.19930E+08         0.14282E+07         0.00000E+00
    0.14282E+07        -0.43973E+08         0.00000E+00
    0.00000E+00         0.00000E+00        -0.19934E+08
 
   -0.19993E+08         0.14476E+07         0.00000E+00
    0.14476E+07        -0.44088E+08         0.00000E+00
    0.00000E+00         0.00000E+00        -0.19998E+08
 
   -0.20058E+08         0.14683E+07         0.00000E+00
    0.14683E+07        -0.44207E+08         0.00000E+00
    0.00000E+00         0.00000E+00        -0.20063E+08
 
   -0.20126E+08         0.14898E+07         0.00000E+00
    0.14898E+07        -0.44331E+08         0.00000E+00
    0.00000E+00         0.00000E+00        -0.20131E+08
 
   -0.20197E+08         0.15121E+07         0.00000E+00
    0.15121E+07        -0.44460E+08         0.00000E+00
    0.00000E+00         0.00000E+00        -0.20202E+08
 
   -0.20270E+08         0.15349E+07         0.00000E+00
    0.15349E+07        -0.44594E+08         0.00000E+00
    0.00000E+00         0.00000E+00        -0.20276E+08
 
   -0.20347E+08         0.15580E+07         0.00000E+00
    0.15580E+07        -0.44734E+08         0.00000E+00
    0.00000E+00         0.00000E+00        -0.20353E+08
 
   -0.20427E+08         0.15811E+07         0.00000E+00
    0.15811E+07        -0.44880E+08         0.00000E+00
    0.00000E+00         0.00000E+00        -0.20433E+08
 
   -0.20511E+08         0.16039E+07         0.00000E+00
    0.16039E+07        -0.45033E+08         0.00000E+00
    0.00000E+00         0.00000E+00        -0.20517E+08
 
   -0.20599E+08         0.16261E+07         0.00000E+00
    0.16261E+07        -0.45195E+08         0.00000E+00
    0.00000E+00         0.00000E+00        -0.20605E+08
 
   -0.20691E+08         0.16473E+07         0.00000E+00
    0.16473E+07        -0.45364E+08         0.00000E+00
    0.00000E+00         0.00000E+00        -0.20697E+08
 
   -0.20788E+08         0.16670E+07         0.00000E+00
    0.16670E+07        -0.45543E+08         0.00000E+00
    0.00000E+00         0.00000E+00        -0.20794E+08
 
   -0.20891E+08         0.16850E+07         0.00000E+00
    0.16850E+07        -0.45731E+08         0.00000E+00
    0.00000E+00         0.00000E+00        -0.20896E+08
 
   -0.20998E+08         0.17006E+07         0.00000E+00
    0.17006E+07        -0.45931E+08         0.00000E+00
    0.00000E+00         0.00000E+00        -0.21003E+08
 
   -0.21111E+08         0.17135E+07         0.00000E+00
    0.17135E+07        -0.46141E+08         0.00000E+00
    0.00000E+00         0.00000E+00        -0.21115E+08
 
   -0.21230E+08         0.17232E+07         0.00000E+00
    0.17232E+07        -0.46365E+08         0.00000E+00
    0.00000E+00         0.00000E+00        -0.21234E+08
 
   -0.21356E+08         0.17290E+07         0.00000E+00
    0.17290E+07        -0.46601E+08         0.00000E+00
    0.00000E+00         0.00000E+00        -0.21359E+08
 
   -0.21489E+08         0.17306E+07         0.00000E+00
    0.17306E+07        -0.46851E+08         0.00000E+00
    0.00000E+00         0.00000E+00        -0.21491E+08
 
   -0.21629E+08         0.17273E+07         0.00000E+00
    0.17273E+07        -0.47116E+08         0.00000E+00
    0.00000E+00         0.00000E+00        -0.21630E+08
 
   -0.21776E+08         0.17188E+07         0.00000E+00
    0.17188E+07        -0.47397E+08         0.00000E+00
    0.00000E+00         0.00000E+00        -0.21776E+08
 
   -0.21930E+08         0.17045E+07         0.00000E+00
    0.17045E+07        -0.47693E+08         0.00000E+00
    0.00000E+00         0.00000E+00        -0.21929E+08
 
   -0.22093E+08         0.16840E+07         0.00000E+00
    0.16840E+07        -0.48004E+08         0.00000E+00
    0.00000E+00         0.00000E+00        -0.22090E+08
 
   -0.22262E+08         0.16569E+07         0.00000E+00
    0.16569E+07        -0.48332E+08         0.00000E+00
    0.00000E+00         0.00000E+00        -0.22258E+08
 
   -0.22439E+08         0.16230E+07         0.00000E+00
    0.16230E+07        -0.48673E+08         0.00000E+00
    0.00000E+00         0.00000E+00        -0.22434E+08
 
   -0.22622E+08         0.15819E+07         0.00000E+00
    0.15819E+07        -0.49028E+08         0.00000E+00
    0.00000E+00         0.00000E+00        -0.22615E+08
 
   -0.22810E+08         0.15332E+07         0.00000E+00
    0.15332E+07        -0.49394E+08         0.00000E+00
    0.00000E+00         0.00000E+00        -0.22801E+08
 
   -0.23002E+08         0.14766E+07         0.00000E+00
    0.14766E+07        -0.49768E+08         0.00000E+00
    0.00000E+00         0.00000E+00        -0.22991E+08
 
   -0.23195E+08         0.14111E+07         0.00000E+00
    0.14111E+07        -0.50146E+08         0.00000E+00
    0.00000E+00         0.00000E+00        -0.23182E+08
 
   -0.23386E+08         0.13355E+07         0.00000E+00
    0.13355E+07        -0.50521E+08         0.00000E+00
    0.00000E+00         0.00000E+00        -0.23371E+08
 
   -0.23573E+08         0.12472E+07         0.00000E+00
    0.12472E+07        -0.50888E+08         0.00000E+00
    0.00000E+00         0.00000E+00        -0.23555E+08
 
   -0.23751E+08         0.11419E+07         0.00000E+00
    0.11419E+07        -0.51238E+08         0.00000E+00
    0.00000E+00         0.00000E+00        -0.23729E+08
 
   -0.23916E+08         0.10123E+07         0.00000E+00
    0.10123E+07        -0.51565E+08         0.00000E+00
    0.00000E+00         0.00000E+00        -0.23888E+08
 
   -0.24064E+08         0.84501E+06         0.00000E+00
    0.84501E+06        -0.51857E+08         0.00000E+00
    0.00000E+00         0.00000E+00        -0.24026E+08
 
   -0.24195E+08         0.61809E+06         0.00000E+00
    0.61809E+06        -0.52113E+08         0.00000E+00
    0.00000E+00         0.00000E+00        -0.24142E+08
 
   -0.24311E+08         0.24342E+06         0.00000E+00
    0.24342E+06        -0.52310E+08         0.00000E+00
    0.00000E+00         0.00000E+00        -0.24212E+08
 
   -0.14010E+08         0.45488E+06         0.00000E+00
    0.45488E+06        -0.28086E+08         0.00000E+00
    0.00000E+00         0.00000E+00        -0.14646E+08
 
   -0.14290E+08         0.12105E+07         0.00000E+00
    0.12105E+07        -0.28357E+08         0.00000E+00
    0.00000E+00         0.00000E+00        -0.14646E+08
 
   -0.14393E+08         0.17163E+07         0.00000E+00
    0.17163E+07        -0.28809E+08         0.00000E+00
    0.00000E+00         0.00000E+00        -0.14646E+08
 
   -0.14458E+08         0.20768E+07         0.00000E+00
    0.20768E+07        -0.29368E+08         0.00000E+00
    0.00000E+00         0.00000E+00        -0.14646E+08
 
   -0.14500E+08         0.23530E+07         0.00000E+00
    0.23530E+07        -0.30005E+08         0.00000E+00
    0.00000E+00         0.00000E+00        -0.14646E+08
 
   -0.14530E+08         0.25711E+07         0.00000E+00
    0.25711E+07        -0.30700E+08         0.00000E+00
    0.00000E+00         0.00000E+00        -0.14646E+08
 
   -0.14551E+08         0.27487E+07         0.00000E+00
    0.27487E+07        -0.31432E+08         0.00000E+00
    0.00000E+00         0.00000E+00        -0.14646E+08
 
   -0.14568E+08         0.28954E+07         0.00000E+00
    0.28954E+07        -0.32184E+08         0.00000E+00
    0.00000E+00         0.00000E+00        -0.14646E+08
 
   -0.14597E+08         0.30125E+07         0.00000E+00
    0.30125E+07        -0.32927E+08         0.00000E+00
    0.00000E+00         0.00000E+00        -0.14661E+08
 
   -0.14781E+08         0.30565E+07         0.00000E+00
    0.30565E+07        -0.33501E+08         0.00000E+00
    0.00000E+00         0.00000E+00        -0.14831E+08
 
   -0.15037E+08         0.30588E+07         0.00000E+00
    0.30588E+07        -0.33984E+08         0.00000E+00
    0.00000E+00         0.00000E+00        -0.15076E+08
 
   -0.15282E+08         0.30494E+07         0.00000E+00
    0.30494E+07        -0.34454E+08         0.00000E+00
    0.00000E+00         0.00000E+00        -0.15311E+08
 
   -0.15516E+08         0.30302E+07         0.00000E+00
    0.30302E+07        -0.34909E+08         0.00000E+00
    0.00000E+00         0.00000E+00        -0.15535E+08
 
   -0.15738E+08         0.30026E+07         0.00000E+00
    0.30026E+07        -0.35345E+08         0.00000E+00
    0.00000E+00         0.00000E+00        -0.15749E+08
 
   -0.15947E+08         0.29678E+07         0.00000E+00
    0.29678E+07        -0.35762E+08         0.00000E+00
    0.00000E+00         0.00000E+00        -0.15950E+08
 
   -0.16143E+08         0.29267E+07         0.00000E+00
    0.29267E+07        -0.36158E+08         0.00000E+00
    0.00000E+00         0.00000E+00        -0.16141E+08
 
   -0.16328E+08         0.28802E+07         0.00000E+00
    0.28802E+07        -0.36535E+08         0.00000E+00
    0.00000E+00         0.00000E+00        -0.16320E+08
 
   -0.16501E+08         0.28290E+07         0.00000E+00
    0.28290E+07        -0.36891E+08         0.00000E+00
    0.00000E+00         0.00000E+00        -0.16488E+08
 
   -0.16664E+08         0.27740E+07         0.00000E+00
    0.27740E+07        -0.37229E+08         0.00000E+00
    0.00000E+00         0.00000E+00        -0.16646E+08
 
   -0.16816E+08         0.27157E+07         0.00000E+00
    0.27157E+07        -0.37547E+08         0.00000E+00
    0.00000E+00         0.00000E+00        -0.16794E+08
 
   -0.16958E+08         0.26549E+07         0.00000E+00
    0.26549E+07        -0.37848E+08         0.00000E+00
    0.00000E+00         0.00000E+00        -0.16934E+08
 
   -0.17091E+08         0.25922E+07         0.00000E+00
    0.25922E+07        -0.38132E+08         0.00000E+00
    0.00000E+00         0.00000E+00        -0.17065E+08
 
   -0.17217E+08         0.25282E+07         0.00000E+00
    0.25282E+07        -0.38401E+08         0.00000E+00
    0.00000E+00         0.00000E+00        -0.17188E+08
 
   -0.17334E+08         0.24634E+07         0.00000E+00
    0.24634E+07        -0.38655E+08         0.00000E+00
    0.00000E+00         0.00000E+00        -0.17305E+08
 
   -0.17445E+08         0.23982E+07         0.00000E+00
    0.23982E+07        -0.38894E+08         0.00000E+00
    0.00000E+00         0.00000E+00        -0.17415E+08
 
   -0.17550E+08         0.23332E+07         0.00000E+00
    0.23332E+07        -0.39121E+08         0.00000E+00
    0.00000E+00         0.00000E+00        -0.17518E+08
 
   -0.17649E+08         0.22687E+07         0.00000E+00
    0.22687E+07        -0.39336E+08         0.00000E+00
    0.00000E+00         0.00000E+00        -0.17617E+08
 
   -0.17742E+08         0.22050E+07         0.00000E+00
    0.22050E+07        -0.39540E+08         0.00000E+00
    0.00000E+00         0.00000E+00        -0.17710E+08
 
   -0.17831E+08         0.21425E+07         0.00000E+00
    0.21425E+07        -0.39734E+08         0.00000E+00
    0.00000E+00         0.00000E+00        -0.17799E+08
 
   -0.17915E+08         0.20814E+07         0.00000E+00
    0.20814E+07        -0.39918E+08         0.00000E+00
    0.00000E+00         0.00000E+00        -0.17884E+08
 
   -0.17995E+08         0.20220E+07         0.00000E+00
    0.20220E+07        -0.40093E+08         0.00000E+00
    0.00000E+00         0.00000E+00        -0.17965E+08
 
   -0.18072E+08         0.19644E+07         0.00000E+00
    0.19644E+07        -0.40259E+08         0.00000E+00
    0.00000E+00         0.00000E+00        -0.18042E+08
 
   -0.18145E+08         0.19089E+07         0.00000E+00
    0.19089E+07        -0.40418E+08         0.00000E+00
    0.00000E+00         0.00000E+00        -0.18116E+08
 
   -0.18215E+08         0.18555E+07         0.00000E+00
    0.18555E+07        -0.40570E+08         0.00000E+00
    0.00000E+00         0.00000E+00        -0.18188E+08
 
   -0.18283E+08         0.18043E+07         0.00000E+00
    0.18043E+07        -0.40716E+08         0.00000E+00
    0.00000E+00         0.00000E+00        -0.18256E+08
 
   -0.18348E+08         0.17555E+07         0.00000E+00
    0.17555E+07        -0.40856E+08         0.00000E+00
    0.00000E+00         0.00000E+00        -0.18322E+08
 
   -0.18410E+08         0.17091E+07         0.00000E+00
    0.17091E+07        -0.40990E+08         0.00000E+00
    0.00000E+00         0.00000E+00        -0.18386E+08
 
   -0.18471E+08         0.16652E+07         0.00000E+00
    0.16652E+07        -0.41119E+08         0.00000E+00
    0.00000E+00         0.00000E+00        -0.18448E+08
 
   -0.18530E+08         0.16237E+07         0.00000E+00
    0.16237E+07        -0.41243E+08         0.00000E+00
    0.00000E+00         0.00000E+00        -0.18508E+08
 
   -0.18586E+08         0.15848E+07         0.00000E+00
    0.15848E+07        -0.41363E+08         0.00000E+00
    0.00000E+00         0.00000E+00        -0.18566E+08
 
   -0.18642E+08         0.15485E+07         0.00000E+00
    0.15485E+07        -0.41479E+08         0.00000E+00
    0.00000E+00         0.00000E+00        -0.18623E+08
 
   -0.18696E+08         0.15147E+07         0.00000E+00
    0.15147E+07        -0.41592E+08         0.00000E+00
    0.00000E+00         0.00000E+00        -0.18679E+08
 
   -0.18749E+08         0.14834E+07         0.00000E+00
    0.14834E+07        -0.41701E+08         0.00000E+00
    0.00000E+00         0.00000E+00        -0.18733E+08
 
   -0.18800E+08         0.14547E+07         0.00000E+00
    0.14547E+07        -0.41808E+08         0.00000E+00
    0.00000E+00         0.00000E+00        -0.18786E+08
 
   -0.18851E+08         0.14284E+07         0.00000E+00
    0.14284E+07        -0.41912E+08         0.00000E+00
    0.00000E+00         0.00000E+00        -0.18838E+08
 
   -0.18901E+08         0.14047E+07         0.00000E+00
    0.14047E+07        -0.42013E+08         0.00000E+00
    0.00000E+00         0.00000E+00        -0.18890E+08
 
   -0.18950E+08         0.13835E+07         0.00000E+00
    0.13835E+07        -0.42113E+08         0.00000E+00
    0.00000E+00         0.00000E+00        -0.18940E+08
 
   -0.18999E+08         0.13648E+07         0.00000E+00
    0.13648E+07        -0.42211E+08         0.00000E+00
    0.00000E+00         0.00000E+00        -0.18990E+08
 
   -0.19047E+08         0.13484E+07         0.00000E+00
    0.13484E+07        -0.42307E+08         0.00000E+00
    0.00000E+00         0.00000E+00        -0.19040E+08
 
   -0.19095E+08         0.13345E+07         0.00000E+00
    0.13345E+07        -0.42403E+08         0.00000E+00
    0.00000E+00         0.00000E+00        -0.19089E+08
 
   -0.19143E+08         0.13229E+07         0.00000E+00
    0.13229E+07        -0.42497E+08         0.00000E+00
    0.00000E+00         0.00000E+00        -0.19138E+08
 
   -0.19190E+08         0.13137E+07         0.00000E+00
    0.13137E+07        -0.42591E+08         0.00000E+00
    0.00000E+00         0.00000E+00        -0.19188E+08
 
   -0.19238E+08         0.13068E+07         0.00000E+00
    0.13068E+07        -0.42684E+08         0.00000E+00
    0.00000E+00         0.00000E+00        -0.19237E+08
 
   -0.19286E+08         0.13021E+07         0.00000E+00
    0.13021E+07        -0.42777E+08         0.00000E+00
    0.00000E+00         0.00000E+00        -0.19286E+08
 
   -0.19334E+08         0.12996E+07         0.00000E+00
    0.12996E+07        -0.42870E+08         0.00000E+00
    0.00000E+00         0.00000E+00        -0.19335E+08
 
   -0.19383E+08         0.12993E+07         0.00000E+00
    0.12993E+07        -0.42963E+08         0.00000E+00
    0.00000E+00         0.00000E+00        -0.19385E+08
 
   -0.19432E+08         0.13011E+07         0.00000E+00
    0.13011E+07        -0.43057E+08         0.00000E+00
    0.00000E+00         0.00000E+00        -0.19436E+08
 
   -0.19482E+08         0.13050E+07         0.00000E+00
    0.13050E+07        -0.43152E+08         0.00000E+00
    0.00000E+00         0.00000E+00        -0.19487E+08
 
   -0.19533E+08         0.13109E+07         0.00000E+00
    0.13109E+07        -0.43248E+08         0.00000E+00
    0.00000E+00         0.00000E+00        -0.19539E+08
 
   -0.19584E+08         0.13187E+07         0.00000E+00
    0.13187E+07        -0.43345E+08         0.00000E+00
    0.00000E+00         0.00000E+00        -0.19592E+08
 
   -0.19637E+08         0.13284E+07         0.00000E+00
    0.13284E+07        -0.43444E+08         0.00000E+00
    0.00000E+00         0.00000E+00        -0.19646E+08
 
   -0.19691E+08         0.13399E+07         0.00000E+00
    0.13399E+07        -0.43545E+08         0.00000E+00
    0.00000E+00         0.00000E+00        -0.19701E+08
 
   -0.19746E+08         0.13531E+07         0.00000E+00
    0.13531E+07        -0.43648E+08         0.00000E+00
    0.00000E+00         0.00000E+00        -0.19757E+08
 
   -0.19803E+08         0.13679E+07         0.00000E+00
    0.13679E+07        -0.43754E+08         0.00000E+00
    0.00000E+00         0.00000E+00        -0.19815E+08
 
   -0.19862E+08         0.13842E+07         0.00000E+00
    0.13842E+07        -0.43862E+08         0.00000E+00
    0.00000E+00         0.00000E+00        -0.19875E+08
 
   -0.19923E+08         0.14019E+07         0.00000E+00
    0.14019E+07        -0.43974E+08         0.00000E+00
    0.00000E+00         0.00000E+00        -0.19937E+08
 
   -0.19985E+08         0.14208E+07         0.00000E+00
    0.14208E+07        -0.44090E+08         0.00000E+00
    0.00000E+00         0.00000E+00        -0.20000E+08
 
   -0.20050E+08         0.14407E+07         0.00000E+00
    0.14407E+07        -0.44209E+08         0.00000E+00
    0.00000E+00         0.00000E+00        -0.20066E+08
 
   -0.20118E+08         0.14616E+07         0.00000E+00
    0.14616E+07        -0.44333E+08         0.00000E+00
    0.00000E+00         0.00000E+00        -0.20134E+08
 
   -0.20188E+08         0.14832E+07         0.00000E+00
    0.14832E+07        -0.44461E+08         0.00000E+00
    0.00000E+00         0.00000E+00        -0.20205E+08
 
   -0.20262E+08         0.15052E+07         0.00000E+00
    0.15052E+07        -0.44595E+08         0.00000E+00
    0.00000E+00         0.00000E+00        -0.20279E+08
 
   -0.20338E+08         0.15275E+07         0.00000E+00
    0.15275E+07        -0.44735E+08         0.00000E+00
    0.00000E+00         0.00000E+00        -0.20355E+08
 
   -0.20418E+08         0.15498E+07         0.00000E+00
    0.15498E+07        -0.44882E+08         0.00000E+00
    0.00000E+00         0.00000E+00        -0.20436E+08
 
   -0.20502E+08         0.15717E+07         0.00000E+00
    0.15717E+07        -0.45035E+08         0.00000E+00
    0.00000E+00         0.00000E+00        -0.20519E+08
 
   -0.20590E+08         0.15929E+07         0.00000E+00
    0.15929E+07        -0.45196E+08         0.00000E+00
    0.00000E+00         0.00000E+00        -0.20607E+08
 
   -0.20682E+08         0.16131E+07         0.00000E+00
    0.16131E+07        -0.45366E+08         0.00000E+00
    0.00000E+00         0.00000E+00        -0.20699E+08
 
   -0.20779E+08         0.16318E+07         0.00000E+00
    0.16318E+07        -0.45545E+08         0.00000E+00
    0.00000E+00         0.00000E+00        -0.20795E+08
 
   -0.20882E+08         0.16487E+07         0.00000E+00
    0.16487E+07        -0.45733E+08         0.00000E+00
    0.00000E+00         0.00000E+00        -0.20897E+08
 
   -0.20989E+08         0.16633E+07         0.00000E+00
    0.16633E+07        -0.45933E+08         0.00000E+00
    0.00000E+00         0.00000E+00        -0.21003E+08
 
   -0.21103E+08         0.16750E+07         0.00000E+00
    0.16750E+07        -0.46144E+08         0.00000E+00
    0.00000E+00         0.00000E+00        -0.21115E+08
 
   -0.21223E+08         0.16834E+07         0.00000E+00
    0.16834E+07        -0.46367E+08         0.00000E+00
    0.00000E+00         0.00000E+00        -0.21233E+08
 
   -0.21349E+08         0.16880E+07         0.00000E+00
    0.16880E+07        -0.46603E+08         0.00000E+00
    0.00000E+00         0.00000E+00        -0.21357E+08
 
   -0.21483E+08         0.16883E+07         0.00000E+00
    0.16883E+07        -0.46854E+08         0.00000E+00
    0.00000E+00         0.00000E+00        -0.21488E+08
 
   -0.21623E+08         0.16837E+07         0.00000E+00
    0.16837E+07        -0.47119E+08         0.00000E+00
    0.00000E+00         0.00000E+00        -0.21626E+08
 
   -0.21771E+08         0.16737E+07         0.00000E+00
    0.16737E+07        -0.47400E+08         0.00000E+00
    0.00000E+00         0.00000E+00        -0.21771E+08
 
   -0.21927E+08         0.16579E+07         0.00000E+00
    0.16579E+07        -0.47696E+08         0.00000E+00
    0.00000E+00         0.00000E+00        -0.21923E+08
 
   -0.22091E+08         0.16358E+07         0.00000E+00
    0.16358E+07        -0.48008E+08         0.00000E+00
    0.00000E+00         0.00000E+00        -0.22083E+08
 
   -0.22262E+08         0.16071E+07         0.00000E+00
    0.16071E+07        -0.48335E+08         0.00000E+00
    0.00000E+00         0.00000E+00        -0.22250E+08
 
   -0.22440E+08         0.15715E+07         0.00000E+00
    0.15715E+07        -0.48677E+08         0.00000E+00
    0.00000E+00         0.00000E+00        -0.22423E+08
 
   -0.22624E+08         0.15285E+07         0.00000E+00
    0.15285E+07        -0.49032E+08         0.00000E+00
    0.00000E+00         0.00000E+00        -0.22603E+08
 
   -0.22814E+08         0.14780E+07         0.00000E+00
    0.14780E+07        -0.49398E+08         0.00000E+00
    0.00000E+00         0.00000E+00        -0.22788E+08
 
   -0.23008E+08         0.14194E+07         0.00000E+00
    0.14194E+07        -0.49772E+08         0.00000E+00
    0.00000E+00         0.00000E+00        -0.22976E+08
 
   -0.23203E+08         0.13519E+07         0.00000E+00
    0.13519E+07        -0.50149E+08         0.00000E+00
    0.00000E+00         0.00000E+00        -0.23165E+08
 
   -0.23397E+08         0.12743E+07         0.00000E+00
    0.12743E+07        -0.50525E+08         0.00000E+00
    0.00000E+00         0.00000E+00        -0.23352E+08
 
   -0.23588E+08         0.11839E+07         0.00000E+00
    0.11839E+07        -0.50892E+08         0.00000E+00
    0.00000E+00         0.00000E+00        -0.23533E+08
 
   -0.23770E+08         0.10767E+07         0.00000E+00
    0.10767E+07        -0.51243E+08         0.00000E+00
    0.00000E+00         0.00000E+00        -0.23703E+08
 
   -0.23942E+08         0.94518E+06         0.00000E+00
    0.94518E+06        -0.51569E+08         0.00000E+00
    0.00000E+00         0.00000E+00        -0.23856E+08
 
   -0.24102E+08         0.77763E+06         0.00000E+00
    0.77763E+06        -0.51863E+08         0.00000E+00
    0.00000E+00         0.00000E+00        -0.23987E+08
 
   -0.24247E+08         0.54681E+06         0.00000E+00
    0.54681E+06        -0.52115E+08         0.00000E+00
    0.00000E+00         0.00000E+00        -0.24086E+08
 
   -0.24412E+08         0.20570E+06         0.00000E+00
    0.20570E+06        -0.52324E+08         0.00000E+00
    0.00000E+00         0.00000E+00        -0.24125E+08
 
   -0.13643E+08         0.38968E+06         0.00000E+00
    0.38968E+06        -0.28251E+08         0.00000E+00
    0.00000E+00         0.00000E+00        -0.14646E+08
 
   -0.14044E+08         0.10720E+07         0.00000E+00
    0.10720E+07        -0.28478E+08         0.00000E+00
    0.00000E+00         0.00000E+00        -0.14646E+08
 
   -0.14221E+08         0.15696E+07         0.00000E+00
    0.15696E+07        -0.28892E+08         0.00000E+00
    0.00000E+00         0.00000E+00        -0.14646E+08
 
   -0.14328E+08         0.19304E+07         0.00000E+00
    0.19304E+07        -0.29431E+08         0.00000E+00
    0.00000E+00         0.00000E+00        -0.14646E+08
 
   -0.14398E+08         0.22090E+07         0.00000E+00
    0.22090E+07        -0.30054E+08         0.00000E+00
    0.00000E+00         0.00000E+00        -0.14646E+08
 
   -0.14448E+08         0.24314E+07         0.00000E+00
    0.24314E+07        -0.30740E+08         0.00000E+00
    0.00000E+00         0.00000E+00        -0.14646E+08
 
   -0.14485E+08         0.26138E+07         0.00000E+00
    0.26138E+07        -0.31465E+08         0.00000E+00
    0.00000E+00         0.00000E+00        -0.14646E+08
 
   -0.14513E+08         0.27658E+07         0.00000E+00
    0.27658E+07        -0.32212E+08         0.00000E+00
    0.00000E+00         0.00000E+00        -0.14646E+08
 
   -0.14550E+08         0.28889E+07         0.00000E+00
    0.28889E+07        -0.32951E+08         0.00000E+00
    0.00000E+00         0.00000E+00        -0.14659E+08
 
   -0.14739E+08         0.29418E+07         0.00000E+00
    0.29418E+07        -0.33526E+08         0.00000E+00
    0.00000E+00         0.00000E+00        -0.14825E+08
 
   -0.15001E+08         0.29524E+07         0.00000E+00
    0.29524E+07        -0.34007E+08         0.00000E+00
    0.00000E+00         0.00000E+00        -0.15067E+08
 
   -0.15252E+08         0.29505E+07         0.00000E+00
    0.29505E+07        -0.34475E+08         0.00000E+00
    0.00000E+00         0.00000E+00        -0.15300E+08
 
   -0.15490E+08         0.29381E+07         0.00000E+00
    0.29381E+07        -0.34928E+08         0.00000E+00
    0.00000E+00         0.00000E+00        -0.15523E+08
 
   -0.15716E+08         0.29166E+07         0.00000E+00
    0.29166E+07        -0.35363E+08         0.00000E+00
    0.00000E+00         0.00000E+00        -0.15735E+08
 
   -0.15929E+08         0.28873E+07         0.00000E+00
    0.28873E+07        -0.35778E+08         0.00000E+00
    0.00000E+00         0.00000E+00        -0.15936E+08
 
   -0.16130E+08         0.28511E+07         0.00000E+00
    0.28511E+07        -0.36173E+08         0.00000E+00
    0.00000E+00         0.00000E+00        -0.16125E+08
 
   -0.16317E+08         0.28091E+07         0.00000E+00
    0.28091E+07        -0.36548E+08         0.00000E+00
    0.00000E+00         0.00000E+00        -0.16304E+08
 
   -0.16493E+08         0.27620E+07         0.00000E+00
    0.27620E+07        -0.36904E+08         0.00000E+00
    0.00000E+00         0.00000E+00        -0.16471E+08
 
   -0.16658E+08         0.27106E+07         0.00000E+00
    0.27106E+07        -0.37240E+08         0.00000E+00
    0.00000E+00         0.00000E+00        -0.16629E+08
 
   -0.16812E+08         0.26557E+07         0.00000E+00
    0.26557E+07        -0.37558E+08         0.00000E+00
    0.00000E+00         0.00000E+00        -0.16777E+08
 
   -0.16956E+08         0.25980E+07         0.00000E+00
    0.25980E+07        -0.37858E+08         0.00000E+00
    0.00000E+00         0.00000E+00        -0.16916E+08
 
   -0.17091E+08         0.25381E+07         0.00000E+00
    0.25381E+07        -0.38142E+08         0.00000E+00
    0.00000E+00         0.00000E+00        -0.17047E+08
 
   -0.17218E+08         0.24767E+07         0.00000E+00
    0.24767E+07        -0.38409E+08         0.00000E+00
    0.00000E+00         0.00000E+00        -0.17171E+08
 
   -0.17337E+08         0.24142E+07         0.00000E+00
    0.24142E+07        -0.38662E+08         0.00000E+00
    0.00000E+00         0.00000E+00        -0.17287E+08
 
   -0.17449E+08         0.23513E+07         0.00000E+00
    0.23513E+07        -0.38902E+08         0.00000E+00
    0.00000E+00         0.00000E+00        -0.17398E+08
 
   -0.17554E+08         0.22883E+07         0.00000E+00
    0.22883E+07        -0.39128E+08         0.00000E+00
    0.00000E+00         0.00000E+00        -0.17502E+08
 
   -0.17653E+08         0.22256E+07         0.00000E+00
    0.22256E+07        -0.39343E+08         0.00000E+00
    0.00000E+00         0.00000E+00        -0.17601E+08
 
   -0.17747E+08         0.21637E+07         0.00000E+00
    0.21637E+07        -0.39546E+08         0.00000E+00
    0.00000E+00         0.00000E+00        -0.17694E+08
 
   -0.17836E+08         0.21029E+07         0.00000E+00
    0.21029E+07        -0.39739E+08         0.00000E+00
    0.00000E+00         0.00000E+00        -0.17784E+08
 
   -0.17921E+08         0.20433E+07         0.00000E+00
    0.20433E+07        -0.39923E+08         0.00000E+00
    0.00000E+00         0.00000E+00        -0.17869E+08
 
   -0.18001E+08         0.19853E+07         0.00000E+00
    0.19853E+07        -0.40097E+08         0.00000E+00
    0.00000E+00         0.00000E+00        -0.17950E+08
 
   -0.18078E+08         0.19291E+07         0.00000E+00
    0.19291E+07        -0.40264E+08         0.00000E+00
    0.00000E+00         0.00000E+00        -0.18028E+08
 
   -0.18151E+08         0.18747E+07         0.00000E+00
    0.18747E+07        -0.40423E+08         0.00000E+00
    0.00000E+00         0.00000E+00        -0.18103E+08
 
   -0.18221E+08         0.18225E+07         0.00000E+00
    0.18225E+07        -0.40574E+08         0.00000E+00
    0.00000E+00         0.00000E+00        -0.18175E+08
 
   -0.18288E+08         0.17724E+07         0.00000E+00
    0.17724E+07        -0.40720E+08         0.00000E+00
    0.00000E+00         0.00000E+00        -0.18244E+08
 
   -0.18353E+08         0.17246E+07         0.00000E+00
    0.17246E+07        -0.40859E+08         0.00000E+00
    0.00000E+00         0.00000E+00        -0.18311E+08
 
   -0.18415E+08         0.16791E+07         0.00000E+00
    0.16791E+07        -0.40993E+08         0.00000E+00
    0.00000E+00         0.00000E+00        -0.18375E+08
 
   -0.18476E+08         0.16360E+07         0.00000E+00
    0.16360E+07        -0.41122E+08         0.00000E+00
    0.00000E+00         0.00000E+00        -0.18438E+08
 
   -0.18534E+08         0.15954E+07         0.00000E+00
    0.15954E+07        -0.41246E+08         0.00000E+00
    0.00000E+00         0.00000E+00        -0.18498E+08
 
   -0.18591E+08         0.15572E+07         0.00000E+00
    0.15572E+07        -0.41366E+08         0.00000E+00
    0.00000E+00         0.00000E+00        -0.18557E+08
 
   -0.18646E+08         0.15215E+07         0.00000E+00
    0.15215E+07        -0.41482E+08         0.00000E+00
    0.00000E+00         0.00000E+00        -0.18615E+08
 
   -0.18699E+08         0.14883E+07         0.00000E+00
    0.14883E+07        -0.41594E+08         0.00000E+00
    0.00000E+00         0.00000E+00        -0.18671E+08
 
   -0.18752E+08         0.14576E+07         0.00000E+00
    0.14576E+07        -0.41703E+08         0.00000E+00
    0.00000E+00         0.00000E+00        -0.18725E+08
 
   -0.18803E+08         0.14294E+07         0.00000E+00
    0.14294E+07        -0.41810E+08         0.00000E+00
    0.00000E+00         0.00000E+00        -0.18779E+08
 
   -0.18853E+08         0.14036E+07         0.00000E+00
    0.14036E+07        -0.41914E+08         0.00000E+00
    0.00000E+00         0.00000E+00        -0.18832E+08
 
   -0.18903E+08         0.13803E+07         0.00000E+00
    0.13803E+07        -0.42015E+08         0.00000E+00
    0.00000E+00         0.00000E+00        -0.18884E+08
 
   -0.18952E+08         0.13594E+07         0.00000E+00
    0.13594E+07        -0.42115E+08         0.00000E+00
    0.00000E+00         0.00000E+00        -0.18935E+08
 
   -0.19000E+08         0.13410E+07         0.00000E+00
    0.13410E+07        -0.42213E+08         0.00000E+00
    0.00000E+00         0.00000E+00        -0.18986E+08
 
   -0.19048E+08         0.13249E+07         0.00000E+00
    0.13249E+07        -0.42309E+08         0.00000E+00
    0.00000E+00         0.00000E+00        -0.19036E+08
 
   -0.19095E+08         0.13112E+07         0.00000E+00
    0.13112E+07        -0.42404E+08         0.00000E+00
    0.00000E+00         0.00000E+00        -0.19086E+08
 
   -0.19142E+08         0.12997E+07         0.00000E+00
    0.12997E+07        -0.42499E+08         0.00000E+00
    0.00000E+00         0.00000E+00        -0.19135E+08
 
   -0.19190E+08         0.12906E+07         0.00000E+00
    0.12906E+07        -0.42592E+08         0.00000E+00
    0.00000E+00         0.00000E+00        -0.19185E+08
 
   -0.19237E+08         0.12837E+07         0.00000E+00
    0.12837E+07        -0.42685E+08         0.00000E+00
    0.00000E+00         0.00000E+00        -0.19234E+08
 
   -0.19284E+08         0.12791E+07         0.00000E+00
    0.12791E+07        -0.42778E+08         0.00000E+00
    0.00000E+00         0.00000E+00        -0.19284E+08
 
   -0.19332E+08         0.12766E+07         0.00000E+00
    0.12766E+07        -0.42871E+08         0.00000E+00
    0.00000E+00         0.00000E+00        -0.19334E+08
 
   -0.19380E+08         0.12762E+07         0.00000E+00
    0.12762E+07        -0.42965E+08         0.00000E+00
    0.00000E+00         0.00000E+00        -0.19384E+08
 
   -0.19429E+08         0.12779E+07         0.00000E+00
    0.12779E+07        -0.43059E+08         0.00000E+00
    0.00000E+00         0.00000E+00        -0.19435E+08
 
   -0.19478E+08         0.12816E+07         0.00000E+00
    0.12816E+07        -0.43154E+08         0.00000E+00
    0.00000E+00         0.00000E+00        -0.19487E+08
 
   -0.19528E+08         0.12873E+07         0.00000E+00
    0.12873E+07        -0.43249E+08         0.00000E+00
    0.00000E+00         0.00000E+00        -0.19539E+08
 
   -0.19580E+08         0.12948E+07         0.00000E+00
    0.12948E+07        -0.43347E+08         0.00000E+00
    0.00000E+00         0.00000E+00        -0.19592E+08
 
   -0.19632E+08         0.13042E+07         0.00000E+00
    0.13042E+07        -0.43446E+08         0.00000E+00
    0.00000E+00         0.00000E+00        -0.19647E+08
 
   -0.19685E+08         0.13154E+07         0.00000E+00
    0.13154E+07        -0.43547E+08         0.00000E+00
    0.00000E+00         0.00000E+00        -0.19702E+08
 
   -0.19740E+08         0.13282E+07         0.00000E+00
    0.13282E+07        -0.43650E+08         0.00000E+00
    0.00000E+00         0.00000E+00        -0.19759E+08
 
   -0.19797E+08         0.13425E+07         0.00000E+00
    0.13425E+07        -0.43755E+08         0.00000E+00
    0.00000E+00         0.00000E+00        -0.19817E+08
 
   -0.19855E+08         0.13583E+07         0.00000E+00
    0.13583E+07        -0.43864E+08         0.00000E+00
    0.00000E+00         0.00000E+00        -0.19877E+08
 
   -0.19916E+08         0.13755E+07         0.00000E+00
    0.13755E+07        -0.43976E+08         0.00000E+00
    0.00000E+00         0.00000E+00        -0.19939E+08
 
   -0.19978E+08         0.13938E+07         0.00000E+00
    0.13938E+07        -0.44091E+08         0.00000E+00
    0.00000E+00         0.00000E+00        -0.20002E+08
 
   -0.20043E+08         0.14131E+07         0.00000E+00
    0.14131E+07        -0.44210E+08         0.00000E+00
    0.00000E+00         0.00000E+00        -0.20068E+08
 
   -0.20110E+08         0.14333E+07         0.00000E+00
    0.14333E+07        -0.44334E+08         0.00000E+00
    0.00000E+00         0.00000E+00        -0.20137E+08
 
   -0.20180E+08         0.14542E+07         0.00000E+00
    0.14542E+07        -0.44463E+08         0.00000E+00
    0.00000E+00         0.00000E+00        -0.20208E+08
 
   -0.20253E+08         0.14755E+07         0.00000E+00
    0.14755E+07        -0.44597E+08         0.00000E+00
    0.00000E+00         0.00000E+00        -0.20281E+08
 
   -0.20329E+08         0.14970E+07         0.00000E+00
    0.14970E+07        -0.44737E+08         0.00000E+00
    0.00000E+00         0.00000E+00        -0.20358E+08
 
   -0.20409E+08         0.15184E+07         0.00000E+00
    0.15184E+07        -0.44883E+08         0.00000E+00
    0.00000E+00         0.00000E+00        -0.20438E+08
 
   -0.20493E+08         0.15395E+07         0.00000E+00
    0.15395E+07        -0.45037E+08         0.00000E+00
    0.00000E+00         0.00000E+00        -0.20522E+08
 
   -0.20581E+08         0.15598E+07         0.00000E+00
    0.15598E+07        -0.45198E+08         0.00000E+00
    0.00000E+00         0.00000E+00        -0.20609E+08
 
   -0.20673E+08         0.15790E+07         0.00000E+00
    0.15790E+07        -0.45368E+08         0.00000E+00
    0.00000E+00         0.00000E+00        -0.20701E+08
 
   -0.20770E+08         0.15968E+07         0.00000E+00
    0.15968E+07        -0.45547E+08         0.00000E+00
    0.00000E+00         0.00000E+00        -0.20797E+08
 
   -0.20873E+08         0.16126E+07         0.00000E+00
    0.16126E+07        -0.45735E+08         0.00000E+00
    0.00000E+00         0.00000E+00        -0.20898E+08
 
   -0.20981E+08         0.16261E+07         0.00000E+00
    0.16261E+07        -0.45935E+08         0.00000E+00
    0.00000E+00         0.00000E+00        -0.21004E+08
 
   -0.21095E+08         0.16367E+07         0.00000E+00
    0.16367E+07        -0.46146E+08         0.00000E+00
    0.00000E+00         0.00000E+00        -0.21115E+08
 
   -0.21215E+08         0.16440E+07         0.00000E+00
    0.16440E+07        -0.46369E+08         0.00000E+00
    0.00000E+00         0.00000E+00        -0.21232E+08
 
   -0.21342E+08         0.16474E+07         0.00000E+00
    0.16474E+07        -0.46606E+08         0.00000E+00
    0.00000E+00         0.00000E+00        -0.21355E+08
 
   -0.21476E+08         0.16463E+07         0.00000E+00
    0.16463E+07        -0.46856E+08         0.00000E+00
    0.00000E+00         0.00000E+00        -0.21485E+08
 
   -0.21618E+08         0.16404E+07         0.00000E+00
    0.16404E+07        -0.47121E+08         0.00000E+00
    0.00000E+00         0.00000E+00        -0.21622E+08
 
   -0.21767E+08         0.16290E+07         0.00000E+00
    0.16290E+07        -0.47402E+08         0.00000E+00
    0.00000E+00         0.00000E+00        -0.21766E+08
 
   -0.21924E+08         0.16118E+07         0.00000E+00
    0.16118E+07        -0.47698E+08         0.00000E+00
    0.00000E+00         0.00000E+00        -0.21917E+08
 
   -0.22089E+08         0.15882E+07         0.00000E+00
    0.15882E+07        -0.48010E+08         0.00000E+00
    0.00000E+00         0.00000E+00        -0.22075E+08
 
   -0.22261E+08         0.15579E+07         0.00000E+00
    0.15579E+07        -0.48338E+08         0.00000E+00
    0.00000E+00         0.00000E+00        -0.22241E+08
 
   -0.22441E+08         0.15205E+07         0.00000E+00
    0.15205E+07        -0.48680E+08         0.00000E+00
    0.00000E+00         0.00000E+00        -0.22413E+08
 
   -0.22627E+08         0.14758E+07         0.00000E+00
    0.14758E+07        -0.49035E+08         0.00000E+00
    0.00000E+00         0.00000E+00        -0.22592E+08
 
   -0.22819E+08         0.14235E+07         0.00000E+00
    0.14235E+07        -0.49401E+08         0.00000E+00
    0.00000E+00         0.00000E+00        -0.22775E+08
 
   -0.23014E+08         0.13629E+07         0.00000E+00
    0.13629E+07        -0.49775E+08         0.00000E+00
    0.00000E+00         0.00000E+00        -0.22961E+08
 
   -0.23212E+08         0.12936E+07         0.00000E+00
    0.12936E+07        -0.50153E+08         0.00000E+00
    0.00000E+00         0.00000E+00        -0.23148E+08
 
   -0.23410E+08         0.12140E+07         0.00000E+00
    0.12140E+07        -0.50529E+08         0.00000E+00
    0.00000E+00         0.00000E+00        -0.23333E+08
 
   -0.23604E+08         0.11220E+07         0.00000E+00
    0.11220E+07        -0.50896E+08         0.00000E+00
    0.00000E+00         0.00000E+00        -0.23511E+08
 
   -0.23792E+08         0.10133E+07         0.00000E+00
    0.10133E+07        -0.51247E+08         0.00000E+00
    0.00000E+00         0.00000E+00        -0.23677E+08
 
   -0.23971E+08         0.88110E+06         0.00000E+00
    0.88110E+06        -0.51574E+08         0.00000E+00
    0.00000E+00         0.00000E+00        -0.23825E+08
 
   -0.24141E+08         0.71370E+06         0.00000E+00
    0.71370E+06        -0.51869E+08         0.00000E+00
    0.00000E+00         0.00000E+00        -0.23947E+08
 
   -0.24305E+08         0.48661E+06         0.00000E+00
    0.48661E+06        -0.52121E+08         0.00000E+00
    0.00000E+00         0.00000E+00        -0.24031E+08
 
   -0.24504E+08         0.17740E+06         0.00000E+00
    0.17740E+06        -0.52338E+08         0.00000E+00
    0.00000E+00         0.00000E+00        -0.24048E+08
 
   -0.13313E+08         0.33883E+06         0.00000E+00
    0.33883E+06        -0.28394E+08         0.00000E+00
    0.00000E+00         0.00000E+00        -0.14646E+08
 
   -0.13800E+08         0.95392E+06         0.00000E+00
    0.95392E+06        -0.28592E+08         0.00000E+00
    0.00000E+00         0.00000E+00        -0.14646E+08
 
   -0.14046E+08         0.14328E+07         0.00000E+00
    0.14328E+07        -0.28974E+08         0.00000E+00
    0.00000E+00         0.00000E+00        -0.14646E+08
 
   -0.14194E+08         0.17907E+07         0.00000E+00
    0.17907E+07        -0.29493E+08         0.00000E+00
    0.00000E+00         0.00000E+00        -0.14646E+08
 
   -0.14293E+08         0.20698E+07         0.00000E+00
    0.20698E+07        -0.30104E+08         0.00000E+00
    0.00000E+00         0.00000E+00        -0.14646E+08
 
   -0.14363E+08         0.22952E+07         0.00000E+00
    0.22952E+07        -0.30780E+08         0.00000E+00
    0.00000E+00         0.00000E+00        -0.14646E+08
 
   -0.14415E+08         0.24817E+07         0.00000E+00
    0.24817E+07        -0.31498E+08         0.00000E+00
    0.00000E+00         0.00000E+00        -0.14646E+08
 
   -0.14456E+08         0.26383E+07         0.00000E+00
    0.26383E+07        -0.32240E+08         0.00000E+00
    0.00000E+00         0.00000E+00        -0.14646E+08
 
   -0.14503E+08         0.27669E+07         0.00000E+00
    0.27669E+07        -0.32976E+08         0.00000E+00
    0.00000E+00         0.00000E+00        -0.14658E+08
 
   -0.14697E+08         0.28279E+07         0.00000E+00
    0.28279E+07        -0.33550E+08         0.00000E+00
    0.00000E+00         0.00000E+00        -0.14820E+08
 
   -0.14966E+08         0.28468E+07         0.00000E+00
    0.28468E+07        -0.34029E+08         0.00000E+00
    0.00000E+00         0.00000E+00        -0.15060E+08
 
   -0.15222E+08         0.28523E+07         0.00000E+00
    0.28523E+07        -0.34496E+08         0.00000E+00
    0.00000E+00         0.00000E+00        -0.15291E+08
 
   -0.15465E+08         0.28466E+07         0.00000E+00
    0.28466E+07        -0.34947E+08         0.00000E+00
    0.00000E+00         0.00000E+00        -0.15512E+08
 
   -0.15696E+08         0.28311E+07         0.00000E+00
    0.28311E+07        -0.35380E+08         0.00000E+00
    0.00000E+00         0.00000E+00        -0.15723E+08
 
   -0.15913E+08         0.28072E+07         0.00000E+00
    0.28072E+07        -0.35794E+08         0.00000E+00
    0.00000E+00         0.00000E+00        -0.15922E+08
 
   -0.16116E+08         0.27760E+07         0.00000E+00
    0.27760E+07        -0.36188E+08         0.00000E+00
    0.00000E+00         0.00000E+00        -0.16111E+08
 
   -0.16307E+08         0.27383E+07         0.00000E+00
    0.27383E+07        -0.36562E+08         0.00000E+00
    0.00000E+00         0.00000E+00        -0.16288E+08
 
   -0.16486E+08         0.26952E+07         0.00000E+00
    0.26952E+07        -0.36917E+08         0.00000E+00
    0.00000E+00         0.00000E+00        -0.16455E+08
 
   -0.16653E+08         0.26475E+07         0.00000E+00
    0.26475E+07        -0.37252E+08         0.00000E+00
    0.00000E+00         0.00000E+00        -0.16613E+08
 
   -0.16809E+08         0.25959E+07         0.00000E+00
    0.25959E+07        -0.37569E+08         0.00000E+00
    0.00000E+00         0.00000E+00        -0.16760E+08
 
   -0.16955E+08         0.25412E+07         0.00000E+00
    0.25412E+07        -0.37868E+08         0.00000E+00
    0.00000E+00         0.00000E+00        -0.16899E+08
 
   -0.17092E+08         0.24840E+07         0.00000E+00
    0.24840E+07        -0.38151E+08         0.00000E+00
    0.00000E+00         0.00000E+00        -0.17030E+08
 
   -0.17220E+08         0.24251E+07         0.00000E+00
    0.24251E+07        -0.38418E+08         0.00000E+00
    0.00000E+00         0.00000E+00        -0.17154E+08
 
   -0.17340E+08         0.23650E+07         0.00000E+00
    0.23650E+07        -0.38670E+08         0.00000E+00
    0.00000E+00         0.00000E+00        -0.17271E+08
 
   -0.17452E+08         0.23042E+07         0.00000E+00
    0.23042E+07        -0.38909E+08         0.00000E+00
    0.00000E+00         0.00000E+00        -0.17381E+08
 
   -0.17558E+08         0.22432E+07         0.00000E+00
    0.22432E+07        -0.39135E+08         0.00000E+00
    0.00000E+00         0.00000E+00        -0.17485E+08
 
   -0.17658E+08         0.21825E+07         0.00000E+00
    0.21825E+07        -0.39349E+08         0.00000E+00
    0.00000E+00         0.00000E+00        -0.17585E+08
 
   -0.17752E+08         0.21223E+07         0.00000E+00
    0.21223E+07        -0.39552E+08         0.00000E+00
    0.00000E+00         0.00000E+00        -0.17679E+08
 
   -0.17842E+08         0.20630E+07         0.00000E+00
    0.20630E+07        -0.39745E+08         0.00000E+00
    0.00000E+00         0.00000E+00        -0.17769E+08
 
   -0.17926E+08         0.20050E+07         0.00000E+00
    0.20050E+07        -0.39928E+08         0.00000E+00
    0.00000E+00         0.00000E+00        -0.17854E+08
 
   -0.18007E+08         0.19484E+07         0.00000E+00
    0.19484E+07        -0.40102E+08         0.00000E+00
    0.00000E+00         0.00000E+00        -0.17936E+08
 
   -0.18083E+08         0.18934E+07         0.00000E+00
    0.18934E+07        -0.40268E+08         0.00000E+00
    0.00000E+00         0.00000E+00        -0.18015E+08
 
   -0.18157E+08         0.18403E+07         0.00000E+00
    0.18403E+07        -0.40427E+08         0.00000E+00
    0.00000E+00         0.00000E+00        -0.18090E+08
 
   -0.18227E+08         0.17892E+07         0.00000E+00
    0.17892E+07        -0.40578E+08         0.00000E+00
    0.00000E+00         0.00000E+00        -0.18162E+08
 
   -0.18294E+08         0.17402E+07         0.00000E+00
    0.17402E+07        -0.40723E+08         0.00000E+00
    0.00000E+00         0.00000E+00        -0.18232E+08
 
   -0.18358E+08         0.16934E+07         0.00000E+00
    0.16934E+07        -0.40863E+08         0.00000E+00
    0.00000E+00         0.00000E+00        -0.18300E+08
 
   -0.18420E+08         0.16488E+07         0.00000E+00
    0.16488E+07        -0.40996E+08         0.00000E+00
    0.00000E+00         0.00000E+00        -0.18365E+08
 
   -0.18480E+08         0.16066E+07         0.00000E+00
    0.16066E+07        -0.41125E+08         0.00000E+00
    0.00000E+00         0.00000E+00        -0.18428E+08
 
   -0.18538E+08         0.15667E+07         0.00000E+00
    0.15667E+07        -0.41249E+08         0.00000E+00
    0.00000E+00         0.00000E+00        -0.18489E+08
 
   -0.18595E+08         0.15293E+07         0.00000E+00
    0.15293E+07        -0.41368E+08         0.00000E+00
    0.00000E+00         0.00000E+00        -0.18548E+08
 
   -0.18649E+08         0.14943E+07         0.00000E+00
    0.14943E+07        -0.41484E+08         0.00000E+00
    0.00000E+00         0.00000E+00        -0.18606E+08
 
   -0.18703E+08         0.14617E+07         0.00000E+00
    0.14617E+07        -0.41597E+08         0.00000E+00
    0.00000E+00         0.00000E+00        -0.18663E+08
 
   -0.18755E+08         0.14316E+07         0.00000E+00
    0.14316E+07        -0.41706E+08         0.00000E+00
    0.00000E+00         0.00000E+00        -0.18718E+08
 
   -0.18806E+08         0.14038E+07         0.00000E+00
    0.14038E+07        -0.41812E+08         0.00000E+00
    0.00000E+00         0.00000E+00        -0.18772E+08
 
   -0.18855E+08         0.13785E+07         0.00000E+00
    0.13785E+07        -0.41916E+08         0.00000E+00
    0.00000E+00         0.00000E+00        -0.18826E+08
 
   -0.18905E+08         0.13556E+07         0.00000E+00
    0.13556E+07        -0.42017E+08         0.00000E+00
    0.00000E+00         0.00000E+00        -0.18878E+08
 
   -0.18953E+08         0.13351E+07         0.00000E+00
    0.13351E+07        -0.42117E+08         0.00000E+00
    0.00000E+00         0.00000E+00        -0.18930E+08
 
   -0.19001E+08         0.13170E+07         0.00000E+00
    0.13170E+07        -0.42214E+08         0.00000E+00
    0.00000E+00         0.00000E+00        -0.18981E+08
 
   -0.19048E+08         0.13011E+07         0.00000E+00
    0.13011E+07        -0.42311E+08         0.00000E+00
    0.00000E+00         0.00000E+00        -0.19032E+08
 
   -0.19095E+08         0.12876E+07         0.00000E+00
    0.12876E+07        -0.42406E+08         0.00000E+00
    0.00000E+00         0.00000E+00        -0.19082E+08
 
   -0.19142E+08         0.12763E+07         0.00000E+00
    0.12763E+07        -0.42500E+08         0.00000E+00
    0.00000E+00         0.00000E+00        -0.19132E+08
 
   -0.19189E+08         0.12673E+07         0.00000E+00
    0.12673E+07        -0.42594E+08         0.00000E+00
    0.00000E+00         0.00000E+00        -0.19182E+08
 
   -0.19235E+08         0.12605E+07         0.00000E+00
    0.12605E+07        -0.42687E+08         0.00000E+00
    0.00000E+00         0.00000E+00        -0.19232E+08
 
   -0.19282E+08         0.12559E+07         0.00000E+00
    0.12559E+07        -0.42780E+08         0.00000E+00
    0.00000E+00         0.00000E+00        -0.19282E+08
 
   -0.19330E+08         0.12533E+07         0.00000E+00
    0.12533E+07        -0.42873E+08         0.00000E+00
    0.00000E+00         0.00000E+00        -0.19333E+08
 
   -0.19377E+08         0.12529E+07         0.00000E+00
    0.12529E+07        -0.42966E+08         0.00000E+00
    0.00000E+00         0.00000E+00        -0.19383E+08
 
   -0.19426E+08         0.12545E+07         0.00000E+00
    0.12545E+07        -0.43060E+08         0.00000E+00
    0.00000E+00         0.00000E+00        -0.19435E+08
 
   -0.19475E+08         0.12580E+07         0.00000E+00
    0.12580E+07        -0.43155E+08         0.00000E+00
    0.00000E+00         0.00000E+00        -0.19487E+08
 
   -0.19524E+08         0.12635E+07         0.00000E+00
    0.12635E+07        -0.43251E+08         0.00000E+00
    0.00000E+00         0.00000E+00        -0.19539E+08
 
   -0.19575E+08         0.12708E+07         0.00000E+00
    0.12708E+07        -0.43348E+08         0.00000E+00
    0.00000E+00         0.00000E+00        -0.19593E+08
 
   -0.19627E+08         0.12799E+07         0.00000E+00
    0.12799E+07        -0.43447E+08         0.00000E+00
    0.00000E+00         0.00000E+00        -0.19647E+08
 
   -0.19680E+08         0.12907E+07         0.00000E+00
    0.12907E+07        -0.43548E+08         0.00000E+00
    0.00000E+00         0.00000E+00        -0.19703E+08
 
   -0.19735E+08         0.13031E+07         0.00000E+00
    0.13031E+07        -0.43651E+08         0.00000E+00
    0.00000E+00         0.00000E+00        -0.19760E+08
 
   -0.19791E+08         0.13170E+07         0.00000E+00
    0.13170E+07        -0.43756E+08         0.00000E+00
    0.00000E+00         0.00000E+00        -0.19819E+08
 
   -0.19849E+08         0.13323E+07         0.00000E+00
    0.13323E+07        -0.43865E+08         0.00000E+00
    0.00000E+00         0.00000E+00        -0.19879E+08
 
   -0.19909E+08         0.13489E+07         0.00000E+00
    0.13489E+07        -0.43977E+08         0.00000E+00
    0.00000E+00         0.00000E+00        -0.19941E+08
 
   -0.19971E+08         0.13667E+07         0.00000E+00
    0.13667E+07        -0.44092E+08         0.00000E+00
    0.00000E+00         0.00000E+00        -0.20005E+08
 
   -0.20035E+08         0.13854E+07         0.00000E+00
    0.13854E+07        -0.44212E+08         0.00000E+00
    0.00000E+00         0.00000E+00        -0.20071E+08
 
   -0.20102E+08         0.14050E+07         0.00000E+00
    0.14050E+07        -0.44335E+08         0.00000E+00
    0.00000E+00         0.00000E+00        -0.20139E+08
 
   -0.20172E+08         0.14252E+07         0.00000E+00
    0.14252E+07        -0.44464E+08         0.00000E+00
    0.00000E+00         0.00000E+00        -0.20210E+08
 
   -0.20244E+08         0.14458E+07         0.00000E+00
    0.14458E+07        -0.44598E+08         0.00000E+00
    0.00000E+00         0.00000E+00        -0.20284E+08
 
   -0.20320E+08         0.14665E+07         0.00000E+00
    0.14665E+07        -0.44738E+08         0.00000E+00
    0.00000E+00         0.00000E+00        -0.20361E+08
 
   -0.20400E+08         0.14871E+07         0.00000E+00
    0.14871E+07        -0.44885E+08         0.00000E+00
    0.00000E+00         0.00000E+00        -0.20441E+08
 
   -0.20484E+08         0.15073E+07         0.00000E+00
    0.15073E+07        -0.45038E+08         0.00000E+00
    0.00000E+00         0.00000E+00        -0.20524E+08
 
   -0.20572E+08         0.15267E+07         0.00000E+00
    0.15267E+07        -0.45200E+08         0.00000E+00
    0.00000E+00         0.00000E+00        -0.20611E+08
 
   -0.20664E+08         0.15450E+07         0.00000E+00
    0.15450E+07        -0.45369E+08         0.00000E+00
    0.00000E+00         0.00000E+00        -0.20703E+08
 
   -0.20761E+08         0.15618E+07         0.00000E+00
    0.15618E+07        -0.45548E+08         0.00000E+00
    0.00000E+00         0.00000E+00        -0.20798E+08
 
   -0.20864E+08         0.15767E+07         0.00000E+00
    0.15767E+07        -0.45737E+08         0.00000E+00
    0.00000E+00         0.00000E+00        -0.20899E+08
 
   -0.20972E+08         0.15891E+07         0.00000E+00
    0.15891E+07        -0.45936E+08         0.00000E+00
    0.00000E+00         0.00000E+00        -0.21004E+08
 
   -0.21087E+08         0.15986E+07         0.00000E+00
    0.15986E+07        -0.46147E+08         0.00000E+00
    0.00000E+00         0.00000E+00        -0.21115E+08
 
   -0.21208E+08         0.16048E+07         0.00000E+00
    0.16048E+07        -0.46371E+08         0.00000E+00
    0.00000E+00         0.00000E+00        -0.21231E+08
 
   -0.21335E+08         0.16070E+07         0.00000E+00
    0.16070E+07        -0.46607E+08         0.00000E+00
    0.00000E+00         0.00000E+00        -0.21354E+08
 
   -0.21470E+08         0.16047E+07         0.00000E+00
    0.16047E+07        -0.46858E+08         0.00000E+00
    0.00000E+00         0.00000E+00        -0.21483E+08
 
   -0.21612E+08         0.15975E+07         0.00000E+00
    0.15975E+07        -0.47123E+08         0.00000E+00
    0.00000E+00         0.00000E+00        -0.21618E+08
 
   -0.21763E+08         0.15848E+07         0.00000E+00
    0.15848E+07        -0.47404E+08         0.00000E+00
    0.00000E+00         0.00000E+00        -0.21761E+08
 
   -0.21921E+08         0.15661E+07         0.00000E+00
    0.15661E+07        -0.47700E+08         0.00000E+00
    0.00000E+00         0.00000E+00        -0.21911E+08
 
   -0.22087E+08         0.15411E+07         0.00000E+00
    0.15411E+07        -0.48012E+08         0.00000E+00
    0.00000E+00         0.00000E+00        -0.22068E+08
 
   -0.22261E+08         0.15092E+07         0.00000E+00
    0.15092E+07        -0.48340E+08         0.00000E+00
    0.00000E+00         0.00000E+00        -0.22232E+08
 
   -0.22442E+08         0.14702E+07         0.00000E+00
    0.14702E+07        -0.48682E+08         0.00000E+00
    0.00000E+00         0.00000E+00        -0.22403E+08
 
   -0.22630E+08         0.14238E+07         0.00000E+00
    0.14238E+07        -0.49038E+08         0.00000E+00
    0.00000E+00         0.00000E+00        -0.22580E+08
 
   -0.22824E+08         0.13696E+07         0.00000E+00
    0.13696E+07        -0.49404E+08         0.00000E+00
    0.00000E+00         0.00000E+00        -0.22761E+08
 
   -0.23022E+08         0.13073E+07         0.00000E+00
    0.13073E+07        -0.49779E+08         0.00000E+00
    0.00000E+00         0.00000E+00        -0.22946E+08
 
   -0.23222E+08         0.12361E+07         0.00000E+00
    0.12361E+07        -0.50157E+08         0.00000E+00
    0.00000E+00         0.00000E+00        -0.23131E+08
 
   -0.23423E+08         0.11549E+07         0.00000E+00
    0.11549E+07        -0.50533E+08         0.00000E+00
    0.00000E+00         0.00000E+00        -0.23313E+08
 
   -0.23621E+08         0.10614E+07         0.00000E+00
    0.10614E+07        -0.50901E+08         0.00000E+00
    0.00000E+00         0.00000E+00        -0.23488E+08
 
   -0.23815E+08         0.95188E+06         0.00000E+00
    0.95188E+06        -0.51253E+08         0.00000E+00
    0.00000E+00         0.00000E+00        -0.23651E+08
 
   -0.24002E+08         0.81979E+06         0.00000E+00
    0.81979E+06        -0.51580E+08         0.00000E+00
    0.00000E+00         0.00000E+00        -0.23793E+08
 
   -0.24182E+08         0.65394E+06         0.00000E+00
    0.65394E+06        -0.51875E+08         0.00000E+00
    0.00000E+00         0.00000E+00        -0.23907E+08
 
   -0.24364E+08         0.43512E+06         0.00000E+00
    0.43512E+06        -0.52129E+08         0.00000E+00
    0.00000E+00         0.00000E+00        -0.23978E+08
 
   -0.24590E+08         0.15519E+06         0.00000E+00
    0.15519E+06        -0.52352E+08         0.00000E+00
    0.00000E+00         0.00000E+00        -0.23981E+08
 
   -0.13012E+08         0.29767E+06         0.00000E+00
    0.29767E+06        -0.28520E+08         0.00000E+00
    0.00000E+00         0.00000E+00        -0.14646E+08
 
   -0.13562E+08         0.85204E+06         0.00000E+00
    0.85204E+06        -0.28698E+08         0.00000E+00
    0.00000E+00         0.00000E+00        -0.14646E+08
 
   -0.13869E+08         0.13064E+07         0.00000E+00
    0.13064E+07        -0.29055E+08         0.00000E+00
    0.00000E+00         0.00000E+00        -0.14646E+08
 
   -0.14057E+08         0.16576E+07         0.00000E+00
    0.16576E+07        -0.29555E+08         0.00000E+00
    0.00000E+00         0.00000E+00        -0.14646E+08
 
   -0.14184E+08         0.19354E+07         0.00000E+00
    0.19354E+07        -0.30154E+08         0.00000E+00
    0.00000E+00         0.00000E+00        -0.14646E+08
 
   -0.14275E+08         0.21625E+07         0.00000E+00
    0.21625E+07        -0.30821E+08         0.00000E+00
    0.00000E+00         0.00000E+00        -0.14646E+08
 
   -0.14343E+08         0.23523E+07         0.00000E+00
    0.23523E+07        -0.31533E+08         0.00000E+00
    0.00000E+00         0.00000E+00        -0.14646E+08
 
   -0.14397E+08         0.25132E+07         0.00000E+00
    0.25132E+07        -0.32269E+08         0.00000E+00
    0.00000E+00         0.00000E+00        -0.14646E+08
 
   -0.14455E+08         0.26465E+07         0.00000E+00
    0.26465E+07        -0.33001E+08         0.00000E+00
    0.00000E+00         0.00000E+00        -0.14658E+08
 
   -0.14656E+08         0.27151E+07         0.00000E+00
    0.27151E+07        -0.33573E+08         0.00000E+00
    0.00000E+00         0.00000E+00        -0.14817E+08
 
   -0.14931E+08         0.27421E+07         0.00000E+00
    0.27421E+07        -0.34050E+08         0.00000E+00
    0.00000E+00         0.00000E+00        -0.15054E+08
 
   -0.15193E+08         0.27549E+07         0.00000E+00
    0.27549E+07        -0.34516E+08         0.00000E+00
    0.00000E+00         0.00000E+00        -0.15283E+08
 
   -0.15441E+08         0.27557E+07         0.00000E+00
    0.27557E+07        -0.34965E+08         0.00000E+00
    0.00000E+00         0.00000E+00        -0.15503E+08
 
   -0.15676E+08         0.27462E+07         0.00000E+00
    0.27462E+07        -0.35397E+08         0.00000E+00
    0.00000E+00         0.00000E+00        -0.15712E+08
 
   -0.15897E+08         0.27276E+07         0.00000E+00
    0.27276E+07        -0.35810E+08         0.00000E+00
    0.00000E+00         0.00000E+00        -0.15910E+08
 
   -0.16104E+08         0.27012E+07         0.00000E+00
    0.27012E+07        -0.36203E+08         0.00000E+00
    0.00000E+00         0.00000E+00        -0.16097E+08
 
   -0.16298E+08         0.26679E+07         0.00000E+00
    0.26679E+07        -0.36576E+08         0.00000E+00
    0.00000E+00         0.00000E+00        -0.16274E+08
 
   -0.16479E+08         0.26287E+07         0.00000E+00
    0.26287E+07        -0.36929E+08         0.00000E+00
    0.00000E+00         0.00000E+00        -0.16440E+08
 
   -0.16649E+08         0.25845E+07         0.00000E+00
    0.25845E+07        -0.37264E+08         0.00000E+00
    0.00000E+00         0.00000E+00        -0.16597E+08
 
   -0.16807E+08         0.25362E+07         0.00000E+00
    0.25362E+07        -0.37580E+08         0.00000E+00
    0.00000E+00         0.00000E+00        -0.16744E+08
 
   -0.16954E+08         0.24844E+07         0.00000E+00
    0.24844E+07        -0.37878E+08         0.00000E+00
    0.00000E+00         0.00000E+00        -0.16883E+08
 
   -0.17093E+08         0.24300E+07         0.00000E+00
    0.24300E+07        -0.38160E+08         0.00000E+00
    0.00000E+00         0.00000E+00        -0.17014E+08
 
   -0.17222E+08         0.23736E+07         0.00000E+00
    0.23736E+07        -0.38426E+08         0.00000E+00
    0.00000E+00         0.00000E+00        -0.17137E+08
 
   -0.17343E+08         0.23158E+07         0.00000E+00
    0.23158E+07        -0.38678E+08         0.00000E+00
    0.00000E+00         0.00000E+00        -0.17254E+08
 
   -0.17456E+08         0.22571E+07         0.00000E+00
    0.22571E+07        -0.38916E+08         0.00000E+00
    0.00000E+00         0.00000E+00        -0.17365E+08
 
   -0.17563E+08         0.21981E+07         0.00000E+00
    0.21981E+07        -0.39142E+08         0.00000E+00
    0.00000E+00         0.00000E+00        -0.17469E+08
 
   -0.17663E+08         0.21392E+07         0.00000E+00
    0.21392E+07        -0.39355E+08         0.00000E+00
    0.00000E+00         0.00000E+00        -0.17569E+08
 
   -0.17758E+08         0.20807E+07         0.00000E+00
    0.20807E+07        -0.39558E+08         0.00000E+00
    0.00000E+00         0.00000E+00        -0.17663E+08
 
   -0.17847E+08         0.20230E+07         0.00000E+00
    0.20230E+07        -0.39750E+08         0.00000E+00
    0.00000E+00         0.00000E+00        -0.17754E+08
 
   -0.17932E+08         0.19665E+07         0.00000E+00
    0.19665E+07        -0.39933E+08         0.00000E+00
    0.00000E+00         0.00000E+00        -0.17840E+08
 
   -0.18013E+08         0.19113E+07         0.00000E+00
    0.19113E+07        -0.40107E+08         0.00000E+00
    0.00000E+00         0.00000E+00        -0.17922E+08
 
   -0.18089E+08         0.18576E+07         0.00000E+00
    0.18576E+07        -0.40273E+08         0.00000E+00
    0.00000E+00         0.00000E+00        -0.18001E+08
 
   -0.18163E+08         0.18057E+07         0.00000E+00
    0.18057E+07        -0.40431E+08         0.00000E+00
    0.00000E+00         0.00000E+00        -0.18077E+08
 
   -0.18232E+08         0.17557E+07         0.00000E+00
    0.17557E+07        -0.40582E+08         0.00000E+00
    0.00000E+00         0.00000E+00        -0.18150E+08
 
   -0.18299E+08         0.17078E+07         0.00000E+00
    0.17078E+07        -0.40727E+08         0.00000E+00
    0.00000E+00         0.00000E+00        -0.18220E+08
 
   -0.18364E+08         0.16619E+07         0.00000E+00
    0.16619E+07        -0.40866E+08         0.00000E+00
    0.00000E+00         0.00000E+00        -0.18288E+08
 
   -0.18426E+08         0.16183E+07         0.00000E+00
    0.16183E+07        -0.40999E+08         0.00000E+00
    0.00000E+00         0.00000E+00        -0.18354E+08
 
   -0.18485E+08         0.15770E+07         0.00000E+00
    0.15770E+07        -0.41128E+08         0.00000E+00
    0.00000E+00         0.00000E+00        -0.18418E+08
 
   -0.18543E+08         0.15379E+07         0.00000E+00
    0.15379E+07        -0.41252E+08         0.00000E+00
    0.00000E+00         0.00000E+00        -0.18479E+08
 
   -0.18599E+08         0.15012E+07         0.00000E+00
    0.15012E+07        -0.41371E+08         0.00000E+00
    0.00000E+00         0.00000E+00        -0.18539E+08
 
   -0.18653E+08         0.14669E+07         0.00000E+00
    0.14669E+07        -0.41487E+08         0.00000E+00
    0.00000E+00         0.00000E+00        -0.18598E+08
 
   -0.18706E+08         0.14349E+07         0.00000E+00
    0.14349E+07        -0.41599E+08         0.00000E+00
    0.00000E+00         0.00000E+00        -0.18655E+08
 
   -0.18758E+08         0.14053E+07         0.00000E+00
    0.14053E+07        -0.41708E+08         0.00000E+00
    0.00000E+00         0.00000E+00        -0.18711E+08
 
   -0.18808E+08         0.13781E+07         0.00000E+00
    0.13781E+07        -0.41814E+08         0.00000E+00
    0.00000E+00         0.00000E+00        -0.18766E+08
 
   -0.18858E+08         0.13532E+07         0.00000E+00
    0.13532E+07        -0.41918E+08         0.00000E+00
    0.00000E+00         0.00000E+00        -0.18819E+08
 
   -0.18906E+08         0.13307E+07         0.00000E+00
    0.13307E+07        -0.42019E+08         0.00000E+00
    0.00000E+00         0.00000E+00        -0.18872E+08
 
   -0.18954E+08         0.13106E+07         0.00000E+00
    0.13106E+07        -0.42119E+08         0.00000E+00
    0.00000E+00         0.00000E+00        -0.18925E+08
 
   -0.19002E+08         0.12927E+07         0.00000E+00
    0.12927E+07        -0.42216E+08         0.00000E+00
    0.00000E+00         0.00000E+00        -0.18976E+08
 
   -0.19049E+08         0.12772E+07         0.00000E+00
    0.12772E+07        -0.42313E+08         0.00000E+00
    0.00000E+00         0.00000E+00        -0.19027E+08
 
   -0.19095E+08         0.12638E+07         0.00000E+00
    0.12638E+07        -0.42408E+08         0.00000E+00
    0.00000E+00         0.00000E+00        -0.19078E+08
 
   -0.19141E+08         0.12528E+07         0.00000E+00
    0.12528E+07        -0.42502E+08         0.00000E+00
    0.00000E+00         0.00000E+00        -0.19129E+08
 
   -0.19188E+08         0.12439E+07         0.00000E+00
    0.12439E+07        -0.42595E+08         0.00000E+00
    0.00000E+00         0.00000E+00        -0.19179E+08
 
   -0.19234E+08         0.12371E+07         0.00000E+00
    0.12371E+07        -0.42688E+08         0.00000E+00
    0.00000E+00         0.00000E+00        -0.19230E+08
 
   -0.19281E+08         0.12325E+07         0.00000E+00
    0.12325E+07        -0.42781E+08         0.00000E+00
    0.00000E+00         0.00000E+00        -0.19280E+08
 
   -0.19328E+08         0.12299E+07         0.00000E+00
    0.12299E+07        -0.42874E+08         0.00000E+00
    0.00000E+00         0.00000E+00        -0.19331E+08
 
   -0.19375E+08         0.12294E+07         0.00000E+00
    0.12294E+07        -0.42967E+08         0.00000E+00
    0.00000E+00         0.00000E+00        -0.19382E+08
 
   -0.19423E+08         0.12309E+07         0.00000E+00
    0.12309E+07        -0.43061E+08         0.00000E+00
    0.00000E+00         0.00000E+00        -0.19434E+08
 
   -0.19471E+08         0.12342E+07         0.00000E+00
    0.12342E+07        -0.43156E+08         0.00000E+00
    0.00000E+00         0.00000E+00        -0.19486E+08
 
   -0.19520E+08         0.12395E+07         0.00000E+00
    0.12395E+07        -0.43252E+08         0.00000E+00
    0.00000E+00         0.00000E+00        -0.19539E+08
 
   -0.19571E+08         0.12466E+07         0.00000E+00
    0.12466E+07        -0.43349E+08         0.00000E+00
    0.00000E+00         0.00000E+00        -0.19593E+08
 
   -0.19622E+08         0.12554E+07         0.00000E+00
    0.12554E+07        -0.43448E+08         0.00000E+00
    0.00000E+00         0.00000E+00        -0.19648E+08
 
   -0.19675E+08         0.12658E+07         0.00000E+00
    0.12658E+07        -0.43549E+08         0.00000E+00
    0.00000E+00         0.00000E+00        -0.19704E+08
 
   -0.19729E+08         0.12778E+07         0.00000E+00
    0.12778E+07        -0.43652E+08         0.00000E+00
    0.00000E+00         0.00000E+00        -0.19762E+08
 
   -0.19785E+08         0.12913E+07         0.00000E+00
    0.12913E+07        -0.43758E+08         0.00000E+00
    0.00000E+00         0.00000E+00        -0.19820E+08
 
   -0.19842E+08         0.13062E+07         0.00000E+00
    0.13062E+07        -0.43866E+08         0.00000E+00
    0.00000E+00         0.00000E+00        -0.19881E+08
 
   -0.19902E+08         0.13223E+07         0.00000E+00
    0.13223E+07        -0.43978E+08         0.00000E+00
    0.00000E+00         0.00000E+00        -0.19943E+08
 
   -0.19963E+08         0.13395E+07         0.00000E+00
    0.13395E+07        -0.44093E+08         0.00000E+00
    0.00000E+00         0.00000E+00        -0.20007E+08
 
   -0.20027E+08         0.13577E+07         0.00000E+00
    0.13577E+07        -0.44213E+08         0.00000E+00
    0.00000E+00         0.00000E+00        -0.20073E+08
 
   -0.20094E+08         0.13766E+07         0.00000E+00
    0.13766E+07        -0.44336E+08         0.00000E+00
    0.00000E+00         0.00000E+00        -0.20142E+08
 
   -0.20163E+08         0.13961E+07         0.00000E+00
    0.13961E+07        -0.44465E+08         0.00000E+00
    0.00000E+00         0.00000E+00        -0.20213E+08
 
   -0.20236E+08         0.14160E+07         0.00000E+00
    0.14160E+07        -0.44599E+08         0.00000E+00
    0.00000E+00         0.00000E+00        -0.20287E+08
 
   -0.20312E+08         0.14360E+07         0.00000E+00
    0.14360E+07        -0.44739E+08         0.00000E+00
    0.00000E+00         0.00000E+00        -0.20363E+08
 
   -0.20391E+08         0.14558E+07         0.00000E+00
    0.14558E+07        -0.44886E+08         0.00000E+00
    0.00000E+00         0.00000E+00        -0.20443E+08
 
   -0.20475E+08         0.14752E+07         0.00000E+00
    0.14752E+07        -0.45040E+08         0.00000E+00
    0.00000E+00         0.00000E+00        -0.20526E+08
 
   -0.20563E+08         0.14937E+07         0.00000E+00
    0.14937E+07        -0.45201E+08         0.00000E+00
    0.00000E+00         0.00000E+00        -0.20613E+08
 
   -0.20655E+08         0.15111E+07         0.00000E+00
    0.15111E+07        -0.45371E+08         0.00000E+00
    0.00000E+00         0.00000E+00        -0.20704E+08
 
   -0.20753E+08         0.15270E+07         0.00000E+00
    0.15270E+07        -0.45549E+08         0.00000E+00
    0.00000E+00         0.00000E+00        -0.20800E+08
 
   -0.20855E+08         0.15408E+07         0.00000E+00
    0.15408E+07        -0.45738E+08         0.00000E+00
    0.00000E+00         0.00000E+00        -0.20900E+08
 
   -0.20964E+08         0.15523E+07         0.00000E+00
    0.15523E+07        -0.45938E+08         0.00000E+00
    0.00000E+00         0.00000E+00        -0.21004E+08
 
   -0.21079E+08         0.15608E+07         0.00000E+00
    0.15608E+07        -0.46149E+08         0.00000E+00
    0.00000E+00         0.00000E+00        -0.21114E+08
 
   -0.21200E+08         0.15658E+07         0.00000E+00
    0.15658E+07        -0.46372E+08         0.00000E+00
    0.00000E+00         0.00000E+00        -0.21230E+08
 
   -0.21328E+08         0.15669E+07         0.00000E+00
    0.15669E+07        -0.46609E+08         0.00000E+00
    0.00000E+00         0.00000E+00        -0.21352E+08
 
   -0.21464E+08         0.15635E+07         0.00000E+00
    0.15635E+07        -0.46860E+08         0.00000E+00
    0.00000E+00         0.00000E+00        -0.21480E+08
 
   -0.21607E+08         0.15550E+07         0.00000E+00
    0.15550E+07        -0.47125E+08         0.00000E+00
    0.00000E+00         0.00000E+00        -0.21614E+08
 
   -0.21758E+08         0.15410E+07         0.00000E+00
    0.15410E+07        -0.47406E+08         0.00000E+00
    0.00000E+00         0.00000E+00        -0.21756E+08
 
   -0.21918E+08         0.15210E+07         0.00000E+00
    0.15210E+07        -0.47702E+08         0.00000E+00
    0.00000E+00         0.00000E+00        -0.21904E+08
 
   -0.22085E+08         0.14944E+07         0.00000E+00
    0.14944E+07        -0.48014E+08         0.00000E+00
    0.00000E+00         0.00000E+00        -0.22060E+08
 
   -0.22260E+08         0.14610E+07         0.00000E+00
    0.14610E+07        -0.48342E+08         0.00000E+00
    0.00000E+00         0.00000E+00        -0.22223E+08
 
   -0.22443E+08         0.14204E+07         0.00000E+00
    0.14204E+07        -0.48684E+08         0.00000E+00
    0.00000E+00         0.00000E+00        -0.22392E+08
 
   -0.22633E+08         0.13723E+07         0.00000E+00
    0.13723E+07        -0.49040E+08         0.00000E+00
    0.00000E+00         0.00000E+00        -0.22567E+08
 
   -0.22829E+08         0.13164E+07         0.00000E+00
    0.13164E+07        -0.49407E+08         0.00000E+00
    0.00000E+00         0.00000E+00        -0.22747E+08
 
   -0.23030E+08         0.12524E+07         0.00000E+00
    0.12524E+07        -0.49782E+08         0.00000E+00
    0.00000E+00         0.00000E+00        -0.22930E+08
 
   -0.23233E+08         0.11796E+07         0.00000E+00
    0.11796E+07        -0.50160E+08         0.00000E+00
    0.00000E+00         0.00000E+00        -0.23113E+08
 
   -0.23437E+08         0.10969E+07         0.00000E+00
    0.10969E+07        -0.50537E+08         0.00000E+00
    0.00000E+00         0.00000E+00        -0.23294E+08
 
   -0.23640E+08         0.10023E+07         0.00000E+00
    0.10023E+07        -0.50906E+08         0.00000E+00
    0.00000E+00         0.00000E+00        -0.23466E+08
 
   -0.23839E+08         0.89239E+06         0.00000E+00
    0.89239E+06        -0.51258E+08         0.00000E+00
    0.00000E+00         0.00000E+00        -0.23624E+08
 
   -0.24034E+08         0.76117E+06         0.00000E+00
    0.76117E+06        -0.51587E+08         0.00000E+00
    0.00000E+00         0.00000E+00        -0.23762E+08
 
   -0.24225E+08         0.59843E+06         0.00000E+00
    0.59843E+06        -0.51883E+08         0.00000E+00
    0.00000E+00         0.00000E+00        -0.23868E+08
 
   -0.24424E+08         0.39048E+06         0.00000E+00
    0.39048E+06        -0.52139E+08         0.00000E+00
    0.00000E+00         0.00000E+00        -0.23927E+08
 
   -0.24670E+08         0.13711E+06         0.00000E+00
    0.13711E+06        -0.52368E+08         0.00000E+00
    0.00000E+00         0.00000E+00        -0.23920E+08
 
   -0.12734E+08         0.26332E+06         0.00000E+00
    0.26332E+06        -0.28631E+08         0.00000E+00
    0.00000E+00         0.00000E+00        -0.14646E+08
 
   -0.13331E+08         0.76298E+06         0.00000E+00
    0.76298E+06        -0.28796E+08         0.00000E+00
    0.00000E+00         0.00000E+00        -0.14646E+08
 
   -0.13691E+08         0.11896E+07         0.00000E+00
    0.11896E+07        -0.29133E+08         0.00000E+00
    0.00000E+00         0.00000E+00        -0.14646E+08
 
   -0.13918E+08         0.15310E+07         0.00000E+00
    0.15310E+07        -0.29617E+08         0.00000E+00
    0.00000E+00         0.00000E+00        -0.14646E+08
 
   -0.14073E+08         0.18058E+07         0.00000E+00
    0.18058E+07        -0.30204E+08         0.00000E+00
    0.00000E+00         0.00000E+00        -0.14646E+08
 
   -0.14185E+08         0.20334E+07         0.00000E+00
    0.20334E+07        -0.30863E+08         0.00000E+00
    0.00000E+00         0.00000E+00        -0.14646E+08
 
   -0.14269E+08         0.22258E+07         0.00000E+00
    0.22258E+07        -0.31568E+08         0.00000E+00
    0.00000E+00         0.00000E+00        -0.14646E+08
 
   -0.14336E+08         0.23904E+07         0.00000E+00
    0.23904E+07        -0.32299E+08         0.00000E+00
    0.00000E+00         0.00000E+00        -0.14646E+08
 
   -0.14406E+08         0.25278E+07         0.00000E+00
    0.25278E+07        -0.33025E+08         0.00000E+00
    0.00000E+00         0.00000E+00        -0.14659E+08
 
   -0.14616E+08         0.26034E+07         0.00000E+00
    0.26034E+07        -0.33595E+08         0.00000E+00
    0.00000E+00         0.00000E+00        -0.14817E+08
 
   -0.14897E+08         0.26383E+07         0.00000E+00
    0.26383E+07        -0.34071E+08         0.00000E+00
    0.00000E+00         0.00000E+00        -0.15050E+08
 
   -0.15164E+08         0.26583E+07         0.00000E+00
    0.26583E+07        -0.34535E+08         0.00000E+00
    0.00000E+00         0.00000E+00        -0.15277E+08
 
   -0.15418E+08         0.26656E+07         0.00000E+00
    0.26656E+07        -0.34984E+08         0.00000E+00
    0.00000E+00         0.00000E+00        -0.15494E+08
 
   -0.15657E+08         0.26619E+07         0.00000E+00
    0.26619E+07        -0.35414E+08         0.00000E+00
    0.00000E+00         0.00000E+00        -0.15702E+08
 
   -0.15881E+08         0.26486E+07         0.00000E+00
    0.26486E+07        -0.35826E+08         0.00000E+00
    0.00000E+00         0.00000E+00        -0.15898E+08
 
   -0.16092E+08         0.26269E+07         0.00000E+00
    0.26269E+07        -0.36218E+08         0.00000E+00
    0.00000E+00         0.00000E+00        -0.16084E+08
 
   -0.16289E+08         0.25978E+07         0.00000E+00
    0.25978E+07        -0.36589E+08         0.00000E+00
    0.00000E+00         0.00000E+00        -0.16260E+08
 
   -0.16473E+08         0.25625E+07         0.00000E+00
    0.25625E+07        -0.36942E+08         0.00000E+00
    0.00000E+00         0.00000E+00        -0.16425E+08
 
   -0.16645E+08         0.25218E+07         0.00000E+00
    0.25218E+07        -0.37275E+08         0.00000E+00
    0.00000E+00         0.00000E+00        -0.16581E+08
 
   -0.16805E+08         0.24766E+07         0.00000E+00
    0.24766E+07        -0.37590E+08         0.00000E+00
    0.00000E+00         0.00000E+00        -0.16728E+08
 
   -0.16954E+08         0.24278E+07         0.00000E+00
    0.24278E+07        -0.37888E+08         0.00000E+00
    0.00000E+00         0.00000E+00        -0.16867E+08
 
   -0.17094E+08         0.23760E+07         0.00000E+00
    0.23760E+07        -0.38170E+08         0.00000E+00
    0.00000E+00         0.00000E+00        -0.16998E+08
 
   -0.17224E+08         0.23221E+07         0.00000E+00
    0.23221E+07        -0.38435E+08         0.00000E+00
    0.00000E+00         0.00000E+00        -0.17121E+08
 
   -0.17346E+08         0.22665E+07         0.00000E+00
    0.22665E+07        -0.38686E+08         0.00000E+00
    0.00000E+00         0.00000E+00        -0.17238E+08
 
   -0.17460E+08         0.22099E+07         0.00000E+00
    0.22099E+07        -0.38924E+08         0.00000E+00
    0.00000E+00         0.00000E+00        -0.17348E+08
 
   -0.17567E+08         0.21529E+07         0.00000E+00
    0.21529E+07        -0.39149E+08         0.00000E+00
    0.00000E+00         0.00000E+00        -0.17453E+08
 
   -0.17668E+08         0.20957E+07         0.00000E+00
    0.20957E+07        -0.39362E+08         0.00000E+00
    0.00000E+00         0.00000E+00        -0.17553E+08
 
   -0.17763E+08         0.20389E+07         0.00000E+00
    0.20389E+07        -0.39564E+08         0.00000E+00
    0.00000E+00         0.00000E+00        -0.17648E+08
 
   -0.17853E+08         0.19829E+07         0.00000E+00
    0.19829E+07        -0.39756E+08         0.00000E+00
    0.00000E+00         0.00000E+00        -0.17739E+08
 
   -0.17938E+08         0.19278E+07         0.00000E+00
    0.19278E+07        -0.39938E+08         0.00000E+00
    0.00000E+00         0.00000E+00        -0.17826E+08
 
   -0.18019E+08         0.18739E+07         0.00000E+00
    0.18739E+07        -0.40112E+08         0.00000E+00
    0.00000E+00         0.00000E+00        -0.17908E+08
 
   -0.18095E+08         0.18216E+07         0.00000E+00
    0.18216E+07        -0.40277E+08         0.00000E+00
    0.00000E+00         0.00000E+00        -0.17988E+08
 
   -0.18168E+08         0.17709E+07         0.00000E+00
    0.17709E+07        -0.40435E+08         0.00000E+00
    0.00000E+00         0.00000E+00        -0.18064E+08
 
   -0.18238E+08         0.17220E+07         0.00000E+00
    0.17220E+07        -0.40586E+08         0.00000E+00
    0.00000E+00         0.00000E+00        -0.18138E+08
 
   -0.18305E+08         0.16751E+07         0.00000E+00
    0.16751E+07        -0.40731E+08         0.00000E+00
    0.00000E+00         0.00000E+00        -0.18209E+08
 
   -0.18369E+08         0.16303E+07         0.00000E+00
    0.16303E+07        -0.40870E+08         0.00000E+00
    0.00000E+00         0.00000E+00        -0.18277E+08
 
   -0.18431E+08         0.15876E+07         0.00000E+00
    0.15876E+07        -0.41003E+08         0.00000E+00
    0.00000E+00         0.00000E+00        -0.18344E+08
 
   -0.18490E+08         0.15471E+07         0.00000E+00
    0.15471E+07        -0.41131E+08         0.00000E+00
    0.00000E+00         0.00000E+00        -0.18408E+08
 
   -0.18548E+08         0.15088E+07         0.00000E+00
    0.15088E+07        -0.41255E+08         0.00000E+00
    0.00000E+00         0.00000E+00        -0.18470E+08
 
   -0.18603E+08         0.14728E+07         0.00000E+00
    0.14728E+07        -0.41374E+08         0.00000E+00
    0.00000E+00         0.00000E+00        -0.18531E+08
 
   -0.18657E+08         0.14392E+07         0.00000E+00
    0.14392E+07        -0.41490E+08         0.00000E+00
    0.00000E+00         0.00000E+00        -0.18590E+08
 
   -0.18710E+08         0.14078E+07         0.00000E+00
    0.14078E+07        -0.41602E+08         0.00000E+00
    0.00000E+00         0.00000E+00        -0.18647E+08
 
   -0.18761E+08         0.13788E+07         0.00000E+00
    0.13788E+07        -0.41710E+08         0.00000E+00
    0.00000E+00         0.00000E+00        -0.18704E+08
 
   -0.18811E+08         0.13521E+07         0.00000E+00
    0.13521E+07        -0.41817E+08         0.00000E+00
    0.00000E+00         0.00000E+00        -0.18759E+08
 
   -0.18860E+08         0.13277E+07         0.00000E+00
    0.13277E+07        -0.41920E+08         0.00000E+00
    0.00000E+00         0.00000E+00        -0.18813E+08
 
   -0.18908E+08         0.13057E+07         0.00000E+00
    0.13057E+07        -0.42021E+08         0.00000E+00
    0.00000E+00         0.00000E+00        -0.18867E+08
 
   -0.18956E+08         0.12858E+07         0.00000E+00
    0.12858E+07        -0.42121E+08         0.00000E+00
    0.00000E+00         0.00000E+00        -0.18920E+08
 
   -0.19003E+08         0.12683E+07         0.00000E+00
    0.12683E+07        -0.42218E+08         0.00000E+00
    0.00000E+00         0.00000E+00        -0.18972E+08
 
   -0.19049E+08         0.12530E+07         0.00000E+00
    0.12530E+07        -0.42314E+08         0.00000E+00
    0.00000E+00         0.00000E+00        -0.19023E+08
 
   -0.19095E+08         0.12399E+07         0.00000E+00
    0.12399E+07        -0.42409E+08         0.00000E+00
    0.00000E+00         0.00000E+00        -0.19075E+08
 
   -0.19141E+08         0.12290E+07         0.00000E+00
    0.12290E+07        -0.42503E+08         0.00000E+00
    0.00000E+00         0.00000E+00        -0.19126E+08
 
   -0.19187E+08         0.12202E+07         0.00000E+00
    0.12202E+07        -0.42597E+08         0.00000E+00
    0.00000E+00         0.00000E+00        -0.19177E+08
 
   -0.19233E+08         0.12135E+07         0.00000E+00
    0.12135E+07        -0.42690E+08         0.00000E+00
    0.00000E+00         0.00000E+00        -0.19227E+08
 
   -0.19279E+08         0.12089E+07         0.00000E+00
    0.12089E+07        -0.42783E+08         0.00000E+00
    0.00000E+00         0.00000E+00        -0.19278E+08
 
   -0.19325E+08         0.12063E+07         0.00000E+00
    0.12063E+07        -0.42876E+08         0.00000E+00
    0.00000E+00         0.00000E+00        -0.19330E+08
 
   -0.19372E+08         0.12057E+07         0.00000E+00
    0.12057E+07        -0.42969E+08         0.00000E+00
    0.00000E+00         0.00000E+00        -0.19381E+08
 
   -0.19419E+08         0.12071E+07         0.00000E+00
    0.12071E+07        -0.43063E+08         0.00000E+00
    0.00000E+00         0.00000E+00        -0.19433E+08
 
   -0.19468E+08         0.12103E+07         0.00000E+00
    0.12103E+07        -0.43157E+08         0.00000E+00
    0.00000E+00         0.00000E+00        -0.19486E+08
 
   -0.19516E+08         0.12154E+07         0.00000E+00
    0.12154E+07        -0.43253E+08         0.00000E+00
    0.00000E+00         0.00000E+00        -0.19539E+08
 
   -0.19566E+08         0.12222E+07         0.00000E+00
    0.12222E+07        -0.43350E+08         0.00000E+00
    0.00000E+00         0.00000E+00        -0.19594E+08
 
   -0.19617E+08         0.12307E+07         0.00000E+00
    0.12307E+07        -0.43449E+08         0.00000E+00
    0.00000E+00         0.00000E+00        -0.19649E+08
 
   -0.19669E+08         0.12408E+07         0.00000E+00
    0.12408E+07        -0.43550E+08         0.00000E+00
    0.00000E+00         0.00000E+00        -0.19705E+08
 
   -0.19723E+08         0.12525E+07         0.00000E+00
    0.12525E+07        -0.43653E+08         0.00000E+00
    0.00000E+00         0.00000E+00        -0.19763E+08
 
   -0.19778E+08         0.12656E+07         0.00000E+00
    0.12656E+07        -0.43759E+08         0.00000E+00
    0.00000E+00         0.00000E+00        -0.19822E+08
 
   -0.19836E+08         0.12800E+07         0.00000E+00
    0.12800E+07        -0.43867E+08         0.00000E+00
    0.00000E+00         0.00000E+00        -0.19883E+08
 
   -0.19895E+08         0.12956E+07         0.00000E+00
    0.12956E+07        -0.43979E+08         0.00000E+00
    0.00000E+00         0.00000E+00        -0.19945E+08
 
   -0.19956E+08         0.13123E+07         0.00000E+00
    0.13123E+07        -0.44094E+08         0.00000E+00
    0.00000E+00         0.00000E+00        -0.20009E+08
 
   -0.20020E+08         0.13298E+07         0.00000E+00
    0.13298E+07        -0.44214E+08         0.00000E+00
    0.00000E+00         0.00000E+00        -0.20076E+08
 
   -0.20086E+08         0.13482E+07         0.00000E+00
    0.13482E+07        -0.44338E+08         0.00000E+00
    0.00000E+00         0.00000E+00        -0.20144E+08
 
   -0.20155E+08         0.13670E+07         0.00000E+00
    0.13670E+07        -0.44466E+08         0.00000E+00
    0.00000E+00         0.00000E+00        -0.20215E+08
 
   -0.20227E+08         0.13862E+07         0.00000E+00
    0.13862E+07        -0.44600E+08         0.00000E+00
    0.00000E+00         0.00000E+00        -0.20289E+08
 
   -0.20303E+08         0.14054E+07         0.00000E+00
    0.14054E+07        -0.44740E+08         0.00000E+00
    0.00000E+00         0.00000E+00        -0.20366E+08
 
   -0.20382E+08         0.14245E+07         0.00000E+00
    0.14245E+07        -0.44887E+08         0.00000E+00
    0.00000E+00         0.00000E+00        -0.20446E+08
 
   -0.20466E+08         0.14430E+07         0.00000E+00
    0.14430E+07        -0.45041E+08         0.00000E+00
    0.00000E+00         0.00000E+00        -0.20529E+08
 
   -0.20554E+08         0.14608E+07         0.00000E+00
    0.14608E+07        -0.45202E+08         0.00000E+00
    0.00000E+00         0.00000E+00        -0.20615E+08
 
   -0.20646E+08         0.14773E+07         0.00000E+00
    0.14773E+07        -0.45372E+08         0.00000E+00
    0.00000E+00         0.00000E+00        -0.20706E+08
 
   -0.20744E+08         0.14923E+07         0.00000E+00
    0.14923E+07        -0.45550E+08         0.00000E+00
    0.00000E+00         0.00000E+00        -0.20801E+08
 
   -0.20847E+08         0.15052E+07         0.00000E+00
    0.15052E+07        -0.45739E+08         0.00000E+00
    0.00000E+00         0.00000E+00        -0.20900E+08
 
   -0.20956E+08         0.15156E+07         0.00000E+00
    0.15156E+07        -0.45939E+08         0.00000E+00
    0.00000E+00         0.00000E+00        -0.21005E+08
 
   -0.21071E+08         0.15231E+07         0.00000E+00
    0.15231E+07        -0.46150E+08         0.00000E+00
    0.00000E+00         0.00000E+00        -0.21114E+08
 
   -0.21192E+08         0.15271E+07         0.00000E+00
    0.15271E+07        -0.46373E+08         0.00000E+00
    0.00000E+00         0.00000E+00        -0.21229E+08
 
   -0.21321E+08         0.15271E+07         0.00000E+00
    0.15271E+07        -0.46610E+08         0.00000E+00
    0.00000E+00         0.00000E+00        -0.21350E+08
 
   -0.21458E+08         0.15225E+07         0.00000E+00
    0.15225E+07        -0.46861E+08         0.00000E+00
    0.00000E+00         0.00000E+00        -0.21477E+08
 
   -0.21602E+08         0.15129E+07         0.00000E+00
    0.15129E+07        -0.47126E+08         0.00000E+00
    0.00000E+00         0.00000E+00        -0.21610E+08
 
   -0.21754E+08         0.14976E+07         0.00000E+00
    0.14976E+07        -0.47407E+08         0.00000E+00
    0.00000E+00         0.00000E+00        -0.21751E+08
 
   -0.21915E+08         0.14763E+07         0.00000E+00
    0.14763E+07        -0.47703E+08         0.00000E+00
    0.00000E+00         0.00000E+00        -0.21898E+08
 
   -0.22083E+08         0.14483E+07         0.00000E+00
    0.14483E+07        -0.48016E+08         0.00000E+00
    0.00000E+00         0.00000E+00        -0.22053E+08
 
   -0.22260E+08         0.14135E+07         0.00000E+00
    0.14135E+07        -0.48343E+08         0.00000E+00
    0.00000E+00         0.00000E+00        -0.22214E+08
 
   -0.22445E+08         0.13713E+07         0.00000E+00
    0.13713E+07        -0.48686E+08         0.00000E+00
    0.00000E+00         0.00000E+00        -0.22382E+08
 
   -0.22637E+08         0.13216E+07         0.00000E+00
    0.13216E+07        -0.49042E+08         0.00000E+00
    0.00000E+00         0.00000E+00        -0.22555E+08
 
   -0.22835E+08         0.12640E+07         0.00000E+00
    0.12640E+07        -0.49409E+08         0.00000E+00
    0.00000E+00         0.00000E+00        -0.22734E+08
 
   -0.23039E+08         0.11983E+07         0.00000E+00
    0.11983E+07        -0.49785E+08         0.00000E+00
    0.00000E+00         0.00000E+00        -0.22915E+08
 
   -0.23245E+08         0.11240E+07         0.00000E+00
    0.11240E+07        -0.50164E+08         0.00000E+00
    0.00000E+00         0.00000E+00        -0.23096E+08
 
   -0.23453E+08         0.10400E+07         0.00000E+00
    0.10400E+07        -0.50541E+08         0.00000E+00
    0.00000E+00         0.00000E+00        -0.23274E+08
 
   -0.23660E+08         0.94468E+06         0.00000E+00
    0.94468E+06        -0.50911E+08         0.00000E+00
    0.00000E+00         0.00000E+00        -0.23443E+08
 
   -0.23865E+08         0.83485E+06         0.00000E+00
    0.83485E+06        -0.51264E+08         0.00000E+00
    0.00000E+00         0.00000E+00        -0.23598E+08
 
   -0.24067E+08         0.70520E+06         0.00000E+00
    0.70520E+06        -0.51594E+08         0.00000E+00
    0.00000E+00         0.00000E+00        -0.23730E+08
 
   -0.24269E+08         0.54700E+06         0.00000E+00
    0.54700E+06        -0.51891E+08         0.00000E+00
    0.00000E+00         0.00000E+00        -0.23830E+08
 
   -0.24484E+08         0.35128E+06         0.00000E+00
    0.35128E+06        -0.52150E+08         0.00000E+00
    0.00000E+00         0.00000E+00        -0.23879E+08
 
   -0.24747E+08         0.12193E+06         0.00000E+00
    0.12193E+06        -0.52384E+08         0.00000E+00
    0.00000E+00         0.00000E+00        -0.23864E+08
 
   -0.12475E+08         0.23392E+06         0.00000E+00
    0.23392E+06        -0.28730E+08         0.00000E+00
    0.00000E+00         0.00000E+00        -0.14646E+08
 
   -0.13109E+08         0.68417E+06         0.00000E+00
    0.68417E+06        -0.28886E+08         0.00000E+00
    0.00000E+00         0.00000E+00        -0.14646E+08
 
   -0.13514E+08         0.10818E+07         0.00000E+00
    0.10818E+07        -0.29208E+08         0.00000E+00
    0.00000E+00         0.00000E+00        -0.14646E+08
 
   -0.13778E+08         0.14106E+07         0.00000E+00
    0.14106E+07        -0.29676E+08         0.00000E+00
    0.00000E+00         0.00000E+00        -0.14646E+08
 
   -0.13960E+08         0.16809E+07         0.00000E+00
    0.16809E+07        -0.30253E+08         0.00000E+00
    0.00000E+00         0.00000E+00        -0.14646E+08
 
   -0.14092E+08         0.19080E+07         0.00000E+00
    0.19080E+07        -0.30904E+08         0.00000E+00
    0.00000E+00         0.00000E+00        -0.14646E+08
 
   -0.14192E+08         0.21022E+07         0.00000E+00
    0.21022E+07        -0.31604E+08         0.00000E+00
    0.00000E+00         0.00000E+00        -0.14646E+08
 
   -0.14273E+08         0.22700E+07         0.00000E+00
    0.22700E+07        -0.32330E+08         0.00000E+00
    0.00000E+00         0.00000E+00        -0.14646E+08
 
   -0.14357E+08         0.24110E+07         0.00000E+00
    0.24110E+07        -0.33049E+08         0.00000E+00
    0.00000E+00         0.00000E+00        -0.14661E+08
 
   -0.14576E+08         0.24931E+07         0.00000E+00
    0.24931E+07        -0.33616E+08         0.00000E+00
    0.00000E+00         0.00000E+00        -0.14818E+08
 
   -0.14863E+08         0.25356E+07         0.00000E+00
    0.25356E+07        -0.34091E+08         0.00000E+00
    0.00000E+00         0.00000E+00        -0.15048E+08
 
   -0.15136E+08         0.25626E+07         0.00000E+00
    0.25626E+07        -0.34554E+08         0.00000E+00
    0.00000E+00         0.00000E+00        -0.15272E+08
 
   -0.15395E+08         0.25763E+07         0.00000E+00
    0.25763E+07        -0.35001E+08         0.00000E+00
    0.00000E+00         0.00000E+00        -0.15487E+08
 
   -0.15638E+08         0.25783E+07         0.00000E+00
    0.25783E+07        -0.35431E+08         0.00000E+00
    0.00000E+00         0.00000E+00        -0.15692E+08
 
   -0.15867E+08         0.25702E+07         0.00000E+00
    0.25702E+07        -0.35841E+08         0.00000E+00
    0.00000E+00         0.00000E+00        -0.15887E+08
 
   -0.16081E+08         0.25531E+07         0.00000E+00
    0.25531E+07        -0.36232E+08         0.00000E+00
    0.00000E+00         0.00000E+00        -0.16072E+08
 
   -0.16281E+08         0.25282E+07         0.00000E+00
    0.25282E+07        -0.36603E+08         0.00000E+00
    0.00000E+00         0.00000E+00        -0.16247E+08
 
   -0.16467E+08         0.24966E+07         0.00000E+00
    0.24966E+07        -0.36955E+08         0.00000E+00
    0.00000E+00         0.00000E+00        -0.16411E+08
 
   -0.16641E+08         0.24593E+07         0.00000E+00
    0.24593E+07        -0.37287E+08         0.00000E+00
    0.00000E+00         0.00000E+00        -0.16567E+08
 
   -0.16803E+08         0.24173E+07         0.00000E+00
    0.24173E+07        -0.37602E+08         0.00000E+00
    0.00000E+00         0.00000E+00        -0.16713E+08
 
   -0.16954E+08         0.23713E+07         0.00000E+00
    0.23713E+07        -0.37899E+08         0.00000E+00
    0.00000E+00         0.00000E+00        -0.16851E+08
 
   -0.17095E+08         0.23221E+07         0.00000E+00
    0.23221E+07        -0.38179E+08         0.00000E+00
    0.00000E+00         0.00000E+00        -0.16982E+08
 
   -0.17226E+08         0.22706E+07         0.00000E+00
    0.22706E+07        -0.38444E+08         0.00000E+00
    0.00000E+00         0.00000E+00        -0.17105E+08
 
   -0.17349E+08         0.22172E+07         0.00000E+00
    0.22172E+07        -0.38695E+08         0.00000E+00
    0.00000E+00         0.00000E+00        -0.17222E+08
 
   -0.17464E+08         0.21627E+07         0.00000E+00
    0.21627E+07        -0.38932E+08         0.00000E+00
    0.00000E+00         0.00000E+00        -0.17333E+08
 
   -0.17572E+08         0.21075E+07         0.00000E+00
    0.21075E+07        -0.39156E+08         0.00000E+00
    0.00000E+00         0.00000E+00        -0.17438E+08
 
   -0.17674E+08         0.20522E+07         0.00000E+00
    0.20522E+07        -0.39369E+08         0.00000E+00
    0.00000E+00         0.00000E+00        -0.17538E+08
 
   -0.17769E+08         0.19970E+07         0.00000E+00
    0.19970E+07        -0.39570E+08         0.00000E+00
    0.00000E+00         0.00000E+00        -0.17633E+08
 
   -0.17859E+08         0.19425E+07         0.00000E+00
    0.19425E+07        -0.39762E+08         0.00000E+00
    0.00000E+00         0.00000E+00        -0.17724E+08
 
   -0.17944E+08         0.18889E+07         0.00000E+00
    0.18889E+07        -0.39944E+08         0.00000E+00
    0.00000E+00         0.00000E+00        -0.17812E+08
 
   -0.18025E+08         0.18364E+07         0.00000E+00
    0.18364E+07        -0.40117E+08         0.00000E+00
    0.00000E+00         0.00000E+00        -0.17895E+08
 
   -0.18102E+08         0.17853E+07         0.00000E+00
    0.17853E+07        -0.40282E+08         0.00000E+00
    0.00000E+00         0.00000E+00        -0.17975E+08
 
   -0.18174E+08         0.17359E+07         0.00000E+00
    0.17359E+07        -0.40440E+08         0.00000E+00
    0.00000E+00         0.00000E+00        -0.18052E+08
 
   -0.18244E+08         0.16881E+07         0.00000E+00
    0.16881E+07        -0.40591E+08         0.00000E+00
    0.00000E+00         0.00000E+00        -0.18126E+08
 
   -0.18311E+08         0.16423E+07         0.00000E+00
    0.16423E+07        -0.40735E+08         0.00000E+00
    0.00000E+00         0.00000E+00        -0.18197E+08
 
   -0.18375E+08         0.15984E+07         0.00000E+00
    0.15984E+07        -0.40873E+08         0.00000E+00
    0.00000E+00         0.00000E+00        -0.18266E+08
 
   -0.18436E+08         0.15566E+07         0.00000E+00
    0.15566E+07        -0.41006E+08         0.00000E+00
    0.00000E+00         0.00000E+00        -0.18333E+08
 
   -0.18495E+08         0.15170E+07         0.00000E+00
    0.15170E+07        -0.41134E+08         0.00000E+00
    0.00000E+00         0.00000E+00        -0.18398E+08
 
   -0.18552E+08         0.14795E+07         0.00000E+00
    0.14795E+07        -0.41258E+08         0.00000E+00
    0.00000E+00         0.00000E+00        -0.18461E+08
 
   -0.18607E+08         0.14443E+07         0.00000E+00
    0.14443E+07        -0.41377E+08         0.00000E+00
    0.00000E+00         0.00000E+00        -0.18522E+08
 
   -0.18661E+08         0.14113E+07         0.00000E+00
    0.14113E+07        -0.41492E+08         0.00000E+00
    0.00000E+00         0.00000E+00        -0.18582E+08
 
   -0.18713E+08         0.13806E+07         0.00000E+00
    0.13806E+07        -0.41604E+08         0.00000E+00
    0.00000E+00         0.00000E+00        -0.18640E+08
 
   -0.18764E+08         0.13521E+07         0.00000E+00
    0.13521E+07        -0.41713E+08         0.00000E+00
    0.00000E+00         0.00000E+00        -0.18697E+08
 
   -0.18813E+08         0.13259E+07         0.00000E+00
    0.13259E+07        -0.41819E+08         0.00000E+00
    0.00000E+00         0.00000E+00        -0.18753E+08
 
   -0.18862E+08         0.13020E+07         0.00000E+00
    0.13020E+07        -0.41922E+08         0.00000E+00
    0.00000E+00         0.00000E+00        -0.18807E+08
 
   -0.18910E+08         0.12803E+07         0.00000E+00
    0.12803E+07        -0.42023E+08         0.00000E+00
    0.00000E+00         0.00000E+00        -0.18861E+08
 
   -0.18957E+08         0.12609E+07         0.00000E+00
    0.12609E+07        -0.42122E+08         0.00000E+00
    0.00000E+00         0.00000E+00        -0.18915E+08
 
   -0.19003E+08         0.12437E+07         0.00000E+00
    0.12437E+07        -0.42220E+08         0.00000E+00
    0.00000E+00         0.00000E+00        -0.18967E+08
 
   -0.19050E+08         0.12286E+07         0.00000E+00
    0.12286E+07        -0.42316E+08         0.00000E+00
    0.00000E+00         0.00000E+00        -0.19019E+08
 
   -0.19095E+08         0.12157E+07         0.00000E+00
    0.12157E+07        -0.42411E+08         0.00000E+00
    0.00000E+00         0.00000E+00        -0.19071E+08
 
   -0.19141E+08         0.12050E+07         0.00000E+00
    0.12050E+07        -0.42505E+08         0.00000E+00
    0.00000E+00         0.00000E+00        -0.19123E+08
 
   -0.19186E+08         0.11963E+07         0.00000E+00
    0.11963E+07        -0.42598E+08         0.00000E+00
    0.00000E+00         0.00000E+00        -0.19174E+08
 
   -0.19232E+08         0.11897E+07         0.00000E+00
    0.11897E+07        -0.42691E+08         0.00000E+00
    0.00000E+00         0.00000E+00        -0.19225E+08
 
   -0.19277E+08         0.11852E+07         0.00000E+00
    0.11852E+07        -0.42784E+08         0.00000E+00
    0.00000E+00         0.00000E+00        -0.19277E+08
 
   -0.19323E+08         0.11826E+07         0.00000E+00
    0.11826E+07        -0.42877E+08         0.00000E+00
    0.00000E+00         0.00000E+00        -0.19328E+08
 
   -0.19369E+08         0.11819E+07         0.00000E+00
    0.11819E+07        -0.42970E+08         0.00000E+00
    0.00000E+00         0.00000E+00        -0.19380E+08
 
   -0.19416E+08         0.11832E+07         0.00000E+00
    0.11832E+07        -0.43064E+08         0.00000E+00
    0.00000E+00         0.00000E+00        -0.19433E+08
 
   -0.19464E+08         0.11862E+07         0.00000E+00
    0.11862E+07        -0.43158E+08         0.00000E+00
    0.00000E+00         0.00000E+00        -0.19486E+08
 
   -0.19512E+08         0.11911E+07         0.00000E+00
    0.11911E+07        -0.43254E+08         0.00000E+00
    0.00000E+00         0.00000E+00        -0.19539E+08
 
   -0.19562E+08         0.11977E+07         0.00000E+00
    0.11977E+07        -0.43351E+08         0.00000E+00
    0.00000E+00         0.00000E+00        -0.19594E+08
 
   -0.19612E+08         0.12059E+07         0.00000E+00
    0.12059E+07        -0.43450E+08         0.00000E+00
    0.00000E+00         0.00000E+00        -0.19650E+08
 
   -0.19664E+08         0.12157E+07         0.00000E+00
    0.12157E+07        -0.43551E+08         0.00000E+00
    0.00000E+00         0.00000E+00        -0.19706E+08
 
   -0.19717E+08         0.12270E+07         0.00000E+00
    0.12270E+07        -0.43654E+08         0.00000E+00
    0.00000E+00         0.00000E+00        -0.19764E+08
 
   -0.19772E+08         0.12397E+07         0.00000E+00
    0.12397E+07        -0.43760E+08         0.00000E+00
    0.00000E+00         0.00000E+00        -0.19823E+08
 
   -0.19829E+08         0.12536E+07         0.00000E+00
    0.12536E+07        -0.43868E+08         0.00000E+00
    0.00000E+00         0.00000E+00        -0.19884E+08
 
   -0.19888E+08         0.12688E+07         0.00000E+00
    0.12688E+07        -0.43980E+08         0.00000E+00
    0.00000E+00         0.00000E+00        -0.19947E+08
 
   -0.19949E+08         0.12849E+07         0.00000E+00
    0.12849E+07        -0.44095E+08         0.00000E+00
    0.00000E+00         0.00000E+00        -0.20011E+08
 
   -0.20012E+08         0.13019E+07         0.00000E+00
    0.13019E+07        -0.44215E+08         0.00000E+00
    0.00000E+00         0.00000E+00        -0.20078E+08
 
   -0.20078E+08         0.13196E+07         0.00000E+00
    0.13196E+07        -0.44338E+08         0.00000E+00
    0.00000E+00         0.00000E+00        -0.20147E+08
 
   -0.20147E+08         0.13378E+07         0.00000E+00
    0.13378E+07        -0.44467E+08         0.00000E+00
    0.00000E+00         0.00000E+00        -0.20218E+08
 
   -0.20219E+08         0.13563E+07         0.00000E+00
    0.13563E+07        -0.44601E+08         0.00000E+00
    0.00000E+00         0.00000E+00        -0.20292E+08
 
   -0.20294E+08         0.13749E+07         0.00000E+00
    0.13749E+07        -0.44741E+08         0.00000E+00
    0.00000E+00         0.00000E+00        -0.20368E+08
 
   -0.20374E+08         0.13932E+07         0.00000E+00
    0.13932E+07        -0.44888E+08         0.00000E+00
    0.00000E+00         0.00000E+00        -0.20448E+08
 
   -0.20457E+08         0.14110E+07         0.00000E+00
    0.14110E+07        -0.45041E+08         0.00000E+00
    0.00000E+00         0.00000E+00        -0.20531E+08
 
   -0.20545E+08         0.14279E+07         0.00000E+00
    0.14279E+07        -0.45203E+08         0.00000E+00
    0.00000E+00         0.00000E+00        -0.20617E+08
 
   -0.20637E+08         0.14436E+07         0.00000E+00
    0.14436E+07        -0.45372E+08         0.00000E+00
    0.00000E+00         0.00000E+00        -0.20708E+08
 
   -0.20735E+08         0.14577E+07         0.00000E+00
    0.14577E+07        -0.45551E+08         0.00000E+00
    0.00000E+00         0.00000E+00        -0.20802E+08
 
   -0.20838E+08         0.14697E+07         0.00000E+00
    0.14697E+07        -0.45740E+08         0.00000E+00
    0.00000E+00         0.00000E+00        -0.20901E+08
 
   -0.20947E+08         0.14792E+07         0.00000E+00
    0.14792E+07        -0.45940E+08         0.00000E+00
    0.00000E+00         0.00000E+00        -0.21005E+08
 
   -0.21063E+08         0.14857E+07         0.00000E+00
    0.14857E+07        -0.46151E+08         0.00000E+00
    0.00000E+00         0.00000E+00        -0.21114E+08
 
   -0.21185E+08         0.14887E+07         0.00000E+00
    0.14887E+07        -0.46374E+08         0.00000E+00
    0.00000E+00         0.00000E+00        -0.21228E+08
 
   -0.21314E+08         0.14876E+07         0.00000E+00
    0.14876E+07        -0.46611E+08         0.00000E+00
    0.00000E+00         0.00000E+00        -0.21348E+08
 
   -0.21452E+08         0.14820E+07         0.00000E+00
    0.14820E+07        -0.46861E+08         0.00000E+00
    0.00000E+00         0.00000E+00        -0.21474E+08
 
   -0.21597E+08         0.14712E+07         0.00000E+00
    0.14712E+07        -0.47127E+08         0.00000E+00
    0.00000E+00         0.00000E+00        -0.21607E+08
 
   -0.21750E+08         0.14547E+07         0.00000E+00
    0.14547E+07        -0.47408E+08         0.00000E+00
    0.00000E+00         0.00000E+00        -0.21746E+08
 
   -0.21912E+08         0.14321E+07         0.00000E+00
    0.14321E+07        -0.47704E+08         0.00000E+00
    0.00000E+00         0.00000E+00        -0.21892E+08
 
   -0.22082E+08         0.14028E+07         0.00000E+00
    0.14028E+07        -0.48016E+08         0.00000E+00
    0.00000E+00         0.00000E+00        -0.22045E+08
 
   -0.22261E+08         0.13665E+07         0.00000E+00
    0.13665E+07        -0.48344E+08         0.00000E+00
    0.00000E+00         0.00000E+00        -0.22205E+08
 
   -0.22447E+08         0.13228E+07         0.00000E+00
    0.13228E+07        -0.48687E+08         0.00000E+00
    0.00000E+00         0.00000E+00        -0.22371E+08
 
   -0.22641E+08         0.12715E+07         0.00000E+00
    0.12715E+07        -0.49044E+08         0.00000E+00
    0.00000E+00         0.00000E+00        -0.22543E+08
 
   -0.22842E+08         0.12124E+07         0.00000E+00
    0.12124E+07        -0.49411E+08         0.00000E+00
    0.00000E+00         0.00000E+00        -0.22719E+08
 
   -0.23048E+08         0.11452E+07         0.00000E+00
    0.11452E+07        -0.49787E+08         0.00000E+00
    0.00000E+00         0.00000E+00        -0.22899E+08
 
   -0.23258E+08         0.10694E+07         0.00000E+00
    0.10694E+07        -0.50167E+08         0.00000E+00
    0.00000E+00         0.00000E+00        -0.23078E+08
 
   -0.23469E+08         0.98434E+06         0.00000E+00
    0.98434E+06        -0.50546E+08         0.00000E+00
    0.00000E+00         0.00000E+00        -0.23253E+08
 
   -0.23681E+08         0.88852E+06         0.00000E+00
    0.88852E+06        -0.50916E+08         0.00000E+00
    0.00000E+00         0.00000E+00        -0.23420E+08
 
   -0.23892E+08         0.77922E+06         0.00000E+00
    0.77922E+06        -0.51271E+08         0.00000E+00
    0.00000E+00         0.00000E+00        -0.23572E+08
 
   -0.24102E+08         0.65182E+06         0.00000E+00
    0.65182E+06        -0.51602E+08         0.00000E+00
    0.00000E+00         0.00000E+00        -0.23699E+08
 
   -0.24315E+08         0.49929E+06         0.00000E+00
    0.49929E+06        -0.51901E+08         0.00000E+00
    0.00000E+00         0.00000E+00        -0.23792E+08
 
   -0.24544E+08         0.31641E+06         0.00000E+00
    0.31641E+06        -0.52163E+08         0.00000E+00
    0.00000E+00         0.00000E+00        -0.23835E+08
 
   -0.24820E+08         0.10887E+06         0.00000E+00
    0.10887E+06        -0.52402E+08         0.00000E+00
    0.00000E+00         0.00000E+00        -0.23814E+08
 
   -0.12233E+08         0.20825E+06         0.00000E+00
    0.20825E+06        -0.28819E+08         0.00000E+00
    0.00000E+00         0.00000E+00        -0.14646E+08
 
   -0.12896E+08         0.61364E+06         0.00000E+00
    0.61364E+06        -0.28968E+08         0.00000E+00
    0.00000E+00         0.00000E+00        -0.14646E+08
 
   -0.13339E+08         0.98196E+06         0.00000E+00
    0.98196E+06        -0.29279E+08         0.00000E+00
    0.00000E+00         0.00000E+00        -0.14646E+08
 
   -0.13636E+08         0.12963E+07         0.00000E+00
    0.12963E+07        -0.29735E+08         0.00000E+00
    0.00000E+00         0.00000E+00        -0.14646E+08
 
   -0.13844E+08         0.15606E+07         0.00000E+00
    0.15606E+07        -0.30302E+08         0.00000E+00
    0.00000E+00         0.00000E+00        -0.14646E+08
 
   -0.13997E+08         0.17862E+07         0.00000E+00
    0.17862E+07        -0.30946E+08         0.00000E+00
    0.00000E+00         0.00000E+00        -0.14646E+08
 
   -0.14114E+08         0.19816E+07         0.00000E+00
    0.19816E+07        -0.31640E+08         0.00000E+00
    0.00000E+00         0.00000E+00        -0.14646E+08
 
   -0.14208E+08         0.21522E+07         0.00000E+00
    0.21522E+07        -0.32361E+08         0.00000E+00
    0.00000E+00         0.00000E+00        -0.14646E+08
 
   -0.14308E+08         0.22961E+07         0.00000E+00
    0.22961E+07        -0.33073E+08         0.00000E+00
    0.00000E+00         0.00000E+00        -0.14665E+08
 
   -0.14537E+08         0.23842E+07         0.00000E+00
    0.23842E+07        -0.33635E+08         0.00000E+00
    0.00000E+00         0.00000E+00        -0.14820E+08
 
   -0.14831E+08         0.24342E+07         0.00000E+00
    0.24342E+07        -0.34110E+08         0.00000E+00
    0.00000E+00         0.00000E+00        -0.15047E+08
 
   -0.15109E+08         0.24680E+07         0.00000E+00
    0.24680E+07        -0.34573E+08         0.00000E+00
    0.00000E+00         0.00000E+00        -0.15268E+08
 
   -0.15372E+08         0.24879E+07         0.00000E+00
    0.24879E+07        -0.35019E+08         0.00000E+00
    0.00000E+00         0.00000E+00        -0.15481E+08
 
   -0.15620E+08         0.24955E+07         0.00000E+00
    0.24955E+07        -0.35448E+08         0.00000E+00
    0.00000E+00         0.00000E+00        -0.15684E+08
 
   -0.15853E+08         0.24923E+07         0.00000E+00
    0.24923E+07        -0.35857E+08         0.00000E+00
    0.00000E+00         0.00000E+00        -0.15877E+08
 
   -0.16070E+08         0.24798E+07         0.00000E+00
    0.24798E+07        -0.36247E+08         0.00000E+00
    0.00000E+00         0.00000E+00        -0.16061E+08
 
   -0.16273E+08         0.24590E+07         0.00000E+00
    0.24590E+07        -0.36617E+08         0.00000E+00
    0.00000E+00         0.00000E+00        -0.16234E+08
 
   -0.16462E+08         0.24311E+07         0.00000E+00
    0.24311E+07        -0.36967E+08         0.00000E+00
    0.00000E+00         0.00000E+00        -0.16398E+08
 
   -0.16638E+08         0.23971E+07         0.00000E+00
    0.23971E+07        -0.37299E+08         0.00000E+00
    0.00000E+00         0.00000E+00        -0.16552E+08
 
   -0.16802E+08         0.23581E+07         0.00000E+00
    0.23581E+07        -0.37613E+08         0.00000E+00
    0.00000E+00         0.00000E+00        -0.16698E+08
 
   -0.16955E+08         0.23149E+07         0.00000E+00
    0.23149E+07        -0.37909E+08         0.00000E+00
    0.00000E+00         0.00000E+00        -0.16836E+08
 
   -0.17097E+08         0.22683E+07         0.00000E+00
    0.22683E+07        -0.38189E+08         0.00000E+00
    0.00000E+00         0.00000E+00        -0.16966E+08
 
   -0.17229E+08         0.22191E+07         0.00000E+00
    0.22191E+07        -0.38453E+08         0.00000E+00
    0.00000E+00         0.00000E+00        -0.17090E+08
 
   -0.17353E+08         0.21679E+07         0.00000E+00
    0.21679E+07        -0.38703E+08         0.00000E+00
    0.00000E+00         0.00000E+00        -0.17206E+08
 
   -0.17469E+08         0.21154E+07         0.00000E+00
    0.21154E+07        -0.38940E+08         0.00000E+00
    0.00000E+00         0.00000E+00        -0.17317E+08
 
   -0.17577E+08         0.20621E+07         0.00000E+00
    0.20621E+07        -0.39163E+08         0.00000E+00
    0.00000E+00         0.00000E+00        -0.17423E+08
 
   -0.17679E+08         0.20085E+07         0.00000E+00
    0.20085E+07        -0.39376E+08         0.00000E+00
    0.00000E+00         0.00000E+00        -0.17523E+08
 
   -0.17775E+08         0.19550E+07         0.00000E+00
    0.19550E+07        -0.39577E+08         0.00000E+00
    0.00000E+00         0.00000E+00        -0.17619E+08
 
   -0.17865E+08         0.19020E+07         0.00000E+00
    0.19020E+07        -0.39768E+08         0.00000E+00
    0.00000E+00         0.00000E+00        -0.17710E+08
 
   -0.17950E+08         0.18498E+07         0.00000E+00
    0.18498E+07        -0.39949E+08         0.00000E+00
    0.00000E+00         0.00000E+00        -0.17798E+08
 
   -0.18031E+08         0.17987E+07         0.00000E+00
    0.17987E+07        -0.40122E+08         0.00000E+00
    0.00000E+00         0.00000E+00        -0.17882E+08
 
   -0.18108E+08         0.17489E+07         0.00000E+00
    0.17489E+07        -0.40287E+08         0.00000E+00
    0.00000E+00         0.00000E+00        -0.17962E+08
 
   -0.18181E+08         0.17006E+07         0.00000E+00
    0.17006E+07        -0.40444E+08         0.00000E+00
    0.00000E+00         0.00000E+00        -0.18040E+08
 
   -0.18250E+08         0.16540E+07         0.00000E+00
    0.16540E+07        -0.40595E+08         0.00000E+00
    0.00000E+00         0.00000E+00        -0.18114E+08
 
   -0.18316E+08         0.16092E+07         0.00000E+00
    0.16092E+07        -0.40739E+08         0.00000E+00
    0.00000E+00         0.00000E+00        -0.18186E+08
 
   -0.18380E+08         0.15663E+07         0.00000E+00
    0.15663E+07        -0.40877E+08         0.00000E+00
    0.00000E+00         0.00000E+00        -0.18256E+08
 
   -0.18441E+08         0.15254E+07         0.00000E+00
    0.15254E+07        -0.41010E+08         0.00000E+00
    0.00000E+00         0.00000E+00        -0.18323E+08
 
   -0.18500E+08         0.14866E+07         0.00000E+00
    0.14866E+07        -0.41138E+08         0.00000E+00
    0.00000E+00         0.00000E+00        -0.18388E+08
 
   -0.18557E+08         0.14500E+07         0.00000E+00
    0.14500E+07        -0.41261E+08         0.00000E+00
    0.00000E+00         0.00000E+00        -0.18452E+08
 
   -0.18612E+08         0.14155E+07         0.00000E+00
    0.14155E+07        -0.41380E+08         0.00000E+00
    0.00000E+00         0.00000E+00        -0.18514E+08
 
   -0.18665E+08         0.13832E+07         0.00000E+00
    0.13832E+07        -0.41495E+08         0.00000E+00
    0.00000E+00         0.00000E+00        -0.18574E+08
 
   -0.18716E+08         0.13531E+07         0.00000E+00
    0.13531E+07        -0.41607E+08         0.00000E+00
    0.00000E+00         0.00000E+00        -0.18632E+08
 
   -0.18767E+08         0.13252E+07         0.00000E+00
    0.13252E+07        -0.41715E+08         0.00000E+00
    0.00000E+00         0.00000E+00        -0.18690E+08
 
   -0.18816E+08         0.12995E+07         0.00000E+00
    0.12995E+07        -0.41821E+08         0.00000E+00
    0.00000E+00         0.00000E+00        -0.18746E+08
 
   -0.18864E+08         0.12761E+07         0.00000E+00
    0.12761E+07        -0.41924E+08         0.00000E+00
    0.00000E+00         0.00000E+00        -0.18802E+08
 
   -0.18912E+08         0.12548E+07         0.00000E+00
    0.12548E+07        -0.42025E+08         0.00000E+00
    0.00000E+00         0.00000E+00        -0.18856E+08
 
   -0.18958E+08         0.12357E+07         0.00000E+00
    0.12357E+07        -0.42124E+08         0.00000E+00
    0.00000E+00         0.00000E+00        -0.18910E+08
 
   -0.19004E+08         0.12188E+07         0.00000E+00
    0.12188E+07        -0.42222E+08         0.00000E+00
    0.00000E+00         0.00000E+00        -0.18963E+08
 
   -0.19050E+08         0.12041E+07         0.00000E+00
    0.12041E+07        -0.42318E+08         0.00000E+00
    0.00000E+00         0.00000E+00        -0.19015E+08
 
   -0.19095E+08         0.11914E+07         0.00000E+00
    0.11914E+07        -0.42413E+08         0.00000E+00
    0.00000E+00         0.00000E+00        -0.19068E+08
 
   -0.19140E+08         0.11808E+07         0.00000E+00
    0.11808E+07        -0.42506E+08         0.00000E+00
    0.00000E+00         0.00000E+00        -0.19120E+08
 
   -0.19185E+08         0.11723E+07         0.00000E+00
    0.11723E+07        -0.42600E+08         0.00000E+00
    0.00000E+00         0.00000E+00        -0.19171E+08
 
   -0.19230E+08         0.11658E+07         0.00000E+00
    0.11658E+07        -0.42693E+08         0.00000E+00
    0.00000E+00         0.00000E+00        -0.19223E+08
 
   -0.19276E+08         0.11612E+07         0.00000E+00
    0.11612E+07        -0.42785E+08         0.00000E+00
    0.00000E+00         0.00000E+00        -0.19275E+08
 
   -0.19321E+08         0.11586E+07         0.00000E+00
    0.11586E+07        -0.42878E+08         0.00000E+00
    0.00000E+00         0.00000E+00        -0.19327E+08
 
   -0.19367E+08         0.11579E+07         0.00000E+00
    0.11579E+07        -0.42971E+08         0.00000E+00
    0.00000E+00         0.00000E+00        -0.19379E+08
 
   -0.19413E+08         0.11591E+07         0.00000E+00
    0.11591E+07        -0.43065E+08         0.00000E+00
    0.00000E+00         0.00000E+00        -0.19432E+08
 
   -0.19461E+08         0.11620E+07         0.00000E+00
    0.11620E+07        -0.43160E+08         0.00000E+00
    0.00000E+00         0.00000E+00        -0.19485E+08
 
   -0.19508E+08         0.11667E+07         0.00000E+00
    0.11667E+07        -0.43255E+08         0.00000E+00
    0.00000E+00         0.00000E+00        -0.19540E+08
 
   -0.19557E+08         0.11730E+07         0.00000E+00
    0.11730E+07        -0.43352E+08         0.00000E+00
    0.00000E+00         0.00000E+00        -0.19594E+08
 
   -0.19608E+08         0.11810E+07         0.00000E+00
    0.11810E+07        -0.43451E+08         0.00000E+00
    0.00000E+00         0.00000E+00        -0.19650E+08
 
   -0.19659E+08         0.11905E+07         0.00000E+00
    0.11905E+07        -0.43552E+08         0.00000E+00
    0.00000E+00         0.00000E+00        -0.19707E+08
 
   -0.19712E+08         0.12014E+07         0.00000E+00
    0.12014E+07        -0.43655E+08         0.00000E+00
    0.00000E+00         0.00000E+00        -0.19765E+08
 
   -0.19766E+08         0.12137E+07         0.00000E+00
    0.12137E+07        -0.43760E+08         0.00000E+00
    0.00000E+00         0.00000E+00        -0.19825E+08
 
   -0.19823E+08         0.12272E+07         0.00000E+00
    0.12272E+07        -0.43869E+08         0.00000E+00
    0.00000E+00         0.00000E+00        -0.19886E+08
 
   -0.19881E+08         0.12418E+07         0.00000E+00
    0.12418E+07        -0.43981E+08         0.00000E+00
    0.00000E+00         0.00000E+00        -0.19949E+08
 
   -0.19941E+08         0.12575E+07         0.00000E+00
    0.12575E+07        -0.44096E+08         0.00000E+00
    0.00000E+00         0.00000E+00        -0.20014E+08
 
   -0.20004E+08         0.12739E+07         0.00000E+00
    0.12739E+07        -0.44215E+08         0.00000E+00
    0.00000E+00         0.00000E+00        -0.20080E+08
 
   -0.20070E+08         0.12910E+07         0.00000E+00
    0.12910E+07        -0.44339E+08         0.00000E+00
    0.00000E+00         0.00000E+00        -0.20149E+08
 
   -0.20139E+08         0.13086E+07         0.00000E+00
    0.13086E+07        -0.44468E+08         0.00000E+00
    0.00000E+00         0.00000E+00        -0.20220E+08
 
   -0.20210E+08         0.13265E+07         0.00000E+00
    0.13265E+07        -0.44602E+08         0.00000E+00
    0.00000E+00         0.00000E+00        -0.20294E+08
 
   -0.20286E+08         0.13443E+07         0.00000E+00
    0.13443E+07        -0.44742E+08         0.00000E+00
    0.00000E+00         0.00000E+00        -0.20371E+08
 
   -0.20365E+08         0.13619E+07         0.00000E+00
    0.13619E+07        -0.44888E+08         0.00000E+00
    0.00000E+00         0.00000E+00        -0.20450E+08
 
   -0.20448E+08         0.13789E+07         0.00000E+00
    0.13789E+07        -0.45042E+08         0.00000E+00
    0.00000E+00         0.00000E+00        -0.20533E+08
 
   -0.20536E+08         0.13951E+07         0.00000E+00
    0.13951E+07        -0.45203E+08         0.00000E+00
    0.00000E+00         0.00000E+00        -0.20619E+08
 
   -0.20628E+08         0.14099E+07         0.00000E+00
    0.14099E+07        -0.45373E+08         0.00000E+00
    0.00000E+00         0.00000E+00        -0.20709E+08
 
   -0.20726E+08         0.14232E+07         0.00000E+00
    0.14232E+07        -0.45552E+08         0.00000E+00
    0.00000E+00         0.00000E+00        -0.20804E+08
 
   -0.20829E+08         0.14343E+07         0.00000E+00
    0.14343E+07        -0.45741E+08         0.00000E+00
    0.00000E+00         0.00000E+00        -0.20902E+08
 
   -0.20939E+08         0.14429E+07         0.00000E+00
    0.14429E+07        -0.45940E+08         0.00000E+00
    0.00000E+00         0.00000E+00        -0.21005E+08
 
   -0.21055E+08         0.14485E+07         0.00000E+00
    0.14485E+07        -0.46151E+08         0.00000E+00
    0.00000E+00         0.00000E+00        -0.21113E+08
 
   -0.21177E+08         0.14505E+07         0.00000E+00
    0.14505E+07        -0.46375E+08         0.00000E+00
    0.00000E+00         0.00000E+00        -0.21227E+08
 
   -0.21307E+08         0.14485E+07         0.00000E+00
    0.14485E+07        -0.46611E+08         0.00000E+00
    0.00000E+00         0.00000E+00        -0.21346E+08
 
   -0.21445E+08         0.14418E+07         0.00000E+00
    0.14418E+07        -0.46862E+08         0.00000E+00
    0.00000E+00         0.00000E+00        -0.21471E+08
 
   -0.21591E+08         0.14299E+07         0.00000E+00
    0.14299E+07        -0.47127E+08         0.00000E+00
    0.00000E+00         0.00000E+00        -0.21603E+08
 
   -0.21746E+08         0.14122E+07         0.00000E+00
    0.14122E+07        -0.47408E+08         0.00000E+00
    0.00000E+00         0.00000E+00        -0.21741E+08
 
   -0.21909E+08         0.13884E+07         0.00000E+00
    0.13884E+07        -0.47705E+08         0.00000E+00
    0.00000E+00         0.00000E+00        -0.21885E+08
 
   -0.22080E+08         0.13578E+07         0.00000E+00
    0.13578E+07        -0.48017E+08         0.00000E+00
    0.00000E+00         0.00000E+00        -0.22037E+08
 
   -0.22261E+08         0.13201E+07         0.00000E+00
    0.13201E+07        -0.48345E+08         0.00000E+00
    0.00000E+00         0.00000E+00        -0.22195E+08
 
   -0.22449E+08         0.12750E+07         0.00000E+00
    0.12750E+07        -0.48688E+08         0.00000E+00
    0.00000E+00         0.00000E+00        -0.22360E+08
 
   -0.22646E+08         0.12222E+07         0.00000E+00
    0.12222E+07        -0.49045E+08         0.00000E+00
    0.00000E+00         0.00000E+00        -0.22530E+08
 
   -0.22849E+08         0.11616E+07         0.00000E+00
    0.11616E+07        -0.49413E+08         0.00000E+00
    0.00000E+00         0.00000E+00        -0.22705E+08
 
   -0.23058E+08         0.10929E+07         0.00000E+00
    0.10929E+07        -0.49790E+08         0.00000E+00
    0.00000E+00         0.00000E+00        -0.22883E+08
 
   -0.23271E+08         0.10158E+07         0.00000E+00
    0.10158E+07        -0.50171E+08         0.00000E+00
    0.00000E+00         0.00000E+00        -0.23060E+08
 
   -0.23487E+08         0.92989E+06         0.00000E+00
    0.92989E+06        -0.50550E+08         0.00000E+00
    0.00000E+00         0.00000E+00        -0.23233E+08
 
   -0.23704E+08         0.83385E+06         0.00000E+00
    0.83385E+06        -0.50922E+08         0.00000E+00
    0.00000E+00         0.00000E+00        -0.23397E+08
 
   -0.23921E+08         0.72547E+06         0.00000E+00
    0.72547E+06        -0.51278E+08         0.00000E+00
    0.00000E+00         0.00000E+00        -0.23546E+08
 
   -0.24138E+08         0.60094E+06         0.00000E+00
    0.60094E+06        -0.51611E+08         0.00000E+00
    0.00000E+00         0.00000E+00        -0.23669E+08
 
   -0.24361E+08         0.45495E+06         0.00000E+00
    0.45495E+06        -0.51912E+08         0.00000E+00
    0.00000E+00         0.00000E+00        -0.23756E+08
 
   -0.24603E+08         0.28504E+06         0.00000E+00
    0.28504E+06        -0.52178E+08         0.00000E+00
    0.00000E+00         0.00000E+00        -0.23792E+08
 
   -0.24890E+08         0.97387E+05         0.00000E+00
    0.97387E+05        -0.52420E+08         0.00000E+00
    0.00000E+00         0.00000E+00        -0.23768E+08
 
   -0.12004E+08         0.18545E+06         0.00000E+00
    0.18545E+06        -0.28897E+08         0.00000E+00
    0.00000E+00         0.00000E+00        -0.14646E+08
 
   -0.12690E+08         0.54986E+06         0.00000E+00
    0.54986E+06        -0.29043E+08         0.00000E+00
    0.00000E+00         0.00000E+00        -0.14646E+08
 
   -0.13166E+08         0.88930E+06         0.00000E+00
    0.88930E+06        -0.29345E+08         0.00000E+00
    0.00000E+00         0.00000E+00        -0.14646E+08
 
   -0.13494E+08         0.11878E+07         0.00000E+00
    0.11878E+07        -0.29791E+08         0.00000E+00
    0.00000E+00         0.00000E+00        -0.14646E+08
 
   -0.13727E+08         0.14448E+07         0.00000E+00
    0.14448E+07        -0.30350E+08         0.00000E+00
    0.00000E+00         0.00000E+00        -0.14646E+08
 
   -0.13900E+08         0.16680E+07         0.00000E+00
    0.16680E+07        -0.30988E+08         0.00000E+00
    0.00000E+00         0.00000E+00        -0.14646E+08
 
   -0.14034E+08         0.18640E+07         0.00000E+00
    0.18640E+07        -0.31677E+08         0.00000E+00
    0.00000E+00         0.00000E+00        -0.14646E+08
 
   -0.14142E+08         0.20369E+07         0.00000E+00
    0.20369E+07        -0.32394E+08         0.00000E+00
    0.00000E+00         0.00000E+00        -0.14646E+08
 
   -0.14258E+08         0.21833E+07         0.00000E+00
    0.21833E+07        -0.33096E+08         0.00000E+00
    0.00000E+00         0.00000E+00        -0.14669E+08
 
   -0.14499E+08         0.22769E+07         0.00000E+00
    0.22769E+07        -0.33654E+08         0.00000E+00
    0.00000E+00         0.00000E+00        -0.14825E+08
 
   -0.14799E+08         0.23340E+07         0.00000E+00
    0.23340E+07        -0.34129E+08         0.00000E+00
    0.00000E+00         0.00000E+00        -0.15048E+08
 
   -0.15083E+08         0.23745E+07         0.00000E+00
    0.23745E+07        -0.34591E+08         0.00000E+00
    0.00000E+00         0.00000E+00        -0.15266E+08
 
   -0.15351E+08         0.24004E+07         0.00000E+00
    0.24004E+07        -0.35036E+08         0.00000E+00
    0.00000E+00         0.00000E+00        -0.15476E+08
 
   -0.15603E+08         0.24135E+07         0.00000E+00
    0.24135E+07        -0.35464E+08         0.00000E+00
    0.00000E+00         0.00000E+00        -0.15677E+08
 
   -0.15839E+08         0.24152E+07         0.00000E+00
    0.24152E+07        -0.35873E+08         0.00000E+00
    0.00000E+00         0.00000E+00        -0.15868E+08
 
   -0.16060E+08         0.24070E+07         0.00000E+00
    0.24070E+07        -0.36262E+08         0.00000E+00
    0.00000E+00         0.00000E+00        -0.16050E+08
 
   -0.16266E+08         0.23902E+07         0.00000E+00
    0.23902E+07        -0.36631E+08         0.00000E+00
    0.00000E+00         0.00000E+00        -0.16222E+08
 
   -0.16457E+08         0.23659E+07         0.00000E+00
    0.23659E+07        -0.36980E+08         0.00000E+00
    0.00000E+00         0.00000E+00        -0.16385E+08
 
   -0.16635E+08         0.23352E+07         0.00000E+00
    0.23352E+07        -0.37311E+08         0.00000E+00
    0.00000E+00         0.00000E+00        -0.16539E+08
 
   -0.16801E+08         0.22991E+07         0.00000E+00
    0.22991E+07        -0.37624E+08         0.00000E+00
    0.00000E+00         0.00000E+00        -0.16684E+08
 
   -0.16955E+08         0.22586E+07         0.00000E+00
    0.22586E+07        -0.37919E+08         0.00000E+00
    0.00000E+00         0.00000E+00        -0.16821E+08
 
   -0.17099E+08         0.22145E+07         0.00000E+00
    0.22145E+07        -0.38199E+08         0.00000E+00
    0.00000E+00         0.00000E+00        -0.16951E+08
 
   -0.17233E+08         0.21676E+07         0.00000E+00
    0.21676E+07        -0.38462E+08         0.00000E+00
    0.00000E+00         0.00000E+00        -0.17074E+08
 
   -0.17357E+08         0.21185E+07         0.00000E+00
    0.21185E+07        -0.38712E+08         0.00000E+00
    0.00000E+00         0.00000E+00        -0.17191E+08
 
   -0.17474E+08         0.20680E+07         0.00000E+00
    0.20680E+07        -0.38948E+08         0.00000E+00
    0.00000E+00         0.00000E+00        -0.17302E+08
 
   -0.17583E+08         0.20165E+07         0.00000E+00
    0.20165E+07        -0.39171E+08         0.00000E+00
    0.00000E+00         0.00000E+00        -0.17408E+08
 
   -0.17685E+08         0.19646E+07         0.00000E+00
    0.19646E+07        -0.39382E+08         0.00000E+00
    0.00000E+00         0.00000E+00        -0.17508E+08
 
   -0.17781E+08         0.19128E+07         0.00000E+00
    0.19128E+07        -0.39583E+08         0.00000E+00
    0.00000E+00         0.00000E+00        -0.17604E+08
 
   -0.17871E+08         0.18613E+07         0.00000E+00
    0.18613E+07        -0.39774E+08         0.00000E+00
    0.00000E+00         0.00000E+00        -0.17696E+08
 
   -0.17957E+08         0.18105E+07         0.00000E+00
    0.18105E+07        -0.39955E+08         0.00000E+00
    0.00000E+00         0.00000E+00        -0.17784E+08
 
   -0.18037E+08         0.17607E+07         0.00000E+00
    0.17607E+07        -0.40128E+08         0.00000E+00
    0.00000E+00         0.00000E+00        -0.17868E+08
 
   -0.18114E+08         0.17122E+07         0.00000E+00
    0.17122E+07        -0.40292E+08         0.00000E+00
    0.00000E+00         0.00000E+00        -0.17949E+08
 
   -0.18187E+08         0.16651E+07         0.00000E+00
    0.16651E+07        -0.40449E+08         0.00000E+00
    0.00000E+00         0.00000E+00        -0.18027E+08
 
   -0.18256E+08         0.16196E+07         0.00000E+00
    0.16196E+07        -0.40599E+08         0.00000E+00
    0.00000E+00         0.00000E+00        -0.18103E+08
 
   -0.18322E+08         0.15758E+07         0.00000E+00
    0.15758E+07        -0.40743E+08         0.00000E+00
    0.00000E+00         0.00000E+00        -0.18175E+08
 
   -0.18386E+08         0.15339E+07         0.00000E+00
    0.15339E+07        -0.40881E+08         0.00000E+00
    0.00000E+00         0.00000E+00        -0.18245E+08
 
   -0.18446E+08         0.14940E+07         0.00000E+00
    0.14940E+07        -0.41013E+08         0.00000E+00
    0.00000E+00         0.00000E+00        -0.18313E+08
 
   -0.18505E+08         0.14561E+07         0.00000E+00
    0.14561E+07        -0.41141E+08         0.00000E+00
    0.00000E+00         0.00000E+00        -0.18379E+08
 
   -0.18561E+08         0.14202E+07         0.00000E+00
    0.14202E+07        -0.41264E+08         0.00000E+00
    0.00000E+00         0.00000E+00        -0.18443E+08
 
   -0.18616E+08         0.13864E+07         0.00000E+00
    0.13864E+07        -0.41383E+08         0.00000E+00
    0.00000E+00         0.00000E+00        -0.18505E+08
 
   -0.18669E+08         0.13548E+07         0.00000E+00
    0.13548E+07        -0.41498E+08         0.00000E+00
    0.00000E+00         0.00000E+00        -0.18566E+08
 
   -0.18720E+08         0.13253E+07         0.00000E+00
    0.13253E+07        -0.41609E+08         0.00000E+00
    0.00000E+00         0.00000E+00        -0.18625E+08
 
   -0.18770E+08         0.12980E+07         0.00000E+00
    0.12980E+07        -0.41718E+08         0.00000E+00
    0.00000E+00         0.00000E+00        -0.18683E+08
 
   -0.18819E+08         0.12729E+07         0.00000E+00
    0.12729E+07        -0.41823E+08         0.00000E+00
    0.00000E+00         0.00000E+00        -0.18740E+08
 
   -0.18867E+08         0.12499E+07         0.00000E+00
    0.12499E+07        -0.41927E+08         0.00000E+00
    0.00000E+00         0.00000E+00        -0.18796E+08
 
   -0.18914E+08         0.12291E+07         0.00000E+00
    0.12291E+07        -0.42027E+08         0.00000E+00
    0.00000E+00         0.00000E+00        -0.18851E+08
 
   -0.18960E+08         0.12104E+07         0.00000E+00
    0.12104E+07        -0.42126E+08         0.00000E+00
    0.00000E+00         0.00000E+00        -0.18905E+08
 
   -0.19005E+08         0.11938E+07         0.00000E+00
    0.11938E+07        -0.42224E+08         0.00000E+00
    0.00000E+00         0.00000E+00        -0.18958E+08
 
   -0.19051E+08         0.11793E+07         0.00000E+00
    0.11793E+07        -0.42319E+08         0.00000E+00
    0.00000E+00         0.00000E+00        -0.19012E+08
 
   -0.19095E+08         0.11669E+07         0.00000E+00
    0.11669E+07        -0.42414E+08         0.00000E+00
    0.00000E+00         0.00000E+00        -0.19064E+08
 
   -0.19140E+08         0.11564E+07         0.00000E+00
    0.11564E+07        -0.42508E+08         0.00000E+00
    0.00000E+00         0.00000E+00        -0.19117E+08
 
   -0.19185E+08         0.11480E+07         0.00000E+00
    0.11480E+07        -0.42601E+08         0.00000E+00
    0.00000E+00         0.00000E+00        -0.19169E+08
 
   -0.19229E+08         0.11416E+07         0.00000E+00
    0.11416E+07        -0.42694E+08         0.00000E+00
    0.00000E+00         0.00000E+00        -0.19221E+08
 
   -0.19274E+08         0.11371E+07         0.00000E+00
    0.11371E+07        -0.42787E+08         0.00000E+00
    0.00000E+00         0.00000E+00        -0.19273E+08
 
   -0.19319E+08         0.11345E+07         0.00000E+00
    0.11345E+07        -0.42879E+08         0.00000E+00
    0.00000E+00         0.00000E+00        -0.19326E+08
 
   -0.19364E+08         0.11337E+07         0.00000E+00
    0.11337E+07        -0.42972E+08         0.00000E+00
    0.00000E+00         0.00000E+00        -0.19378E+08
 
   -0.19410E+08         0.11348E+07         0.00000E+00
    0.11348E+07        -0.43066E+08         0.00000E+00
    0.00000E+00         0.00000E+00        -0.19431E+08
 
   -0.19457E+08         0.11376E+07         0.00000E+00
    0.11376E+07        -0.43161E+08         0.00000E+00
    0.00000E+00         0.00000E+00        -0.19485E+08
 
   -0.19505E+08         0.11421E+07         0.00000E+00
    0.11421E+07        -0.43256E+08         0.00000E+00
    0.00000E+00         0.00000E+00        -0.19540E+08
 
   -0.19553E+08         0.11482E+07         0.00000E+00
    0.11482E+07        -0.43353E+08         0.00000E+00
    0.00000E+00         0.00000E+00        -0.19595E+08
 
   -0.19603E+08         0.11559E+07         0.00000E+00
    0.11559E+07        -0.43452E+08         0.00000E+00
    0.00000E+00         0.00000E+00        -0.19651E+08
 
   -0.19654E+08         0.11651E+07         0.00000E+00
    0.11651E+07        -0.43553E+08         0.00000E+00
    0.00000E+00         0.00000E+00        -0.19708E+08
 
   -0.19706E+08         0.11756E+07         0.00000E+00
    0.11756E+07        -0.43656E+08         0.00000E+00
    0.00000E+00         0.00000E+00        -0.19767E+08
 
   -0.19760E+08         0.11875E+07         0.00000E+00
    0.11875E+07        -0.43761E+08         0.00000E+00
    0.00000E+00         0.00000E+00        -0.19827E+08
 
   -0.19816E+08         0.12006E+07         0.00000E+00
    0.12006E+07        -0.43870E+08         0.00000E+00
    0.00000E+00         0.00000E+00        -0.19888E+08
 
   -0.19874E+08         0.12148E+07         0.00000E+00
    0.12148E+07        -0.43981E+08         0.00000E+00
    0.00000E+00         0.00000E+00        -0.19951E+08
 
   -0.19934E+08         0.12299E+07         0.00000E+00
    0.12299E+07        -0.44097E+08         0.00000E+00
    0.00000E+00         0.00000E+00        -0.20016E+08
 
   -0.19997E+08         0.12458E+07         0.00000E+00
    0.12458E+07        -0.44216E+08         0.00000E+00
    0.00000E+00         0.00000E+00        -0.20082E+08
 
   -0.20062E+08         0.12624E+07         0.00000E+00
    0.12624E+07        -0.44340E+08         0.00000E+00
    0.00000E+00         0.00000E+00        -0.20151E+08
 
   -0.20131E+08         0.12794E+07         0.00000E+00
    0.12794E+07        -0.44468E+08         0.00000E+00
    0.00000E+00         0.00000E+00        -0.20223E+08
 
   -0.20202E+08         0.12965E+07         0.00000E+00
    0.12965E+07        -0.44603E+08         0.00000E+00
    0.00000E+00         0.00000E+00        -0.20296E+08
 
   -0.20277E+08         0.13137E+07         0.00000E+00
    0.13137E+07        -0.44743E+08         0.00000E+00
    0.00000E+00         0.00000E+00        -0.20373E+08
 
   -0.20356E+08         0.13306E+07         0.00000E+00
    0.13306E+07        -0.44889E+08         0.00000E+00
    0.00000E+00         0.00000E+00        -0.20452E+08
 
   -0.20439E+08         0.13469E+07         0.00000E+00
    0.13469E+07        -0.45042E+08         0.00000E+00
    0.00000E+00         0.00000E+00        -0.20535E+08
 
   -0.20527E+08         0.13623E+07         0.00000E+00
    0.13623E+07        -0.45204E+08         0.00000E+00
    0.00000E+00         0.00000E+00        -0.20621E+08
 
   -0.20619E+08         0.13764E+07         0.00000E+00
    0.13764E+07        -0.45373E+08         0.00000E+00
    0.00000E+00         0.00000E+00        -0.20711E+08
 
   -0.20717E+08         0.13888E+07         0.00000E+00
    0.13888E+07        -0.45552E+08         0.00000E+00
    0.00000E+00         0.00000E+00        -0.20805E+08
 
   -0.20820E+08         0.13991E+07         0.00000E+00
    0.13991E+07        -0.45741E+08         0.00000E+00
    0.00000E+00         0.00000E+00        -0.20903E+08
 
   -0.20930E+08         0.14069E+07         0.00000E+00
    0.14069E+07        -0.45940E+08         0.00000E+00
    0.00000E+00         0.00000E+00        -0.21006E+08
 
   -0.21046E+08         0.14116E+07         0.00000E+00
    0.14116E+07        -0.46151E+08         0.00000E+00
    0.00000E+00         0.00000E+00        -0.21113E+08
 
   -0.21170E+08         0.14126E+07         0.00000E+00
    0.14126E+07        -0.46375E+08         0.00000E+00
    0.00000E+00         0.00000E+00        -0.21226E+08
 
   -0.21300E+08         0.14096E+07         0.00000E+00
    0.14096E+07        -0.46611E+08         0.00000E+00
    0.00000E+00         0.00000E+00        -0.21344E+08
 
   -0.21439E+08         0.14019E+07         0.00000E+00
    0.14019E+07        -0.46862E+08         0.00000E+00
    0.00000E+00         0.00000E+00        -0.21468E+08
 
   -0.21586E+08         0.13889E+07         0.00000E+00
    0.13889E+07        -0.47127E+08         0.00000E+00
    0.00000E+00         0.00000E+00        -0.21599E+08
 
   -0.21742E+08         0.13702E+07         0.00000E+00
    0.13702E+07        -0.47408E+08         0.00000E+00
    0.00000E+00         0.00000E+00        -0.21735E+08
 
   -0.21906E+08         0.13452E+07         0.00000E+00
    0.13452E+07        -0.47705E+08         0.00000E+00
    0.00000E+00         0.00000E+00        -0.21879E+08
 
   -0.22079E+08         0.13133E+07         0.00000E+00
    0.13133E+07        -0.48017E+08         0.00000E+00
    0.00000E+00         0.00000E+00        -0.22029E+08
 
   -0.22261E+08         0.12744E+07         0.00000E+00
    0.12744E+07        -0.48346E+08         0.00000E+00
    0.00000E+00         0.00000E+00        -0.22186E+08
 
   -0.22452E+08         0.12279E+07         0.00000E+00
    0.12279E+07        -0.48689E+08         0.00000E+00
    0.00000E+00         0.00000E+00        -0.22349E+08
 
   -0.22650E+08         0.11737E+07         0.00000E+00
    0.11737E+07        -0.49046E+08         0.00000E+00
    0.00000E+00         0.00000E+00        -0.22518E+08
 
   -0.22856E+08         0.11116E+07         0.00000E+00
    0.11116E+07        -0.49415E+08         0.00000E+00
    0.00000E+00         0.00000E+00        -0.22691E+08
 
   -0.23068E+08         0.10415E+07         0.00000E+00
    0.10415E+07        -0.49792E+08         0.00000E+00
    0.00000E+00         0.00000E+00        -0.22867E+08
 
   -0.23285E+08         0.96334E+06         0.00000E+00
    0.96334E+06        -0.50174E+08         0.00000E+00
    0.00000E+00         0.00000E+00        -0.23042E+08
 
   -0.23505E+08         0.87667E+06         0.00000E+00
    0.87667E+06        -0.50555E+08         0.00000E+00
    0.00000E+00         0.00000E+00        -0.23213E+08
 
   -0.23727E+08         0.78065E+06         0.00000E+00
    0.78065E+06        -0.50928E+08         0.00000E+00
    0.00000E+00         0.00000E+00        -0.23375E+08
 
   -0.23950E+08         0.67357E+06         0.00000E+00
    0.67357E+06        -0.51286E+08         0.00000E+00
    0.00000E+00         0.00000E+00        -0.23520E+08
 
   -0.24176E+08         0.55245E+06         0.00000E+00
    0.55245E+06        -0.51621E+08         0.00000E+00
    0.00000E+00         0.00000E+00        -0.23639E+08
 
   -0.24409E+08         0.41359E+06         0.00000E+00
    0.41359E+06        -0.51924E+08         0.00000E+00
    0.00000E+00         0.00000E+00        -0.23721E+08
 
   -0.24662E+08         0.25652E+06         0.00000E+00
    0.25652E+06        -0.52194E+08         0.00000E+00
    0.00000E+00         0.00000E+00        -0.23753E+08
 
   -0.24958E+08         0.87129E+05         0.00000E+00
    0.87129E+05        -0.52440E+08         0.00000E+00
    0.00000E+00         0.00000E+00        -0.23725E+08
 
   -0.11787E+08         0.16491E+06         0.00000E+00
    0.16491E+06        -0.28967E+08         0.00000E+00
    0.00000E+00         0.00000E+00        -0.14646E+08
 
   -0.12492E+08         0.49163E+06         0.00000E+00
    0.49163E+06        -0.29111E+08         0.00000E+00
    0.00000E+00         0.00000E+00        -0.14646E+08
 
   -0.12996E+08         0.80294E+06         0.00000E+00
    0.80294E+06        -0.29407E+08         0.00000E+00
    0.00000E+00         0.00000E+00        -0.14646E+08
 
   -0.13352E+08         0.10846E+07         0.00000E+00
    0.10846E+07        -0.29845E+08         0.00000E+00
    0.00000E+00         0.00000E+00        -0.14646E+08
 
   -0.13609E+08         0.13334E+07         0.00000E+00
    0.13334E+07        -0.30397E+08         0.00000E+00
    0.00000E+00         0.00000E+00        -0.14646E+08
 
   -0.13801E+08         0.15535E+07         0.00000E+00
    0.15535E+07        -0.31030E+08         0.00000E+00
    0.00000E+00         0.00000E+00        -0.14646E+08
 
   -0.13952E+08         0.17495E+07         0.00000E+00
    0.17495E+07        -0.31714E+08         0.00000E+00
    0.00000E+00         0.00000E+00        -0.14646E+08
 
   -0.14074E+08         0.19243E+07         0.00000E+00
    0.19243E+07        -0.32426E+08         0.00000E+00
    0.00000E+00         0.00000E+00        -0.14646E+08
 
   -0.14208E+08         0.20727E+07         0.00000E+00
    0.20727E+07        -0.33119E+08         0.00000E+00
    0.00000E+00         0.00000E+00        -0.14674E+08
 
   -0.14462E+08         0.21713E+07         0.00000E+00
    0.21713E+07        -0.33672E+08         0.00000E+00
    0.00000E+00         0.00000E+00        -0.14831E+08
 
   -0.14768E+08         0.22353E+07         0.00000E+00
    0.22353E+07        -0.34147E+08         0.00000E+00
    0.00000E+00         0.00000E+00        -0.15050E+08
 
   -0.15057E+08         0.22822E+07         0.00000E+00
    0.22822E+07        -0.34608E+08         0.00000E+00
    0.00000E+00         0.00000E+00        -0.15265E+08
 
   -0.15330E+08         0.23140E+07         0.00000E+00
    0.23140E+07        -0.35053E+08         0.00000E+00
    0.00000E+00         0.00000E+00        -0.15472E+08
 
   -0.15587E+08         0.23323E+07         0.00000E+00
    0.23323E+07        -0.35480E+08         0.00000E+00
    0.00000E+00         0.00000E+00        -0.15671E+08
 
   -0.15827E+08         0.23388E+07         0.00000E+00
    0.23388E+07        -0.35888E+08         0.00000E+00
    0.00000E+00         0.00000E+00        -0.15860E+08
 
   -0.16050E+08         0.23349E+07         0.00000E+00
    0.23349E+07        -0.36276E+08         0.00000E+00
    0.00000E+00         0.00000E+00        -0.16040E+08
 
   -0.16259E+08         0.23219E+07         0.00000E+00
    0.23219E+07        -0.36644E+08         0.00000E+00
    0.00000E+00         0.00000E+00        -0.16211E+08
 
   -0.16453E+08         0.23011E+07         0.00000E+00
    0.23011E+07        -0.36993E+08         0.00000E+00
    0.00000E+00         0.00000E+00        -0.16372E+08
 
   -0.16633E+08         0.22736E+07         0.00000E+00
    0.22736E+07        -0.37323E+08         0.00000E+00
    0.00000E+00         0.00000E+00        -0.16525E+08
 
   -0.16801E+08         0.22404E+07         0.00000E+00
    0.22404E+07        -0.37635E+08         0.00000E+00
    0.00000E+00         0.00000E+00        -0.16670E+08
 
   -0.16957E+08         0.22025E+07         0.00000E+00
    0.22025E+07        -0.37930E+08         0.00000E+00
    0.00000E+00         0.00000E+00        -0.16807E+08
 
   -0.17101E+08         0.21608E+07         0.00000E+00
    0.21608E+07        -0.38208E+08         0.00000E+00
    0.00000E+00         0.00000E+00        -0.16937E+08
 
   -0.17236E+08         0.21161E+07         0.00000E+00
    0.21161E+07        -0.38472E+08         0.00000E+00
    0.00000E+00         0.00000E+00        -0.17059E+08
 
   -0.17362E+08         0.20691E+07         0.00000E+00
    0.20691E+07        -0.38720E+08         0.00000E+00
    0.00000E+00         0.00000E+00        -0.17176E+08
 
   -0.17479E+08         0.20205E+07         0.00000E+00
    0.20205E+07        -0.38956E+08         0.00000E+00
    0.00000E+00         0.00000E+00        -0.17287E+08
 
   -0.17588E+08         0.19709E+07         0.00000E+00
    0.19709E+07        -0.39178E+08         0.00000E+00
    0.00000E+00         0.00000E+00        -0.17393E+08
 
   -0.17691E+08         0.19207E+07         0.00000E+00
    0.19207E+07        -0.39390E+08         0.00000E+00
    0.00000E+00         0.00000E+00        -0.17494E+08
 
   -0.17787E+08         0.18704E+07         0.00000E+00
    0.18704E+07        -0.39590E+08         0.00000E+00
    0.00000E+00         0.00000E+00        -0.17590E+08
 
   -0.17878E+08         0.18204E+07         0.00000E+00
    0.18204E+07        -0.39780E+08         0.00000E+00
    0.00000E+00         0.00000E+00        -0.17682E+08
 
   -0.17963E+08         0.17710E+07         0.00000E+00
    0.17710E+07        -0.39961E+08         0.00000E+00
    0.00000E+00         0.00000E+00        -0.17771E+08
 
   -0.18044E+08         0.17226E+07         0.00000E+00
    0.17226E+07        -0.40133E+08         0.00000E+00
    0.00000E+00         0.00000E+00        -0.17856E+08
 
   -0.18120E+08         0.16753E+07         0.00000E+00
    0.16753E+07        -0.40297E+08         0.00000E+00
    0.00000E+00         0.00000E+00        -0.17937E+08
 
   -0.18193E+08         0.16294E+07         0.00000E+00
    0.16294E+07        -0.40454E+08         0.00000E+00
    0.00000E+00         0.00000E+00        -0.18015E+08
 
   -0.18262E+08         0.15850E+07         0.00000E+00
    0.15850E+07        -0.40604E+08         0.00000E+00
    0.00000E+00         0.00000E+00        -0.18091E+08
 
   -0.18328E+08         0.15423E+07         0.00000E+00
    0.15423E+07        -0.40747E+08         0.00000E+00
    0.00000E+00         0.00000E+00        -0.18164E+08
 
   -0.18391E+08         0.15014E+07         0.00000E+00
    0.15014E+07        -0.40885E+08         0.00000E+00
    0.00000E+00         0.00000E+00        -0.18235E+08
 
   -0.18452E+08         0.14623E+07         0.00000E+00
    0.14623E+07        -0.41017E+08         0.00000E+00
    0.00000E+00         0.00000E+00        -0.18303E+08
 
   -0.18510E+08         0.14253E+07         0.00000E+00
    0.14253E+07        -0.41144E+08         0.00000E+00
    0.00000E+00         0.00000E+00        -0.18370E+08
 
   -0.18566E+08         0.13902E+07         0.00000E+00
    0.13902E+07        -0.41267E+08         0.00000E+00
    0.00000E+00         0.00000E+00        -0.18434E+08
 
   -0.18620E+08         0.13572E+07         0.00000E+00
    0.13572E+07        -0.41386E+08         0.00000E+00
    0.00000E+00         0.00000E+00        -0.18497E+08
 
   -0.18673E+08         0.13262E+07         0.00000E+00
    0.13262E+07        -0.41501E+08         0.00000E+00
    0.00000E+00         0.00000E+00        -0.18558E+08
 
   -0.18723E+08         0.12974E+07         0.00000E+00
    0.12974E+07        -0.41612E+08         0.00000E+00
    0.00000E+00         0.00000E+00        -0.18618E+08
 
   -0.18773E+08         0.12707E+07         0.00000E+00
    0.12707E+07        -0.41720E+08         0.00000E+00
    0.00000E+00         0.00000E+00        -0.18676E+08
 
   -0.18822E+08         0.12461E+07         0.00000E+00
    0.12461E+07        -0.41826E+08         0.00000E+00
    0.00000E+00         0.00000E+00        -0.18734E+08
 
   -0.18869E+08         0.12236E+07         0.00000E+00
    0.12236E+07        -0.41929E+08         0.00000E+00
    0.00000E+00         0.00000E+00        -0.18790E+08
 
   -0.18915E+08         0.12032E+07         0.00000E+00
    0.12032E+07        -0.42029E+08         0.00000E+00
    0.00000E+00         0.00000E+00        -0.18846E+08
 
   -0.18961E+08         0.11848E+07         0.00000E+00
    0.11848E+07        -0.42128E+08         0.00000E+00
    0.00000E+00         0.00000E+00        -0.18900E+08
 
   -0.19006E+08         0.11686E+07         0.00000E+00
    0.11686E+07        -0.42225E+08         0.00000E+00
    0.00000E+00         0.00000E+00        -0.18954E+08
 
   -0.19051E+08         0.11543E+07         0.00000E+00
    0.11543E+07        -0.42321E+08         0.00000E+00
    0.00000E+00         0.00000E+00        -0.19008E+08
 
   -0.19096E+08         0.11421E+07         0.00000E+00
    0.11421E+07        -0.42416E+08         0.00000E+00
    0.00000E+00         0.00000E+00        -0.19061E+08
 
   -0.19140E+08         0.11319E+07         0.00000E+00
    0.11319E+07        -0.42510E+08         0.00000E+00
    0.00000E+00         0.00000E+00        -0.19114E+08
 
   -0.19184E+08         0.11236E+07         0.00000E+00
    0.11236E+07        -0.42603E+08         0.00000E+00
    0.00000E+00         0.00000E+00        -0.19166E+08
 
   -0.19228E+08         0.11173E+07         0.00000E+00
    0.11173E+07        -0.42695E+08         0.00000E+00
    0.00000E+00         0.00000E+00        -0.19219E+08
 
   -0.19272E+08         0.11128E+07         0.00000E+00
    0.11128E+07        -0.42788E+08         0.00000E+00
    0.00000E+00         0.00000E+00        -0.19271E+08
 
   -0.19317E+08         0.11102E+07         0.00000E+00
    0.11102E+07        -0.42881E+08         0.00000E+00
    0.00000E+00         0.00000E+00        -0.19324E+08
 
   -0.19362E+08         0.11094E+07         0.00000E+00
    0.11094E+07        -0.42974E+08         0.00000E+00
    0.00000E+00         0.00000E+00        -0.19377E+08
 
   -0.19407E+08         0.11103E+07         0.00000E+00
    0.11103E+07        -0.43067E+08         0.00000E+00
    0.00000E+00         0.00000E+00        -0.19431E+08
 
   -0.19454E+08         0.11130E+07         0.00000E+00
    0.11130E+07        -0.43162E+08         0.00000E+00
    0.00000E+00         0.00000E+00        -0.19485E+08
 
   -0.19501E+08         0.11173E+07         0.00000E+00
    0.11173E+07        -0.43257E+08         0.00000E+00
    0.00000E+00         0.00000E+00        -0.19540E+08
 
   -0.19549E+08         0.11232E+07         0.00000E+00
    0.11232E+07        -0.43354E+08         0.00000E+00
    0.00000E+00         0.00000E+00        -0.19595E+08
 
   -0.19598E+08         0.11307E+07         0.00000E+00
    0.11307E+07        -0.43453E+08         0.00000E+00
    0.00000E+00         0.00000E+00        -0.19652E+08
 
   -0.19649E+08         0.11395E+07         0.00000E+00
    0.11395E+07        -0.43554E+08         0.00000E+00
    0.00000E+00         0.00000E+00        -0.19709E+08
 
   -0.19701E+08         0.11498E+07         0.00000E+00
    0.11498E+07        -0.43657E+08         0.00000E+00
    0.00000E+00         0.00000E+00        -0.19768E+08
 
   -0.19754E+08         0.11613E+07         0.00000E+00
    0.11613E+07        -0.43762E+08         0.00000E+00
    0.00000E+00         0.00000E+00        -0.19828E+08
 
   -0.19810E+08         0.11739E+07         0.00000E+00
    0.11739E+07        -0.43870E+08         0.00000E+00
    0.00000E+00         0.00000E+00        -0.19890E+08
 
   -0.19867E+08         0.11877E+07         0.00000E+00
    0.11877E+07        -0.43982E+08         0.00000E+00
    0.00000E+00         0.00000E+00        -0.19953E+08
 
   -0.19927E+08         0.12023E+07         0.00000E+00
    0.12023E+07        -0.44097E+08         0.00000E+00
    0.00000E+00         0.00000E+00        -0.20018E+08
 
   -0.19989E+08         0.12177E+07         0.00000E+00
    0.12177E+07        -0.44217E+08         0.00000E+00
    0.00000E+00         0.00000E+00        -0.20085E+08
 
   -0.20054E+08         0.12337E+07         0.00000E+00
    0.12337E+07        -0.44340E+08         0.00000E+00
    0.00000E+00         0.00000E+00        -0.20154E+08
 
   -0.20122E+08         0.12500E+07         0.00000E+00
    0.12500E+07        -0.44469E+08         0.00000E+00
    0.00000E+00         0.00000E+00        -0.20225E+08
 
   -0.20194E+08         0.12666E+07         0.00000E+00
    0.12666E+07        -0.44603E+08         0.00000E+00
    0.00000E+00         0.00000E+00        -0.20299E+08
 
   -0.20269E+08         0.12831E+07         0.00000E+00
    0.12831E+07        -0.44743E+08         0.00000E+00
    0.00000E+00         0.00000E+00        -0.20375E+08
 
   -0.20347E+08         0.12993E+07         0.00000E+00
    0.12993E+07        -0.44889E+08         0.00000E+00
    0.00000E+00         0.00000E+00        -0.20455E+08
 
   -0.20430E+08         0.13149E+07         0.00000E+00
    0.13149E+07        -0.45043E+08         0.00000E+00
    0.00000E+00         0.00000E+00        -0.20537E+08
 
   -0.20518E+08         0.13295E+07         0.00000E+00
    0.13295E+07        -0.45204E+08         0.00000E+00
    0.00000E+00         0.00000E+00        -0.20623E+08
 
   -0.20610E+08         0.13429E+07         0.00000E+00
    0.13429E+07        -0.45374E+08         0.00000E+00
    0.00000E+00         0.00000E+00        -0.20713E+08
 
   -0.20708E+08         0.13545E+07         0.00000E+00
    0.13545E+07        -0.45552E+08         0.00000E+00
    0.00000E+00         0.00000E+00        -0.20806E+08
 
   -0.20812E+08         0.13640E+07         0.00000E+00
    0.13640E+07        -0.45741E+08         0.00000E+00
    0.00000E+00         0.00000E+00        -0.20904E+08
 
   -0.20922E+08         0.13710E+07         0.00000E+00
    0.13710E+07        -0.45940E+08         0.00000E+00
    0.00000E+00         0.00000E+00        -0.21006E+08
 
   -0.21038E+08         0.13748E+07         0.00000E+00
    0.13748E+07        -0.46151E+08         0.00000E+00
    0.00000E+00         0.00000E+00        -0.21113E+08
 
   -0.21162E+08         0.13750E+07         0.00000E+00
    0.13750E+07        -0.46374E+08         0.00000E+00
    0.00000E+00         0.00000E+00        -0.21225E+08
 
   -0.21293E+08         0.13711E+07         0.00000E+00
    0.13711E+07        -0.46611E+08         0.00000E+00
    0.00000E+00         0.00000E+00        -0.21342E+08
 
   -0.21433E+08         0.13624E+07         0.00000E+00
    0.13624E+07        -0.46862E+08         0.00000E+00
    0.00000E+00         0.00000E+00        -0.21465E+08
 
   -0.21581E+08         0.13484E+07         0.00000E+00
    0.13484E+07        -0.47127E+08         0.00000E+00
    0.00000E+00         0.00000E+00        -0.21595E+08
 
   -0.21737E+08         0.13286E+07         0.00000E+00
    0.13286E+07        -0.47408E+08         0.00000E+00
    0.00000E+00         0.00000E+00        -0.21730E+08
 
   -0.21903E+08         0.13025E+07         0.00000E+00
    0.13025E+07        -0.47704E+08         0.00000E+00
    0.00000E+00         0.00000E+00        -0.21872E+08
 
   -0.22078E+08         0.12695E+07         0.00000E+00
    0.12695E+07        -0.48017E+08         0.00000E+00
    0.00000E+00         0.00000E+00        -0.22021E+08
 
   -0.22262E+08         0.12292E+07         0.00000E+00
    0.12292E+07        -0.48346E+08         0.00000E+00
    0.00000E+00         0.00000E+00        -0.22177E+08
 
   -0.22454E+08         0.11814E+07         0.00000E+00
    0.11814E+07        -0.48689E+08         0.00000E+00
    0.00000E+00         0.00000E+00        -0.22338E+08
 
   -0.22655E+08         0.11259E+07         0.00000E+00
    0.11259E+07        -0.49047E+08         0.00000E+00
    0.00000E+00         0.00000E+00        -0.22505E+08
 
   -0.22864E+08         0.10624E+07         0.00000E+00
    0.10624E+07        -0.49416E+08         0.00000E+00
    0.00000E+00         0.00000E+00        -0.22677E+08
 
   -0.23079E+08         0.99113E+06         0.00000E+00
    0.99113E+06        -0.49794E+08         0.00000E+00
    0.00000E+00         0.00000E+00        -0.22850E+08
 
   -0.23300E+08         0.91192E+06         0.00000E+00
    0.91192E+06        -0.50177E+08         0.00000E+00
    0.00000E+00         0.00000E+00        -0.23024E+08
 
   -0.23524E+08         0.82469E+06         0.00000E+00
    0.82469E+06        -0.50560E+08         0.00000E+00
    0.00000E+00         0.00000E+00        -0.23193E+08
 
   -0.23751E+08         0.72893E+06         0.00000E+00
    0.72893E+06        -0.50935E+08         0.00000E+00
    0.00000E+00         0.00000E+00        -0.23352E+08
 
   -0.23981E+08         0.62347E+06         0.00000E+00
    0.62347E+06        -0.51295E+08         0.00000E+00
    0.00000E+00         0.00000E+00        -0.23494E+08
 
   -0.24214E+08         0.50619E+06         0.00000E+00
    0.50619E+06        -0.51632E+08         0.00000E+00
    0.00000E+00         0.00000E+00        -0.23610E+08
 
   -0.24456E+08         0.37487E+06         0.00000E+00
    0.37487E+06        -0.51938E+08         0.00000E+00
    0.00000E+00         0.00000E+00        -0.23688E+08
 
   -0.24720E+08         0.23035E+06         0.00000E+00
    0.23035E+06        -0.52212E+08         0.00000E+00
    0.00000E+00         0.00000E+00        -0.23716E+08
 
   -0.25024E+08         0.77832E+05         0.00000E+00
    0.77832E+05        -0.52461E+08         0.00000E+00
    0.00000E+00         0.00000E+00        -0.23685E+08
 
   -0.11580E+08         0.14617E+06         0.00000E+00
    0.14617E+06        -0.29029E+08         0.00000E+00
    0.00000E+00         0.00000E+00        -0.14646E+08
 
   -0.12300E+08         0.43803E+06         0.00000E+00
    0.43803E+06        -0.29172E+08         0.00000E+00
    0.00000E+00         0.00000E+00        -0.14646E+08
 
   -0.12829E+08         0.72214E+06         0.00000E+00
    0.72214E+06        -0.29464E+08         0.00000E+00
    0.00000E+00         0.00000E+00        -0.14646E+08
 
   -0.13211E+08         0.98659E+06         0.00000E+00
    0.98659E+06        -0.29897E+08         0.00000E+00
    0.00000E+00         0.00000E+00        -0.14646E+08
 
   -0.13490E+08         0.12262E+07         0.00000E+00
    0.12262E+07        -0.30443E+08         0.00000E+00
    0.00000E+00         0.00000E+00        -0.14646E+08
 
   -0.13701E+08         0.14424E+07         0.00000E+00
    0.14424E+07        -0.31071E+08         0.00000E+00
    0.00000E+00         0.00000E+00        -0.14646E+08
 
   -0.13868E+08         0.16380E+07         0.00000E+00
    0.16380E+07        -0.31751E+08         0.00000E+00
    0.00000E+00         0.00000E+00        -0.14646E+08
 
   -0.14005E+08         0.18143E+07         0.00000E+00
    0.18143E+07        -0.32459E+08         0.00000E+00
    0.00000E+00         0.00000E+00        -0.14646E+08
 
   -0.14158E+08         0.19644E+07         0.00000E+00
    0.19644E+07        -0.33142E+08         0.00000E+00
    0.00000E+00         0.00000E+00        -0.14680E+08
 
   -0.14426E+08         0.20675E+07         0.00000E+00
    0.20675E+07        -0.33689E+08         0.00000E+00
    0.00000E+00         0.00000E+00        -0.14839E+08
 
   -0.14738E+08         0.21382E+07         0.00000E+00
    0.21382E+07        -0.34164E+08         0.00000E+00
    0.00000E+00         0.00000E+00        -0.15054E+08
 
   -0.15033E+08         0.21912E+07         0.00000E+00
    0.21912E+07        -0.34625E+08         0.00000E+00
    0.00000E+00         0.00000E+00        -0.15265E+08
 
   -0.15310E+08         0.22286E+07         0.00000E+00
    0.22286E+07        -0.35070E+08         0.00000E+00
    0.00000E+00         0.00000E+00        -0.15469E+08
 
   -0.15571E+08         0.22520E+07         0.00000E+00
    0.22520E+07        -0.35496E+08         0.00000E+00
    0.00000E+00         0.00000E+00        -0.15665E+08
 
   -0.15815E+08         0.22631E+07         0.00000E+00
    0.22631E+07        -0.35903E+08         0.00000E+00
    0.00000E+00         0.00000E+00        -0.15853E+08
 
   -0.16042E+08         0.22634E+07         0.00000E+00
    0.22634E+07        -0.36291E+08         0.00000E+00
    0.00000E+00         0.00000E+00        -0.16031E+08
 
   -0.16253E+08         0.22541E+07         0.00000E+00
    0.22541E+07        -0.36658E+08         0.00000E+00
    0.00000E+00         0.00000E+00        -0.16200E+08
 
   -0.16449E+08         0.22367E+07         0.00000E+00
    0.22367E+07        -0.37006E+08         0.00000E+00
    0.00000E+00         0.00000E+00        -0.16361E+08
 
   -0.16632E+08         0.22122E+07         0.00000E+00
    0.22122E+07        -0.37335E+08         0.00000E+00
    0.00000E+00         0.00000E+00        -0.16513E+08
 
   -0.16801E+08         0.21818E+07         0.00000E+00
    0.21818E+07        -0.37647E+08         0.00000E+00
    0.00000E+00         0.00000E+00        -0.16656E+08
 
   -0.16958E+08         0.21465E+07         0.00000E+00
    0.21465E+07        -0.37941E+08         0.00000E+00
    0.00000E+00         0.00000E+00        -0.16793E+08
 
   -0.17104E+08         0.21072E+07         0.00000E+00
    0.21072E+07        -0.38218E+08         0.00000E+00
    0.00000E+00         0.00000E+00        -0.16922E+08
 
   -0.17240E+08         0.20647E+07         0.00000E+00
    0.20647E+07        -0.38481E+08         0.00000E+00
    0.00000E+00         0.00000E+00        -0.17045E+08
 
   -0.17366E+08         0.20197E+07         0.00000E+00
    0.20197E+07        -0.38729E+08         0.00000E+00
    0.00000E+00         0.00000E+00        -0.17162E+08
 
   -0.17484E+08         0.19730E+07         0.00000E+00
    0.19730E+07        -0.38964E+08         0.00000E+00
    0.00000E+00         0.00000E+00        -0.17273E+08
 
   -0.17594E+08         0.19251E+07         0.00000E+00
    0.19251E+07        -0.39186E+08         0.00000E+00
    0.00000E+00         0.00000E+00        -0.17379E+08
 
   -0.17697E+08         0.18766E+07         0.00000E+00
    0.18766E+07        -0.39397E+08         0.00000E+00
    0.00000E+00         0.00000E+00        -0.17480E+08
 
   -0.17793E+08         0.18279E+07         0.00000E+00
    0.18279E+07        -0.39596E+08         0.00000E+00
    0.00000E+00         0.00000E+00        -0.17576E+08
 
   -0.17884E+08         0.17794E+07         0.00000E+00
    0.17794E+07        -0.39786E+08         0.00000E+00
    0.00000E+00         0.00000E+00        -0.17669E+08
 
   -0.17970E+08         0.17314E+07         0.00000E+00
    0.17314E+07        -0.39967E+08         0.00000E+00
    0.00000E+00         0.00000E+00        -0.17758E+08
 
   -0.18050E+08         0.16843E+07         0.00000E+00
    0.16843E+07        -0.40138E+08         0.00000E+00
    0.00000E+00         0.00000E+00        -0.17843E+08
 
   -0.18127E+08         0.16382E+07         0.00000E+00
    0.16382E+07        -0.40302E+08         0.00000E+00
    0.00000E+00         0.00000E+00        -0.17925E+08
 
   -0.18199E+08         0.15935E+07         0.00000E+00
    0.15935E+07        -0.40458E+08         0.00000E+00
    0.00000E+00         0.00000E+00        -0.18004E+08
 
   -0.18268E+08         0.15502E+07         0.00000E+00
    0.15502E+07        -0.40608E+08         0.00000E+00
    0.00000E+00         0.00000E+00        -0.18080E+08
 
   -0.18334E+08         0.15085E+07         0.00000E+00
    0.15085E+07        -0.40751E+08         0.00000E+00
    0.00000E+00         0.00000E+00        -0.18153E+08
 
   -0.18397E+08         0.14686E+07         0.00000E+00
    0.14686E+07        -0.40889E+08         0.00000E+00
    0.00000E+00         0.00000E+00        -0.18225E+08
 
   -0.18457E+08         0.14304E+07         0.00000E+00
    0.14304E+07        -0.41021E+08         0.00000E+00
    0.00000E+00         0.00000E+00        -0.18293E+08
 
   -0.18515E+08         0.13942E+07         0.00000E+00
    0.13942E+07        -0.41148E+08         0.00000E+00
    0.00000E+00         0.00000E+00        -0.18360E+08
 
   -0.18571E+08         0.13600E+07         0.00000E+00
    0.13600E+07        -0.41270E+08         0.00000E+00
    0.00000E+00         0.00000E+00        -0.18425E+08
 
   -0.18624E+08         0.13277E+07         0.00000E+00
    0.13277E+07        -0.41389E+08         0.00000E+00
    0.00000E+00         0.00000E+00        -0.18489E+08
 
   -0.18676E+08         0.12974E+07         0.00000E+00
    0.12974E+07        -0.41503E+08         0.00000E+00
    0.00000E+00         0.00000E+00        -0.18550E+08
 
   -0.18727E+08         0.12692E+07         0.00000E+00
    0.12692E+07        -0.41615E+08         0.00000E+00
    0.00000E+00         0.00000E+00        -0.18611E+08
 
   -0.18776E+08         0.12431E+07         0.00000E+00
    0.12431E+07        -0.41723E+08         0.00000E+00
    0.00000E+00         0.00000E+00        -0.18670E+08
 
   -0.18824E+08         0.12190E+07         0.00000E+00
    0.12190E+07        -0.41828E+08         0.00000E+00
    0.00000E+00         0.00000E+00        -0.18728E+08
 
   -0.18871E+08         0.11970E+07         0.00000E+00
    0.11970E+07        -0.41931E+08         0.00000E+00
    0.00000E+00         0.00000E+00        -0.18784E+08
 
   -0.18917E+08         0.11770E+07         0.00000E+00
    0.11770E+07        -0.42032E+08         0.00000E+00
    0.00000E+00         0.00000E+00        -0.18840E+08
 
   -0.18963E+08         0.11591E+07         0.00000E+00
    0.11591E+07        -0.42130E+08         0.00000E+00
    0.00000E+00         0.00000E+00        -0.18895E+08
 
   -0.19007E+08         0.11431E+07         0.00000E+00
    0.11431E+07        -0.42227E+08         0.00000E+00
    0.00000E+00         0.00000E+00        -0.18950E+08
 
   -0.19052E+08         0.11292E+07         0.00000E+00
    0.11292E+07        -0.42323E+08         0.00000E+00
    0.00000E+00         0.00000E+00        -0.19004E+08
 
   -0.19096E+08         0.11172E+07         0.00000E+00
    0.11172E+07        -0.42417E+08         0.00000E+00
    0.00000E+00         0.00000E+00        -0.19057E+08
 
   -0.19139E+08         0.11072E+07         0.00000E+00
    0.11072E+07        -0.42511E+08         0.00000E+00
    0.00000E+00         0.00000E+00        -0.19111E+08
 
   -0.19183E+08         0.10990E+07         0.00000E+00
    0.10990E+07        -0.42604E+08         0.00000E+00
    0.00000E+00         0.00000E+00        -0.19164E+08
 
   -0.19227E+08         0.10928E+07         0.00000E+00
    0.10928E+07        -0.42697E+08         0.00000E+00
    0.00000E+00         0.00000E+00        -0.19217E+08
 
   -0.19270E+08         0.10884E+07         0.00000E+00
    0.10884E+07        -0.42789E+08         0.00000E+00
    0.00000E+00         0.00000E+00        -0.19270E+08
 
   -0.19315E+08         0.10857E+07         0.00000E+00
    0.10857E+07        -0.42882E+08         0.00000E+00
    0.00000E+00         0.00000E+00        -0.19323E+08
 
   -0.19359E+08         0.10849E+07         0.00000E+00
    0.10849E+07        -0.42975E+08         0.00000E+00
    0.00000E+00         0.00000E+00        -0.19376E+08
 
   -0.19404E+08         0.10858E+07         0.00000E+00
    0.10858E+07        -0.43068E+08         0.00000E+00
    0.00000E+00         0.00000E+00        -0.19430E+08
 
   -0.19450E+08         0.10883E+07         0.00000E+00
    0.10883E+07        -0.43163E+08         0.00000E+00
    0.00000E+00         0.00000E+00        -0.19485E+08
 
   -0.19497E+08         0.10924E+07         0.00000E+00
    0.10924E+07        -0.43258E+08         0.00000E+00
    0.00000E+00         0.00000E+00        -0.19540E+08
 
   -0.19545E+08         0.10981E+07         0.00000E+00
    0.10981E+07        -0.43355E+08         0.00000E+00
    0.00000E+00         0.00000E+00        -0.19596E+08
 
   -0.19593E+08         0.11053E+07         0.00000E+00
    0.11053E+07        -0.43454E+08         0.00000E+00
    0.00000E+00         0.00000E+00        -0.19652E+08
 
   -0.19643E+08         0.11139E+07         0.00000E+00
    0.11139E+07        -0.43554E+08         0.00000E+00
    0.00000E+00         0.00000E+00        -0.19710E+08
 
   -0.19695E+08         0.11238E+07         0.00000E+00
    0.11238E+07        -0.43657E+08         0.00000E+00
    0.00000E+00         0.00000E+00        -0.19769E+08
 
   -0.19748E+08         0.11349E+07         0.00000E+00
    0.11349E+07        -0.43763E+08         0.00000E+00
    0.00000E+00         0.00000E+00        -0.19829E+08
 
   -0.19803E+08         0.11472E+07         0.00000E+00
    0.11472E+07        -0.43871E+08         0.00000E+00
    0.00000E+00         0.00000E+00        -0.19891E+08
 
   -0.19861E+08         0.11604E+07         0.00000E+00
    0.11604E+07        -0.43983E+08         0.00000E+00
    0.00000E+00         0.00000E+00        -0.19955E+08
 
   -0.19920E+08         0.11746E+07         0.00000E+00
    0.11746E+07        -0.44098E+08         0.00000E+00
    0.00000E+00         0.00000E+00        -0.20020E+08
 
   -0.19982E+08         0.11894E+07         0.00000E+00
    0.11894E+07        -0.44217E+08         0.00000E+00
    0.00000E+00         0.00000E+00        -0.20087E+08
 
   -0.20047E+08         0.12049E+07         0.00000E+00
    0.12049E+07        -0.44341E+08         0.00000E+00
    0.00000E+00         0.00000E+00        -0.20156E+08
 
   -0.20114E+08         0.12207E+07         0.00000E+00
    0.12207E+07        -0.44469E+08         0.00000E+00
    0.00000E+00         0.00000E+00        -0.20227E+08
 
   -0.20185E+08         0.12366E+07         0.00000E+00
    0.12366E+07        -0.44603E+08         0.00000E+00
    0.00000E+00         0.00000E+00        -0.20301E+08
 
   -0.20260E+08         0.12525E+07         0.00000E+00
    0.12525E+07        -0.44743E+08         0.00000E+00
    0.00000E+00         0.00000E+00        -0.20378E+08
 
   -0.20339E+08         0.12680E+07         0.00000E+00
    0.12680E+07        -0.44889E+08         0.00000E+00
    0.00000E+00         0.00000E+00        -0.20457E+08
 
   -0.20421E+08         0.12829E+07         0.00000E+00
    0.12829E+07        -0.45043E+08         0.00000E+00
    0.00000E+00         0.00000E+00        -0.20539E+08
 
   -0.20509E+08         0.12969E+07         0.00000E+00
    0.12969E+07        -0.45204E+08         0.00000E+00
    0.00000E+00         0.00000E+00        -0.20625E+08
 
   -0.20601E+08         0.13095E+07         0.00000E+00
    0.13095E+07        -0.45373E+08         0.00000E+00
    0.00000E+00         0.00000E+00        -0.20714E+08
 
   -0.20699E+08         0.13204E+07         0.00000E+00
    0.13204E+07        -0.45552E+08         0.00000E+00
    0.00000E+00         0.00000E+00        -0.20807E+08
 
   -0.20803E+08         0.13291E+07         0.00000E+00
    0.13291E+07        -0.45741E+08         0.00000E+00
    0.00000E+00         0.00000E+00        -0.20904E+08
 
   -0.20913E+08         0.13352E+07         0.00000E+00
    0.13352E+07        -0.45940E+08         0.00000E+00
    0.00000E+00         0.00000E+00        -0.21006E+08
 
   -0.21030E+08         0.13383E+07         0.00000E+00
    0.13383E+07        -0.46151E+08         0.00000E+00
    0.00000E+00         0.00000E+00        -0.21112E+08
 
   -0.21154E+08         0.13376E+07         0.00000E+00
    0.13376E+07        -0.46374E+08         0.00000E+00
    0.00000E+00         0.00000E+00        -0.21223E+08
 
   -0.21286E+08         0.13328E+07         0.00000E+00
    0.13328E+07        -0.46610E+08         0.00000E+00
    0.00000E+00         0.00000E+00        -0.21340E+08
 
   -0.21427E+08         0.13232E+07         0.00000E+00
    0.13232E+07        -0.46861E+08         0.00000E+00
    0.00000E+00         0.00000E+00        -0.21462E+08
 
   -0.21575E+08         0.13083E+07         0.00000E+00
    0.13083E+07        -0.47126E+08         0.00000E+00
    0.00000E+00         0.00000E+00        -0.21591E+08
 
   -0.21733E+08         0.12875E+07         0.00000E+00
    0.12875E+07        -0.47407E+08         0.00000E+00
    0.00000E+00         0.00000E+00        -0.21725E+08
 
   -0.21900E+08         0.12603E+07         0.00000E+00
    0.12603E+07        -0.47704E+08         0.00000E+00
    0.00000E+00         0.00000E+00        -0.21866E+08
 
   -0.22077E+08         0.12262E+07         0.00000E+00
    0.12262E+07        -0.48016E+08         0.00000E+00
    0.00000E+00         0.00000E+00        -0.22013E+08
 
   -0.22262E+08         0.11848E+07         0.00000E+00
    0.11848E+07        -0.48345E+08         0.00000E+00
    0.00000E+00         0.00000E+00        -0.22167E+08
 
   -0.22457E+08         0.11357E+07         0.00000E+00
    0.11357E+07        -0.48689E+08         0.00000E+00
    0.00000E+00         0.00000E+00        -0.22327E+08
 
   -0.22661E+08         0.10789E+07         0.00000E+00
    0.10789E+07        -0.49047E+08         0.00000E+00
    0.00000E+00         0.00000E+00        -0.22493E+08
 
   -0.22872E+08         0.10142E+07         0.00000E+00
    0.10142E+07        -0.49417E+08         0.00000E+00
    0.00000E+00         0.00000E+00        -0.22662E+08
 
   -0.23091E+08         0.94171E+06         0.00000E+00
    0.94171E+06        -0.49797E+08         0.00000E+00
    0.00000E+00         0.00000E+00        -0.22834E+08
 
   -0.23315E+08         0.86160E+06         0.00000E+00
    0.86160E+06        -0.50181E+08         0.00000E+00
    0.00000E+00         0.00000E+00        -0.23005E+08
 
   -0.23544E+08         0.77396E+06         0.00000E+00
    0.77396E+06        -0.50564E+08         0.00000E+00
    0.00000E+00         0.00000E+00        -0.23172E+08
 
   -0.23777E+08         0.67867E+06         0.00000E+00
    0.67867E+06        -0.50941E+08         0.00000E+00
    0.00000E+00         0.00000E+00        -0.23329E+08
 
   -0.24013E+08         0.57511E+06         0.00000E+00
    0.57511E+06        -0.51304E+08         0.00000E+00
    0.00000E+00         0.00000E+00        -0.23469E+08
 
   -0.24253E+08         0.46204E+06         0.00000E+00
    0.46204E+06        -0.51644E+08         0.00000E+00
    0.00000E+00         0.00000E+00        -0.23582E+08
 
   -0.24505E+08         0.33848E+06         0.00000E+00
    0.33848E+06        -0.51953E+08         0.00000E+00
    0.00000E+00         0.00000E+00        -0.23656E+08
 
   -0.24777E+08         0.20612E+06         0.00000E+00
    0.20612E+06        -0.52231E+08         0.00000E+00
    0.00000E+00         0.00000E+00        -0.23681E+08
 
   -0.25089E+08         0.69305E+05         0.00000E+00
    0.69305E+05        -0.52482E+08         0.00000E+00
    0.00000E+00         0.00000E+00        -0.23648E+08
 
   -0.11382E+08         0.12890E+06         0.00000E+00
    0.12890E+06        -0.29084E+08         0.00000E+00
    0.00000E+00         0.00000E+00        -0.14646E+08
 
   -0.12115E+08         0.38829E+06         0.00000E+00
    0.38829E+06        -0.29227E+08         0.00000E+00
    0.00000E+00         0.00000E+00        -0.14646E+08
 
   -0.12665E+08         0.64624E+06         0.00000E+00
    0.64624E+06        -0.29517E+08         0.00000E+00
    0.00000E+00         0.00000E+00        -0.14646E+08
 
   -0.13069E+08         0.89324E+06         0.00000E+00
    0.89324E+06        -0.29946E+08         0.00000E+00
    0.00000E+00         0.00000E+00        -0.14646E+08
 
   -0.13370E+08         0.11231E+07         0.00000E+00
    0.11231E+07        -0.30488E+08         0.00000E+00
    0.00000E+00         0.00000E+00        -0.14646E+08
 
   -0.13600E+08         0.13350E+07         0.00000E+00
    0.13350E+07        -0.31112E+08         0.00000E+00
    0.00000E+00         0.00000E+00        -0.14646E+08
 
   -0.13783E+08         0.15295E+07         0.00000E+00
    0.15295E+07        -0.31788E+08         0.00000E+00
    0.00000E+00         0.00000E+00        -0.14646E+08
 
   -0.13935E+08         0.17070E+07         0.00000E+00
    0.17070E+07        -0.32493E+08         0.00000E+00
    0.00000E+00         0.00000E+00        -0.14646E+08
 
   -0.14108E+08         0.18584E+07         0.00000E+00
    0.18584E+07        -0.33164E+08         0.00000E+00
    0.00000E+00         0.00000E+00        -0.14687E+08
 
   -0.14390E+08         0.19658E+07         0.00000E+00
    0.19658E+07        -0.33705E+08         0.00000E+00
    0.00000E+00         0.00000E+00        -0.14848E+08
 
   -0.14708E+08         0.20427E+07         0.00000E+00
    0.20427E+07        -0.34180E+08         0.00000E+00
    0.00000E+00         0.00000E+00        -0.15059E+08
 
   -0.15009E+08         0.21016E+07         0.00000E+00
    0.21016E+07        -0.34641E+08         0.00000E+00
    0.00000E+00         0.00000E+00        -0.15266E+08
 
   -0.15291E+08         0.21443E+07         0.00000E+00
    0.21443E+07        -0.35086E+08         0.00000E+00
    0.00000E+00         0.00000E+00        -0.15467E+08
 
   -0.15556E+08         0.21727E+07         0.00000E+00
    0.21727E+07        -0.35512E+08         0.00000E+00
    0.00000E+00         0.00000E+00        -0.15660E+08
 
   -0.15803E+08         0.21882E+07         0.00000E+00
    0.21882E+07        -0.35919E+08         0.00000E+00
    0.00000E+00         0.00000E+00        -0.15846E+08
 
   -0.16034E+08         0.21925E+07         0.00000E+00
    0.21925E+07        -0.36305E+08         0.00000E+00
    0.00000E+00         0.00000E+00        -0.16022E+08
 
   -0.16248E+08         0.21869E+07         0.00000E+00
    0.21869E+07        -0.36672E+08         0.00000E+00
    0.00000E+00         0.00000E+00        -0.16190E+08
 
   -0.16446E+08         0.21727E+07         0.00000E+00
    0.21727E+07        -0.37019E+08         0.00000E+00
    0.00000E+00         0.00000E+00        -0.16349E+08
 
   -0.16631E+08         0.21512E+07         0.00000E+00
    0.21512E+07        -0.37348E+08         0.00000E+00
    0.00000E+00         0.00000E+00        -0.16500E+08
 
   -0.16802E+08         0.21235E+07         0.00000E+00
    0.21235E+07        -0.37658E+08         0.00000E+00
    0.00000E+00         0.00000E+00        -0.16643E+08
 
   -0.16960E+08         0.20907E+07         0.00000E+00
    0.20907E+07        -0.37951E+08         0.00000E+00
    0.00000E+00         0.00000E+00        -0.16779E+08
 
   -0.17107E+08         0.20536E+07         0.00000E+00
    0.20536E+07        -0.38229E+08         0.00000E+00
    0.00000E+00         0.00000E+00        -0.16908E+08
 
   -0.17244E+08         0.20133E+07         0.00000E+00
    0.20133E+07        -0.38490E+08         0.00000E+00
    0.00000E+00         0.00000E+00        -0.17031E+08
 
   -0.17371E+08         0.19703E+07         0.00000E+00
    0.19703E+07        -0.38738E+08         0.00000E+00
    0.00000E+00         0.00000E+00        -0.17147E+08
 
   -0.17490E+08         0.19254E+07         0.00000E+00
    0.19254E+07        -0.38972E+08         0.00000E+00
    0.00000E+00         0.00000E+00        -0.17258E+08
 
   -0.17600E+08         0.18793E+07         0.00000E+00
    0.18793E+07        -0.39194E+08         0.00000E+00
    0.00000E+00         0.00000E+00        -0.17364E+08
 
   -0.17703E+08         0.18324E+07         0.00000E+00
    0.18324E+07        -0.39404E+08         0.00000E+00
    0.00000E+00         0.00000E+00        -0.17466E+08
 
   -0.17800E+08         0.17852E+07         0.00000E+00
    0.17852E+07        -0.39603E+08         0.00000E+00
    0.00000E+00         0.00000E+00        -0.17563E+08
 
   -0.17891E+08         0.17382E+07         0.00000E+00
    0.17382E+07        -0.39792E+08         0.00000E+00
    0.00000E+00         0.00000E+00        -0.17656E+08
 
   -0.17976E+08         0.16916E+07         0.00000E+00
    0.16916E+07        -0.39972E+08         0.00000E+00
    0.00000E+00         0.00000E+00        -0.17745E+08
 
   -0.18057E+08         0.16457E+07         0.00000E+00
    0.16457E+07        -0.40144E+08         0.00000E+00
    0.00000E+00         0.00000E+00        -0.17830E+08
 
   -0.18133E+08         0.16009E+07         0.00000E+00
    0.16009E+07        -0.40307E+08         0.00000E+00
    0.00000E+00         0.00000E+00        -0.17913E+08
 
   -0.18206E+08         0.15573E+07         0.00000E+00
    0.15573E+07        -0.40463E+08         0.00000E+00
    0.00000E+00         0.00000E+00        -0.17992E+08
 
   -0.18274E+08         0.15151E+07         0.00000E+00
    0.15151E+07        -0.40613E+08         0.00000E+00
    0.00000E+00         0.00000E+00        -0.18069E+08
 
   -0.18340E+08         0.14745E+07         0.00000E+00
    0.14745E+07        -0.40755E+08         0.00000E+00
    0.00000E+00         0.00000E+00        -0.18143E+08
 
   -0.18402E+08         0.14355E+07         0.00000E+00
    0.14355E+07        -0.40893E+08         0.00000E+00
    0.00000E+00         0.00000E+00        -0.18214E+08
 
   -0.18462E+08         0.13983E+07         0.00000E+00
    0.13983E+07        -0.41024E+08         0.00000E+00
    0.00000E+00         0.00000E+00        -0.18284E+08
 
   -0.18520E+08         0.13630E+07         0.00000E+00
    0.13630E+07        -0.41151E+08         0.00000E+00
    0.00000E+00         0.00000E+00        -0.18351E+08
 
   -0.18575E+08         0.13295E+07         0.00000E+00
    0.13295E+07        -0.41274E+08         0.00000E+00
    0.00000E+00         0.00000E+00        -0.18417E+08
 
   -0.18629E+08         0.12980E+07         0.00000E+00
    0.12980E+07        -0.41392E+08         0.00000E+00
    0.00000E+00         0.00000E+00        -0.18481E+08
 
   -0.18680E+08         0.12684E+07         0.00000E+00
    0.12684E+07        -0.41506E+08         0.00000E+00
    0.00000E+00         0.00000E+00        -0.18543E+08
 
   -0.18731E+08         0.12409E+07         0.00000E+00
    0.12409E+07        -0.41617E+08         0.00000E+00
    0.00000E+00         0.00000E+00        -0.18604E+08
 
   -0.18779E+08         0.12153E+07         0.00000E+00
    0.12153E+07        -0.41725E+08         0.00000E+00
    0.00000E+00         0.00000E+00        -0.18663E+08
 
   -0.18827E+08         0.11918E+07         0.00000E+00
    0.11918E+07        -0.41831E+08         0.00000E+00
    0.00000E+00         0.00000E+00        -0.18722E+08
 
   -0.18874E+08         0.11702E+07         0.00000E+00
    0.11702E+07        -0.41933E+08         0.00000E+00
    0.00000E+00         0.00000E+00        -0.18779E+08
 
   -0.18919E+08         0.11507E+07         0.00000E+00
    0.11507E+07        -0.42034E+08         0.00000E+00
    0.00000E+00         0.00000E+00        -0.18835E+08
 
   -0.18964E+08         0.11331E+07         0.00000E+00
    0.11331E+07        -0.42132E+08         0.00000E+00
    0.00000E+00         0.00000E+00        -0.18891E+08
 
   -0.19008E+08         0.11175E+07         0.00000E+00
    0.11175E+07        -0.42229E+08         0.00000E+00
    0.00000E+00         0.00000E+00        -0.18946E+08
 
   -0.19052E+08         0.11038E+07         0.00000E+00
    0.11038E+07        -0.42325E+08         0.00000E+00
    0.00000E+00         0.00000E+00        -0.19000E+08
 
   -0.19096E+08         0.10921E+07         0.00000E+00
    0.10921E+07        -0.42419E+08         0.00000E+00
    0.00000E+00         0.00000E+00        -0.19054E+08
 
   -0.19139E+08         0.10822E+07         0.00000E+00
    0.10822E+07        -0.42513E+08         0.00000E+00
    0.00000E+00         0.00000E+00        -0.19108E+08
 
   -0.19182E+08         0.10742E+07         0.00000E+00
    0.10742E+07        -0.42606E+08         0.00000E+00
    0.00000E+00         0.00000E+00        -0.19161E+08
 
   -0.19225E+08         0.10681E+07         0.00000E+00
    0.10681E+07        -0.42698E+08         0.00000E+00
    0.00000E+00         0.00000E+00        -0.19215E+08
 
   -0.19269E+08         0.10637E+07         0.00000E+00
    0.10637E+07        -0.42790E+08         0.00000E+00
    0.00000E+00         0.00000E+00        -0.19268E+08
 
   -0.19313E+08         0.10611E+07         0.00000E+00
    0.10611E+07        -0.42883E+08         0.00000E+00
    0.00000E+00         0.00000E+00        -0.19322E+08
 
   -0.19357E+08         0.10602E+07         0.00000E+00
    0.10602E+07        -0.42976E+08         0.00000E+00
    0.00000E+00         0.00000E+00        -0.19375E+08
 
   -0.19401E+08         0.10610E+07         0.00000E+00
    0.10610E+07        -0.43069E+08         0.00000E+00
    0.00000E+00         0.00000E+00        -0.19430E+08
 
   -0.19447E+08         0.10634E+07         0.00000E+00
    0.10634E+07        -0.43164E+08         0.00000E+00
    0.00000E+00         0.00000E+00        -0.19484E+08
 
   -0.19493E+08         0.10674E+07         0.00000E+00
    0.10674E+07        -0.43259E+08         0.00000E+00
    0.00000E+00         0.00000E+00        -0.19540E+08
 
   -0.19540E+08         0.10729E+07         0.00000E+00
    0.10729E+07        -0.43356E+08         0.00000E+00
    0.00000E+00         0.00000E+00        -0.19596E+08
 
   -0.19589E+08         0.10798E+07         0.00000E+00
    0.10798E+07        -0.43455E+08         0.00000E+00
    0.00000E+00         0.00000E+00        -0.19653E+08
 
   -0.19638E+08         0.10881E+07         0.00000E+00
    0.10881E+07        -0.43555E+08         0.00000E+00
    0.00000E+00         0.00000E+00        -0.19711E+08
 
   -0.19690E+08         0.10976E+07         0.00000E+00
    0.10976E+07        -0.43658E+08         0.00000E+00
    0.00000E+00         0.00000E+00        -0.19770E+08
 
   -0.19742E+08         0.11084E+07         0.00000E+00
    0.11084E+07        -0.43763E+08         0.00000E+00
    0.00000E+00         0.00000E+00        -0.19831E+08
 
   -0.19797E+08         0.11202E+07         0.00000E+00
    0.11202E+07        -0.43871E+08         0.00000E+00
    0.00000E+00         0.00000E+00        -0.19893E+08
 
   -0.19854E+08         0.11331E+07         0.00000E+00
    0.11331E+07        -0.43983E+08         0.00000E+00
    0.00000E+00         0.00000E+00        -0.19956E+08
 
   -0.19913E+08         0.11467E+07         0.00000E+00
    0.11467E+07        -0.44098E+08         0.00000E+00
    0.00000E+00         0.00000E+00        -0.20022E+08
 
   -0.19975E+08         0.11611E+07         0.00000E+00
    0.11611E+07        -0.44217E+08         0.00000E+00
    0.00000E+00         0.00000E+00        -0.20089E+08
 
   -0.20039E+08         0.11760E+07         0.00000E+00
    0.11760E+07        -0.44341E+08         0.00000E+00
    0.00000E+00         0.00000E+00        -0.20158E+08
 
   -0.20106E+08         0.11912E+07         0.00000E+00
    0.11912E+07        -0.44469E+08         0.00000E+00
    0.00000E+00         0.00000E+00        -0.20229E+08
 
   -0.20177E+08         0.12066E+07         0.00000E+00
    0.12066E+07        -0.44603E+08         0.00000E+00
    0.00000E+00         0.00000E+00        -0.20303E+08
 
   -0.20251E+08         0.12218E+07         0.00000E+00
    0.12218E+07        -0.44743E+08         0.00000E+00
    0.00000E+00         0.00000E+00        -0.20380E+08
 
   -0.20330E+08         0.12367E+07         0.00000E+00
    0.12367E+07        -0.44889E+08         0.00000E+00
    0.00000E+00         0.00000E+00        -0.20459E+08
 
   -0.20412E+08         0.12510E+07         0.00000E+00
    0.12510E+07        -0.45043E+08         0.00000E+00
    0.00000E+00         0.00000E+00        -0.20541E+08
 
   -0.20500E+08         0.12642E+07         0.00000E+00
    0.12642E+07        -0.45204E+08         0.00000E+00
    0.00000E+00         0.00000E+00        -0.20627E+08
 
   -0.20592E+08         0.12761E+07         0.00000E+00
    0.12761E+07        -0.45373E+08         0.00000E+00
    0.00000E+00         0.00000E+00        -0.20716E+08
 
   -0.20690E+08         0.12863E+07         0.00000E+00
    0.12863E+07        -0.45552E+08         0.00000E+00
    0.00000E+00         0.00000E+00        -0.20808E+08
 
   -0.20794E+08         0.12943E+07         0.00000E+00
    0.12943E+07        -0.45740E+08         0.00000E+00
    0.00000E+00         0.00000E+00        -0.20905E+08
 
   -0.20905E+08         0.12997E+07         0.00000E+00
    0.12997E+07        -0.45939E+08         0.00000E+00
    0.00000E+00         0.00000E+00        -0.21006E+08
 
   -0.21022E+08         0.13019E+07         0.00000E+00
    0.13019E+07        -0.46150E+08         0.00000E+00
    0.00000E+00         0.00000E+00        -0.21112E+08
 
   -0.21147E+08         0.13005E+07         0.00000E+00
    0.13005E+07        -0.46373E+08         0.00000E+00
    0.00000E+00         0.00000E+00        -0.21222E+08
 
   -0.21279E+08         0.12949E+07         0.00000E+00
    0.12949E+07        -0.46609E+08         0.00000E+00
    0.00000E+00         0.00000E+00        -0.21338E+08
 
   -0.21420E+08         0.12844E+07         0.00000E+00
    0.12844E+07        -0.46860E+08         0.00000E+00
    0.00000E+00         0.00000E+00        -0.21459E+08
 
   -0.21570E+08         0.12686E+07         0.00000E+00
    0.12686E+07        -0.47125E+08         0.00000E+00
    0.00000E+00         0.00000E+00        -0.21587E+08
 
   -0.21729E+08         0.12469E+07         0.00000E+00
    0.12469E+07        -0.47406E+08         0.00000E+00
    0.00000E+00         0.00000E+00        -0.21720E+08
 
   -0.21897E+08         0.12187E+07         0.00000E+00
    0.12187E+07        -0.47703E+08         0.00000E+00
    0.00000E+00         0.00000E+00        -0.21860E+08
 
   -0.22075E+08         0.11835E+07         0.00000E+00
    0.11835E+07        -0.48016E+08         0.00000E+00
    0.00000E+00         0.00000E+00        -0.22006E+08
 
   -0.22263E+08         0.11410E+07         0.00000E+00
    0.11410E+07        -0.48344E+08         0.00000E+00
    0.00000E+00         0.00000E+00        -0.22158E+08
 
   -0.22460E+08         0.10907E+07         0.00000E+00
    0.10907E+07        -0.48689E+08         0.00000E+00
    0.00000E+00         0.00000E+00        -0.22316E+08
 
   -0.22666E+08         0.10327E+07         0.00000E+00
    0.10327E+07        -0.49047E+08         0.00000E+00
    0.00000E+00         0.00000E+00        -0.22480E+08
 
   -0.22881E+08         0.96683E+06         0.00000E+00
    0.96683E+06        -0.49418E+08         0.00000E+00
    0.00000E+00         0.00000E+00        -0.22648E+08
 
   -0.23103E+08         0.89330E+06         0.00000E+00
    0.89330E+06        -0.49798E+08         0.00000E+00
    0.00000E+00         0.00000E+00        -0.22818E+08
 
   -0.23331E+08         0.81240E+06         0.00000E+00
    0.81240E+06        -0.50184E+08         0.00000E+00
    0.00000E+00         0.00000E+00        -0.22987E+08
 
   -0.23565E+08         0.72449E+06         0.00000E+00
    0.72449E+06        -0.50570E+08         0.00000E+00
    0.00000E+00         0.00000E+00        -0.23152E+08
 
   -0.23803E+08         0.62985E+06         0.00000E+00
    0.62985E+06        -0.50949E+08         0.00000E+00
    0.00000E+00         0.00000E+00        -0.23307E+08
 
   -0.24045E+08         0.52843E+06         0.00000E+00
    0.52843E+06        -0.51314E+08         0.00000E+00
    0.00000E+00         0.00000E+00        -0.23444E+08
 
   -0.24294E+08         0.41982E+06         0.00000E+00
    0.41982E+06        -0.51656E+08         0.00000E+00
    0.00000E+00         0.00000E+00        -0.23554E+08
 
   -0.24553E+08         0.30413E+06         0.00000E+00
    0.30413E+06        -0.51970E+08         0.00000E+00
    0.00000E+00         0.00000E+00        -0.23626E+08
 
   -0.24835E+08         0.18353E+06         0.00000E+00
    0.18353E+06        -0.52251E+08         0.00000E+00
    0.00000E+00         0.00000E+00        -0.23648E+08
 
   -0.25153E+08         0.61403E+05         0.00000E+00
    0.61403E+05        -0.52505E+08         0.00000E+00
    0.00000E+00         0.00000E+00        -0.23614E+08
 
   -0.11192E+08         0.11285E+06         0.00000E+00
    0.11285E+06        -0.29133E+08         0.00000E+00
    0.00000E+00         0.00000E+00        -0.14646E+08
 
   -0.11936E+08         0.34183E+06         0.00000E+00
    0.34183E+06        -0.29276E+08         0.00000E+00
    0.00000E+00         0.00000E+00        -0.14646E+08
 
   -0.12503E+08         0.57466E+06         0.00000E+00
    0.57466E+06        -0.29566E+08         0.00000E+00
    0.00000E+00         0.00000E+00        -0.14646E+08
 
   -0.12929E+08         0.80423E+06         0.00000E+00
    0.80423E+06        -0.29993E+08         0.00000E+00
    0.00000E+00         0.00000E+00        -0.14646E+08
 
   -0.13249E+08         0.10239E+07         0.00000E+00
    0.10239E+07        -0.30532E+08         0.00000E+00
    0.00000E+00         0.00000E+00        -0.14646E+08
 
   -0.13498E+08         0.12309E+07         0.00000E+00
    0.12309E+07        -0.31152E+08         0.00000E+00
    0.00000E+00         0.00000E+00        -0.14646E+08
 
   -0.13697E+08         0.14241E+07         0.00000E+00
    0.14241E+07        -0.31825E+08         0.00000E+00
    0.00000E+00         0.00000E+00        -0.14646E+08
 
   -0.13863E+08         0.16025E+07         0.00000E+00
    0.16025E+07        -0.32527E+08         0.00000E+00
    0.00000E+00         0.00000E+00        -0.14646E+08
 
   -0.14058E+08         0.17549E+07         0.00000E+00
    0.17549E+07        -0.33186E+08         0.00000E+00
    0.00000E+00         0.00000E+00        -0.14695E+08
 
   -0.14355E+08         0.18660E+07         0.00000E+00
    0.18660E+07        -0.33719E+08         0.00000E+00
    0.00000E+00         0.00000E+00        -0.14858E+08
 
   -0.14680E+08         0.19489E+07         0.00000E+00
    0.19489E+07        -0.34196E+08         0.00000E+00
    0.00000E+00         0.00000E+00        -0.15065E+08
 
   -0.14986E+08         0.20134E+07         0.00000E+00
    0.20134E+07        -0.34657E+08         0.00000E+00
    0.00000E+00         0.00000E+00        -0.15268E+08
 
   -0.15273E+08         0.20613E+07         0.00000E+00
    0.20613E+07        -0.35102E+08         0.00000E+00
    0.00000E+00         0.00000E+00        -0.15466E+08
 
   -0.15542E+08         0.20944E+07         0.00000E+00
    0.20944E+07        -0.35528E+08         0.00000E+00
    0.00000E+00         0.00000E+00        -0.15657E+08
 
   -0.15793E+08         0.21142E+07         0.00000E+00
    0.21142E+07        -0.35934E+08         0.00000E+00
    0.00000E+00         0.00000E+00        -0.15840E+08
 
   -0.16026E+08         0.21223E+07         0.00000E+00
    0.21223E+07        -0.36320E+08         0.00000E+00
    0.00000E+00         0.00000E+00        -0.16014E+08
 
   -0.16243E+08         0.21202E+07         0.00000E+00
    0.21202E+07        -0.36686E+08         0.00000E+00
    0.00000E+00         0.00000E+00        -0.16180E+08
 
   -0.16444E+08         0.21091E+07         0.00000E+00
    0.21091E+07        -0.37032E+08         0.00000E+00
    0.00000E+00         0.00000E+00        -0.16338E+08
 
   -0.16630E+08         0.20905E+07         0.00000E+00
    0.20905E+07        -0.37360E+08         0.00000E+00
    0.00000E+00         0.00000E+00        -0.16488E+08
 
   -0.16803E+08         0.20654E+07         0.00000E+00
    0.20654E+07        -0.37670E+08         0.00000E+00
    0.00000E+00         0.00000E+00        -0.16631E+08
 
   -0.16963E+08         0.20350E+07         0.00000E+00
    0.20350E+07        -0.37962E+08         0.00000E+00
    0.00000E+00         0.00000E+00        -0.16766E+08
 
   -0.17111E+08         0.20002E+07         0.00000E+00
    0.20002E+07        -0.38239E+08         0.00000E+00
    0.00000E+00         0.00000E+00        -0.16894E+08
 
   -0.17249E+08         0.19619E+07         0.00000E+00
    0.19619E+07        -0.38500E+08         0.00000E+00
    0.00000E+00         0.00000E+00        -0.17017E+08
 
   -0.17376E+08         0.19208E+07         0.00000E+00
    0.19208E+07        -0.38747E+08         0.00000E+00
    0.00000E+00         0.00000E+00        -0.17133E+08
 
   -0.17495E+08         0.18778E+07         0.00000E+00
    0.18778E+07        -0.38980E+08         0.00000E+00
    0.00000E+00         0.00000E+00        -0.17244E+08
 
   -0.17606E+08         0.18334E+07         0.00000E+00
    0.18334E+07        -0.39202E+08         0.00000E+00
    0.00000E+00         0.00000E+00        -0.17351E+08
 
   -0.17710E+08         0.17881E+07         0.00000E+00
    0.17881E+07        -0.39411E+08         0.00000E+00
    0.00000E+00         0.00000E+00        -0.17452E+08
 
   -0.17807E+08         0.17424E+07         0.00000E+00
    0.17424E+07        -0.39610E+08         0.00000E+00
    0.00000E+00         0.00000E+00        -0.17549E+08
 
   -0.17898E+08         0.16968E+07         0.00000E+00
    0.16968E+07        -0.39799E+08         0.00000E+00
    0.00000E+00         0.00000E+00        -0.17642E+08
 
   -0.17983E+08         0.16515E+07         0.00000E+00
    0.16515E+07        -0.39978E+08         0.00000E+00
    0.00000E+00         0.00000E+00        -0.17732E+08
 
   -0.18064E+08         0.16070E+07         0.00000E+00
    0.16070E+07        -0.40149E+08         0.00000E+00
    0.00000E+00         0.00000E+00        -0.17818E+08
 
   -0.18140E+08         0.15634E+07         0.00000E+00
    0.15634E+07        -0.40312E+08         0.00000E+00
    0.00000E+00         0.00000E+00        -0.17901E+08
 
   -0.18212E+08         0.15210E+07         0.00000E+00
    0.15210E+07        -0.40468E+08         0.00000E+00
    0.00000E+00         0.00000E+00        -0.17981E+08
 
   -0.18281E+08         0.14799E+07         0.00000E+00
    0.14799E+07        -0.40617E+08         0.00000E+00
    0.00000E+00         0.00000E+00        -0.18058E+08
 
   -0.18346E+08         0.14403E+07         0.00000E+00
    0.14403E+07        -0.40760E+08         0.00000E+00
    0.00000E+00         0.00000E+00        -0.18132E+08
 
   -0.18408E+08         0.14023E+07         0.00000E+00
    0.14023E+07        -0.40897E+08         0.00000E+00
    0.00000E+00         0.00000E+00        -0.18205E+08
 
   -0.18468E+08         0.13660E+07         0.00000E+00
    0.13660E+07        -0.41028E+08         0.00000E+00
    0.00000E+00         0.00000E+00        -0.18274E+08
 
   -0.18525E+08         0.13315E+07         0.00000E+00
    0.13315E+07        -0.41155E+08         0.00000E+00
    0.00000E+00         0.00000E+00        -0.18342E+08
 
   -0.18580E+08         0.12988E+07         0.00000E+00
    0.12988E+07        -0.41277E+08         0.00000E+00
    0.00000E+00         0.00000E+00        -0.18408E+08
 
   -0.18633E+08         0.12681E+07         0.00000E+00
    0.12681E+07        -0.41395E+08         0.00000E+00
    0.00000E+00         0.00000E+00        -0.18473E+08
 
   -0.18684E+08         0.12392E+07         0.00000E+00
    0.12392E+07        -0.41509E+08         0.00000E+00
    0.00000E+00         0.00000E+00        -0.18536E+08
 
   -0.18734E+08         0.12123E+07         0.00000E+00
    0.12123E+07        -0.41620E+08         0.00000E+00
    0.00000E+00         0.00000E+00        -0.18597E+08
 
   -0.18782E+08         0.11873E+07         0.00000E+00
    0.11873E+07        -0.41728E+08         0.00000E+00
    0.00000E+00         0.00000E+00        -0.18657E+08
 
   -0.18830E+08         0.11643E+07         0.00000E+00
    0.11643E+07        -0.41833E+08         0.00000E+00
    0.00000E+00         0.00000E+00        -0.18716E+08
 
   -0.18876E+08         0.11432E+07         0.00000E+00
    0.11432E+07        -0.41935E+08         0.00000E+00
    0.00000E+00         0.00000E+00        -0.18773E+08
 
   -0.18921E+08         0.11241E+07         0.00000E+00
    0.11241E+07        -0.42036E+08         0.00000E+00
    0.00000E+00         0.00000E+00        -0.18830E+08
 
   -0.18966E+08         0.11069E+07         0.00000E+00
    0.11069E+07        -0.42134E+08         0.00000E+00
    0.00000E+00         0.00000E+00        -0.18886E+08
 
   -0.19009E+08         0.10917E+07         0.00000E+00
    0.10917E+07        -0.42231E+08         0.00000E+00
    0.00000E+00         0.00000E+00        -0.18942E+08
 
   -0.19053E+08         0.10783E+07         0.00000E+00
    0.10783E+07        -0.42326E+08         0.00000E+00
    0.00000E+00         0.00000E+00        -0.18997E+08
 
   -0.19096E+08         0.10668E+07         0.00000E+00
    0.10668E+07        -0.42421E+08         0.00000E+00
    0.00000E+00         0.00000E+00        -0.19051E+08
 
   -0.19139E+08         0.10571E+07         0.00000E+00
    0.10571E+07        -0.42514E+08         0.00000E+00
    0.00000E+00         0.00000E+00        -0.19105E+08
 
   -0.19182E+08         0.10493E+07         0.00000E+00
    0.10493E+07        -0.42607E+08         0.00000E+00
    0.00000E+00         0.00000E+00        -0.19159E+08
 
   -0.19224E+08         0.10432E+07         0.00000E+00
    0.10432E+07        -0.42699E+08         0.00000E+00
    0.00000E+00         0.00000E+00        -0.19213E+08
 
   -0.19267E+08         0.10389E+07         0.00000E+00
    0.10389E+07        -0.42792E+08         0.00000E+00
    0.00000E+00         0.00000E+00        -0.19266E+08
 
   -0.19311E+08         0.10363E+07         0.00000E+00
    0.10363E+07        -0.42884E+08         0.00000E+00
    0.00000E+00         0.00000E+00        -0.19320E+08
 
   -0.19354E+08         0.10354E+07         0.00000E+00
    0.10354E+07        -0.42977E+08         0.00000E+00
    0.00000E+00         0.00000E+00        -0.19375E+08
 
   -0.19398E+08         0.10361E+07         0.00000E+00
    0.10361E+07        -0.43070E+08         0.00000E+00
    0.00000E+00         0.00000E+00        -0.19429E+08
 
   -0.19443E+08         0.10384E+07         0.00000E+00
    0.10384E+07        -0.43165E+08         0.00000E+00
    0.00000E+00         0.00000E+00        -0.19484E+08
 
   -0.19489E+08         0.10422E+07         0.00000E+00
    0.10422E+07        -0.43260E+08         0.00000E+00
    0.00000E+00         0.00000E+00        -0.19540E+08
 
   -0.19536E+08         0.10474E+07         0.00000E+00
    0.10474E+07        -0.43357E+08         0.00000E+00
    0.00000E+00         0.00000E+00        -0.19596E+08
 
   -0.19584E+08         0.10541E+07         0.00000E+00
    0.10541E+07        -0.43455E+08         0.00000E+00
    0.00000E+00         0.00000E+00        -0.19654E+08
 
   -0.19633E+08         0.10621E+07         0.00000E+00
    0.10621E+07        -0.43556E+08         0.00000E+00
    0.00000E+00         0.00000E+00        -0.19712E+08
 
   -0.19684E+08         0.10714E+07         0.00000E+00
    0.10714E+07        -0.43658E+08         0.00000E+00
    0.00000E+00         0.00000E+00        -0.19772E+08
 
   -0.19737E+08         0.10818E+07         0.00000E+00
    0.10818E+07        -0.43764E+08         0.00000E+00
    0.00000E+00         0.00000E+00        -0.19832E+08
 
   -0.19791E+08         0.10932E+07         0.00000E+00
    0.10932E+07        -0.43872E+08         0.00000E+00
    0.00000E+00         0.00000E+00        -0.19894E+08
 
   -0.19847E+08         0.11056E+07         0.00000E+00
    0.11056E+07        -0.43983E+08         0.00000E+00
    0.00000E+00         0.00000E+00        -0.19958E+08
 
   -0.19906E+08         0.11188E+07         0.00000E+00
    0.11188E+07        -0.44098E+08         0.00000E+00
    0.00000E+00         0.00000E+00        -0.20024E+08
 
   -0.19967E+08         0.11327E+07         0.00000E+00
    0.11327E+07        -0.44217E+08         0.00000E+00
    0.00000E+00         0.00000E+00        -0.20091E+08
 
   -0.20031E+08         0.11471E+07         0.00000E+00
    0.11471E+07        -0.44341E+08         0.00000E+00
    0.00000E+00         0.00000E+00        -0.20160E+08
 
   -0.20098E+08         0.11617E+07         0.00000E+00
    0.11617E+07        -0.44469E+08         0.00000E+00
    0.00000E+00         0.00000E+00        -0.20232E+08
 
   -0.20169E+08         0.11765E+07         0.00000E+00
    0.11765E+07        -0.44603E+08         0.00000E+00
    0.00000E+00         0.00000E+00        -0.20306E+08
 
   -0.20243E+08         0.11912E+07         0.00000E+00
    0.11912E+07        -0.44743E+08         0.00000E+00
    0.00000E+00         0.00000E+00        -0.20382E+08
 
   -0.20321E+08         0.12054E+07         0.00000E+00
    0.12054E+07        -0.44889E+08         0.00000E+00
    0.00000E+00         0.00000E+00        -0.20461E+08
 
   -0.20404E+08         0.12190E+07         0.00000E+00
    0.12190E+07        -0.45042E+08         0.00000E+00
    0.00000E+00         0.00000E+00        -0.20543E+08
 
   -0.20491E+08         0.12316E+07         0.00000E+00
    0.12316E+07        -0.45203E+08         0.00000E+00
    0.00000E+00         0.00000E+00        -0.20629E+08
 
   -0.20583E+08         0.12429E+07         0.00000E+00
    0.12429E+07        -0.45373E+08         0.00000E+00
    0.00000E+00         0.00000E+00        -0.20717E+08
 
   -0.20681E+08         0.12523E+07         0.00000E+00
    0.12523E+07        -0.45551E+08         0.00000E+00
    0.00000E+00         0.00000E+00        -0.20810E+08
 
   -0.20785E+08         0.12596E+07         0.00000E+00
    0.12596E+07        -0.45739E+08         0.00000E+00
    0.00000E+00         0.00000E+00        -0.20906E+08
 
   -0.20896E+08         0.12643E+07         0.00000E+00
    0.12643E+07        -0.45938E+08         0.00000E+00
    0.00000E+00         0.00000E+00        -0.21006E+08
 
   -0.21014E+08         0.12658E+07         0.00000E+00
    0.12658E+07        -0.46149E+08         0.00000E+00
    0.00000E+00         0.00000E+00        -0.21111E+08
 
   -0.21139E+08         0.12636E+07         0.00000E+00
    0.12636E+07        -0.46372E+08         0.00000E+00
    0.00000E+00         0.00000E+00        -0.21221E+08
 
   -0.21272E+08         0.12572E+07         0.00000E+00
    0.12572E+07        -0.46608E+08         0.00000E+00
    0.00000E+00         0.00000E+00        -0.21336E+08
 
   -0.21414E+08         0.12460E+07         0.00000E+00
    0.12460E+07        -0.46859E+08         0.00000E+00
    0.00000E+00         0.00000E+00        -0.21457E+08
 
   -0.21565E+08         0.12293E+07         0.00000E+00
    0.12293E+07        -0.47124E+08         0.00000E+00
    0.00000E+00         0.00000E+00        -0.21583E+08
 
   -0.21725E+08         0.12067E+07         0.00000E+00
    0.12067E+07        -0.47404E+08         0.00000E+00
    0.00000E+00         0.00000E+00        -0.21715E+08
 
   -0.21894E+08         0.11776E+07         0.00000E+00
    0.11776E+07        -0.47701E+08         0.00000E+00
    0.00000E+00         0.00000E+00        -0.21853E+08
 
   -0.22074E+08         0.11414E+07         0.00000E+00
    0.11414E+07        -0.48014E+08         0.00000E+00
    0.00000E+00         0.00000E+00        -0.21998E+08
 
   -0.22264E+08         0.10978E+07         0.00000E+00
    0.10978E+07        -0.48343E+08         0.00000E+00
    0.00000E+00         0.00000E+00        -0.22148E+08
 
   -0.22463E+08         0.10465E+07         0.00000E+00
    0.10465E+07        -0.48688E+08         0.00000E+00
    0.00000E+00         0.00000E+00        -0.22305E+08
 
   -0.22672E+08         0.98737E+06         0.00000E+00
    0.98737E+06        -0.49047E+08         0.00000E+00
    0.00000E+00         0.00000E+00        -0.22467E+08
 
   -0.22889E+08         0.92041E+06         0.00000E+00
    0.92041E+06        -0.49419E+08         0.00000E+00
    0.00000E+00         0.00000E+00        -0.22633E+08
 
   -0.23115E+08         0.84591E+06         0.00000E+00
    0.84591E+06        -0.49800E+08         0.00000E+00
    0.00000E+00         0.00000E+00        -0.22801E+08
 
   -0.23348E+08         0.76433E+06         0.00000E+00
    0.76433E+06        -0.50187E+08         0.00000E+00
    0.00000E+00         0.00000E+00        -0.22969E+08
 
   -0.23586E+08         0.67630E+06         0.00000E+00
    0.67630E+06        -0.50575E+08         0.00000E+00
    0.00000E+00         0.00000E+00        -0.23132E+08
 
   -0.23830E+08         0.58246E+06         0.00000E+00
    0.58246E+06        -0.50956E+08         0.00000E+00
    0.00000E+00         0.00000E+00        -0.23285E+08
 
   -0.24079E+08         0.48337E+06         0.00000E+00
    0.48337E+06        -0.51324E+08         0.00000E+00
    0.00000E+00         0.00000E+00        -0.23420E+08
 
   -0.24334E+08         0.37942E+06         0.00000E+00
    0.37942E+06        -0.51670E+08         0.00000E+00
    0.00000E+00         0.00000E+00        -0.23527E+08
 
   -0.24602E+08         0.27158E+06         0.00000E+00
    0.27158E+06        -0.51987E+08         0.00000E+00
    0.00000E+00         0.00000E+00        -0.23597E+08
 
   -0.24891E+08         0.16231E+06         0.00000E+00
    0.16231E+06        -0.52272E+08         0.00000E+00
    0.00000E+00         0.00000E+00        -0.23617E+08
 
   -0.25215E+08         0.54016E+05         0.00000E+00
    0.54016E+05        -0.52529E+08         0.00000E+00
    0.00000E+00         0.00000E+00        -0.23583E+08
 
   -0.11009E+08         0.97816E+05         0.00000E+00
    0.97816E+05        -0.29175E+08         0.00000E+00
    0.00000E+00         0.00000E+00        -0.14646E+08
 
   -0.11761E+08         0.29815E+06         0.00000E+00
    0.29815E+06        -0.29320E+08         0.00000E+00
    0.00000E+00         0.00000E+00        -0.14646E+08
 
   -0.12345E+08         0.50691E+06         0.00000E+00
    0.50691E+06        -0.29610E+08         0.00000E+00
    0.00000E+00         0.00000E+00        -0.14646E+08
 
   -0.12789E+08         0.71925E+06         0.00000E+00
    0.71925E+06        -0.30036E+08         0.00000E+00
    0.00000E+00         0.00000E+00        -0.14646E+08
 
   -0.13129E+08         0.92852E+06         0.00000E+00
    0.92852E+06        -0.30574E+08         0.00000E+00
    0.00000E+00         0.00000E+00        -0.14646E+08
 
   -0.13395E+08         0.11303E+07         0.00000E+00
    0.11303E+07        -0.31192E+08         0.00000E+00
    0.00000E+00         0.00000E+00        -0.14646E+08
 
   -0.13610E+08         0.13218E+07         0.00000E+00
    0.13218E+07        -0.31862E+08         0.00000E+00
    0.00000E+00         0.00000E+00        -0.14646E+08
 
   -0.13791E+08         0.15006E+07         0.00000E+00
    0.15006E+07        -0.32561E+08         0.00000E+00
    0.00000E+00         0.00000E+00        -0.14646E+08
 
   -0.14008E+08         0.16539E+07         0.00000E+00
    0.16539E+07        -0.33208E+08         0.00000E+00
    0.00000E+00         0.00000E+00        -0.14703E+08
 
   -0.14322E+08         0.17685E+07         0.00000E+00
    0.17685E+07        -0.33733E+08         0.00000E+00
    0.00000E+00         0.00000E+00        -0.14870E+08
 
   -0.14652E+08         0.18569E+07         0.00000E+00
    0.18569E+07        -0.34211E+08         0.00000E+00
    0.00000E+00         0.00000E+00        -0.15072E+08
 
   -0.14963E+08         0.19267E+07         0.00000E+00
    0.19267E+07        -0.34673E+08         0.00000E+00
    0.00000E+00         0.00000E+00        -0.15271E+08
 
   -0.15256E+08         0.19796E+07         0.00000E+00
    0.19796E+07        -0.35118E+08         0.00000E+00
    0.00000E+00         0.00000E+00        -0.15466E+08
 
   -0.15529E+08         0.20171E+07         0.00000E+00
    0.20171E+07        -0.35543E+08         0.00000E+00
    0.00000E+00         0.00000E+00        -0.15654E+08
 
   -0.15783E+08         0.20410E+07         0.00000E+00
    0.20410E+07        -0.35949E+08         0.00000E+00
    0.00000E+00         0.00000E+00        -0.15834E+08
 
   -0.16020E+08         0.20528E+07         0.00000E+00
    0.20528E+07        -0.36334E+08         0.00000E+00
    0.00000E+00         0.00000E+00        -0.16007E+08
 
   -0.16239E+08         0.20540E+07         0.00000E+00
    0.20540E+07        -0.36699E+08         0.00000E+00
    0.00000E+00         0.00000E+00        -0.16171E+08
 
   -0.16442E+08         0.20460E+07         0.00000E+00
    0.20460E+07        -0.37045E+08         0.00000E+00
    0.00000E+00         0.00000E+00        -0.16328E+08
 
   -0.16630E+08         0.20301E+07         0.00000E+00
    0.20301E+07        -0.37372E+08         0.00000E+00
    0.00000E+00         0.00000E+00        -0.16477E+08
 
   -0.16805E+08         0.20076E+07         0.00000E+00
    0.20076E+07        -0.37681E+08         0.00000E+00
    0.00000E+00         0.00000E+00        -0.16618E+08
 
   -0.16966E+08         0.19795E+07         0.00000E+00
    0.19795E+07        -0.37973E+08         0.00000E+00
    0.00000E+00         0.00000E+00        -0.16753E+08
 
   -0.17115E+08         0.19468E+07         0.00000E+00
    0.19468E+07        -0.38249E+08         0.00000E+00
    0.00000E+00         0.00000E+00        -0.16881E+08
 
   -0.17254E+08         0.19105E+07         0.00000E+00
    0.19105E+07        -0.38510E+08         0.00000E+00
    0.00000E+00         0.00000E+00        -0.17003E+08
 
   -0.17382E+08         0.18714E+07         0.00000E+00
    0.18714E+07        -0.38756E+08         0.00000E+00
    0.00000E+00         0.00000E+00        -0.17120E+08
 
   -0.17502E+08         0.18301E+07         0.00000E+00
    0.18301E+07        -0.38989E+08         0.00000E+00
    0.00000E+00         0.00000E+00        -0.17231E+08
 
   -0.17613E+08         0.17873E+07         0.00000E+00
    0.17873E+07        -0.39209E+08         0.00000E+00
    0.00000E+00         0.00000E+00        -0.17337E+08
 
   -0.17717E+08         0.17436E+07         0.00000E+00
    0.17436E+07        -0.39419E+08         0.00000E+00
    0.00000E+00         0.00000E+00        -0.17439E+08
 
   -0.17814E+08         0.16994E+07         0.00000E+00
    0.16994E+07        -0.39617E+08         0.00000E+00
    0.00000E+00         0.00000E+00        -0.17536E+08
 
   -0.17905E+08         0.16552E+07         0.00000E+00
    0.16552E+07        -0.39805E+08         0.00000E+00
    0.00000E+00         0.00000E+00        -0.17630E+08
 
   -0.17990E+08         0.16113E+07         0.00000E+00
    0.16113E+07        -0.39984E+08         0.00000E+00
    0.00000E+00         0.00000E+00        -0.17719E+08
 
   -0.18071E+08         0.15681E+07         0.00000E+00
    0.15681E+07        -0.40155E+08         0.00000E+00
    0.00000E+00         0.00000E+00        -0.17806E+08
 
   -0.18147E+08         0.15257E+07         0.00000E+00
    0.15257E+07        -0.40318E+08         0.00000E+00
    0.00000E+00         0.00000E+00        -0.17889E+08
 
   -0.18219E+08         0.14844E+07         0.00000E+00
    0.14844E+07        -0.40473E+08         0.00000E+00
    0.00000E+00         0.00000E+00        -0.17969E+08
 
   -0.18287E+08         0.14444E+07         0.00000E+00
    0.14444E+07        -0.40622E+08         0.00000E+00
    0.00000E+00         0.00000E+00        -0.18047E+08
 
   -0.18352E+08         0.14058E+07         0.00000E+00
    0.14058E+07        -0.40764E+08         0.00000E+00
    0.00000E+00         0.00000E+00        -0.18122E+08
 
   -0.18414E+08         0.13688E+07         0.00000E+00
    0.13688E+07        -0.40901E+08         0.00000E+00
    0.00000E+00         0.00000E+00        -0.18195E+08
 
   -0.18473E+08         0.13334E+07         0.00000E+00
    0.13334E+07        -0.41032E+08         0.00000E+00
    0.00000E+00         0.00000E+00        -0.18265E+08
 
   -0.18530E+08         0.12998E+07         0.00000E+00
    0.12998E+07        -0.41158E+08         0.00000E+00
    0.00000E+00         0.00000E+00        -0.18334E+08
 
   -0.18585E+08         0.12679E+07         0.00000E+00
    0.12679E+07        -0.41280E+08         0.00000E+00
    0.00000E+00         0.00000E+00        -0.18400E+08
 
   -0.18637E+08         0.12379E+07         0.00000E+00
    0.12379E+07        -0.41398E+08         0.00000E+00
    0.00000E+00         0.00000E+00        -0.18465E+08
 
   -0.18688E+08         0.12097E+07         0.00000E+00
    0.12097E+07        -0.41512E+08         0.00000E+00
    0.00000E+00         0.00000E+00        -0.18528E+08
 
   -0.18738E+08         0.11835E+07         0.00000E+00
    0.11835E+07        -0.41623E+08         0.00000E+00
    0.00000E+00         0.00000E+00        -0.18590E+08
 
   -0.18786E+08         0.11591E+07         0.00000E+00
    0.11591E+07        -0.41730E+08         0.00000E+00
    0.00000E+00         0.00000E+00        -0.18651E+08
 
   -0.18832E+08         0.11366E+07         0.00000E+00
    0.11366E+07        -0.41835E+08         0.00000E+00
    0.00000E+00         0.00000E+00        -0.18710E+08
 
   -0.18878E+08         0.11160E+07         0.00000E+00
    0.11160E+07        -0.41938E+08         0.00000E+00
    0.00000E+00         0.00000E+00        -0.18768E+08
 
   -0.18923E+08         0.10974E+07         0.00000E+00
    0.10974E+07        -0.42038E+08         0.00000E+00
    0.00000E+00         0.00000E+00        -0.18825E+08
 
   -0.18967E+08         0.10806E+07         0.00000E+00
    0.10806E+07        -0.42136E+08         0.00000E+00
    0.00000E+00         0.00000E+00        -0.18882E+08
 
   -0.19010E+08         0.10656E+07         0.00000E+00
    0.10656E+07        -0.42233E+08         0.00000E+00
    0.00000E+00         0.00000E+00        -0.18938E+08
 
   -0.19053E+08         0.10525E+07         0.00000E+00
    0.10525E+07        -0.42328E+08         0.00000E+00
    0.00000E+00         0.00000E+00        -0.18993E+08
 
   -0.19096E+08         0.10413E+07         0.00000E+00
    0.10413E+07        -0.42422E+08         0.00000E+00
    0.00000E+00         0.00000E+00        -0.19048E+08
 
   -0.19138E+08         0.10318E+07         0.00000E+00
    0.10318E+07        -0.42516E+08         0.00000E+00
    0.00000E+00         0.00000E+00        -0.19102E+08
 
   -0.19181E+08         0.10241E+07         0.00000E+00
    0.10241E+07        -0.42608E+08         0.00000E+00
    0.00000E+00         0.00000E+00        -0.19156E+08
 
   -0.19223E+08         0.10182E+07         0.00000E+00
    0.10182E+07        -0.42701E+08         0.00000E+00
    0.00000E+00         0.00000E+00        -0.19211E+08
 
   -0.19266E+08         0.10139E+07         0.00000E+00
    0.10139E+07        -0.42793E+08         0.00000E+00
    0.00000E+00         0.00000E+00        -0.19265E+08
 
   -0.19309E+08         0.10113E+07         0.00000E+00
    0.10113E+07        -0.42885E+08         0.00000E+00
    0.00000E+00         0.00000E+00        -0.19319E+08
 
   -0.19352E+08         0.10104E+07         0.00000E+00
    0.10104E+07        -0.42978E+08         0.00000E+00
    0.00000E+00         0.00000E+00        -0.19374E+08
 
   -0.19396E+08         0.10110E+07         0.00000E+00
    0.10110E+07        -0.43071E+08         0.00000E+00
    0.00000E+00         0.00000E+00        -0.19429E+08
 
   -0.19440E+08         0.10132E+07         0.00000E+00
    0.10132E+07        -0.43165E+08         0.00000E+00
    0.00000E+00         0.00000E+00        -0.19484E+08
 
   -0.19485E+08         0.10168E+07         0.00000E+00
    0.10168E+07        -0.43261E+08         0.00000E+00
    0.00000E+00         0.00000E+00        -0.19540E+08
 
   -0.19532E+08         0.10219E+07         0.00000E+00
    0.10219E+07        -0.43357E+08         0.00000E+00
    0.00000E+00         0.00000E+00        -0.19597E+08
 
   -0.19579E+08         0.10283E+07         0.00000E+00
    0.10283E+07        -0.43456E+08         0.00000E+00
    0.00000E+00         0.00000E+00        -0.19654E+08
 
   -0.19628E+08         0.10361E+07         0.00000E+00
    0.10361E+07        -0.43556E+08         0.00000E+00
    0.00000E+00         0.00000E+00        -0.19713E+08
 
   -0.19679E+08         0.10450E+07         0.00000E+00
    0.10450E+07        -0.43659E+08         0.00000E+00
    0.00000E+00         0.00000E+00        -0.19773E+08
 
   -0.19731E+08         0.10550E+07         0.00000E+00
    0.10550E+07        -0.43764E+08         0.00000E+00
    0.00000E+00         0.00000E+00        -0.19834E+08
 
   -0.19785E+08         0.10661E+07         0.00000E+00
    0.10661E+07        -0.43872E+08         0.00000E+00
    0.00000E+00         0.00000E+00        -0.19896E+08
 
   -0.19841E+08         0.10781E+07         0.00000E+00
    0.10781E+07        -0.43984E+08         0.00000E+00
    0.00000E+00         0.00000E+00        -0.19960E+08
 
   -0.19899E+08         0.10908E+07         0.00000E+00
    0.10908E+07        -0.44099E+08         0.00000E+00
    0.00000E+00         0.00000E+00        -0.20026E+08
 
   -0.19960E+08         0.11042E+07         0.00000E+00
    0.11042E+07        -0.44218E+08         0.00000E+00
    0.00000E+00         0.00000E+00        -0.20093E+08
 
   -0.20024E+08         0.11181E+07         0.00000E+00
    0.11181E+07        -0.44341E+08         0.00000E+00
    0.00000E+00         0.00000E+00        -0.20162E+08
 
   -0.20090E+08         0.11322E+07         0.00000E+00
    0.11322E+07        -0.44469E+08         0.00000E+00
    0.00000E+00         0.00000E+00        -0.20234E+08
 
   -0.20161E+08         0.11464E+07         0.00000E+00
    0.11464E+07        -0.44603E+08         0.00000E+00
    0.00000E+00         0.00000E+00        -0.20308E+08
 
   -0.20235E+08         0.11605E+07         0.00000E+00
    0.11605E+07        -0.44743E+08         0.00000E+00
    0.00000E+00         0.00000E+00        -0.20384E+08
 
   -0.20312E+08         0.11742E+07         0.00000E+00
    0.11742E+07        -0.44889E+08         0.00000E+00
    0.00000E+00         0.00000E+00        -0.20463E+08
 
   -0.20395E+08         0.11871E+07         0.00000E+00
    0.11871E+07        -0.45042E+08         0.00000E+00
    0.00000E+00         0.00000E+00        -0.20545E+08
 
   -0.20482E+08         0.11991E+07         0.00000E+00
    0.11991E+07        -0.45203E+08         0.00000E+00
    0.00000E+00         0.00000E+00        -0.20630E+08
 
   -0.20574E+08         0.12097E+07         0.00000E+00
    0.12097E+07        -0.45372E+08         0.00000E+00
    0.00000E+00         0.00000E+00        -0.20719E+08
 
   -0.20672E+08         0.12185E+07         0.00000E+00
    0.12185E+07        -0.45550E+08         0.00000E+00
    0.00000E+00         0.00000E+00        -0.20811E+08
 
   -0.20777E+08         0.12251E+07         0.00000E+00
    0.12251E+07        -0.45738E+08         0.00000E+00
    0.00000E+00         0.00000E+00        -0.20907E+08
 
   -0.20888E+08         0.12291E+07         0.00000E+00
    0.12291E+07        -0.45937E+08         0.00000E+00
    0.00000E+00         0.00000E+00        -0.21007E+08
 
   -0.21006E+08         0.12299E+07         0.00000E+00
    0.12299E+07        -0.46148E+08         0.00000E+00
    0.00000E+00         0.00000E+00        -0.21111E+08
 
   -0.21131E+08         0.12270E+07         0.00000E+00
    0.12270E+07        -0.46371E+08         0.00000E+00
    0.00000E+00         0.00000E+00        -0.21220E+08
 
   -0.21265E+08         0.12199E+07         0.00000E+00
    0.12199E+07        -0.46607E+08         0.00000E+00
    0.00000E+00         0.00000E+00        -0.21334E+08
 
   -0.21407E+08         0.12079E+07         0.00000E+00
    0.12079E+07        -0.46857E+08         0.00000E+00
    0.00000E+00         0.00000E+00        -0.21454E+08
 
   -0.21559E+08         0.11905E+07         0.00000E+00
    0.11905E+07        -0.47122E+08         0.00000E+00
    0.00000E+00         0.00000E+00        -0.21579E+08
 
   -0.21720E+08         0.11670E+07         0.00000E+00
    0.11670E+07        -0.47403E+08         0.00000E+00
    0.00000E+00         0.00000E+00        -0.21710E+08
 
   -0.21891E+08         0.11370E+07         0.00000E+00
    0.11370E+07        -0.47699E+08         0.00000E+00
    0.00000E+00         0.00000E+00        -0.21847E+08
 
   -0.22073E+08         0.10999E+07         0.00000E+00
    0.10999E+07        -0.48012E+08         0.00000E+00
    0.00000E+00         0.00000E+00        -0.21990E+08
 
   -0.22264E+08         0.10554E+07         0.00000E+00
    0.10554E+07        -0.48342E+08         0.00000E+00
    0.00000E+00         0.00000E+00        -0.22139E+08
 
   -0.22466E+08         0.10031E+07         0.00000E+00
    0.10031E+07        -0.48687E+08         0.00000E+00
    0.00000E+00         0.00000E+00        -0.22294E+08
 
   -0.22678E+08         0.94289E+06         0.00000E+00
    0.94289E+06        -0.49047E+08         0.00000E+00
    0.00000E+00         0.00000E+00        -0.22454E+08
 
   -0.22898E+08         0.87494E+06         0.00000E+00
    0.87494E+06        -0.49419E+08         0.00000E+00
    0.00000E+00         0.00000E+00        -0.22618E+08
 
   -0.23128E+08         0.79957E+06         0.00000E+00
    0.79957E+06        -0.49802E+08         0.00000E+00
    0.00000E+00         0.00000E+00        -0.22785E+08
 
   -0.23365E+08         0.71742E+06         0.00000E+00
    0.71742E+06        -0.50190E+08         0.00000E+00
    0.00000E+00         0.00000E+00        -0.22950E+08
 
   -0.23608E+08         0.62937E+06         0.00000E+00
    0.62937E+06        -0.50580E+08         0.00000E+00
    0.00000E+00         0.00000E+00        -0.23112E+08
 
   -0.23858E+08         0.53648E+06         0.00000E+00
    0.53648E+06        -0.50964E+08         0.00000E+00
    0.00000E+00         0.00000E+00        -0.23262E+08
 
   -0.24113E+08         0.43986E+06         0.00000E+00
    0.43986E+06        -0.51335E+08         0.00000E+00
    0.00000E+00         0.00000E+00        -0.23396E+08
 
   -0.24376E+08         0.34067E+06         0.00000E+00
    0.34067E+06        -0.51685E+08         0.00000E+00
    0.00000E+00         0.00000E+00        -0.23502E+08
 
   -0.24651E+08         0.24064E+06         0.00000E+00
    0.24064E+06        -0.52006E+08         0.00000E+00
    0.00000E+00         0.00000E+00        -0.23569E+08
 
   -0.24948E+08         0.14226E+06         0.00000E+00
    0.14226E+06        -0.52295E+08         0.00000E+00
    0.00000E+00         0.00000E+00        -0.23588E+08
 
   -0.25277E+08         0.47058E+05         0.00000E+00
    0.47058E+05        -0.52555E+08         0.00000E+00
    0.00000E+00         0.00000E+00        -0.23553E+08
 
   -0.10831E+08         0.83630E+05         0.00000E+00
    0.83630E+05        -0.29212E+08         0.00000E+00
    0.00000E+00         0.00000E+00        -0.14646E+08
 
   -0.11592E+08         0.25686E+06         0.00000E+00
    0.25686E+06        -0.29358E+08         0.00000E+00
    0.00000E+00         0.00000E+00        -0.14646E+08
 
   -0.12189E+08         0.44254E+06         0.00000E+00
    0.44254E+06        -0.29651E+08         0.00000E+00
    0.00000E+00         0.00000E+00        -0.14646E+08
 
   -0.12650E+08         0.63798E+06         0.00000E+00
    0.63798E+06        -0.30077E+08         0.00000E+00
    0.00000E+00         0.00000E+00        -0.14646E+08
 
   -0.13008E+08         0.83670E+06         0.00000E+00
    0.83670E+06        -0.30614E+08         0.00000E+00
    0.00000E+00         0.00000E+00        -0.14646E+08
 
   -0.13291E+08         0.10330E+07         0.00000E+00
    0.10330E+07        -0.31231E+08         0.00000E+00
    0.00000E+00         0.00000E+00        -0.14646E+08
 
   -0.13522E+08         0.12226E+07         0.00000E+00
    0.12226E+07        -0.31899E+08         0.00000E+00
    0.00000E+00         0.00000E+00        -0.14646E+08
 
   -0.13717E+08         0.14016E+07         0.00000E+00
    0.14016E+07        -0.32596E+08         0.00000E+00
    0.00000E+00         0.00000E+00        -0.14646E+08
 
   -0.13958E+08         0.15555E+07         0.00000E+00
    0.15555E+07        -0.33230E+08         0.00000E+00
    0.00000E+00         0.00000E+00        -0.14712E+08
 
   -0.14289E+08         0.16731E+07         0.00000E+00
    0.16731E+07        -0.33747E+08         0.00000E+00
    0.00000E+00         0.00000E+00        -0.14883E+08
 
   -0.14625E+08         0.17668E+07         0.00000E+00
    0.17668E+07        -0.34225E+08         0.00000E+00
    0.00000E+00         0.00000E+00        -0.15080E+08
 
   -0.14942E+08         0.18416E+07         0.00000E+00
    0.18416E+07        -0.34688E+08         0.00000E+00
    0.00000E+00         0.00000E+00        -0.15275E+08
 
   -0.15239E+08         0.18991E+07         0.00000E+00
    0.18991E+07        -0.35133E+08         0.00000E+00
    0.00000E+00         0.00000E+00        -0.15466E+08
 
   -0.15516E+08         0.19410E+07         0.00000E+00
    0.19410E+07        -0.35558E+08         0.00000E+00
    0.00000E+00         0.00000E+00        -0.15651E+08
 
   -0.15774E+08         0.19687E+07         0.00000E+00
    0.19687E+07        -0.35964E+08         0.00000E+00
    0.00000E+00         0.00000E+00        -0.15829E+08
 
   -0.16014E+08         0.19840E+07         0.00000E+00
    0.19840E+07        -0.36348E+08         0.00000E+00
    0.00000E+00         0.00000E+00        -0.16000E+08
 
   -0.16236E+08         0.19884E+07         0.00000E+00
    0.19884E+07        -0.36713E+08         0.00000E+00
    0.00000E+00         0.00000E+00        -0.16163E+08
 
   -0.16441E+08         0.19833E+07         0.00000E+00
    0.19833E+07        -0.37058E+08         0.00000E+00
    0.00000E+00         0.00000E+00        -0.16318E+08
 
   -0.16631E+08         0.19701E+07         0.00000E+00
    0.19701E+07        -0.37385E+08         0.00000E+00
    0.00000E+00         0.00000E+00        -0.16466E+08
 
   -0.16807E+08         0.19500E+07         0.00000E+00
    0.19500E+07        -0.37693E+08         0.00000E+00
    0.00000E+00         0.00000E+00        -0.16606E+08
 
   -0.16969E+08         0.19241E+07         0.00000E+00
    0.19241E+07        -0.37984E+08         0.00000E+00
    0.00000E+00         0.00000E+00        -0.16740E+08
 
   -0.17120E+08         0.18936E+07         0.00000E+00
    0.18936E+07        -0.38259E+08         0.00000E+00
    0.00000E+00         0.00000E+00        -0.16868E+08
 
   -0.17259E+08         0.18592E+07         0.00000E+00
    0.18592E+07        -0.38519E+08         0.00000E+00
    0.00000E+00         0.00000E+00        -0.16990E+08
 
   -0.17388E+08         0.18219E+07         0.00000E+00
    0.18219E+07        -0.38765E+08         0.00000E+00
    0.00000E+00         0.00000E+00        -0.17106E+08
 
   -0.17508E+08         0.17823E+07         0.00000E+00
    0.17823E+07        -0.38997E+08         0.00000E+00
    0.00000E+00         0.00000E+00        -0.17217E+08
 
   -0.17619E+08         0.17412E+07         0.00000E+00
    0.17412E+07        -0.39217E+08         0.00000E+00
    0.00000E+00         0.00000E+00        -0.17324E+08
 
   -0.17724E+08         0.16990E+07         0.00000E+00
    0.16990E+07        -0.39426E+08         0.00000E+00
    0.00000E+00         0.00000E+00        -0.17425E+08
 
   -0.17821E+08         0.16563E+07         0.00000E+00
    0.16563E+07        -0.39624E+08         0.00000E+00
    0.00000E+00         0.00000E+00        -0.17523E+08
 
   -0.17912E+08         0.16135E+07         0.00000E+00
    0.16135E+07        -0.39812E+08         0.00000E+00
    0.00000E+00         0.00000E+00        -0.17617E+08
 
   -0.17997E+08         0.15710E+07         0.00000E+00
    0.15710E+07        -0.39991E+08         0.00000E+00
    0.00000E+00         0.00000E+00        -0.17707E+08
 
   -0.18078E+08         0.15290E+07         0.00000E+00
    0.15290E+07        -0.40161E+08         0.00000E+00
    0.00000E+00         0.00000E+00        -0.17794E+08
 
   -0.18154E+08         0.14878E+07         0.00000E+00
    0.14878E+07        -0.40323E+08         0.00000E+00
    0.00000E+00         0.00000E+00        -0.17878E+08
 
   -0.18225E+08         0.14476E+07         0.00000E+00
    0.14476E+07        -0.40478E+08         0.00000E+00
    0.00000E+00         0.00000E+00        -0.17958E+08
 
   -0.18293E+08         0.14087E+07         0.00000E+00
    0.14087E+07        -0.40626E+08         0.00000E+00
    0.00000E+00         0.00000E+00        -0.18036E+08
 
   -0.18358E+08         0.13712E+07         0.00000E+00
    0.13712E+07        -0.40769E+08         0.00000E+00
    0.00000E+00         0.00000E+00        -0.18112E+08
 
   -0.18420E+08         0.13351E+07         0.00000E+00
    0.13351E+07        -0.40905E+08         0.00000E+00
    0.00000E+00         0.00000E+00        -0.18185E+08
 
   -0.18479E+08         0.13007E+07         0.00000E+00
    0.13007E+07        -0.41036E+08         0.00000E+00
    0.00000E+00         0.00000E+00        -0.18256E+08
 
   -0.18535E+08         0.12679E+07         0.00000E+00
    0.12679E+07        -0.41162E+08         0.00000E+00
    0.00000E+00         0.00000E+00        -0.18325E+08
 
   -0.18589E+08         0.12368E+07         0.00000E+00
    0.12368E+07        -0.41284E+08         0.00000E+00
    0.00000E+00         0.00000E+00        -0.18392E+08
 
   -0.18642E+08         0.12075E+07         0.00000E+00
    0.12075E+07        -0.41401E+08         0.00000E+00
    0.00000E+00         0.00000E+00        -0.18457E+08
 
   -0.18692E+08         0.11801E+07         0.00000E+00
    0.11801E+07        -0.41515E+08         0.00000E+00
    0.00000E+00         0.00000E+00        -0.18521E+08
 
   -0.18741E+08         0.11544E+07         0.00000E+00
    0.11544E+07        -0.41626E+08         0.00000E+00
    0.00000E+00         0.00000E+00        -0.18583E+08
 
   -0.18789E+08         0.11307E+07         0.00000E+00
    0.11307E+07        -0.41733E+08         0.00000E+00
    0.00000E+00         0.00000E+00        -0.18644E+08
 
   -0.18835E+08         0.11087E+07         0.00000E+00
    0.11087E+07        -0.41838E+08         0.00000E+00
    0.00000E+00         0.00000E+00        -0.18704E+08
 
   -0.18881E+08         0.10886E+07         0.00000E+00
    0.10886E+07        -0.41940E+08         0.00000E+00
    0.00000E+00         0.00000E+00        -0.18763E+08
 
   -0.18925E+08         0.10704E+07         0.00000E+00
    0.10704E+07        -0.42040E+08         0.00000E+00
    0.00000E+00         0.00000E+00        -0.18821E+08
 
   -0.18969E+08         0.10540E+07         0.00000E+00
    0.10540E+07        -0.42138E+08         0.00000E+00
    0.00000E+00         0.00000E+00        -0.18877E+08
 
   -0.19012E+08         0.10394E+07         0.00000E+00
    0.10394E+07        -0.42235E+08         0.00000E+00
    0.00000E+00         0.00000E+00        -0.18934E+08
 
   -0.19054E+08         0.10266E+07         0.00000E+00
    0.10266E+07        -0.42330E+08         0.00000E+00
    0.00000E+00         0.00000E+00        -0.18989E+08
 
   -0.19096E+08         0.10156E+07         0.00000E+00
    0.10156E+07        -0.42424E+08         0.00000E+00
    0.00000E+00         0.00000E+00        -0.19045E+08
 
   -0.19138E+08         0.10063E+07         0.00000E+00
    0.10063E+07        -0.42517E+08         0.00000E+00
    0.00000E+00         0.00000E+00        -0.19099E+08
 
   -0.19180E+08         0.99880E+06         0.00000E+00
    0.99880E+06        -0.42610E+08         0.00000E+00
    0.00000E+00         0.00000E+00        -0.19154E+08
 
   -0.19222E+08         0.99296E+06         0.00000E+00
    0.99296E+06        -0.42702E+08         0.00000E+00
    0.00000E+00         0.00000E+00        -0.19209E+08
 
   -0.19264E+08         0.98877E+06         0.00000E+00
    0.98877E+06        -0.42794E+08         0.00000E+00
    0.00000E+00         0.00000E+00        -0.19263E+08
 
   -0.19307E+08         0.98620E+06         0.00000E+00
    0.98620E+06        -0.42886E+08         0.00000E+00
    0.00000E+00         0.00000E+00        -0.19318E+08
 
   -0.19349E+08         0.98522E+06         0.00000E+00
    0.98522E+06        -0.42979E+08         0.00000E+00
    0.00000E+00         0.00000E+00        -0.19373E+08
 
   -0.19393E+08         0.98578E+06         0.00000E+00
    0.98578E+06        -0.43072E+08         0.00000E+00
    0.00000E+00         0.00000E+00        -0.19428E+08
 
   -0.19437E+08         0.98783E+06         0.00000E+00
    0.98783E+06        -0.43166E+08         0.00000E+00
    0.00000E+00         0.00000E+00        -0.19484E+08
 
   -0.19482E+08         0.99133E+06         0.00000E+00
    0.99133E+06        -0.43261E+08         0.00000E+00
    0.00000E+00         0.00000E+00        -0.19540E+08
 
   -0.19528E+08         0.99621E+06         0.00000E+00
    0.99621E+06        -0.43358E+08         0.00000E+00
    0.00000E+00         0.00000E+00        -0.19597E+08
 
   -0.19575E+08         0.10024E+07         0.00000E+00
    0.10024E+07        -0.43456E+08         0.00000E+00
    0.00000E+00         0.00000E+00        -0.19655E+08
 
   -0.19623E+08         0.10099E+07         0.00000E+00
    0.10099E+07        -0.43557E+08         0.00000E+00
    0.00000E+00         0.00000E+00        -0.19714E+08
 
   -0.19673E+08         0.10185E+07         0.00000E+00
    0.10185E+07        -0.43659E+08         0.00000E+00
    0.00000E+00         0.00000E+00        -0.19774E+08
 
   -0.19725E+08         0.10282E+07         0.00000E+00
    0.10282E+07        -0.43764E+08         0.00000E+00
    0.00000E+00         0.00000E+00        -0.19835E+08
 
   -0.19778E+08         0.10389E+07         0.00000E+00
    0.10389E+07        -0.43872E+08         0.00000E+00
    0.00000E+00         0.00000E+00        -0.19898E+08
 
   -0.19834E+08         0.10504E+07         0.00000E+00
    0.10504E+07        -0.43984E+08         0.00000E+00
    0.00000E+00         0.00000E+00        -0.19962E+08
 
   -0.19892E+08         0.10627E+07         0.00000E+00
    0.10627E+07        -0.44099E+08         0.00000E+00
    0.00000E+00         0.00000E+00        -0.20027E+08
 
   -0.19953E+08         0.10756E+07         0.00000E+00
    0.10756E+07        -0.44218E+08         0.00000E+00
    0.00000E+00         0.00000E+00        -0.20095E+08
 
   -0.20016E+08         0.10890E+07         0.00000E+00
    0.10890E+07        -0.44341E+08         0.00000E+00
    0.00000E+00         0.00000E+00        -0.20164E+08
 
   -0.20082E+08         0.11026E+07         0.00000E+00
    0.11026E+07        -0.44469E+08         0.00000E+00
    0.00000E+00         0.00000E+00        -0.20236E+08
 
   -0.20152E+08         0.11163E+07         0.00000E+00
    0.11163E+07        -0.44603E+08         0.00000E+00
    0.00000E+00         0.00000E+00        -0.20310E+08
 
   -0.20226E+08         0.11298E+07         0.00000E+00
    0.11298E+07        -0.44742E+08         0.00000E+00
    0.00000E+00         0.00000E+00        -0.20386E+08
 
   -0.20304E+08         0.11428E+07         0.00000E+00
    0.11428E+07        -0.44888E+08         0.00000E+00
    0.00000E+00         0.00000E+00        -0.20465E+08
 
   -0.20386E+08         0.11552E+07         0.00000E+00
    0.11552E+07        -0.45041E+08         0.00000E+00
    0.00000E+00         0.00000E+00        -0.20547E+08
 
   -0.20473E+08         0.11666E+07         0.00000E+00
    0.11666E+07        -0.45202E+08         0.00000E+00
    0.00000E+00         0.00000E+00        -0.20632E+08
 
   -0.20565E+08         0.11765E+07         0.00000E+00
    0.11765E+07        -0.45371E+08         0.00000E+00
    0.00000E+00         0.00000E+00        -0.20720E+08
 
   -0.20663E+08         0.11847E+07         0.00000E+00
    0.11847E+07        -0.45549E+08         0.00000E+00
    0.00000E+00         0.00000E+00        -0.20812E+08
 
   -0.20768E+08         0.11907E+07         0.00000E+00
    0.11907E+07        -0.45737E+08         0.00000E+00
    0.00000E+00         0.00000E+00        -0.20907E+08
 
   -0.20879E+08         0.11940E+07         0.00000E+00
    0.11940E+07        -0.45936E+08         0.00000E+00
    0.00000E+00         0.00000E+00        -0.21007E+08
 
   -0.20997E+08         0.11942E+07         0.00000E+00
    0.11942E+07        -0.46146E+08         0.00000E+00
    0.00000E+00         0.00000E+00        -0.21111E+08
 
   -0.21123E+08         0.11906E+07         0.00000E+00
    0.11906E+07        -0.46369E+08         0.00000E+00
    0.00000E+00         0.00000E+00        -0.21219E+08
 
   -0.21258E+08         0.11828E+07         0.00000E+00
    0.11828E+07        -0.46605E+08         0.00000E+00
    0.00000E+00         0.00000E+00        -0.21332E+08
 
   -0.21401E+08         0.11701E+07         0.00000E+00
    0.11701E+07        -0.46855E+08         0.00000E+00
    0.00000E+00         0.00000E+00        -0.21451E+08
 
   -0.21554E+08         0.11520E+07         0.00000E+00
    0.11520E+07        -0.47120E+08         0.00000E+00
    0.00000E+00         0.00000E+00        -0.21575E+08
 
   -0.21716E+08         0.11278E+07         0.00000E+00
    0.11278E+07        -0.47400E+08         0.00000E+00
    0.00000E+00         0.00000E+00        -0.21705E+08
 
   -0.21888E+08         0.10970E+07         0.00000E+00
    0.10970E+07        -0.47697E+08         0.00000E+00
    0.00000E+00         0.00000E+00        -0.21840E+08
 
   -0.22071E+08         0.10591E+07         0.00000E+00
    0.10591E+07        -0.48010E+08         0.00000E+00
    0.00000E+00         0.00000E+00        -0.21982E+08
 
   -0.22265E+08         0.10137E+07         0.00000E+00
    0.10137E+07        -0.48340E+08         0.00000E+00
    0.00000E+00         0.00000E+00        -0.22130E+08
 
   -0.22469E+08         0.96041E+06         0.00000E+00
    0.96041E+06        -0.48686E+08         0.00000E+00
    0.00000E+00         0.00000E+00        -0.22283E+08
 
   -0.22683E+08         0.89929E+06         0.00000E+00
    0.89929E+06        -0.49046E+08         0.00000E+00
    0.00000E+00         0.00000E+00        -0.22441E+08
 
   -0.22908E+08         0.83043E+06         0.00000E+00
    0.83043E+06        -0.49419E+08         0.00000E+00
    0.00000E+00         0.00000E+00        -0.22604E+08
 
   -0.23141E+08         0.75430E+06         0.00000E+00
    0.75430E+06        -0.49803E+08         0.00000E+00
    0.00000E+00         0.00000E+00        -0.22768E+08
 
   -0.23382E+08         0.67168E+06         0.00000E+00
    0.67168E+06        -0.50194E+08         0.00000E+00
    0.00000E+00         0.00000E+00        -0.22932E+08
 
   -0.23631E+08         0.58372E+06         0.00000E+00
    0.58372E+06        -0.50586E+08         0.00000E+00
    0.00000E+00         0.00000E+00        -0.23091E+08
 
   -0.23886E+08         0.49188E+06         0.00000E+00
    0.49188E+06        -0.50973E+08         0.00000E+00
    0.00000E+00         0.00000E+00        -0.23241E+08
 
   -0.24148E+08         0.39784E+06         0.00000E+00
    0.39784E+06        -0.51347E+08         0.00000E+00
    0.00000E+00         0.00000E+00        -0.23372E+08
 
   -0.24418E+08         0.30347E+06         0.00000E+00
    0.30347E+06        -0.51701E+08         0.00000E+00
    0.00000E+00         0.00000E+00        -0.23476E+08
 
   -0.24701E+08         0.21110E+06         0.00000E+00
    0.21110E+06        -0.52026E+08         0.00000E+00
    0.00000E+00         0.00000E+00        -0.23543E+08
 
   -0.25005E+08         0.12322E+06         0.00000E+00
    0.12322E+06        -0.52319E+08         0.00000E+00
    0.00000E+00         0.00000E+00        -0.23561E+08
 
   -0.25339E+08         0.40461E+05         0.00000E+00
    0.40461E+05        -0.52581E+08         0.00000E+00
    0.00000E+00         0.00000E+00        -0.23525E+08
 
   -0.10659E+08         0.70167E+05         0.00000E+00
    0.70167E+05        -0.29243E+08         0.00000E+00
    0.00000E+00         0.00000E+00        -0.14646E+08
 
   -0.11426E+08         0.21763E+06         0.00000E+00
    0.21763E+06        -0.29392E+08         0.00000E+00
    0.00000E+00         0.00000E+00        -0.14646E+08
 
   -0.12036E+08         0.38119E+06         0.00000E+00
    0.38119E+06        -0.29687E+08         0.00000E+00
    0.00000E+00         0.00000E+00        -0.14646E+08
 
   -0.12512E+08         0.56014E+06         0.00000E+00
    0.56014E+06        -0.30116E+08         0.00000E+00
    0.00000E+00         0.00000E+00        -0.14646E+08
 
   -0.12887E+08         0.74834E+06         0.00000E+00
    0.74834E+06        -0.30653E+08         0.00000E+00
    0.00000E+00         0.00000E+00        -0.14646E+08
 
   -0.13186E+08         0.93904E+06         0.00000E+00
    0.93904E+06        -0.31269E+08         0.00000E+00
    0.00000E+00         0.00000E+00        -0.14646E+08
 
   -0.13434E+08         0.11264E+07         0.00000E+00
    0.11264E+07        -0.31936E+08         0.00000E+00
    0.00000E+00         0.00000E+00        -0.14646E+08
 
   -0.13643E+08         0.13054E+07         0.00000E+00
    0.13054E+07        -0.32630E+08         0.00000E+00
    0.00000E+00         0.00000E+00        -0.14646E+08
 
   -0.13908E+08         0.14596E+07         0.00000E+00
    0.14596E+07        -0.33251E+08         0.00000E+00
    0.00000E+00         0.00000E+00        -0.14721E+08
 
   -0.14257E+08         0.15801E+07         0.00000E+00
    0.15801E+07        -0.33759E+08         0.00000E+00
    0.00000E+00         0.00000E+00        -0.14897E+08
 
   -0.14599E+08         0.16786E+07         0.00000E+00
    0.16786E+07        -0.34239E+08         0.00000E+00
    0.00000E+00         0.00000E+00        -0.15089E+08
 
   -0.14922E+08         0.17581E+07         0.00000E+00
    0.17581E+07        -0.34703E+08         0.00000E+00
    0.00000E+00         0.00000E+00        -0.15280E+08
 
   -0.15223E+08         0.18200E+07         0.00000E+00
    0.18200E+07        -0.35148E+08         0.00000E+00
    0.00000E+00         0.00000E+00        -0.15468E+08
 
   -0.15504E+08         0.18659E+07         0.00000E+00
    0.18659E+07        -0.35573E+08         0.00000E+00
    0.00000E+00         0.00000E+00        -0.15650E+08
 
   -0.15766E+08         0.18974E+07         0.00000E+00
    0.18974E+07        -0.35978E+08         0.00000E+00
    0.00000E+00         0.00000E+00        -0.15825E+08
 
   -0.16008E+08         0.19160E+07         0.00000E+00
    0.19160E+07        -0.36363E+08         0.00000E+00
    0.00000E+00         0.00000E+00        -0.15993E+08
 
   -0.16233E+08         0.19234E+07         0.00000E+00
    0.19234E+07        -0.36727E+08         0.00000E+00
    0.00000E+00         0.00000E+00        -0.16154E+08
 
   -0.16441E+08         0.19211E+07         0.00000E+00
    0.19211E+07        -0.37072E+08         0.00000E+00
    0.00000E+00         0.00000E+00        -0.16308E+08
 
   -0.16632E+08         0.19104E+07         0.00000E+00
    0.19104E+07        -0.37397E+08         0.00000E+00
    0.00000E+00         0.00000E+00        -0.16455E+08
 
   -0.16810E+08         0.18926E+07         0.00000E+00
    0.18926E+07        -0.37705E+08         0.00000E+00
    0.00000E+00         0.00000E+00        -0.16595E+08
 
   -0.16973E+08         0.18689E+07         0.00000E+00
    0.18689E+07        -0.37996E+08         0.00000E+00
    0.00000E+00         0.00000E+00        -0.16728E+08
 
   -0.17124E+08         0.18404E+07         0.00000E+00
    0.18404E+07        -0.38270E+08         0.00000E+00
    0.00000E+00         0.00000E+00        -0.16855E+08
 
   -0.17264E+08         0.18079E+07         0.00000E+00
    0.18079E+07        -0.38529E+08         0.00000E+00
    0.00000E+00         0.00000E+00        -0.16977E+08
 
   -0.17394E+08         0.17724E+07         0.00000E+00
    0.17724E+07        -0.38774E+08         0.00000E+00
    0.00000E+00         0.00000E+00        -0.17093E+08
 
   -0.17515E+08         0.17345E+07         0.00000E+00
    0.17345E+07        -0.39006E+08         0.00000E+00
    0.00000E+00         0.00000E+00        -0.17204E+08
 
   -0.17626E+08         0.16950E+07         0.00000E+00
    0.16950E+07        -0.39226E+08         0.00000E+00
    0.00000E+00         0.00000E+00        -0.17310E+08
 
   -0.17731E+08         0.16543E+07         0.00000E+00
    0.16543E+07        -0.39434E+08         0.00000E+00
    0.00000E+00         0.00000E+00        -0.17412E+08
 
   -0.17828E+08         0.16131E+07         0.00000E+00
    0.16131E+07        -0.39631E+08         0.00000E+00
    0.00000E+00         0.00000E+00        -0.17510E+08
 
   -0.17919E+08         0.15716E+07         0.00000E+00
    0.15716E+07        -0.39818E+08         0.00000E+00
    0.00000E+00         0.00000E+00        -0.17604E+08
 
   -0.18005E+08         0.15304E+07         0.00000E+00
    0.15304E+07        -0.39997E+08         0.00000E+00
    0.00000E+00         0.00000E+00        -0.17695E+08
 
   -0.18085E+08         0.14896E+07         0.00000E+00
    0.14896E+07        -0.40167E+08         0.00000E+00
    0.00000E+00         0.00000E+00        -0.17782E+08
 
   -0.18161E+08         0.14496E+07         0.00000E+00
    0.14496E+07        -0.40329E+08         0.00000E+00
    0.00000E+00         0.00000E+00        -0.17866E+08
 
   -0.18232E+08         0.14106E+07         0.00000E+00
    0.14106E+07        -0.40483E+08         0.00000E+00
    0.00000E+00         0.00000E+00        -0.17948E+08
 
   -0.18300E+08         0.13728E+07         0.00000E+00
    0.13728E+07        -0.40631E+08         0.00000E+00
    0.00000E+00         0.00000E+00        -0.18026E+08
 
   -0.18364E+08         0.13363E+07         0.00000E+00
    0.13363E+07        -0.40773E+08         0.00000E+00
    0.00000E+00         0.00000E+00        -0.18102E+08
 
   -0.18426E+08         0.13012E+07         0.00000E+00
    0.13012E+07        -0.40909E+08         0.00000E+00
    0.00000E+00         0.00000E+00        -0.18176E+08
 
   -0.18484E+08         0.12677E+07         0.00000E+00
    0.12677E+07        -0.41040E+08         0.00000E+00
    0.00000E+00         0.00000E+00        -0.18247E+08
 
   -0.18540E+08         0.12357E+07         0.00000E+00
    0.12357E+07        -0.41166E+08         0.00000E+00
    0.00000E+00         0.00000E+00        -0.18317E+08
 
   -0.18594E+08         0.12055E+07         0.00000E+00
    0.12055E+07        -0.41287E+08         0.00000E+00
    0.00000E+00         0.00000E+00        -0.18384E+08
 
   -0.18646E+08         0.11770E+07         0.00000E+00
    0.11770E+07        -0.41404E+08         0.00000E+00
    0.00000E+00         0.00000E+00        -0.18450E+08
 
   -0.18696E+08         0.11502E+07         0.00000E+00
    0.11502E+07        -0.41518E+08         0.00000E+00
    0.00000E+00         0.00000E+00        -0.18514E+08
 
   -0.18745E+08         0.11252E+07         0.00000E+00
    0.11252E+07        -0.41628E+08         0.00000E+00
    0.00000E+00         0.00000E+00        -0.18577E+08
 
   -0.18792E+08         0.11020E+07         0.00000E+00
    0.11020E+07        -0.41736E+08         0.00000E+00
    0.00000E+00         0.00000E+00        -0.18638E+08
 
   -0.18838E+08         0.10806E+07         0.00000E+00
    0.10806E+07        -0.41840E+08         0.00000E+00
    0.00000E+00         0.00000E+00        -0.18698E+08
 
   -0.18883E+08         0.10611E+07         0.00000E+00
    0.10611E+07        -0.41942E+08         0.00000E+00
    0.00000E+00         0.00000E+00        -0.18758E+08
 
   -0.18927E+08         0.10433E+07         0.00000E+00
    0.10433E+07        -0.42042E+08         0.00000E+00
    0.00000E+00         0.00000E+00        -0.18816E+08
 
   -0.18970E+08         0.10273E+07         0.00000E+00
    0.10273E+07        -0.42140E+08         0.00000E+00
    0.00000E+00         0.00000E+00        -0.18873E+08
 
   -0.19013E+08         0.10130E+07         0.00000E+00
    0.10130E+07        -0.42237E+08         0.00000E+00
    0.00000E+00         0.00000E+00        -0.18930E+08
 
   -0.19055E+08         0.10005E+07         0.00000E+00
    0.10005E+07        -0.42332E+08         0.00000E+00
    0.00000E+00         0.00000E+00        -0.18986E+08
 
   -0.19096E+08         0.98975E+06         0.00000E+00
    0.98975E+06        -0.42426E+08         0.00000E+00
    0.00000E+00         0.00000E+00        -0.19042E+08
 
   -0.19138E+08         0.98069E+06         0.00000E+00
    0.98069E+06        -0.42519E+08         0.00000E+00
    0.00000E+00         0.00000E+00        -0.19097E+08
 
   -0.19179E+08         0.97331E+06         0.00000E+00
    0.97331E+06        -0.42611E+08         0.00000E+00
    0.00000E+00         0.00000E+00        -0.19152E+08
 
   -0.19221E+08         0.96757E+06         0.00000E+00
    0.96757E+06        -0.42703E+08         0.00000E+00
    0.00000E+00         0.00000E+00        -0.19207E+08
 
   -0.19263E+08         0.96345E+06         0.00000E+00
    0.96345E+06        -0.42795E+08         0.00000E+00
    0.00000E+00         0.00000E+00        -0.19262E+08
 
   -0.19305E+08         0.96091E+06         0.00000E+00
    0.96091E+06        -0.42887E+08         0.00000E+00
    0.00000E+00         0.00000E+00        -0.19317E+08
 
   -0.19347E+08         0.95990E+06         0.00000E+00
    0.95990E+06        -0.42980E+08         0.00000E+00
    0.00000E+00         0.00000E+00        -0.19372E+08
 
   -0.19390E+08         0.96040E+06         0.00000E+00
    0.96040E+06        -0.43073E+08         0.00000E+00
    0.00000E+00         0.00000E+00        -0.19427E+08
 
   -0.19434E+08         0.96234E+06         0.00000E+00
    0.96234E+06        -0.43167E+08         0.00000E+00
    0.00000E+00         0.00000E+00        -0.19483E+08
 
   -0.19478E+08         0.96569E+06         0.00000E+00
    0.96569E+06        -0.43262E+08         0.00000E+00
    0.00000E+00         0.00000E+00        -0.19540E+08
 
   -0.19524E+08         0.97037E+06         0.00000E+00
    0.97037E+06        -0.43359E+08         0.00000E+00
    0.00000E+00         0.00000E+00        -0.19597E+08
 
   -0.19570E+08         0.97635E+06         0.00000E+00
    0.97635E+06        -0.43457E+08         0.00000E+00
    0.00000E+00         0.00000E+00        -0.19656E+08
 
   -0.19618E+08         0.98353E+06         0.00000E+00
    0.98353E+06        -0.43557E+08         0.00000E+00
    0.00000E+00         0.00000E+00        -0.19715E+08
 
   -0.19668E+08         0.99184E+06         0.00000E+00
    0.99184E+06        -0.43660E+08         0.00000E+00
    0.00000E+00         0.00000E+00        -0.19775E+08
 
   -0.19719E+08         0.10012E+07         0.00000E+00
    0.10012E+07        -0.43765E+08         0.00000E+00
    0.00000E+00         0.00000E+00        -0.19836E+08
 
   -0.19772E+08         0.10115E+07         0.00000E+00
    0.10115E+07        -0.43873E+08         0.00000E+00
    0.00000E+00         0.00000E+00        -0.19899E+08
 
   -0.19828E+08         0.10227E+07         0.00000E+00
    0.10227E+07        -0.43984E+08         0.00000E+00
    0.00000E+00         0.00000E+00        -0.19963E+08
 
   -0.19885E+08         0.10345E+07         0.00000E+00
    0.10345E+07        -0.44099E+08         0.00000E+00
    0.00000E+00         0.00000E+00        -0.20029E+08
 
   -0.19945E+08         0.10470E+07         0.00000E+00
    0.10470E+07        -0.44217E+08         0.00000E+00
    0.00000E+00         0.00000E+00        -0.20097E+08
 
   -0.20008E+08         0.10598E+07         0.00000E+00
    0.10598E+07        -0.44341E+08         0.00000E+00
    0.00000E+00         0.00000E+00        -0.20167E+08
 
   -0.20075E+08         0.10729E+07         0.00000E+00
    0.10729E+07        -0.44469E+08         0.00000E+00
    0.00000E+00         0.00000E+00        -0.20238E+08
 
   -0.20144E+08         0.10861E+07         0.00000E+00
    0.10861E+07        -0.44602E+08         0.00000E+00
    0.00000E+00         0.00000E+00        -0.20312E+08
 
   -0.20218E+08         0.10990E+07         0.00000E+00
    0.10990E+07        -0.44742E+08         0.00000E+00
    0.00000E+00         0.00000E+00        -0.20388E+08
 
   -0.20295E+08         0.11115E+07         0.00000E+00
    0.11115E+07        -0.44888E+08         0.00000E+00
    0.00000E+00         0.00000E+00        -0.20467E+08
 
   -0.20377E+08         0.11233E+07         0.00000E+00
    0.11233E+07        -0.45040E+08         0.00000E+00
    0.00000E+00         0.00000E+00        -0.20549E+08
 
   -0.20464E+08         0.11341E+07         0.00000E+00
    0.11341E+07        -0.45201E+08         0.00000E+00
    0.00000E+00         0.00000E+00        -0.20634E+08
 
   -0.20556E+08         0.11434E+07         0.00000E+00
    0.11434E+07        -0.45370E+08         0.00000E+00
    0.00000E+00         0.00000E+00        -0.20722E+08
 
   -0.20654E+08         0.11510E+07         0.00000E+00
    0.11510E+07        -0.45548E+08         0.00000E+00
    0.00000E+00         0.00000E+00        -0.20813E+08
 
   -0.20759E+08         0.11564E+07         0.00000E+00
    0.11564E+07        -0.45736E+08         0.00000E+00
    0.00000E+00         0.00000E+00        -0.20908E+08
 
   -0.20870E+08         0.11591E+07         0.00000E+00
    0.11591E+07        -0.45934E+08         0.00000E+00
    0.00000E+00         0.00000E+00        -0.21007E+08
 
   -0.20989E+08         0.11587E+07         0.00000E+00
    0.11587E+07        -0.46144E+08         0.00000E+00
    0.00000E+00         0.00000E+00        -0.21110E+08
 
   -0.21115E+08         0.11545E+07         0.00000E+00
    0.11545E+07        -0.46367E+08         0.00000E+00
    0.00000E+00         0.00000E+00        -0.21218E+08
 
   -0.21250E+08         0.11460E+07         0.00000E+00
    0.11460E+07        -0.46603E+08         0.00000E+00
    0.00000E+00         0.00000E+00        -0.21330E+08
 
   -0.21394E+08         0.11327E+07         0.00000E+00
    0.11327E+07        -0.46852E+08         0.00000E+00
    0.00000E+00         0.00000E+00        -0.21448E+08
 
   -0.21548E+08         0.11139E+07         0.00000E+00
    0.11139E+07        -0.47117E+08         0.00000E+00
    0.00000E+00         0.00000E+00        -0.21571E+08
 
   -0.21711E+08         0.10891E+07         0.00000E+00
    0.10891E+07        -0.47398E+08         0.00000E+00
    0.00000E+00         0.00000E+00        -0.21699E+08
 
   -0.21885E+08         0.10575E+07         0.00000E+00
    0.10575E+07        -0.47695E+08         0.00000E+00
    0.00000E+00         0.00000E+00        -0.21834E+08
 
   -0.22070E+08         0.10189E+07         0.00000E+00
    0.10189E+07        -0.48008E+08         0.00000E+00
    0.00000E+00         0.00000E+00        -0.21974E+08
 
   -0.22266E+08         0.97263E+06         0.00000E+00
    0.97263E+06        -0.48338E+08         0.00000E+00
    0.00000E+00         0.00000E+00        -0.22120E+08
 
   -0.22472E+08         0.91855E+06         0.00000E+00
    0.91855E+06        -0.48684E+08         0.00000E+00
    0.00000E+00         0.00000E+00        -0.22272E+08
 
   -0.22690E+08         0.85658E+06         0.00000E+00
    0.85658E+06        -0.49045E+08         0.00000E+00
    0.00000E+00         0.00000E+00        -0.22428E+08
 
   -0.22917E+08         0.78692E+06         0.00000E+00
    0.78692E+06        -0.49419E+08         0.00000E+00
    0.00000E+00         0.00000E+00        -0.22589E+08
 
   -0.23154E+08         0.71012E+06         0.00000E+00
    0.71012E+06        -0.49805E+08         0.00000E+00
    0.00000E+00         0.00000E+00        -0.22752E+08
 
   -0.23400E+08         0.62712E+06         0.00000E+00
    0.62712E+06        -0.50197E+08         0.00000E+00
    0.00000E+00         0.00000E+00        -0.22914E+08
 
   -0.23654E+08         0.53935E+06         0.00000E+00
    0.53935E+06        -0.50591E+08         0.00000E+00
    0.00000E+00         0.00000E+00        -0.23071E+08
 
   -0.23915E+08         0.44865E+06         0.00000E+00
    0.44865E+06        -0.50981E+08         0.00000E+00
    0.00000E+00         0.00000E+00        -0.23219E+08
 
   -0.24184E+08         0.35725E+06         0.00000E+00
    0.35725E+06        -0.51359E+08         0.00000E+00
    0.00000E+00         0.00000E+00        -0.23349E+08
 
   -0.24461E+08         0.26769E+06         0.00000E+00
    0.26769E+06        -0.51717E+08         0.00000E+00
    0.00000E+00         0.00000E+00        -0.23452E+08
 
   -0.24751E+08         0.18282E+06         0.00000E+00
    0.18282E+06        -0.52047E+08         0.00000E+00
    0.00000E+00         0.00000E+00        -0.23518E+08
 
   -0.25061E+08         0.10504E+06         0.00000E+00
    0.10504E+06        -0.52345E+08         0.00000E+00
    0.00000E+00         0.00000E+00        -0.23536E+08
 
   -0.25400E+08         0.34168E+05         0.00000E+00
    0.34168E+05        -0.52609E+08         0.00000E+00
    0.00000E+00         0.00000E+00        -0.23500E+08
 
   -0.10491E+08         0.57322E+05         0.00000E+00
    0.57322E+05        -0.29268E+08         0.00000E+00
    0.00000E+00         0.00000E+00        -0.14646E+08
 
   -0.11264E+08         0.18019E+06         0.00000E+00
    0.18019E+06        -0.29420E+08         0.00000E+00
    0.00000E+00         0.00000E+00        -0.14646E+08
 
   -0.11884E+08         0.32253E+06         0.00000E+00
    0.32253E+06        -0.29720E+08         0.00000E+00
    0.00000E+00         0.00000E+00        -0.14646E+08
 
   -0.12376E+08         0.48547E+06         0.00000E+00
    0.48547E+06        -0.30151E+08         0.00000E+00
    0.00000E+00         0.00000E+00        -0.14646E+08
 
   -0.12766E+08         0.66328E+06         0.00000E+00
    0.66328E+06        -0.30690E+08         0.00000E+00
    0.00000E+00         0.00000E+00        -0.14646E+08
 
   -0.13081E+08         0.84826E+06         0.00000E+00
    0.84826E+06        -0.31307E+08         0.00000E+00
    0.00000E+00         0.00000E+00        -0.14646E+08
 
   -0.13344E+08         0.10332E+07         0.00000E+00
    0.10332E+07        -0.31973E+08         0.00000E+00
    0.00000E+00         0.00000E+00        -0.14646E+08
 
   -0.13569E+08         0.12120E+07         0.00000E+00
    0.12120E+07        -0.32665E+08         0.00000E+00
    0.00000E+00         0.00000E+00        -0.14646E+08
 
   -0.13859E+08         0.13665E+07         0.00000E+00
    0.13665E+07        -0.33271E+08         0.00000E+00
    0.00000E+00         0.00000E+00        -0.14731E+08
 
   -0.14226E+08         0.14895E+07         0.00000E+00
    0.14895E+07        -0.33771E+08         0.00000E+00
    0.00000E+00         0.00000E+00        -0.14912E+08
 
   -0.14574E+08         0.15925E+07         0.00000E+00
    0.15925E+07        -0.34253E+08         0.00000E+00
    0.00000E+00         0.00000E+00        -0.15099E+08
 
   -0.14902E+08         0.16763E+07         0.00000E+00
    0.16763E+07        -0.34717E+08         0.00000E+00
    0.00000E+00         0.00000E+00        -0.15286E+08
 
   -0.15208E+08         0.17424E+07         0.00000E+00
    0.17424E+07        -0.35163E+08         0.00000E+00
    0.00000E+00         0.00000E+00        -0.15470E+08
 
   -0.15493E+08         0.17920E+07         0.00000E+00
    0.17920E+07        -0.35588E+08         0.00000E+00
    0.00000E+00         0.00000E+00        -0.15649E+08
 
   -0.15758E+08         0.18270E+07         0.00000E+00
    0.18270E+07        -0.35993E+08         0.00000E+00
    0.00000E+00         0.00000E+00        -0.15821E+08
 
   -0.16004E+08         0.18488E+07         0.00000E+00
    0.18488E+07        -0.36377E+08         0.00000E+00
    0.00000E+00         0.00000E+00        -0.15987E+08
 
   -0.16231E+08         0.18591E+07         0.00000E+00
    0.18591E+07        -0.36741E+08         0.00000E+00
    0.00000E+00         0.00000E+00        -0.16147E+08
 
   -0.16441E+08         0.18594E+07         0.00000E+00
    0.18594E+07        -0.37085E+08         0.00000E+00
    0.00000E+00         0.00000E+00        -0.16299E+08
 
   -0.16634E+08         0.18511E+07         0.00000E+00
    0.18511E+07        -0.37410E+08         0.00000E+00
    0.00000E+00         0.00000E+00        -0.16444E+08
 
   -0.16813E+08         0.18355E+07         0.00000E+00
    0.18355E+07        -0.37717E+08         0.00000E+00
    0.00000E+00         0.00000E+00        -0.16583E+08
 
   -0.16978E+08         0.18139E+07         0.00000E+00
    0.18139E+07        -0.38007E+08         0.00000E+00
    0.00000E+00         0.00000E+00        -0.16716E+08
 
   -0.17130E+08         0.17873E+07         0.00000E+00
    0.17873E+07        -0.38280E+08         0.00000E+00
    0.00000E+00         0.00000E+00        -0.16843E+08
 
   -0.17271E+08         0.17567E+07         0.00000E+00
    0.17567E+07        -0.38539E+08         0.00000E+00
    0.00000E+00         0.00000E+00        -0.16964E+08
 
   -0.17401E+08         0.17228E+07         0.00000E+00
    0.17228E+07        -0.38784E+08         0.00000E+00
    0.00000E+00         0.00000E+00        -0.17080E+08
 
   -0.17522E+08         0.16866E+07         0.00000E+00
    0.16866E+07        -0.39015E+08         0.00000E+00
    0.00000E+00         0.00000E+00        -0.17191E+08
 
   -0.17634E+08         0.16486E+07         0.00000E+00
    0.16486E+07        -0.39234E+08         0.00000E+00
    0.00000E+00         0.00000E+00        -0.17297E+08
 
   -0.17738E+08         0.16095E+07         0.00000E+00
    0.16095E+07        -0.39441E+08         0.00000E+00
    0.00000E+00         0.00000E+00        -0.17400E+08
 
   -0.17836E+08         0.15696E+07         0.00000E+00
    0.15696E+07        -0.39638E+08         0.00000E+00
    0.00000E+00         0.00000E+00        -0.17498E+08
 
   -0.17927E+08         0.15296E+07         0.00000E+00
    0.15296E+07        -0.39825E+08         0.00000E+00
    0.00000E+00         0.00000E+00        -0.17592E+08
 
   -0.18012E+08         0.14896E+07         0.00000E+00
    0.14896E+07        -0.40003E+08         0.00000E+00
    0.00000E+00         0.00000E+00        -0.17683E+08
 
   -0.18092E+08         0.14501E+07         0.00000E+00
    0.14501E+07        -0.40172E+08         0.00000E+00
    0.00000E+00         0.00000E+00        -0.17771E+08
 
   -0.18168E+08         0.14113E+07         0.00000E+00
    0.14113E+07        -0.40334E+08         0.00000E+00
    0.00000E+00         0.00000E+00        -0.17855E+08
 
   -0.18239E+08         0.13734E+07         0.00000E+00
    0.13734E+07        -0.40488E+08         0.00000E+00
    0.00000E+00         0.00000E+00        -0.17937E+08
 
   -0.18306E+08         0.13367E+07         0.00000E+00
    0.13367E+07        -0.40636E+08         0.00000E+00
    0.00000E+00         0.00000E+00        -0.18016E+08
 
   -0.18371E+08         0.13012E+07         0.00000E+00
    0.13012E+07        -0.40777E+08         0.00000E+00
    0.00000E+00         0.00000E+00        -0.18092E+08
 
   -0.18432E+08         0.12671E+07         0.00000E+00
    0.12671E+07        -0.40913E+08         0.00000E+00
    0.00000E+00         0.00000E+00        -0.18166E+08
 
   -0.18490E+08         0.12344E+07         0.00000E+00
    0.12344E+07        -0.41044E+08         0.00000E+00
    0.00000E+00         0.00000E+00        -0.18238E+08
 
   -0.18546E+08         0.12034E+07         0.00000E+00
    0.12034E+07        -0.41169E+08         0.00000E+00
    0.00000E+00         0.00000E+00        -0.18308E+08
 
   -0.18599E+08         0.11739E+07         0.00000E+00
    0.11739E+07        -0.41291E+08         0.00000E+00
    0.00000E+00         0.00000E+00        -0.18376E+08
 
   -0.18651E+08         0.11462E+07         0.00000E+00
    0.11462E+07        -0.41408E+08         0.00000E+00
    0.00000E+00         0.00000E+00        -0.18443E+08
 
   -0.18700E+08         0.11201E+07         0.00000E+00
    0.11201E+07        -0.41521E+08         0.00000E+00
    0.00000E+00         0.00000E+00        -0.18507E+08
 
   -0.18749E+08         0.10958E+07         0.00000E+00
    0.10958E+07        -0.41631E+08         0.00000E+00
    0.00000E+00         0.00000E+00        -0.18570E+08
 
   -0.18795E+08         0.10732E+07         0.00000E+00
    0.10732E+07        -0.41738E+08         0.00000E+00
    0.00000E+00         0.00000E+00        -0.18632E+08
 
   -0.18841E+08         0.10523E+07         0.00000E+00
    0.10523E+07        -0.41843E+08         0.00000E+00
    0.00000E+00         0.00000E+00        -0.18693E+08
 
   -0.18885E+08         0.10333E+07         0.00000E+00
    0.10333E+07        -0.41945E+08         0.00000E+00
    0.00000E+00         0.00000E+00        -0.18752E+08
 
   -0.18929E+08         0.10159E+07         0.00000E+00
    0.10159E+07        -0.42044E+08         0.00000E+00
    0.00000E+00         0.00000E+00        -0.18811E+08
 
   -0.18972E+08         0.10003E+07         0.00000E+00
    0.10003E+07        -0.42142E+08         0.00000E+00
    0.00000E+00         0.00000E+00        -0.18869E+08
 
   -0.19014E+08         0.98642E+06         0.00000E+00
    0.98642E+06        -0.42238E+08         0.00000E+00
    0.00000E+00         0.00000E+00        -0.18926E+08
 
   -0.19055E+08         0.97423E+06         0.00000E+00
    0.97423E+06        -0.42333E+08         0.00000E+00
    0.00000E+00         0.00000E+00        -0.18982E+08
 
   -0.19097E+08         0.96372E+06         0.00000E+00
    0.96372E+06        -0.42427E+08         0.00000E+00
    0.00000E+00         0.00000E+00        -0.19038E+08
 
   -0.19138E+08         0.95486E+06         0.00000E+00
    0.95486E+06        -0.42520E+08         0.00000E+00
    0.00000E+00         0.00000E+00        -0.19094E+08
 
   -0.19179E+08         0.94764E+06         0.00000E+00
    0.94764E+06        -0.42612E+08         0.00000E+00
    0.00000E+00         0.00000E+00        -0.19150E+08
 
   -0.19220E+08         0.94202E+06         0.00000E+00
    0.94202E+06        -0.42704E+08         0.00000E+00
    0.00000E+00         0.00000E+00        -0.19205E+08
 
   -0.19261E+08         0.93797E+06         0.00000E+00
    0.93797E+06        -0.42796E+08         0.00000E+00
    0.00000E+00         0.00000E+00        -0.19260E+08
 
   -0.19303E+08         0.93545E+06         0.00000E+00
    0.93545E+06        -0.42888E+08         0.00000E+00
    0.00000E+00         0.00000E+00        -0.19315E+08
 
   -0.19345E+08         0.93442E+06         0.00000E+00
    0.93442E+06        -0.42981E+08         0.00000E+00
    0.00000E+00         0.00000E+00        -0.19371E+08
 
   -0.19387E+08         0.93486E+06         0.00000E+00
    0.93486E+06        -0.43074E+08         0.00000E+00
    0.00000E+00         0.00000E+00        -0.19427E+08
 
   -0.19430E+08         0.93670E+06         0.00000E+00
    0.93670E+06        -0.43168E+08         0.00000E+00
    0.00000E+00         0.00000E+00        -0.19483E+08
 
   -0.19474E+08         0.93990E+06         0.00000E+00
    0.93990E+06        -0.43263E+08         0.00000E+00
    0.00000E+00         0.00000E+00        -0.19540E+08
 
   -0.19520E+08         0.94440E+06         0.00000E+00
    0.94440E+06        -0.43359E+08         0.00000E+00
    0.00000E+00         0.00000E+00        -0.19598E+08
 
   -0.19566E+08         0.95015E+06         0.00000E+00
    0.95015E+06        -0.43457E+08         0.00000E+00
    0.00000E+00         0.00000E+00        -0.19656E+08
 
   -0.19613E+08         0.95707E+06         0.00000E+00
    0.95707E+06        -0.43557E+08         0.00000E+00
    0.00000E+00         0.00000E+00        -0.19716E+08
 
   -0.19663E+08         0.96509E+06         0.00000E+00
    0.96509E+06        -0.43660E+08         0.00000E+00
    0.00000E+00         0.00000E+00        -0.19776E+08
 
   -0.19713E+08         0.97412E+06         0.00000E+00
    0.97412E+06        -0.43765E+08         0.00000E+00
    0.00000E+00         0.00000E+00        -0.19838E+08
 
   -0.19766E+08         0.98406E+06         0.00000E+00
    0.98406E+06        -0.43873E+08         0.00000E+00
    0.00000E+00         0.00000E+00        -0.19901E+08
 
   -0.19821E+08         0.99482E+06         0.00000E+00
    0.99482E+06        -0.43984E+08         0.00000E+00
    0.00000E+00         0.00000E+00        -0.19965E+08
 
   -0.19878E+08         0.10063E+07         0.00000E+00
    0.10063E+07        -0.44098E+08         0.00000E+00
    0.00000E+00         0.00000E+00        -0.20031E+08
 
   -0.19938E+08         0.10182E+07         0.00000E+00
    0.10182E+07        -0.44217E+08         0.00000E+00
    0.00000E+00         0.00000E+00        -0.20099E+08
 
   -0.20001E+08         0.10306E+07         0.00000E+00
    0.10306E+07        -0.44340E+08         0.00000E+00
    0.00000E+00         0.00000E+00        -0.20169E+08
 
   -0.20067E+08         0.10432E+07         0.00000E+00
    0.10432E+07        -0.44468E+08         0.00000E+00
    0.00000E+00         0.00000E+00        -0.20240E+08
 
   -0.20136E+08         0.10558E+07         0.00000E+00
    0.10558E+07        -0.44602E+08         0.00000E+00
    0.00000E+00         0.00000E+00        -0.20314E+08
 
   -0.20209E+08         0.10682E+07         0.00000E+00
    0.10682E+07        -0.44741E+08         0.00000E+00
    0.00000E+00         0.00000E+00        -0.20391E+08
 
   -0.20286E+08         0.10802E+07         0.00000E+00
    0.10802E+07        -0.44887E+08         0.00000E+00
    0.00000E+00         0.00000E+00        -0.20469E+08
 
   -0.20368E+08         0.10914E+07         0.00000E+00
    0.10914E+07        -0.45039E+08         0.00000E+00
    0.00000E+00         0.00000E+00        -0.20551E+08
 
   -0.20455E+08         0.11016E+07         0.00000E+00
    0.11016E+07        -0.45200E+08         0.00000E+00
    0.00000E+00         0.00000E+00        -0.20636E+08
 
   -0.20547E+08         0.11104E+07         0.00000E+00
    0.11104E+07        -0.45368E+08         0.00000E+00
    0.00000E+00         0.00000E+00        -0.20723E+08
 
   -0.20645E+08         0.11174E+07         0.00000E+00
    0.11174E+07        -0.45546E+08         0.00000E+00
    0.00000E+00         0.00000E+00        -0.20814E+08
 
   -0.20750E+08         0.11222E+07         0.00000E+00
    0.11222E+07        -0.45734E+08         0.00000E+00
    0.00000E+00         0.00000E+00        -0.20909E+08
 
   -0.20861E+08         0.11244E+07         0.00000E+00
    0.11244E+07        -0.45932E+08         0.00000E+00
    0.00000E+00         0.00000E+00        -0.21007E+08
 
   -0.20980E+08         0.11233E+07         0.00000E+00
    0.11233E+07        -0.46142E+08         0.00000E+00
    0.00000E+00         0.00000E+00        -0.21110E+08
 
   -0.21107E+08         0.11186E+07         0.00000E+00
    0.11186E+07        -0.46364E+08         0.00000E+00
    0.00000E+00         0.00000E+00        -0.21217E+08
 
   -0.21243E+08         0.11096E+07         0.00000E+00
    0.11096E+07        -0.46600E+08         0.00000E+00
    0.00000E+00         0.00000E+00        -0.21329E+08
 
   -0.21388E+08         0.10957E+07         0.00000E+00
    0.10957E+07        -0.46850E+08         0.00000E+00
    0.00000E+00         0.00000E+00        -0.21445E+08
 
   -0.21542E+08         0.10763E+07         0.00000E+00
    0.10763E+07        -0.47115E+08         0.00000E+00
    0.00000E+00         0.00000E+00        -0.21567E+08
 
   -0.21707E+08         0.10508E+07         0.00000E+00
    0.10508E+07        -0.47395E+08         0.00000E+00
    0.00000E+00         0.00000E+00        -0.21694E+08
 
   -0.21882E+08         0.10186E+07         0.00000E+00
    0.10186E+07        -0.47692E+08         0.00000E+00
    0.00000E+00         0.00000E+00        -0.21827E+08
 
   -0.22069E+08         0.97927E+06         0.00000E+00
    0.97927E+06        -0.48005E+08         0.00000E+00
    0.00000E+00         0.00000E+00        -0.21966E+08
 
   -0.22266E+08         0.93232E+06         0.00000E+00
    0.93232E+06        -0.48335E+08         0.00000E+00
    0.00000E+00         0.00000E+00        -0.22111E+08
 
   -0.22475E+08         0.87751E+06         0.00000E+00
    0.87751E+06        -0.48682E+08         0.00000E+00
    0.00000E+00         0.00000E+00        -0.22261E+08
 
   -0.22696E+08         0.81479E+06         0.00000E+00
    0.81479E+06        -0.49043E+08         0.00000E+00
    0.00000E+00         0.00000E+00        -0.22416E+08
 
   -0.22927E+08         0.74442E+06         0.00000E+00
    0.74442E+06        -0.49419E+08         0.00000E+00
    0.00000E+00         0.00000E+00        -0.22574E+08
 
   -0.23168E+08         0.66704E+06         0.00000E+00
    0.66704E+06        -0.49806E+08         0.00000E+00
    0.00000E+00         0.00000E+00        -0.22735E+08
 
   -0.23419E+08         0.58377E+06         0.00000E+00
    0.58377E+06        -0.50200E+08         0.00000E+00
    0.00000E+00         0.00000E+00        -0.22895E+08
 
   -0.23678E+08         0.49626E+06         0.00000E+00
    0.49626E+06        -0.50597E+08         0.00000E+00
    0.00000E+00         0.00000E+00        -0.23051E+08
 
   -0.23945E+08         0.40676E+06         0.00000E+00
    0.40676E+06        -0.50990E+08         0.00000E+00
    0.00000E+00         0.00000E+00        -0.23198E+08
 
   -0.24220E+08         0.31803E+06         0.00000E+00
    0.31803E+06        -0.51373E+08         0.00000E+00
    0.00000E+00         0.00000E+00        -0.23326E+08
 
   -0.24504E+08         0.23324E+06         0.00000E+00
    0.23324E+06        -0.51735E+08         0.00000E+00
    0.00000E+00         0.00000E+00        -0.23429E+08
 
   -0.24802E+08         0.15566E+06         0.00000E+00
    0.15566E+06        -0.52070E+08         0.00000E+00
    0.00000E+00         0.00000E+00        -0.23494E+08
 
   -0.25118E+08         0.87599E+05         0.00000E+00
    0.87599E+05        -0.52372E+08         0.00000E+00
    0.00000E+00         0.00000E+00        -0.23512E+08
 
   -0.25460E+08         0.28135E+05         0.00000E+00
    0.28135E+05        -0.52638E+08         0.00000E+00
    0.00000E+00         0.00000E+00        -0.23476E+08
 
   -0.10328E+08         0.45007E+05         0.00000E+00
    0.45007E+05        -0.29289E+08         0.00000E+00
    0.00000E+00         0.00000E+00        -0.14646E+08
 
   -0.11105E+08         0.14431E+06         0.00000E+00
    0.14431E+06        -0.29444E+08         0.00000E+00
    0.00000E+00         0.00000E+00        -0.14646E+08
 
   -0.11735E+08         0.26630E+06         0.00000E+00
    0.26630E+06        -0.29749E+08         0.00000E+00
    0.00000E+00         0.00000E+00        -0.14646E+08
 
   -0.12239E+08         0.41377E+06         0.00000E+00
    0.41377E+06        -0.30184E+08         0.00000E+00
    0.00000E+00         0.00000E+00        -0.14646E+08
 
   -0.12644E+08         0.58138E+06         0.00000E+00
    0.58138E+06        -0.30726E+08         0.00000E+00
    0.00000E+00         0.00000E+00        -0.14646E+08
 
   -0.12976E+08         0.76065E+06         0.00000E+00
    0.76065E+06        -0.31344E+08         0.00000E+00
    0.00000E+00         0.00000E+00        -0.14646E+08
 
   -0.13254E+08         0.94311E+06         0.00000E+00
    0.94311E+06        -0.32009E+08         0.00000E+00
    0.00000E+00         0.00000E+00        -0.14646E+08
 
   -0.13507E+08         0.11199E+07         0.00000E+00
    0.11199E+07        -0.32687E+08         0.00000E+00
    0.00000E+00         0.00000E+00        -0.14658E+08
 
   -0.13820E+08         0.12748E+07         0.00000E+00
    0.12748E+07        -0.33282E+08         0.00000E+00
    0.00000E+00         0.00000E+00        -0.14751E+08
 
   -0.14196E+08         0.14014E+07         0.00000E+00
    0.14014E+07        -0.33781E+08         0.00000E+00
    0.00000E+00         0.00000E+00        -0.14928E+08
 
   -0.14550E+08         0.15084E+07         0.00000E+00
    0.15084E+07        -0.34265E+08         0.00000E+00
    0.00000E+00         0.00000E+00        -0.15110E+08
 
   -0.14883E+08         0.15963E+07         0.00000E+00
    0.15963E+07        -0.34731E+08         0.00000E+00
    0.00000E+00         0.00000E+00        -0.15293E+08
 
   -0.15194E+08         0.16662E+07         0.00000E+00
    0.16662E+07        -0.35178E+08         0.00000E+00
    0.00000E+00         0.00000E+00        -0.15472E+08
 
   -0.15483E+08         0.17194E+07         0.00000E+00
    0.17194E+07        -0.35603E+08         0.00000E+00
    0.00000E+00         0.00000E+00        -0.15648E+08
 
   -0.15752E+08         0.17575E+07         0.00000E+00
    0.17575E+07        -0.36008E+08         0.00000E+00
    0.00000E+00         0.00000E+00        -0.15818E+08
 
   -0.16000E+08         0.17823E+07         0.00000E+00
    0.17823E+07        -0.36391E+08         0.00000E+00
    0.00000E+00         0.00000E+00        -0.15982E+08
 
   -0.16230E+08         0.17953E+07         0.00000E+00
    0.17953E+07        -0.36755E+08         0.00000E+00
    0.00000E+00         0.00000E+00        -0.16139E+08
 
   -0.16441E+08         0.17981E+07         0.00000E+00
    0.17981E+07        -0.37098E+08         0.00000E+00
    0.00000E+00         0.00000E+00        -0.16290E+08
 
   -0.16637E+08         0.17921E+07         0.00000E+00
    0.17921E+07        -0.37423E+08         0.00000E+00
    0.00000E+00         0.00000E+00        -0.16434E+08
 
   -0.16817E+08         0.17787E+07         0.00000E+00
    0.17787E+07        -0.37729E+08         0.00000E+00
    0.00000E+00         0.00000E+00        -0.16572E+08
 
   -0.16982E+08         0.17591E+07         0.00000E+00
    0.17591E+07        -0.38018E+08         0.00000E+00
    0.00000E+00         0.00000E+00        -0.16704E+08
 
   -0.17136E+08         0.17343E+07         0.00000E+00
    0.17343E+07        -0.38291E+08         0.00000E+00
    0.00000E+00         0.00000E+00        -0.16830E+08
 
   -0.17277E+08         0.17054E+07         0.00000E+00
    0.17054E+07        -0.38549E+08         0.00000E+00
    0.00000E+00         0.00000E+00        -0.16951E+08
 
   -0.17408E+08         0.16733E+07         0.00000E+00
    0.16733E+07        -0.38793E+08         0.00000E+00
    0.00000E+00         0.00000E+00        -0.17067E+08
 
   -0.17529E+08         0.16386E+07         0.00000E+00
    0.16386E+07        -0.39024E+08         0.00000E+00
    0.00000E+00         0.00000E+00        -0.17178E+08
 
   -0.17641E+08         0.16022E+07         0.00000E+00
    0.16022E+07        -0.39242E+08         0.00000E+00
    0.00000E+00         0.00000E+00        -0.17285E+08
 
   -0.17746E+08         0.15645E+07         0.00000E+00
    0.15645E+07        -0.39449E+08         0.00000E+00
    0.00000E+00         0.00000E+00        -0.17387E+08
 
   -0.17843E+08         0.15261E+07         0.00000E+00
    0.15261E+07        -0.39645E+08         0.00000E+00
    0.00000E+00         0.00000E+00        -0.17485E+08
 
   -0.17934E+08         0.14873E+07         0.00000E+00
    0.14873E+07        -0.39832E+08         0.00000E+00
    0.00000E+00         0.00000E+00        -0.17580E+08
 
   -0.18019E+08         0.14487E+07         0.00000E+00
    0.14487E+07        -0.40009E+08         0.00000E+00
    0.00000E+00         0.00000E+00        -0.17671E+08
 
   -0.18099E+08         0.14104E+07         0.00000E+00
    0.14104E+07        -0.40178E+08         0.00000E+00
    0.00000E+00         0.00000E+00        -0.17759E+08
 
   -0.18175E+08         0.13728E+07         0.00000E+00
    0.13728E+07        -0.40340E+08         0.00000E+00
    0.00000E+00         0.00000E+00        -0.17844E+08
 
   -0.18246E+08         0.13360E+07         0.00000E+00
    0.13360E+07        -0.40494E+08         0.00000E+00
    0.00000E+00         0.00000E+00        -0.17926E+08
 
   -0.18313E+08         0.13003E+07         0.00000E+00
    0.13003E+07        -0.40641E+08         0.00000E+00
    0.00000E+00         0.00000E+00        -0.18006E+08
 
   -0.18377E+08         0.12658E+07         0.00000E+00
    0.12658E+07        -0.40782E+08         0.00000E+00
    0.00000E+00         0.00000E+00        -0.18083E+08
 
   -0.18438E+08         0.12327E+07         0.00000E+00
    0.12327E+07        -0.40917E+08         0.00000E+00
    0.00000E+00         0.00000E+00        -0.18157E+08
 
   -0.18495E+08         0.12010E+07         0.00000E+00
    0.12010E+07        -0.41048E+08         0.00000E+00
    0.00000E+00         0.00000E+00        -0.18230E+08
 
   -0.18551E+08         0.11708E+07         0.00000E+00
    0.11708E+07        -0.41173E+08         0.00000E+00
    0.00000E+00         0.00000E+00        -0.18300E+08
 
   -0.18604E+08         0.11422E+07         0.00000E+00
    0.11422E+07        -0.41294E+08         0.00000E+00
    0.00000E+00         0.00000E+00        -0.18369E+08
 
   -0.18655E+08         0.11151E+07         0.00000E+00
    0.11151E+07        -0.41411E+08         0.00000E+00
    0.00000E+00         0.00000E+00        -0.18435E+08
 
   -0.18704E+08         0.10898E+07         0.00000E+00
    0.10898E+07        -0.41524E+08         0.00000E+00
    0.00000E+00         0.00000E+00        -0.18500E+08
 
   -0.18752E+08         0.10661E+07         0.00000E+00
    0.10661E+07        -0.41634E+08         0.00000E+00
    0.00000E+00         0.00000E+00        -0.18564E+08
 
   -0.18799E+08         0.10441E+07         0.00000E+00
    0.10441E+07        -0.41741E+08         0.00000E+00
    0.00000E+00         0.00000E+00        -0.18626E+08
 
   -0.18844E+08         0.10239E+07         0.00000E+00
    0.10239E+07        -0.41845E+08         0.00000E+00
    0.00000E+00         0.00000E+00        -0.18687E+08
 
   -0.18888E+08         0.10053E+07         0.00000E+00
    0.10053E+07        -0.41947E+08         0.00000E+00
    0.00000E+00         0.00000E+00        -0.18747E+08
 
   -0.18931E+08         0.98838E+06         0.00000E+00
    0.98838E+06        -0.42046E+08         0.00000E+00
    0.00000E+00         0.00000E+00        -0.18807E+08
 
   -0.18973E+08         0.97317E+06         0.00000E+00
    0.97317E+06        -0.42144E+08         0.00000E+00
    0.00000E+00         0.00000E+00        -0.18865E+08
 
   -0.19015E+08         0.95964E+06         0.00000E+00
    0.95964E+06        -0.42240E+08         0.00000E+00
    0.00000E+00         0.00000E+00        -0.18922E+08
 
   -0.19056E+08         0.94775E+06         0.00000E+00
    0.94775E+06        -0.42335E+08         0.00000E+00
    0.00000E+00         0.00000E+00        -0.18979E+08
 
   -0.19097E+08         0.93750E+06         0.00000E+00
    0.93750E+06        -0.42429E+08         0.00000E+00
    0.00000E+00         0.00000E+00        -0.19036E+08
 
   -0.19138E+08         0.92886E+06         0.00000E+00
    0.92886E+06        -0.42522E+08         0.00000E+00
    0.00000E+00         0.00000E+00        -0.19092E+08
 
   -0.19178E+08         0.92180E+06         0.00000E+00
    0.92180E+06        -0.42614E+08         0.00000E+00
    0.00000E+00         0.00000E+00        -0.19147E+08
 
   -0.19219E+08         0.91630E+06         0.00000E+00
    0.91630E+06        -0.42706E+08         0.00000E+00
    0.00000E+00         0.00000E+00        -0.19203E+08
 
   -0.19260E+08         0.91232E+06         0.00000E+00
    0.91232E+06        -0.42797E+08         0.00000E+00
    0.00000E+00         0.00000E+00        -0.19259E+08
 
   -0.19301E+08         0.90983E+06         0.00000E+00
    0.90983E+06        -0.42889E+08         0.00000E+00
    0.00000E+00         0.00000E+00        -0.19314E+08
 
   -0.19342E+08         0.90879E+06         0.00000E+00
    0.90879E+06        -0.42982E+08         0.00000E+00
    0.00000E+00         0.00000E+00        -0.19370E+08
 
   -0.19384E+08         0.90916E+06         0.00000E+00
    0.90916E+06        -0.43075E+08         0.00000E+00
    0.00000E+00         0.00000E+00        -0.19426E+08
 
   -0.19427E+08         0.91090E+06         0.00000E+00
    0.91090E+06        -0.43168E+08         0.00000E+00
    0.00000E+00         0.00000E+00        -0.19483E+08
 
   -0.19471E+08         0.91396E+06         0.00000E+00
    0.91396E+06        -0.43263E+08         0.00000E+00
    0.00000E+00         0.00000E+00        -0.19540E+08
 
   -0.19515E+08         0.91829E+06         0.00000E+00
    0.91829E+06        -0.43360E+08         0.00000E+00
    0.00000E+00         0.00000E+00        -0.19598E+08
 
   -0.19561E+08         0.92381E+06         0.00000E+00
    0.92381E+06        -0.43458E+08         0.00000E+00
    0.00000E+00         0.00000E+00        -0.19657E+08
 
   -0.19609E+08         0.93048E+06         0.00000E+00
    0.93048E+06        -0.43558E+08         0.00000E+00
    0.00000E+00         0.00000E+00        -0.19717E+08
 
   -0.19657E+08         0.93820E+06         0.00000E+00
    0.93820E+06        -0.43660E+08         0.00000E+00
    0.00000E+00         0.00000E+00        -0.19777E+08
 
   -0.19708E+08         0.94691E+06         0.00000E+00
    0.94691E+06        -0.43765E+08         0.00000E+00
    0.00000E+00         0.00000E+00        -0.19839E+08
 
   -0.19760E+08         0.95649E+06         0.00000E+00
    0.95649E+06        -0.43873E+08         0.00000E+00
    0.00000E+00         0.00000E+00        -0.19902E+08
 
   -0.19815E+08         0.96686E+06         0.00000E+00
    0.96686E+06        -0.43984E+08         0.00000E+00
    0.00000E+00         0.00000E+00        -0.19967E+08
 
   -0.19871E+08         0.97788E+06         0.00000E+00
    0.97788E+06        -0.44098E+08         0.00000E+00
    0.00000E+00         0.00000E+00        -0.20033E+08
 
   -0.19931E+08         0.98942E+06         0.00000E+00
    0.98942E+06        -0.44217E+08         0.00000E+00
    0.00000E+00         0.00000E+00        -0.20101E+08
 
   -0.19993E+08         0.10013E+07         0.00000E+00
    0.10013E+07        -0.44340E+08         0.00000E+00
    0.00000E+00         0.00000E+00        -0.20171E+08
 
   -0.20059E+08         0.10134E+07         0.00000E+00
    0.10134E+07        -0.44468E+08         0.00000E+00
    0.00000E+00         0.00000E+00        -0.20242E+08
 
   -0.20128E+08         0.10255E+07         0.00000E+00
    0.10255E+07        -0.44601E+08         0.00000E+00
    0.00000E+00         0.00000E+00        -0.20316E+08
 
   -0.20201E+08         0.10374E+07         0.00000E+00
    0.10374E+07        -0.44740E+08         0.00000E+00
    0.00000E+00         0.00000E+00        -0.20393E+08
 
   -0.20278E+08         0.10489E+07         0.00000E+00
    0.10489E+07        -0.44886E+08         0.00000E+00
    0.00000E+00         0.00000E+00        -0.20471E+08
 
   -0.20359E+08         0.10596E+07         0.00000E+00
    0.10596E+07        -0.45038E+08         0.00000E+00
    0.00000E+00         0.00000E+00        -0.20553E+08
 
   -0.20446E+08         0.10692E+07         0.00000E+00
    0.10692E+07        -0.45198E+08         0.00000E+00
    0.00000E+00         0.00000E+00        -0.20637E+08
 
   -0.20538E+08         0.10774E+07         0.00000E+00
    0.10774E+07        -0.45367E+08         0.00000E+00
    0.00000E+00         0.00000E+00        -0.20725E+08
 
   -0.20636E+08         0.10839E+07         0.00000E+00
    0.10839E+07        -0.45545E+08         0.00000E+00
    0.00000E+00         0.00000E+00        -0.20815E+08
 
   -0.20741E+08         0.10882E+07         0.00000E+00
    0.10882E+07        -0.45732E+08         0.00000E+00
    0.00000E+00         0.00000E+00        -0.20910E+08
 
   -0.20853E+08         0.10898E+07         0.00000E+00
    0.10898E+07        -0.45930E+08         0.00000E+00
    0.00000E+00         0.00000E+00        -0.21008E+08
 
   -0.20972E+08         0.10882E+07         0.00000E+00
    0.10882E+07        -0.46140E+08         0.00000E+00
    0.00000E+00         0.00000E+00        -0.21110E+08
 
   -0.21099E+08         0.10829E+07         0.00000E+00
    0.10829E+07        -0.46362E+08         0.00000E+00
    0.00000E+00         0.00000E+00        -0.21216E+08
 
   -0.21235E+08         0.10734E+07         0.00000E+00
    0.10734E+07        -0.46597E+08         0.00000E+00
    0.00000E+00         0.00000E+00        -0.21327E+08
 
   -0.21381E+08         0.10590E+07         0.00000E+00
    0.10590E+07        -0.46847E+08         0.00000E+00
    0.00000E+00         0.00000E+00        -0.21443E+08
 
   -0.21536E+08         0.10390E+07         0.00000E+00
    0.10390E+07        -0.47111E+08         0.00000E+00
    0.00000E+00         0.00000E+00        -0.21563E+08
 
   -0.21702E+08         0.10130E+07         0.00000E+00
    0.10130E+07        -0.47392E+08         0.00000E+00
    0.00000E+00         0.00000E+00        -0.21689E+08
 
   -0.21879E+08         0.98027E+06         0.00000E+00
    0.98027E+06        -0.47688E+08         0.00000E+00
    0.00000E+00         0.00000E+00        -0.21821E+08
 
   -0.22067E+08         0.94033E+06         0.00000E+00
    0.94033E+06        -0.48002E+08         0.00000E+00
    0.00000E+00         0.00000E+00        -0.21958E+08
 
   -0.22267E+08         0.89275E+06         0.00000E+00
    0.89275E+06        -0.48332E+08         0.00000E+00
    0.00000E+00         0.00000E+00        -0.22101E+08
 
   -0.22479E+08         0.83729E+06         0.00000E+00
    0.83729E+06        -0.48679E+08         0.00000E+00
    0.00000E+00         0.00000E+00        -0.22250E+08
 
   -0.22702E+08         0.77393E+06         0.00000E+00
    0.77393E+06        -0.49042E+08         0.00000E+00
    0.00000E+00         0.00000E+00        -0.22403E+08
 
   -0.22936E+08         0.70295E+06         0.00000E+00
    0.70295E+06        -0.49418E+08         0.00000E+00
    0.00000E+00         0.00000E+00        -0.22560E+08
 
   -0.23182E+08         0.62510E+06         0.00000E+00
    0.62510E+06        -0.49807E+08         0.00000E+00
    0.00000E+00         0.00000E+00        -0.22719E+08
 
   -0.23437E+08         0.54163E+06         0.00000E+00
    0.54163E+06        -0.50203E+08         0.00000E+00
    0.00000E+00         0.00000E+00        -0.22877E+08
 
   -0.23702E+08         0.45446E+06         0.00000E+00
    0.45446E+06        -0.50603E+08         0.00000E+00
    0.00000E+00         0.00000E+00        -0.23032E+08
 
   -0.23975E+08         0.36620E+06         0.00000E+00
    0.36620E+06        -0.51000E+08         0.00000E+00
    0.00000E+00         0.00000E+00        -0.23176E+08
 
   -0.24257E+08         0.28013E+06         0.00000E+00
    0.28013E+06        -0.51386E+08         0.00000E+00
    0.00000E+00         0.00000E+00        -0.23304E+08
 
   -0.24548E+08         0.20001E+06         0.00000E+00
    0.20001E+06        -0.51754E+08         0.00000E+00
    0.00000E+00         0.00000E+00        -0.23406E+08
 
   -0.24852E+08         0.12951E+06         0.00000E+00
    0.12951E+06        -0.52093E+08         0.00000E+00
    0.00000E+00         0.00000E+00        -0.23471E+08
 
   -0.25174E+08         0.70812E+05         0.00000E+00
    0.70812E+05        -0.52400E+08         0.00000E+00
    0.00000E+00         0.00000E+00        -0.23490E+08
 
   -0.25521E+08         0.22323E+05         0.00000E+00
    0.22323E+05        -0.52669E+08         0.00000E+00
    0.00000E+00         0.00000E+00        -0.23454E+08
 
   -0.10170E+08         0.33111E+05         0.00000E+00
    0.33111E+05        -0.29303E+08         0.00000E+00
    0.00000E+00         0.00000E+00        -0.14647E+08
 
   -0.10949E+08         0.10979E+06         0.00000E+00
    0.10979E+06        -0.29464E+08         0.00000E+00
    0.00000E+00         0.00000E+00        -0.14646E+08
 
   -0.11588E+08         0.21224E+06         0.00000E+00
    0.21224E+06        -0.29774E+08         0.00000E+00
    0.00000E+00         0.00000E+00        -0.14646E+08
 
   -0.12104E+08         0.34482E+06         0.00000E+00
    0.34482E+06        -0.30215E+08         0.00000E+00
    0.00000E+00         0.00000E+00        -0.14646E+08
 
   -0.12523E+08         0.50254E+06         0.00000E+00
    0.50254E+06        -0.30760E+08         0.00000E+00
    0.00000E+00         0.00000E+00        -0.14646E+08
 
   -0.12870E+08         0.67617E+06         0.00000E+00
    0.67617E+06        -0.31380E+08         0.00000E+00
    0.00000E+00         0.00000E+00        -0.14646E+08
 
   -0.13164E+08         0.85606E+06         0.00000E+00
    0.85606E+06        -0.32045E+08         0.00000E+00
    0.00000E+00         0.00000E+00        -0.14646E+08
 
   -0.13448E+08         0.10306E+07         0.00000E+00
    0.10306E+07        -0.32706E+08         0.00000E+00
    0.00000E+00         0.00000E+00        -0.14672E+08
 
   -0.13784E+08         0.11858E+07         0.00000E+00
    0.11858E+07        -0.33289E+08         0.00000E+00
    0.00000E+00         0.00000E+00        -0.14773E+08
 
   -0.14167E+08         0.13158E+07         0.00000E+00
    0.13158E+07        -0.33792E+08         0.00000E+00
    0.00000E+00         0.00000E+00        -0.14945E+08
 
   -0.14527E+08         0.14265E+07         0.00000E+00
    0.14265E+07        -0.34278E+08         0.00000E+00
    0.00000E+00         0.00000E+00        -0.15122E+08
 
   -0.14866E+08         0.15181E+07         0.00000E+00
    0.15181E+07        -0.34745E+08         0.00000E+00
    0.00000E+00         0.00000E+00        -0.15300E+08
 
   -0.15181E+08         0.15914E+07         0.00000E+00
    0.15914E+07        -0.35192E+08         0.00000E+00
    0.00000E+00         0.00000E+00        -0.15476E+08
 
   -0.15474E+08         0.16479E+07         0.00000E+00
    0.16479E+07        -0.35618E+08         0.00000E+00
    0.00000E+00         0.00000E+00        -0.15648E+08
 
   -0.15746E+08         0.16891E+07         0.00000E+00
    0.16891E+07        -0.36022E+08         0.00000E+00
    0.00000E+00         0.00000E+00        -0.15815E+08
 
   -0.15997E+08         0.17166E+07         0.00000E+00
    0.17166E+07        -0.36406E+08         0.00000E+00
    0.00000E+00         0.00000E+00        -0.15977E+08
 
   -0.16229E+08         0.17322E+07         0.00000E+00
    0.17322E+07        -0.36769E+08         0.00000E+00
    0.00000E+00         0.00000E+00        -0.16132E+08
 
   -0.16443E+08         0.17373E+07         0.00000E+00
    0.17373E+07        -0.37111E+08         0.00000E+00
    0.00000E+00         0.00000E+00        -0.16281E+08
 
   -0.16640E+08         0.17335E+07         0.00000E+00
    0.17335E+07        -0.37435E+08         0.00000E+00
    0.00000E+00         0.00000E+00        -0.16424E+08
 
   -0.16821E+08         0.17221E+07         0.00000E+00
    0.17221E+07        -0.37741E+08         0.00000E+00
    0.00000E+00         0.00000E+00        -0.16561E+08
 
   -0.16988E+08         0.17044E+07         0.00000E+00
    0.17044E+07        -0.38029E+08         0.00000E+00
    0.00000E+00         0.00000E+00        -0.16693E+08
 
   -0.17142E+08         0.16814E+07         0.00000E+00
    0.16814E+07        -0.38302E+08         0.00000E+00
    0.00000E+00         0.00000E+00        -0.16818E+08
 
   -0.17284E+08         0.16542E+07         0.00000E+00
    0.16542E+07        -0.38559E+08         0.00000E+00
    0.00000E+00         0.00000E+00        -0.16939E+08
 
   -0.17415E+08         0.16237E+07         0.00000E+00
    0.16237E+07        -0.38802E+08         0.00000E+00
    0.00000E+00         0.00000E+00        -0.17055E+08
 
   -0.17536E+08         0.15906E+07         0.00000E+00
    0.15906E+07        -0.39033E+08         0.00000E+00
    0.00000E+00         0.00000E+00        -0.17166E+08
 
   -0.17649E+08         0.15556E+07         0.00000E+00
    0.15556E+07        -0.39250E+08         0.00000E+00
    0.00000E+00         0.00000E+00        -0.17272E+08
 
   -0.17754E+08         0.15194E+07         0.00000E+00
    0.15194E+07        -0.39457E+08         0.00000E+00
    0.00000E+00         0.00000E+00        -0.17375E+08
 
   -0.17851E+08         0.14823E+07         0.00000E+00
    0.14823E+07        -0.39653E+08         0.00000E+00
    0.00000E+00         0.00000E+00        -0.17473E+08
 
   -0.17942E+08         0.14449E+07         0.00000E+00
    0.14449E+07        -0.39839E+08         0.00000E+00
    0.00000E+00         0.00000E+00        -0.17568E+08
 
   -0.18027E+08         0.14075E+07         0.00000E+00
    0.14075E+07        -0.40016E+08         0.00000E+00
    0.00000E+00         0.00000E+00        -0.17660E+08
 
   -0.18107E+08         0.13705E+07         0.00000E+00
    0.13705E+07        -0.40184E+08         0.00000E+00
    0.00000E+00         0.00000E+00        -0.17748E+08
 
   -0.18182E+08         0.13340E+07         0.00000E+00
    0.13340E+07        -0.40345E+08         0.00000E+00
    0.00000E+00         0.00000E+00        -0.17834E+08
 
   -0.18253E+08         0.12984E+07         0.00000E+00
    0.12984E+07        -0.40499E+08         0.00000E+00
    0.00000E+00         0.00000E+00        -0.17916E+08
 
   -0.18320E+08         0.12638E+07         0.00000E+00
    0.12638E+07        -0.40646E+08         0.00000E+00
    0.00000E+00         0.00000E+00        -0.17996E+08
 
   -0.18383E+08         0.12303E+07         0.00000E+00
    0.12303E+07        -0.40787E+08         0.00000E+00
    0.00000E+00         0.00000E+00        -0.18073E+08
 
   -0.18444E+08         0.11981E+07         0.00000E+00
    0.11981E+07        -0.40922E+08         0.00000E+00
    0.00000E+00         0.00000E+00        -0.18148E+08
 
   -0.18501E+08         0.11673E+07         0.00000E+00
    0.11673E+07        -0.41052E+08         0.00000E+00
    0.00000E+00         0.00000E+00        -0.18221E+08
 
   -0.18556E+08         0.11380E+07         0.00000E+00
    0.11380E+07        -0.41177E+08         0.00000E+00
    0.00000E+00         0.00000E+00        -0.18292E+08
 
   -0.18609E+08         0.11102E+07         0.00000E+00
    0.11102E+07        -0.41298E+08         0.00000E+00
    0.00000E+00         0.00000E+00        -0.18361E+08
 
   -0.18660E+08         0.10839E+07         0.00000E+00
    0.10839E+07        -0.41414E+08         0.00000E+00
    0.00000E+00         0.00000E+00        -0.18428E+08
 
   -0.18709E+08         0.10593E+07         0.00000E+00
    0.10593E+07        -0.41527E+08         0.00000E+00
    0.00000E+00         0.00000E+00        -0.18494E+08
 
   -0.18756E+08         0.10363E+07         0.00000E+00
    0.10363E+07        -0.41637E+08         0.00000E+00
    0.00000E+00         0.00000E+00        -0.18558E+08
 
   -0.18802E+08         0.10149E+07         0.00000E+00
    0.10149E+07        -0.41744E+08         0.00000E+00
    0.00000E+00         0.00000E+00        -0.18621E+08
 
   -0.18847E+08         0.99517E+06         0.00000E+00
    0.99517E+06        -0.41848E+08         0.00000E+00
    0.00000E+00         0.00000E+00        -0.18682E+08
 
   -0.18890E+08         0.97709E+06         0.00000E+00
    0.97709E+06        -0.41949E+08         0.00000E+00
    0.00000E+00         0.00000E+00        -0.18743E+08
 
   -0.18933E+08         0.96065E+06         0.00000E+00
    0.96065E+06        -0.42049E+08         0.00000E+00
    0.00000E+00         0.00000E+00        -0.18802E+08
 
   -0.18975E+08         0.94585E+06         0.00000E+00
    0.94585E+06        -0.42146E+08         0.00000E+00
    0.00000E+00         0.00000E+00        -0.18861E+08
 
   -0.19016E+08         0.93267E+06         0.00000E+00
    0.93267E+06        -0.42242E+08         0.00000E+00
    0.00000E+00         0.00000E+00        -0.18919E+08
 
   -0.19057E+08         0.92110E+06         0.00000E+00
    0.92110E+06        -0.42337E+08         0.00000E+00
    0.00000E+00         0.00000E+00        -0.18976E+08
 
   -0.19097E+08         0.91111E+06         0.00000E+00
    0.91111E+06        -0.42430E+08         0.00000E+00
    0.00000E+00         0.00000E+00        -0.19033E+08
 
   -0.19137E+08         0.90268E+06         0.00000E+00
    0.90268E+06        -0.42523E+08         0.00000E+00
    0.00000E+00         0.00000E+00        -0.19089E+08
 
   -0.19178E+08         0.89579E+06         0.00000E+00
    0.89579E+06        -0.42615E+08         0.00000E+00
    0.00000E+00         0.00000E+00        -0.19145E+08
 
   -0.19218E+08         0.89041E+06         0.00000E+00
    0.89041E+06        -0.42707E+08         0.00000E+00
    0.00000E+00         0.00000E+00        -0.19201E+08
 
   -0.19258E+08         0.88651E+06         0.00000E+00
    0.88651E+06        -0.42799E+08         0.00000E+00
    0.00000E+00         0.00000E+00        -0.19257E+08
 
   -0.19299E+08         0.88405E+06         0.00000E+00
    0.88405E+06        -0.42890E+08         0.00000E+00
    0.00000E+00         0.00000E+00        -0.19313E+08
 
   -0.19340E+08         0.88300E+06         0.00000E+00
    0.88300E+06        -0.42983E+08         0.00000E+00
    0.00000E+00         0.00000E+00        -0.19369E+08
 
   -0.19382E+08         0.88332E+06         0.00000E+00
    0.88332E+06        -0.43075E+08         0.00000E+00
    0.00000E+00         0.00000E+00        -0.19426E+08
 
   -0.19424E+08         0.88497E+06         0.00000E+00
    0.88497E+06        -0.43169E+08         0.00000E+00
    0.00000E+00         0.00000E+00        -0.19483E+08
 
   -0.19467E+08         0.88789E+06         0.00000E+00
    0.88789E+06        -0.43264E+08         0.00000E+00
    0.00000E+00         0.00000E+00        -0.19540E+08
 
   -0.19511E+08         0.89204E+06         0.00000E+00
    0.89204E+06        -0.43360E+08         0.00000E+00
    0.00000E+00         0.00000E+00        -0.19599E+08
 
   -0.19557E+08         0.89735E+06         0.00000E+00
    0.89735E+06        -0.43458E+08         0.00000E+00
    0.00000E+00         0.00000E+00        -0.19658E+08
 
   -0.19604E+08         0.90376E+06         0.00000E+00
    0.90376E+06        -0.43558E+08         0.00000E+00
    0.00000E+00         0.00000E+00        -0.19717E+08
 
   -0.19652E+08         0.91120E+06         0.00000E+00
    0.91120E+06        -0.43660E+08         0.00000E+00
    0.00000E+00         0.00000E+00        -0.19778E+08
 
   -0.19702E+08         0.91958E+06         0.00000E+00
    0.91958E+06        -0.43765E+08         0.00000E+00
    0.00000E+00         0.00000E+00        -0.19840E+08
 
   -0.19754E+08         0.92881E+06         0.00000E+00
    0.92881E+06        -0.43872E+08         0.00000E+00
    0.00000E+00         0.00000E+00        -0.19904E+08
 
   -0.19808E+08         0.93879E+06         0.00000E+00
    0.93879E+06        -0.43983E+08         0.00000E+00
    0.00000E+00         0.00000E+00        -0.19969E+08
 
   -0.19865E+08         0.94940E+06         0.00000E+00
    0.94940E+06        -0.44098E+08         0.00000E+00
    0.00000E+00         0.00000E+00        -0.20035E+08
 
   -0.19924E+08         0.96051E+06         0.00000E+00
    0.96051E+06        -0.44216E+08         0.00000E+00
    0.00000E+00         0.00000E+00        -0.20103E+08
 
   -0.19986E+08         0.97196E+06         0.00000E+00
    0.97196E+06        -0.44339E+08         0.00000E+00
    0.00000E+00         0.00000E+00        -0.20173E+08
 
   -0.20051E+08         0.98360E+06         0.00000E+00
    0.98360E+06        -0.44467E+08         0.00000E+00
    0.00000E+00         0.00000E+00        -0.20245E+08
 
   -0.20120E+08         0.99521E+06         0.00000E+00
    0.99521E+06        -0.44600E+08         0.00000E+00
    0.00000E+00         0.00000E+00        -0.20319E+08
 
   -0.20192E+08         0.10066E+07         0.00000E+00
    0.10066E+07        -0.44739E+08         0.00000E+00
    0.00000E+00         0.00000E+00        -0.20395E+08
 
   -0.20269E+08         0.10175E+07         0.00000E+00
    0.10175E+07        -0.44884E+08         0.00000E+00
    0.00000E+00         0.00000E+00        -0.20473E+08
 
   -0.20351E+08         0.10277E+07         0.00000E+00
    0.10277E+07        -0.45037E+08         0.00000E+00
    0.00000E+00         0.00000E+00        -0.20555E+08
 
   -0.20437E+08         0.10368E+07         0.00000E+00
    0.10368E+07        -0.45197E+08         0.00000E+00
    0.00000E+00         0.00000E+00        -0.20639E+08
 
   -0.20529E+08         0.10445E+07         0.00000E+00
    0.10445E+07        -0.45365E+08         0.00000E+00
    0.00000E+00         0.00000E+00        -0.20726E+08
 
   -0.20627E+08         0.10505E+07         0.00000E+00
    0.10505E+07        -0.45543E+08         0.00000E+00
    0.00000E+00         0.00000E+00        -0.20817E+08
 
   -0.20732E+08         0.10542E+07         0.00000E+00
    0.10542E+07        -0.45730E+08         0.00000E+00
    0.00000E+00         0.00000E+00        -0.20910E+08
 
   -0.20844E+08         0.10553E+07         0.00000E+00
    0.10553E+07        -0.45928E+08         0.00000E+00
    0.00000E+00         0.00000E+00        -0.21008E+08
 
   -0.20963E+08         0.10533E+07         0.00000E+00
    0.10533E+07        -0.46137E+08         0.00000E+00
    0.00000E+00         0.00000E+00        -0.21109E+08
 
   -0.21091E+08         0.10475E+07         0.00000E+00
    0.10475E+07        -0.46359E+08         0.00000E+00
    0.00000E+00         0.00000E+00        -0.21215E+08
 
   -0.21228E+08         0.10375E+07         0.00000E+00
    0.10375E+07        -0.46594E+08         0.00000E+00
    0.00000E+00         0.00000E+00        -0.21325E+08
 
   -0.21374E+08         0.10226E+07         0.00000E+00
    0.10226E+07        -0.46843E+08         0.00000E+00
    0.00000E+00         0.00000E+00        -0.21440E+08
 
   -0.21530E+08         0.10022E+07         0.00000E+00
    0.10022E+07        -0.47108E+08         0.00000E+00
    0.00000E+00         0.00000E+00        -0.21560E+08
 
   -0.21697E+08         0.97569E+06         0.00000E+00
    0.97569E+06        -0.47388E+08         0.00000E+00
    0.00000E+00         0.00000E+00        -0.21685E+08
 
   -0.21875E+08         0.94247E+06         0.00000E+00
    0.94247E+06        -0.47685E+08         0.00000E+00
    0.00000E+00         0.00000E+00        -0.21815E+08
 
   -0.22065E+08         0.90203E+06         0.00000E+00
    0.90203E+06        -0.47998E+08         0.00000E+00
    0.00000E+00         0.00000E+00        -0.21951E+08
 
   -0.22268E+08         0.85393E+06         0.00000E+00
    0.85393E+06        -0.48329E+08         0.00000E+00
    0.00000E+00         0.00000E+00        -0.22092E+08
 
   -0.22482E+08         0.79792E+06         0.00000E+00
    0.79792E+06        -0.48676E+08         0.00000E+00
    0.00000E+00         0.00000E+00        -0.22239E+08
 
   -0.22708E+08         0.73401E+06         0.00000E+00
    0.73401E+06        -0.49040E+08         0.00000E+00
    0.00000E+00         0.00000E+00        -0.22390E+08
 
   -0.22946E+08         0.66254E+06         0.00000E+00
    0.66254E+06        -0.49418E+08         0.00000E+00
    0.00000E+00         0.00000E+00        -0.22545E+08
 
   -0.23196E+08         0.58431E+06         0.00000E+00
    0.58431E+06        -0.49808E+08         0.00000E+00
    0.00000E+00         0.00000E+00        -0.22702E+08
 
   -0.23456E+08         0.50073E+06         0.00000E+00
    0.50073E+06        -0.50206E+08         0.00000E+00
    0.00000E+00         0.00000E+00        -0.22859E+08
 
   -0.23727E+08         0.41396E+06         0.00000E+00
    0.41396E+06        -0.50609E+08         0.00000E+00
    0.00000E+00         0.00000E+00        -0.23012E+08
 
   -0.24006E+08         0.32696E+06         0.00000E+00
    0.32696E+06        -0.51010E+08         0.00000E+00
    0.00000E+00         0.00000E+00        -0.23155E+08
 
   -0.24295E+08         0.24352E+06         0.00000E+00
    0.24352E+06        -0.51401E+08         0.00000E+00
    0.00000E+00         0.00000E+00        -0.23283E+08
 
   -0.24593E+08         0.16793E+06         0.00000E+00
    0.16793E+06        -0.51773E+08         0.00000E+00
    0.00000E+00         0.00000E+00        -0.23384E+08
 
   -0.24904E+08         0.10427E+06         0.00000E+00
    0.10427E+06        -0.52118E+08         0.00000E+00
    0.00000E+00         0.00000E+00        -0.23450E+08
 
   -0.25231E+08         0.54593E+05         0.00000E+00
    0.54593E+05        -0.52429E+08         0.00000E+00
    0.00000E+00         0.00000E+00        -0.23469E+08
 
   -0.25582E+08         0.16703E+05         0.00000E+00
    0.16703E+05        -0.52701E+08         0.00000E+00
    0.00000E+00         0.00000E+00        -0.23433E+08
 
   -0.10074E+08         0.21421E+05         0.00000E+00
    0.21421E+05        -0.29263E+08         0.00000E+00
    0.00000E+00         0.00000E+00        -0.14682E+08
 
   -0.10796E+08         0.76478E+05         0.00000E+00
    0.76478E+05        -0.29480E+08         0.00000E+00
    0.00000E+00         0.00000E+00        -0.14646E+08
 
   -0.11442E+08         0.16017E+06         0.00000E+00
    0.16017E+06        -0.29796E+08         0.00000E+00
    0.00000E+00         0.00000E+00        -0.14646E+08
 
   -0.11969E+08         0.27847E+06         0.00000E+00
    0.27847E+06        -0.30243E+08         0.00000E+00
    0.00000E+00         0.00000E+00        -0.14646E+08
 
   -0.12402E+08         0.42666E+06         0.00000E+00
    0.42666E+06        -0.30793E+08         0.00000E+00
    0.00000E+00         0.00000E+00        -0.14646E+08
 
   -0.12764E+08         0.59477E+06         0.00000E+00
    0.59477E+06        -0.31415E+08         0.00000E+00
    0.00000E+00         0.00000E+00        -0.14646E+08
 
   -0.13073E+08         0.77206E+06         0.00000E+00
    0.77206E+06        -0.32081E+08         0.00000E+00
    0.00000E+00         0.00000E+00        -0.14646E+08
 
   -0.13389E+08         0.94449E+06         0.00000E+00
    0.94449E+06        -0.32724E+08         0.00000E+00
    0.00000E+00         0.00000E+00        -0.14686E+08
 
   -0.13749E+08         0.10997E+07         0.00000E+00
    0.10997E+07        -0.33295E+08         0.00000E+00
    0.00000E+00         0.00000E+00        -0.14796E+08
 
   -0.14139E+08         0.12328E+07         0.00000E+00
    0.12328E+07        -0.33801E+08         0.00000E+00
    0.00000E+00         0.00000E+00        -0.14962E+08
 
   -0.14506E+08         0.13468E+07         0.00000E+00
    0.13468E+07        -0.34290E+08         0.00000E+00
    0.00000E+00         0.00000E+00        -0.15134E+08
 
   -0.14849E+08         0.14417E+07         0.00000E+00
    0.14417E+07        -0.34758E+08         0.00000E+00
    0.00000E+00         0.00000E+00        -0.15308E+08
 
   -0.15169E+08         0.15183E+07         0.00000E+00
    0.15183E+07        -0.35206E+08         0.00000E+00
    0.00000E+00         0.00000E+00        -0.15480E+08
 
   -0.15466E+08         0.15777E+07         0.00000E+00
    0.15777E+07        -0.35632E+08         0.00000E+00
    0.00000E+00         0.00000E+00        -0.15649E+08
 
   -0.15741E+08         0.16217E+07         0.00000E+00
    0.16217E+07        -0.36037E+08         0.00000E+00
    0.00000E+00         0.00000E+00        -0.15813E+08
 
   -0.15995E+08         0.16518E+07         0.00000E+00
    0.16518E+07        -0.36420E+08         0.00000E+00
    0.00000E+00         0.00000E+00        -0.15972E+08
 
   -0.16229E+08         0.16697E+07         0.00000E+00
    0.16697E+07        -0.36782E+08         0.00000E+00
    0.00000E+00         0.00000E+00        -0.16126E+08
 
   -0.16445E+08         0.16770E+07         0.00000E+00
    0.16770E+07        -0.37125E+08         0.00000E+00
    0.00000E+00         0.00000E+00        -0.16273E+08
 
   -0.16643E+08         0.16753E+07         0.00000E+00
    0.16753E+07        -0.37448E+08         0.00000E+00
    0.00000E+00         0.00000E+00        -0.16415E+08
 
   -0.16826E+08         0.16658E+07         0.00000E+00
    0.16658E+07        -0.37753E+08         0.00000E+00
    0.00000E+00         0.00000E+00        -0.16551E+08
 
   -0.16994E+08         0.16498E+07         0.00000E+00
    0.16498E+07        -0.38041E+08         0.00000E+00
    0.00000E+00         0.00000E+00        -0.16681E+08
 
   -0.17148E+08         0.16286E+07         0.00000E+00
    0.16286E+07        -0.38313E+08         0.00000E+00
    0.00000E+00         0.00000E+00        -0.16807E+08
 
   -0.17291E+08         0.16031E+07         0.00000E+00
    0.16031E+07        -0.38569E+08         0.00000E+00
    0.00000E+00         0.00000E+00        -0.16927E+08
 
   -0.17423E+08         0.15741E+07         0.00000E+00
    0.15741E+07        -0.38812E+08         0.00000E+00
    0.00000E+00         0.00000E+00        -0.17042E+08
 
   -0.17544E+08         0.15425E+07         0.00000E+00
    0.15425E+07        -0.39042E+08         0.00000E+00
    0.00000E+00         0.00000E+00        -0.17153E+08
 
   -0.17657E+08         0.15090E+07         0.00000E+00
    0.15090E+07        -0.39259E+08         0.00000E+00
    0.00000E+00         0.00000E+00        -0.17260E+08
 
   -0.17762E+08         0.14741E+07         0.00000E+00
    0.14741E+07        -0.39465E+08         0.00000E+00
    0.00000E+00         0.00000E+00        -0.17363E+08
 
   -0.17859E+08         0.14384E+07         0.00000E+00
    0.14384E+07        -0.39660E+08         0.00000E+00
    0.00000E+00         0.00000E+00        -0.17461E+08
 
   -0.17950E+08         0.14023E+07         0.00000E+00
    0.14023E+07        -0.39846E+08         0.00000E+00
    0.00000E+00         0.00000E+00        -0.17557E+08
 
   -0.18035E+08         0.13662E+07         0.00000E+00
    0.13662E+07        -0.40022E+08         0.00000E+00
    0.00000E+00         0.00000E+00        -0.17649E+08
 
   -0.18115E+08         0.13304E+07         0.00000E+00
    0.13304E+07        -0.40190E+08         0.00000E+00
    0.00000E+00         0.00000E+00        -0.17737E+08
 
   -0.18189E+08         0.12951E+07         0.00000E+00
    0.12951E+07        -0.40351E+08         0.00000E+00
    0.00000E+00         0.00000E+00        -0.17823E+08
 
   -0.18260E+08         0.12605E+07         0.00000E+00
    0.12605E+07        -0.40504E+08         0.00000E+00
    0.00000E+00         0.00000E+00        -0.17906E+08
 
   -0.18327E+08         0.12270E+07         0.00000E+00
    0.12270E+07        -0.40651E+08         0.00000E+00
    0.00000E+00         0.00000E+00        -0.17986E+08
 
   -0.18390E+08         0.11945E+07         0.00000E+00
    0.11945E+07        -0.40791E+08         0.00000E+00
    0.00000E+00         0.00000E+00        -0.18064E+08
 
   -0.18450E+08         0.11633E+07         0.00000E+00
    0.11633E+07        -0.40926E+08         0.00000E+00
    0.00000E+00         0.00000E+00        -0.18140E+08
 
   -0.18507E+08         0.11334E+07         0.00000E+00
    0.11334E+07        -0.41056E+08         0.00000E+00
    0.00000E+00         0.00000E+00        -0.18213E+08
 
   -0.18562E+08         0.11050E+07         0.00000E+00
    0.11050E+07        -0.41181E+08         0.00000E+00
    0.00000E+00         0.00000E+00        -0.18284E+08
 
   -0.18614E+08         0.10780E+07         0.00000E+00
    0.10780E+07        -0.41301E+08         0.00000E+00
    0.00000E+00         0.00000E+00        -0.18354E+08
 
   -0.18664E+08         0.10525E+07         0.00000E+00
    0.10525E+07        -0.41418E+08         0.00000E+00
    0.00000E+00         0.00000E+00        -0.18421E+08
 
   -0.18713E+08         0.10286E+07         0.00000E+00
    0.10286E+07        -0.41530E+08         0.00000E+00
    0.00000E+00         0.00000E+00        -0.18487E+08
 
   -0.18760E+08         0.10062E+07         0.00000E+00
    0.10062E+07        -0.41640E+08         0.00000E+00
    0.00000E+00         0.00000E+00        -0.18552E+08
 
   -0.18805E+08         0.98544E+06         0.00000E+00
    0.98544E+06        -0.41746E+08         0.00000E+00
    0.00000E+00         0.00000E+00        -0.18615E+08
 
   -0.18849E+08         0.96628E+06         0.00000E+00
    0.96628E+06        -0.41850E+08         0.00000E+00
    0.00000E+00         0.00000E+00        -0.18677E+08
 
   -0.18893E+08         0.94871E+06         0.00000E+00
    0.94871E+06        -0.41952E+08         0.00000E+00
    0.00000E+00         0.00000E+00        -0.18738E+08
 
   -0.18935E+08         0.93273E+06         0.00000E+00
    0.93273E+06        -0.42051E+08         0.00000E+00
    0.00000E+00         0.00000E+00        -0.18798E+08
 
   -0.18976E+08         0.91834E+06         0.00000E+00
    0.91834E+06        -0.42148E+08         0.00000E+00
    0.00000E+00         0.00000E+00        -0.18857E+08
 
   -0.19017E+08         0.90553E+06         0.00000E+00
    0.90553E+06        -0.42244E+08         0.00000E+00
    0.00000E+00         0.00000E+00        -0.18915E+08
 
   -0.19058E+08         0.89427E+06         0.00000E+00
    0.89427E+06        -0.42338E+08         0.00000E+00
    0.00000E+00         0.00000E+00        -0.18973E+08
 
   -0.19098E+08         0.88454E+06         0.00000E+00
    0.88454E+06        -0.42432E+08         0.00000E+00
    0.00000E+00         0.00000E+00        -0.19030E+08
 
   -0.19137E+08         0.87633E+06         0.00000E+00
    0.87633E+06        -0.42524E+08         0.00000E+00
    0.00000E+00         0.00000E+00        -0.19087E+08
 
   -0.19177E+08         0.86961E+06         0.00000E+00
    0.86961E+06        -0.42616E+08         0.00000E+00
    0.00000E+00         0.00000E+00        -0.19143E+08
 
   -0.19217E+08         0.86436E+06         0.00000E+00
    0.86436E+06        -0.42708E+08         0.00000E+00
    0.00000E+00         0.00000E+00        -0.19199E+08
 
   -0.19257E+08         0.86053E+06         0.00000E+00
    0.86053E+06        -0.42800E+08         0.00000E+00
    0.00000E+00         0.00000E+00        -0.19256E+08
 
   -0.19297E+08         0.85811E+06         0.00000E+00
    0.85811E+06        -0.42891E+08         0.00000E+00
    0.00000E+00         0.00000E+00        -0.19312E+08
 
   -0.19338E+08         0.85706E+06         0.00000E+00
    0.85706E+06        -0.42983E+08         0.00000E+00
    0.00000E+00         0.00000E+00        -0.19369E+08
 
   -0.19379E+08         0.85733E+06         0.00000E+00
    0.85733E+06        -0.43076E+08         0.00000E+00
    0.00000E+00         0.00000E+00        -0.19425E+08
 
   -0.19421E+08         0.85888E+06         0.00000E+00
    0.85888E+06        -0.43170E+08         0.00000E+00
    0.00000E+00         0.00000E+00        -0.19483E+08
 
   -0.19464E+08         0.86167E+06         0.00000E+00
    0.86167E+06        -0.43264E+08         0.00000E+00
    0.00000E+00         0.00000E+00        -0.19540E+08
 
   -0.19507E+08         0.86565E+06         0.00000E+00
    0.86565E+06        -0.43360E+08         0.00000E+00
    0.00000E+00         0.00000E+00        -0.19599E+08
 
   -0.19552E+08         0.87075E+06         0.00000E+00
    0.87075E+06        -0.43458E+08         0.00000E+00
    0.00000E+00         0.00000E+00        -0.19658E+08
 
   -0.19599E+08         0.87691E+06         0.00000E+00
    0.87691E+06        -0.43558E+08         0.00000E+00
    0.00000E+00         0.00000E+00        -0.19718E+08
 
   -0.19647E+08         0.88407E+06         0.00000E+00
    0.88407E+06        -0.43660E+08         0.00000E+00
    0.00000E+00         0.00000E+00        -0.19779E+08
 
   -0.19696E+08         0.89214E+06         0.00000E+00
    0.89214E+06        -0.43765E+08         0.00000E+00
    0.00000E+00         0.00000E+00        -0.19842E+08
 
   -0.19748E+08         0.90102E+06         0.00000E+00
    0.90102E+06        -0.43872E+08         0.00000E+00
    0.00000E+00         0.00000E+00        -0.19905E+08
 
   -0.19802E+08         0.91063E+06         0.00000E+00
    0.91063E+06        -0.43983E+08         0.00000E+00
    0.00000E+00         0.00000E+00        -0.19970E+08
 
   -0.19858E+08         0.92084E+06         0.00000E+00
    0.92084E+06        -0.44097E+08         0.00000E+00
    0.00000E+00         0.00000E+00        -0.20037E+08
 
   -0.19917E+08         0.93152E+06         0.00000E+00
    0.93152E+06        -0.44216E+08         0.00000E+00
    0.00000E+00         0.00000E+00        -0.20105E+08
 
   -0.19978E+08         0.94252E+06         0.00000E+00
    0.94252E+06        -0.44338E+08         0.00000E+00
    0.00000E+00         0.00000E+00        -0.20175E+08
 
   -0.20043E+08         0.95369E+06         0.00000E+00
    0.95369E+06        -0.44466E+08         0.00000E+00
    0.00000E+00         0.00000E+00        -0.20247E+08
 
   -0.20112E+08         0.96482E+06         0.00000E+00
    0.96482E+06        -0.44599E+08         0.00000E+00
    0.00000E+00         0.00000E+00        -0.20321E+08
 
   -0.20184E+08         0.97572E+06         0.00000E+00
    0.97572E+06        -0.44738E+08         0.00000E+00
    0.00000E+00         0.00000E+00        -0.20397E+08
 
   -0.20260E+08         0.98614E+06         0.00000E+00
    0.98614E+06        -0.44883E+08         0.00000E+00
    0.00000E+00         0.00000E+00        -0.20475E+08
 
   -0.20342E+08         0.99580E+06         0.00000E+00
    0.99580E+06        -0.45035E+08         0.00000E+00
    0.00000E+00         0.00000E+00        -0.20557E+08
 
   -0.20428E+08         0.10044E+07         0.00000E+00
    0.10044E+07        -0.45195E+08         0.00000E+00
    0.00000E+00         0.00000E+00        -0.20641E+08
 
   -0.20520E+08         0.10116E+07         0.00000E+00
    0.10116E+07        -0.45363E+08         0.00000E+00
    0.00000E+00         0.00000E+00        -0.20728E+08
 
   -0.20618E+08         0.10171E+07         0.00000E+00
    0.10171E+07        -0.45540E+08         0.00000E+00
    0.00000E+00         0.00000E+00        -0.20818E+08
 
   -0.20723E+08         0.10204E+07         0.00000E+00
    0.10204E+07        -0.45727E+08         0.00000E+00
    0.00000E+00         0.00000E+00        -0.20911E+08
 
   -0.20835E+08         0.10210E+07         0.00000E+00
    0.10210E+07        -0.45925E+08         0.00000E+00
    0.00000E+00         0.00000E+00        -0.21008E+08
 
   -0.20954E+08         0.10185E+07         0.00000E+00
    0.10185E+07        -0.46134E+08         0.00000E+00
    0.00000E+00         0.00000E+00        -0.21109E+08
 
   -0.21082E+08         0.10123E+07         0.00000E+00
    0.10123E+07        -0.46356E+08         0.00000E+00
    0.00000E+00         0.00000E+00        -0.21214E+08
 
   -0.21220E+08         0.10019E+07         0.00000E+00
    0.10019E+07        -0.46591E+08         0.00000E+00
    0.00000E+00         0.00000E+00        -0.21323E+08
 
   -0.21367E+08         0.98657E+06         0.00000E+00
    0.98657E+06        -0.46840E+08         0.00000E+00
    0.00000E+00         0.00000E+00        -0.21437E+08
 
   -0.21524E+08         0.96577E+06         0.00000E+00
    0.96577E+06        -0.47104E+08         0.00000E+00
    0.00000E+00         0.00000E+00        -0.21556E+08
 
   -0.21692E+08         0.93886E+06         0.00000E+00
    0.93886E+06        -0.47384E+08         0.00000E+00
    0.00000E+00         0.00000E+00        -0.21680E+08
 
   -0.21872E+08         0.90524E+06         0.00000E+00
    0.90524E+06        -0.47681E+08         0.00000E+00
    0.00000E+00         0.00000E+00        -0.21809E+08
 
   -0.22064E+08         0.86438E+06         0.00000E+00
    0.86438E+06        -0.47994E+08         0.00000E+00
    0.00000E+00         0.00000E+00        -0.21943E+08
 
   -0.22268E+08         0.81585E+06         0.00000E+00
    0.81585E+06        -0.48325E+08         0.00000E+00
    0.00000E+00         0.00000E+00        -0.22083E+08
 
   -0.22485E+08         0.75940E+06         0.00000E+00
    0.75940E+06        -0.48673E+08         0.00000E+00
    0.00000E+00         0.00000E+00        -0.22228E+08
 
   -0.22714E+08         0.69506E+06         0.00000E+00
    0.69506E+06        -0.49038E+08         0.00000E+00
    0.00000E+00         0.00000E+00        -0.22377E+08
 
   -0.22956E+08         0.62319E+06         0.00000E+00
    0.62319E+06        -0.49417E+08         0.00000E+00
    0.00000E+00         0.00000E+00        -0.22530E+08
 
   -0.23210E+08         0.54468E+06         0.00000E+00
    0.54468E+06        -0.49808E+08         0.00000E+00
    0.00000E+00         0.00000E+00        -0.22686E+08
 
   -0.23476E+08         0.46108E+06         0.00000E+00
    0.46108E+06        -0.50210E+08         0.00000E+00
    0.00000E+00         0.00000E+00        -0.22841E+08
 
   -0.23752E+08         0.37476E+06         0.00000E+00
    0.37476E+06        -0.50616E+08         0.00000E+00
    0.00000E+00         0.00000E+00        -0.22992E+08
 
   -0.24038E+08         0.28903E+06         0.00000E+00
    0.28903E+06        -0.51020E+08         0.00000E+00
    0.00000E+00         0.00000E+00        -0.23135E+08
 
   -0.24333E+08         0.20814E+06         0.00000E+00
    0.20814E+06        -0.51416E+08         0.00000E+00
    0.00000E+00         0.00000E+00        -0.23261E+08
 
   -0.24638E+08         0.13694E+06         0.00000E+00
    0.13694E+06        -0.51794E+08         0.00000E+00
    0.00000E+00         0.00000E+00        -0.23363E+08
 
   -0.24956E+08         0.79846E+05         0.00000E+00
    0.79846E+05        -0.52144E+08         0.00000E+00
    0.00000E+00         0.00000E+00        -0.23429E+08
 
   -0.25289E+08         0.38872E+05         0.00000E+00
    0.38872E+05        -0.52460E+08         0.00000E+00
    0.00000E+00         0.00000E+00        -0.23449E+08
 
   -0.25643E+08         0.11247E+05         0.00000E+00
    0.11247E+05        -0.52735E+08         0.00000E+00
    0.00000E+00         0.00000E+00        -0.23414E+08
 
   -0.10001E+08         0.10292E+05         0.00000E+00
    0.10292E+05        -0.29204E+08         0.00000E+00
    0.00000E+00         0.00000E+00        -0.14727E+08
 
   -0.10644E+08         0.44235E+05         0.00000E+00
    0.44235E+05        -0.29491E+08         0.00000E+00
    0.00000E+00         0.00000E+00        -0.14646E+08
 
   -0.11297E+08         0.10992E+06         0.00000E+00
    0.10992E+06        -0.29814E+08         0.00000E+00
    0.00000E+00         0.00000E+00        -0.14646E+08
 
   -0.11835E+08         0.21457E+06         0.00000E+00
    0.21457E+06        -0.30269E+08         0.00000E+00
    0.00000E+00         0.00000E+00        -0.14646E+08
 
   -0.12281E+08         0.35364E+06         0.00000E+00
    0.35364E+06        -0.30825E+08         0.00000E+00
    0.00000E+00         0.00000E+00        -0.14646E+08
 
   -0.12658E+08         0.51644E+06         0.00000E+00
    0.51644E+06        -0.31450E+08         0.00000E+00
    0.00000E+00         0.00000E+00        -0.14646E+08
 
   -0.12982E+08         0.69112E+06         0.00000E+00
    0.69112E+06        -0.32117E+08         0.00000E+00
    0.00000E+00         0.00000E+00        -0.14646E+08
 
   -0.13330E+08         0.86151E+06         0.00000E+00
    0.86151E+06        -0.32742E+08         0.00000E+00
    0.00000E+00         0.00000E+00        -0.14701E+08
 
   -0.13715E+08         0.10167E+07         0.00000E+00
    0.10167E+07        -0.33301E+08         0.00000E+00
    0.00000E+00         0.00000E+00        -0.14820E+08
 
   -0.14112E+08         0.11524E+07         0.00000E+00
    0.11524E+07        -0.33810E+08         0.00000E+00
    0.00000E+00         0.00000E+00        -0.14981E+08
 
   -0.14485E+08         0.12694E+07         0.00000E+00
    0.12694E+07        -0.34301E+08         0.00000E+00
    0.00000E+00         0.00000E+00        -0.15147E+08
 
   -0.14833E+08         0.13672E+07         0.00000E+00
    0.13672E+07        -0.34772E+08         0.00000E+00
    0.00000E+00         0.00000E+00        -0.15316E+08
 
   -0.15158E+08         0.14466E+07         0.00000E+00
    0.14466E+07        -0.35220E+08         0.00000E+00
    0.00000E+00         0.00000E+00        -0.15484E+08
 
   -0.15459E+08         0.15088E+07         0.00000E+00
    0.15088E+07        -0.35647E+08         0.00000E+00
    0.00000E+00         0.00000E+00        -0.15649E+08
 
   -0.15737E+08         0.15553E+07         0.00000E+00
    0.15553E+07        -0.36051E+08         0.00000E+00
    0.00000E+00         0.00000E+00        -0.15811E+08
 
   -0.15994E+08         0.15878E+07         0.00000E+00
    0.15878E+07        -0.36434E+08         0.00000E+00
    0.00000E+00         0.00000E+00        -0.15968E+08
 
   -0.16230E+08         0.16079E+07         0.00000E+00
    0.16079E+07        -0.36796E+08         0.00000E+00
    0.00000E+00         0.00000E+00        -0.16119E+08
 
   -0.16448E+08         0.16172E+07         0.00000E+00
    0.16172E+07        -0.37138E+08         0.00000E+00
    0.00000E+00         0.00000E+00        -0.16265E+08
 
   -0.16647E+08         0.16174E+07         0.00000E+00
    0.16174E+07        -0.37461E+08         0.00000E+00
    0.00000E+00         0.00000E+00        -0.16406E+08
 
   -0.16831E+08         0.16097E+07         0.00000E+00
    0.16097E+07        -0.37765E+08         0.00000E+00
    0.00000E+00         0.00000E+00        -0.16541E+08
 
   -0.17000E+08         0.15955E+07         0.00000E+00
    0.15955E+07        -0.38052E+08         0.00000E+00
    0.00000E+00         0.00000E+00        -0.16670E+08
 
   -0.17155E+08         0.15759E+07         0.00000E+00
    0.15759E+07        -0.38324E+08         0.00000E+00
    0.00000E+00         0.00000E+00        -0.16795E+08
 
   -0.17299E+08         0.15519E+07         0.00000E+00
    0.15519E+07        -0.38580E+08         0.00000E+00
    0.00000E+00         0.00000E+00        -0.16915E+08
 
   -0.17431E+08         0.15245E+07         0.00000E+00
    0.15245E+07        -0.38822E+08         0.00000E+00
    0.00000E+00         0.00000E+00        -0.17030E+08
 
   -0.17552E+08         0.14944E+07         0.00000E+00
    0.14944E+07        -0.39051E+08         0.00000E+00
    0.00000E+00         0.00000E+00        -0.17141E+08
 
   -0.17665E+08         0.14622E+07         0.00000E+00
    0.14622E+07        -0.39267E+08         0.00000E+00
    0.00000E+00         0.00000E+00        -0.17248E+08
 
   -0.17770E+08         0.14288E+07         0.00000E+00
    0.14288E+07        -0.39473E+08         0.00000E+00
    0.00000E+00         0.00000E+00        -0.17351E+08
 
   -0.17867E+08         0.13944E+07         0.00000E+00
    0.13944E+07        -0.39668E+08         0.00000E+00
    0.00000E+00         0.00000E+00        -0.17450E+08
 
   -0.17958E+08         0.13596E+07         0.00000E+00
    0.13596E+07        -0.39853E+08         0.00000E+00
    0.00000E+00         0.00000E+00        -0.17545E+08
 
   -0.18043E+08         0.13247E+07         0.00000E+00
    0.13247E+07        -0.40029E+08         0.00000E+00
    0.00000E+00         0.00000E+00        -0.17637E+08
 
   -0.18122E+08         0.12900E+07         0.00000E+00
    0.12900E+07        -0.40197E+08         0.00000E+00
    0.00000E+00         0.00000E+00        -0.17727E+08
 
   -0.18197E+08         0.12559E+07         0.00000E+00
    0.12559E+07        -0.40357E+08         0.00000E+00
    0.00000E+00         0.00000E+00        -0.17813E+08
 
   -0.18267E+08         0.12225E+07         0.00000E+00
    0.12225E+07        -0.40509E+08         0.00000E+00
    0.00000E+00         0.00000E+00        -0.17896E+08
 
   -0.18333E+08         0.11900E+07         0.00000E+00
    0.11900E+07        -0.40656E+08         0.00000E+00
    0.00000E+00         0.00000E+00        -0.17977E+08
 
   -0.18396E+08         0.11586E+07         0.00000E+00
    0.11586E+07        -0.40796E+08         0.00000E+00
    0.00000E+00         0.00000E+00        -0.18055E+08
 
   -0.18456E+08         0.11283E+07         0.00000E+00
    0.11283E+07        -0.40930E+08         0.00000E+00
    0.00000E+00         0.00000E+00        -0.18131E+08
 
   -0.18513E+08         0.10994E+07         0.00000E+00
    0.10994E+07        -0.41060E+08         0.00000E+00
    0.00000E+00         0.00000E+00        -0.18205E+08
 
   -0.18567E+08         0.10717E+07         0.00000E+00
    0.10717E+07        -0.41184E+08         0.00000E+00
    0.00000E+00         0.00000E+00        -0.18276E+08
 
   -0.18619E+08         0.10456E+07         0.00000E+00
    0.10456E+07        -0.41305E+08         0.00000E+00
    0.00000E+00         0.00000E+00        -0.18346E+08
 
   -0.18669E+08         0.10209E+07         0.00000E+00
    0.10209E+07        -0.41421E+08         0.00000E+00
    0.00000E+00         0.00000E+00        -0.18414E+08
 
   -0.18717E+08         0.99764E+06         0.00000E+00
    0.99764E+06        -0.41533E+08         0.00000E+00
    0.00000E+00         0.00000E+00        -0.18481E+08
 
   -0.18763E+08         0.97595E+06         0.00000E+00
    0.97595E+06        -0.41643E+08         0.00000E+00
    0.00000E+00         0.00000E+00        -0.18546E+08
 
   -0.18808E+08         0.95580E+06         0.00000E+00
    0.95580E+06        -0.41749E+08         0.00000E+00
    0.00000E+00         0.00000E+00        -0.18609E+08
 
   -0.18852E+08         0.93719E+06         0.00000E+00
    0.93719E+06        -0.41853E+08         0.00000E+00
    0.00000E+00         0.00000E+00        -0.18672E+08
 
   -0.18895E+08         0.92014E+06         0.00000E+00
    0.92014E+06        -0.41954E+08         0.00000E+00
    0.00000E+00         0.00000E+00        -0.18733E+08
 
   -0.18937E+08         0.90463E+06         0.00000E+00
    0.90463E+06        -0.42053E+08         0.00000E+00
    0.00000E+00         0.00000E+00        -0.18793E+08
 
   -0.18978E+08         0.89065E+06         0.00000E+00
    0.89065E+06        -0.42150E+08         0.00000E+00
    0.00000E+00         0.00000E+00        -0.18853E+08
 
   -0.19018E+08         0.87820E+06         0.00000E+00
    0.87820E+06        -0.42246E+08         0.00000E+00
    0.00000E+00         0.00000E+00        -0.18911E+08
 
   -0.19058E+08         0.86726E+06         0.00000E+00
    0.86726E+06        -0.42340E+08         0.00000E+00
    0.00000E+00         0.00000E+00        -0.18969E+08
 
   -0.19098E+08         0.85780E+06         0.00000E+00
    0.85780E+06        -0.42433E+08         0.00000E+00
    0.00000E+00         0.00000E+00        -0.19027E+08
 
   -0.19137E+08         0.84981E+06         0.00000E+00
    0.84981E+06        -0.42526E+08         0.00000E+00
    0.00000E+00         0.00000E+00        -0.19084E+08
 
   -0.19176E+08         0.84327E+06         0.00000E+00
    0.84327E+06        -0.42618E+08         0.00000E+00
    0.00000E+00         0.00000E+00        -0.19141E+08
 
   -0.19216E+08         0.83814E+06         0.00000E+00
    0.83814E+06        -0.42709E+08         0.00000E+00
    0.00000E+00         0.00000E+00        -0.19198E+08
 
   -0.19255E+08         0.83440E+06         0.00000E+00
    0.83440E+06        -0.42801E+08         0.00000E+00
    0.00000E+00         0.00000E+00        -0.19254E+08
 
   -0.19295E+08         0.83202E+06         0.00000E+00
    0.83202E+06        -0.42892E+08         0.00000E+00
    0.00000E+00         0.00000E+00        -0.19311E+08
 
   -0.19335E+08         0.83096E+06         0.00000E+00
    0.83096E+06        -0.42984E+08         0.00000E+00
    0.00000E+00         0.00000E+00        -0.19368E+08
 
   -0.19376E+08         0.83118E+06         0.00000E+00
    0.83118E+06        -0.43077E+08         0.00000E+00
    0.00000E+00         0.00000E+00        -0.19425E+08
 
   -0.19418E+08         0.83265E+06         0.00000E+00
    0.83265E+06        -0.43170E+08         0.00000E+00
    0.00000E+00         0.00000E+00        -0.19483E+08
 
   -0.19460E+08         0.83531E+06         0.00000E+00
    0.83531E+06        -0.43265E+08         0.00000E+00
    0.00000E+00         0.00000E+00        -0.19541E+08
 
   -0.19504E+08         0.83912E+06         0.00000E+00
    0.83912E+06        -0.43361E+08         0.00000E+00
    0.00000E+00         0.00000E+00        -0.19599E+08
 
   -0.19548E+08         0.84402E+06         0.00000E+00
    0.84402E+06        -0.43458E+08         0.00000E+00
    0.00000E+00         0.00000E+00        -0.19659E+08
 
   -0.19594E+08         0.84994E+06         0.00000E+00
    0.84994E+06        -0.43558E+08         0.00000E+00
    0.00000E+00         0.00000E+00        -0.19719E+08
 
   -0.19642E+08         0.85682E+06         0.00000E+00
    0.85682E+06        -0.43660E+08         0.00000E+00
    0.00000E+00         0.00000E+00        -0.19781E+08
 
   -0.19691E+08         0.86458E+06         0.00000E+00
    0.86458E+06        -0.43765E+08         0.00000E+00
    0.00000E+00         0.00000E+00        -0.19843E+08
 
   -0.19742E+08         0.87312E+06         0.00000E+00
    0.87312E+06        -0.43872E+08         0.00000E+00
    0.00000E+00         0.00000E+00        -0.19907E+08
 
   -0.19795E+08         0.88236E+06         0.00000E+00
    0.88236E+06        -0.43983E+08         0.00000E+00
    0.00000E+00         0.00000E+00        -0.19972E+08
 
   -0.19851E+08         0.89217E+06         0.00000E+00
    0.89217E+06        -0.44097E+08         0.00000E+00
    0.00000E+00         0.00000E+00        -0.20038E+08
 
   -0.19909E+08         0.90244E+06         0.00000E+00
    0.90244E+06        -0.44215E+08         0.00000E+00
    0.00000E+00         0.00000E+00        -0.20107E+08
 
   -0.19971E+08         0.91300E+06         0.00000E+00
    0.91300E+06        -0.44338E+08         0.00000E+00
    0.00000E+00         0.00000E+00        -0.20177E+08
 
   -0.20035E+08         0.92372E+06         0.00000E+00
    0.92372E+06        -0.44465E+08         0.00000E+00
    0.00000E+00         0.00000E+00        -0.20249E+08
 
   -0.20103E+08         0.93438E+06         0.00000E+00
    0.93438E+06        -0.44598E+08         0.00000E+00
    0.00000E+00         0.00000E+00        -0.20323E+08
 
   -0.20176E+08         0.94480E+06         0.00000E+00
    0.94480E+06        -0.44736E+08         0.00000E+00
    0.00000E+00         0.00000E+00        -0.20399E+08
 
   -0.20252E+08         0.95474E+06         0.00000E+00
    0.95474E+06        -0.44881E+08         0.00000E+00
    0.00000E+00         0.00000E+00        -0.20478E+08
 
   -0.20333E+08         0.96392E+06         0.00000E+00
    0.96392E+06        -0.45033E+08         0.00000E+00
    0.00000E+00         0.00000E+00        -0.20559E+08
 
   -0.20419E+08         0.97205E+06         0.00000E+00
    0.97205E+06        -0.45193E+08         0.00000E+00
    0.00000E+00         0.00000E+00        -0.20642E+08
 
   -0.20511E+08         0.97880E+06         0.00000E+00
    0.97880E+06        -0.45361E+08         0.00000E+00
    0.00000E+00         0.00000E+00        -0.20729E+08
 
   -0.20609E+08         0.98380E+06         0.00000E+00
    0.98380E+06        -0.45538E+08         0.00000E+00
    0.00000E+00         0.00000E+00        -0.20819E+08
 
   -0.20714E+08         0.98663E+06         0.00000E+00
    0.98663E+06        -0.45725E+08         0.00000E+00
    0.00000E+00         0.00000E+00        -0.20912E+08
 
   -0.20826E+08         0.98684E+06         0.00000E+00
    0.98684E+06        -0.45922E+08         0.00000E+00
    0.00000E+00         0.00000E+00        -0.21009E+08
 
   -0.20946E+08         0.98393E+06         0.00000E+00
    0.98393E+06        -0.46131E+08         0.00000E+00
    0.00000E+00         0.00000E+00        -0.21109E+08
 
   -0.21074E+08         0.97735E+06         0.00000E+00
    0.97735E+06        -0.46352E+08         0.00000E+00
    0.00000E+00         0.00000E+00        -0.21213E+08
 
   -0.21212E+08         0.96654E+06         0.00000E+00
    0.96654E+06        -0.46587E+08         0.00000E+00
    0.00000E+00         0.00000E+00        -0.21322E+08
 
   -0.21359E+08         0.95088E+06         0.00000E+00
    0.95088E+06        -0.46836E+08         0.00000E+00
    0.00000E+00         0.00000E+00        -0.21435E+08
 
   -0.21517E+08         0.92975E+06         0.00000E+00
    0.92975E+06        -0.47100E+08         0.00000E+00
    0.00000E+00         0.00000E+00        -0.21553E+08
 
   -0.21687E+08         0.90251E+06         0.00000E+00
    0.90251E+06        -0.47380E+08         0.00000E+00
    0.00000E+00         0.00000E+00        -0.21675E+08
 
   -0.21868E+08         0.86857E+06         0.00000E+00
    0.86857E+06        -0.47676E+08         0.00000E+00
    0.00000E+00         0.00000E+00        -0.21803E+08
 
   -0.22062E+08         0.82739E+06         0.00000E+00
    0.82739E+06        -0.47990E+08         0.00000E+00
    0.00000E+00         0.00000E+00        -0.21936E+08
 
   -0.22268E+08         0.77853E+06         0.00000E+00
    0.77853E+06        -0.48321E+08         0.00000E+00
    0.00000E+00         0.00000E+00        -0.22074E+08
 
   -0.22488E+08         0.72175E+06         0.00000E+00
    0.72175E+06        -0.48670E+08         0.00000E+00
    0.00000E+00         0.00000E+00        -0.22217E+08
 
   -0.22720E+08         0.65708E+06         0.00000E+00
    0.65708E+06        -0.49035E+08         0.00000E+00
    0.00000E+00         0.00000E+00        -0.22365E+08
 
   -0.22966E+08         0.58493E+06         0.00000E+00
    0.58493E+06        -0.49415E+08         0.00000E+00
    0.00000E+00         0.00000E+00        -0.22516E+08
 
   -0.23225E+08         0.50624E+06         0.00000E+00
    0.50624E+06        -0.49809E+08         0.00000E+00
    0.00000E+00         0.00000E+00        -0.22670E+08
 
   -0.23495E+08         0.42270E+06         0.00000E+00
    0.42270E+06        -0.50213E+08         0.00000E+00
    0.00000E+00         0.00000E+00        -0.22823E+08
 
   -0.23777E+08         0.33687E+06         0.00000E+00
    0.33687E+06        -0.50622E+08         0.00000E+00
    0.00000E+00         0.00000E+00        -0.22973E+08
 
   -0.24070E+08         0.25240E+06         0.00000E+00
    0.25240E+06        -0.51031E+08         0.00000E+00
    0.00000E+00         0.00000E+00        -0.23114E+08
 
   -0.24372E+08         0.17398E+06         0.00000E+00
    0.17398E+06        -0.51431E+08         0.00000E+00
    0.00000E+00         0.00000E+00        -0.23241E+08
 
   -0.24684E+08         0.10698E+06         0.00000E+00
    0.10698E+06        -0.51815E+08         0.00000E+00
    0.00000E+00         0.00000E+00        -0.23342E+08
 
   -0.25008E+08         0.56180E+05         0.00000E+00
    0.56180E+05        -0.52172E+08         0.00000E+00
    0.00000E+00         0.00000E+00        -0.23409E+08
 
   -0.25347E+08         0.23593E+05         0.00000E+00
    0.23593E+05        -0.52492E+08         0.00000E+00
    0.00000E+00         0.00000E+00        -0.23430E+08
 
   -0.25704E+08         0.59327E+04         0.00000E+00
    0.59327E+04        -0.52770E+08         0.00000E+00
    0.00000E+00         0.00000E+00        -0.23396E+08
 
   -0.99285E+07        -0.37760E+03         0.00000E+00
   -0.37760E+03        -0.29143E+08         0.00000E+00
    0.00000E+00         0.00000E+00        -0.14770E+08
 
   -0.10494E+08         0.12945E+05         0.00000E+00
    0.12945E+05        -0.29498E+08         0.00000E+00
    0.00000E+00         0.00000E+00        -0.14646E+08
 
   -0.11153E+08         0.61333E+05         0.00000E+00
    0.61333E+05        -0.29830E+08         0.00000E+00
    0.00000E+00         0.00000E+00        -0.14646E+08
 
   -0.11701E+08         0.15301E+06         0.00000E+00
    0.15301E+06        -0.30293E+08         0.00000E+00
    0.00000E+00         0.00000E+00        -0.14646E+08
 
   -0.12160E+08         0.28344E+06         0.00000E+00
    0.28344E+06        -0.30855E+08         0.00000E+00
    0.00000E+00         0.00000E+00        -0.14646E+08
 
   -0.12551E+08         0.44115E+06         0.00000E+00
    0.44115E+06        -0.31483E+08         0.00000E+00
    0.00000E+00         0.00000E+00        -0.14646E+08
 
   -0.12899E+08         0.61274E+06         0.00000E+00
    0.61274E+06        -0.32145E+08         0.00000E+00
    0.00000E+00         0.00000E+00        -0.14652E+08
 
   -0.13272E+08         0.78173E+06         0.00000E+00
    0.78173E+06        -0.32760E+08         0.00000E+00
    0.00000E+00         0.00000E+00        -0.14716E+08
 
   -0.13683E+08         0.93684E+06         0.00000E+00
    0.93684E+06        -0.33306E+08         0.00000E+00
    0.00000E+00         0.00000E+00        -0.14845E+08
 
   -0.14086E+08         0.10747E+07         0.00000E+00
    0.10747E+07        -0.33819E+08         0.00000E+00
    0.00000E+00         0.00000E+00        -0.14999E+08
 
   -0.14465E+08         0.11942E+07         0.00000E+00
    0.11942E+07        -0.34312E+08         0.00000E+00
    0.00000E+00         0.00000E+00        -0.15161E+08
 
   -0.14818E+08         0.12946E+07         0.00000E+00
    0.12946E+07        -0.34784E+08         0.00000E+00
    0.00000E+00         0.00000E+00        -0.15325E+08
 
   -0.15148E+08         0.13766E+07         0.00000E+00
    0.13766E+07        -0.35234E+08         0.00000E+00
    0.00000E+00         0.00000E+00        -0.15489E+08
 
   -0.15452E+08         0.14412E+07         0.00000E+00
    0.14412E+07        -0.35661E+08         0.00000E+00
    0.00000E+00         0.00000E+00        -0.15651E+08
 
   -0.15734E+08         0.14900E+07         0.00000E+00
    0.14900E+07        -0.36066E+08         0.00000E+00
    0.00000E+00         0.00000E+00        -0.15809E+08
 
   -0.15993E+08         0.15246E+07         0.00000E+00
    0.15246E+07        -0.36449E+08         0.00000E+00
    0.00000E+00         0.00000E+00        -0.15964E+08
 
   -0.16232E+08         0.15467E+07         0.00000E+00
    0.15467E+07        -0.36810E+08         0.00000E+00
    0.00000E+00         0.00000E+00        -0.16113E+08
 
   -0.16451E+08         0.15579E+07         0.00000E+00
    0.15579E+07        -0.37152E+08         0.00000E+00
    0.00000E+00         0.00000E+00        -0.16257E+08
 
   -0.16652E+08         0.15598E+07         0.00000E+00
    0.15598E+07        -0.37474E+08         0.00000E+00
    0.00000E+00         0.00000E+00        -0.16397E+08
 
   -0.16837E+08         0.15539E+07         0.00000E+00
    0.15539E+07        -0.37778E+08         0.00000E+00
    0.00000E+00         0.00000E+00        -0.16531E+08
 
   -0.17007E+08         0.15413E+07         0.00000E+00
    0.15413E+07        -0.38064E+08         0.00000E+00
    0.00000E+00         0.00000E+00        -0.16660E+08
 
   -0.17163E+08         0.15232E+07         0.00000E+00
    0.15232E+07        -0.38335E+08         0.00000E+00
    0.00000E+00         0.00000E+00        -0.16784E+08
 
   -0.17307E+08         0.15008E+07         0.00000E+00
    0.15008E+07        -0.38590E+08         0.00000E+00
    0.00000E+00         0.00000E+00        -0.16903E+08
 
   -0.17439E+08         0.14748E+07         0.00000E+00
    0.14748E+07        -0.38831E+08         0.00000E+00
    0.00000E+00         0.00000E+00        -0.17018E+08
 
   -0.17561E+08         0.14461E+07         0.00000E+00
    0.14461E+07        -0.39060E+08         0.00000E+00
    0.00000E+00         0.00000E+00        -0.17129E+08
 
   -0.17674E+08         0.14154E+07         0.00000E+00
    0.14154E+07        -0.39276E+08         0.00000E+00
    0.00000E+00         0.00000E+00        -0.17236E+08
 
   -0.17779E+08         0.13832E+07         0.00000E+00
    0.13832E+07        -0.39481E+08         0.00000E+00
    0.00000E+00         0.00000E+00        -0.17339E+08
 
   -0.17876E+08         0.13502E+07         0.00000E+00
    0.13502E+07        -0.39675E+08         0.00000E+00
    0.00000E+00         0.00000E+00        -0.17438E+08
 
   -0.17967E+08         0.13166E+07         0.00000E+00
    0.13166E+07        -0.39860E+08         0.00000E+00
    0.00000E+00         0.00000E+00        -0.17534E+08
 
   -0.18051E+08         0.12830E+07         0.00000E+00
    0.12830E+07        -0.40035E+08         0.00000E+00
    0.00000E+00         0.00000E+00        -0.17627E+08
 
   -0.18130E+08         0.12495E+07         0.00000E+00
    0.12495E+07        -0.40203E+08         0.00000E+00
    0.00000E+00         0.00000E+00        -0.17716E+08
 
   -0.18205E+08         0.12165E+07         0.00000E+00
    0.12165E+07        -0.40362E+08         0.00000E+00
    0.00000E+00         0.00000E+00        -0.17802E+08
 
   -0.18274E+08         0.11842E+07         0.00000E+00
    0.11842E+07        -0.40515E+08         0.00000E+00
    0.00000E+00         0.00000E+00        -0.17886E+08
 
   -0.18340E+08         0.11528E+07         0.00000E+00
    0.11528E+07        -0.40661E+08         0.00000E+00
    0.00000E+00         0.00000E+00        -0.17967E+08
 
   -0.18403E+08         0.11224E+07         0.00000E+00
    0.11224E+07        -0.40801E+08         0.00000E+00
    0.00000E+00         0.00000E+00        -0.18046E+08
 
   -0.18462E+08         0.10931E+07         0.00000E+00
    0.10931E+07        -0.40935E+08         0.00000E+00
    0.00000E+00         0.00000E+00        -0.18122E+08
 
   -0.18519E+08         0.10650E+07         0.00000E+00
    0.10650E+07        -0.41064E+08         0.00000E+00
    0.00000E+00         0.00000E+00        -0.18197E+08
 
   -0.18572E+08         0.10383E+07         0.00000E+00
    0.10383E+07        -0.41188E+08         0.00000E+00
    0.00000E+00         0.00000E+00        -0.18269E+08
 
   -0.18624E+08         0.10129E+07         0.00000E+00
    0.10129E+07        -0.41308E+08         0.00000E+00
    0.00000E+00         0.00000E+00        -0.18339E+08
 
   -0.18673E+08         0.98900E+06         0.00000E+00
    0.98900E+06        -0.41424E+08         0.00000E+00
    0.00000E+00         0.00000E+00        -0.18408E+08
 
   -0.18721E+08         0.96650E+06         0.00000E+00
    0.96650E+06        -0.41537E+08         0.00000E+00
    0.00000E+00         0.00000E+00        -0.18475E+08
 
   -0.18767E+08         0.94548E+06         0.00000E+00
    0.94548E+06        -0.41646E+08         0.00000E+00
    0.00000E+00         0.00000E+00        -0.18540E+08
 
   -0.18812E+08         0.92595E+06         0.00000E+00
    0.92595E+06        -0.41752E+08         0.00000E+00
    0.00000E+00         0.00000E+00        -0.18604E+08
 
   -0.18855E+08         0.90791E+06         0.00000E+00
    0.90791E+06        -0.41855E+08         0.00000E+00
    0.00000E+00         0.00000E+00        -0.18667E+08
 
   -0.18898E+08         0.89138E+06         0.00000E+00
    0.89138E+06        -0.41956E+08         0.00000E+00
    0.00000E+00         0.00000E+00        -0.18728E+08
 
   -0.18939E+08         0.87633E+06         0.00000E+00
    0.87633E+06        -0.42055E+08         0.00000E+00
    0.00000E+00         0.00000E+00        -0.18789E+08
 
   -0.18980E+08         0.86278E+06         0.00000E+00
    0.86278E+06        -0.42152E+08         0.00000E+00
    0.00000E+00         0.00000E+00        -0.18849E+08
 
   -0.19020E+08         0.85069E+06         0.00000E+00
    0.85069E+06        -0.42248E+08         0.00000E+00
    0.00000E+00         0.00000E+00        -0.18908E+08
 
   -0.19059E+08         0.84007E+06         0.00000E+00
    0.84007E+06        -0.42342E+08         0.00000E+00
    0.00000E+00         0.00000E+00        -0.18966E+08
 
   -0.19098E+08         0.83089E+06         0.00000E+00
    0.83089E+06        -0.42435E+08         0.00000E+00
    0.00000E+00         0.00000E+00        -0.19024E+08
 
   -0.19137E+08         0.82313E+06         0.00000E+00
    0.82313E+06        -0.42527E+08         0.00000E+00
    0.00000E+00         0.00000E+00        -0.19082E+08
 
   -0.19176E+08         0.81676E+06         0.00000E+00
    0.81676E+06        -0.42619E+08         0.00000E+00
    0.00000E+00         0.00000E+00        -0.19139E+08
 
   -0.19215E+08         0.81177E+06         0.00000E+00
    0.81177E+06        -0.42710E+08         0.00000E+00
    0.00000E+00         0.00000E+00        -0.19196E+08
 
   -0.19254E+08         0.80811E+06         0.00000E+00
    0.80811E+06        -0.42802E+08         0.00000E+00
    0.00000E+00         0.00000E+00        -0.19253E+08
 
   -0.19293E+08         0.80578E+06         0.00000E+00
    0.80578E+06        -0.42893E+08         0.00000E+00
    0.00000E+00         0.00000E+00        -0.19310E+08
 
   -0.19333E+08         0.80471E+06         0.00000E+00
    0.80471E+06        -0.42985E+08         0.00000E+00
    0.00000E+00         0.00000E+00        -0.19367E+08
 
   -0.19373E+08         0.80490E+06         0.00000E+00
    0.80490E+06        -0.43077E+08         0.00000E+00
    0.00000E+00         0.00000E+00        -0.19424E+08
 
   -0.19415E+08         0.80628E+06         0.00000E+00
    0.80628E+06        -0.43171E+08         0.00000E+00
    0.00000E+00         0.00000E+00        -0.19482E+08
 
   -0.19457E+08         0.80881E+06         0.00000E+00
    0.80881E+06        -0.43265E+08         0.00000E+00
    0.00000E+00         0.00000E+00        -0.19541E+08
 
   -0.19500E+08         0.81246E+06         0.00000E+00
    0.81246E+06        -0.43361E+08         0.00000E+00
    0.00000E+00         0.00000E+00        -0.19600E+08
 
   -0.19544E+08         0.81715E+06         0.00000E+00
    0.81715E+06        -0.43459E+08         0.00000E+00
    0.00000E+00         0.00000E+00        -0.19659E+08
 
   -0.19589E+08         0.82284E+06         0.00000E+00
    0.82284E+06        -0.43558E+08         0.00000E+00
    0.00000E+00         0.00000E+00        -0.19720E+08
 
   -0.19636E+08         0.82945E+06         0.00000E+00
    0.82945E+06        -0.43660E+08         0.00000E+00
    0.00000E+00         0.00000E+00        -0.19782E+08
 
   -0.19685E+08         0.83690E+06         0.00000E+00
    0.83690E+06        -0.43764E+08         0.00000E+00
    0.00000E+00         0.00000E+00        -0.19844E+08
 
   -0.19736E+08         0.84511E+06         0.00000E+00
    0.84511E+06        -0.43871E+08         0.00000E+00
    0.00000E+00         0.00000E+00        -0.19908E+08
 
   -0.19789E+08         0.85399E+06         0.00000E+00
    0.85399E+06        -0.43982E+08         0.00000E+00
    0.00000E+00         0.00000E+00        -0.19973E+08
 
   -0.19844E+08         0.86341E+06         0.00000E+00
    0.86341E+06        -0.44096E+08         0.00000E+00
    0.00000E+00         0.00000E+00        -0.20040E+08
 
   -0.19902E+08         0.87327E+06         0.00000E+00
    0.87327E+06        -0.44214E+08         0.00000E+00
    0.00000E+00         0.00000E+00        -0.20109E+08
 
   -0.19963E+08         0.88341E+06         0.00000E+00
    0.88341E+06        -0.44337E+08         0.00000E+00
    0.00000E+00         0.00000E+00        -0.20179E+08
 
   -0.20028E+08         0.89367E+06         0.00000E+00
    0.89367E+06        -0.44464E+08         0.00000E+00
    0.00000E+00         0.00000E+00        -0.20251E+08
 
   -0.20095E+08         0.90389E+06         0.00000E+00
    0.90389E+06        -0.44597E+08         0.00000E+00
    0.00000E+00         0.00000E+00        -0.20325E+08
 
   -0.20167E+08         0.91384E+06         0.00000E+00
    0.91384E+06        -0.44735E+08         0.00000E+00
    0.00000E+00         0.00000E+00        -0.20401E+08
 
   -0.20243E+08         0.92331E+06         0.00000E+00
    0.92331E+06        -0.44880E+08         0.00000E+00
    0.00000E+00         0.00000E+00        -0.20480E+08
 
   -0.20324E+08         0.93203E+06         0.00000E+00
    0.93203E+06        -0.45032E+08         0.00000E+00
    0.00000E+00         0.00000E+00        -0.20561E+08
 
   -0.20410E+08         0.93970E+06         0.00000E+00
    0.93970E+06        -0.45191E+08         0.00000E+00
    0.00000E+00         0.00000E+00        -0.20644E+08
 
   -0.20502E+08         0.94600E+06         0.00000E+00
    0.94600E+06        -0.45359E+08         0.00000E+00
    0.00000E+00         0.00000E+00        -0.20731E+08
 
   -0.20600E+08         0.95056E+06         0.00000E+00
    0.95056E+06        -0.45535E+08         0.00000E+00
    0.00000E+00         0.00000E+00        -0.20820E+08
 
   -0.20704E+08         0.95298E+06         0.00000E+00
    0.95298E+06        -0.45722E+08         0.00000E+00
    0.00000E+00         0.00000E+00        -0.20913E+08
 
   -0.20816E+08         0.95279E+06         0.00000E+00
    0.95279E+06        -0.45919E+08         0.00000E+00
    0.00000E+00         0.00000E+00        -0.21009E+08
 
   -0.20937E+08         0.94951E+06         0.00000E+00
    0.94951E+06        -0.46128E+08         0.00000E+00
    0.00000E+00         0.00000E+00        -0.21109E+08
 
   -0.21065E+08         0.94259E+06         0.00000E+00
    0.94259E+06        -0.46349E+08         0.00000E+00
    0.00000E+00         0.00000E+00        -0.21213E+08
 
   -0.21204E+08         0.93147E+06         0.00000E+00
    0.93147E+06        -0.46583E+08         0.00000E+00
    0.00000E+00         0.00000E+00        -0.21320E+08
 
   -0.21352E+08         0.91552E+06         0.00000E+00
    0.91552E+06        -0.46832E+08         0.00000E+00
    0.00000E+00         0.00000E+00        -0.21432E+08
 
   -0.21511E+08         0.89412E+06         0.00000E+00
    0.89412E+06        -0.47095E+08         0.00000E+00
    0.00000E+00         0.00000E+00        -0.21549E+08
 
   -0.21681E+08         0.86664E+06         0.00000E+00
    0.86664E+06        -0.47375E+08         0.00000E+00
    0.00000E+00         0.00000E+00        -0.21671E+08
 
   -0.21864E+08         0.83247E+06         0.00000E+00
    0.83247E+06        -0.47672E+08         0.00000E+00
    0.00000E+00         0.00000E+00        -0.21797E+08
 
   -0.22060E+08         0.79106E+06         0.00000E+00
    0.79106E+06        -0.47986E+08         0.00000E+00
    0.00000E+00         0.00000E+00        -0.21929E+08
 
   -0.22268E+08         0.74197E+06         0.00000E+00
    0.74197E+06        -0.48317E+08         0.00000E+00
    0.00000E+00         0.00000E+00        -0.22065E+08
 
   -0.22490E+08         0.68497E+06         0.00000E+00
    0.68497E+06        -0.48666E+08         0.00000E+00
    0.00000E+00         0.00000E+00        -0.22206E+08
 
   -0.22726E+08         0.62009E+06         0.00000E+00
    0.62009E+06        -0.49032E+08         0.00000E+00
    0.00000E+00         0.00000E+00        -0.22352E+08
 
   -0.22976E+08         0.54777E+06         0.00000E+00
    0.54777E+06        -0.49414E+08         0.00000E+00
    0.00000E+00         0.00000E+00        -0.22502E+08
 
   -0.23239E+08         0.46902E+06         0.00000E+00
    0.46902E+06        -0.49809E+08         0.00000E+00
    0.00000E+00         0.00000E+00        -0.22653E+08
 
   -0.23515E+08         0.38561E+06         0.00000E+00
    0.38561E+06        -0.50216E+08         0.00000E+00
    0.00000E+00         0.00000E+00        -0.22805E+08
 
   -0.23803E+08         0.30031E+06         0.00000E+00
    0.30031E+06        -0.50628E+08         0.00000E+00
    0.00000E+00         0.00000E+00        -0.22954E+08
 
   -0.24102E+08         0.21707E+06         0.00000E+00
    0.21707E+06        -0.51042E+08         0.00000E+00
    0.00000E+00         0.00000E+00        -0.23094E+08
 
   -0.24411E+08         0.14101E+06         0.00000E+00
    0.14101E+06        -0.51448E+08         0.00000E+00
    0.00000E+00         0.00000E+00        -0.23220E+08
 
   -0.24731E+08         0.77994E+05         0.00000E+00
    0.77994E+05        -0.51837E+08         0.00000E+00
    0.00000E+00         0.00000E+00        -0.23323E+08
 
   -0.25061E+08         0.33210E+05         0.00000E+00
    0.33210E+05        -0.52200E+08         0.00000E+00
    0.00000E+00         0.00000E+00        -0.23391E+08
 
   -0.25405E+08         0.87051E+04         0.00000E+00
    0.87051E+04        -0.52526E+08         0.00000E+00
    0.00000E+00         0.00000E+00        -0.23413E+08
 
   -0.25766E+08         0.74099E+03         0.00000E+00
    0.74099E+03        -0.52806E+08         0.00000E+00
    0.00000E+00         0.00000E+00        -0.23380E+08
 
   -0.98557E+07        -0.10640E+05         0.00000E+00
   -0.10640E+05        -0.29079E+08         0.00000E+00
    0.00000E+00         0.00000E+00        -0.14810E+08
 
   -0.10352E+08        -0.17549E+05         0.00000E+00
   -0.17549E+05        -0.29496E+08         0.00000E+00
    0.00000E+00         0.00000E+00        -0.14650E+08
 
   -0.11010E+08         0.14310E+05         0.00000E+00
    0.14310E+05        -0.29842E+08         0.00000E+00
    0.00000E+00         0.00000E+00        -0.14646E+08
 
   -0.11567E+08         0.93696E+05         0.00000E+00
    0.93696E+05        -0.30314E+08         0.00000E+00
    0.00000E+00         0.00000E+00        -0.14646E+08
 
   -0.12039E+08         0.21600E+06         0.00000E+00
    0.21600E+06        -0.30883E+08         0.00000E+00
    0.00000E+00         0.00000E+00        -0.14646E+08
 
   -0.12445E+08         0.36891E+06         0.00000E+00
    0.36891E+06        -0.31517E+08         0.00000E+00
    0.00000E+00         0.00000E+00        -0.14646E+08
 
   -0.12830E+08         0.53671E+06         0.00000E+00
    0.53671E+06        -0.32158E+08         0.00000E+00
    0.00000E+00         0.00000E+00        -0.14670E+08
 
   -0.13218E+08         0.70500E+06         0.00000E+00
    0.70500E+06        -0.32774E+08         0.00000E+00
    0.00000E+00         0.00000E+00        -0.14733E+08
 
   -0.13651E+08         0.86005E+06         0.00000E+00
    0.86005E+06        -0.33310E+08         0.00000E+00
    0.00000E+00         0.00000E+00        -0.14870E+08
 
   -0.14061E+08         0.99970E+06         0.00000E+00
    0.99970E+06        -0.33827E+08         0.00000E+00
    0.00000E+00         0.00000E+00        -0.15018E+08
 
   -0.14446E+08         0.11213E+07         0.00000E+00
    0.11213E+07        -0.34323E+08         0.00000E+00
    0.00000E+00         0.00000E+00        -0.15174E+08
 
   -0.14805E+08         0.12240E+07         0.00000E+00
    0.12240E+07        -0.34797E+08         0.00000E+00
    0.00000E+00         0.00000E+00        -0.15334E+08
 
   -0.15138E+08         0.13081E+07         0.00000E+00
    0.13081E+07        -0.35248E+08         0.00000E+00
    0.00000E+00         0.00000E+00        -0.15494E+08
 
   -0.15447E+08         0.13749E+07         0.00000E+00
    0.13749E+07        -0.35676E+08         0.00000E+00
    0.00000E+00         0.00000E+00        -0.15652E+08
 
   -0.15732E+08         0.14257E+07         0.00000E+00
    0.14257E+07        -0.36080E+08         0.00000E+00
    0.00000E+00         0.00000E+00        -0.15808E+08
 
   -0.15994E+08         0.14622E+07         0.00000E+00
    0.14622E+07        -0.36463E+08         0.00000E+00
    0.00000E+00         0.00000E+00        -0.15960E+08
 
   -0.16234E+08         0.14861E+07         0.00000E+00
    0.14861E+07        -0.36824E+08         0.00000E+00
    0.00000E+00         0.00000E+00        -0.16107E+08
 
   -0.16455E+08         0.14991E+07         0.00000E+00
    0.14991E+07        -0.37165E+08         0.00000E+00
    0.00000E+00         0.00000E+00        -0.16250E+08
 
   -0.16658E+08         0.15027E+07         0.00000E+00
    0.15027E+07        -0.37487E+08         0.00000E+00
    0.00000E+00         0.00000E+00        -0.16388E+08
 
   -0.16844E+08         0.14983E+07         0.00000E+00
    0.14983E+07        -0.37790E+08         0.00000E+00
    0.00000E+00         0.00000E+00        -0.16521E+08
 
   -0.17014E+08         0.14872E+07         0.00000E+00
    0.14872E+07        -0.38076E+08         0.00000E+00
    0.00000E+00         0.00000E+00        -0.16649E+08
 
   -0.17171E+08         0.14706E+07         0.00000E+00
    0.14706E+07        -0.38346E+08         0.00000E+00
    0.00000E+00         0.00000E+00        -0.16773E+08
 
   -0.17315E+08         0.14496E+07         0.00000E+00
    0.14496E+07        -0.38600E+08         0.00000E+00
    0.00000E+00         0.00000E+00        -0.16892E+08
 
   -0.17448E+08         0.14251E+07         0.00000E+00
    0.14251E+07        -0.38841E+08         0.00000E+00
    0.00000E+00         0.00000E+00        -0.17007E+08
 
   -0.17570E+08         0.13978E+07         0.00000E+00
    0.13978E+07        -0.39069E+08         0.00000E+00
    0.00000E+00         0.00000E+00        -0.17118E+08
 
   -0.17683E+08         0.13684E+07         0.00000E+00
    0.13684E+07        -0.39284E+08         0.00000E+00
    0.00000E+00         0.00000E+00        -0.17224E+08
 
   -0.17788E+08         0.13376E+07         0.00000E+00
    0.13376E+07        -0.39489E+08         0.00000E+00
    0.00000E+00         0.00000E+00        -0.17327E+08
 
   -0.17885E+08         0.13058E+07         0.00000E+00
    0.13058E+07        -0.39683E+08         0.00000E+00
    0.00000E+00         0.00000E+00        -0.17427E+08
 
   -0.17975E+08         0.12735E+07         0.00000E+00
    0.12735E+07        -0.39867E+08         0.00000E+00
    0.00000E+00         0.00000E+00        -0.17523E+08
 
   -0.18059E+08         0.12411E+07         0.00000E+00
    0.12411E+07        -0.40042E+08         0.00000E+00
    0.00000E+00         0.00000E+00        -0.17616E+08
 
   -0.18138E+08         0.12088E+07         0.00000E+00
    0.12088E+07        -0.40209E+08         0.00000E+00
    0.00000E+00         0.00000E+00        -0.17706E+08
 
   -0.18212E+08         0.11769E+07         0.00000E+00
    0.11769E+07        -0.40368E+08         0.00000E+00
    0.00000E+00         0.00000E+00        -0.17792E+08
 
   -0.18282E+08         0.11457E+07         0.00000E+00
    0.11457E+07        -0.40520E+08         0.00000E+00
    0.00000E+00         0.00000E+00        -0.17877E+08
 
   -0.18348E+08         0.11154E+07         0.00000E+00
    0.11154E+07        -0.40666E+08         0.00000E+00
    0.00000E+00         0.00000E+00        -0.17958E+08
 
   -0.18410E+08         0.10860E+07         0.00000E+00
    0.10860E+07        -0.40805E+08         0.00000E+00
    0.00000E+00         0.00000E+00        -0.18037E+08
 
   -0.18468E+08         0.10577E+07         0.00000E+00
    0.10577E+07        -0.40939E+08         0.00000E+00
    0.00000E+00         0.00000E+00        -0.18114E+08
 
   -0.18524E+08         0.10305E+07         0.00000E+00
    0.10305E+07        -0.41068E+08         0.00000E+00
    0.00000E+00         0.00000E+00        -0.18189E+08
 
   -0.18578E+08         0.10047E+07         0.00000E+00
    0.10047E+07        -0.41192E+08         0.00000E+00
    0.00000E+00         0.00000E+00        -0.18261E+08
 
   -0.18629E+08         0.98012E+06         0.00000E+00
    0.98012E+06        -0.41312E+08         0.00000E+00
    0.00000E+00         0.00000E+00        -0.18332E+08
 
   -0.18678E+08         0.95694E+06         0.00000E+00
    0.95694E+06        -0.41428E+08         0.00000E+00
    0.00000E+00         0.00000E+00        -0.18401E+08
 
   -0.18725E+08         0.93517E+06         0.00000E+00
    0.93517E+06        -0.41540E+08         0.00000E+00
    0.00000E+00         0.00000E+00        -0.18468E+08
 
   -0.18771E+08         0.91482E+06         0.00000E+00
    0.91482E+06        -0.41649E+08         0.00000E+00
    0.00000E+00         0.00000E+00        -0.18534E+08
 
   -0.18815E+08         0.89591E+06         0.00000E+00
    0.89591E+06        -0.41754E+08         0.00000E+00
    0.00000E+00         0.00000E+00        -0.18599E+08
 
   -0.18858E+08         0.87844E+06         0.00000E+00
    0.87844E+06        -0.41858E+08         0.00000E+00
    0.00000E+00         0.00000E+00        -0.18662E+08
 
   -0.18900E+08         0.86243E+06         0.00000E+00
    0.86243E+06        -0.41959E+08         0.00000E+00
    0.00000E+00         0.00000E+00        -0.18724E+08
 
   -0.18941E+08         0.84786E+06         0.00000E+00
    0.84786E+06        -0.42057E+08         0.00000E+00
    0.00000E+00         0.00000E+00        -0.18785E+08
 
   -0.18981E+08         0.83472E+06         0.00000E+00
    0.83472E+06        -0.42154E+08         0.00000E+00
    0.00000E+00         0.00000E+00        -0.18845E+08
 
   -0.19021E+08         0.82301E+06         0.00000E+00
    0.82301E+06        -0.42249E+08         0.00000E+00
    0.00000E+00         0.00000E+00        -0.18905E+08
 
   -0.19060E+08         0.81271E+06         0.00000E+00
    0.81271E+06        -0.42343E+08         0.00000E+00
    0.00000E+00         0.00000E+00        -0.18963E+08
 
   -0.19099E+08         0.80380E+06         0.00000E+00
    0.80380E+06        -0.42436E+08         0.00000E+00
    0.00000E+00         0.00000E+00        -0.19022E+08
 
   -0.19137E+08         0.79627E+06         0.00000E+00
    0.79627E+06        -0.42529E+08         0.00000E+00
    0.00000E+00         0.00000E+00        -0.19079E+08
 
   -0.19175E+08         0.79009E+06         0.00000E+00
    0.79009E+06        -0.42620E+08         0.00000E+00
    0.00000E+00         0.00000E+00        -0.19137E+08
 
   -0.19214E+08         0.78523E+06         0.00000E+00
    0.78523E+06        -0.42711E+08         0.00000E+00
    0.00000E+00         0.00000E+00        -0.19194E+08
 
   -0.19253E+08         0.78167E+06         0.00000E+00
    0.78167E+06        -0.42803E+08         0.00000E+00
    0.00000E+00         0.00000E+00        -0.19252E+08
 
   -0.19292E+08         0.77938E+06         0.00000E+00
    0.77938E+06        -0.42894E+08         0.00000E+00
    0.00000E+00         0.00000E+00        -0.19309E+08
 
   -0.19331E+08         0.77832E+06         0.00000E+00
    0.77832E+06        -0.42986E+08         0.00000E+00
    0.00000E+00         0.00000E+00        -0.19366E+08
 
   -0.19371E+08         0.77846E+06         0.00000E+00
    0.77846E+06        -0.43078E+08         0.00000E+00
    0.00000E+00         0.00000E+00        -0.19424E+08
 
   -0.19412E+08         0.77976E+06         0.00000E+00
    0.77976E+06        -0.43171E+08         0.00000E+00
    0.00000E+00         0.00000E+00        -0.19482E+08
 
   -0.19453E+08         0.78218E+06         0.00000E+00
    0.78218E+06        -0.43265E+08         0.00000E+00
    0.00000E+00         0.00000E+00        -0.19541E+08
 
   -0.19496E+08         0.78566E+06         0.00000E+00
    0.78566E+06        -0.43361E+08         0.00000E+00
    0.00000E+00         0.00000E+00        -0.19600E+08
 
   -0.19539E+08         0.79016E+06         0.00000E+00
    0.79016E+06        -0.43459E+08         0.00000E+00
    0.00000E+00         0.00000E+00        -0.19660E+08
 
   -0.19585E+08         0.79561E+06         0.00000E+00
    0.79561E+06        -0.43558E+08         0.00000E+00
    0.00000E+00         0.00000E+00        -0.19721E+08
 
   -0.19631E+08         0.80195E+06         0.00000E+00
    0.80195E+06        -0.43660E+08         0.00000E+00
    0.00000E+00         0.00000E+00        -0.19783E+08
 
   -0.19680E+08         0.80911E+06         0.00000E+00
    0.80911E+06        -0.43764E+08         0.00000E+00
    0.00000E+00         0.00000E+00        -0.19846E+08
 
   -0.19730E+08         0.81699E+06         0.00000E+00
    0.81699E+06        -0.43871E+08         0.00000E+00
    0.00000E+00         0.00000E+00        -0.19910E+08
 
   -0.19783E+08         0.82551E+06         0.00000E+00
    0.82551E+06        -0.43981E+08         0.00000E+00
    0.00000E+00         0.00000E+00        -0.19975E+08
 
   -0.19838E+08         0.83456E+06         0.00000E+00
    0.83456E+06        -0.44095E+08         0.00000E+00
    0.00000E+00         0.00000E+00        -0.20042E+08
 
   -0.19895E+08         0.84401E+06         0.00000E+00
    0.84401E+06        -0.44213E+08         0.00000E+00
    0.00000E+00         0.00000E+00        -0.20110E+08
 
   -0.19956E+08         0.85373E+06         0.00000E+00
    0.85373E+06        -0.44335E+08         0.00000E+00
    0.00000E+00         0.00000E+00        -0.20181E+08
 
   -0.20020E+08         0.86357E+06         0.00000E+00
    0.86357E+06        -0.44463E+08         0.00000E+00
    0.00000E+00         0.00000E+00        -0.20253E+08
 
   -0.20087E+08         0.87333E+06         0.00000E+00
    0.87333E+06        -0.44595E+08         0.00000E+00
    0.00000E+00         0.00000E+00        -0.20327E+08
 
   -0.20159E+08         0.88284E+06         0.00000E+00
    0.88284E+06        -0.44733E+08         0.00000E+00
    0.00000E+00         0.00000E+00        -0.20403E+08
 
   -0.20235E+08         0.89185E+06         0.00000E+00
    0.89185E+06        -0.44878E+08         0.00000E+00
    0.00000E+00         0.00000E+00        -0.20482E+08
 
   -0.20315E+08         0.90012E+06         0.00000E+00
    0.90012E+06        -0.45029E+08         0.00000E+00
    0.00000E+00         0.00000E+00        -0.20562E+08
 
   -0.20401E+08         0.90736E+06         0.00000E+00
    0.90736E+06        -0.45189E+08         0.00000E+00
    0.00000E+00         0.00000E+00        -0.20646E+08
 
   -0.20492E+08         0.91323E+06         0.00000E+00
    0.91323E+06        -0.45356E+08         0.00000E+00
    0.00000E+00         0.00000E+00        -0.20732E+08
 
   -0.20590E+08         0.91738E+06         0.00000E+00
    0.91738E+06        -0.45532E+08         0.00000E+00
    0.00000E+00         0.00000E+00        -0.20822E+08
 
   -0.20695E+08         0.91941E+06         0.00000E+00
    0.91941E+06        -0.45719E+08         0.00000E+00
    0.00000E+00         0.00000E+00        -0.20914E+08
 
   -0.20807E+08         0.91887E+06         0.00000E+00
    0.91887E+06        -0.45916E+08         0.00000E+00
    0.00000E+00         0.00000E+00        -0.21010E+08
 
   -0.20927E+08         0.91526E+06         0.00000E+00
    0.91526E+06        -0.46124E+08         0.00000E+00
    0.00000E+00         0.00000E+00        -0.21109E+08
 
   -0.21057E+08         0.90805E+06         0.00000E+00
    0.90805E+06        -0.46345E+08         0.00000E+00
    0.00000E+00         0.00000E+00        -0.21212E+08
 
   -0.21195E+08         0.89666E+06         0.00000E+00
    0.89666E+06        -0.46579E+08         0.00000E+00
    0.00000E+00         0.00000E+00        -0.21319E+08
 
   -0.21344E+08         0.88048E+06         0.00000E+00
    0.88048E+06        -0.46827E+08         0.00000E+00
    0.00000E+00         0.00000E+00        -0.21430E+08
 
   -0.21504E+08         0.85889E+06         0.00000E+00
    0.85889E+06        -0.47091E+08         0.00000E+00
    0.00000E+00         0.00000E+00        -0.21546E+08
 
   -0.21676E+08         0.83124E+06         0.00000E+00
    0.83124E+06        -0.47370E+08         0.00000E+00
    0.00000E+00         0.00000E+00        -0.21666E+08
 
   -0.21860E+08         0.79692E+06         0.00000E+00
    0.79692E+06        -0.47667E+08         0.00000E+00
    0.00000E+00         0.00000E+00        -0.21791E+08
 
   -0.22057E+08         0.75538E+06         0.00000E+00
    0.75538E+06        -0.47981E+08         0.00000E+00
    0.00000E+00         0.00000E+00        -0.21921E+08
 
   -0.22268E+08         0.70619E+06         0.00000E+00
    0.70619E+06        -0.48312E+08         0.00000E+00
    0.00000E+00         0.00000E+00        -0.22056E+08
 
   -0.22493E+08         0.64908E+06         0.00000E+00
    0.64908E+06        -0.48662E+08         0.00000E+00
    0.00000E+00         0.00000E+00        -0.22196E+08
 
   -0.22732E+08         0.58411E+06         0.00000E+00
    0.58411E+06        -0.49029E+08         0.00000E+00
    0.00000E+00         0.00000E+00        -0.22340E+08
 
   -0.22986E+08         0.51174E+06         0.00000E+00
    0.51174E+06        -0.49412E+08         0.00000E+00
    0.00000E+00         0.00000E+00        -0.22487E+08
 
   -0.23254E+08         0.43302E+06         0.00000E+00
    0.43302E+06        -0.49810E+08         0.00000E+00
    0.00000E+00         0.00000E+00        -0.22637E+08
 
   -0.23535E+08         0.34983E+06         0.00000E+00
    0.34983E+06        -0.50219E+08         0.00000E+00
    0.00000E+00         0.00000E+00        -0.22787E+08
 
   -0.23829E+08         0.26510E+06         0.00000E+00
    0.26510E+06        -0.50635E+08         0.00000E+00
    0.00000E+00         0.00000E+00        -0.22934E+08
 
   -0.24135E+08         0.18306E+06         0.00000E+00
    0.18306E+06        -0.51053E+08         0.00000E+00
    0.00000E+00         0.00000E+00        -0.23074E+08
 
   -0.24451E+08         0.10922E+06         0.00000E+00
    0.10922E+06        -0.51464E+08         0.00000E+00
    0.00000E+00         0.00000E+00        -0.23200E+08
 
   -0.24778E+08         0.49960E+05         0.00000E+00
    0.49960E+05        -0.51861E+08         0.00000E+00
    0.00000E+00         0.00000E+00        -0.23303E+08
 
   -0.25115E+08         0.10888E+05         0.00000E+00
    0.10888E+05        -0.52230E+08         0.00000E+00
    0.00000E+00         0.00000E+00        -0.23373E+08
 
   -0.25464E+08        -0.58327E+04         0.00000E+00
   -0.58327E+04        -0.52561E+08         0.00000E+00
    0.00000E+00         0.00000E+00        -0.23397E+08
 
   -0.25829E+08        -0.43446E+04         0.00000E+00
   -0.43446E+04        -0.52845E+08         0.00000E+00
    0.00000E+00         0.00000E+00        -0.23364E+08
 
   -0.97828E+07        -0.20542E+05         0.00000E+00
   -0.20542E+05        -0.29013E+08         0.00000E+00
    0.00000E+00         0.00000E+00        -0.14848E+08
 
   -0.10246E+08        -0.47316E+05         0.00000E+00
   -0.47316E+05        -0.29461E+08         0.00000E+00
    0.00000E+00         0.00000E+00        -0.14675E+08
 
   -0.10867E+08        -0.31246E+05         0.00000E+00
   -0.31246E+05        -0.29852E+08         0.00000E+00
    0.00000E+00         0.00000E+00        -0.14646E+08
 
   -0.11434E+08         0.36568E+05         0.00000E+00
    0.36568E+05        -0.30334E+08         0.00000E+00
    0.00000E+00         0.00000E+00        -0.14646E+08
 
   -0.11918E+08         0.15131E+06         0.00000E+00
    0.15131E+06        -0.30911E+08         0.00000E+00
    0.00000E+00         0.00000E+00        -0.14646E+08
 
   -0.12339E+08         0.29971E+06         0.00000E+00
    0.29971E+06        -0.31549E+08         0.00000E+00
    0.00000E+00         0.00000E+00        -0.14646E+08
 
   -0.12762E+08         0.46412E+06         0.00000E+00
    0.46412E+06        -0.32172E+08         0.00000E+00
    0.00000E+00         0.00000E+00        -0.14689E+08
 
   -0.13180E+08         0.63063E+06         0.00000E+00
    0.63063E+06        -0.32772E+08         0.00000E+00
    0.00000E+00         0.00000E+00        -0.14764E+08
 
   -0.13621E+08         0.78642E+06         0.00000E+00
    0.78642E+06        -0.33314E+08         0.00000E+00
    0.00000E+00         0.00000E+00        -0.14895E+08
 
   -0.14037E+08         0.92745E+06         0.00000E+00
    0.92745E+06        -0.33835E+08         0.00000E+00
    0.00000E+00         0.00000E+00        -0.15038E+08
 
   -0.14428E+08         0.10507E+07         0.00000E+00
    0.10507E+07        -0.34334E+08         0.00000E+00
    0.00000E+00         0.00000E+00        -0.15188E+08
 
   -0.14792E+08         0.11552E+07         0.00000E+00
    0.11552E+07        -0.34810E+08         0.00000E+00
    0.00000E+00         0.00000E+00        -0.15343E+08
 
   -0.15130E+08         0.12413E+07         0.00000E+00
    0.12413E+07        -0.35262E+08         0.00000E+00
    0.00000E+00         0.00000E+00        -0.15499E+08
 
   -0.15442E+08         0.13099E+07         0.00000E+00
    0.13099E+07        -0.35690E+08         0.00000E+00
    0.00000E+00         0.00000E+00        -0.15654E+08
 
   -0.15730E+08         0.13625E+07         0.00000E+00
    0.13625E+07        -0.36095E+08         0.00000E+00
    0.00000E+00         0.00000E+00        -0.15807E+08
 
   -0.15995E+08         0.14007E+07         0.00000E+00
    0.14007E+07        -0.36477E+08         0.00000E+00
    0.00000E+00         0.00000E+00        -0.15956E+08
 
   -0.16238E+08         0.14262E+07         0.00000E+00
    0.14262E+07        -0.36838E+08         0.00000E+00
    0.00000E+00         0.00000E+00        -0.16101E+08
 
   -0.16460E+08         0.14408E+07         0.00000E+00
    0.14408E+07        -0.37179E+08         0.00000E+00
    0.00000E+00         0.00000E+00        -0.16242E+08
 
   -0.16664E+08         0.14458E+07         0.00000E+00
    0.14458E+07        -0.37500E+08         0.00000E+00
    0.00000E+00         0.00000E+00        -0.16379E+08
 
   -0.16851E+08         0.14429E+07         0.00000E+00
    0.14429E+07        -0.37802E+08         0.00000E+00
    0.00000E+00         0.00000E+00        -0.16511E+08
 
   -0.17022E+08         0.14333E+07         0.00000E+00
    0.14333E+07        -0.38088E+08         0.00000E+00
    0.00000E+00         0.00000E+00        -0.16639E+08
 
   -0.17179E+08         0.14181E+07         0.00000E+00
    0.14181E+07        -0.38357E+08         0.00000E+00
    0.00000E+00         0.00000E+00        -0.16762E+08
 
   -0.17324E+08         0.13985E+07         0.00000E+00
    0.13985E+07        -0.38611E+08         0.00000E+00
    0.00000E+00         0.00000E+00        -0.16881E+08
 
   -0.17457E+08         0.13753E+07         0.00000E+00
    0.13753E+07        -0.38851E+08         0.00000E+00
    0.00000E+00         0.00000E+00        -0.16995E+08
 
   -0.17579E+08         0.13493E+07         0.00000E+00
    0.13493E+07        -0.39078E+08         0.00000E+00
    0.00000E+00         0.00000E+00        -0.17106E+08
 
   -0.17692E+08         0.13213E+07         0.00000E+00
    0.13213E+07        -0.39293E+08         0.00000E+00
    0.00000E+00         0.00000E+00        -0.17213E+08
 
   -0.17797E+08         0.12917E+07         0.00000E+00
    0.12917E+07        -0.39497E+08         0.00000E+00
    0.00000E+00         0.00000E+00        -0.17316E+08
 
   -0.17894E+08         0.12612E+07         0.00000E+00
    0.12612E+07        -0.39690E+08         0.00000E+00
    0.00000E+00         0.00000E+00        -0.17416E+08
 
   -0.17984E+08         0.12302E+07         0.00000E+00
    0.12302E+07        -0.39874E+08         0.00000E+00
    0.00000E+00         0.00000E+00        -0.17512E+08
 
   -0.18068E+08         0.11990E+07         0.00000E+00
    0.11990E+07        -0.40049E+08         0.00000E+00
    0.00000E+00         0.00000E+00        -0.17605E+08
 
   -0.18147E+08         0.11679E+07         0.00000E+00
    0.11679E+07        -0.40215E+08         0.00000E+00
    0.00000E+00         0.00000E+00        -0.17695E+08
 
   -0.18220E+08         0.11372E+07         0.00000E+00
    0.11372E+07        -0.40374E+08         0.00000E+00
    0.00000E+00         0.00000E+00        -0.17783E+08
 
   -0.18289E+08         0.11071E+07         0.00000E+00
    0.11071E+07        -0.40526E+08         0.00000E+00
    0.00000E+00         0.00000E+00        -0.17867E+08
 
   -0.18355E+08         0.10777E+07         0.00000E+00
    0.10777E+07        -0.40671E+08         0.00000E+00
    0.00000E+00         0.00000E+00        -0.17949E+08
 
   -0.18416E+08         0.10493E+07         0.00000E+00
    0.10493E+07        -0.40810E+08         0.00000E+00
    0.00000E+00         0.00000E+00        -0.18029E+08
 
   -0.18475E+08         0.10220E+07         0.00000E+00
    0.10220E+07        -0.40944E+08         0.00000E+00
    0.00000E+00         0.00000E+00        -0.18106E+08
 
   -0.18530E+08         0.99579E+06         0.00000E+00
    0.99579E+06        -0.41072E+08         0.00000E+00
    0.00000E+00         0.00000E+00        -0.18181E+08
 
   -0.18583E+08         0.97079E+06         0.00000E+00
    0.97079E+06        -0.41196E+08         0.00000E+00
    0.00000E+00         0.00000E+00        -0.18254E+08
 
   -0.18634E+08         0.94708E+06         0.00000E+00
    0.94708E+06        -0.41316E+08         0.00000E+00
    0.00000E+00         0.00000E+00        -0.18325E+08
 
   -0.18683E+08         0.92468E+06         0.00000E+00
    0.92468E+06        -0.41431E+08         0.00000E+00
    0.00000E+00         0.00000E+00        -0.18395E+08
 
   -0.18730E+08         0.90363E+06         0.00000E+00
    0.90363E+06        -0.41543E+08         0.00000E+00
    0.00000E+00         0.00000E+00        -0.18462E+08
 
   -0.18775E+08         0.88396E+06         0.00000E+00
    0.88396E+06        -0.41652E+08         0.00000E+00
    0.00000E+00         0.00000E+00        -0.18529E+08
 
   -0.18819E+08         0.86567E+06         0.00000E+00
    0.86567E+06        -0.41757E+08         0.00000E+00
    0.00000E+00         0.00000E+00        -0.18593E+08
 
   -0.18861E+08         0.84878E+06         0.00000E+00
    0.84878E+06        -0.41860E+08         0.00000E+00
    0.00000E+00         0.00000E+00        -0.18657E+08
 
   -0.18903E+08         0.83329E+06         0.00000E+00
    0.83329E+06        -0.41961E+08         0.00000E+00
    0.00000E+00         0.00000E+00        -0.18720E+08
 
   -0.18943E+08         0.81920E+06         0.00000E+00
    0.81920E+06        -0.42059E+08         0.00000E+00
    0.00000E+00         0.00000E+00        -0.18781E+08
 
   -0.18983E+08         0.80649E+06         0.00000E+00
    0.80649E+06        -0.42156E+08         0.00000E+00
    0.00000E+00         0.00000E+00        -0.18842E+08
 
   -0.19022E+08         0.79515E+06         0.00000E+00
    0.79515E+06        -0.42251E+08         0.00000E+00
    0.00000E+00         0.00000E+00        -0.18901E+08
 
   -0.19061E+08         0.78518E+06         0.00000E+00
    0.78518E+06        -0.42345E+08         0.00000E+00
    0.00000E+00         0.00000E+00        -0.18960E+08
 
   -0.19099E+08         0.77655E+06         0.00000E+00
    0.77655E+06        -0.42438E+08         0.00000E+00
    0.00000E+00         0.00000E+00        -0.19019E+08
 
   -0.19137E+08         0.76925E+06         0.00000E+00
    0.76925E+06        -0.42530E+08         0.00000E+00
    0.00000E+00         0.00000E+00        -0.19077E+08
 
   -0.19175E+08         0.76326E+06         0.00000E+00
    0.76326E+06        -0.42621E+08         0.00000E+00
    0.00000E+00         0.00000E+00        -0.19135E+08
 
   -0.19213E+08         0.75854E+06         0.00000E+00
    0.75854E+06        -0.42712E+08         0.00000E+00
    0.00000E+00         0.00000E+00        -0.19193E+08
 
   -0.19251E+08         0.75507E+06         0.00000E+00
    0.75507E+06        -0.42803E+08         0.00000E+00
    0.00000E+00         0.00000E+00        -0.19250E+08
 
   -0.19290E+08         0.75283E+06         0.00000E+00
    0.75283E+06        -0.42895E+08         0.00000E+00
    0.00000E+00         0.00000E+00        -0.19308E+08
 
   -0.19329E+08         0.75178E+06         0.00000E+00
    0.75178E+06        -0.42986E+08         0.00000E+00
    0.00000E+00         0.00000E+00        -0.19366E+08
 
   -0.19368E+08         0.75188E+06         0.00000E+00
    0.75188E+06        -0.43078E+08         0.00000E+00
    0.00000E+00         0.00000E+00        -0.19424E+08
 
   -0.19409E+08         0.75310E+06         0.00000E+00
    0.75310E+06        -0.43171E+08         0.00000E+00
    0.00000E+00         0.00000E+00        -0.19482E+08
 
   -0.19450E+08         0.75540E+06         0.00000E+00
    0.75540E+06        -0.43266E+08         0.00000E+00
    0.00000E+00         0.00000E+00        -0.19541E+08
 
   -0.19492E+08         0.75873E+06         0.00000E+00
    0.75873E+06        -0.43361E+08         0.00000E+00
    0.00000E+00         0.00000E+00        -0.19600E+08
 
   -0.19535E+08         0.76304E+06         0.00000E+00
    0.76304E+06        -0.43459E+08         0.00000E+00
    0.00000E+00         0.00000E+00        -0.19661E+08
 
   -0.19580E+08         0.76826E+06         0.00000E+00
    0.76826E+06        -0.43558E+08         0.00000E+00
    0.00000E+00         0.00000E+00        -0.19722E+08
 
   -0.19626E+08         0.77434E+06         0.00000E+00
    0.77434E+06        -0.43659E+08         0.00000E+00
    0.00000E+00         0.00000E+00        -0.19784E+08
 
   -0.19674E+08         0.78120E+06         0.00000E+00
    0.78120E+06        -0.43763E+08         0.00000E+00
    0.00000E+00         0.00000E+00        -0.19847E+08
 
   -0.19724E+08         0.78876E+06         0.00000E+00
    0.78876E+06        -0.43870E+08         0.00000E+00
    0.00000E+00         0.00000E+00        -0.19911E+08
 
   -0.19776E+08         0.79693E+06         0.00000E+00
    0.79693E+06        -0.43981E+08         0.00000E+00
    0.00000E+00         0.00000E+00        -0.19977E+08
 
   -0.19831E+08         0.80561E+06         0.00000E+00
    0.80561E+06        -0.44094E+08         0.00000E+00
    0.00000E+00         0.00000E+00        -0.20044E+08
 
   -0.19888E+08         0.81466E+06         0.00000E+00
    0.81466E+06        -0.44212E+08         0.00000E+00
    0.00000E+00         0.00000E+00        -0.20112E+08
 
   -0.19949E+08         0.82397E+06         0.00000E+00
    0.82397E+06        -0.44334E+08         0.00000E+00
    0.00000E+00         0.00000E+00        -0.20183E+08
 
   -0.20012E+08         0.83338E+06         0.00000E+00
    0.83338E+06        -0.44461E+08         0.00000E+00
    0.00000E+00         0.00000E+00        -0.20255E+08
 
   -0.20079E+08         0.84272E+06         0.00000E+00
    0.84272E+06        -0.44593E+08         0.00000E+00
    0.00000E+00         0.00000E+00        -0.20329E+08
 
   -0.20150E+08         0.85179E+06         0.00000E+00
    0.85179E+06        -0.44732E+08         0.00000E+00
    0.00000E+00         0.00000E+00        -0.20405E+08
 
   -0.20226E+08         0.86037E+06         0.00000E+00
    0.86037E+06        -0.44876E+08         0.00000E+00
    0.00000E+00         0.00000E+00        -0.20484E+08
 
   -0.20306E+08         0.86820E+06         0.00000E+00
    0.86820E+06        -0.45027E+08         0.00000E+00
    0.00000E+00         0.00000E+00        -0.20564E+08
 
   -0.20392E+08         0.87502E+06         0.00000E+00
    0.87502E+06        -0.45186E+08         0.00000E+00
    0.00000E+00         0.00000E+00        -0.20648E+08
 
   -0.20483E+08         0.88049E+06         0.00000E+00
    0.88049E+06        -0.45353E+08         0.00000E+00
    0.00000E+00         0.00000E+00        -0.20734E+08
 
   -0.20581E+08         0.88426E+06         0.00000E+00
    0.88426E+06        -0.45529E+08         0.00000E+00
    0.00000E+00         0.00000E+00        -0.20823E+08
 
   -0.20686E+08         0.88593E+06         0.00000E+00
    0.88593E+06        -0.45715E+08         0.00000E+00
    0.00000E+00         0.00000E+00        -0.20915E+08
 
   -0.20798E+08         0.88506E+06         0.00000E+00
    0.88506E+06        -0.45912E+08         0.00000E+00
    0.00000E+00         0.00000E+00        -0.21010E+08
 
   -0.20918E+08         0.88116E+06         0.00000E+00
    0.88116E+06        -0.46120E+08         0.00000E+00
    0.00000E+00         0.00000E+00        -0.21109E+08
 
   -0.21048E+08         0.87370E+06         0.00000E+00
    0.87370E+06        -0.46340E+08         0.00000E+00
    0.00000E+00         0.00000E+00        -0.21211E+08
 
   -0.21187E+08         0.86210E+06         0.00000E+00
    0.86210E+06        -0.46574E+08         0.00000E+00
    0.00000E+00         0.00000E+00        -0.21318E+08
 
   -0.21336E+08         0.84576E+06         0.00000E+00
    0.84576E+06        -0.46822E+08         0.00000E+00
    0.00000E+00         0.00000E+00        -0.21428E+08
 
   -0.21497E+08         0.82404E+06         0.00000E+00
    0.82404E+06        -0.47085E+08         0.00000E+00
    0.00000E+00         0.00000E+00        -0.21543E+08
 
   -0.21670E+08         0.79631E+06         0.00000E+00
    0.79631E+06        -0.47365E+08         0.00000E+00
    0.00000E+00         0.00000E+00        -0.21662E+08
 
   -0.21856E+08         0.76194E+06         0.00000E+00
    0.76194E+06        -0.47661E+08         0.00000E+00
    0.00000E+00         0.00000E+00        -0.21786E+08
 
   -0.22055E+08         0.72037E+06         0.00000E+00
    0.72037E+06        -0.47975E+08         0.00000E+00
    0.00000E+00         0.00000E+00        -0.21914E+08
 
   -0.22268E+08         0.67117E+06         0.00000E+00
    0.67117E+06        -0.48307E+08         0.00000E+00
    0.00000E+00         0.00000E+00        -0.22048E+08
 
   -0.22495E+08         0.61408E+06         0.00000E+00
    0.61408E+06        -0.48658E+08         0.00000E+00
    0.00000E+00         0.00000E+00        -0.22186E+08
 
   -0.22738E+08         0.54915E+06         0.00000E+00
    0.54915E+06        -0.49025E+08         0.00000E+00
    0.00000E+00         0.00000E+00        -0.22328E+08
 
   -0.22996E+08         0.47684E+06         0.00000E+00
    0.47684E+06        -0.49410E+08         0.00000E+00
    0.00000E+00         0.00000E+00        -0.22473E+08
 
   -0.23268E+08         0.39827E+06         0.00000E+00
    0.39827E+06        -0.49810E+08         0.00000E+00
    0.00000E+00         0.00000E+00        -0.22621E+08
 
   -0.23555E+08         0.31539E+06         0.00000E+00
    0.31539E+06        -0.50222E+08         0.00000E+00
    0.00000E+00         0.00000E+00        -0.22770E+08
 
   -0.23855E+08         0.23126E+06         0.00000E+00
    0.23126E+06        -0.50642E+08         0.00000E+00
    0.00000E+00         0.00000E+00        -0.22915E+08
 
   -0.24168E+08         0.15037E+06         0.00000E+00
    0.15037E+06        -0.51064E+08         0.00000E+00
    0.00000E+00         0.00000E+00        -0.23054E+08
 
   -0.24492E+08         0.78615E+05         0.00000E+00
    0.78615E+05        -0.51482E+08         0.00000E+00
    0.00000E+00         0.00000E+00        -0.23180E+08
 
   -0.24826E+08         0.22853E+05         0.00000E+00
    0.22853E+05        -0.51885E+08         0.00000E+00
    0.00000E+00         0.00000E+00        -0.23284E+08
 
   -0.25170E+08        -0.10822E+05         0.00000E+00
   -0.10822E+05        -0.52261E+08         0.00000E+00
    0.00000E+00         0.00000E+00        -0.23356E+08
 
   -0.25524E+08        -0.20055E+05         0.00000E+00
   -0.20055E+05        -0.52598E+08         0.00000E+00
    0.00000E+00         0.00000E+00        -0.23381E+08
 
   -0.25892E+08        -0.93386E+04         0.00000E+00
   -0.93386E+04        -0.52885E+08         0.00000E+00
    0.00000E+00         0.00000E+00        -0.23350E+08
 
   -0.97096E+07        -0.30120E+05         0.00000E+00
   -0.30120E+05        -0.28945E+08         0.00000E+00
    0.00000E+00         0.00000E+00        -0.14885E+08
 
   -0.10169E+08        -0.75672E+05         0.00000E+00
   -0.75672E+05        -0.29401E+08         0.00000E+00
    0.00000E+00         0.00000E+00        -0.14714E+08
 
   -0.10729E+08        -0.75406E+05         0.00000E+00
   -0.75406E+05        -0.29856E+08         0.00000E+00
    0.00000E+00         0.00000E+00        -0.14648E+08
 
   -0.11300E+08        -0.18412E+05         0.00000E+00
   -0.18412E+05        -0.30352E+08         0.00000E+00
    0.00000E+00         0.00000E+00        -0.14646E+08
 
   -0.11796E+08         0.89364E+05         0.00000E+00
    0.89364E+05        -0.30937E+08         0.00000E+00
    0.00000E+00         0.00000E+00        -0.14646E+08
 
   -0.12255E+08         0.23291E+06         0.00000E+00
    0.23291E+06        -0.31559E+08         0.00000E+00
    0.00000E+00         0.00000E+00        -0.14664E+08
 
   -0.12694E+08         0.39500E+06         0.00000E+00
    0.39500E+06        -0.32184E+08         0.00000E+00
    0.00000E+00         0.00000E+00        -0.14707E+08
 
   -0.13143E+08         0.55980E+06         0.00000E+00
    0.55980E+06        -0.32770E+08         0.00000E+00
    0.00000E+00         0.00000E+00        -0.14795E+08
 
   -0.13592E+08         0.71597E+06         0.00000E+00
    0.71597E+06        -0.33317E+08         0.00000E+00
    0.00000E+00         0.00000E+00        -0.14920E+08
 
   -0.14015E+08         0.85796E+06         0.00000E+00
    0.85796E+06        -0.33842E+08         0.00000E+00
    0.00000E+00         0.00000E+00        -0.15057E+08
 
   -0.14411E+08         0.98254E+06         0.00000E+00
    0.98254E+06        -0.34344E+08         0.00000E+00
    0.00000E+00         0.00000E+00        -0.15203E+08
 
   -0.14781E+08         0.10885E+07         0.00000E+00
    0.10885E+07        -0.34822E+08         0.00000E+00
    0.00000E+00         0.00000E+00        -0.15353E+08
 
   -0.15123E+08         0.11761E+07         0.00000E+00
    0.11761E+07        -0.35275E+08         0.00000E+00
    0.00000E+00         0.00000E+00        -0.15505E+08
 
   -0.15439E+08         0.12462E+07         0.00000E+00
    0.12462E+07        -0.35704E+08         0.00000E+00
    0.00000E+00         0.00000E+00        -0.15656E+08
 
   -0.15730E+08         0.13003E+07         0.00000E+00
    0.13003E+07        -0.36109E+08         0.00000E+00
    0.00000E+00         0.00000E+00        -0.15806E+08
 
   -0.15997E+08         0.13400E+07         0.00000E+00
    0.13400E+07        -0.36492E+08         0.00000E+00
    0.00000E+00         0.00000E+00        -0.15953E+08
 
   -0.16242E+08         0.13670E+07         0.00000E+00
    0.13670E+07        -0.36853E+08         0.00000E+00
    0.00000E+00         0.00000E+00        -0.16096E+08
 
   -0.16466E+08         0.13829E+07         0.00000E+00
    0.13829E+07        -0.37192E+08         0.00000E+00
    0.00000E+00         0.00000E+00        -0.16235E+08
 
   -0.16671E+08         0.13894E+07         0.00000E+00
    0.13894E+07        -0.37513E+08         0.00000E+00
    0.00000E+00         0.00000E+00        -0.16371E+08
 
   -0.16859E+08         0.13878E+07         0.00000E+00
    0.13878E+07        -0.37815E+08         0.00000E+00
    0.00000E+00         0.00000E+00        -0.16502E+08
 
   -0.17031E+08         0.13795E+07         0.00000E+00
    0.13795E+07        -0.38099E+08         0.00000E+00
    0.00000E+00         0.00000E+00        -0.16628E+08
 
   -0.17188E+08         0.13657E+07         0.00000E+00
    0.13657E+07        -0.38368E+08         0.00000E+00
    0.00000E+00         0.00000E+00        -0.16751E+08
 
   -0.17333E+08         0.13474E+07         0.00000E+00
    0.13474E+07        -0.38622E+08         0.00000E+00
    0.00000E+00         0.00000E+00        -0.16870E+08
 
   -0.17466E+08         0.13255E+07         0.00000E+00
    0.13255E+07        -0.38861E+08         0.00000E+00
    0.00000E+00         0.00000E+00        -0.16984E+08
 
   -0.17589E+08         0.13008E+07         0.00000E+00
    0.13008E+07        -0.39088E+08         0.00000E+00
    0.00000E+00         0.00000E+00        -0.17095E+08
 
   -0.17702E+08         0.12740E+07         0.00000E+00
    0.12740E+07        -0.39302E+08         0.00000E+00
    0.00000E+00         0.00000E+00        -0.17202E+08
 
   -0.17806E+08         0.12458E+07         0.00000E+00
    0.12458E+07        -0.39505E+08         0.00000E+00
    0.00000E+00         0.00000E+00        -0.17305E+08
 
   -0.17903E+08         0.12165E+07         0.00000E+00
    0.12165E+07        -0.39698E+08         0.00000E+00
    0.00000E+00         0.00000E+00        -0.17405E+08
 
   -0.17993E+08         0.11867E+07         0.00000E+00
    0.11867E+07        -0.39881E+08         0.00000E+00
    0.00000E+00         0.00000E+00        -0.17501E+08
 
   -0.18077E+08         0.11566E+07         0.00000E+00
    0.11566E+07        -0.40055E+08         0.00000E+00
    0.00000E+00         0.00000E+00        -0.17595E+08
 
   -0.18155E+08         0.11267E+07         0.00000E+00
    0.11267E+07        -0.40222E+08         0.00000E+00
    0.00000E+00         0.00000E+00        -0.17685E+08
 
   -0.18228E+08         0.10971E+07         0.00000E+00
    0.10971E+07        -0.40380E+08         0.00000E+00
    0.00000E+00         0.00000E+00        -0.17773E+08
 
   -0.18297E+08         0.10681E+07         0.00000E+00
    0.10681E+07        -0.40531E+08         0.00000E+00
    0.00000E+00         0.00000E+00        -0.17858E+08
 
   -0.18362E+08         0.10399E+07         0.00000E+00
    0.10399E+07        -0.40676E+08         0.00000E+00
    0.00000E+00         0.00000E+00        -0.17940E+08
 
   -0.18423E+08         0.10125E+07         0.00000E+00
    0.10125E+07        -0.40815E+08         0.00000E+00
    0.00000E+00         0.00000E+00        -0.18020E+08
 
   -0.18481E+08         0.98612E+06         0.00000E+00
    0.98612E+06        -0.40948E+08         0.00000E+00
    0.00000E+00         0.00000E+00        -0.18098E+08
 
   -0.18536E+08         0.96084E+06         0.00000E+00
    0.96084E+06        -0.41076E+08         0.00000E+00
    0.00000E+00         0.00000E+00        -0.18173E+08
 
   -0.18589E+08         0.93672E+06         0.00000E+00
    0.93672E+06        -0.41200E+08         0.00000E+00
    0.00000E+00         0.00000E+00        -0.18247E+08
 
   -0.18639E+08         0.91383E+06         0.00000E+00
    0.91383E+06        -0.41319E+08         0.00000E+00
    0.00000E+00         0.00000E+00        -0.18319E+08
 
   -0.18688E+08         0.89221E+06         0.00000E+00
    0.89221E+06        -0.41434E+08         0.00000E+00
    0.00000E+00         0.00000E+00        -0.18388E+08
 
   -0.18734E+08         0.87189E+06         0.00000E+00
    0.87189E+06        -0.41546E+08         0.00000E+00
    0.00000E+00         0.00000E+00        -0.18456E+08
 
   -0.18779E+08         0.85290E+06         0.00000E+00
    0.85290E+06        -0.41654E+08         0.00000E+00
    0.00000E+00         0.00000E+00        -0.18523E+08
 
   -0.18822E+08         0.83524E+06         0.00000E+00
    0.83524E+06        -0.41760E+08         0.00000E+00
    0.00000E+00         0.00000E+00        -0.18588E+08
 
   -0.18864E+08         0.81893E+06         0.00000E+00
    0.81893E+06        -0.41863E+08         0.00000E+00
    0.00000E+00         0.00000E+00        -0.18652E+08
 
   -0.18905E+08         0.80397E+06         0.00000E+00
    0.80397E+06        -0.41963E+08         0.00000E+00
    0.00000E+00         0.00000E+00        -0.18715E+08
 
   -0.18945E+08         0.79035E+06         0.00000E+00
    0.79035E+06        -0.42062E+08         0.00000E+00
    0.00000E+00         0.00000E+00        -0.18777E+08
 
   -0.18985E+08         0.77807E+06         0.00000E+00
    0.77807E+06        -0.42158E+08         0.00000E+00
    0.00000E+00         0.00000E+00        -0.18838E+08
 
   -0.19023E+08         0.76712E+06         0.00000E+00
    0.76712E+06        -0.42253E+08         0.00000E+00
    0.00000E+00         0.00000E+00        -0.18898E+08
 
   -0.19061E+08         0.75748E+06         0.00000E+00
    0.75748E+06        -0.42347E+08         0.00000E+00
    0.00000E+00         0.00000E+00        -0.18958E+08
 
   -0.19099E+08         0.74914E+06         0.00000E+00
    0.74914E+06        -0.42439E+08         0.00000E+00
    0.00000E+00         0.00000E+00        -0.19017E+08
 
   -0.19137E+08         0.74207E+06         0.00000E+00
    0.74207E+06        -0.42531E+08         0.00000E+00
    0.00000E+00         0.00000E+00        -0.19075E+08
 
   -0.19175E+08         0.73626E+06         0.00000E+00
    0.73626E+06        -0.42623E+08         0.00000E+00
    0.00000E+00         0.00000E+00        -0.19133E+08
 
   -0.19212E+08         0.73169E+06         0.00000E+00
    0.73169E+06        -0.42713E+08         0.00000E+00
    0.00000E+00         0.00000E+00        -0.19191E+08
 
   -0.19250E+08         0.72832E+06         0.00000E+00
    0.72832E+06        -0.42804E+08         0.00000E+00
    0.00000E+00         0.00000E+00        -0.19249E+08
 
   -0.19288E+08         0.72613E+06         0.00000E+00
    0.72613E+06        -0.42895E+08         0.00000E+00
    0.00000E+00         0.00000E+00        -0.19307E+08
 
   -0.19327E+08         0.72509E+06         0.00000E+00
    0.72509E+06        -0.42987E+08         0.00000E+00
    0.00000E+00         0.00000E+00        -0.19365E+08
 
   -0.19366E+08         0.72516E+06         0.00000E+00
    0.72516E+06        -0.43079E+08         0.00000E+00
    0.00000E+00         0.00000E+00        -0.19423E+08
 
   -0.19406E+08         0.72631E+06         0.00000E+00
    0.72631E+06        -0.43172E+08         0.00000E+00
    0.00000E+00         0.00000E+00        -0.19482E+08
 
   -0.19446E+08         0.72849E+06         0.00000E+00
    0.72849E+06        -0.43266E+08         0.00000E+00
    0.00000E+00         0.00000E+00        -0.19541E+08
 
   -0.19488E+08         0.73167E+06         0.00000E+00
    0.73167E+06        -0.43361E+08         0.00000E+00
    0.00000E+00         0.00000E+00        -0.19601E+08
 
   -0.19531E+08         0.73579E+06         0.00000E+00
    0.73579E+06        -0.43459E+08         0.00000E+00
    0.00000E+00         0.00000E+00        -0.19661E+08
 
   -0.19575E+08         0.74079E+06         0.00000E+00
    0.74079E+06        -0.43558E+08         0.00000E+00
    0.00000E+00         0.00000E+00        -0.19723E+08
 
   -0.19621E+08         0.74661E+06         0.00000E+00
    0.74661E+06        -0.43659E+08         0.00000E+00
    0.00000E+00         0.00000E+00        -0.19785E+08
 
   -0.19669E+08         0.75318E+06         0.00000E+00
    0.75318E+06        -0.43763E+08         0.00000E+00
    0.00000E+00         0.00000E+00        -0.19848E+08
 
   -0.19718E+08         0.76042E+06         0.00000E+00
    0.76042E+06        -0.43870E+08         0.00000E+00
    0.00000E+00         0.00000E+00        -0.19913E+08
 
   -0.19770E+08         0.76825E+06         0.00000E+00
    0.76825E+06        -0.43980E+08         0.00000E+00
    0.00000E+00         0.00000E+00        -0.19978E+08
 
   -0.19824E+08         0.77656E+06         0.00000E+00
    0.77656E+06        -0.44093E+08         0.00000E+00
    0.00000E+00         0.00000E+00        -0.20045E+08
 
   -0.19881E+08         0.78523E+06         0.00000E+00
    0.78523E+06        -0.44211E+08         0.00000E+00
    0.00000E+00         0.00000E+00        -0.20114E+08
 
   -0.19941E+08         0.79414E+06         0.00000E+00
    0.79414E+06        -0.44333E+08         0.00000E+00
    0.00000E+00         0.00000E+00        -0.20185E+08
 
   -0.20004E+08         0.80313E+06         0.00000E+00
    0.80313E+06        -0.44460E+08         0.00000E+00
    0.00000E+00         0.00000E+00        -0.20257E+08
 
   -0.20071E+08         0.81204E+06         0.00000E+00
    0.81204E+06        -0.44592E+08         0.00000E+00
    0.00000E+00         0.00000E+00        -0.20331E+08
 
   -0.20142E+08         0.82069E+06         0.00000E+00
    0.82069E+06        -0.44730E+08         0.00000E+00
    0.00000E+00         0.00000E+00        -0.20407E+08
 
   -0.20217E+08         0.82884E+06         0.00000E+00
    0.82884E+06        -0.44874E+08         0.00000E+00
    0.00000E+00         0.00000E+00        -0.20486E+08
 
   -0.20297E+08         0.83626E+06         0.00000E+00
    0.83626E+06        -0.45025E+08         0.00000E+00
    0.00000E+00         0.00000E+00        -0.20566E+08
 
   -0.20383E+08         0.84268E+06         0.00000E+00
    0.84268E+06        -0.45183E+08         0.00000E+00
    0.00000E+00         0.00000E+00        -0.20650E+08
 
   -0.20474E+08         0.84776E+06         0.00000E+00
    0.84776E+06        -0.45350E+08         0.00000E+00
    0.00000E+00         0.00000E+00        -0.20736E+08
 
   -0.20571E+08         0.85118E+06         0.00000E+00
    0.85118E+06        -0.45526E+08         0.00000E+00
    0.00000E+00         0.00000E+00        -0.20824E+08
 
   -0.20676E+08         0.85252E+06         0.00000E+00
    0.85252E+06        -0.45712E+08         0.00000E+00
    0.00000E+00         0.00000E+00        -0.20916E+08
 
   -0.20788E+08         0.85136E+06         0.00000E+00
    0.85136E+06        -0.45908E+08         0.00000E+00
    0.00000E+00         0.00000E+00        -0.21011E+08
 
   -0.20909E+08         0.84722E+06         0.00000E+00
    0.84722E+06        -0.46116E+08         0.00000E+00
    0.00000E+00         0.00000E+00        -0.21109E+08
 
   -0.21039E+08         0.83955E+06         0.00000E+00
    0.83955E+06        -0.46336E+08         0.00000E+00
    0.00000E+00         0.00000E+00        -0.21211E+08
 
   -0.21178E+08         0.82780E+06         0.00000E+00
    0.82780E+06        -0.46569E+08         0.00000E+00
    0.00000E+00         0.00000E+00        -0.21317E+08
 
   -0.21328E+08         0.81136E+06         0.00000E+00
    0.81136E+06        -0.46817E+08         0.00000E+00
    0.00000E+00         0.00000E+00        -0.21426E+08
 
   -0.21490E+08         0.78959E+06         0.00000E+00
    0.78959E+06        -0.47080E+08         0.00000E+00
    0.00000E+00         0.00000E+00        -0.21540E+08
 
   -0.21664E+08         0.76184E+06         0.00000E+00
    0.76184E+06        -0.47359E+08         0.00000E+00
    0.00000E+00         0.00000E+00        -0.21658E+08
 
   -0.21851E+08         0.72751E+06         0.00000E+00
    0.72751E+06        -0.47656E+08         0.00000E+00
    0.00000E+00         0.00000E+00        -0.21780E+08
 
   -0.22052E+08         0.68603E+06         0.00000E+00
    0.68603E+06        -0.47970E+08         0.00000E+00
    0.00000E+00         0.00000E+00        -0.21907E+08
 
   -0.22267E+08         0.63694E+06         0.00000E+00
    0.63694E+06        -0.48302E+08         0.00000E+00
    0.00000E+00         0.00000E+00        -0.22039E+08
 
   -0.22498E+08         0.57998E+06         0.00000E+00
    0.57998E+06        -0.48653E+08         0.00000E+00
    0.00000E+00         0.00000E+00        -0.22175E+08
 
   -0.22744E+08         0.51521E+06         0.00000E+00
    0.51521E+06        -0.49022E+08         0.00000E+00
    0.00000E+00         0.00000E+00        -0.22316E+08
 
   -0.23005E+08         0.44311E+06         0.00000E+00
    0.44311E+06        -0.49408E+08         0.00000E+00
    0.00000E+00         0.00000E+00        -0.22459E+08
 
   -0.23283E+08         0.36480E+06         0.00000E+00
    0.36480E+06        -0.49810E+08         0.00000E+00
    0.00000E+00         0.00000E+00        -0.22605E+08
 
   -0.23575E+08         0.28230E+06         0.00000E+00
    0.28230E+06        -0.50224E+08         0.00000E+00
    0.00000E+00         0.00000E+00        -0.22752E+08
 
   -0.23882E+08         0.19882E+06         0.00000E+00
    0.19882E+06        -0.50648E+08         0.00000E+00
    0.00000E+00         0.00000E+00        -0.22897E+08
 
   -0.24202E+08         0.11903E+06         0.00000E+00
    0.11903E+06        -0.51076E+08         0.00000E+00
    0.00000E+00         0.00000E+00        -0.23035E+08
 
   -0.24533E+08         0.49195E+05         0.00000E+00
    0.49195E+05        -0.51500E+08         0.00000E+00
    0.00000E+00         0.00000E+00        -0.23161E+08
 
   -0.24875E+08        -0.33369E+04         0.00000E+00
   -0.33369E+04        -0.51910E+08         0.00000E+00
    0.00000E+00         0.00000E+00        -0.23266E+08
 
   -0.25225E+08        -0.31945E+05         0.00000E+00
   -0.31945E+05        -0.52293E+08         0.00000E+00
    0.00000E+00         0.00000E+00        -0.23339E+08
 
   -0.25585E+08        -0.33991E+05         0.00000E+00
   -0.33991E+05        -0.52636E+08         0.00000E+00
    0.00000E+00         0.00000E+00        -0.23367E+08
 
   -0.25957E+08        -0.14253E+05         0.00000E+00
   -0.14253E+05        -0.52926E+08         0.00000E+00
    0.00000E+00         0.00000E+00        -0.23337E+08
 
   -0.96358E+07        -0.39408E+05         0.00000E+00
   -0.39408E+05        -0.28874E+08         0.00000E+00
    0.00000E+00         0.00000E+00        -0.14920E+08
 
   -0.10093E+08        -0.10298E+06         0.00000E+00
   -0.10298E+06        -0.29335E+08         0.00000E+00
    0.00000E+00         0.00000E+00        -0.14754E+08
 
   -0.10618E+08        -0.11814E+06         0.00000E+00
   -0.11814E+06        -0.29833E+08         0.00000E+00
    0.00000E+00         0.00000E+00        -0.14668E+08
 
   -0.11175E+08        -0.71266E+05         0.00000E+00
   -0.71266E+05        -0.30360E+08         0.00000E+00
    0.00000E+00         0.00000E+00        -0.14652E+08
 
   -0.11693E+08         0.29988E+05         0.00000E+00
    0.29988E+05        -0.30946E+08         0.00000E+00
    0.00000E+00         0.00000E+00        -0.14659E+08
 
   -0.12176E+08         0.16942E+06         0.00000E+00
    0.16942E+06        -0.31565E+08         0.00000E+00
    0.00000E+00         0.00000E+00        -0.14685E+08
 
   -0.12630E+08         0.32932E+06         0.00000E+00
    0.32932E+06        -0.32194E+08         0.00000E+00
    0.00000E+00         0.00000E+00        -0.14727E+08
 
   -0.13108E+08         0.49255E+06         0.00000E+00
    0.49255E+06        -0.32767E+08         0.00000E+00
    0.00000E+00         0.00000E+00        -0.14826E+08
 
   -0.13563E+08         0.64872E+06         0.00000E+00
    0.64872E+06        -0.33320E+08         0.00000E+00
    0.00000E+00         0.00000E+00        -0.14945E+08
 
   -0.13993E+08         0.79126E+06         0.00000E+00
    0.79126E+06        -0.33850E+08         0.00000E+00
    0.00000E+00         0.00000E+00        -0.15077E+08
 
   -0.14396E+08         0.91673E+06         0.00000E+00
    0.91673E+06        -0.34355E+08         0.00000E+00
    0.00000E+00         0.00000E+00        -0.15217E+08
 
   -0.14770E+08         0.10238E+07         0.00000E+00
    0.10238E+07        -0.34834E+08         0.00000E+00
    0.00000E+00         0.00000E+00        -0.15363E+08
 
   -0.15117E+08         0.11125E+07         0.00000E+00
    0.11125E+07        -0.35289E+08         0.00000E+00
    0.00000E+00         0.00000E+00        -0.15510E+08
 
   -0.15437E+08         0.11839E+07         0.00000E+00
    0.11839E+07        -0.35718E+08         0.00000E+00
    0.00000E+00         0.00000E+00        -0.15658E+08
 
   -0.15730E+08         0.12392E+07         0.00000E+00
    0.12392E+07        -0.36124E+08         0.00000E+00
    0.00000E+00         0.00000E+00        -0.15805E+08
 
   -0.16000E+08         0.12801E+07         0.00000E+00
    0.12801E+07        -0.36506E+08         0.00000E+00
    0.00000E+00         0.00000E+00        -0.15949E+08
 
   -0.16246E+08         0.13084E+07         0.00000E+00
    0.13084E+07        -0.36867E+08         0.00000E+00
    0.00000E+00         0.00000E+00        -0.16090E+08
 
   -0.16472E+08         0.13255E+07         0.00000E+00
    0.13255E+07        -0.37206E+08         0.00000E+00
    0.00000E+00         0.00000E+00        -0.16228E+08
 
   -0.16678E+08         0.13332E+07         0.00000E+00
    0.13332E+07        -0.37526E+08         0.00000E+00
    0.00000E+00         0.00000E+00        -0.16362E+08
 
   -0.16867E+08         0.13329E+07         0.00000E+00
    0.13329E+07        -0.37827E+08         0.00000E+00
    0.00000E+00         0.00000E+00        -0.16492E+08
 
   -0.17040E+08         0.13259E+07         0.00000E+00
    0.13259E+07        -0.38111E+08         0.00000E+00
    0.00000E+00         0.00000E+00        -0.16618E+08
 
   -0.17198E+08         0.13133E+07         0.00000E+00
    0.13133E+07        -0.38379E+08         0.00000E+00
    0.00000E+00         0.00000E+00        -0.16740E+08
 
   -0.17343E+08         0.12962E+07         0.00000E+00
    0.12962E+07        -0.38632E+08         0.00000E+00
    0.00000E+00         0.00000E+00        -0.16859E+08
 
   -0.17476E+08         0.12756E+07         0.00000E+00
    0.12756E+07        -0.38871E+08         0.00000E+00
    0.00000E+00         0.00000E+00        -0.16973E+08
 
   -0.17598E+08         0.12522E+07         0.00000E+00
    0.12522E+07        -0.39097E+08         0.00000E+00
    0.00000E+00         0.00000E+00        -0.17084E+08
 
   -0.17711E+08         0.12267E+07         0.00000E+00
    0.12267E+07        -0.39311E+08         0.00000E+00
    0.00000E+00         0.00000E+00        -0.17191E+08
 
   -0.17816E+08         0.11996E+07         0.00000E+00
    0.11996E+07        -0.39513E+08         0.00000E+00
    0.00000E+00         0.00000E+00        -0.17294E+08
 
   -0.17912E+08         0.11716E+07         0.00000E+00
    0.11716E+07        -0.39706E+08         0.00000E+00
    0.00000E+00         0.00000E+00        -0.17394E+08
 
   -0.18002E+08         0.11430E+07         0.00000E+00
    0.11430E+07        -0.39888E+08         0.00000E+00
    0.00000E+00         0.00000E+00        -0.17491E+08
 
   -0.18085E+08         0.11141E+07         0.00000E+00
    0.11141E+07        -0.40062E+08         0.00000E+00
    0.00000E+00         0.00000E+00        -0.17585E+08
 
   -0.18163E+08         0.10854E+07         0.00000E+00
    0.10854E+07        -0.40228E+08         0.00000E+00
    0.00000E+00         0.00000E+00        -0.17676E+08
 
   -0.18236E+08         0.10569E+07         0.00000E+00
    0.10569E+07        -0.40386E+08         0.00000E+00
    0.00000E+00         0.00000E+00        -0.17764E+08
 
   -0.18305E+08         0.10290E+07         0.00000E+00
    0.10290E+07        -0.40537E+08         0.00000E+00
    0.00000E+00         0.00000E+00        -0.17849E+08
 
   -0.18369E+08         0.10018E+07         0.00000E+00
    0.10018E+07        -0.40681E+08         0.00000E+00
    0.00000E+00         0.00000E+00        -0.17932E+08
 
   -0.18430E+08         0.97544E+06         0.00000E+00
    0.97544E+06        -0.40820E+08         0.00000E+00
    0.00000E+00         0.00000E+00        -0.18012E+08
 
   -0.18488E+08         0.95003E+06         0.00000E+00
    0.95003E+06        -0.40953E+08         0.00000E+00
    0.00000E+00         0.00000E+00        -0.18090E+08
 
   -0.18543E+08         0.92567E+06         0.00000E+00
    0.92567E+06        -0.41081E+08         0.00000E+00
    0.00000E+00         0.00000E+00        -0.18166E+08
 
   -0.18595E+08         0.90244E+06         0.00000E+00
    0.90244E+06        -0.41204E+08         0.00000E+00
    0.00000E+00         0.00000E+00        -0.18240E+08
 
   -0.18645E+08         0.88038E+06         0.00000E+00
    0.88038E+06        -0.41323E+08         0.00000E+00
    0.00000E+00         0.00000E+00        -0.18312E+08
 
   -0.18692E+08         0.85954E+06         0.00000E+00
    0.85954E+06        -0.41438E+08         0.00000E+00
    0.00000E+00         0.00000E+00        -0.18382E+08
 
   -0.18738E+08         0.83996E+06         0.00000E+00
    0.83996E+06        -0.41549E+08         0.00000E+00
    0.00000E+00         0.00000E+00        -0.18451E+08
 
   -0.18783E+08         0.82165E+06         0.00000E+00
    0.82165E+06        -0.41657E+08         0.00000E+00
    0.00000E+00         0.00000E+00        -0.18518E+08
 
   -0.18826E+08         0.80462E+06         0.00000E+00
    0.80462E+06        -0.41763E+08         0.00000E+00
    0.00000E+00         0.00000E+00        -0.18583E+08
 
   -0.18867E+08         0.78890E+06         0.00000E+00
    0.78890E+06        -0.41865E+08         0.00000E+00
    0.00000E+00         0.00000E+00        -0.18648E+08
 
   -0.18908E+08         0.77447E+06         0.00000E+00
    0.77447E+06        -0.41966E+08         0.00000E+00
    0.00000E+00         0.00000E+00        -0.18711E+08
 
   -0.18947E+08         0.76133E+06         0.00000E+00
    0.76133E+06        -0.42064E+08         0.00000E+00
    0.00000E+00         0.00000E+00        -0.18773E+08
 
   -0.18986E+08         0.74949E+06         0.00000E+00
    0.74949E+06        -0.42160E+08         0.00000E+00
    0.00000E+00         0.00000E+00        -0.18835E+08
 
   -0.19025E+08         0.73892E+06         0.00000E+00
    0.73892E+06        -0.42255E+08         0.00000E+00
    0.00000E+00         0.00000E+00        -0.18895E+08
 
   -0.19062E+08         0.72961E+06         0.00000E+00
    0.72961E+06        -0.42348E+08         0.00000E+00
    0.00000E+00         0.00000E+00        -0.18955E+08
 
   -0.19100E+08         0.72156E+06         0.00000E+00
    0.72156E+06        -0.42441E+08         0.00000E+00
    0.00000E+00         0.00000E+00        -0.19014E+08
 
   -0.19137E+08         0.71473E+06         0.00000E+00
    0.71473E+06        -0.42533E+08         0.00000E+00
    0.00000E+00         0.00000E+00        -0.19073E+08
 
   -0.19174E+08         0.70911E+06         0.00000E+00
    0.70911E+06        -0.42624E+08         0.00000E+00
    0.00000E+00         0.00000E+00        -0.19131E+08
 
   -0.19211E+08         0.70468E+06         0.00000E+00
    0.70468E+06        -0.42714E+08         0.00000E+00
    0.00000E+00         0.00000E+00        -0.19190E+08
 
   -0.19249E+08         0.70142E+06         0.00000E+00
    0.70142E+06        -0.42805E+08         0.00000E+00
    0.00000E+00         0.00000E+00        -0.19248E+08
 
   -0.19286E+08         0.69928E+06         0.00000E+00
    0.69928E+06        -0.42896E+08         0.00000E+00
    0.00000E+00         0.00000E+00        -0.19306E+08
 
   -0.19325E+08         0.69825E+06         0.00000E+00
    0.69825E+06        -0.42987E+08         0.00000E+00
    0.00000E+00         0.00000E+00        -0.19364E+08
 
   -0.19363E+08         0.69830E+06         0.00000E+00
    0.69830E+06        -0.43079E+08         0.00000E+00
    0.00000E+00         0.00000E+00        -0.19423E+08
 
   -0.19403E+08         0.69938E+06         0.00000E+00
    0.69938E+06        -0.43172E+08         0.00000E+00
    0.00000E+00         0.00000E+00        -0.19482E+08
 
   -0.19443E+08         0.70145E+06         0.00000E+00
    0.70145E+06        -0.43266E+08         0.00000E+00
    0.00000E+00         0.00000E+00        -0.19541E+08
 
   -0.19484E+08         0.70448E+06         0.00000E+00
    0.70448E+06        -0.43361E+08         0.00000E+00
    0.00000E+00         0.00000E+00        -0.19601E+08
 
   -0.19527E+08         0.70841E+06         0.00000E+00
    0.70841E+06        -0.43458E+08         0.00000E+00
    0.00000E+00         0.00000E+00        -0.19662E+08
 
   -0.19571E+08         0.71319E+06         0.00000E+00
    0.71319E+06        -0.43557E+08         0.00000E+00
    0.00000E+00         0.00000E+00        -0.19723E+08
 
   -0.19616E+08         0.71875E+06         0.00000E+00
    0.71875E+06        -0.43659E+08         0.00000E+00
    0.00000E+00         0.00000E+00        -0.19786E+08
 
   -0.19663E+08         0.72504E+06         0.00000E+00
    0.72504E+06        -0.43762E+08         0.00000E+00
    0.00000E+00         0.00000E+00        -0.19849E+08
 
   -0.19713E+08         0.73197E+06         0.00000E+00
    0.73197E+06        -0.43869E+08         0.00000E+00
    0.00000E+00         0.00000E+00        -0.19914E+08
 
   -0.19764E+08         0.73946E+06         0.00000E+00
    0.73946E+06        -0.43979E+08         0.00000E+00
    0.00000E+00         0.00000E+00        -0.19980E+08
 
   -0.19818E+08         0.74741E+06         0.00000E+00
    0.74741E+06        -0.44092E+08         0.00000E+00
    0.00000E+00         0.00000E+00        -0.20047E+08
 
   -0.19874E+08         0.75570E+06         0.00000E+00
    0.75570E+06        -0.44210E+08         0.00000E+00
    0.00000E+00         0.00000E+00        -0.20116E+08
 
   -0.19934E+08         0.76421E+06         0.00000E+00
    0.76421E+06        -0.44331E+08         0.00000E+00
    0.00000E+00         0.00000E+00        -0.20187E+08
 
   -0.19997E+08         0.77280E+06         0.00000E+00
    0.77280E+06        -0.44458E+08         0.00000E+00
    0.00000E+00         0.00000E+00        -0.20259E+08
 
   -0.20063E+08         0.78130E+06         0.00000E+00
    0.78130E+06        -0.44590E+08         0.00000E+00
    0.00000E+00         0.00000E+00        -0.20333E+08
 
   -0.20134E+08         0.78953E+06         0.00000E+00
    0.78953E+06        -0.44727E+08         0.00000E+00
    0.00000E+00         0.00000E+00        -0.20409E+08
 
   -0.20208E+08         0.79728E+06         0.00000E+00
    0.79728E+06        -0.44871E+08         0.00000E+00
    0.00000E+00         0.00000E+00        -0.20488E+08
 
   -0.20288E+08         0.80430E+06         0.00000E+00
    0.80430E+06        -0.45022E+08         0.00000E+00
    0.00000E+00         0.00000E+00        -0.20568E+08
 
   -0.20373E+08         0.81033E+06         0.00000E+00
    0.81033E+06        -0.45181E+08         0.00000E+00
    0.00000E+00         0.00000E+00        -0.20651E+08
 
   -0.20464E+08         0.81506E+06         0.00000E+00
    0.81506E+06        -0.45347E+08         0.00000E+00
    0.00000E+00         0.00000E+00        -0.20737E+08
 
   -0.20562E+08         0.81814E+06         0.00000E+00
    0.81814E+06        -0.45523E+08         0.00000E+00
    0.00000E+00         0.00000E+00        -0.20826E+08
 
   -0.20666E+08         0.81918E+06         0.00000E+00
    0.81918E+06        -0.45708E+08         0.00000E+00
    0.00000E+00         0.00000E+00        -0.20917E+08
 
   -0.20779E+08         0.81777E+06         0.00000E+00
    0.81777E+06        -0.45904E+08         0.00000E+00
    0.00000E+00         0.00000E+00        -0.21012E+08
 
   -0.20899E+08         0.81341E+06         0.00000E+00
    0.81341E+06        -0.46111E+08         0.00000E+00
    0.00000E+00         0.00000E+00        -0.21109E+08
 
   -0.21029E+08         0.80559E+06         0.00000E+00
    0.80559E+06        -0.46331E+08         0.00000E+00
    0.00000E+00         0.00000E+00        -0.21211E+08
 
   -0.21169E+08         0.79374E+06         0.00000E+00
    0.79374E+06        -0.46564E+08         0.00000E+00
    0.00000E+00         0.00000E+00        -0.21315E+08
 
   -0.21320E+08         0.77726E+06         0.00000E+00
    0.77726E+06        -0.46812E+08         0.00000E+00
    0.00000E+00         0.00000E+00        -0.21424E+08
 
   -0.21482E+08         0.75550E+06         0.00000E+00
    0.75550E+06        -0.47074E+08         0.00000E+00
    0.00000E+00         0.00000E+00        -0.21537E+08
 
   -0.21657E+08         0.72784E+06         0.00000E+00
    0.72784E+06        -0.47353E+08         0.00000E+00
    0.00000E+00         0.00000E+00        -0.21654E+08
 
   -0.21846E+08         0.69364E+06         0.00000E+00
    0.69364E+06        -0.47650E+08         0.00000E+00
    0.00000E+00         0.00000E+00        -0.21775E+08
 
   -0.22049E+08         0.65234E+06         0.00000E+00
    0.65234E+06        -0.47964E+08         0.00000E+00
    0.00000E+00         0.00000E+00        -0.21901E+08
 
   -0.22266E+08         0.60348E+06         0.00000E+00
    0.60348E+06        -0.48297E+08         0.00000E+00
    0.00000E+00         0.00000E+00        -0.22031E+08
 
   -0.22499E+08         0.54679E+06         0.00000E+00
    0.54679E+06        -0.48648E+08         0.00000E+00
    0.00000E+00         0.00000E+00        -0.22165E+08
 
   -0.22749E+08         0.48232E+06         0.00000E+00
    0.48232E+06        -0.49018E+08         0.00000E+00
    0.00000E+00         0.00000E+00        -0.22304E+08
 
   -0.23015E+08         0.41055E+06         0.00000E+00
    0.41055E+06        -0.49405E+08         0.00000E+00
    0.00000E+00         0.00000E+00        -0.22446E+08
 
   -0.23297E+08         0.33263E+06         0.00000E+00
    0.33263E+06        -0.49809E+08         0.00000E+00
    0.00000E+00         0.00000E+00        -0.22590E+08
 
   -0.23595E+08         0.25061E+06         0.00000E+00
    0.25061E+06        -0.50227E+08         0.00000E+00
    0.00000E+00         0.00000E+00        -0.22735E+08
 
   -0.23909E+08         0.16780E+06         0.00000E+00
    0.16780E+06        -0.50655E+08         0.00000E+00
    0.00000E+00         0.00000E+00        -0.22878E+08
 
   -0.24236E+08         0.89060E+05         0.00000E+00
    0.89060E+05        -0.51088E+08         0.00000E+00
    0.00000E+00         0.00000E+00        -0.23015E+08
 
   -0.24575E+08         0.20981E+05         0.00000E+00
    0.20981E+05        -0.51518E+08         0.00000E+00
    0.00000E+00         0.00000E+00        -0.23142E+08
 
   -0.24924E+08        -0.28608E+05         0.00000E+00
   -0.28608E+05        -0.51935E+08         0.00000E+00
    0.00000E+00         0.00000E+00        -0.23248E+08
 
   -0.25281E+08        -0.52499E+05         0.00000E+00
   -0.52499E+05        -0.52327E+08         0.00000E+00
    0.00000E+00         0.00000E+00        -0.23323E+08
 
   -0.25647E+08        -0.47662E+05         0.00000E+00
   -0.47662E+05        -0.52676E+08         0.00000E+00
    0.00000E+00         0.00000E+00        -0.23354E+08
 
   -0.26022E+08        -0.19100E+05         0.00000E+00
   -0.19100E+05        -0.52970E+08         0.00000E+00
    0.00000E+00         0.00000E+00        -0.23325E+08
 
   -0.95612E+07        -0.48432E+05         0.00000E+00
   -0.48432E+05        -0.28800E+08         0.00000E+00
    0.00000E+00         0.00000E+00        -0.14954E+08
 
   -0.10018E+08        -0.12933E+06         0.00000E+00
   -0.12933E+06        -0.29267E+08         0.00000E+00
    0.00000E+00         0.00000E+00        -0.14793E+08
 
   -0.10517E+08        -0.15912E+06         0.00000E+00
   -0.15912E+06        -0.29800E+08         0.00000E+00
    0.00000E+00         0.00000E+00        -0.14693E+08
 
   -0.11075E+08        -0.12183E+06         0.00000E+00
   -0.12183E+06        -0.30345E+08         0.00000E+00
    0.00000E+00         0.00000E+00        -0.14674E+08
 
   -0.11602E+08        -0.26462E+05         0.00000E+00
   -0.26462E+05        -0.30942E+08         0.00000E+00
    0.00000E+00         0.00000E+00        -0.14681E+08
 
   -0.12097E+08         0.10943E+06         0.00000E+00
    0.10943E+06        -0.31570E+08         0.00000E+00
    0.00000E+00         0.00000E+00        -0.14705E+08
 
   -0.12586E+08         0.26679E+06         0.00000E+00
    0.26679E+06        -0.32184E+08         0.00000E+00
    0.00000E+00         0.00000E+00        -0.14763E+08
 
   -0.13073E+08         0.42888E+06         0.00000E+00
    0.42888E+06        -0.32764E+08         0.00000E+00
    0.00000E+00         0.00000E+00        -0.14858E+08
 
   -0.13536E+08         0.58469E+06         0.00000E+00
    0.58469E+06        -0.33323E+08         0.00000E+00
    0.00000E+00         0.00000E+00        -0.14970E+08
 
   -0.13973E+08         0.72737E+06         0.00000E+00
    0.72737E+06        -0.33857E+08         0.00000E+00
    0.00000E+00         0.00000E+00        -0.15097E+08
 
   -0.14381E+08         0.85331E+06         0.00000E+00
    0.85331E+06        -0.34365E+08         0.00000E+00
    0.00000E+00         0.00000E+00        -0.15232E+08
 
   -0.14761E+08         0.96107E+06         0.00000E+00
    0.96107E+06        -0.34846E+08         0.00000E+00
    0.00000E+00         0.00000E+00        -0.15372E+08
 
   -0.15112E+08         0.10506E+07         0.00000E+00
    0.10506E+07        -0.35302E+08         0.00000E+00
    0.00000E+00         0.00000E+00        -0.15516E+08
 
   -0.15435E+08         0.11229E+07         0.00000E+00
    0.11229E+07        -0.35733E+08         0.00000E+00
    0.00000E+00         0.00000E+00        -0.15660E+08
 
   -0.15732E+08         0.11792E+07         0.00000E+00
    0.11792E+07        -0.36138E+08         0.00000E+00
    0.00000E+00         0.00000E+00        -0.15804E+08
 
   -0.16004E+08         0.12211E+07         0.00000E+00
    0.12211E+07        -0.36521E+08         0.00000E+00
    0.00000E+00         0.00000E+00        -0.15946E+08
 
   -0.16252E+08         0.12504E+07         0.00000E+00
    0.12504E+07        -0.36881E+08         0.00000E+00
    0.00000E+00         0.00000E+00        -0.16085E+08
 
   -0.16479E+08         0.12686E+07         0.00000E+00
    0.12686E+07        -0.37220E+08         0.00000E+00
    0.00000E+00         0.00000E+00        -0.16221E+08
 
   -0.16687E+08         0.12774E+07         0.00000E+00
    0.12774E+07        -0.37539E+08         0.00000E+00
    0.00000E+00         0.00000E+00        -0.16354E+08
 
   -0.16876E+08         0.12782E+07         0.00000E+00
    0.12782E+07        -0.37840E+08         0.00000E+00
    0.00000E+00         0.00000E+00        -0.16483E+08
 
   -0.17049E+08         0.12723E+07         0.00000E+00
    0.12723E+07        -0.38123E+08         0.00000E+00
    0.00000E+00         0.00000E+00        -0.16608E+08
 
   -0.17208E+08         0.12609E+07         0.00000E+00
    0.12609E+07        -0.38391E+08         0.00000E+00
    0.00000E+00         0.00000E+00        -0.16730E+08
 
   -0.17353E+08         0.12451E+07         0.00000E+00
    0.12451E+07        -0.38643E+08         0.00000E+00
    0.00000E+00         0.00000E+00        -0.16848E+08
 
   -0.17486E+08         0.12256E+07         0.00000E+00
    0.12256E+07        -0.38881E+08         0.00000E+00
    0.00000E+00         0.00000E+00        -0.16962E+08
 
   -0.17609E+08         0.12034E+07         0.00000E+00
    0.12034E+07        -0.39106E+08         0.00000E+00
    0.00000E+00         0.00000E+00        -0.17073E+08
 
   -0.17721E+08         0.11791E+07         0.00000E+00
    0.11791E+07        -0.39320E+08         0.00000E+00
    0.00000E+00         0.00000E+00        -0.17180E+08
 
   -0.17825E+08         0.11533E+07         0.00000E+00
    0.11533E+07        -0.39522E+08         0.00000E+00
    0.00000E+00         0.00000E+00        -0.17283E+08
 
   -0.17922E+08         0.11265E+07         0.00000E+00
    0.11265E+07        -0.39714E+08         0.00000E+00
    0.00000E+00         0.00000E+00        -0.17384E+08
 
   -0.18011E+08         0.10991E+07         0.00000E+00
    0.10991E+07        -0.39896E+08         0.00000E+00
    0.00000E+00         0.00000E+00        -0.17481E+08
 
   -0.18094E+08         0.10714E+07         0.00000E+00
    0.10714E+07        -0.40069E+08         0.00000E+00
    0.00000E+00         0.00000E+00        -0.17575E+08
 
   -0.18172E+08         0.10438E+07         0.00000E+00
    0.10438E+07        -0.40234E+08         0.00000E+00
    0.00000E+00         0.00000E+00        -0.17666E+08
 
   -0.18245E+08         0.10165E+07         0.00000E+00
    0.10165E+07        -0.40392E+08         0.00000E+00
    0.00000E+00         0.00000E+00        -0.17754E+08
 
   -0.18313E+08         0.98967E+06         0.00000E+00
    0.98967E+06        -0.40542E+08         0.00000E+00
    0.00000E+00         0.00000E+00        -0.17840E+08
 
   -0.18377E+08         0.96352E+06         0.00000E+00
    0.96352E+06        -0.40687E+08         0.00000E+00
    0.00000E+00         0.00000E+00        -0.17923E+08
 
   -0.18437E+08         0.93817E+06         0.00000E+00
    0.93817E+06        -0.40825E+08         0.00000E+00
    0.00000E+00         0.00000E+00        -0.18004E+08
 
   -0.18494E+08         0.91373E+06         0.00000E+00
    0.91373E+06        -0.40957E+08         0.00000E+00
    0.00000E+00         0.00000E+00        -0.18083E+08
 
   -0.18549E+08         0.89030E+06         0.00000E+00
    0.89030E+06        -0.41085E+08         0.00000E+00
    0.00000E+00         0.00000E+00        -0.18159E+08
 
   -0.18600E+08         0.86795E+06         0.00000E+00
    0.86795E+06        -0.41208E+08         0.00000E+00
    0.00000E+00         0.00000E+00        -0.18233E+08
 
   -0.18650E+08         0.84672E+06         0.00000E+00
    0.84672E+06        -0.41327E+08         0.00000E+00
    0.00000E+00         0.00000E+00        -0.18306E+08
 
   -0.18697E+08         0.82667E+06         0.00000E+00
    0.82667E+06        -0.41441E+08         0.00000E+00
    0.00000E+00         0.00000E+00        -0.18376E+08
 
   -0.18743E+08         0.80782E+06         0.00000E+00
    0.80782E+06        -0.41552E+08         0.00000E+00
    0.00000E+00         0.00000E+00        -0.18445E+08
 
   -0.18787E+08         0.79020E+06         0.00000E+00
    0.79020E+06        -0.41660E+08         0.00000E+00
    0.00000E+00         0.00000E+00        -0.18513E+08
 
   -0.18829E+08         0.77382E+06         0.00000E+00
    0.77382E+06        -0.41765E+08         0.00000E+00
    0.00000E+00         0.00000E+00        -0.18579E+08
 
   -0.18870E+08         0.75868E+06         0.00000E+00
    0.75868E+06        -0.41868E+08         0.00000E+00
    0.00000E+00         0.00000E+00        -0.18643E+08
 
   -0.18910E+08         0.74478E+06         0.00000E+00
    0.74478E+06        -0.41968E+08         0.00000E+00
    0.00000E+00         0.00000E+00        -0.18707E+08
 
   -0.18950E+08         0.73214E+06         0.00000E+00
    0.73214E+06        -0.42066E+08         0.00000E+00
    0.00000E+00         0.00000E+00        -0.18769E+08
 
   -0.18988E+08         0.72073E+06         0.00000E+00
    0.72073E+06        -0.42162E+08         0.00000E+00
    0.00000E+00         0.00000E+00        -0.18831E+08
 
   -0.19026E+08         0.71054E+06         0.00000E+00
    0.71054E+06        -0.42257E+08         0.00000E+00
    0.00000E+00         0.00000E+00        -0.18892E+08
 
   -0.19063E+08         0.70158E+06         0.00000E+00
    0.70158E+06        -0.42350E+08         0.00000E+00
    0.00000E+00         0.00000E+00        -0.18952E+08
 
   -0.19100E+08         0.69381E+06         0.00000E+00
    0.69381E+06        -0.42442E+08         0.00000E+00
    0.00000E+00         0.00000E+00        -0.19012E+08
 
   -0.19137E+08         0.68723E+06         0.00000E+00
    0.68723E+06        -0.42534E+08         0.00000E+00
    0.00000E+00         0.00000E+00        -0.19071E+08
 
   -0.19174E+08         0.68181E+06         0.00000E+00
    0.68181E+06        -0.42625E+08         0.00000E+00
    0.00000E+00         0.00000E+00        -0.19130E+08
 
   -0.19211E+08         0.67753E+06         0.00000E+00
    0.67753E+06        -0.42715E+08         0.00000E+00
    0.00000E+00         0.00000E+00        -0.19188E+08
 
   -0.19248E+08         0.67436E+06         0.00000E+00
    0.67436E+06        -0.42806E+08         0.00000E+00
    0.00000E+00         0.00000E+00        -0.19247E+08
 
   -0.19285E+08         0.67229E+06         0.00000E+00
    0.67229E+06        -0.42897E+08         0.00000E+00
    0.00000E+00         0.00000E+00        -0.19305E+08
 
   -0.19322E+08         0.67128E+06         0.00000E+00
    0.67128E+06        -0.42988E+08         0.00000E+00
    0.00000E+00         0.00000E+00        -0.19364E+08
 
   -0.19361E+08         0.67129E+06         0.00000E+00
    0.67129E+06        -0.43080E+08         0.00000E+00
    0.00000E+00         0.00000E+00        -0.19423E+08
 
   -0.19400E+08         0.67230E+06         0.00000E+00
    0.67230E+06        -0.43172E+08         0.00000E+00
    0.00000E+00         0.00000E+00        -0.19482E+08
 
   -0.19440E+08         0.67427E+06         0.00000E+00
    0.67427E+06        -0.43266E+08         0.00000E+00
    0.00000E+00         0.00000E+00        -0.19541E+08
 
   -0.19481E+08         0.67715E+06         0.00000E+00
    0.67715E+06        -0.43361E+08         0.00000E+00
    0.00000E+00         0.00000E+00        -0.19602E+08
 
   -0.19523E+08         0.68090E+06         0.00000E+00
    0.68090E+06        -0.43458E+08         0.00000E+00
    0.00000E+00         0.00000E+00        -0.19663E+08
 
   -0.19566E+08         0.68546E+06         0.00000E+00
    0.68546E+06        -0.43557E+08         0.00000E+00
    0.00000E+00         0.00000E+00        -0.19724E+08
 
   -0.19611E+08         0.69078E+06         0.00000E+00
    0.69078E+06        -0.43658E+08         0.00000E+00
    0.00000E+00         0.00000E+00        -0.19787E+08
 
   -0.19658E+08         0.69679E+06         0.00000E+00
    0.69679E+06        -0.43762E+08         0.00000E+00
    0.00000E+00         0.00000E+00        -0.19851E+08
 
   -0.19707E+08         0.70341E+06         0.00000E+00
    0.70341E+06        -0.43868E+08         0.00000E+00
    0.00000E+00         0.00000E+00        -0.19915E+08
 
   -0.19758E+08         0.71057E+06         0.00000E+00
    0.71057E+06        -0.43978E+08         0.00000E+00
    0.00000E+00         0.00000E+00        -0.19981E+08
 
   -0.19811E+08         0.71816E+06         0.00000E+00
    0.71816E+06        -0.44091E+08         0.00000E+00
    0.00000E+00         0.00000E+00        -0.20049E+08
 
   -0.19867E+08         0.72608E+06         0.00000E+00
    0.72608E+06        -0.44208E+08         0.00000E+00
    0.00000E+00         0.00000E+00        -0.20118E+08
 
   -0.19926E+08         0.73420E+06         0.00000E+00
    0.73420E+06        -0.44330E+08         0.00000E+00
    0.00000E+00         0.00000E+00        -0.20189E+08
 
   -0.19989E+08         0.74240E+06         0.00000E+00
    0.74240E+06        -0.44456E+08         0.00000E+00
    0.00000E+00         0.00000E+00        -0.20261E+08
 
   -0.20055E+08         0.75050E+06         0.00000E+00
    0.75050E+06        -0.44588E+08         0.00000E+00
    0.00000E+00         0.00000E+00        -0.20335E+08
 
   -0.20125E+08         0.75832E+06         0.00000E+00
    0.75832E+06        -0.44725E+08         0.00000E+00
    0.00000E+00         0.00000E+00        -0.20411E+08
 
   -0.20200E+08         0.76567E+06         0.00000E+00
    0.76567E+06        -0.44869E+08         0.00000E+00
    0.00000E+00         0.00000E+00        -0.20490E+08
 
   -0.20279E+08         0.77231E+06         0.00000E+00
    0.77231E+06        -0.45019E+08         0.00000E+00
    0.00000E+00         0.00000E+00        -0.20570E+08
 
   -0.20364E+08         0.77797E+06         0.00000E+00
    0.77797E+06        -0.45178E+08         0.00000E+00
    0.00000E+00         0.00000E+00        -0.20653E+08
 
   -0.20455E+08         0.78236E+06         0.00000E+00
    0.78236E+06        -0.45344E+08         0.00000E+00
    0.00000E+00         0.00000E+00        -0.20739E+08
 
   -0.20552E+08         0.78513E+06         0.00000E+00
    0.78513E+06        -0.45519E+08         0.00000E+00
    0.00000E+00         0.00000E+00        -0.20827E+08
 
   -0.20657E+08         0.78591E+06         0.00000E+00
    0.78591E+06        -0.45704E+08         0.00000E+00
    0.00000E+00         0.00000E+00        -0.20918E+08
 
   -0.20769E+08         0.78427E+06         0.00000E+00
    0.78427E+06        -0.45900E+08         0.00000E+00
    0.00000E+00         0.00000E+00        -0.21012E+08
 
   -0.20890E+08         0.77974E+06         0.00000E+00
    0.77974E+06        -0.46107E+08         0.00000E+00
    0.00000E+00         0.00000E+00        -0.21110E+08
 
   -0.21020E+08         0.77181E+06         0.00000E+00
    0.77181E+06        -0.46326E+08         0.00000E+00
    0.00000E+00         0.00000E+00        -0.21210E+08
 
   -0.21160E+08         0.75992E+06         0.00000E+00
    0.75992E+06        -0.46559E+08         0.00000E+00
    0.00000E+00         0.00000E+00        -0.21315E+08
 
   -0.21312E+08         0.74345E+06         0.00000E+00
    0.74345E+06        -0.46806E+08         0.00000E+00
    0.00000E+00         0.00000E+00        -0.21422E+08
 
   -0.21475E+08         0.72179E+06         0.00000E+00
    0.72179E+06        -0.47068E+08         0.00000E+00
    0.00000E+00         0.00000E+00        -0.21534E+08
 
   -0.21651E+08         0.69429E+06         0.00000E+00
    0.69429E+06        -0.47347E+08         0.00000E+00
    0.00000E+00         0.00000E+00        -0.21650E+08
 
   -0.21841E+08         0.66032E+06         0.00000E+00
    0.66032E+06        -0.47643E+08         0.00000E+00
    0.00000E+00         0.00000E+00        -0.21770E+08
 
   -0.22045E+08         0.61931E+06         0.00000E+00
    0.61931E+06        -0.47958E+08         0.00000E+00
    0.00000E+00         0.00000E+00        -0.21894E+08
 
   -0.22265E+08         0.57080E+06         0.00000E+00
    0.57080E+06        -0.48291E+08         0.00000E+00
    0.00000E+00         0.00000E+00        -0.22023E+08
 
   -0.22501E+08         0.51451E+06         0.00000E+00
    0.51451E+06        -0.48642E+08         0.00000E+00
    0.00000E+00         0.00000E+00        -0.22156E+08
 
   -0.22754E+08         0.45048E+06         0.00000E+00
    0.45048E+06        -0.49013E+08         0.00000E+00
    0.00000E+00         0.00000E+00        -0.22292E+08
 
   -0.23024E+08         0.37918E+06         0.00000E+00
    0.37918E+06        -0.49402E+08         0.00000E+00
    0.00000E+00         0.00000E+00        -0.22432E+08
 
   -0.23311E+08         0.30177E+06         0.00000E+00
    0.30177E+06        -0.49809E+08         0.00000E+00
    0.00000E+00         0.00000E+00        -0.22574E+08
 
   -0.23615E+08         0.22034E+06         0.00000E+00
    0.22034E+06        -0.50230E+08         0.00000E+00
    0.00000E+00         0.00000E+00        -0.22718E+08
 
   -0.23935E+08         0.13825E+06         0.00000E+00
    0.13825E+06        -0.50662E+08         0.00000E+00
    0.00000E+00         0.00000E+00        -0.22859E+08
 
   -0.24270E+08         0.60507E+05         0.00000E+00
    0.60507E+05        -0.51100E+08         0.00000E+00
    0.00000E+00         0.00000E+00        -0.22996E+08
 
   -0.24617E+08        -0.59963E+04         0.00000E+00
   -0.59963E+04        -0.51537E+08         0.00000E+00
    0.00000E+00         0.00000E+00        -0.23122E+08
 
   -0.24974E+08        -0.52947E+05         0.00000E+00
   -0.52947E+05        -0.51962E+08         0.00000E+00
    0.00000E+00         0.00000E+00        -0.23230E+08
 
   -0.25339E+08        -0.72490E+05         0.00000E+00
   -0.72490E+05        -0.52361E+08         0.00000E+00
    0.00000E+00         0.00000E+00        -0.23308E+08
 
   -0.25710E+08        -0.61087E+05         0.00000E+00
   -0.61087E+05        -0.52718E+08         0.00000E+00
    0.00000E+00         0.00000E+00        -0.23341E+08
 
   -0.26089E+08        -0.23887E+05         0.00000E+00
   -0.23887E+05        -0.53015E+08         0.00000E+00
    0.00000E+00         0.00000E+00        -0.23314E+08
 
   -0.94857E+07        -0.57216E+05         0.00000E+00
   -0.57216E+05        -0.28723E+08         0.00000E+00
    0.00000E+00         0.00000E+00        -0.14986E+08
 
   -0.99413E+07        -0.15478E+06         0.00000E+00
   -0.15478E+06        -0.29197E+08         0.00000E+00
    0.00000E+00         0.00000E+00        -0.14830E+08
 
   -0.10442E+08        -0.19769E+06         0.00000E+00
   -0.19769E+06        -0.29742E+08         0.00000E+00
    0.00000E+00         0.00000E+00        -0.14734E+08
 
   -0.10974E+08        -0.16988E+06         0.00000E+00
   -0.16988E+06        -0.30328E+08         0.00000E+00
    0.00000E+00         0.00000E+00        -0.14697E+08
 
   -0.11512E+08        -0.79702E+05         0.00000E+00
   -0.79702E+05        -0.30937E+08         0.00000E+00
    0.00000E+00         0.00000E+00        -0.14703E+08
 
   -0.12029E+08         0.53033E+05         0.00000E+00
    0.53033E+05        -0.31566E+08         0.00000E+00
    0.00000E+00         0.00000E+00        -0.14732E+08
 
   -0.12544E+08         0.20809E+06         0.00000E+00
    0.20809E+06        -0.32173E+08         0.00000E+00
    0.00000E+00         0.00000E+00        -0.14799E+08
 
   -0.13040E+08         0.36883E+06         0.00000E+00
    0.36883E+06        -0.32761E+08         0.00000E+00
    0.00000E+00         0.00000E+00        -0.14888E+08
 
   -0.13511E+08         0.52390E+06         0.00000E+00
    0.52390E+06        -0.33325E+08         0.00000E+00
    0.00000E+00         0.00000E+00        -0.14996E+08
 
   -0.13954E+08         0.66630E+06         0.00000E+00
    0.66630E+06        -0.33864E+08         0.00000E+00
    0.00000E+00         0.00000E+00        -0.15116E+08
 
   -0.14368E+08         0.79230E+06         0.00000E+00
    0.79230E+06        -0.34375E+08         0.00000E+00
    0.00000E+00         0.00000E+00        -0.15246E+08
 
   -0.14753E+08         0.90035E+06         0.00000E+00
    0.90035E+06        -0.34859E+08         0.00000E+00
    0.00000E+00         0.00000E+00        -0.15382E+08
 
   -0.15108E+08         0.99038E+06         0.00000E+00
    0.99038E+06        -0.35316E+08         0.00000E+00
    0.00000E+00         0.00000E+00        -0.15522E+08
 
   -0.15435E+08         0.10632E+07         0.00000E+00
    0.10632E+07        -0.35747E+08         0.00000E+00
    0.00000E+00         0.00000E+00        -0.15662E+08
 
   -0.15734E+08         0.11202E+07         0.00000E+00
    0.11202E+07        -0.36153E+08         0.00000E+00
    0.00000E+00         0.00000E+00        -0.15803E+08
 
   -0.16008E+08         0.11629E+07         0.00000E+00
    0.11629E+07        -0.36535E+08         0.00000E+00
    0.00000E+00         0.00000E+00        -0.15942E+08
 
   -0.16259E+08         0.11930E+07         0.00000E+00
    0.11930E+07        -0.36895E+08         0.00000E+00
    0.00000E+00         0.00000E+00        -0.16080E+08
 
   -0.16487E+08         0.12121E+07         0.00000E+00
    0.12121E+07        -0.37234E+08         0.00000E+00
    0.00000E+00         0.00000E+00        -0.16214E+08
 
   -0.16696E+08         0.12219E+07         0.00000E+00
    0.12219E+07        -0.37553E+08         0.00000E+00
    0.00000E+00         0.00000E+00        -0.16346E+08
 
   -0.16886E+08         0.12237E+07         0.00000E+00
    0.12237E+07        -0.37853E+08         0.00000E+00
    0.00000E+00         0.00000E+00        -0.16474E+08
 
   -0.17059E+08         0.12189E+07         0.00000E+00
    0.12189E+07        -0.38135E+08         0.00000E+00
    0.00000E+00         0.00000E+00        -0.16599E+08
 
   -0.17218E+08         0.12086E+07         0.00000E+00
    0.12086E+07        -0.38402E+08         0.00000E+00
    0.00000E+00         0.00000E+00        -0.16720E+08
 
   -0.17364E+08         0.11939E+07         0.00000E+00
    0.11939E+07        -0.38654E+08         0.00000E+00
    0.00000E+00         0.00000E+00        -0.16837E+08
 
   -0.17497E+08         0.11756E+07         0.00000E+00
    0.11756E+07        -0.38891E+08         0.00000E+00
    0.00000E+00         0.00000E+00        -0.16951E+08
 
   -0.17619E+08         0.11546E+07         0.00000E+00
    0.11546E+07        -0.39116E+08         0.00000E+00
    0.00000E+00         0.00000E+00        -0.17062E+08
 
   -0.17732E+08         0.11315E+07         0.00000E+00
    0.11315E+07        -0.39329E+08         0.00000E+00
    0.00000E+00         0.00000E+00        -0.17169E+08
 
   -0.17836E+08         0.11069E+07         0.00000E+00
    0.11069E+07        -0.39530E+08         0.00000E+00
    0.00000E+00         0.00000E+00        -0.17273E+08
 
   -0.17932E+08         0.10813E+07         0.00000E+00
    0.10813E+07        -0.39721E+08         0.00000E+00
    0.00000E+00         0.00000E+00        -0.17373E+08
 
   -0.18021E+08         0.10550E+07         0.00000E+00
    0.10550E+07        -0.39903E+08         0.00000E+00
    0.00000E+00         0.00000E+00        -0.17471E+08
 
   -0.18104E+08         0.10285E+07         0.00000E+00
    0.10285E+07        -0.40076E+08         0.00000E+00
    0.00000E+00         0.00000E+00        -0.17565E+08
 
   -0.18181E+08         0.10020E+07         0.00000E+00
    0.10020E+07        -0.40241E+08         0.00000E+00
    0.00000E+00         0.00000E+00        -0.17657E+08
 
   -0.18253E+08         0.97584E+06         0.00000E+00
    0.97584E+06        -0.40398E+08         0.00000E+00
    0.00000E+00         0.00000E+00        -0.17745E+08
 
   -0.18321E+08         0.95011E+06         0.00000E+00
    0.95011E+06        -0.40548E+08         0.00000E+00
    0.00000E+00         0.00000E+00        -0.17831E+08
 
   -0.18384E+08         0.92501E+06         0.00000E+00
    0.92501E+06        -0.40692E+08         0.00000E+00
    0.00000E+00         0.00000E+00        -0.17915E+08
 
   -0.18444E+08         0.90068E+06         0.00000E+00
    0.90068E+06        -0.40830E+08         0.00000E+00
    0.00000E+00         0.00000E+00        -0.17996E+08
 
   -0.18501E+08         0.87722E+06         0.00000E+00
    0.87722E+06        -0.40962E+08         0.00000E+00
    0.00000E+00         0.00000E+00        -0.18075E+08
 
   -0.18555E+08         0.85472E+06         0.00000E+00
    0.85472E+06        -0.41089E+08         0.00000E+00
    0.00000E+00         0.00000E+00        -0.18152E+08
 
   -0.18606E+08         0.83325E+06         0.00000E+00
    0.83325E+06        -0.41212E+08         0.00000E+00
    0.00000E+00         0.00000E+00        -0.18227E+08
 
   -0.18655E+08         0.81286E+06         0.00000E+00
    0.81286E+06        -0.41330E+08         0.00000E+00
    0.00000E+00         0.00000E+00        -0.18299E+08
 
   -0.18702E+08         0.79360E+06         0.00000E+00
    0.79360E+06        -0.41445E+08         0.00000E+00
    0.00000E+00         0.00000E+00        -0.18370E+08
 
   -0.18747E+08         0.77550E+06         0.00000E+00
    0.77550E+06        -0.41556E+08         0.00000E+00
    0.00000E+00         0.00000E+00        -0.18440E+08
 
   -0.18791E+08         0.75856E+06         0.00000E+00
    0.75856E+06        -0.41663E+08         0.00000E+00
    0.00000E+00         0.00000E+00        -0.18507E+08
 
   -0.18833E+08         0.74282E+06         0.00000E+00
    0.74282E+06        -0.41768E+08         0.00000E+00
    0.00000E+00         0.00000E+00        -0.18574E+08
 
   -0.18873E+08         0.72827E+06         0.00000E+00
    0.72827E+06        -0.41870E+08         0.00000E+00
    0.00000E+00         0.00000E+00        -0.18639E+08
 
   -0.18913E+08         0.71492E+06         0.00000E+00
    0.71492E+06        -0.41970E+08         0.00000E+00
    0.00000E+00         0.00000E+00        -0.18703E+08
 
   -0.18952E+08         0.70276E+06         0.00000E+00
    0.70276E+06        -0.42068E+08         0.00000E+00
    0.00000E+00         0.00000E+00        -0.18766E+08
 
   -0.18990E+08         0.69179E+06         0.00000E+00
    0.69179E+06        -0.42164E+08         0.00000E+00
    0.00000E+00         0.00000E+00        -0.18828E+08
 
   -0.19027E+08         0.68200E+06         0.00000E+00
    0.68200E+06        -0.42258E+08         0.00000E+00
    0.00000E+00         0.00000E+00        -0.18889E+08
 
   -0.19064E+08         0.67338E+06         0.00000E+00
    0.67338E+06        -0.42352E+08         0.00000E+00
    0.00000E+00         0.00000E+00        -0.18949E+08
 
   -0.19101E+08         0.66591E+06         0.00000E+00
    0.66591E+06        -0.42444E+08         0.00000E+00
    0.00000E+00         0.00000E+00        -0.19009E+08
 
   -0.19137E+08         0.65957E+06         0.00000E+00
    0.65957E+06        -0.42535E+08         0.00000E+00
    0.00000E+00         0.00000E+00        -0.19069E+08
 
   -0.19173E+08         0.65435E+06         0.00000E+00
    0.65435E+06        -0.42626E+08         0.00000E+00
    0.00000E+00         0.00000E+00        -0.19128E+08
 
   -0.19210E+08         0.65022E+06         0.00000E+00
    0.65022E+06        -0.42716E+08         0.00000E+00
    0.00000E+00         0.00000E+00        -0.19187E+08
 
   -0.19246E+08         0.64716E+06         0.00000E+00
    0.64716E+06        -0.42807E+08         0.00000E+00
    0.00000E+00         0.00000E+00        -0.19246E+08
 
   -0.19283E+08         0.64515E+06         0.00000E+00
    0.64515E+06        -0.42897E+08         0.00000E+00
    0.00000E+00         0.00000E+00        -0.19304E+08
 
   -0.19320E+08         0.64416E+06         0.00000E+00
    0.64416E+06        -0.42988E+08         0.00000E+00
    0.00000E+00         0.00000E+00        -0.19363E+08
 
   -0.19358E+08         0.64415E+06         0.00000E+00
    0.64415E+06        -0.43080E+08         0.00000E+00
    0.00000E+00         0.00000E+00        -0.19422E+08
 
   -0.19397E+08         0.64510E+06         0.00000E+00
    0.64510E+06        -0.43172E+08         0.00000E+00
    0.00000E+00         0.00000E+00        -0.19482E+08
 
   -0.19436E+08         0.64696E+06         0.00000E+00
    0.64696E+06        -0.43266E+08         0.00000E+00
    0.00000E+00         0.00000E+00        -0.19542E+08
 
   -0.19477E+08         0.64970E+06         0.00000E+00
    0.64970E+06        -0.43361E+08         0.00000E+00
    0.00000E+00         0.00000E+00        -0.19602E+08
 
   -0.19519E+08         0.65327E+06         0.00000E+00
    0.65327E+06        -0.43458E+08         0.00000E+00
    0.00000E+00         0.00000E+00        -0.19663E+08
 
   -0.19562E+08         0.65762E+06         0.00000E+00
    0.65762E+06        -0.43557E+08         0.00000E+00
    0.00000E+00         0.00000E+00        -0.19725E+08
 
   -0.19606E+08         0.66269E+06         0.00000E+00
    0.66269E+06        -0.43657E+08         0.00000E+00
    0.00000E+00         0.00000E+00        -0.19788E+08
 
   -0.19653E+08         0.66842E+06         0.00000E+00
    0.66842E+06        -0.43761E+08         0.00000E+00
    0.00000E+00         0.00000E+00        -0.19852E+08
 
   -0.19701E+08         0.67474E+06         0.00000E+00
    0.67474E+06        -0.43867E+08         0.00000E+00
    0.00000E+00         0.00000E+00        -0.19917E+08
 
   -0.19752E+08         0.68157E+06         0.00000E+00
    0.68157E+06        -0.43977E+08         0.00000E+00
    0.00000E+00         0.00000E+00        -0.19983E+08
 
   -0.19805E+08         0.68881E+06         0.00000E+00
    0.68881E+06        -0.44090E+08         0.00000E+00
    0.00000E+00         0.00000E+00        -0.20051E+08
 
   -0.19860E+08         0.69636E+06         0.00000E+00
    0.69636E+06        -0.44207E+08         0.00000E+00
    0.00000E+00         0.00000E+00        -0.20120E+08
 
   -0.19919E+08         0.70411E+06         0.00000E+00
    0.70411E+06        -0.44328E+08         0.00000E+00
    0.00000E+00         0.00000E+00        -0.20190E+08
 
   -0.19981E+08         0.71191E+06         0.00000E+00
    0.71191E+06        -0.44454E+08         0.00000E+00
    0.00000E+00         0.00000E+00        -0.20263E+08
 
   -0.20047E+08         0.71962E+06         0.00000E+00
    0.71962E+06        -0.44586E+08         0.00000E+00
    0.00000E+00         0.00000E+00        -0.20337E+08
 
   -0.20117E+08         0.72705E+06         0.00000E+00
    0.72705E+06        -0.44723E+08         0.00000E+00
    0.00000E+00         0.00000E+00        -0.20413E+08
 
   -0.20191E+08         0.73402E+06         0.00000E+00
    0.73402E+06        -0.44866E+08         0.00000E+00
    0.00000E+00         0.00000E+00        -0.20492E+08
 
   -0.20270E+08         0.74029E+06         0.00000E+00
    0.74029E+06        -0.45017E+08         0.00000E+00
    0.00000E+00         0.00000E+00        -0.20572E+08
 
   -0.20355E+08         0.74560E+06         0.00000E+00
    0.74560E+06        -0.45174E+08         0.00000E+00
    0.00000E+00         0.00000E+00        -0.20655E+08
 
   -0.20445E+08         0.74967E+06         0.00000E+00
    0.74967E+06        -0.45340E+08         0.00000E+00
    0.00000E+00         0.00000E+00        -0.20741E+08
 
   -0.20543E+08         0.75215E+06         0.00000E+00
    0.75215E+06        -0.45515E+08         0.00000E+00
    0.00000E+00         0.00000E+00        -0.20829E+08
 
   -0.20647E+08         0.75269E+06         0.00000E+00
    0.75269E+06        -0.45700E+08         0.00000E+00
    0.00000E+00         0.00000E+00        -0.20920E+08
 
   -0.20759E+08         0.75086E+06         0.00000E+00
    0.75086E+06        -0.45895E+08         0.00000E+00
    0.00000E+00         0.00000E+00        -0.21013E+08
 
   -0.20880E+08         0.74620E+06         0.00000E+00
    0.74620E+06        -0.46102E+08         0.00000E+00
    0.00000E+00         0.00000E+00        -0.21110E+08
 
   -0.21010E+08         0.73820E+06         0.00000E+00
    0.73820E+06        -0.46321E+08         0.00000E+00
    0.00000E+00         0.00000E+00        -0.21210E+08
 
   -0.21151E+08         0.72631E+06         0.00000E+00
    0.72631E+06        -0.46553E+08         0.00000E+00
    0.00000E+00         0.00000E+00        -0.21314E+08
 
   -0.21303E+08         0.70993E+06         0.00000E+00
    0.70993E+06        -0.46800E+08         0.00000E+00
    0.00000E+00         0.00000E+00        -0.21421E+08
 
   -0.21467E+08         0.68844E+06         0.00000E+00
    0.68844E+06        -0.47062E+08         0.00000E+00
    0.00000E+00         0.00000E+00        -0.21532E+08
 
   -0.21644E+08         0.66118E+06         0.00000E+00
    0.66118E+06        -0.47341E+08         0.00000E+00
    0.00000E+00         0.00000E+00        -0.21647E+08
 
   -0.21835E+08         0.62754E+06         0.00000E+00
    0.62754E+06        -0.47637E+08         0.00000E+00
    0.00000E+00         0.00000E+00        -0.21765E+08
 
   -0.22041E+08         0.58694E+06         0.00000E+00
    0.58694E+06        -0.47951E+08         0.00000E+00
    0.00000E+00         0.00000E+00        -0.21888E+08
 
   -0.22263E+08         0.53890E+06         0.00000E+00
    0.53890E+06        -0.48284E+08         0.00000E+00
    0.00000E+00         0.00000E+00        -0.22015E+08
 
   -0.22502E+08         0.48314E+06         0.00000E+00
    0.48314E+06        -0.48637E+08         0.00000E+00
    0.00000E+00         0.00000E+00        -0.22146E+08
 
   -0.22759E+08         0.41969E+06         0.00000E+00
    0.41969E+06        -0.49009E+08         0.00000E+00
    0.00000E+00         0.00000E+00        -0.22281E+08
 
   -0.23033E+08         0.34902E+06         0.00000E+00
    0.34902E+06        -0.49399E+08         0.00000E+00
    0.00000E+00         0.00000E+00        -0.22419E+08
 
   -0.23325E+08         0.27226E+06         0.00000E+00
    0.27226E+06        -0.49808E+08         0.00000E+00
    0.00000E+00         0.00000E+00        -0.22559E+08
 
   -0.23635E+08         0.19152E+06         0.00000E+00
    0.19152E+06        -0.50232E+08         0.00000E+00
    0.00000E+00         0.00000E+00        -0.22701E+08
 
   -0.23962E+08         0.11019E+06         0.00000E+00
    0.11019E+06        -0.50669E+08         0.00000E+00
    0.00000E+00         0.00000E+00        -0.22841E+08
 
   -0.24305E+08         0.33410E+05         0.00000E+00
    0.33410E+05        -0.51112E+08         0.00000E+00
    0.00000E+00         0.00000E+00        -0.22977E+08
 
   -0.24660E+08        -0.31695E+05         0.00000E+00
   -0.31695E+05        -0.51556E+08         0.00000E+00
    0.00000E+00         0.00000E+00        -0.23104E+08
 
   -0.25025E+08        -0.76325E+05         0.00000E+00
   -0.76325E+05        -0.51989E+08         0.00000E+00
    0.00000E+00         0.00000E+00        -0.23213E+08
 
   -0.25397E+08        -0.91913E+05         0.00000E+00
   -0.91913E+05        -0.52397E+08         0.00000E+00
    0.00000E+00         0.00000E+00        -0.23293E+08
 
   -0.25774E+08        -0.74277E+05         0.00000E+00
   -0.74277E+05        -0.52761E+08         0.00000E+00
    0.00000E+00         0.00000E+00        -0.23329E+08
 
   -0.26157E+08        -0.28622E+05         0.00000E+00
   -0.28622E+05        -0.53063E+08         0.00000E+00
    0.00000E+00         0.00000E+00        -0.23304E+08
 
   -0.94091E+07        -0.65776E+05         0.00000E+00
   -0.65776E+05        -0.28643E+08         0.00000E+00
    0.00000E+00         0.00000E+00        -0.15017E+08
 
   -0.98642E+07        -0.17936E+06         0.00000E+00
   -0.17936E+06        -0.29124E+08         0.00000E+00
    0.00000E+00         0.00000E+00        -0.14866E+08
 
   -0.10369E+08        -0.23437E+06         0.00000E+00
   -0.23437E+06        -0.29681E+08         0.00000E+00
    0.00000E+00         0.00000E+00        -0.14775E+08
 
   -0.10901E+08        -0.21455E+06         0.00000E+00
   -0.21455E+06        -0.30287E+08         0.00000E+00
    0.00000E+00         0.00000E+00        -0.14736E+08
 
   -0.11442E+08        -0.12925E+06         0.00000E+00
   -0.12925E+06        -0.30915E+08         0.00000E+00
    0.00000E+00         0.00000E+00        -0.14738E+08
 
   -0.11979E+08         0.47526E+03         0.00000E+00
    0.47526E+03        -0.31544E+08         0.00000E+00
    0.00000E+00         0.00000E+00        -0.14773E+08
 
   -0.12503E+08         0.15327E+06         0.00000E+00
    0.15327E+06        -0.32161E+08         0.00000E+00
    0.00000E+00         0.00000E+00        -0.14835E+08
 
   -0.13007E+08         0.31240E+06         0.00000E+00
    0.31240E+06        -0.32757E+08         0.00000E+00
    0.00000E+00         0.00000E+00        -0.14919E+08
 
   -0.13486E+08         0.46635E+06         0.00000E+00
    0.46635E+06        -0.33327E+08         0.00000E+00
    0.00000E+00         0.00000E+00        -0.15021E+08
 
   -0.13936E+08         0.60806E+06         0.00000E+00
    0.60806E+06        -0.33870E+08         0.00000E+00
    0.00000E+00         0.00000E+00        -0.15136E+08
 
   -0.14356E+08         0.73368E+06         0.00000E+00
    0.73368E+06        -0.34385E+08         0.00000E+00
    0.00000E+00         0.00000E+00        -0.15260E+08
 
   -0.14746E+08         0.84163E+06         0.00000E+00
    0.84163E+06        -0.34871E+08         0.00000E+00
    0.00000E+00         0.00000E+00        -0.15392E+08
 
   -0.15105E+08         0.93176E+06         0.00000E+00
    0.93176E+06        -0.35329E+08         0.00000E+00
    0.00000E+00         0.00000E+00        -0.15527E+08
 
   -0.15436E+08         0.10049E+07         0.00000E+00
    0.10049E+07        -0.35761E+08         0.00000E+00
    0.00000E+00         0.00000E+00        -0.15664E+08
 
   -0.15738E+08         0.10623E+07         0.00000E+00
    0.10623E+07        -0.36168E+08         0.00000E+00
    0.00000E+00         0.00000E+00        -0.15802E+08
 
   -0.16014E+08         0.11055E+07         0.00000E+00
    0.11055E+07        -0.36550E+08         0.00000E+00
    0.00000E+00         0.00000E+00        -0.15939E+08
 
   -0.16266E+08         0.11362E+07         0.00000E+00
    0.11362E+07        -0.36909E+08         0.00000E+00
    0.00000E+00         0.00000E+00        -0.16074E+08
 
   -0.16496E+08         0.11561E+07         0.00000E+00
    0.11561E+07        -0.37248E+08         0.00000E+00
    0.00000E+00         0.00000E+00        -0.16207E+08
 
   -0.16705E+08         0.11667E+07         0.00000E+00
    0.11667E+07        -0.37566E+08         0.00000E+00
    0.00000E+00         0.00000E+00        -0.16338E+08
 
   -0.16896E+08         0.11694E+07         0.00000E+00
    0.11694E+07        -0.37865E+08         0.00000E+00
    0.00000E+00         0.00000E+00        -0.16465E+08
 
   -0.17070E+08         0.11655E+07         0.00000E+00
    0.11655E+07        -0.38148E+08         0.00000E+00
    0.00000E+00         0.00000E+00        -0.16589E+08
 
   -0.17229E+08         0.11563E+07         0.00000E+00
    0.11563E+07        -0.38414E+08         0.00000E+00
    0.00000E+00         0.00000E+00        -0.16710E+08
 
   -0.17375E+08         0.11426E+07         0.00000E+00
    0.11426E+07        -0.38664E+08         0.00000E+00
    0.00000E+00         0.00000E+00        -0.16827E+08
 
   -0.17508E+08         0.11255E+07         0.00000E+00
    0.11255E+07        -0.38901E+08         0.00000E+00
    0.00000E+00         0.00000E+00        -0.16941E+08
 
   -0.17630E+08         0.11056E+07         0.00000E+00
    0.11056E+07        -0.39126E+08         0.00000E+00
    0.00000E+00         0.00000E+00        -0.17051E+08
 
   -0.17742E+08         0.10837E+07         0.00000E+00
    0.10837E+07        -0.39338E+08         0.00000E+00
    0.00000E+00         0.00000E+00        -0.17158E+08
 
   -0.17846E+08         0.10602E+07         0.00000E+00
    0.10602E+07        -0.39539E+08         0.00000E+00
    0.00000E+00         0.00000E+00        -0.17262E+08
 
   -0.17942E+08         0.10358E+07         0.00000E+00
    0.10358E+07        -0.39729E+08         0.00000E+00
    0.00000E+00         0.00000E+00        -0.17363E+08
 
   -0.18030E+08         0.10107E+07         0.00000E+00
    0.10107E+07        -0.39910E+08         0.00000E+00
    0.00000E+00         0.00000E+00        -0.17461E+08
 
   -0.18113E+08         0.98539E+06         0.00000E+00
    0.98539E+06        -0.40083E+08         0.00000E+00
    0.00000E+00         0.00000E+00        -0.17556E+08
 
   -0.18190E+08         0.96006E+06         0.00000E+00
    0.96006E+06        -0.40247E+08         0.00000E+00
    0.00000E+00         0.00000E+00        -0.17647E+08
 
   -0.18261E+08         0.93498E+06         0.00000E+00
    0.93498E+06        -0.40404E+08         0.00000E+00
    0.00000E+00         0.00000E+00        -0.17737E+08
 
   -0.18329E+08         0.91033E+06         0.00000E+00
    0.91033E+06        -0.40554E+08         0.00000E+00
    0.00000E+00         0.00000E+00        -0.17823E+08
 
   -0.18392E+08         0.88629E+06         0.00000E+00
    0.88629E+06        -0.40697E+08         0.00000E+00
    0.00000E+00         0.00000E+00        -0.17907E+08
 
   -0.18451E+08         0.86297E+06         0.00000E+00
    0.86297E+06        -0.40835E+08         0.00000E+00
    0.00000E+00         0.00000E+00        -0.17989E+08
 
   -0.18508E+08         0.84049E+06         0.00000E+00
    0.84049E+06        -0.40967E+08         0.00000E+00
    0.00000E+00         0.00000E+00        -0.18068E+08
 
   -0.18561E+08         0.81892E+06         0.00000E+00
    0.81892E+06        -0.41094E+08         0.00000E+00
    0.00000E+00         0.00000E+00        -0.18145E+08
 
   -0.18612E+08         0.79834E+06         0.00000E+00
    0.79834E+06        -0.41216E+08         0.00000E+00
    0.00000E+00         0.00000E+00        -0.18220E+08
 
   -0.18661E+08         0.77880E+06         0.00000E+00
    0.77880E+06        -0.41334E+08         0.00000E+00
    0.00000E+00         0.00000E+00        -0.18293E+08
 
   -0.18707E+08         0.76033E+06         0.00000E+00
    0.76033E+06        -0.41448E+08         0.00000E+00
    0.00000E+00         0.00000E+00        -0.18365E+08
 
   -0.18752E+08         0.74297E+06         0.00000E+00
    0.74297E+06        -0.41559E+08         0.00000E+00
    0.00000E+00         0.00000E+00        -0.18434E+08
 
   -0.18795E+08         0.72674E+06         0.00000E+00
    0.72674E+06        -0.41666E+08         0.00000E+00
    0.00000E+00         0.00000E+00        -0.18503E+08
 
   -0.18836E+08         0.71164E+06         0.00000E+00
    0.71164E+06        -0.41771E+08         0.00000E+00
    0.00000E+00         0.00000E+00        -0.18569E+08
 
   -0.18876E+08         0.69769E+06         0.00000E+00
    0.69769E+06        -0.41873E+08         0.00000E+00
    0.00000E+00         0.00000E+00        -0.18635E+08
 
   -0.18916E+08         0.68488E+06         0.00000E+00
    0.68488E+06        -0.41973E+08         0.00000E+00
    0.00000E+00         0.00000E+00        -0.18699E+08
 
   -0.18954E+08         0.67322E+06         0.00000E+00
    0.67322E+06        -0.42070E+08         0.00000E+00
    0.00000E+00         0.00000E+00        -0.18762E+08
 
   -0.18992E+08         0.66269E+06         0.00000E+00
    0.66269E+06        -0.42166E+08         0.00000E+00
    0.00000E+00         0.00000E+00        -0.18825E+08
 
   -0.19029E+08         0.65330E+06         0.00000E+00
    0.65330E+06        -0.42260E+08         0.00000E+00
    0.00000E+00         0.00000E+00        -0.18886E+08
 
   -0.19065E+08         0.64502E+06         0.00000E+00
    0.64502E+06        -0.42353E+08         0.00000E+00
    0.00000E+00         0.00000E+00        -0.18947E+08
 
   -0.19101E+08         0.63785E+06         0.00000E+00
    0.63785E+06        -0.42445E+08         0.00000E+00
    0.00000E+00         0.00000E+00        -0.19007E+08
 
   -0.19137E+08         0.63176E+06         0.00000E+00
    0.63176E+06        -0.42536E+08         0.00000E+00
    0.00000E+00         0.00000E+00        -0.19067E+08
 
   -0.19173E+08         0.62674E+06         0.00000E+00
    0.62674E+06        -0.42627E+08         0.00000E+00
    0.00000E+00         0.00000E+00        -0.19126E+08
 
   -0.19209E+08         0.62277E+06         0.00000E+00
    0.62277E+06        -0.42717E+08         0.00000E+00
    0.00000E+00         0.00000E+00        -0.19185E+08
 
   -0.19245E+08         0.61982E+06         0.00000E+00
    0.61982E+06        -0.42808E+08         0.00000E+00
    0.00000E+00         0.00000E+00        -0.19244E+08
 
   -0.19282E+08         0.61787E+06         0.00000E+00
    0.61787E+06        -0.42898E+08         0.00000E+00
    0.00000E+00         0.00000E+00        -0.19304E+08
 
   -0.19318E+08         0.61690E+06         0.00000E+00
    0.61690E+06        -0.42989E+08         0.00000E+00
    0.00000E+00         0.00000E+00        -0.19363E+08
 
   -0.19356E+08         0.61687E+06         0.00000E+00
    0.61687E+06        -0.43080E+08         0.00000E+00
    0.00000E+00         0.00000E+00        -0.19422E+08
 
   -0.19394E+08         0.61776E+06         0.00000E+00
    0.61776E+06        -0.43173E+08         0.00000E+00
    0.00000E+00         0.00000E+00        -0.19482E+08
 
   -0.19433E+08         0.61952E+06         0.00000E+00
    0.61952E+06        -0.43266E+08         0.00000E+00
    0.00000E+00         0.00000E+00        -0.19542E+08
 
   -0.19473E+08         0.62212E+06         0.00000E+00
    0.62212E+06        -0.43361E+08         0.00000E+00
    0.00000E+00         0.00000E+00        -0.19603E+08
 
   -0.19515E+08         0.62551E+06         0.00000E+00
    0.62551E+06        -0.43458E+08         0.00000E+00
    0.00000E+00         0.00000E+00        -0.19664E+08
 
   -0.19557E+08         0.62965E+06         0.00000E+00
    0.62965E+06        -0.43556E+08         0.00000E+00
    0.00000E+00         0.00000E+00        -0.19726E+08
 
   -0.19601E+08         0.63448E+06         0.00000E+00
    0.63448E+06        -0.43657E+08         0.00000E+00
    0.00000E+00         0.00000E+00        -0.19789E+08
 
   -0.19647E+08         0.63994E+06         0.00000E+00
    0.63994E+06        -0.43760E+08         0.00000E+00
    0.00000E+00         0.00000E+00        -0.19853E+08
 
   -0.19695E+08         0.64596E+06         0.00000E+00
    0.64596E+06        -0.43866E+08         0.00000E+00
    0.00000E+00         0.00000E+00        -0.19918E+08
 
   -0.19746E+08         0.65246E+06         0.00000E+00
    0.65246E+06        -0.43976E+08         0.00000E+00
    0.00000E+00         0.00000E+00        -0.19985E+08
 
   -0.19798E+08         0.65936E+06         0.00000E+00
    0.65936E+06        -0.44088E+08         0.00000E+00
    0.00000E+00         0.00000E+00        -0.20052E+08
 
   -0.19854E+08         0.66655E+06         0.00000E+00
    0.66655E+06        -0.44205E+08         0.00000E+00
    0.00000E+00         0.00000E+00        -0.20122E+08
 
   -0.19912E+08         0.67392E+06         0.00000E+00
    0.67392E+06        -0.44326E+08         0.00000E+00
    0.00000E+00         0.00000E+00        -0.20192E+08
 
   -0.19974E+08         0.68135E+06         0.00000E+00
    0.68135E+06        -0.44452E+08         0.00000E+00
    0.00000E+00         0.00000E+00        -0.20265E+08
 
   -0.20039E+08         0.68867E+06         0.00000E+00
    0.68867E+06        -0.44583E+08         0.00000E+00
    0.00000E+00         0.00000E+00        -0.20339E+08
 
   -0.20108E+08         0.69572E+06         0.00000E+00
    0.69572E+06        -0.44720E+08         0.00000E+00
    0.00000E+00         0.00000E+00        -0.20415E+08
 
   -0.20182E+08         0.70232E+06         0.00000E+00
    0.70232E+06        -0.44863E+08         0.00000E+00
    0.00000E+00         0.00000E+00        -0.20494E+08
 
   -0.20261E+08         0.70823E+06         0.00000E+00
    0.70823E+06        -0.45013E+08         0.00000E+00
    0.00000E+00         0.00000E+00        -0.20574E+08
 
   -0.20346E+08         0.71321E+06         0.00000E+00
    0.71321E+06        -0.45171E+08         0.00000E+00
    0.00000E+00         0.00000E+00        -0.20657E+08
 
   -0.20436E+08         0.71697E+06         0.00000E+00
    0.71697E+06        -0.45337E+08         0.00000E+00
    0.00000E+00         0.00000E+00        -0.20742E+08
 
   -0.20533E+08         0.71920E+06         0.00000E+00
    0.71920E+06        -0.45511E+08         0.00000E+00
    0.00000E+00         0.00000E+00        -0.20830E+08
 
   -0.20637E+08         0.71952E+06         0.00000E+00
    0.71952E+06        -0.45695E+08         0.00000E+00
    0.00000E+00         0.00000E+00        -0.20921E+08
 
   -0.20749E+08         0.71753E+06         0.00000E+00
    0.71753E+06        -0.45890E+08         0.00000E+00
    0.00000E+00         0.00000E+00        -0.21014E+08
 
   -0.20870E+08         0.71278E+06         0.00000E+00
    0.71278E+06        -0.46096E+08         0.00000E+00
    0.00000E+00         0.00000E+00        -0.21111E+08
 
   -0.21001E+08         0.70476E+06         0.00000E+00
    0.70476E+06        -0.46315E+08         0.00000E+00
    0.00000E+00         0.00000E+00        -0.21210E+08
 
   -0.21142E+08         0.69293E+06         0.00000E+00
    0.69293E+06        -0.46547E+08         0.00000E+00
    0.00000E+00         0.00000E+00        -0.21313E+08
 
   -0.21294E+08         0.67669E+06         0.00000E+00
    0.67669E+06        -0.46793E+08         0.00000E+00
    0.00000E+00         0.00000E+00        -0.21420E+08
 
   -0.21458E+08         0.65543E+06         0.00000E+00
    0.65543E+06        -0.47055E+08         0.00000E+00
    0.00000E+00         0.00000E+00        -0.21529E+08
 
   -0.21637E+08         0.62851E+06         0.00000E+00
    0.62851E+06        -0.47334E+08         0.00000E+00
    0.00000E+00         0.00000E+00        -0.21643E+08
 
   -0.21829E+08         0.59530E+06         0.00000E+00
    0.59530E+06        -0.47630E+08         0.00000E+00
    0.00000E+00         0.00000E+00        -0.21761E+08
 
   -0.22037E+08         0.55521E+06         0.00000E+00
    0.55521E+06        -0.47944E+08         0.00000E+00
    0.00000E+00         0.00000E+00        -0.21882E+08
 
   -0.22261E+08         0.50777E+06         0.00000E+00
    0.50777E+06        -0.48278E+08         0.00000E+00
    0.00000E+00         0.00000E+00        -0.22008E+08
 
   -0.22503E+08         0.45269E+06         0.00000E+00
    0.45269E+06        -0.48631E+08         0.00000E+00
    0.00000E+00         0.00000E+00        -0.22137E+08
 
   -0.22763E+08         0.38998E+06         0.00000E+00
    0.38998E+06        -0.49004E+08         0.00000E+00
    0.00000E+00         0.00000E+00        -0.22270E+08
 
   -0.23041E+08         0.32007E+06         0.00000E+00
    0.32007E+06        -0.49396E+08         0.00000E+00
    0.00000E+00         0.00000E+00        -0.22406E+08
 
   -0.23339E+08         0.24412E+06         0.00000E+00
    0.24412E+06        -0.49807E+08         0.00000E+00
    0.00000E+00         0.00000E+00        -0.22544E+08
 
   -0.23655E+08         0.16418E+06         0.00000E+00
    0.16418E+06        -0.50234E+08         0.00000E+00
    0.00000E+00         0.00000E+00        -0.22684E+08
 
   -0.23989E+08         0.83683E+05         0.00000E+00
    0.83683E+05        -0.50675E+08         0.00000E+00
    0.00000E+00         0.00000E+00        -0.22823E+08
 
   -0.24339E+08         0.78237E+04         0.00000E+00
    0.78237E+04        -0.51125E+08         0.00000E+00
    0.00000E+00         0.00000E+00        -0.22958E+08
 
   -0.24703E+08        -0.56060E+05         0.00000E+00
   -0.56060E+05        -0.51576E+08         0.00000E+00
    0.00000E+00         0.00000E+00        -0.23085E+08
 
   -0.25077E+08        -0.98702E+05         0.00000E+00
   -0.98702E+05        -0.52017E+08         0.00000E+00
    0.00000E+00         0.00000E+00        -0.23196E+08
 
   -0.25457E+08        -0.11075E+06         0.00000E+00
   -0.11075E+06        -0.52434E+08         0.00000E+00
    0.00000E+00         0.00000E+00        -0.23279E+08
 
   -0.25840E+08        -0.87238E+05         0.00000E+00
   -0.87238E+05        -0.52806E+08         0.00000E+00
    0.00000E+00         0.00000E+00        -0.23318E+08
 
   -0.26227E+08        -0.33314E+05         0.00000E+00
   -0.33314E+05        -0.53113E+08         0.00000E+00
    0.00000E+00         0.00000E+00        -0.23295E+08
 
   -0.93312E+07        -0.74127E+05         0.00000E+00
   -0.74127E+05        -0.28559E+08         0.00000E+00
    0.00000E+00         0.00000E+00        -0.15047E+08
 
   -0.97862E+07        -0.20308E+06         0.00000E+00
   -0.20308E+06        -0.29048E+08         0.00000E+00
    0.00000E+00         0.00000E+00        -0.14901E+08
 
   -0.10295E+08        -0.26917E+06         0.00000E+00
   -0.26917E+06        -0.29618E+08         0.00000E+00
    0.00000E+00         0.00000E+00        -0.14815E+08
 
   -0.10834E+08        -0.25611E+06         0.00000E+00
   -0.25611E+06        -0.30238E+08         0.00000E+00
    0.00000E+00         0.00000E+00        -0.14779E+08
 
   -0.11384E+08        -0.17494E+06         0.00000E+00
   -0.17494E+06        -0.30880E+08         0.00000E+00
    0.00000E+00         0.00000E+00        -0.14781E+08
 
   -0.11930E+08        -0.48119E+05         0.00000E+00
   -0.48119E+05        -0.31522E+08         0.00000E+00
    0.00000E+00         0.00000E+00        -0.14813E+08
 
   -0.12464E+08         0.10237E+06         0.00000E+00
    0.10237E+06        -0.32149E+08         0.00000E+00
    0.00000E+00         0.00000E+00        -0.14871E+08
 
   -0.12976E+08         0.25961E+06         0.00000E+00
    0.25961E+06        -0.32753E+08         0.00000E+00
    0.00000E+00         0.00000E+00        -0.14949E+08
 
   -0.13462E+08         0.41208E+06         0.00000E+00
    0.41208E+06        -0.33330E+08         0.00000E+00
    0.00000E+00         0.00000E+00        -0.15045E+08
 
   -0.13920E+08         0.55265E+06         0.00000E+00
    0.55265E+06        -0.33877E+08         0.00000E+00
    0.00000E+00         0.00000E+00        -0.15155E+08
 
   -0.14346E+08         0.67747E+06         0.00000E+00
    0.67747E+06        -0.34395E+08         0.00000E+00
    0.00000E+00         0.00000E+00        -0.15274E+08
 
   -0.14740E+08         0.78490E+06         0.00000E+00
    0.78490E+06        -0.34883E+08         0.00000E+00
    0.00000E+00         0.00000E+00        -0.15401E+08
 
   -0.15104E+08         0.87477E+06         0.00000E+00
    0.87477E+06        -0.35343E+08         0.00000E+00
    0.00000E+00         0.00000E+00        -0.15532E+08
 
   -0.15437E+08         0.94783E+06         0.00000E+00
    0.94783E+06        -0.35775E+08         0.00000E+00
    0.00000E+00         0.00000E+00        -0.15666E+08
 
   -0.15742E+08         0.10053E+07         0.00000E+00
    0.10053E+07        -0.36182E+08         0.00000E+00
    0.00000E+00         0.00000E+00        -0.15801E+08
 
   -0.16021E+08         0.10489E+07         0.00000E+00
    0.10489E+07        -0.36565E+08         0.00000E+00
    0.00000E+00         0.00000E+00        -0.15936E+08
 
   -0.16274E+08         0.10801E+07         0.00000E+00
    0.10801E+07        -0.36924E+08         0.00000E+00
    0.00000E+00         0.00000E+00        -0.16069E+08
 
   -0.16505E+08         0.11005E+07         0.00000E+00
    0.11005E+07        -0.37262E+08         0.00000E+00
    0.00000E+00         0.00000E+00        -0.16201E+08
 
   -0.16716E+08         0.11118E+07         0.00000E+00
    0.11118E+07        -0.37579E+08         0.00000E+00
    0.00000E+00         0.00000E+00        -0.16330E+08
 
   -0.16907E+08         0.11153E+07         0.00000E+00
    0.11153E+07        -0.37878E+08         0.00000E+00
    0.00000E+00         0.00000E+00        -0.16456E+08
 
   -0.17082E+08         0.11123E+07         0.00000E+00
    0.11123E+07        -0.38160E+08         0.00000E+00
    0.00000E+00         0.00000E+00        -0.16579E+08
 
   -0.17241E+08         0.11040E+07         0.00000E+00
    0.11040E+07        -0.38425E+08         0.00000E+00
    0.00000E+00         0.00000E+00        -0.16699E+08
 
   -0.17386E+08         0.10913E+07         0.00000E+00
    0.10913E+07        -0.38675E+08         0.00000E+00
    0.00000E+00         0.00000E+00        -0.16816E+08
 
   -0.17519E+08         0.10752E+07         0.00000E+00
    0.10752E+07        -0.38912E+08         0.00000E+00
    0.00000E+00         0.00000E+00        -0.16930E+08
 
   -0.17641E+08         0.10565E+07         0.00000E+00
    0.10565E+07        -0.39135E+08         0.00000E+00
    0.00000E+00         0.00000E+00        -0.17041E+08
 
   -0.17753E+08         0.10357E+07         0.00000E+00
    0.10357E+07        -0.39347E+08         0.00000E+00
    0.00000E+00         0.00000E+00        -0.17148E+08
 
   -0.17857E+08         0.10134E+07         0.00000E+00
    0.10134E+07        -0.39547E+08         0.00000E+00
    0.00000E+00         0.00000E+00        -0.17252E+08
 
   -0.17952E+08         0.99013E+06         0.00000E+00
    0.99013E+06        -0.39737E+08         0.00000E+00
    0.00000E+00         0.00000E+00        -0.17353E+08
 
   -0.18040E+08         0.96623E+06         0.00000E+00
    0.96623E+06        -0.39918E+08         0.00000E+00
    0.00000E+00         0.00000E+00        -0.17451E+08
 
   -0.18122E+08         0.94205E+06         0.00000E+00
    0.94205E+06        -0.40090E+08         0.00000E+00
    0.00000E+00         0.00000E+00        -0.17546E+08
 
   -0.18199E+08         0.91786E+06         0.00000E+00
    0.91786E+06        -0.40254E+08         0.00000E+00
    0.00000E+00         0.00000E+00        -0.17638E+08
 
   -0.18270E+08         0.89389E+06         0.00000E+00
    0.89389E+06        -0.40410E+08         0.00000E+00
    0.00000E+00         0.00000E+00        -0.17728E+08
 
   -0.18337E+08         0.87034E+06         0.00000E+00
    0.87034E+06        -0.40559E+08         0.00000E+00
    0.00000E+00         0.00000E+00        -0.17815E+08
 
   -0.18400E+08         0.84735E+06         0.00000E+00
    0.84735E+06        -0.40702E+08         0.00000E+00
    0.00000E+00         0.00000E+00        -0.17899E+08
 
   -0.18459E+08         0.82505E+06         0.00000E+00
    0.82505E+06        -0.40840E+08         0.00000E+00
    0.00000E+00         0.00000E+00        -0.17981E+08
 
   -0.18515E+08         0.80355E+06         0.00000E+00
    0.80355E+06        -0.40971E+08         0.00000E+00
    0.00000E+00         0.00000E+00        -0.18061E+08
 
   -0.18568E+08         0.78292E+06         0.00000E+00
    0.78292E+06        -0.41098E+08         0.00000E+00
    0.00000E+00         0.00000E+00        -0.18138E+08
 
   -0.18618E+08         0.76323E+06         0.00000E+00
    0.76323E+06        -0.41220E+08         0.00000E+00
    0.00000E+00         0.00000E+00        -0.18214E+08
 
   -0.18666E+08         0.74454E+06         0.00000E+00
    0.74454E+06        -0.41338E+08         0.00000E+00
    0.00000E+00         0.00000E+00        -0.18287E+08
 
   -0.18712E+08         0.72687E+06         0.00000E+00
    0.72687E+06        -0.41452E+08         0.00000E+00
    0.00000E+00         0.00000E+00        -0.18359E+08
 
   -0.18756E+08         0.71026E+06         0.00000E+00
    0.71026E+06        -0.41562E+08         0.00000E+00
    0.00000E+00         0.00000E+00        -0.18429E+08
 
   -0.18799E+08         0.69472E+06         0.00000E+00
    0.69472E+06        -0.41669E+08         0.00000E+00
    0.00000E+00         0.00000E+00        -0.18498E+08
 
   -0.18840E+08         0.68027E+06         0.00000E+00
    0.68027E+06        -0.41774E+08         0.00000E+00
    0.00000E+00         0.00000E+00        -0.18565E+08
 
   -0.18880E+08         0.66692E+06         0.00000E+00
    0.66692E+06        -0.41875E+08         0.00000E+00
    0.00000E+00         0.00000E+00        -0.18631E+08
 
   -0.18918E+08         0.65466E+06         0.00000E+00
    0.65466E+06        -0.41975E+08         0.00000E+00
    0.00000E+00         0.00000E+00        -0.18695E+08
 
   -0.18956E+08         0.64350E+06         0.00000E+00
    0.64350E+06        -0.42072E+08         0.00000E+00
    0.00000E+00         0.00000E+00        -0.18759E+08
 
   -0.18994E+08         0.63343E+06         0.00000E+00
    0.63343E+06        -0.42168E+08         0.00000E+00
    0.00000E+00         0.00000E+00        -0.18822E+08
 
   -0.19030E+08         0.62443E+06         0.00000E+00
    0.62443E+06        -0.42262E+08         0.00000E+00
    0.00000E+00         0.00000E+00        -0.18883E+08
 
   -0.19066E+08         0.61650E+06         0.00000E+00
    0.61650E+06        -0.42355E+08         0.00000E+00
    0.00000E+00         0.00000E+00        -0.18944E+08
 
   -0.19102E+08         0.60963E+06         0.00000E+00
    0.60963E+06        -0.42447E+08         0.00000E+00
    0.00000E+00         0.00000E+00        -0.19005E+08
 
   -0.19137E+08         0.60379E+06         0.00000E+00
    0.60379E+06        -0.42538E+08         0.00000E+00
    0.00000E+00         0.00000E+00        -0.19065E+08
 
   -0.19173E+08         0.59898E+06         0.00000E+00
    0.59898E+06        -0.42628E+08         0.00000E+00
    0.00000E+00         0.00000E+00        -0.19125E+08
 
   -0.19208E+08         0.59516E+06         0.00000E+00
    0.59516E+06        -0.42718E+08         0.00000E+00
    0.00000E+00         0.00000E+00        -0.19184E+08
 
   -0.19244E+08         0.59233E+06         0.00000E+00
    0.59233E+06        -0.42808E+08         0.00000E+00
    0.00000E+00         0.00000E+00        -0.19243E+08
 
   -0.19280E+08         0.59045E+06         0.00000E+00
    0.59045E+06        -0.42899E+08         0.00000E+00
    0.00000E+00         0.00000E+00        -0.19303E+08
 
   -0.19317E+08         0.58950E+06         0.00000E+00
    0.58950E+06        -0.42989E+08         0.00000E+00
    0.00000E+00         0.00000E+00        -0.19362E+08
 
   -0.19354E+08         0.58946E+06         0.00000E+00
    0.58946E+06        -0.43080E+08         0.00000E+00
    0.00000E+00         0.00000E+00        -0.19422E+08
 
   -0.19391E+08         0.59028E+06         0.00000E+00
    0.59028E+06        -0.43173E+08         0.00000E+00
    0.00000E+00         0.00000E+00        -0.19482E+08
 
   -0.19430E+08         0.59195E+06         0.00000E+00
    0.59195E+06        -0.43266E+08         0.00000E+00
    0.00000E+00         0.00000E+00        -0.19542E+08
 
   -0.19470E+08         0.59441E+06         0.00000E+00
    0.59441E+06        -0.43361E+08         0.00000E+00
    0.00000E+00         0.00000E+00        -0.19603E+08
 
   -0.19511E+08         0.59763E+06         0.00000E+00
    0.59763E+06        -0.43457E+08         0.00000E+00
    0.00000E+00         0.00000E+00        -0.19665E+08
 
   -0.19553E+08         0.60156E+06         0.00000E+00
    0.60156E+06        -0.43555E+08         0.00000E+00
    0.00000E+00         0.00000E+00        -0.19727E+08
 
   -0.19597E+08         0.60615E+06         0.00000E+00
    0.60615E+06        -0.43656E+08         0.00000E+00
    0.00000E+00         0.00000E+00        -0.19790E+08
 
   -0.19642E+08         0.61134E+06         0.00000E+00
    0.61134E+06        -0.43759E+08         0.00000E+00
    0.00000E+00         0.00000E+00        -0.19854E+08
 
   -0.19690E+08         0.61706E+06         0.00000E+00
    0.61706E+06        -0.43865E+08         0.00000E+00
    0.00000E+00         0.00000E+00        -0.19920E+08
 
   -0.19740E+08         0.62325E+06         0.00000E+00
    0.62325E+06        -0.43974E+08         0.00000E+00
    0.00000E+00         0.00000E+00        -0.19986E+08
 
   -0.19792E+08         0.62981E+06         0.00000E+00
    0.62981E+06        -0.44087E+08         0.00000E+00
    0.00000E+00         0.00000E+00        -0.20054E+08
 
   -0.19847E+08         0.63664E+06         0.00000E+00
    0.63664E+06        -0.44203E+08         0.00000E+00
    0.00000E+00         0.00000E+00        -0.20123E+08
 
   -0.19905E+08         0.64365E+06         0.00000E+00
    0.64365E+06        -0.44324E+08         0.00000E+00
    0.00000E+00         0.00000E+00        -0.20194E+08
 
   -0.19966E+08         0.65070E+06         0.00000E+00
    0.65070E+06        -0.44450E+08         0.00000E+00
    0.00000E+00         0.00000E+00        -0.20267E+08
 
   -0.20031E+08         0.65764E+06         0.00000E+00
    0.65764E+06        -0.44581E+08         0.00000E+00
    0.00000E+00         0.00000E+00        -0.20341E+08
 
   -0.20100E+08         0.66433E+06         0.00000E+00
    0.66433E+06        -0.44718E+08         0.00000E+00
    0.00000E+00         0.00000E+00        -0.20418E+08
 
   -0.20174E+08         0.67056E+06         0.00000E+00
    0.67056E+06        -0.44860E+08         0.00000E+00
    0.00000E+00         0.00000E+00        -0.20496E+08
 
   -0.20252E+08         0.67613E+06         0.00000E+00
    0.67613E+06        -0.45010E+08         0.00000E+00
    0.00000E+00         0.00000E+00        -0.20576E+08
 
   -0.20336E+08         0.68079E+06         0.00000E+00
    0.68079E+06        -0.45167E+08         0.00000E+00
    0.00000E+00         0.00000E+00        -0.20659E+08
 
   -0.20426E+08         0.68427E+06         0.00000E+00
    0.68427E+06        -0.45333E+08         0.00000E+00
    0.00000E+00         0.00000E+00        -0.20744E+08
 
   -0.20523E+08         0.68625E+06         0.00000E+00
    0.68625E+06        -0.45507E+08         0.00000E+00
    0.00000E+00         0.00000E+00        -0.20832E+08
 
   -0.20627E+08         0.68638E+06         0.00000E+00
    0.68638E+06        -0.45691E+08         0.00000E+00
    0.00000E+00         0.00000E+00        -0.20922E+08
 
   -0.20739E+08         0.68427E+06         0.00000E+00
    0.68427E+06        -0.45885E+08         0.00000E+00
    0.00000E+00         0.00000E+00        -0.21015E+08
 
   -0.20860E+08         0.67946E+06         0.00000E+00
    0.67946E+06        -0.46091E+08         0.00000E+00
    0.00000E+00         0.00000E+00        -0.21111E+08
 
   -0.20991E+08         0.67146E+06         0.00000E+00
    0.67146E+06        -0.46309E+08         0.00000E+00
    0.00000E+00         0.00000E+00        -0.21210E+08
 
   -0.21132E+08         0.65974E+06         0.00000E+00
    0.65974E+06        -0.46541E+08         0.00000E+00
    0.00000E+00         0.00000E+00        -0.21313E+08
 
   -0.21285E+08         0.64372E+06         0.00000E+00
    0.64372E+06        -0.46787E+08         0.00000E+00
    0.00000E+00         0.00000E+00        -0.21418E+08
 
   -0.21450E+08         0.62277E+06         0.00000E+00
    0.62277E+06        -0.47048E+08         0.00000E+00
    0.00000E+00         0.00000E+00        -0.21527E+08
 
   -0.21629E+08         0.59627E+06         0.00000E+00
    0.59627E+06        -0.47327E+08         0.00000E+00
    0.00000E+00         0.00000E+00        -0.21640E+08
 
   -0.21823E+08         0.56358E+06         0.00000E+00
    0.56358E+06        -0.47622E+08         0.00000E+00
    0.00000E+00         0.00000E+00        -0.21756E+08
 
   -0.22032E+08         0.52413E+06         0.00000E+00
    0.52413E+06        -0.47937E+08         0.00000E+00
    0.00000E+00         0.00000E+00        -0.21877E+08
 
   -0.22259E+08         0.47742E+06         0.00000E+00
    0.47742E+06        -0.48271E+08         0.00000E+00
    0.00000E+00         0.00000E+00        -0.22000E+08
 
   -0.22503E+08         0.42316E+06         0.00000E+00
    0.42316E+06        -0.48624E+08         0.00000E+00
    0.00000E+00         0.00000E+00        -0.22128E+08
 
   -0.22767E+08         0.36133E+06         0.00000E+00
    0.36133E+06        -0.48999E+08         0.00000E+00
    0.00000E+00         0.00000E+00        -0.22259E+08
 
   -0.23050E+08         0.29237E+06         0.00000E+00
    0.29237E+06        -0.49393E+08         0.00000E+00
    0.00000E+00         0.00000E+00        -0.22393E+08
 
   -0.23352E+08         0.21736E+06         0.00000E+00
    0.21736E+06        -0.49806E+08         0.00000E+00
    0.00000E+00         0.00000E+00        -0.22530E+08
 
   -0.23675E+08         0.13836E+06         0.00000E+00
    0.13836E+06        -0.50237E+08         0.00000E+00
    0.00000E+00         0.00000E+00        -0.22667E+08
 
   -0.24016E+08         0.58770E+05         0.00000E+00
    0.58770E+05        -0.50682E+08         0.00000E+00
    0.00000E+00         0.00000E+00        -0.22805E+08
 
   -0.24374E+08        -0.16191E+05         0.00000E+00
   -0.16191E+05        -0.51137E+08         0.00000E+00
    0.00000E+00         0.00000E+00        -0.22939E+08
 
   -0.24747E+08        -0.79025E+05         0.00000E+00
   -0.79025E+05        -0.51596E+08         0.00000E+00
    0.00000E+00         0.00000E+00        -0.23066E+08
 
   -0.25130E+08        -0.12002E+06         0.00000E+00
   -0.12002E+06        -0.52046E+08         0.00000E+00
    0.00000E+00         0.00000E+00        -0.23179E+08
 
   -0.25518E+08        -0.12898E+06         0.00000E+00
   -0.12898E+06        -0.52472E+08         0.00000E+00
    0.00000E+00         0.00000E+00        -0.23265E+08
 
   -0.25908E+08        -0.99970E+05         0.00000E+00
   -0.99970E+05        -0.52853E+08         0.00000E+00
    0.00000E+00         0.00000E+00        -0.23307E+08
 
   -0.26299E+08        -0.37966E+05         0.00000E+00
   -0.37966E+05        -0.53165E+08         0.00000E+00
    0.00000E+00         0.00000E+00        -0.23287E+08
 
   -0.92518E+07        -0.82278E+05         0.00000E+00
   -0.82278E+05        -0.28472E+08         0.00000E+00
    0.00000E+00         0.00000E+00        -0.15076E+08
 
   -0.97071E+07        -0.22593E+06         0.00000E+00
   -0.22593E+06        -0.28969E+08         0.00000E+00
    0.00000E+00         0.00000E+00        -0.14936E+08
 
   -0.10221E+08        -0.30203E+06         0.00000E+00
   -0.30203E+06        -0.29553E+08         0.00000E+00
    0.00000E+00         0.00000E+00        -0.14855E+08
 
   -0.10768E+08        -0.29465E+06         0.00000E+00
   -0.29465E+06        -0.30188E+08         0.00000E+00
    0.00000E+00         0.00000E+00        -0.14821E+08
 
   -0.11326E+08        -0.21688E+06         0.00000E+00
   -0.21688E+06        -0.30845E+08         0.00000E+00
    0.00000E+00         0.00000E+00        -0.14823E+08
 
   -0.11882E+08        -0.92686E+05         0.00000E+00
   -0.92686E+05        -0.31499E+08         0.00000E+00
    0.00000E+00         0.00000E+00        -0.14853E+08
 
   -0.12425E+08         0.55428E+05         0.00000E+00
    0.55428E+05        -0.32137E+08         0.00000E+00
    0.00000E+00         0.00000E+00        -0.14906E+08
 
   -0.12946E+08         0.21050E+06         0.00000E+00
    0.21050E+06        -0.32749E+08         0.00000E+00
    0.00000E+00         0.00000E+00        -0.14979E+08
 
   -0.13440E+08         0.36107E+06         0.00000E+00
    0.36107E+06        -0.33332E+08         0.00000E+00
    0.00000E+00         0.00000E+00        -0.15070E+08
 
   -0.13904E+08         0.50007E+06         0.00000E+00
    0.50007E+06        -0.33884E+08         0.00000E+00
    0.00000E+00         0.00000E+00        -0.15174E+08
 
   -0.14336E+08         0.62366E+06         0.00000E+00
    0.62366E+06        -0.34405E+08         0.00000E+00
    0.00000E+00         0.00000E+00        -0.15288E+08
 
   -0.14736E+08         0.73016E+06         0.00000E+00
    0.73016E+06        -0.34895E+08         0.00000E+00
    0.00000E+00         0.00000E+00        -0.15410E+08
 
   -0.15104E+08         0.81939E+06         0.00000E+00
    0.81939E+06        -0.35356E+08         0.00000E+00
    0.00000E+00         0.00000E+00        -0.15538E+08
 
   -0.15440E+08         0.89207E+06         0.00000E+00
    0.89207E+06        -0.35790E+08         0.00000E+00
    0.00000E+00         0.00000E+00        -0.15668E+08
 
   -0.15748E+08         0.94944E+06         0.00000E+00
    0.94944E+06        -0.36197E+08         0.00000E+00
    0.00000E+00         0.00000E+00        -0.15800E+08
 
   -0.16028E+08         0.99302E+06         0.00000E+00
    0.99302E+06        -0.36579E+08         0.00000E+00
    0.00000E+00         0.00000E+00        -0.15932E+08
 
   -0.16284E+08         0.10244E+07         0.00000E+00
    0.10244E+07        -0.36938E+08         0.00000E+00
    0.00000E+00         0.00000E+00        -0.16064E+08
 
   -0.16516E+08         0.10453E+07         0.00000E+00
    0.10453E+07        -0.37276E+08         0.00000E+00
    0.00000E+00         0.00000E+00        -0.16194E+08
 
   -0.16727E+08         0.10571E+07         0.00000E+00
    0.10571E+07        -0.37593E+08         0.00000E+00
    0.00000E+00         0.00000E+00        -0.16322E+08
 
   -0.16919E+08         0.10613E+07         0.00000E+00
    0.10613E+07        -0.37891E+08         0.00000E+00
    0.00000E+00         0.00000E+00        -0.16447E+08
 
   -0.17093E+08         0.10591E+07         0.00000E+00
    0.10591E+07        -0.38172E+08         0.00000E+00
    0.00000E+00         0.00000E+00        -0.16570E+08
 
   -0.17253E+08         0.10516E+07         0.00000E+00
    0.10516E+07        -0.38437E+08         0.00000E+00
    0.00000E+00         0.00000E+00        -0.16689E+08
 
   -0.17398E+08         0.10400E+07         0.00000E+00
    0.10400E+07        -0.38686E+08         0.00000E+00
    0.00000E+00         0.00000E+00        -0.16806E+08
 
   -0.17531E+08         0.10249E+07         0.00000E+00
    0.10249E+07        -0.38922E+08         0.00000E+00
    0.00000E+00         0.00000E+00        -0.16920E+08
 
   -0.17653E+08         0.10072E+07         0.00000E+00
    0.10072E+07        -0.39145E+08         0.00000E+00
    0.00000E+00         0.00000E+00        -0.17030E+08
 
   -0.17765E+08         0.98754E+06         0.00000E+00
    0.98754E+06        -0.39356E+08         0.00000E+00
    0.00000E+00         0.00000E+00        -0.17138E+08
 
   -0.17868E+08         0.96640E+06         0.00000E+00
    0.96640E+06        -0.39556E+08         0.00000E+00
    0.00000E+00         0.00000E+00        -0.17242E+08
 
   -0.17963E+08         0.94427E+06         0.00000E+00
    0.94427E+06        -0.39745E+08         0.00000E+00
    0.00000E+00         0.00000E+00        -0.17343E+08
 
   -0.18051E+08         0.92152E+06         0.00000E+00
    0.92152E+06        -0.39925E+08         0.00000E+00
    0.00000E+00         0.00000E+00        -0.17442E+08
 
   -0.18132E+08         0.89849E+06         0.00000E+00
    0.89849E+06        -0.40097E+08         0.00000E+00
    0.00000E+00         0.00000E+00        -0.17537E+08
 
   -0.18208E+08         0.87544E+06         0.00000E+00
    0.87544E+06        -0.40260E+08         0.00000E+00
    0.00000E+00         0.00000E+00        -0.17630E+08
 
   -0.18279E+08         0.85259E+06         0.00000E+00
    0.85259E+06        -0.40416E+08         0.00000E+00
    0.00000E+00         0.00000E+00        -0.17719E+08
 
   -0.18345E+08         0.83012E+06         0.00000E+00
    0.83012E+06        -0.40565E+08         0.00000E+00
    0.00000E+00         0.00000E+00        -0.17807E+08
 
   -0.18407E+08         0.80819E+06         0.00000E+00
    0.80819E+06        -0.40708E+08         0.00000E+00
    0.00000E+00         0.00000E+00        -0.17891E+08
 
   -0.18466E+08         0.78691E+06         0.00000E+00
    0.78691E+06        -0.40845E+08         0.00000E+00
    0.00000E+00         0.00000E+00        -0.17974E+08
 
   -0.18521E+08         0.76639E+06         0.00000E+00
    0.76639E+06        -0.40976E+08         0.00000E+00
    0.00000E+00         0.00000E+00        -0.18054E+08
 
   -0.18574E+08         0.74671E+06         0.00000E+00
    0.74671E+06        -0.41102E+08         0.00000E+00
    0.00000E+00         0.00000E+00        -0.18132E+08
 
   -0.18624E+08         0.72792E+06         0.00000E+00
    0.72792E+06        -0.41224E+08         0.00000E+00
    0.00000E+00         0.00000E+00        -0.18207E+08
 
   -0.18671E+08         0.71007E+06         0.00000E+00
    0.71007E+06        -0.41342E+08         0.00000E+00
    0.00000E+00         0.00000E+00        -0.18281E+08
 
   -0.18717E+08         0.69321E+06         0.00000E+00
    0.69321E+06        -0.41455E+08         0.00000E+00
    0.00000E+00         0.00000E+00        -0.18354E+08
 
   -0.18761E+08         0.67735E+06         0.00000E+00
    0.67735E+06        -0.41565E+08         0.00000E+00
    0.00000E+00         0.00000E+00        -0.18424E+08
 
   -0.18803E+08         0.66252E+06         0.00000E+00
    0.66252E+06        -0.41672E+08         0.00000E+00
    0.00000E+00         0.00000E+00        -0.18493E+08
 
   -0.18843E+08         0.64873E+06         0.00000E+00
    0.64873E+06        -0.41777E+08         0.00000E+00
    0.00000E+00         0.00000E+00        -0.18560E+08
 
   -0.18883E+08         0.63598E+06         0.00000E+00
    0.63598E+06        -0.41878E+08         0.00000E+00
    0.00000E+00         0.00000E+00        -0.18627E+08
 
   -0.18921E+08         0.62428E+06         0.00000E+00
    0.62428E+06        -0.41977E+08         0.00000E+00
    0.00000E+00         0.00000E+00        -0.18692E+08
 
   -0.18959E+08         0.61361E+06         0.00000E+00
    0.61361E+06        -0.42074E+08         0.00000E+00
    0.00000E+00         0.00000E+00        -0.18756E+08
 
   -0.18995E+08         0.60399E+06         0.00000E+00
    0.60399E+06        -0.42170E+08         0.00000E+00
    0.00000E+00         0.00000E+00        -0.18819E+08
 
   -0.19032E+08         0.59540E+06         0.00000E+00
    0.59540E+06        -0.42264E+08         0.00000E+00
    0.00000E+00         0.00000E+00        -0.18881E+08
 
   -0.19067E+08         0.58782E+06         0.00000E+00
    0.58782E+06        -0.42356E+08         0.00000E+00
    0.00000E+00         0.00000E+00        -0.18942E+08
 
   -0.19102E+08         0.58125E+06         0.00000E+00
    0.58125E+06        -0.42448E+08         0.00000E+00
    0.00000E+00         0.00000E+00        -0.19003E+08
 
   -0.19138E+08         0.57567E+06         0.00000E+00
    0.57567E+06        -0.42539E+08         0.00000E+00
    0.00000E+00         0.00000E+00        -0.19063E+08
 
   -0.19173E+08         0.57107E+06         0.00000E+00
    0.57107E+06        -0.42629E+08         0.00000E+00
    0.00000E+00         0.00000E+00        -0.19123E+08
 
   -0.19208E+08         0.56742E+06         0.00000E+00
    0.56742E+06        -0.42719E+08         0.00000E+00
    0.00000E+00         0.00000E+00        -0.19183E+08
 
   -0.19243E+08         0.56470E+06         0.00000E+00
    0.56470E+06        -0.42809E+08         0.00000E+00
    0.00000E+00         0.00000E+00        -0.19242E+08
 
   -0.19279E+08         0.56289E+06         0.00000E+00
    0.56289E+06        -0.42899E+08         0.00000E+00
    0.00000E+00         0.00000E+00        -0.19302E+08
 
   -0.19315E+08         0.56197E+06         0.00000E+00
    0.56197E+06        -0.42990E+08         0.00000E+00
    0.00000E+00         0.00000E+00        -0.19362E+08
 
   -0.19351E+08         0.56191E+06         0.00000E+00
    0.56191E+06        -0.43081E+08         0.00000E+00
    0.00000E+00         0.00000E+00        -0.19422E+08
 
   -0.19389E+08         0.56268E+06         0.00000E+00
    0.56268E+06        -0.43173E+08         0.00000E+00
    0.00000E+00         0.00000E+00        -0.19482E+08
 
   -0.19427E+08         0.56424E+06         0.00000E+00
    0.56424E+06        -0.43266E+08         0.00000E+00
    0.00000E+00         0.00000E+00        -0.19542E+08
 
   -0.19466E+08         0.56657E+06         0.00000E+00
    0.56657E+06        -0.43360E+08         0.00000E+00
    0.00000E+00         0.00000E+00        -0.19603E+08
 
   -0.19507E+08         0.56962E+06         0.00000E+00
    0.56962E+06        -0.43457E+08         0.00000E+00
    0.00000E+00         0.00000E+00        -0.19665E+08
 
   -0.19548E+08         0.57335E+06         0.00000E+00
    0.57335E+06        -0.43555E+08         0.00000E+00
    0.00000E+00         0.00000E+00        -0.19728E+08
 
   -0.19592E+08         0.57770E+06         0.00000E+00
    0.57770E+06        -0.43655E+08         0.00000E+00
    0.00000E+00         0.00000E+00        -0.19791E+08
 
   -0.19637E+08         0.58263E+06         0.00000E+00
    0.58263E+06        -0.43758E+08         0.00000E+00
    0.00000E+00         0.00000E+00        -0.19856E+08
 
   -0.19684E+08         0.58806E+06         0.00000E+00
    0.58806E+06        -0.43864E+08         0.00000E+00
    0.00000E+00         0.00000E+00        -0.19921E+08
 
   -0.19733E+08         0.59393E+06         0.00000E+00
    0.59393E+06        -0.43973E+08         0.00000E+00
    0.00000E+00         0.00000E+00        -0.19988E+08
 
   -0.19785E+08         0.60015E+06         0.00000E+00
    0.60015E+06        -0.44085E+08         0.00000E+00
    0.00000E+00         0.00000E+00        -0.20056E+08
 
   -0.19840E+08         0.60664E+06         0.00000E+00
    0.60664E+06        -0.44202E+08         0.00000E+00
    0.00000E+00         0.00000E+00        -0.20125E+08
 
   -0.19897E+08         0.61328E+06         0.00000E+00
    0.61328E+06        -0.44322E+08         0.00000E+00
    0.00000E+00         0.00000E+00        -0.20196E+08
 
   -0.19958E+08         0.61996E+06         0.00000E+00
    0.61996E+06        -0.44448E+08         0.00000E+00
    0.00000E+00         0.00000E+00        -0.20269E+08
 
   -0.20023E+08         0.62654E+06         0.00000E+00
    0.62654E+06        -0.44578E+08         0.00000E+00
    0.00000E+00         0.00000E+00        -0.20343E+08
 
   -0.20092E+08         0.63286E+06         0.00000E+00
    0.63286E+06        -0.44715E+08         0.00000E+00
    0.00000E+00         0.00000E+00        -0.20420E+08
 
   -0.20165E+08         0.63874E+06         0.00000E+00
    0.63874E+06        -0.44857E+08         0.00000E+00
    0.00000E+00         0.00000E+00        -0.20498E+08
 
   -0.20243E+08         0.64398E+06         0.00000E+00
    0.64398E+06        -0.45007E+08         0.00000E+00
    0.00000E+00         0.00000E+00        -0.20578E+08
 
   -0.20327E+08         0.64834E+06         0.00000E+00
    0.64834E+06        -0.45164E+08         0.00000E+00
    0.00000E+00         0.00000E+00        -0.20661E+08
 
   -0.20417E+08         0.65155E+06         0.00000E+00
    0.65155E+06        -0.45329E+08         0.00000E+00
    0.00000E+00         0.00000E+00        -0.20746E+08
 
   -0.20513E+08         0.65332E+06         0.00000E+00
    0.65332E+06        -0.45502E+08         0.00000E+00
    0.00000E+00         0.00000E+00        -0.20834E+08
 
   -0.20617E+08         0.65328E+06         0.00000E+00
    0.65328E+06        -0.45686E+08         0.00000E+00
    0.00000E+00         0.00000E+00        -0.20924E+08
 
   -0.20729E+08         0.65107E+06         0.00000E+00
    0.65107E+06        -0.45880E+08         0.00000E+00
    0.00000E+00         0.00000E+00        -0.21016E+08
 
   -0.20850E+08         0.64624E+06         0.00000E+00
    0.64624E+06        -0.46085E+08         0.00000E+00
    0.00000E+00         0.00000E+00        -0.21112E+08
 
   -0.20980E+08         0.63831E+06         0.00000E+00
    0.63831E+06        -0.46303E+08         0.00000E+00
    0.00000E+00         0.00000E+00        -0.21211E+08
 
   -0.21122E+08         0.62676E+06         0.00000E+00
    0.62676E+06        -0.46534E+08         0.00000E+00
    0.00000E+00         0.00000E+00        -0.21312E+08
 
   -0.21275E+08         0.61100E+06         0.00000E+00
    0.61100E+06        -0.46780E+08         0.00000E+00
    0.00000E+00         0.00000E+00        -0.21417E+08
 
   -0.21441E+08         0.59044E+06         0.00000E+00
    0.59044E+06        -0.47041E+08         0.00000E+00
    0.00000E+00         0.00000E+00        -0.21526E+08
 
   -0.21621E+08         0.56444E+06         0.00000E+00
    0.56444E+06        -0.47319E+08         0.00000E+00
    0.00000E+00         0.00000E+00        -0.21637E+08
 
   -0.21816E+08         0.53238E+06         0.00000E+00
    0.53238E+06        -0.47615E+08         0.00000E+00
    0.00000E+00         0.00000E+00        -0.21752E+08
 
   -0.22027E+08         0.49368E+06         0.00000E+00
    0.49368E+06        -0.47929E+08         0.00000E+00
    0.00000E+00         0.00000E+00        -0.21871E+08
 
   -0.22256E+08         0.44784E+06         0.00000E+00
    0.44784E+06        -0.48263E+08         0.00000E+00
    0.00000E+00         0.00000E+00        -0.21994E+08
 
   -0.22503E+08         0.39455E+06         0.00000E+00
    0.39455E+06        -0.48618E+08         0.00000E+00
    0.00000E+00         0.00000E+00        -0.22119E+08
 
   -0.22770E+08         0.33377E+06         0.00000E+00
    0.33377E+06        -0.48993E+08         0.00000E+00
    0.00000E+00         0.00000E+00        -0.22249E+08
 
   -0.23057E+08         0.26591E+06         0.00000E+00
    0.26591E+06        -0.49389E+08         0.00000E+00
    0.00000E+00         0.00000E+00        -0.22381E+08
 
   -0.23365E+08         0.19202E+06         0.00000E+00
    0.19202E+06        -0.49804E+08         0.00000E+00
    0.00000E+00         0.00000E+00        -0.22515E+08
 
   -0.23694E+08         0.11410E+06         0.00000E+00
    0.11410E+06        -0.50239E+08         0.00000E+00
    0.00000E+00         0.00000E+00        -0.22651E+08
 
   -0.24042E+08         0.35506E+05         0.00000E+00
    0.35506E+05        -0.50688E+08         0.00000E+00
    0.00000E+00         0.00000E+00        -0.22787E+08
 
   -0.24409E+08        -0.38564E+05         0.00000E+00
   -0.38564E+05        -0.51150E+08         0.00000E+00
    0.00000E+00         0.00000E+00        -0.22921E+08
 
   -0.24791E+08        -0.10051E+06         0.00000E+00
   -0.10051E+06        -0.51616E+08         0.00000E+00
    0.00000E+00         0.00000E+00        -0.23048E+08
 
   -0.25183E+08        -0.14020E+06         0.00000E+00
   -0.14020E+06        -0.52076E+08         0.00000E+00
    0.00000E+00         0.00000E+00        -0.23162E+08
 
   -0.25581E+08        -0.14655E+06         0.00000E+00
   -0.14655E+06        -0.52512E+08         0.00000E+00
    0.00000E+00         0.00000E+00        -0.23251E+08
 
   -0.25978E+08        -0.11247E+06         0.00000E+00
   -0.11247E+06        -0.52902E+08         0.00000E+00
    0.00000E+00         0.00000E+00        -0.23297E+08
 
   -0.26373E+08        -0.42582E+05         0.00000E+00
   -0.42582E+05        -0.53219E+08         0.00000E+00
    0.00000E+00         0.00000E+00        -0.23279E+08
 
   -0.91706E+07        -0.90234E+05         0.00000E+00
   -0.90234E+05        -0.28382E+08         0.00000E+00
    0.00000E+00         0.00000E+00        -0.15104E+08
 
   -0.96267E+07        -0.24789E+06         0.00000E+00
   -0.24789E+06        -0.28888E+08         0.00000E+00
    0.00000E+00         0.00000E+00        -0.14970E+08
 
   -0.10146E+08        -0.33287E+06         0.00000E+00
   -0.33287E+06        -0.29486E+08         0.00000E+00
    0.00000E+00         0.00000E+00        -0.14895E+08
 
   -0.10701E+08        -0.33003E+06         0.00000E+00
   -0.33003E+06        -0.30138E+08         0.00000E+00
    0.00000E+00         0.00000E+00        -0.14864E+08
 
   -0.11269E+08        -0.25495E+06         0.00000E+00
   -0.25495E+06        -0.30809E+08         0.00000E+00
    0.00000E+00         0.00000E+00        -0.14865E+08
 
   -0.11835E+08        -0.13315E+06         0.00000E+00
   -0.13315E+06        -0.31477E+08         0.00000E+00
    0.00000E+00         0.00000E+00        -0.14892E+08
 
   -0.12387E+08         0.12478E+05         0.00000E+00
    0.12478E+05        -0.32125E+08         0.00000E+00
    0.00000E+00         0.00000E+00        -0.14940E+08
 
   -0.12917E+08         0.16506E+06         0.00000E+00
    0.16506E+06        -0.32745E+08         0.00000E+00
    0.00000E+00         0.00000E+00        -0.15009E+08
 
   -0.13419E+08         0.31333E+06         0.00000E+00
    0.31333E+06        -0.33334E+08         0.00000E+00
    0.00000E+00         0.00000E+00        -0.15093E+08
 
   -0.13890E+08         0.45032E+06         0.00000E+00
    0.45032E+06        -0.33891E+08         0.00000E+00
    0.00000E+00         0.00000E+00        -0.15192E+08
 
   -0.14328E+08         0.57222E+06         0.00000E+00
    0.57222E+06        -0.34415E+08         0.00000E+00
    0.00000E+00         0.00000E+00        -0.15301E+08
 
   -0.14733E+08         0.67739E+06         0.00000E+00
    0.67739E+06        -0.34907E+08         0.00000E+00
    0.00000E+00         0.00000E+00        -0.15419E+08
 
   -0.15105E+08         0.76561E+06         0.00000E+00
    0.76561E+06        -0.35370E+08         0.00000E+00
    0.00000E+00         0.00000E+00        -0.15543E+08
 
   -0.15445E+08         0.83758E+06         0.00000E+00
    0.83758E+06        -0.35804E+08         0.00000E+00
    0.00000E+00         0.00000E+00        -0.15670E+08
 
   -0.15755E+08         0.89451E+06         0.00000E+00
    0.89451E+06        -0.36212E+08         0.00000E+00
    0.00000E+00         0.00000E+00        -0.15799E+08
 
   -0.16037E+08         0.93791E+06         0.00000E+00
    0.93791E+06        -0.36594E+08         0.00000E+00
    0.00000E+00         0.00000E+00        -0.15929E+08
 
   -0.16294E+08         0.96936E+06         0.00000E+00
    0.96936E+06        -0.36953E+08         0.00000E+00
    0.00000E+00         0.00000E+00        -0.16058E+08
 
   -0.16527E+08         0.99045E+06         0.00000E+00
    0.99045E+06        -0.37290E+08         0.00000E+00
    0.00000E+00         0.00000E+00        -0.16187E+08
 
   -0.16739E+08         0.10027E+07         0.00000E+00
    0.10027E+07        -0.37606E+08         0.00000E+00
    0.00000E+00         0.00000E+00        -0.16314E+08
 
   -0.16931E+08         0.10074E+07         0.00000E+00
    0.10074E+07        -0.37904E+08         0.00000E+00
    0.00000E+00         0.00000E+00        -0.16438E+08
 
   -0.17106E+08         0.10059E+07         0.00000E+00
    0.10059E+07        -0.38184E+08         0.00000E+00
    0.00000E+00         0.00000E+00        -0.16560E+08
 
   -0.17265E+08         0.99928E+06         0.00000E+00
    0.99928E+06        -0.38448E+08         0.00000E+00
    0.00000E+00         0.00000E+00        -0.16680E+08
 
   -0.17411E+08         0.98851E+06         0.00000E+00
    0.98851E+06        -0.38697E+08         0.00000E+00
    0.00000E+00         0.00000E+00        -0.16796E+08
 
   -0.17543E+08         0.97444E+06         0.00000E+00
    0.97444E+06        -0.38932E+08         0.00000E+00
    0.00000E+00         0.00000E+00        -0.16910E+08
 
   -0.17665E+08         0.95780E+06         0.00000E+00
    0.95780E+06        -0.39155E+08         0.00000E+00
    0.00000E+00         0.00000E+00        -0.17020E+08
 
   -0.17776E+08         0.93921E+06         0.00000E+00
    0.93921E+06        -0.39365E+08         0.00000E+00
    0.00000E+00         0.00000E+00        -0.17128E+08
 
   -0.17879E+08         0.91919E+06         0.00000E+00
    0.91919E+06        -0.39564E+08         0.00000E+00
    0.00000E+00         0.00000E+00        -0.17232E+08
 
   -0.17973E+08         0.89820E+06         0.00000E+00
    0.89820E+06        -0.39753E+08         0.00000E+00
    0.00000E+00         0.00000E+00        -0.17334E+08
 
   -0.18061E+08         0.87660E+06         0.00000E+00
    0.87660E+06        -0.39933E+08         0.00000E+00
    0.00000E+00         0.00000E+00        -0.17432E+08
 
   -0.18142E+08         0.85471E+06         0.00000E+00
    0.85471E+06        -0.40104E+08         0.00000E+00
    0.00000E+00         0.00000E+00        -0.17528E+08
 
   -0.18217E+08         0.83279E+06         0.00000E+00
    0.83279E+06        -0.40267E+08         0.00000E+00
    0.00000E+00         0.00000E+00        -0.17621E+08
 
   -0.18288E+08         0.81106E+06         0.00000E+00
    0.81106E+06        -0.40422E+08         0.00000E+00
    0.00000E+00         0.00000E+00        -0.17711E+08
 
   -0.18354E+08         0.78968E+06         0.00000E+00
    0.78968E+06        -0.40571E+08         0.00000E+00
    0.00000E+00         0.00000E+00        -0.17799E+08
 
   -0.18415E+08         0.76881E+06         0.00000E+00
    0.76881E+06        -0.40713E+08         0.00000E+00
    0.00000E+00         0.00000E+00        -0.17884E+08
 
   -0.18473E+08         0.74856E+06         0.00000E+00
    0.74856E+06        -0.40850E+08         0.00000E+00
    0.00000E+00         0.00000E+00        -0.17967E+08
 
   -0.18528E+08         0.72903E+06         0.00000E+00
    0.72903E+06        -0.40981E+08         0.00000E+00
    0.00000E+00         0.00000E+00        -0.18047E+08
 
   -0.18580E+08         0.71029E+06         0.00000E+00
    0.71029E+06        -0.41107E+08         0.00000E+00
    0.00000E+00         0.00000E+00        -0.18125E+08
 
   -0.18630E+08         0.69240E+06         0.00000E+00
    0.69240E+06        -0.41228E+08         0.00000E+00
    0.00000E+00         0.00000E+00        -0.18201E+08
 
   -0.18677E+08         0.67541E+06         0.00000E+00
    0.67541E+06        -0.41345E+08         0.00000E+00
    0.00000E+00         0.00000E+00        -0.18276E+08
 
   -0.18722E+08         0.65936E+06         0.00000E+00
    0.65936E+06        -0.41459E+08         0.00000E+00
    0.00000E+00         0.00000E+00        -0.18348E+08
 
   -0.18765E+08         0.64426E+06         0.00000E+00
    0.64426E+06        -0.41569E+08         0.00000E+00
    0.00000E+00         0.00000E+00        -0.18419E+08
 
   -0.18807E+08         0.63014E+06         0.00000E+00
    0.63014E+06        -0.41675E+08         0.00000E+00
    0.00000E+00         0.00000E+00        -0.18488E+08
 
   -0.18847E+08         0.61700E+06         0.00000E+00
    0.61700E+06        -0.41779E+08         0.00000E+00
    0.00000E+00         0.00000E+00        -0.18556E+08
 
   -0.18886E+08         0.60486E+06         0.00000E+00
    0.60486E+06        -0.41881E+08         0.00000E+00
    0.00000E+00         0.00000E+00        -0.18623E+08
 
   -0.18924E+08         0.59372E+06         0.00000E+00
    0.59372E+06        -0.41980E+08         0.00000E+00
    0.00000E+00         0.00000E+00        -0.18688E+08
 
   -0.18961E+08         0.58356E+06         0.00000E+00
    0.58356E+06        -0.42077E+08         0.00000E+00
    0.00000E+00         0.00000E+00        -0.18752E+08
 
   -0.18997E+08         0.57440E+06         0.00000E+00
    0.57440E+06        -0.42172E+08         0.00000E+00
    0.00000E+00         0.00000E+00        -0.18816E+08
 
   -0.19033E+08         0.56621E+06         0.00000E+00
    0.56621E+06        -0.42265E+08         0.00000E+00
    0.00000E+00         0.00000E+00        -0.18878E+08
 
   -0.19068E+08         0.55899E+06         0.00000E+00
    0.55899E+06        -0.42358E+08         0.00000E+00
    0.00000E+00         0.00000E+00        -0.18940E+08
 
   -0.19103E+08         0.55273E+06         0.00000E+00
    0.55273E+06        -0.42449E+08         0.00000E+00
    0.00000E+00         0.00000E+00        -0.19001E+08
 
   -0.19138E+08         0.54741E+06         0.00000E+00
    0.54741E+06        -0.42540E+08         0.00000E+00
    0.00000E+00         0.00000E+00        -0.19061E+08
 
   -0.19172E+08         0.54301E+06         0.00000E+00
    0.54301E+06        -0.42630E+08         0.00000E+00
    0.00000E+00         0.00000E+00        -0.19122E+08
 
   -0.19207E+08         0.53952E+06         0.00000E+00
    0.53952E+06        -0.42720E+08         0.00000E+00
    0.00000E+00         0.00000E+00        -0.19182E+08
 
   -0.19242E+08         0.53692E+06         0.00000E+00
    0.53692E+06        -0.42810E+08         0.00000E+00
    0.00000E+00         0.00000E+00        -0.19242E+08
 
   -0.19277E+08         0.53519E+06         0.00000E+00
    0.53519E+06        -0.42900E+08         0.00000E+00
    0.00000E+00         0.00000E+00        -0.19301E+08
 
   -0.19313E+08         0.53430E+06         0.00000E+00
    0.53430E+06        -0.42990E+08         0.00000E+00
    0.00000E+00         0.00000E+00        -0.19361E+08
 
   -0.19349E+08         0.53423E+06         0.00000E+00
    0.53423E+06        -0.43081E+08         0.00000E+00
    0.00000E+00         0.00000E+00        -0.19421E+08
 
   -0.19386E+08         0.53494E+06         0.00000E+00
    0.53494E+06        -0.43173E+08         0.00000E+00
    0.00000E+00         0.00000E+00        -0.19482E+08
 
   -0.19424E+08         0.53642E+06         0.00000E+00
    0.53642E+06        -0.43266E+08         0.00000E+00
    0.00000E+00         0.00000E+00        -0.19543E+08
 
   -0.19463E+08         0.53861E+06         0.00000E+00
    0.53861E+06        -0.43360E+08         0.00000E+00
    0.00000E+00         0.00000E+00        -0.19604E+08
 
   -0.19503E+08         0.54149E+06         0.00000E+00
    0.54149E+06        -0.43456E+08         0.00000E+00
    0.00000E+00         0.00000E+00        -0.19666E+08
 
   -0.19544E+08         0.54502E+06         0.00000E+00
    0.54502E+06        -0.43554E+08         0.00000E+00
    0.00000E+00         0.00000E+00        -0.19729E+08
 
   -0.19587E+08         0.54914E+06         0.00000E+00
    0.54914E+06        -0.43654E+08         0.00000E+00
    0.00000E+00         0.00000E+00        -0.19792E+08
 
   -0.19632E+08         0.55380E+06         0.00000E+00
    0.55380E+06        -0.43757E+08         0.00000E+00
    0.00000E+00         0.00000E+00        -0.19857E+08
 
   -0.19679E+08         0.55895E+06         0.00000E+00
    0.55895E+06        -0.43863E+08         0.00000E+00
    0.00000E+00         0.00000E+00        -0.19922E+08
 
   -0.19727E+08         0.56450E+06         0.00000E+00
    0.56450E+06        -0.43971E+08         0.00000E+00
    0.00000E+00         0.00000E+00        -0.19989E+08
 
   -0.19779E+08         0.57040E+06         0.00000E+00
    0.57040E+06        -0.44084E+08         0.00000E+00
    0.00000E+00         0.00000E+00        -0.20057E+08
 
   -0.19833E+08         0.57654E+06         0.00000E+00
    0.57654E+06        -0.44200E+08         0.00000E+00
    0.00000E+00         0.00000E+00        -0.20127E+08
 
   -0.19890E+08         0.58282E+06         0.00000E+00
    0.58282E+06        -0.44320E+08         0.00000E+00
    0.00000E+00         0.00000E+00        -0.20198E+08
 
   -0.19951E+08         0.58914E+06         0.00000E+00
    0.58914E+06        -0.44445E+08         0.00000E+00
    0.00000E+00         0.00000E+00        -0.20271E+08
 
   -0.20015E+08         0.59536E+06         0.00000E+00
    0.59536E+06        -0.44576E+08         0.00000E+00
    0.00000E+00         0.00000E+00        -0.20345E+08
 
   -0.20083E+08         0.60132E+06         0.00000E+00
    0.60132E+06        -0.44712E+08         0.00000E+00
    0.00000E+00         0.00000E+00        -0.20422E+08
 
   -0.20156E+08         0.60686E+06         0.00000E+00
    0.60686E+06        -0.44854E+08         0.00000E+00
    0.00000E+00         0.00000E+00        -0.20500E+08
 
   -0.20234E+08         0.61178E+06         0.00000E+00
    0.61178E+06        -0.45003E+08         0.00000E+00
    0.00000E+00         0.00000E+00        -0.20581E+08
 
   -0.20317E+08         0.61585E+06         0.00000E+00
    0.61585E+06        -0.45160E+08         0.00000E+00
    0.00000E+00         0.00000E+00        -0.20663E+08
 
   -0.20407E+08         0.61881E+06         0.00000E+00
    0.61881E+06        -0.45324E+08         0.00000E+00
    0.00000E+00         0.00000E+00        -0.20748E+08
 
   -0.20503E+08         0.62038E+06         0.00000E+00
    0.62038E+06        -0.45498E+08         0.00000E+00
    0.00000E+00         0.00000E+00        -0.20835E+08
 
   -0.20607E+08         0.62021E+06         0.00000E+00
    0.62021E+06        -0.45681E+08         0.00000E+00
    0.00000E+00         0.00000E+00        -0.20925E+08
 
   -0.20719E+08         0.61792E+06         0.00000E+00
    0.61792E+06        -0.45874E+08         0.00000E+00
    0.00000E+00         0.00000E+00        -0.21018E+08
 
   -0.20839E+08         0.61311E+06         0.00000E+00
    0.61311E+06        -0.46079E+08         0.00000E+00
    0.00000E+00         0.00000E+00        -0.21113E+08
 
   -0.20970E+08         0.60529E+06         0.00000E+00
    0.60529E+06        -0.46297E+08         0.00000E+00
    0.00000E+00         0.00000E+00        -0.21211E+08
 
   -0.21112E+08         0.59395E+06         0.00000E+00
    0.59395E+06        -0.46528E+08         0.00000E+00
    0.00000E+00         0.00000E+00        -0.21312E+08
 
   -0.21265E+08         0.57853E+06         0.00000E+00
    0.57853E+06        -0.46773E+08         0.00000E+00
    0.00000E+00         0.00000E+00        -0.21417E+08
 
   -0.21432E+08         0.55842E+06         0.00000E+00
    0.55842E+06        -0.47034E+08         0.00000E+00
    0.00000E+00         0.00000E+00        -0.21524E+08
 
   -0.21613E+08         0.53301E+06         0.00000E+00
    0.53301E+06        -0.47311E+08         0.00000E+00
    0.00000E+00         0.00000E+00        -0.21635E+08
 
   -0.21809E+08         0.50168E+06         0.00000E+00
    0.50168E+06        -0.47607E+08         0.00000E+00
    0.00000E+00         0.00000E+00        -0.21749E+08
 
   -0.22022E+08         0.46385E+06         0.00000E+00
    0.46385E+06        -0.47921E+08         0.00000E+00
    0.00000E+00         0.00000E+00        -0.21866E+08
 
   -0.22252E+08         0.41901E+06         0.00000E+00
    0.41901E+06        -0.48256E+08         0.00000E+00
    0.00000E+00         0.00000E+00        -0.21987E+08
 
   -0.22503E+08         0.36684E+06         0.00000E+00
    0.36684E+06        -0.48611E+08         0.00000E+00
    0.00000E+00         0.00000E+00        -0.22111E+08
 
   -0.22773E+08         0.30729E+06         0.00000E+00
    0.30729E+06        -0.48987E+08         0.00000E+00
    0.00000E+00         0.00000E+00        -0.22239E+08
 
   -0.23064E+08         0.24071E+06         0.00000E+00
    0.24071E+06        -0.49385E+08         0.00000E+00
    0.00000E+00         0.00000E+00        -0.22369E+08
 
   -0.23378E+08         0.16811E+06         0.00000E+00
    0.16811E+06        -0.49803E+08         0.00000E+00
    0.00000E+00         0.00000E+00        -0.22501E+08
 
   -0.23713E+08         0.91437E+05         0.00000E+00
    0.91437E+05        -0.50240E+08         0.00000E+00
    0.00000E+00         0.00000E+00        -0.22635E+08
 
   -0.24069E+08         0.13947E+05         0.00000E+00
    0.13947E+05        -0.50695E+08         0.00000E+00
    0.00000E+00         0.00000E+00        -0.22770E+08
 
   -0.24444E+08        -0.59216E+05         0.00000E+00
   -0.59216E+05        -0.51163E+08         0.00000E+00
    0.00000E+00         0.00000E+00        -0.22902E+08
 
   -0.24836E+08        -0.12041E+06         0.00000E+00
   -0.12041E+06        -0.51636E+08         0.00000E+00
    0.00000E+00         0.00000E+00        -0.23029E+08
 
   -0.25238E+08        -0.15916E+06         0.00000E+00
   -0.15916E+06        -0.52106E+08         0.00000E+00
    0.00000E+00         0.00000E+00        -0.23145E+08
 
   -0.25645E+08        -0.16340E+06         0.00000E+00
   -0.16340E+06        -0.52553E+08         0.00000E+00
    0.00000E+00         0.00000E+00        -0.23237E+08
 
   -0.26049E+08        -0.12471E+06         0.00000E+00
   -0.12471E+06        -0.52952E+08         0.00000E+00
    0.00000E+00         0.00000E+00        -0.23287E+08
 
   -0.26449E+08        -0.47167E+05         0.00000E+00
   -0.47167E+05        -0.53275E+08         0.00000E+00
    0.00000E+00         0.00000E+00        -0.23272E+08
 
   -0.90876E+07        -0.97995E+05         0.00000E+00
   -0.97995E+05        -0.28287E+08         0.00000E+00
    0.00000E+00         0.00000E+00        -0.15131E+08
 
   -0.95449E+07        -0.26891E+06         0.00000E+00
   -0.26891E+06        -0.28803E+08         0.00000E+00
    0.00000E+00         0.00000E+00        -0.15004E+08
 
   -0.10071E+08        -0.36154E+06         0.00000E+00
   -0.36154E+06        -0.29416E+08         0.00000E+00
    0.00000E+00         0.00000E+00        -0.14934E+08
 
   -0.10635E+08        -0.36208E+06         0.00000E+00
   -0.36208E+06        -0.30086E+08         0.00000E+00
    0.00000E+00         0.00000E+00        -0.14905E+08
 
   -0.11213E+08        -0.28901E+06         0.00000E+00
   -0.28901E+06        -0.30773E+08         0.00000E+00
    0.00000E+00         0.00000E+00        -0.14906E+08
 
   -0.11789E+08        -0.16941E+06         0.00000E+00
   -0.16941E+06        -0.31454E+08         0.00000E+00
    0.00000E+00         0.00000E+00        -0.14930E+08
 
   -0.12350E+08        -0.26427E+05         0.00000E+00
   -0.26427E+05        -0.32112E+08         0.00000E+00
    0.00000E+00         0.00000E+00        -0.14974E+08
 
   -0.12889E+08         0.12334E+06         0.00000E+00
    0.12334E+06        -0.32741E+08         0.00000E+00
    0.00000E+00         0.00000E+00        -0.15037E+08
 
   -0.13400E+08         0.26887E+06         0.00000E+00
    0.26887E+06        -0.33336E+08         0.00000E+00
    0.00000E+00         0.00000E+00        -0.15116E+08
 
   -0.13878E+08         0.40338E+06         0.00000E+00
    0.40338E+06        -0.33897E+08         0.00000E+00
    0.00000E+00         0.00000E+00        -0.15210E+08
 
   -0.14322E+08         0.52315E+06         0.00000E+00
    0.52315E+06        -0.34425E+08         0.00000E+00
    0.00000E+00         0.00000E+00        -0.15314E+08
 
   -0.14731E+08         0.62656E+06         0.00000E+00
    0.62656E+06        -0.34920E+08         0.00000E+00
    0.00000E+00         0.00000E+00        -0.15428E+08
 
   -0.15107E+08         0.71340E+06         0.00000E+00
    0.71340E+06        -0.35384E+08         0.00000E+00
    0.00000E+00         0.00000E+00        -0.15547E+08
 
   -0.15450E+08         0.78433E+06         0.00000E+00
    0.78433E+06        -0.35819E+08         0.00000E+00
    0.00000E+00         0.00000E+00        -0.15671E+08
 
   -0.15763E+08         0.84054E+06         0.00000E+00
    0.84054E+06        -0.36227E+08         0.00000E+00
    0.00000E+00         0.00000E+00        -0.15797E+08
 
   -0.16047E+08         0.88352E+06         0.00000E+00
    0.88352E+06        -0.36609E+08         0.00000E+00
    0.00000E+00         0.00000E+00        -0.15925E+08
 
   -0.16305E+08         0.91481E+06         0.00000E+00
    0.91481E+06        -0.36968E+08         0.00000E+00
    0.00000E+00         0.00000E+00        -0.16053E+08
 
   -0.16539E+08         0.93596E+06         0.00000E+00
    0.93596E+06        -0.37304E+08         0.00000E+00
    0.00000E+00         0.00000E+00        -0.16180E+08
 
   -0.16751E+08         0.94845E+06         0.00000E+00
    0.94845E+06        -0.37620E+08         0.00000E+00
    0.00000E+00         0.00000E+00        -0.16305E+08
 
   -0.16944E+08         0.95365E+06         0.00000E+00
    0.95365E+06        -0.37917E+08         0.00000E+00
    0.00000E+00         0.00000E+00        -0.16429E+08
 
   -0.17119E+08         0.95276E+06         0.00000E+00
    0.95276E+06        -0.38197E+08         0.00000E+00
    0.00000E+00         0.00000E+00        -0.16551E+08
 
   -0.17278E+08         0.94689E+06         0.00000E+00
    0.94689E+06        -0.38460E+08         0.00000E+00
    0.00000E+00         0.00000E+00        -0.16670E+08
 
   -0.17423E+08         0.93697E+06         0.00000E+00
    0.93697E+06        -0.38708E+08         0.00000E+00
    0.00000E+00         0.00000E+00        -0.16786E+08
 
   -0.17556E+08         0.92385E+06         0.00000E+00
    0.92385E+06        -0.38943E+08         0.00000E+00
    0.00000E+00         0.00000E+00        -0.16900E+08
 
   -0.17677E+08         0.90822E+06         0.00000E+00
    0.90822E+06        -0.39164E+08         0.00000E+00
    0.00000E+00         0.00000E+00        -0.17010E+08
 
   -0.17788E+08         0.89070E+06         0.00000E+00
    0.89070E+06        -0.39374E+08         0.00000E+00
    0.00000E+00         0.00000E+00        -0.17118E+08
 
   -0.17890E+08         0.87178E+06         0.00000E+00
    0.87178E+06        -0.39573E+08         0.00000E+00
    0.00000E+00         0.00000E+00        -0.17223E+08
 
   -0.17984E+08         0.85192E+06         0.00000E+00
    0.85192E+06        -0.39761E+08         0.00000E+00
    0.00000E+00         0.00000E+00        -0.17324E+08
 
   -0.18071E+08         0.83146E+06         0.00000E+00
    0.83146E+06        -0.39940E+08         0.00000E+00
    0.00000E+00         0.00000E+00        -0.17423E+08
 
   -0.18152E+08         0.81071E+06         0.00000E+00
    0.81071E+06        -0.40111E+08         0.00000E+00
    0.00000E+00         0.00000E+00        -0.17519E+08
 
   -0.18227E+08         0.78992E+06         0.00000E+00
    0.78992E+06        -0.40273E+08         0.00000E+00
    0.00000E+00         0.00000E+00        -0.17612E+08
 
   -0.18297E+08         0.76930E+06         0.00000E+00
    0.76930E+06        -0.40428E+08         0.00000E+00
    0.00000E+00         0.00000E+00        -0.17703E+08
 
   -0.18362E+08         0.74902E+06         0.00000E+00
    0.74902E+06        -0.40577E+08         0.00000E+00
    0.00000E+00         0.00000E+00        -0.17791E+08
 
   -0.18423E+08         0.72921E+06         0.00000E+00
    0.72921E+06        -0.40719E+08         0.00000E+00
    0.00000E+00         0.00000E+00        -0.17876E+08
 
   -0.18481E+08         0.70999E+06         0.00000E+00
    0.70999E+06        -0.40855E+08         0.00000E+00
    0.00000E+00         0.00000E+00        -0.17960E+08
 
   -0.18535E+08         0.69145E+06         0.00000E+00
    0.69145E+06        -0.40985E+08         0.00000E+00
    0.00000E+00         0.00000E+00        -0.18040E+08
 
   -0.18587E+08         0.67366E+06         0.00000E+00
    0.67366E+06        -0.41111E+08         0.00000E+00
    0.00000E+00         0.00000E+00        -0.18119E+08
 
   -0.18636E+08         0.65668E+06         0.00000E+00
    0.65668E+06        -0.41232E+08         0.00000E+00
    0.00000E+00         0.00000E+00        -0.18196E+08
 
   -0.18682E+08         0.64055E+06         0.00000E+00
    0.64055E+06        -0.41349E+08         0.00000E+00
    0.00000E+00         0.00000E+00        -0.18270E+08
 
   -0.18727E+08         0.62531E+06         0.00000E+00
    0.62531E+06        -0.41462E+08         0.00000E+00
    0.00000E+00         0.00000E+00        -0.18343E+08
 
   -0.18770E+08         0.61098E+06         0.00000E+00
    0.61098E+06        -0.41572E+08         0.00000E+00
    0.00000E+00         0.00000E+00        -0.18414E+08
 
   -0.18811E+08         0.59757E+06         0.00000E+00
    0.59757E+06        -0.41678E+08         0.00000E+00
    0.00000E+00         0.00000E+00        -0.18484E+08
 
   -0.18851E+08         0.58510E+06         0.00000E+00
    0.58510E+06        -0.41782E+08         0.00000E+00
    0.00000E+00         0.00000E+00        -0.18552E+08
 
   -0.18889E+08         0.57357E+06         0.00000E+00
    0.57357E+06        -0.41883E+08         0.00000E+00
    0.00000E+00         0.00000E+00        -0.18619E+08
 
   -0.18927E+08         0.56299E+06         0.00000E+00
    0.56299E+06        -0.41982E+08         0.00000E+00
    0.00000E+00         0.00000E+00        -0.18685E+08
 
   -0.18963E+08         0.55334E+06         0.00000E+00
    0.55334E+06        -0.42079E+08         0.00000E+00
    0.00000E+00         0.00000E+00        -0.18749E+08
 
   -0.18999E+08         0.54464E+06         0.00000E+00
    0.54464E+06        -0.42174E+08         0.00000E+00
    0.00000E+00         0.00000E+00        -0.18813E+08
 
   -0.19034E+08         0.53686E+06         0.00000E+00
    0.53686E+06        -0.42267E+08         0.00000E+00
    0.00000E+00         0.00000E+00        -0.18876E+08
 
   -0.19069E+08         0.53000E+06         0.00000E+00
    0.53000E+06        -0.42359E+08         0.00000E+00
    0.00000E+00         0.00000E+00        -0.18938E+08
 
   -0.19104E+08         0.52405E+06         0.00000E+00
    0.52405E+06        -0.42451E+08         0.00000E+00
    0.00000E+00         0.00000E+00        -0.18999E+08
 
   -0.19138E+08         0.51899E+06         0.00000E+00
    0.51899E+06        -0.42541E+08         0.00000E+00
    0.00000E+00         0.00000E+00        -0.19060E+08
 
   -0.19172E+08         0.51481E+06         0.00000E+00
    0.51481E+06        -0.42631E+08         0.00000E+00
    0.00000E+00         0.00000E+00        -0.19120E+08
 
   -0.19206E+08         0.51149E+06         0.00000E+00
    0.51149E+06        -0.42721E+08         0.00000E+00
    0.00000E+00         0.00000E+00        -0.19181E+08
 
   -0.19241E+08         0.50901E+06         0.00000E+00
    0.50901E+06        -0.42810E+08         0.00000E+00
    0.00000E+00         0.00000E+00        -0.19241E+08
 
   -0.19276E+08         0.50736E+06         0.00000E+00
    0.50736E+06        -0.42900E+08         0.00000E+00
    0.00000E+00         0.00000E+00        -0.19301E+08
 
   -0.19311E+08         0.50650E+06         0.00000E+00
    0.50650E+06        -0.42990E+08         0.00000E+00
    0.00000E+00         0.00000E+00        -0.19361E+08
 
   -0.19347E+08         0.50641E+06         0.00000E+00
    0.50641E+06        -0.43081E+08         0.00000E+00
    0.00000E+00         0.00000E+00        -0.19421E+08
 
   -0.19383E+08         0.50708E+06         0.00000E+00
    0.50708E+06        -0.43173E+08         0.00000E+00
    0.00000E+00         0.00000E+00        -0.19482E+08
 
   -0.19421E+08         0.50846E+06         0.00000E+00
    0.50846E+06        -0.43265E+08         0.00000E+00
    0.00000E+00         0.00000E+00        -0.19543E+08
 
   -0.19459E+08         0.51053E+06         0.00000E+00
    0.51053E+06        -0.43360E+08         0.00000E+00
    0.00000E+00         0.00000E+00        -0.19604E+08
 
   -0.19499E+08         0.51324E+06         0.00000E+00
    0.51324E+06        -0.43455E+08         0.00000E+00
    0.00000E+00         0.00000E+00        -0.19667E+08
 
   -0.19540E+08         0.51657E+06         0.00000E+00
    0.51657E+06        -0.43553E+08         0.00000E+00
    0.00000E+00         0.00000E+00        -0.19729E+08
 
   -0.19582E+08         0.52046E+06         0.00000E+00
    0.52046E+06        -0.43653E+08         0.00000E+00
    0.00000E+00         0.00000E+00        -0.19793E+08
 
   -0.19627E+08         0.52486E+06         0.00000E+00
    0.52486E+06        -0.43756E+08         0.00000E+00
    0.00000E+00         0.00000E+00        -0.19858E+08
 
   -0.19673E+08         0.52972E+06         0.00000E+00
    0.52972E+06        -0.43861E+08         0.00000E+00
    0.00000E+00         0.00000E+00        -0.19924E+08
 
   -0.19722E+08         0.53497E+06         0.00000E+00
    0.53497E+06        -0.43970E+08         0.00000E+00
    0.00000E+00         0.00000E+00        -0.19991E+08
 
   -0.19773E+08         0.54053E+06         0.00000E+00
    0.54053E+06        -0.44082E+08         0.00000E+00
    0.00000E+00         0.00000E+00        -0.20059E+08
 
   -0.19826E+08         0.54633E+06         0.00000E+00
    0.54633E+06        -0.44198E+08         0.00000E+00
    0.00000E+00         0.00000E+00        -0.20129E+08
 
   -0.19883E+08         0.55227E+06         0.00000E+00
    0.55227E+06        -0.44318E+08         0.00000E+00
    0.00000E+00         0.00000E+00        -0.20200E+08
 
   -0.19943E+08         0.55823E+06         0.00000E+00
    0.55823E+06        -0.44443E+08         0.00000E+00
    0.00000E+00         0.00000E+00        -0.20273E+08
 
   -0.20007E+08         0.56409E+06         0.00000E+00
    0.56409E+06        -0.44573E+08         0.00000E+00
    0.00000E+00         0.00000E+00        -0.20348E+08
 
   -0.20075E+08         0.56971E+06         0.00000E+00
    0.56971E+06        -0.44709E+08         0.00000E+00
    0.00000E+00         0.00000E+00        -0.20424E+08
 
   -0.20147E+08         0.57491E+06         0.00000E+00
    0.57491E+06        -0.44851E+08         0.00000E+00
    0.00000E+00         0.00000E+00        -0.20502E+08
 
   -0.20225E+08         0.57953E+06         0.00000E+00
    0.57953E+06        -0.44999E+08         0.00000E+00
    0.00000E+00         0.00000E+00        -0.20583E+08
 
   -0.20308E+08         0.58332E+06         0.00000E+00
    0.58332E+06        -0.45156E+08         0.00000E+00
    0.00000E+00         0.00000E+00        -0.20665E+08
 
   -0.20397E+08         0.58605E+06         0.00000E+00
    0.58605E+06        -0.45320E+08         0.00000E+00
    0.00000E+00         0.00000E+00        -0.20750E+08
 
   -0.20493E+08         0.58743E+06         0.00000E+00
    0.58743E+06        -0.45493E+08         0.00000E+00
    0.00000E+00         0.00000E+00        -0.20837E+08
 
   -0.20596E+08         0.58714E+06         0.00000E+00
    0.58714E+06        -0.45676E+08         0.00000E+00
    0.00000E+00         0.00000E+00        -0.20927E+08
 
   -0.20708E+08         0.58482E+06         0.00000E+00
    0.58482E+06        -0.45869E+08         0.00000E+00
    0.00000E+00         0.00000E+00        -0.21019E+08
 
   -0.20829E+08         0.58005E+06         0.00000E+00
    0.58005E+06        -0.46073E+08         0.00000E+00
    0.00000E+00         0.00000E+00        -0.21114E+08
 
   -0.20959E+08         0.57239E+06         0.00000E+00
    0.57239E+06        -0.46290E+08         0.00000E+00
    0.00000E+00         0.00000E+00        -0.21212E+08
 
   -0.21101E+08         0.56131E+06         0.00000E+00
    0.56131E+06        -0.46521E+08         0.00000E+00
    0.00000E+00         0.00000E+00        -0.21312E+08
 
   -0.21255E+08         0.54628E+06         0.00000E+00
    0.54628E+06        -0.46765E+08         0.00000E+00
    0.00000E+00         0.00000E+00        -0.21416E+08
 
   -0.21422E+08         0.52671E+06         0.00000E+00
    0.52671E+06        -0.47026E+08         0.00000E+00
    0.00000E+00         0.00000E+00        -0.21523E+08
 
   -0.21604E+08         0.50198E+06         0.00000E+00
    0.50198E+06        -0.47303E+08         0.00000E+00
    0.00000E+00         0.00000E+00        -0.21632E+08
 
   -0.21801E+08         0.47148E+06         0.00000E+00
    0.47148E+06        -0.47599E+08         0.00000E+00
    0.00000E+00         0.00000E+00        -0.21745E+08
 
   -0.22016E+08         0.43464E+06         0.00000E+00
    0.43464E+06        -0.47913E+08         0.00000E+00
    0.00000E+00         0.00000E+00        -0.21861E+08
 
   -0.22249E+08         0.39094E+06         0.00000E+00
    0.39094E+06        -0.48248E+08         0.00000E+00
    0.00000E+00         0.00000E+00        -0.21981E+08
 
   -0.22501E+08         0.34005E+06         0.00000E+00
    0.34005E+06        -0.48604E+08         0.00000E+00
    0.00000E+00         0.00000E+00        -0.22103E+08
 
   -0.22775E+08         0.28189E+06         0.00000E+00
    0.28189E+06        -0.48981E+08         0.00000E+00
    0.00000E+00         0.00000E+00        -0.22229E+08
 
   -0.23071E+08         0.21678E+06         0.00000E+00
    0.21678E+06        -0.49380E+08         0.00000E+00
    0.00000E+00         0.00000E+00        -0.22357E+08
 
   -0.23390E+08         0.14567E+06         0.00000E+00
    0.14567E+06        -0.49801E+08         0.00000E+00
    0.00000E+00         0.00000E+00        -0.22488E+08
 
   -0.23731E+08         0.70407E+05         0.00000E+00
    0.70407E+05        -0.50242E+08         0.00000E+00
    0.00000E+00         0.00000E+00        -0.22620E+08
 
   -0.24095E+08        -0.58452E+04         0.00000E+00
   -0.58452E+04        -0.50701E+08         0.00000E+00
    0.00000E+00         0.00000E+00        -0.22752E+08
 
   -0.24480E+08        -0.78059E+05         0.00000E+00
   -0.78059E+05        -0.51175E+08         0.00000E+00
    0.00000E+00         0.00000E+00        -0.22884E+08
 
   -0.24881E+08        -0.13863E+06         0.00000E+00
   -0.13863E+06        -0.51657E+08         0.00000E+00
    0.00000E+00         0.00000E+00        -0.23011E+08
 
   -0.25294E+08        -0.17677E+06         0.00000E+00
   -0.17677E+06        -0.52136E+08         0.00000E+00
    0.00000E+00         0.00000E+00        -0.23128E+08
 
   -0.25710E+08        -0.17946E+06         0.00000E+00
   -0.17946E+06        -0.52595E+08         0.00000E+00
    0.00000E+00         0.00000E+00        -0.23223E+08
 
   -0.26123E+08        -0.13668E+06         0.00000E+00
   -0.13668E+06        -0.53005E+08         0.00000E+00
    0.00000E+00         0.00000E+00        -0.23278E+08
 
   -0.26528E+08        -0.51720E+05         0.00000E+00
   -0.51720E+05        -0.53334E+08         0.00000E+00
    0.00000E+00         0.00000E+00        -0.23266E+08
 
   -0.90026E+07        -0.10556E+06         0.00000E+00
   -0.10556E+06        -0.28189E+08         0.00000E+00
    0.00000E+00         0.00000E+00        -0.15158E+08
 
   -0.94617E+07        -0.28894E+06         0.00000E+00
   -0.28894E+06        -0.28714E+08         0.00000E+00
    0.00000E+00         0.00000E+00        -0.15037E+08
 
   -0.99944E+07        -0.38787E+06         0.00000E+00
   -0.38787E+06        -0.29345E+08         0.00000E+00
    0.00000E+00         0.00000E+00        -0.14973E+08
 
   -0.10568E+08        -0.39059E+06         0.00000E+00
   -0.39059E+06        -0.30033E+08         0.00000E+00
    0.00000E+00         0.00000E+00        -0.14947E+08
 
   -0.11157E+08        -0.31889E+06         0.00000E+00
   -0.31889E+06        -0.30737E+08         0.00000E+00
    0.00000E+00         0.00000E+00        -0.14947E+08
 
   -0.11743E+08        -0.20138E+06         0.00000E+00
   -0.20138E+06        -0.31431E+08         0.00000E+00
    0.00000E+00         0.00000E+00        -0.14968E+08
 
   -0.12315E+08        -0.61237E+05         0.00000E+00
   -0.61237E+05        -0.32100E+08         0.00000E+00
    0.00000E+00         0.00000E+00        -0.15008E+08
 
   -0.12863E+08         0.85332E+05         0.00000E+00
    0.85332E+05        -0.32737E+08         0.00000E+00
    0.00000E+00         0.00000E+00        -0.15065E+08
 
   -0.13381E+08         0.22768E+06         0.00000E+00
    0.22768E+06        -0.33339E+08         0.00000E+00
    0.00000E+00         0.00000E+00        -0.15139E+08
 
   -0.13866E+08         0.35924E+06         0.00000E+00
    0.35924E+06        -0.33904E+08         0.00000E+00
    0.00000E+00         0.00000E+00        -0.15227E+08
 
   -0.14316E+08         0.47643E+06         0.00000E+00
    0.47643E+06        -0.34435E+08         0.00000E+00
    0.00000E+00         0.00000E+00        -0.15326E+08
 
   -0.14731E+08         0.57766E+06         0.00000E+00
    0.57766E+06        -0.34932E+08         0.00000E+00
    0.00000E+00         0.00000E+00        -0.15435E+08
 
   -0.15110E+08         0.66273E+06         0.00000E+00
    0.66273E+06        -0.35398E+08         0.00000E+00
    0.00000E+00         0.00000E+00        -0.15551E+08
 
   -0.15457E+08         0.73228E+06         0.00000E+00
    0.73228E+06        -0.35834E+08         0.00000E+00
    0.00000E+00         0.00000E+00        -0.15672E+08
 
   -0.15772E+08         0.78750E+06         0.00000E+00
    0.78750E+06        -0.36242E+08         0.00000E+00
    0.00000E+00         0.00000E+00        -0.15795E+08
 
   -0.16058E+08         0.82981E+06         0.00000E+00
    0.82981E+06        -0.36624E+08         0.00000E+00
    0.00000E+00         0.00000E+00        -0.15921E+08
 
   -0.16317E+08         0.86074E+06         0.00000E+00
    0.86074E+06        -0.36982E+08         0.00000E+00
    0.00000E+00         0.00000E+00        -0.16047E+08
 
   -0.16552E+08         0.88180E+06         0.00000E+00
    0.88180E+06        -0.37318E+08         0.00000E+00
    0.00000E+00         0.00000E+00        -0.16173E+08
 
   -0.16765E+08         0.89444E+06         0.00000E+00
    0.89444E+06        -0.37634E+08         0.00000E+00
    0.00000E+00         0.00000E+00        -0.16297E+08
 
   -0.16958E+08         0.89999E+06         0.00000E+00
    0.89999E+06        -0.37930E+08         0.00000E+00
    0.00000E+00         0.00000E+00        -0.16420E+08
 
   -0.17133E+08         0.89963E+06         0.00000E+00
    0.89963E+06        -0.38209E+08         0.00000E+00
    0.00000E+00         0.00000E+00        -0.16541E+08
 
   -0.17292E+08         0.89444E+06         0.00000E+00
    0.89444E+06        -0.38472E+08         0.00000E+00
    0.00000E+00         0.00000E+00        -0.16660E+08
 
   -0.17437E+08         0.88533E+06         0.00000E+00
    0.88533E+06        -0.38720E+08         0.00000E+00
    0.00000E+00         0.00000E+00        -0.16776E+08
 
   -0.17569E+08         0.87311E+06         0.00000E+00
    0.87311E+06        -0.38953E+08         0.00000E+00
    0.00000E+00         0.00000E+00        -0.16890E+08
 
   -0.17690E+08         0.85847E+06         0.00000E+00
    0.85847E+06        -0.39174E+08         0.00000E+00
    0.00000E+00         0.00000E+00        -0.17000E+08
 
   -0.17800E+08         0.84199E+06         0.00000E+00
    0.84199E+06        -0.39383E+08         0.00000E+00
    0.00000E+00         0.00000E+00        -0.17108E+08
 
   -0.17902E+08         0.82416E+06         0.00000E+00
    0.82416E+06        -0.39581E+08         0.00000E+00
    0.00000E+00         0.00000E+00        -0.17213E+08
 
   -0.17996E+08         0.80542E+06         0.00000E+00
    0.80542E+06        -0.39769E+08         0.00000E+00
    0.00000E+00         0.00000E+00        -0.17315E+08
 
   -0.18082E+08         0.78609E+06         0.00000E+00
    0.78609E+06        -0.39948E+08         0.00000E+00
    0.00000E+00         0.00000E+00        -0.17414E+08
 
   -0.18162E+08         0.76648E+06         0.00000E+00
    0.76648E+06        -0.40118E+08         0.00000E+00
    0.00000E+00         0.00000E+00        -0.17511E+08
 
   -0.18237E+08         0.74683E+06         0.00000E+00
    0.74683E+06        -0.40280E+08         0.00000E+00
    0.00000E+00         0.00000E+00        -0.17604E+08
 
   -0.18306E+08         0.72732E+06         0.00000E+00
    0.72732E+06        -0.40435E+08         0.00000E+00
    0.00000E+00         0.00000E+00        -0.17695E+08
 
   -0.18371E+08         0.70813E+06         0.00000E+00
    0.70813E+06        -0.40583E+08         0.00000E+00
    0.00000E+00         0.00000E+00        -0.17783E+08
 
   -0.18431E+08         0.68939E+06         0.00000E+00
    0.68939E+06        -0.40724E+08         0.00000E+00
    0.00000E+00         0.00000E+00        -0.17869E+08
 
   -0.18489E+08         0.67121E+06         0.00000E+00
    0.67121E+06        -0.40860E+08         0.00000E+00
    0.00000E+00         0.00000E+00        -0.17953E+08
 
   -0.18542E+08         0.65366E+06         0.00000E+00
    0.65366E+06        -0.40990E+08         0.00000E+00
    0.00000E+00         0.00000E+00        -0.18034E+08
 
   -0.18593E+08         0.63683E+06         0.00000E+00
    0.63683E+06        -0.41115E+08         0.00000E+00
    0.00000E+00         0.00000E+00        -0.18113E+08
 
   -0.18642E+08         0.62076E+06         0.00000E+00
    0.62076E+06        -0.41236E+08         0.00000E+00
    0.00000E+00         0.00000E+00        -0.18190E+08
 
   -0.18688E+08         0.60550E+06         0.00000E+00
    0.60550E+06        -0.41353E+08         0.00000E+00
    0.00000E+00         0.00000E+00        -0.18265E+08
 
   -0.18732E+08         0.59107E+06         0.00000E+00
    0.59107E+06        -0.41466E+08         0.00000E+00
    0.00000E+00         0.00000E+00        -0.18338E+08
 
   -0.18774E+08         0.57751E+06         0.00000E+00
    0.57751E+06        -0.41575E+08         0.00000E+00
    0.00000E+00         0.00000E+00        -0.18410E+08
 
   -0.18815E+08         0.56482E+06         0.00000E+00
    0.56482E+06        -0.41681E+08         0.00000E+00
    0.00000E+00         0.00000E+00        -0.18480E+08
 
   -0.18854E+08         0.55302E+06         0.00000E+00
    0.55302E+06        -0.41785E+08         0.00000E+00
    0.00000E+00         0.00000E+00        -0.18548E+08
 
   -0.18893E+08         0.54211E+06         0.00000E+00
    0.54211E+06        -0.41886E+08         0.00000E+00
    0.00000E+00         0.00000E+00        -0.18615E+08
 
   -0.18930E+08         0.53209E+06         0.00000E+00
    0.53209E+06        -0.41984E+08         0.00000E+00
    0.00000E+00         0.00000E+00        -0.18681E+08
 
   -0.18966E+08         0.52296E+06         0.00000E+00
    0.52296E+06        -0.42081E+08         0.00000E+00
    0.00000E+00         0.00000E+00        -0.18746E+08
 
   -0.19001E+08         0.51472E+06         0.00000E+00
    0.51472E+06        -0.42176E+08         0.00000E+00
    0.00000E+00         0.00000E+00        -0.18810E+08
 
   -0.19036E+08         0.50736E+06         0.00000E+00
    0.50736E+06        -0.42269E+08         0.00000E+00
    0.00000E+00         0.00000E+00        -0.18873E+08
 
   -0.19070E+08         0.50086E+06         0.00000E+00
    0.50086E+06        -0.42361E+08         0.00000E+00
    0.00000E+00         0.00000E+00        -0.18935E+08
 
   -0.19104E+08         0.49523E+06         0.00000E+00
    0.49523E+06        -0.42452E+08         0.00000E+00
    0.00000E+00         0.00000E+00        -0.18997E+08
 
   -0.19138E+08         0.49043E+06         0.00000E+00
    0.49043E+06        -0.42542E+08         0.00000E+00
    0.00000E+00         0.00000E+00        -0.19058E+08
 
   -0.19172E+08         0.48647E+06         0.00000E+00
    0.48647E+06        -0.42632E+08         0.00000E+00
    0.00000E+00         0.00000E+00        -0.19119E+08
 
   -0.19206E+08         0.48332E+06         0.00000E+00
    0.48332E+06        -0.42721E+08         0.00000E+00
    0.00000E+00         0.00000E+00        -0.19179E+08
 
   -0.19240E+08         0.48096E+06         0.00000E+00
    0.48096E+06        -0.42811E+08         0.00000E+00
    0.00000E+00         0.00000E+00        -0.19240E+08
 
   -0.19274E+08         0.47939E+06         0.00000E+00
    0.47939E+06        -0.42900E+08         0.00000E+00
    0.00000E+00         0.00000E+00        -0.19300E+08
 
   -0.19309E+08         0.47856E+06         0.00000E+00
    0.47856E+06        -0.42990E+08         0.00000E+00
    0.00000E+00         0.00000E+00        -0.19360E+08
 
   -0.19345E+08         0.47847E+06         0.00000E+00
    0.47847E+06        -0.43081E+08         0.00000E+00
    0.00000E+00         0.00000E+00        -0.19421E+08
 
   -0.19381E+08         0.47909E+06         0.00000E+00
    0.47909E+06        -0.43172E+08         0.00000E+00
    0.00000E+00         0.00000E+00        -0.19482E+08
 
   -0.19418E+08         0.48038E+06         0.00000E+00
    0.48038E+06        -0.43265E+08         0.00000E+00
    0.00000E+00         0.00000E+00        -0.19543E+08
 
   -0.19456E+08         0.48232E+06         0.00000E+00
    0.48232E+06        -0.43359E+08         0.00000E+00
    0.00000E+00         0.00000E+00        -0.19605E+08
 
   -0.19495E+08         0.48487E+06         0.00000E+00
    0.48487E+06        -0.43455E+08         0.00000E+00
    0.00000E+00         0.00000E+00        -0.19667E+08
 
   -0.19536E+08         0.48800E+06         0.00000E+00
    0.48800E+06        -0.43552E+08         0.00000E+00
    0.00000E+00         0.00000E+00        -0.19730E+08
 
   -0.19578E+08         0.49166E+06         0.00000E+00
    0.49166E+06        -0.43652E+08         0.00000E+00
    0.00000E+00         0.00000E+00        -0.19794E+08
 
   -0.19622E+08         0.49581E+06         0.00000E+00
    0.49581E+06        -0.43754E+08         0.00000E+00
    0.00000E+00         0.00000E+00        -0.19859E+08
 
   -0.19668E+08         0.50038E+06         0.00000E+00
    0.50038E+06        -0.43860E+08         0.00000E+00
    0.00000E+00         0.00000E+00        -0.19925E+08
 
   -0.19716E+08         0.50532E+06         0.00000E+00
    0.50532E+06        -0.43968E+08         0.00000E+00
    0.00000E+00         0.00000E+00        -0.19992E+08
 
   -0.19766E+08         0.51057E+06         0.00000E+00
    0.51057E+06        -0.44080E+08         0.00000E+00
    0.00000E+00         0.00000E+00        -0.20061E+08
 
   -0.19819E+08         0.51603E+06         0.00000E+00
    0.51603E+06        -0.44195E+08         0.00000E+00
    0.00000E+00         0.00000E+00        -0.20131E+08
 
   -0.19876E+08         0.52161E+06         0.00000E+00
    0.52161E+06        -0.44315E+08         0.00000E+00
    0.00000E+00         0.00000E+00        -0.20202E+08
 
   -0.19935E+08         0.52722E+06         0.00000E+00
    0.52722E+06        -0.44440E+08         0.00000E+00
    0.00000E+00         0.00000E+00        -0.20275E+08
 
   -0.19999E+08         0.53273E+06         0.00000E+00
    0.53273E+06        -0.44570E+08         0.00000E+00
    0.00000E+00         0.00000E+00        -0.20350E+08
 
   -0.20066E+08         0.53801E+06         0.00000E+00
    0.53801E+06        -0.44705E+08         0.00000E+00
    0.00000E+00         0.00000E+00        -0.20426E+08
 
   -0.20138E+08         0.54290E+06         0.00000E+00
    0.54290E+06        -0.44847E+08         0.00000E+00
    0.00000E+00         0.00000E+00        -0.20504E+08
 
   -0.20216E+08         0.54721E+06         0.00000E+00
    0.54721E+06        -0.44996E+08         0.00000E+00
    0.00000E+00         0.00000E+00        -0.20585E+08
 
   -0.20298E+08         0.55074E+06         0.00000E+00
    0.55074E+06        -0.45151E+08         0.00000E+00
    0.00000E+00         0.00000E+00        -0.20667E+08
 
   -0.20387E+08         0.55325E+06         0.00000E+00
    0.55325E+06        -0.45315E+08         0.00000E+00
    0.00000E+00         0.00000E+00        -0.20752E+08
 
   -0.20483E+08         0.55447E+06         0.00000E+00
    0.55447E+06        -0.45488E+08         0.00000E+00
    0.00000E+00         0.00000E+00        -0.20839E+08
 
   -0.20586E+08         0.55409E+06         0.00000E+00
    0.55409E+06        -0.45670E+08         0.00000E+00
    0.00000E+00         0.00000E+00        -0.20929E+08
 
   -0.20697E+08         0.55175E+06         0.00000E+00
    0.55175E+06        -0.45863E+08         0.00000E+00
    0.00000E+00         0.00000E+00        -0.21021E+08
 
   -0.20818E+08         0.54707E+06         0.00000E+00
    0.54707E+06        -0.46067E+08         0.00000E+00
    0.00000E+00         0.00000E+00        -0.21115E+08
 
   -0.20949E+08         0.53959E+06         0.00000E+00
    0.53959E+06        -0.46283E+08         0.00000E+00
    0.00000E+00         0.00000E+00        -0.21213E+08
 
   -0.21090E+08         0.52883E+06         0.00000E+00
    0.52883E+06        -0.46513E+08         0.00000E+00
    0.00000E+00         0.00000E+00        -0.21313E+08
 
   -0.21245E+08         0.51425E+06         0.00000E+00
    0.51425E+06        -0.46758E+08         0.00000E+00
    0.00000E+00         0.00000E+00        -0.21416E+08
 
   -0.21412E+08         0.49528E+06         0.00000E+00
    0.49528E+06        -0.47018E+08         0.00000E+00
    0.00000E+00         0.00000E+00        -0.21521E+08
 
   -0.21595E+08         0.47132E+06         0.00000E+00
    0.47132E+06        -0.47295E+08         0.00000E+00
    0.00000E+00         0.00000E+00        -0.21630E+08
 
   -0.21793E+08         0.44176E+06         0.00000E+00
    0.44176E+06        -0.47590E+08         0.00000E+00
    0.00000E+00         0.00000E+00        -0.21742E+08
 
   -0.22009E+08         0.40602E+06         0.00000E+00
    0.40602E+06        -0.47905E+08         0.00000E+00
    0.00000E+00         0.00000E+00        -0.21857E+08
 
   -0.22244E+08         0.36361E+06         0.00000E+00
    0.36361E+06        -0.48240E+08         0.00000E+00
    0.00000E+00         0.00000E+00        -0.21975E+08
 
   -0.22499E+08         0.31416E+06         0.00000E+00
    0.31416E+06        -0.48596E+08         0.00000E+00
    0.00000E+00         0.00000E+00        -0.22096E+08
 
   -0.22777E+08         0.25757E+06         0.00000E+00
    0.25757E+06        -0.48975E+08         0.00000E+00
    0.00000E+00         0.00000E+00        -0.22220E+08
 
   -0.23077E+08         0.19413E+06         0.00000E+00
    0.19413E+06        -0.49376E+08         0.00000E+00
    0.00000E+00         0.00000E+00        -0.22346E+08
 
   -0.23401E+08         0.12470E+06         0.00000E+00
    0.12470E+06        -0.49799E+08         0.00000E+00
    0.00000E+00         0.00000E+00        -0.22475E+08
 
   -0.23749E+08         0.51051E+05         0.00000E+00
    0.51051E+05        -0.50243E+08         0.00000E+00
    0.00000E+00         0.00000E+00        -0.22605E+08
 
   -0.24121E+08        -0.23806E+05         0.00000E+00
   -0.23806E+05        -0.50708E+08         0.00000E+00
    0.00000E+00         0.00000E+00        -0.22735E+08
 
   -0.24515E+08        -0.94998E+05         0.00000E+00
   -0.94998E+05        -0.51188E+08         0.00000E+00
    0.00000E+00         0.00000E+00        -0.22865E+08
 
   -0.24927E+08        -0.15502E+06         0.00000E+00
   -0.15502E+06        -0.51678E+08         0.00000E+00
    0.00000E+00         0.00000E+00        -0.22992E+08
 
   -0.25350E+08        -0.19291E+06         0.00000E+00
   -0.19291E+06        -0.52168E+08         0.00000E+00
    0.00000E+00         0.00000E+00        -0.23110E+08
 
   -0.25778E+08        -0.19462E+06         0.00000E+00
   -0.19462E+06        -0.52638E+08         0.00000E+00
    0.00000E+00         0.00000E+00        -0.23209E+08
 
   -0.26199E+08        -0.14834E+06         0.00000E+00
   -0.14834E+06        -0.53059E+08         0.00000E+00
    0.00000E+00         0.00000E+00        -0.23268E+08
 
   -0.26609E+08        -0.56241E+05         0.00000E+00
   -0.56241E+05        -0.53396E+08         0.00000E+00
    0.00000E+00         0.00000E+00        -0.23260E+08
 
   -0.89152E+07        -0.11291E+06         0.00000E+00
   -0.11291E+06        -0.28085E+08         0.00000E+00
    0.00000E+00         0.00000E+00        -0.15185E+08
 
   -0.93767E+07        -0.30785E+06         0.00000E+00
   -0.30785E+06        -0.28623E+08         0.00000E+00
    0.00000E+00         0.00000E+00        -0.15071E+08
 
   -0.99174E+07        -0.41165E+06         0.00000E+00
   -0.41165E+06        -0.29272E+08         0.00000E+00
    0.00000E+00         0.00000E+00        -0.15012E+08
 
   -0.10501E+08        -0.41531E+06         0.00000E+00
   -0.41531E+06        -0.29979E+08         0.00000E+00
    0.00000E+00         0.00000E+00        -0.14989E+08
 
   -0.11101E+08        -0.34441E+06         0.00000E+00
   -0.34441E+06        -0.30700E+08         0.00000E+00
    0.00000E+00         0.00000E+00        -0.14988E+08
 
   -0.11699E+08        -0.22894E+06         0.00000E+00
   -0.22894E+06        -0.31408E+08         0.00000E+00
    0.00000E+00         0.00000E+00        -0.15005E+08
 
   -0.12281E+08        -0.91897E+05         0.00000E+00
   -0.91897E+05        -0.32088E+08         0.00000E+00
    0.00000E+00         0.00000E+00        -0.15040E+08
 
   -0.12838E+08         0.51068E+05         0.00000E+00
    0.51068E+05        -0.32733E+08         0.00000E+00
    0.00000E+00         0.00000E+00        -0.15092E+08
 
   -0.13365E+08         0.18975E+06         0.00000E+00
    0.18975E+06        -0.33341E+08         0.00000E+00
    0.00000E+00         0.00000E+00        -0.15160E+08
 
   -0.13857E+08         0.31789E+06         0.00000E+00
    0.31789E+06        -0.33912E+08         0.00000E+00
    0.00000E+00         0.00000E+00        -0.15243E+08
 
   -0.14312E+08         0.43202E+06         0.00000E+00
    0.43202E+06        -0.34446E+08         0.00000E+00
    0.00000E+00         0.00000E+00        -0.15338E+08
 
   -0.14732E+08         0.53064E+06         0.00000E+00
    0.53064E+06        -0.34945E+08         0.00000E+00
    0.00000E+00         0.00000E+00        -0.15443E+08
 
   -0.15115E+08         0.61356E+06         0.00000E+00
    0.61356E+06        -0.35412E+08         0.00000E+00
    0.00000E+00         0.00000E+00        -0.15555E+08
 
   -0.15465E+08         0.68142E+06         0.00000E+00
    0.68142E+06        -0.35849E+08         0.00000E+00
    0.00000E+00         0.00000E+00        -0.15672E+08
 
   -0.15782E+08         0.73535E+06         0.00000E+00
    0.73535E+06        -0.36257E+08         0.00000E+00
    0.00000E+00         0.00000E+00        -0.15793E+08
 
   -0.16070E+08         0.77676E+06         0.00000E+00
    0.77676E+06        -0.36639E+08         0.00000E+00
    0.00000E+00         0.00000E+00        -0.15917E+08
 
   -0.16330E+08         0.80713E+06         0.00000E+00
    0.80713E+06        -0.36997E+08         0.00000E+00
    0.00000E+00         0.00000E+00        -0.16041E+08
 
   -0.16566E+08         0.82794E+06         0.00000E+00
    0.82794E+06        -0.37333E+08         0.00000E+00
    0.00000E+00         0.00000E+00        -0.16165E+08
 
   -0.16779E+08         0.84060E+06         0.00000E+00
    0.84060E+06        -0.37648E+08         0.00000E+00
    0.00000E+00         0.00000E+00        -0.16289E+08
 
   -0.16972E+08         0.84639E+06         0.00000E+00
    0.84639E+06        -0.37944E+08         0.00000E+00
    0.00000E+00         0.00000E+00        -0.16411E+08
 
   -0.17147E+08         0.84648E+06         0.00000E+00
    0.84648E+06        -0.38222E+08         0.00000E+00
    0.00000E+00         0.00000E+00        -0.16532E+08
 
   -0.17306E+08         0.84191E+06         0.00000E+00
    0.84191E+06        -0.38484E+08         0.00000E+00
    0.00000E+00         0.00000E+00        -0.16650E+08
 
   -0.17451E+08         0.83356E+06         0.00000E+00
    0.83356E+06        -0.38731E+08         0.00000E+00
    0.00000E+00         0.00000E+00        -0.16766E+08
 
   -0.17582E+08         0.82221E+06         0.00000E+00
    0.82221E+06        -0.38964E+08         0.00000E+00
    0.00000E+00         0.00000E+00        -0.16880E+08
 
   -0.17703E+08         0.80852E+06         0.00000E+00
    0.80852E+06        -0.39184E+08         0.00000E+00
    0.00000E+00         0.00000E+00        -0.16991E+08
 
   -0.17813E+08         0.79307E+06         0.00000E+00
    0.79307E+06        -0.39393E+08         0.00000E+00
    0.00000E+00         0.00000E+00        -0.17099E+08
 
   -0.17914E+08         0.77633E+06         0.00000E+00
    0.77633E+06        -0.39590E+08         0.00000E+00
    0.00000E+00         0.00000E+00        -0.17204E+08
 
   -0.18007E+08         0.75869E+06         0.00000E+00
    0.75869E+06        -0.39778E+08         0.00000E+00
    0.00000E+00         0.00000E+00        -0.17306E+08
 
   -0.18093E+08         0.74050E+06         0.00000E+00
    0.74050E+06        -0.39956E+08         0.00000E+00
    0.00000E+00         0.00000E+00        -0.17405E+08
 
   -0.18173E+08         0.72202E+06         0.00000E+00
    0.72202E+06        -0.40125E+08         0.00000E+00
    0.00000E+00         0.00000E+00        -0.17502E+08
 
   -0.18246E+08         0.70350E+06         0.00000E+00
    0.70350E+06        -0.40287E+08         0.00000E+00
    0.00000E+00         0.00000E+00        -0.17596E+08
 
   -0.18315E+08         0.68511E+06         0.00000E+00
    0.68511E+06        -0.40441E+08         0.00000E+00
    0.00000E+00         0.00000E+00        -0.17687E+08
 
   -0.18379E+08         0.66702E+06         0.00000E+00
    0.66702E+06        -0.40588E+08         0.00000E+00
    0.00000E+00         0.00000E+00        -0.17776E+08
 
   -0.18440E+08         0.64935E+06         0.00000E+00
    0.64935E+06        -0.40729E+08         0.00000E+00
    0.00000E+00         0.00000E+00        -0.17862E+08
 
   -0.18496E+08         0.63221E+06         0.00000E+00
    0.63221E+06        -0.40865E+08         0.00000E+00
    0.00000E+00         0.00000E+00        -0.17946E+08
 
   -0.18550E+08         0.61567E+06         0.00000E+00
    0.61567E+06        -0.40995E+08         0.00000E+00
    0.00000E+00         0.00000E+00        -0.18028E+08
 
   -0.18600E+08         0.59979E+06         0.00000E+00
    0.59979E+06        -0.41120E+08         0.00000E+00
    0.00000E+00         0.00000E+00        -0.18107E+08
 
   -0.18648E+08         0.58464E+06         0.00000E+00
    0.58464E+06        -0.41240E+08         0.00000E+00
    0.00000E+00         0.00000E+00        -0.18184E+08
 
   -0.18694E+08         0.57025E+06         0.00000E+00
    0.57025E+06        -0.41357E+08         0.00000E+00
    0.00000E+00         0.00000E+00        -0.18260E+08
 
   -0.18737E+08         0.55665E+06         0.00000E+00
    0.55665E+06        -0.41469E+08         0.00000E+00
    0.00000E+00         0.00000E+00        -0.18333E+08
 
   -0.18779E+08         0.54386E+06         0.00000E+00
    0.54386E+06        -0.41578E+08         0.00000E+00
    0.00000E+00         0.00000E+00        -0.18405E+08
 
   -0.18819E+08         0.53189E+06         0.00000E+00
    0.53189E+06        -0.41684E+08         0.00000E+00
    0.00000E+00         0.00000E+00        -0.18476E+08
 
   -0.18858E+08         0.52076E+06         0.00000E+00
    0.52076E+06        -0.41788E+08         0.00000E+00
    0.00000E+00         0.00000E+00        -0.18544E+08
 
   -0.18896E+08         0.51047E+06         0.00000E+00
    0.51047E+06        -0.41888E+08         0.00000E+00
    0.00000E+00         0.00000E+00        -0.18612E+08
 
   -0.18932E+08         0.50103E+06         0.00000E+00
    0.50103E+06        -0.41987E+08         0.00000E+00
    0.00000E+00         0.00000E+00        -0.18678E+08
 
   -0.18968E+08         0.49242E+06         0.00000E+00
    0.49242E+06        -0.42083E+08         0.00000E+00
    0.00000E+00         0.00000E+00        -0.18743E+08
 
   -0.19003E+08         0.48465E+06         0.00000E+00
    0.48465E+06        -0.42177E+08         0.00000E+00
    0.00000E+00         0.00000E+00        -0.18807E+08
 
   -0.19038E+08         0.47770E+06         0.00000E+00
    0.47770E+06        -0.42271E+08         0.00000E+00
    0.00000E+00         0.00000E+00        -0.18871E+08
 
   -0.19072E+08         0.47157E+06         0.00000E+00
    0.47157E+06        -0.42362E+08         0.00000E+00
    0.00000E+00         0.00000E+00        -0.18933E+08
 
   -0.19105E+08         0.46625E+06         0.00000E+00
    0.46625E+06        -0.42453E+08         0.00000E+00
    0.00000E+00         0.00000E+00        -0.18995E+08
 
   -0.19139E+08         0.46173E+06         0.00000E+00
    0.46173E+06        -0.42543E+08         0.00000E+00
    0.00000E+00         0.00000E+00        -0.19057E+08
 
   -0.19172E+08         0.45799E+06         0.00000E+00
    0.45799E+06        -0.42633E+08         0.00000E+00
    0.00000E+00         0.00000E+00        -0.19118E+08
 
   -0.19205E+08         0.45501E+06         0.00000E+00
    0.45501E+06        -0.42722E+08         0.00000E+00
    0.00000E+00         0.00000E+00        -0.19178E+08
 
   -0.19239E+08         0.45278E+06         0.00000E+00
    0.45278E+06        -0.42811E+08         0.00000E+00
    0.00000E+00         0.00000E+00        -0.19239E+08
 
   -0.19273E+08         0.45128E+06         0.00000E+00
    0.45128E+06        -0.42901E+08         0.00000E+00
    0.00000E+00         0.00000E+00        -0.19300E+08
 
   -0.19307E+08         0.45050E+06         0.00000E+00
    0.45050E+06        -0.42990E+08         0.00000E+00
    0.00000E+00         0.00000E+00        -0.19360E+08
 
   -0.19342E+08         0.45040E+06         0.00000E+00
    0.45040E+06        -0.43081E+08         0.00000E+00
    0.00000E+00         0.00000E+00        -0.19421E+08
 
   -0.19378E+08         0.45097E+06         0.00000E+00
    0.45097E+06        -0.43172E+08         0.00000E+00
    0.00000E+00         0.00000E+00        -0.19482E+08
 
   -0.19415E+08         0.45217E+06         0.00000E+00
    0.45217E+06        -0.43265E+08         0.00000E+00
    0.00000E+00         0.00000E+00        -0.19543E+08
 
   -0.19452E+08         0.45399E+06         0.00000E+00
    0.45399E+06        -0.43358E+08         0.00000E+00
    0.00000E+00         0.00000E+00        -0.19605E+08
 
   -0.19491E+08         0.45638E+06         0.00000E+00
    0.45638E+06        -0.43454E+08         0.00000E+00
    0.00000E+00         0.00000E+00        -0.19668E+08
 
   -0.19531E+08         0.45931E+06         0.00000E+00
    0.45931E+06        -0.43551E+08         0.00000E+00
    0.00000E+00         0.00000E+00        -0.19731E+08
 
   -0.19573E+08         0.46275E+06         0.00000E+00
    0.46275E+06        -0.43651E+08         0.00000E+00
    0.00000E+00         0.00000E+00        -0.19795E+08
 
   -0.19617E+08         0.46664E+06         0.00000E+00
    0.46664E+06        -0.43753E+08         0.00000E+00
    0.00000E+00         0.00000E+00        -0.19861E+08
 
   -0.19662E+08         0.47093E+06         0.00000E+00
    0.47093E+06        -0.43858E+08         0.00000E+00
    0.00000E+00         0.00000E+00        -0.19927E+08
 
   -0.19710E+08         0.47557E+06         0.00000E+00
    0.47557E+06        -0.43966E+08         0.00000E+00
    0.00000E+00         0.00000E+00        -0.19994E+08
 
   -0.19760E+08         0.48049E+06         0.00000E+00
    0.48049E+06        -0.44078E+08         0.00000E+00
    0.00000E+00         0.00000E+00        -0.20063E+08
 
   -0.19813E+08         0.48562E+06         0.00000E+00
    0.48562E+06        -0.44193E+08         0.00000E+00
    0.00000E+00         0.00000E+00        -0.20133E+08
 
   -0.19869E+08         0.49086E+06         0.00000E+00
    0.49086E+06        -0.44313E+08         0.00000E+00
    0.00000E+00         0.00000E+00        -0.20204E+08
 
   -0.19928E+08         0.49612E+06         0.00000E+00
    0.49612E+06        -0.44437E+08         0.00000E+00
    0.00000E+00         0.00000E+00        -0.20277E+08
 
   -0.19991E+08         0.50129E+06         0.00000E+00
    0.50129E+06        -0.44567E+08         0.00000E+00
    0.00000E+00         0.00000E+00        -0.20352E+08
 
   -0.20058E+08         0.50623E+06         0.00000E+00
    0.50623E+06        -0.44702E+08         0.00000E+00
    0.00000E+00         0.00000E+00        -0.20428E+08
 
   -0.20130E+08         0.51080E+06         0.00000E+00
    0.51080E+06        -0.44843E+08         0.00000E+00
    0.00000E+00         0.00000E+00        -0.20507E+08
 
   -0.20206E+08         0.51483E+06         0.00000E+00
    0.51483E+06        -0.44991E+08         0.00000E+00
    0.00000E+00         0.00000E+00        -0.20587E+08
 
   -0.20289E+08         0.51810E+06         0.00000E+00
    0.51810E+06        -0.45147E+08         0.00000E+00
    0.00000E+00         0.00000E+00        -0.20670E+08
 
   -0.20377E+08         0.52041E+06         0.00000E+00
    0.52041E+06        -0.45310E+08         0.00000E+00
    0.00000E+00         0.00000E+00        -0.20754E+08
 
   -0.20472E+08         0.52148E+06         0.00000E+00
    0.52148E+06        -0.45483E+08         0.00000E+00
    0.00000E+00         0.00000E+00        -0.20841E+08
 
   -0.20575E+08         0.52103E+06         0.00000E+00
    0.52103E+06        -0.45664E+08         0.00000E+00
    0.00000E+00         0.00000E+00        -0.20931E+08
 
   -0.20686E+08         0.51870E+06         0.00000E+00
    0.51870E+06        -0.45857E+08         0.00000E+00
    0.00000E+00         0.00000E+00        -0.21022E+08
 
   -0.20807E+08         0.51413E+06         0.00000E+00
    0.51413E+06        -0.46060E+08         0.00000E+00
    0.00000E+00         0.00000E+00        -0.21117E+08
 
   -0.20938E+08         0.50689E+06         0.00000E+00
    0.50689E+06        -0.46276E+08         0.00000E+00
    0.00000E+00         0.00000E+00        -0.21214E+08
 
   -0.21079E+08         0.49649E+06         0.00000E+00
    0.49649E+06        -0.46506E+08         0.00000E+00
    0.00000E+00         0.00000E+00        -0.21313E+08
 
   -0.21234E+08         0.48242E+06         0.00000E+00
    0.48242E+06        -0.46750E+08         0.00000E+00
    0.00000E+00         0.00000E+00        -0.21415E+08
 
   -0.21402E+08         0.46413E+06         0.00000E+00
    0.46413E+06        -0.47010E+08         0.00000E+00
    0.00000E+00         0.00000E+00        -0.21521E+08
 
   -0.21585E+08         0.44102E+06         0.00000E+00
    0.44102E+06        -0.47286E+08         0.00000E+00
    0.00000E+00         0.00000E+00        -0.21629E+08
 
   -0.21784E+08         0.41250E+06         0.00000E+00
    0.41250E+06        -0.47581E+08         0.00000E+00
    0.00000E+00         0.00000E+00        -0.21739E+08
 
   -0.22002E+08         0.37799E+06         0.00000E+00
    0.37799E+06        -0.47896E+08         0.00000E+00
    0.00000E+00         0.00000E+00        -0.21853E+08
 
   -0.22239E+08         0.33700E+06         0.00000E+00
    0.33700E+06        -0.48231E+08         0.00000E+00
    0.00000E+00         0.00000E+00        -0.21970E+08
 
   -0.22497E+08         0.28916E+06         0.00000E+00
    0.28916E+06        -0.48588E+08         0.00000E+00
    0.00000E+00         0.00000E+00        -0.22089E+08
 
   -0.22778E+08         0.23434E+06         0.00000E+00
    0.23434E+06        -0.48968E+08         0.00000E+00
    0.00000E+00         0.00000E+00        -0.22211E+08
 
   -0.23082E+08         0.17276E+06         0.00000E+00
    0.17276E+06        -0.49371E+08         0.00000E+00
    0.00000E+00         0.00000E+00        -0.22335E+08
 
   -0.23412E+08         0.10524E+06         0.00000E+00
    0.10524E+06        -0.49796E+08         0.00000E+00
    0.00000E+00         0.00000E+00        -0.22462E+08
 
   -0.23767E+08         0.33408E+05         0.00000E+00
    0.33408E+05        -0.50245E+08         0.00000E+00
    0.00000E+00         0.00000E+00        -0.22590E+08
 
   -0.24146E+08        -0.39870E+05         0.00000E+00
   -0.39870E+05        -0.50714E+08         0.00000E+00
    0.00000E+00         0.00000E+00        -0.22719E+08
 
   -0.24550E+08        -0.10993E+06         0.00000E+00
   -0.10993E+06        -0.51200E+08         0.00000E+00
    0.00000E+00         0.00000E+00        -0.22847E+08
 
   -0.24972E+08        -0.16946E+06         0.00000E+00
   -0.16946E+06        -0.51699E+08         0.00000E+00
    0.00000E+00         0.00000E+00        -0.22974E+08
 
   -0.25408E+08        -0.20740E+06         0.00000E+00
   -0.20740E+06        -0.52199E+08         0.00000E+00
    0.00000E+00         0.00000E+00        -0.23093E+08
 
   -0.25847E+08        -0.20875E+06         0.00000E+00
   -0.20875E+06        -0.52682E+08         0.00000E+00
    0.00000E+00         0.00000E+00        -0.23195E+08
 
   -0.26278E+08        -0.15964E+06         0.00000E+00
   -0.15964E+06        -0.53116E+08         0.00000E+00
    0.00000E+00         0.00000E+00        -0.23259E+08
 
   -0.26694E+08        -0.60726E+05         0.00000E+00
   -0.60726E+05        -0.53461E+08         0.00000E+00
    0.00000E+00         0.00000E+00        -0.23255E+08
 
   -0.88253E+07        -0.12004E+06         0.00000E+00
   -0.12004E+06        -0.27977E+08         0.00000E+00
    0.00000E+00         0.00000E+00        -0.15211E+08
 
   -0.92899E+07        -0.32553E+06         0.00000E+00
   -0.32553E+06        -0.28528E+08         0.00000E+00
    0.00000E+00         0.00000E+00        -0.15104E+08
 
   -0.98395E+07        -0.43259E+06         0.00000E+00
   -0.43259E+06        -0.29197E+08         0.00000E+00
    0.00000E+00         0.00000E+00        -0.15051E+08
 
   -0.10435E+08        -0.43595E+06         0.00000E+00
   -0.43595E+06        -0.29925E+08         0.00000E+00
    0.00000E+00         0.00000E+00        -0.15030E+08
 
   -0.11046E+08        -0.36535E+06         0.00000E+00
   -0.36535E+06        -0.30664E+08         0.00000E+00
    0.00000E+00         0.00000E+00        -0.15028E+08
 
   -0.11655E+08        -0.25197E+06         0.00000E+00
   -0.25197E+06        -0.31385E+08         0.00000E+00
    0.00000E+00         0.00000E+00        -0.15041E+08
 
   -0.12247E+08        -0.11835E+06         0.00000E+00
   -0.11835E+06        -0.32076E+08         0.00000E+00
    0.00000E+00         0.00000E+00        -0.15071E+08
 
   -0.12814E+08         0.20559E+05         0.00000E+00
    0.20559E+05        -0.32730E+08         0.00000E+00
    0.00000E+00         0.00000E+00        -0.15118E+08
 
   -0.13349E+08         0.15509E+06         0.00000E+00
    0.15509E+06        -0.33344E+08         0.00000E+00
    0.00000E+00         0.00000E+00        -0.15181E+08
 
   -0.13848E+08         0.27929E+06         0.00000E+00
    0.27929E+06        -0.33919E+08         0.00000E+00
    0.00000E+00         0.00000E+00        -0.15259E+08
 
   -0.14310E+08         0.38990E+06         0.00000E+00
    0.38990E+06        -0.34456E+08         0.00000E+00
    0.00000E+00         0.00000E+00        -0.15349E+08
 
   -0.14734E+08         0.48548E+06         0.00000E+00
    0.48548E+06        -0.34958E+08         0.00000E+00
    0.00000E+00         0.00000E+00        -0.15449E+08
 
   -0.15121E+08         0.56587E+06         0.00000E+00
    0.56587E+06        -0.35426E+08         0.00000E+00
    0.00000E+00         0.00000E+00        -0.15558E+08
 
   -0.15474E+08         0.63169E+06         0.00000E+00
    0.63169E+06        -0.35863E+08         0.00000E+00
    0.00000E+00         0.00000E+00        -0.15672E+08
 
   -0.15793E+08         0.68405E+06         0.00000E+00
    0.68405E+06        -0.36272E+08         0.00000E+00
    0.00000E+00         0.00000E+00        -0.15791E+08
 
   -0.16083E+08         0.72432E+06         0.00000E+00
    0.72432E+06        -0.36654E+08         0.00000E+00
    0.00000E+00         0.00000E+00        -0.15912E+08
 
   -0.16344E+08         0.75394E+06         0.00000E+00
    0.75394E+06        -0.37012E+08         0.00000E+00
    0.00000E+00         0.00000E+00        -0.16035E+08
 
   -0.16580E+08         0.77434E+06         0.00000E+00
    0.77434E+06        -0.37347E+08         0.00000E+00
    0.00000E+00         0.00000E+00        -0.16158E+08
 
   -0.16794E+08         0.78689E+06         0.00000E+00
    0.78689E+06        -0.37662E+08         0.00000E+00
    0.00000E+00         0.00000E+00        -0.16281E+08
 
   -0.16987E+08         0.79283E+06         0.00000E+00
    0.79283E+06        -0.37957E+08         0.00000E+00
    0.00000E+00         0.00000E+00        -0.16402E+08
 
   -0.17162E+08         0.79330E+06         0.00000E+00
    0.79330E+06        -0.38234E+08         0.00000E+00
    0.00000E+00         0.00000E+00        -0.16523E+08
 
   -0.17321E+08         0.78928E+06         0.00000E+00
    0.78928E+06        -0.38496E+08         0.00000E+00
    0.00000E+00         0.00000E+00        -0.16641E+08
 
   -0.17465E+08         0.78164E+06         0.00000E+00
    0.78164E+06        -0.38742E+08         0.00000E+00
    0.00000E+00         0.00000E+00        -0.16757E+08
 
   -0.17596E+08         0.77113E+06         0.00000E+00
    0.77113E+06        -0.38974E+08         0.00000E+00
    0.00000E+00         0.00000E+00        -0.16870E+08
 
   -0.17716E+08         0.75838E+06         0.00000E+00
    0.75838E+06        -0.39194E+08         0.00000E+00
    0.00000E+00         0.00000E+00        -0.16981E+08
 
   -0.17826E+08         0.74394E+06         0.00000E+00
    0.74394E+06        -0.39402E+08         0.00000E+00
    0.00000E+00         0.00000E+00        -0.17089E+08
 
   -0.17926E+08         0.72826E+06         0.00000E+00
    0.72826E+06        -0.39599E+08         0.00000E+00
    0.00000E+00         0.00000E+00        -0.17195E+08
 
   -0.18019E+08         0.71173E+06         0.00000E+00
    0.71173E+06        -0.39786E+08         0.00000E+00
    0.00000E+00         0.00000E+00        -0.17297E+08
 
   -0.18104E+08         0.69466E+06         0.00000E+00
    0.69466E+06        -0.39963E+08         0.00000E+00
    0.00000E+00         0.00000E+00        -0.17397E+08
 
   -0.18183E+08         0.67732E+06         0.00000E+00
    0.67732E+06        -0.40132E+08         0.00000E+00
    0.00000E+00         0.00000E+00        -0.17494E+08
 
   -0.18256E+08         0.65994E+06         0.00000E+00
    0.65994E+06        -0.40293E+08         0.00000E+00
    0.00000E+00         0.00000E+00        -0.17588E+08
 
   -0.18325E+08         0.64267E+06         0.00000E+00
    0.64267E+06        -0.40447E+08         0.00000E+00
    0.00000E+00         0.00000E+00        -0.17680E+08
 
   -0.18388E+08         0.62569E+06         0.00000E+00
    0.62569E+06        -0.40594E+08         0.00000E+00
    0.00000E+00         0.00000E+00        -0.17769E+08
 
   -0.18448E+08         0.60909E+06         0.00000E+00
    0.60909E+06        -0.40735E+08         0.00000E+00
    0.00000E+00         0.00000E+00        -0.17856E+08
 
   -0.18504E+08         0.59299E+06         0.00000E+00
    0.59299E+06        -0.40870E+08         0.00000E+00
    0.00000E+00         0.00000E+00        -0.17940E+08
 
   -0.18557E+08         0.57746E+06         0.00000E+00
    0.57746E+06        -0.40999E+08         0.00000E+00
    0.00000E+00         0.00000E+00        -0.18022E+08
 
   -0.18607E+08         0.56255E+06         0.00000E+00
    0.56255E+06        -0.41124E+08         0.00000E+00
    0.00000E+00         0.00000E+00        -0.18101E+08
 
   -0.18654E+08         0.54832E+06         0.00000E+00
    0.54832E+06        -0.41244E+08         0.00000E+00
    0.00000E+00         0.00000E+00        -0.18179E+08
 
   -0.18699E+08         0.53481E+06         0.00000E+00
    0.53481E+06        -0.41361E+08         0.00000E+00
    0.00000E+00         0.00000E+00        -0.18255E+08
 
   -0.18743E+08         0.52203E+06         0.00000E+00
    0.52203E+06        -0.41473E+08         0.00000E+00
    0.00000E+00         0.00000E+00        -0.18329E+08
 
   -0.18784E+08         0.51002E+06         0.00000E+00
    0.51002E+06        -0.41582E+08         0.00000E+00
    0.00000E+00         0.00000E+00        -0.18401E+08
 
   -0.18824E+08         0.49879E+06         0.00000E+00
    0.49879E+06        -0.41687E+08         0.00000E+00
    0.00000E+00         0.00000E+00        -0.18472E+08
 
   -0.18862E+08         0.48834E+06         0.00000E+00
    0.48834E+06        -0.41790E+08         0.00000E+00
    0.00000E+00         0.00000E+00        -0.18541E+08
 
   -0.18899E+08         0.47867E+06         0.00000E+00
    0.47867E+06        -0.41891E+08         0.00000E+00
    0.00000E+00         0.00000E+00        -0.18608E+08
 
   -0.18935E+08         0.46980E+06         0.00000E+00
    0.46980E+06        -0.41989E+08         0.00000E+00
    0.00000E+00         0.00000E+00        -0.18675E+08
 
   -0.18971E+08         0.46172E+06         0.00000E+00
    0.46172E+06        -0.42085E+08         0.00000E+00
    0.00000E+00         0.00000E+00        -0.18740E+08
 
   -0.19005E+08         0.45442E+06         0.00000E+00
    0.45442E+06        -0.42179E+08         0.00000E+00
    0.00000E+00         0.00000E+00        -0.18805E+08
 
   -0.19039E+08         0.44789E+06         0.00000E+00
    0.44789E+06        -0.42272E+08         0.00000E+00
    0.00000E+00         0.00000E+00        -0.18868E+08
 
   -0.19073E+08         0.44214E+06         0.00000E+00
    0.44214E+06        -0.42364E+08         0.00000E+00
    0.00000E+00         0.00000E+00        -0.18931E+08
 
   -0.19106E+08         0.43714E+06         0.00000E+00
    0.43714E+06        -0.42454E+08         0.00000E+00
    0.00000E+00         0.00000E+00        -0.18994E+08
 
   -0.19139E+08         0.43289E+06         0.00000E+00
    0.43289E+06        -0.42544E+08         0.00000E+00
    0.00000E+00         0.00000E+00        -0.19055E+08
 
   -0.19172E+08         0.42937E+06         0.00000E+00
    0.42937E+06        -0.42634E+08         0.00000E+00
    0.00000E+00         0.00000E+00        -0.19116E+08
 
   -0.19205E+08         0.42656E+06         0.00000E+00
    0.42656E+06        -0.42723E+08         0.00000E+00
    0.00000E+00         0.00000E+00        -0.19177E+08
 
   -0.19238E+08         0.42446E+06         0.00000E+00
    0.42446E+06        -0.42812E+08         0.00000E+00
    0.00000E+00         0.00000E+00        -0.19238E+08
 
   -0.19272E+08         0.42305E+06         0.00000E+00
    0.42305E+06        -0.42901E+08         0.00000E+00
    0.00000E+00         0.00000E+00        -0.19299E+08
 
   -0.19306E+08         0.42230E+06         0.00000E+00
    0.42230E+06        -0.42991E+08         0.00000E+00
    0.00000E+00         0.00000E+00        -0.19360E+08
 
   -0.19340E+08         0.42220E+06         0.00000E+00
    0.42220E+06        -0.43081E+08         0.00000E+00
    0.00000E+00         0.00000E+00        -0.19421E+08
 
   -0.19376E+08         0.42272E+06         0.00000E+00
    0.42272E+06        -0.43172E+08         0.00000E+00
    0.00000E+00         0.00000E+00        -0.19482E+08
 
   -0.19412E+08         0.42384E+06         0.00000E+00
    0.42384E+06        -0.43264E+08         0.00000E+00
    0.00000E+00         0.00000E+00        -0.19544E+08
 
   -0.19449E+08         0.42554E+06         0.00000E+00
    0.42554E+06        -0.43358E+08         0.00000E+00
    0.00000E+00         0.00000E+00        -0.19606E+08
 
   -0.19487E+08         0.42777E+06         0.00000E+00
    0.42777E+06        -0.43453E+08         0.00000E+00
    0.00000E+00         0.00000E+00        -0.19669E+08
 
   -0.19527E+08         0.43051E+06         0.00000E+00
    0.43051E+06        -0.43550E+08         0.00000E+00
    0.00000E+00         0.00000E+00        -0.19732E+08
 
   -0.19569E+08         0.43372E+06         0.00000E+00
    0.43372E+06        -0.43650E+08         0.00000E+00
    0.00000E+00         0.00000E+00        -0.19797E+08
 
   -0.19612E+08         0.43736E+06         0.00000E+00
    0.43736E+06        -0.43752E+08         0.00000E+00
    0.00000E+00         0.00000E+00        -0.19862E+08
 
   -0.19657E+08         0.44137E+06         0.00000E+00
    0.44137E+06        -0.43856E+08         0.00000E+00
    0.00000E+00         0.00000E+00        -0.19928E+08
 
   -0.19704E+08         0.44571E+06         0.00000E+00
    0.44571E+06        -0.43964E+08         0.00000E+00
    0.00000E+00         0.00000E+00        -0.19996E+08
 
   -0.19754E+08         0.45031E+06         0.00000E+00
    0.45031E+06        -0.44076E+08         0.00000E+00
    0.00000E+00         0.00000E+00        -0.20064E+08
 
   -0.19806E+08         0.45510E+06         0.00000E+00
    0.45510E+06        -0.44191E+08         0.00000E+00
    0.00000E+00         0.00000E+00        -0.20134E+08
 
   -0.19862E+08         0.46001E+06         0.00000E+00
    0.46001E+06        -0.44310E+08         0.00000E+00
    0.00000E+00         0.00000E+00        -0.20206E+08
 
   -0.19920E+08         0.46493E+06         0.00000E+00
    0.46493E+06        -0.44434E+08         0.00000E+00
    0.00000E+00         0.00000E+00        -0.20279E+08
 
   -0.19983E+08         0.46975E+06         0.00000E+00
    0.46975E+06        -0.44564E+08         0.00000E+00
    0.00000E+00         0.00000E+00        -0.20354E+08
 
   -0.20050E+08         0.47437E+06         0.00000E+00
    0.47437E+06        -0.44698E+08         0.00000E+00
    0.00000E+00         0.00000E+00        -0.20430E+08
 
   -0.20121E+08         0.47863E+06         0.00000E+00
    0.47863E+06        -0.44839E+08         0.00000E+00
    0.00000E+00         0.00000E+00        -0.20509E+08
 
   -0.20197E+08         0.48237E+06         0.00000E+00
    0.48237E+06        -0.44987E+08         0.00000E+00
    0.00000E+00         0.00000E+00        -0.20589E+08
 
   -0.20279E+08         0.48541E+06         0.00000E+00
    0.48541E+06        -0.45142E+08         0.00000E+00
    0.00000E+00         0.00000E+00        -0.20672E+08
 
   -0.20367E+08         0.48752E+06         0.00000E+00
    0.48752E+06        -0.45305E+08         0.00000E+00
    0.00000E+00         0.00000E+00        -0.20756E+08
 
   -0.20462E+08         0.48846E+06         0.00000E+00
    0.48846E+06        -0.45477E+08         0.00000E+00
    0.00000E+00         0.00000E+00        -0.20843E+08
 
   -0.20565E+08         0.48795E+06         0.00000E+00
    0.48795E+06        -0.45659E+08         0.00000E+00
    0.00000E+00         0.00000E+00        -0.20932E+08
 
   -0.20675E+08         0.48567E+06         0.00000E+00
    0.48567E+06        -0.45850E+08         0.00000E+00
    0.00000E+00         0.00000E+00        -0.21024E+08
 
   -0.20796E+08         0.48124E+06         0.00000E+00
    0.48124E+06        -0.46053E+08         0.00000E+00
    0.00000E+00         0.00000E+00        -0.21118E+08
 
   -0.20926E+08         0.47426E+06         0.00000E+00
    0.47426E+06        -0.46269E+08         0.00000E+00
    0.00000E+00         0.00000E+00        -0.21215E+08
 
   -0.21068E+08         0.46427E+06         0.00000E+00
    0.46427E+06        -0.46498E+08         0.00000E+00
    0.00000E+00         0.00000E+00        -0.21314E+08
 
   -0.21223E+08         0.45078E+06         0.00000E+00
    0.45078E+06        -0.46742E+08         0.00000E+00
    0.00000E+00         0.00000E+00        -0.21416E+08
 
   -0.21391E+08         0.43323E+06         0.00000E+00
    0.43323E+06        -0.47001E+08         0.00000E+00
    0.00000E+00         0.00000E+00        -0.21520E+08
 
   -0.21575E+08         0.41106E+06         0.00000E+00
    0.41106E+06        -0.47277E+08         0.00000E+00
    0.00000E+00         0.00000E+00        -0.21627E+08
 
   -0.21775E+08         0.38368E+06         0.00000E+00
    0.38368E+06        -0.47572E+08         0.00000E+00
    0.00000E+00         0.00000E+00        -0.21737E+08
 
   -0.21994E+08         0.35053E+06         0.00000E+00
    0.35053E+06        -0.47887E+08         0.00000E+00
    0.00000E+00         0.00000E+00        -0.21850E+08
 
   -0.22233E+08         0.31111E+06         0.00000E+00
    0.31111E+06        -0.48222E+08         0.00000E+00
    0.00000E+00         0.00000E+00        -0.21965E+08
 
   -0.22494E+08         0.26505E+06         0.00000E+00
    0.26505E+06        -0.48580E+08         0.00000E+00
    0.00000E+00         0.00000E+00        -0.22083E+08
 
   -0.22778E+08         0.21217E+06         0.00000E+00
    0.21217E+06        -0.48961E+08         0.00000E+00
    0.00000E+00         0.00000E+00        -0.22203E+08
 
   -0.23087E+08         0.15268E+06         0.00000E+00
    0.15268E+06        -0.49365E+08         0.00000E+00
    0.00000E+00         0.00000E+00        -0.22325E+08
 
   -0.23422E+08         0.87294E+05         0.00000E+00
    0.87294E+05        -0.49794E+08         0.00000E+00
    0.00000E+00         0.00000E+00        -0.22450E+08
 
   -0.23783E+08         0.17518E+05         0.00000E+00
    0.17518E+05        -0.50246E+08         0.00000E+00
    0.00000E+00         0.00000E+00        -0.22575E+08
 
   -0.24171E+08        -0.53967E+05         0.00000E+00
   -0.53967E+05        -0.50720E+08         0.00000E+00
    0.00000E+00         0.00000E+00        -0.22702E+08
 
   -0.24584E+08        -0.12275E+06         0.00000E+00
   -0.12275E+06        -0.51213E+08         0.00000E+00
    0.00000E+00         0.00000E+00        -0.22829E+08
 
   -0.25019E+08        -0.18178E+06         0.00000E+00
   -0.18178E+06        -0.51720E+08         0.00000E+00
    0.00000E+00         0.00000E+00        -0.22955E+08
 
   -0.25467E+08        -0.22006E+06         0.00000E+00
   -0.22006E+06        -0.52231E+08         0.00000E+00
    0.00000E+00         0.00000E+00        -0.23075E+08
 
   -0.25918E+08        -0.22170E+06         0.00000E+00
   -0.22170E+06        -0.52727E+08         0.00000E+00
    0.00000E+00         0.00000E+00        -0.23180E+08
 
   -0.26360E+08        -0.17051E+06         0.00000E+00
   -0.17051E+06        -0.53175E+08         0.00000E+00
    0.00000E+00         0.00000E+00        -0.23250E+08
 
   -0.26783E+08        -0.65171E+05         0.00000E+00
   -0.65171E+05        -0.53529E+08         0.00000E+00
    0.00000E+00         0.00000E+00        -0.23249E+08
 
   -0.87326E+07        -0.12691E+06         0.00000E+00
   -0.12691E+06        -0.27864E+08         0.00000E+00
    0.00000E+00         0.00000E+00        -0.15237E+08
 
   -0.92013E+07        -0.34180E+06         0.00000E+00
   -0.34180E+06        -0.28429E+08         0.00000E+00
    0.00000E+00         0.00000E+00        -0.15137E+08
 
   -0.97608E+07        -0.45035E+06         0.00000E+00
   -0.45035E+06        -0.29121E+08         0.00000E+00
    0.00000E+00         0.00000E+00        -0.15090E+08
 
   -0.10368E+08        -0.45217E+06         0.00000E+00
   -0.45217E+06        -0.29870E+08         0.00000E+00
    0.00000E+00         0.00000E+00        -0.15071E+08
 
   -0.10992E+08        -0.38148E+06         0.00000E+00
   -0.38148E+06        -0.30627E+08         0.00000E+00
    0.00000E+00         0.00000E+00        -0.15067E+08
 
   -0.11612E+08        -0.27035E+06         0.00000E+00
   -0.27035E+06        -0.31363E+08         0.00000E+00
    0.00000E+00         0.00000E+00        -0.15077E+08
 
   -0.12215E+08        -0.14055E+06         0.00000E+00
   -0.14055E+06        -0.32065E+08         0.00000E+00
    0.00000E+00         0.00000E+00        -0.15102E+08
 
   -0.12792E+08        -0.61830E+04         0.00000E+00
   -0.61830E+04        -0.32727E+08         0.00000E+00
    0.00000E+00         0.00000E+00        -0.15143E+08
 
   -0.13335E+08         0.12366E+06         0.00000E+00
    0.12366E+06        -0.33347E+08         0.00000E+00
    0.00000E+00         0.00000E+00        -0.15201E+08
 
   -0.13842E+08         0.24342E+06         0.00000E+00
    0.24342E+06        -0.33927E+08         0.00000E+00
    0.00000E+00         0.00000E+00        -0.15273E+08
 
   -0.14309E+08         0.35002E+06         0.00000E+00
    0.35002E+06        -0.34467E+08         0.00000E+00
    0.00000E+00         0.00000E+00        -0.15359E+08
 
   -0.14738E+08         0.44212E+06         0.00000E+00
    0.44212E+06        -0.34971E+08         0.00000E+00
    0.00000E+00         0.00000E+00        -0.15455E+08
 
   -0.15129E+08         0.51959E+06         0.00000E+00
    0.51959E+06        -0.35441E+08         0.00000E+00
    0.00000E+00         0.00000E+00        -0.15560E+08
 
   -0.15484E+08         0.58305E+06         0.00000E+00
    0.58305E+06        -0.35879E+08         0.00000E+00
    0.00000E+00         0.00000E+00        -0.15671E+08
 
   -0.15806E+08         0.63357E+06         0.00000E+00
    0.63357E+06        -0.36288E+08         0.00000E+00
    0.00000E+00         0.00000E+00        -0.15788E+08
 
   -0.16097E+08         0.67246E+06         0.00000E+00
    0.67246E+06        -0.36670E+08         0.00000E+00
    0.00000E+00         0.00000E+00        -0.15907E+08
 
   -0.16359E+08         0.70114E+06         0.00000E+00
    0.70114E+06        -0.37027E+08         0.00000E+00
    0.00000E+00         0.00000E+00        -0.16028E+08
 
   -0.16596E+08         0.72098E+06         0.00000E+00
    0.72098E+06        -0.37362E+08         0.00000E+00
    0.00000E+00         0.00000E+00        -0.16150E+08
 
   -0.16810E+08         0.73329E+06         0.00000E+00
    0.73329E+06        -0.37676E+08         0.00000E+00
    0.00000E+00         0.00000E+00        -0.16272E+08
 
   -0.17003E+08         0.73929E+06         0.00000E+00
    0.73929E+06        -0.37970E+08         0.00000E+00
    0.00000E+00         0.00000E+00        -0.16393E+08
 
   -0.17178E+08         0.74005E+06         0.00000E+00
    0.74005E+06        -0.38247E+08         0.00000E+00
    0.00000E+00         0.00000E+00        -0.16513E+08
 
   -0.17336E+08         0.73653E+06         0.00000E+00
    0.73653E+06        -0.38508E+08         0.00000E+00
    0.00000E+00         0.00000E+00        -0.16631E+08
 
   -0.17480E+08         0.72956E+06         0.00000E+00
    0.72956E+06        -0.38753E+08         0.00000E+00
    0.00000E+00         0.00000E+00        -0.16747E+08
 
   -0.17611E+08         0.71986E+06         0.00000E+00
    0.71986E+06        -0.38985E+08         0.00000E+00
    0.00000E+00         0.00000E+00        -0.16861E+08
 
   -0.17730E+08         0.70802E+06         0.00000E+00
    0.70802E+06        -0.39204E+08         0.00000E+00
    0.00000E+00         0.00000E+00        -0.16972E+08
 
   -0.17839E+08         0.69458E+06         0.00000E+00
    0.69458E+06        -0.39411E+08         0.00000E+00
    0.00000E+00         0.00000E+00        -0.17080E+08
 
   -0.17939E+08         0.67996E+06         0.00000E+00
    0.67996E+06        -0.39608E+08         0.00000E+00
    0.00000E+00         0.00000E+00        -0.17186E+08
 
   -0.18031E+08         0.66453E+06         0.00000E+00
    0.66453E+06        -0.39794E+08         0.00000E+00
    0.00000E+00         0.00000E+00        -0.17288E+08
 
   -0.18116E+08         0.64859E+06         0.00000E+00
    0.64859E+06        -0.39971E+08         0.00000E+00
    0.00000E+00         0.00000E+00        -0.17389E+08
 
   -0.18194E+08         0.63239E+06         0.00000E+00
    0.63239E+06        -0.40140E+08         0.00000E+00
    0.00000E+00         0.00000E+00        -0.17486E+08
 
   -0.18267E+08         0.61614E+06         0.00000E+00
    0.61614E+06        -0.40300E+08         0.00000E+00
    0.00000E+00         0.00000E+00        -0.17581E+08
 
   -0.18334E+08         0.60000E+06         0.00000E+00
    0.60000E+06        -0.40453E+08         0.00000E+00
    0.00000E+00         0.00000E+00        -0.17673E+08
 
   -0.18397E+08         0.58412E+06         0.00000E+00
    0.58412E+06        -0.40600E+08         0.00000E+00
    0.00000E+00         0.00000E+00        -0.17762E+08
 
   -0.18456E+08         0.56861E+06         0.00000E+00
    0.56861E+06        -0.40740E+08         0.00000E+00
    0.00000E+00         0.00000E+00        -0.17849E+08
 
   -0.18512E+08         0.55356E+06         0.00000E+00
    0.55356E+06        -0.40875E+08         0.00000E+00
    0.00000E+00         0.00000E+00        -0.17934E+08
 
   -0.18564E+08         0.53904E+06         0.00000E+00
    0.53904E+06        -0.41004E+08         0.00000E+00
    0.00000E+00         0.00000E+00        -0.18016E+08
 
   -0.18614E+08         0.52510E+06         0.00000E+00
    0.52510E+06        -0.41129E+08         0.00000E+00
    0.00000E+00         0.00000E+00        -0.18096E+08
 
   -0.18661E+08         0.51180E+06         0.00000E+00
    0.51180E+06        -0.41249E+08         0.00000E+00
    0.00000E+00         0.00000E+00        -0.18174E+08
 
   -0.18705E+08         0.49917E+06         0.00000E+00
    0.49917E+06        -0.41364E+08         0.00000E+00
    0.00000E+00         0.00000E+00        -0.18250E+08
 
   -0.18748E+08         0.48723E+06         0.00000E+00
    0.48723E+06        -0.41476E+08         0.00000E+00
    0.00000E+00         0.00000E+00        -0.18324E+08
 
   -0.18789E+08         0.47601E+06         0.00000E+00
    0.47601E+06        -0.41585E+08         0.00000E+00
    0.00000E+00         0.00000E+00        -0.18397E+08
 
   -0.18828E+08         0.46551E+06         0.00000E+00
    0.46551E+06        -0.41690E+08         0.00000E+00
    0.00000E+00         0.00000E+00        -0.18468E+08
 
   -0.18866E+08         0.45574E+06         0.00000E+00
    0.45574E+06        -0.41793E+08         0.00000E+00
    0.00000E+00         0.00000E+00        -0.18537E+08
 
   -0.18903E+08         0.44671E+06         0.00000E+00
    0.44671E+06        -0.41893E+08         0.00000E+00
    0.00000E+00         0.00000E+00        -0.18605E+08
 
   -0.18938E+08         0.43842E+06         0.00000E+00
    0.43842E+06        -0.41991E+08         0.00000E+00
    0.00000E+00         0.00000E+00        -0.18672E+08
 
   -0.18973E+08         0.43086E+06         0.00000E+00
    0.43086E+06        -0.42087E+08         0.00000E+00
    0.00000E+00         0.00000E+00        -0.18738E+08
 
   -0.19007E+08         0.42404E+06         0.00000E+00
    0.42404E+06        -0.42181E+08         0.00000E+00
    0.00000E+00         0.00000E+00        -0.18802E+08
 
   -0.19041E+08         0.41794E+06         0.00000E+00
    0.41794E+06        -0.42274E+08         0.00000E+00
    0.00000E+00         0.00000E+00        -0.18866E+08
 
   -0.19074E+08         0.41255E+06         0.00000E+00
    0.41255E+06        -0.42365E+08         0.00000E+00
    0.00000E+00         0.00000E+00        -0.18929E+08
 
   -0.19107E+08         0.40788E+06         0.00000E+00
    0.40788E+06        -0.42456E+08         0.00000E+00
    0.00000E+00         0.00000E+00        -0.18992E+08
 
   -0.19139E+08         0.40390E+06         0.00000E+00
    0.40390E+06        -0.42545E+08         0.00000E+00
    0.00000E+00         0.00000E+00        -0.19054E+08
 
   -0.19172E+08         0.40061E+06         0.00000E+00
    0.40061E+06        -0.42635E+08         0.00000E+00
    0.00000E+00         0.00000E+00        -0.19115E+08
 
   -0.19204E+08         0.39798E+06         0.00000E+00
    0.39798E+06        -0.42723E+08         0.00000E+00
    0.00000E+00         0.00000E+00        -0.19177E+08
 
   -0.19237E+08         0.39602E+06         0.00000E+00
    0.39602E+06        -0.42812E+08         0.00000E+00
    0.00000E+00         0.00000E+00        -0.19238E+08
 
   -0.19270E+08         0.39469E+06         0.00000E+00
    0.39469E+06        -0.42901E+08         0.00000E+00
    0.00000E+00         0.00000E+00        -0.19299E+08
 
   -0.19304E+08         0.39398E+06         0.00000E+00
    0.39398E+06        -0.42991E+08         0.00000E+00
    0.00000E+00         0.00000E+00        -0.19360E+08
 
   -0.19338E+08         0.39388E+06         0.00000E+00
    0.39388E+06        -0.43081E+08         0.00000E+00
    0.00000E+00         0.00000E+00        -0.19421E+08
 
   -0.19373E+08         0.39436E+06         0.00000E+00
    0.39436E+06        -0.43172E+08         0.00000E+00
    0.00000E+00         0.00000E+00        -0.19482E+08
 
   -0.19409E+08         0.39540E+06         0.00000E+00
    0.39540E+06        -0.43264E+08         0.00000E+00
    0.00000E+00         0.00000E+00        -0.19544E+08
 
   -0.19446E+08         0.39697E+06         0.00000E+00
    0.39697E+06        -0.43357E+08         0.00000E+00
    0.00000E+00         0.00000E+00        -0.19606E+08
 
   -0.19484E+08         0.39904E+06         0.00000E+00
    0.39904E+06        -0.43452E+08         0.00000E+00
    0.00000E+00         0.00000E+00        -0.19669E+08
 
   -0.19523E+08         0.40159E+06         0.00000E+00
    0.40159E+06        -0.43549E+08         0.00000E+00
    0.00000E+00         0.00000E+00        -0.19733E+08
 
   -0.19564E+08         0.40458E+06         0.00000E+00
    0.40458E+06        -0.43648E+08         0.00000E+00
    0.00000E+00         0.00000E+00        -0.19798E+08
 
   -0.19607E+08         0.40796E+06         0.00000E+00
    0.40796E+06        -0.43750E+08         0.00000E+00
    0.00000E+00         0.00000E+00        -0.19863E+08
 
   -0.19651E+08         0.41170E+06         0.00000E+00
    0.41170E+06        -0.43855E+08         0.00000E+00
    0.00000E+00         0.00000E+00        -0.19930E+08
 
   -0.19698E+08         0.41574E+06         0.00000E+00
    0.41574E+06        -0.43962E+08         0.00000E+00
    0.00000E+00         0.00000E+00        -0.19997E+08
 
   -0.19747E+08         0.42002E+06         0.00000E+00
    0.42002E+06        -0.44073E+08         0.00000E+00
    0.00000E+00         0.00000E+00        -0.20066E+08
 
   -0.19799E+08         0.42449E+06         0.00000E+00
    0.42449E+06        -0.44188E+08         0.00000E+00
    0.00000E+00         0.00000E+00        -0.20136E+08
 
   -0.19854E+08         0.42905E+06         0.00000E+00
    0.42905E+06        -0.44307E+08         0.00000E+00
    0.00000E+00         0.00000E+00        -0.20208E+08
 
   -0.19913E+08         0.43363E+06         0.00000E+00
    0.43363E+06        -0.44431E+08         0.00000E+00
    0.00000E+00         0.00000E+00        -0.20281E+08
 
   -0.19975E+08         0.43812E+06         0.00000E+00
    0.43812E+06        -0.44560E+08         0.00000E+00
    0.00000E+00         0.00000E+00        -0.20356E+08
 
   -0.20041E+08         0.44241E+06         0.00000E+00
    0.44241E+06        -0.44695E+08         0.00000E+00
    0.00000E+00         0.00000E+00        -0.20433E+08
 
   -0.20112E+08         0.44637E+06         0.00000E+00
    0.44637E+06        -0.44835E+08         0.00000E+00
    0.00000E+00         0.00000E+00        -0.20511E+08
 
   -0.20188E+08         0.44984E+06         0.00000E+00
    0.44984E+06        -0.44983E+08         0.00000E+00
    0.00000E+00         0.00000E+00        -0.20592E+08
 
   -0.20269E+08         0.45264E+06         0.00000E+00
    0.45264E+06        -0.45138E+08         0.00000E+00
    0.00000E+00         0.00000E+00        -0.20674E+08
 
   -0.20357E+08         0.45457E+06         0.00000E+00
    0.45457E+06        -0.45300E+08         0.00000E+00
    0.00000E+00         0.00000E+00        -0.20759E+08
 
   -0.20451E+08         0.45540E+06         0.00000E+00
    0.45540E+06        -0.45472E+08         0.00000E+00
    0.00000E+00         0.00000E+00        -0.20845E+08
 
   -0.20554E+08         0.45486E+06         0.00000E+00
    0.45486E+06        -0.45652E+08         0.00000E+00
    0.00000E+00         0.00000E+00        -0.20935E+08
 
   -0.20664E+08         0.45263E+06         0.00000E+00
    0.45263E+06        -0.45844E+08         0.00000E+00
    0.00000E+00         0.00000E+00        -0.21026E+08
 
   -0.20784E+08         0.44838E+06         0.00000E+00
    0.44838E+06        -0.46046E+08         0.00000E+00
    0.00000E+00         0.00000E+00        -0.21120E+08
 
   -0.20915E+08         0.44170E+06         0.00000E+00
    0.44170E+06        -0.46261E+08         0.00000E+00
    0.00000E+00         0.00000E+00        -0.21216E+08
 
   -0.21057E+08         0.43217E+06         0.00000E+00
    0.43217E+06        -0.46490E+08         0.00000E+00
    0.00000E+00         0.00000E+00        -0.21315E+08
 
   -0.21211E+08         0.41930E+06         0.00000E+00
    0.41930E+06        -0.46733E+08         0.00000E+00
    0.00000E+00         0.00000E+00        -0.21416E+08
 
   -0.21380E+08         0.40257E+06         0.00000E+00
    0.40257E+06        -0.46992E+08         0.00000E+00
    0.00000E+00         0.00000E+00        -0.21520E+08
 
   -0.21564E+08         0.38142E+06         0.00000E+00
    0.38142E+06        -0.47268E+08         0.00000E+00
    0.00000E+00         0.00000E+00        -0.21626E+08
 
   -0.21766E+08         0.35529E+06         0.00000E+00
    0.35529E+06        -0.47563E+08         0.00000E+00
    0.00000E+00         0.00000E+00        -0.21735E+08
 
   -0.21986E+08         0.32362E+06         0.00000E+00
    0.32362E+06        -0.47878E+08         0.00000E+00
    0.00000E+00         0.00000E+00        -0.21847E+08
 
   -0.22227E+08         0.28592E+06         0.00000E+00
    0.28592E+06        -0.48213E+08         0.00000E+00
    0.00000E+00         0.00000E+00        -0.21960E+08
 
   -0.22490E+08         0.24180E+06         0.00000E+00
    0.24180E+06        -0.48572E+08         0.00000E+00
    0.00000E+00         0.00000E+00        -0.22077E+08
 
   -0.22777E+08         0.19108E+06         0.00000E+00
    0.19108E+06        -0.48954E+08         0.00000E+00
    0.00000E+00         0.00000E+00        -0.22195E+08
 
   -0.23090E+08         0.13389E+06         0.00000E+00
    0.13389E+06        -0.49360E+08         0.00000E+00
    0.00000E+00         0.00000E+00        -0.22316E+08
 
   -0.23431E+08         0.70883E+05         0.00000E+00
    0.70883E+05        -0.49791E+08         0.00000E+00
    0.00000E+00         0.00000E+00        -0.22438E+08
 
   -0.23799E+08         0.34166E+04         0.00000E+00
    0.34166E+04        -0.50246E+08         0.00000E+00
    0.00000E+00         0.00000E+00        -0.22562E+08
 
   -0.24196E+08        -0.66030E+05         0.00000E+00
   -0.66030E+05        -0.50725E+08         0.00000E+00
    0.00000E+00         0.00000E+00        -0.22686E+08
 
   -0.24619E+08        -0.13333E+06         0.00000E+00
   -0.13333E+06        -0.51225E+08         0.00000E+00
    0.00000E+00         0.00000E+00        -0.22812E+08
 
   -0.25065E+08        -0.19181E+06         0.00000E+00
   -0.19181E+06        -0.51741E+08         0.00000E+00
    0.00000E+00         0.00000E+00        -0.22936E+08
 
   -0.25527E+08        -0.23065E+06         0.00000E+00
   -0.23065E+06        -0.52264E+08         0.00000E+00
    0.00000E+00         0.00000E+00        -0.23057E+08
 
   -0.25992E+08        -0.23326E+06         0.00000E+00
   -0.23326E+06        -0.52773E+08         0.00000E+00
    0.00000E+00         0.00000E+00        -0.23165E+08
 
   -0.26445E+08        -0.18086E+06         0.00000E+00
   -0.18086E+06        -0.53236E+08         0.00000E+00
    0.00000E+00         0.00000E+00        -0.23240E+08
 
   -0.26875E+08        -0.69565E+05         0.00000E+00
   -0.69565E+05        -0.53600E+08         0.00000E+00
    0.00000E+00         0.00000E+00        -0.23244E+08
 
   -0.86370E+07        -0.13349E+06         0.00000E+00
   -0.13349E+06        -0.27746E+08         0.00000E+00
    0.00000E+00         0.00000E+00        -0.15264E+08
 
   -0.91105E+07        -0.35641E+06         0.00000E+00
   -0.35641E+06        -0.28327E+08         0.00000E+00
    0.00000E+00         0.00000E+00        -0.15171E+08
 
   -0.96812E+07        -0.46450E+06         0.00000E+00
   -0.46450E+06        -0.29043E+08         0.00000E+00
    0.00000E+00         0.00000E+00        -0.15130E+08
 
   -0.10301E+08        -0.46357E+06         0.00000E+00
   -0.46357E+06        -0.29815E+08         0.00000E+00
    0.00000E+00         0.00000E+00        -0.15112E+08
 
   -0.10938E+08        -0.39256E+06         0.00000E+00
   -0.39256E+06        -0.30590E+08         0.00000E+00
    0.00000E+00         0.00000E+00        -0.15106E+08
 
   -0.11570E+08        -0.28395E+06         0.00000E+00
   -0.28395E+06        -0.31341E+08         0.00000E+00
    0.00000E+00         0.00000E+00        -0.15111E+08
 
   -0.12185E+08        -0.15843E+06         0.00000E+00
   -0.15843E+06        -0.32054E+08         0.00000E+00
    0.00000E+00         0.00000E+00        -0.15131E+08
 
   -0.12771E+08        -0.29149E+05         0.00000E+00
   -0.29149E+05        -0.32724E+08         0.00000E+00
    0.00000E+00         0.00000E+00        -0.15167E+08
 
   -0.13323E+08         0.95466E+05         0.00000E+00
    0.95466E+05        -0.33351E+08         0.00000E+00
    0.00000E+00         0.00000E+00        -0.15219E+08
 
   -0.13837E+08         0.21025E+06         0.00000E+00
    0.21025E+06        -0.33935E+08         0.00000E+00
    0.00000E+00         0.00000E+00        -0.15286E+08
 
   -0.14310E+08         0.31234E+06         0.00000E+00
    0.31234E+06        -0.34478E+08         0.00000E+00
    0.00000E+00         0.00000E+00        -0.15367E+08
 
   -0.14744E+08         0.40053E+06         0.00000E+00
    0.40053E+06        -0.34984E+08         0.00000E+00
    0.00000E+00         0.00000E+00        -0.15460E+08
 
   -0.15138E+08         0.47469E+06         0.00000E+00
    0.47469E+06        -0.35455E+08         0.00000E+00
    0.00000E+00         0.00000E+00        -0.15561E+08
 
   -0.15496E+08         0.53545E+06         0.00000E+00
    0.53545E+06        -0.35894E+08         0.00000E+00
    0.00000E+00         0.00000E+00        -0.15670E+08
 
   -0.15820E+08         0.58384E+06         0.00000E+00
    0.58384E+06        -0.36303E+08         0.00000E+00
    0.00000E+00         0.00000E+00        -0.15784E+08
 
   -0.16112E+08         0.62114E+06         0.00000E+00
    0.62114E+06        -0.36685E+08         0.00000E+00
    0.00000E+00         0.00000E+00        -0.15902E+08
 
   -0.16375E+08         0.64868E+06         0.00000E+00
    0.64868E+06        -0.37042E+08         0.00000E+00
    0.00000E+00         0.00000E+00        -0.16022E+08
 
   -0.16613E+08         0.66780E+06         0.00000E+00
    0.66780E+06        -0.37376E+08         0.00000E+00
    0.00000E+00         0.00000E+00        -0.16143E+08
 
   -0.16827E+08         0.67977E+06         0.00000E+00
    0.67977E+06        -0.37690E+08         0.00000E+00
    0.00000E+00         0.00000E+00        -0.16264E+08
 
   -0.17020E+08         0.68573E+06         0.00000E+00
    0.68573E+06        -0.37983E+08         0.00000E+00
    0.00000E+00         0.00000E+00        -0.16384E+08
 
   -0.17194E+08         0.68672E+06         0.00000E+00
    0.68672E+06        -0.38260E+08         0.00000E+00
    0.00000E+00         0.00000E+00        -0.16504E+08
 
   -0.17352E+08         0.68365E+06         0.00000E+00
    0.68365E+06        -0.38520E+08         0.00000E+00
    0.00000E+00         0.00000E+00        -0.16622E+08
 
   -0.17495E+08         0.67731E+06         0.00000E+00
    0.67731E+06        -0.38764E+08         0.00000E+00
    0.00000E+00         0.00000E+00        -0.16738E+08
 
   -0.17626E+08         0.66838E+06         0.00000E+00
    0.66838E+06        -0.38996E+08         0.00000E+00
    0.00000E+00         0.00000E+00        -0.16851E+08
 
   -0.17744E+08         0.65745E+06         0.00000E+00
    0.65745E+06        -0.39214E+08         0.00000E+00
    0.00000E+00         0.00000E+00        -0.16962E+08
 
   -0.17853E+08         0.64499E+06         0.00000E+00
    0.64499E+06        -0.39421E+08         0.00000E+00
    0.00000E+00         0.00000E+00        -0.17071E+08
 
   -0.17952E+08         0.63142E+06         0.00000E+00
    0.63142E+06        -0.39616E+08         0.00000E+00
    0.00000E+00         0.00000E+00        -0.17177E+08
 
   -0.18043E+08         0.61709E+06         0.00000E+00
    0.61709E+06        -0.39802E+08         0.00000E+00
    0.00000E+00         0.00000E+00        -0.17280E+08
 
   -0.18127E+08         0.60227E+06         0.00000E+00
    0.60227E+06        -0.39979E+08         0.00000E+00
    0.00000E+00         0.00000E+00        -0.17380E+08
 
   -0.18205E+08         0.58721E+06         0.00000E+00
    0.58721E+06        -0.40147E+08         0.00000E+00
    0.00000E+00         0.00000E+00        -0.17478E+08
 
   -0.18277E+08         0.57210E+06         0.00000E+00
    0.57210E+06        -0.40307E+08         0.00000E+00
    0.00000E+00         0.00000E+00        -0.17573E+08
 
   -0.18344E+08         0.55710E+06         0.00000E+00
    0.55710E+06        -0.40460E+08         0.00000E+00
    0.00000E+00         0.00000E+00        -0.17665E+08
 
   -0.18406E+08         0.54233E+06         0.00000E+00
    0.54233E+06        -0.40606E+08         0.00000E+00
    0.00000E+00         0.00000E+00        -0.17755E+08
 
   -0.18465E+08         0.52791E+06         0.00000E+00
    0.52791E+06        -0.40746E+08         0.00000E+00
    0.00000E+00         0.00000E+00        -0.17843E+08
 
   -0.18520E+08         0.51391E+06         0.00000E+00
    0.51391E+06        -0.40880E+08         0.00000E+00
    0.00000E+00         0.00000E+00        -0.17928E+08
 
   -0.18572E+08         0.50041E+06         0.00000E+00
    0.50041E+06        -0.41009E+08         0.00000E+00
    0.00000E+00         0.00000E+00        -0.18010E+08
 
   -0.18621E+08         0.48746E+06         0.00000E+00
    0.48746E+06        -0.41133E+08         0.00000E+00
    0.00000E+00         0.00000E+00        -0.18091E+08
 
   -0.18667E+08         0.47509E+06         0.00000E+00
    0.47509E+06        -0.41253E+08         0.00000E+00
    0.00000E+00         0.00000E+00        -0.18169E+08
 
   -0.18711E+08         0.46335E+06         0.00000E+00
    0.46335E+06        -0.41368E+08         0.00000E+00
    0.00000E+00         0.00000E+00        -0.18245E+08
 
   -0.18753E+08         0.45225E+06         0.00000E+00
    0.45225E+06        -0.41480E+08         0.00000E+00
    0.00000E+00         0.00000E+00        -0.18320E+08
 
   -0.18794E+08         0.44181E+06         0.00000E+00
    0.44181E+06        -0.41588E+08         0.00000E+00
    0.00000E+00         0.00000E+00        -0.18393E+08
 
   -0.18832E+08         0.43205E+06         0.00000E+00
    0.43205E+06        -0.41693E+08         0.00000E+00
    0.00000E+00         0.00000E+00        -0.18464E+08
 
   -0.18870E+08         0.42297E+06         0.00000E+00
    0.42297E+06        -0.41796E+08         0.00000E+00
    0.00000E+00         0.00000E+00        -0.18534E+08
 
   -0.18906E+08         0.41458E+06         0.00000E+00
    0.41458E+06        -0.41896E+08         0.00000E+00
    0.00000E+00         0.00000E+00        -0.18602E+08
 
   -0.18941E+08         0.40687E+06         0.00000E+00
    0.40687E+06        -0.41993E+08         0.00000E+00
    0.00000E+00         0.00000E+00        -0.18669E+08
 
   -0.18976E+08         0.39985E+06         0.00000E+00
    0.39985E+06        -0.42089E+08         0.00000E+00
    0.00000E+00         0.00000E+00        -0.18735E+08
 
   -0.19009E+08         0.39350E+06         0.00000E+00
    0.39350E+06        -0.42183E+08         0.00000E+00
    0.00000E+00         0.00000E+00        -0.18800E+08
 
   -0.19042E+08         0.38783E+06         0.00000E+00
    0.38783E+06        -0.42275E+08         0.00000E+00
    0.00000E+00         0.00000E+00        -0.18864E+08
 
   -0.19075E+08         0.38283E+06         0.00000E+00
    0.38283E+06        -0.42367E+08         0.00000E+00
    0.00000E+00         0.00000E+00        -0.18928E+08
 
   -0.19107E+08         0.37848E+06         0.00000E+00
    0.37848E+06        -0.42457E+08         0.00000E+00
    0.00000E+00         0.00000E+00        -0.18990E+08
 
   -0.19140E+08         0.37478E+06         0.00000E+00
    0.37478E+06        -0.42546E+08         0.00000E+00
    0.00000E+00         0.00000E+00        -0.19052E+08
 
   -0.19172E+08         0.37172E+06         0.00000E+00
    0.37172E+06        -0.42635E+08         0.00000E+00
    0.00000E+00         0.00000E+00        -0.19114E+08
 
   -0.19204E+08         0.36927E+06         0.00000E+00
    0.36927E+06        -0.42724E+08         0.00000E+00
    0.00000E+00         0.00000E+00        -0.19176E+08
 
   -0.19236E+08         0.36744E+06         0.00000E+00
    0.36744E+06        -0.42813E+08         0.00000E+00
    0.00000E+00         0.00000E+00        -0.19237E+08
 
   -0.19269E+08         0.36620E+06         0.00000E+00
    0.36620E+06        -0.42902E+08         0.00000E+00
    0.00000E+00         0.00000E+00        -0.19298E+08
 
   -0.19302E+08         0.36554E+06         0.00000E+00
    0.36554E+06        -0.42991E+08         0.00000E+00
    0.00000E+00         0.00000E+00        -0.19359E+08
 
   -0.19336E+08         0.36543E+06         0.00000E+00
    0.36543E+06        -0.43081E+08         0.00000E+00
    0.00000E+00         0.00000E+00        -0.19421E+08
 
   -0.19371E+08         0.36587E+06         0.00000E+00
    0.36587E+06        -0.43171E+08         0.00000E+00
    0.00000E+00         0.00000E+00        -0.19482E+08
 
   -0.19406E+08         0.36683E+06         0.00000E+00
    0.36683E+06        -0.43263E+08         0.00000E+00
    0.00000E+00         0.00000E+00        -0.19544E+08
 
   -0.19442E+08         0.36828E+06         0.00000E+00
    0.36828E+06        -0.43356E+08         0.00000E+00
    0.00000E+00         0.00000E+00        -0.19607E+08
 
   -0.19480E+08         0.37019E+06         0.00000E+00
    0.37019E+06        -0.43451E+08         0.00000E+00
    0.00000E+00         0.00000E+00        -0.19670E+08
 
   -0.19519E+08         0.37255E+06         0.00000E+00
    0.37255E+06        -0.43548E+08         0.00000E+00
    0.00000E+00         0.00000E+00        -0.19734E+08
 
   -0.19560E+08         0.37532E+06         0.00000E+00
    0.37532E+06        -0.43647E+08         0.00000E+00
    0.00000E+00         0.00000E+00        -0.19799E+08
 
   -0.19602E+08         0.37845E+06         0.00000E+00
    0.37845E+06        -0.43749E+08         0.00000E+00
    0.00000E+00         0.00000E+00        -0.19864E+08
 
   -0.19646E+08         0.38191E+06         0.00000E+00
    0.38191E+06        -0.43853E+08         0.00000E+00
    0.00000E+00         0.00000E+00        -0.19931E+08
 
   -0.19692E+08         0.38566E+06         0.00000E+00
    0.38566E+06        -0.43960E+08         0.00000E+00
    0.00000E+00         0.00000E+00        -0.19999E+08
 
   -0.19741E+08         0.38963E+06         0.00000E+00
    0.38963E+06        -0.44071E+08         0.00000E+00
    0.00000E+00         0.00000E+00        -0.20068E+08
 
   -0.19793E+08         0.39376E+06         0.00000E+00
    0.39376E+06        -0.44186E+08         0.00000E+00
    0.00000E+00         0.00000E+00        -0.20138E+08
 
   -0.19847E+08         0.39799E+06         0.00000E+00
    0.39799E+06        -0.44305E+08         0.00000E+00
    0.00000E+00         0.00000E+00        -0.20210E+08
 
   -0.19905E+08         0.40223E+06         0.00000E+00
    0.40223E+06        -0.44428E+08         0.00000E+00
    0.00000E+00         0.00000E+00        -0.20283E+08
 
   -0.19967E+08         0.40639E+06         0.00000E+00
    0.40639E+06        -0.44557E+08         0.00000E+00
    0.00000E+00         0.00000E+00        -0.20358E+08
 
   -0.20033E+08         0.41036E+06         0.00000E+00
    0.41036E+06        -0.44691E+08         0.00000E+00
    0.00000E+00         0.00000E+00        -0.20435E+08
 
   -0.20103E+08         0.41402E+06         0.00000E+00
    0.41402E+06        -0.44831E+08         0.00000E+00
    0.00000E+00         0.00000E+00        -0.20514E+08
 
   -0.20178E+08         0.41722E+06         0.00000E+00
    0.41722E+06        -0.44978E+08         0.00000E+00
    0.00000E+00         0.00000E+00        -0.20594E+08
 
   -0.20259E+08         0.41980E+06         0.00000E+00
    0.41980E+06        -0.45133E+08         0.00000E+00
    0.00000E+00         0.00000E+00        -0.20676E+08
 
   -0.20347E+08         0.42156E+06         0.00000E+00
    0.42156E+06        -0.45295E+08         0.00000E+00
    0.00000E+00         0.00000E+00        -0.20761E+08
 
   -0.20441E+08         0.42229E+06         0.00000E+00
    0.42229E+06        -0.45466E+08         0.00000E+00
    0.00000E+00         0.00000E+00        -0.20848E+08
 
   -0.20543E+08         0.42173E+06         0.00000E+00
    0.42173E+06        -0.45646E+08         0.00000E+00
    0.00000E+00         0.00000E+00        -0.20937E+08
 
   -0.20653E+08         0.41958E+06         0.00000E+00
    0.41958E+06        -0.45837E+08         0.00000E+00
    0.00000E+00         0.00000E+00        -0.21028E+08
 
   -0.20773E+08         0.41553E+06         0.00000E+00
    0.41553E+06        -0.46039E+08         0.00000E+00
    0.00000E+00         0.00000E+00        -0.21121E+08
 
   -0.20903E+08         0.40920E+06         0.00000E+00
    0.40920E+06        -0.46254E+08         0.00000E+00
    0.00000E+00         0.00000E+00        -0.21217E+08
 
   -0.21045E+08         0.40017E+06         0.00000E+00
    0.40017E+06        -0.46482E+08         0.00000E+00
    0.00000E+00         0.00000E+00        -0.21316E+08
 
   -0.21199E+08         0.38797E+06         0.00000E+00
    0.38797E+06        -0.46724E+08         0.00000E+00
    0.00000E+00         0.00000E+00        -0.21417E+08
 
   -0.21368E+08         0.37212E+06         0.00000E+00
    0.37212E+06        -0.46983E+08         0.00000E+00
    0.00000E+00         0.00000E+00        -0.21520E+08
 
   -0.21553E+08         0.35208E+06         0.00000E+00
    0.35208E+06        -0.47259E+08         0.00000E+00
    0.00000E+00         0.00000E+00        -0.21626E+08
 
   -0.21755E+08         0.32730E+06         0.00000E+00
    0.32730E+06        -0.47553E+08         0.00000E+00
    0.00000E+00         0.00000E+00        -0.21734E+08
 
   -0.21977E+08         0.29723E+06         0.00000E+00
    0.29723E+06        -0.47868E+08         0.00000E+00
    0.00000E+00         0.00000E+00        -0.21844E+08
 
   -0.22219E+08         0.26140E+06         0.00000E+00
    0.26140E+06        -0.48204E+08         0.00000E+00
    0.00000E+00         0.00000E+00        -0.21957E+08
 
   -0.22485E+08         0.21940E+06         0.00000E+00
    0.21940E+06        -0.48563E+08         0.00000E+00
    0.00000E+00         0.00000E+00        -0.22071E+08
 
   -0.22776E+08         0.17104E+06         0.00000E+00
    0.17104E+06        -0.48946E+08         0.00000E+00
    0.00000E+00         0.00000E+00        -0.22188E+08
 
   -0.23093E+08         0.11640E+06         0.00000E+00
    0.11640E+06        -0.49354E+08         0.00000E+00
    0.00000E+00         0.00000E+00        -0.22307E+08
 
   -0.23439E+08         0.56019E+05         0.00000E+00
    0.56019E+05        -0.49787E+08         0.00000E+00
    0.00000E+00         0.00000E+00        -0.22427E+08
 
   -0.23814E+08        -0.88598E+04         0.00000E+00
   -0.88598E+04        -0.50247E+08         0.00000E+00
    0.00000E+00         0.00000E+00        -0.22548E+08
 
   -0.24219E+08        -0.75989E+05         0.00000E+00
   -0.75989E+05        -0.50731E+08         0.00000E+00
    0.00000E+00         0.00000E+00        -0.22671E+08
 
   -0.24653E+08        -0.14157E+06         0.00000E+00
   -0.14157E+06        -0.51237E+08         0.00000E+00
    0.00000E+00         0.00000E+00        -0.22794E+08
 
   -0.25111E+08        -0.19936E+06         0.00000E+00
   -0.19936E+06        -0.51762E+08         0.00000E+00
    0.00000E+00         0.00000E+00        -0.22917E+08
 
   -0.25587E+08        -0.23893E+06         0.00000E+00
   -0.23893E+06        -0.52296E+08         0.00000E+00
    0.00000E+00         0.00000E+00        -0.23038E+08
 
   -0.26067E+08        -0.24318E+06         0.00000E+00
   -0.24318E+06        -0.52821E+08         0.00000E+00
    0.00000E+00         0.00000E+00        -0.23150E+08
 
   -0.26534E+08        -0.19056E+06         0.00000E+00
   -0.19056E+06        -0.53299E+08         0.00000E+00
    0.00000E+00         0.00000E+00        -0.23230E+08
 
   -0.26972E+08        -0.73894E+05         0.00000E+00
   -0.73894E+05        -0.53674E+08         0.00000E+00
    0.00000E+00         0.00000E+00        -0.23239E+08
 
   -0.85381E+07        -0.13974E+06         0.00000E+00
   -0.13974E+06        -0.27621E+08         0.00000E+00
    0.00000E+00         0.00000E+00        -0.15290E+08
 
   -0.90177E+07        -0.36907E+06         0.00000E+00
   -0.36907E+06        -0.28221E+08         0.00000E+00
    0.00000E+00         0.00000E+00        -0.15206E+08
 
   -0.96007E+07        -0.47454E+06         0.00000E+00
   -0.47454E+06        -0.28963E+08         0.00000E+00
    0.00000E+00         0.00000E+00        -0.15170E+08
 
   -0.10234E+08        -0.46972E+06         0.00000E+00
   -0.46972E+06        -0.29759E+08         0.00000E+00
    0.00000E+00         0.00000E+00        -0.15153E+08
 
   -0.10885E+08        -0.39832E+06         0.00000E+00
   -0.39832E+06        -0.30554E+08         0.00000E+00
    0.00000E+00         0.00000E+00        -0.15144E+08
 
   -0.11530E+08        -0.29263E+06         0.00000E+00
   -0.29263E+06        -0.31319E+08         0.00000E+00
    0.00000E+00         0.00000E+00        -0.15145E+08
 
   -0.12156E+08        -0.17194E+06         0.00000E+00
   -0.17194E+06        -0.32043E+08         0.00000E+00
    0.00000E+00         0.00000E+00        -0.15159E+08
 
   -0.12752E+08        -0.48334E+05         0.00000E+00
   -0.48334E+05        -0.32722E+08         0.00000E+00
    0.00000E+00         0.00000E+00        -0.15189E+08
 
   -0.13313E+08         0.70470E+05         0.00000E+00
    0.70470E+05        -0.33355E+08         0.00000E+00
    0.00000E+00         0.00000E+00        -0.15236E+08
 
   -0.13833E+08         0.17973E+06         0.00000E+00
    0.17973E+06        -0.33943E+08         0.00000E+00
    0.00000E+00         0.00000E+00        -0.15299E+08
 
   -0.14313E+08         0.27682E+06         0.00000E+00
    0.27682E+06        -0.34490E+08         0.00000E+00
    0.00000E+00         0.00000E+00        -0.15375E+08
 
   -0.14751E+08         0.36064E+06         0.00000E+00
    0.36064E+06        -0.34998E+08         0.00000E+00
    0.00000E+00         0.00000E+00        -0.15464E+08
 
   -0.15149E+08         0.43111E+06         0.00000E+00
    0.43111E+06        -0.35470E+08         0.00000E+00
    0.00000E+00         0.00000E+00        -0.15562E+08
 
   -0.15510E+08         0.48884E+06         0.00000E+00
    0.48884E+06        -0.35909E+08         0.00000E+00
    0.00000E+00         0.00000E+00        -0.15668E+08
 
   -0.15835E+08         0.53483E+06         0.00000E+00
    0.53483E+06        -0.36319E+08         0.00000E+00
    0.00000E+00         0.00000E+00        -0.15780E+08
 
   -0.16128E+08         0.57029E+06         0.00000E+00
    0.57029E+06        -0.36701E+08         0.00000E+00
    0.00000E+00         0.00000E+00        -0.15896E+08
 
   -0.16393E+08         0.59652E+06         0.00000E+00
    0.59652E+06        -0.37057E+08         0.00000E+00
    0.00000E+00         0.00000E+00        -0.16014E+08
 
   -0.16630E+08         0.61479E+06         0.00000E+00
    0.61479E+06        -0.37391E+08         0.00000E+00
    0.00000E+00         0.00000E+00        -0.16134E+08
 
   -0.16844E+08         0.62629E+06         0.00000E+00
    0.62629E+06        -0.37704E+08         0.00000E+00
    0.00000E+00         0.00000E+00        -0.16255E+08
 
   -0.17037E+08         0.63212E+06         0.00000E+00
    0.63212E+06        -0.37997E+08         0.00000E+00
    0.00000E+00         0.00000E+00        -0.16375E+08
 
   -0.17211E+08         0.63327E+06         0.00000E+00
    0.63327E+06        -0.38272E+08         0.00000E+00
    0.00000E+00         0.00000E+00        -0.16494E+08
 
   -0.17369E+08         0.63060E+06         0.00000E+00
    0.63060E+06        -0.38532E+08         0.00000E+00
    0.00000E+00         0.00000E+00        -0.16612E+08
 
   -0.17511E+08         0.62486E+06         0.00000E+00
    0.62486E+06        -0.38776E+08         0.00000E+00
    0.00000E+00         0.00000E+00        -0.16728E+08
 
   -0.17641E+08         0.61669E+06         0.00000E+00
    0.61669E+06        -0.39006E+08         0.00000E+00
    0.00000E+00         0.00000E+00        -0.16842E+08
 
   -0.17759E+08         0.60663E+06         0.00000E+00
    0.60663E+06        -0.39224E+08         0.00000E+00
    0.00000E+00         0.00000E+00        -0.16953E+08
 
   -0.17867E+08         0.59514E+06         0.00000E+00
    0.59514E+06        -0.39430E+08         0.00000E+00
    0.00000E+00         0.00000E+00        -0.17062E+08
 
   -0.17965E+08         0.58262E+06         0.00000E+00
    0.58262E+06        -0.39625E+08         0.00000E+00
    0.00000E+00         0.00000E+00        -0.17168E+08
 
   -0.18056E+08         0.56939E+06         0.00000E+00
    0.56939E+06        -0.39810E+08         0.00000E+00
    0.00000E+00         0.00000E+00        -0.17272E+08
 
   -0.18139E+08         0.55570E+06         0.00000E+00
    0.55570E+06        -0.39986E+08         0.00000E+00
    0.00000E+00         0.00000E+00        -0.17372E+08
 
   -0.18216E+08         0.54178E+06         0.00000E+00
    0.54178E+06        -0.40154E+08         0.00000E+00
    0.00000E+00         0.00000E+00        -0.17471E+08
 
   -0.18287E+08         0.52782E+06         0.00000E+00
    0.52782E+06        -0.40314E+08         0.00000E+00
    0.00000E+00         0.00000E+00        -0.17566E+08
 
   -0.18354E+08         0.51395E+06         0.00000E+00
    0.51395E+06        -0.40466E+08         0.00000E+00
    0.00000E+00         0.00000E+00        -0.17659E+08
 
   -0.18416E+08         0.50031E+06         0.00000E+00
    0.50031E+06        -0.40612E+08         0.00000E+00
    0.00000E+00         0.00000E+00        -0.17749E+08
 
   -0.18474E+08         0.48698E+06         0.00000E+00
    0.48698E+06        -0.40751E+08         0.00000E+00
    0.00000E+00         0.00000E+00        -0.17836E+08
 
   -0.18528E+08         0.47405E+06         0.00000E+00
    0.47405E+06        -0.40885E+08         0.00000E+00
    0.00000E+00         0.00000E+00        -0.17922E+08
 
   -0.18579E+08         0.46157E+06         0.00000E+00
    0.46157E+06        -0.41014E+08         0.00000E+00
    0.00000E+00         0.00000E+00        -0.18005E+08
 
   -0.18627E+08         0.44961E+06         0.00000E+00
    0.44961E+06        -0.41137E+08         0.00000E+00
    0.00000E+00         0.00000E+00        -0.18085E+08
 
   -0.18673E+08         0.43818E+06         0.00000E+00
    0.43818E+06        -0.41257E+08         0.00000E+00
    0.00000E+00         0.00000E+00        -0.18164E+08
 
   -0.18717E+08         0.42733E+06         0.00000E+00
    0.42733E+06        -0.41372E+08         0.00000E+00
    0.00000E+00         0.00000E+00        -0.18241E+08
 
   -0.18759E+08         0.41708E+06         0.00000E+00
    0.41708E+06        -0.41483E+08         0.00000E+00
    0.00000E+00         0.00000E+00        -0.18316E+08
 
   -0.18798E+08         0.40744E+06         0.00000E+00
    0.40744E+06        -0.41591E+08         0.00000E+00
    0.00000E+00         0.00000E+00        -0.18389E+08
 
   -0.18837E+08         0.39843E+06         0.00000E+00
    0.39843E+06        -0.41696E+08         0.00000E+00
    0.00000E+00         0.00000E+00        -0.18460E+08
 
   -0.18874E+08         0.39004E+06         0.00000E+00
    0.39004E+06        -0.41799E+08         0.00000E+00
    0.00000E+00         0.00000E+00        -0.18530E+08
 
   -0.18909E+08         0.38229E+06         0.00000E+00
    0.38229E+06        -0.41898E+08         0.00000E+00
    0.00000E+00         0.00000E+00        -0.18599E+08
 
   -0.18944E+08         0.37517E+06         0.00000E+00
    0.37517E+06        -0.41996E+08         0.00000E+00
    0.00000E+00         0.00000E+00        -0.18666E+08
 
   -0.18978E+08         0.36868E+06         0.00000E+00
    0.36868E+06        -0.42091E+08         0.00000E+00
    0.00000E+00         0.00000E+00        -0.18733E+08
 
   -0.19011E+08         0.36282E+06         0.00000E+00
    0.36282E+06        -0.42185E+08         0.00000E+00
    0.00000E+00         0.00000E+00        -0.18798E+08
 
   -0.19044E+08         0.35759E+06         0.00000E+00
    0.35759E+06        -0.42277E+08         0.00000E+00
    0.00000E+00         0.00000E+00        -0.18862E+08
 
   -0.19076E+08         0.35296E+06         0.00000E+00
    0.35296E+06        -0.42368E+08         0.00000E+00
    0.00000E+00         0.00000E+00        -0.18926E+08
 
   -0.19108E+08         0.34894E+06         0.00000E+00
    0.34894E+06        -0.42458E+08         0.00000E+00
    0.00000E+00         0.00000E+00        -0.18989E+08
 
   -0.19140E+08         0.34552E+06         0.00000E+00
    0.34552E+06        -0.42547E+08         0.00000E+00
    0.00000E+00         0.00000E+00        -0.19051E+08
 
   -0.19172E+08         0.34269E+06         0.00000E+00
    0.34269E+06        -0.42636E+08         0.00000E+00
    0.00000E+00         0.00000E+00        -0.19113E+08
 
   -0.19204E+08         0.34043E+06         0.00000E+00
    0.34043E+06        -0.42725E+08         0.00000E+00
    0.00000E+00         0.00000E+00        -0.19175E+08
 
   -0.19236E+08         0.33873E+06         0.00000E+00
    0.33873E+06        -0.42813E+08         0.00000E+00
    0.00000E+00         0.00000E+00        -0.19236E+08
 
   -0.19268E+08         0.33758E+06         0.00000E+00
    0.33758E+06        -0.42902E+08         0.00000E+00
    0.00000E+00         0.00000E+00        -0.19298E+08
 
   -0.19301E+08         0.33697E+06         0.00000E+00
    0.33697E+06        -0.42991E+08         0.00000E+00
    0.00000E+00         0.00000E+00        -0.19359E+08
 
   -0.19334E+08         0.33686E+06         0.00000E+00
    0.33686E+06        -0.43080E+08         0.00000E+00
    0.00000E+00         0.00000E+00        -0.19421E+08
 
   -0.19368E+08         0.33726E+06         0.00000E+00
    0.33726E+06        -0.43171E+08         0.00000E+00
    0.00000E+00         0.00000E+00        -0.19483E+08
 
   -0.19403E+08         0.33814E+06         0.00000E+00
    0.33814E+06        -0.43263E+08         0.00000E+00
    0.00000E+00         0.00000E+00        -0.19545E+08
 
   -0.19439E+08         0.33947E+06         0.00000E+00
    0.33947E+06        -0.43356E+08         0.00000E+00
    0.00000E+00         0.00000E+00        -0.19608E+08
 
   -0.19476E+08         0.34123E+06         0.00000E+00
    0.34123E+06        -0.43450E+08         0.00000E+00
    0.00000E+00         0.00000E+00        -0.19671E+08
 
   -0.19515E+08         0.34340E+06         0.00000E+00
    0.34340E+06        -0.43547E+08         0.00000E+00
    0.00000E+00         0.00000E+00        -0.19735E+08
 
   -0.19555E+08         0.34594E+06         0.00000E+00
    0.34594E+06        -0.43646E+08         0.00000E+00
    0.00000E+00         0.00000E+00        -0.19800E+08
 
   -0.19597E+08         0.34883E+06         0.00000E+00
    0.34883E+06        -0.43747E+08         0.00000E+00
    0.00000E+00         0.00000E+00        -0.19866E+08
 
   -0.19641E+08         0.35202E+06         0.00000E+00
    0.35202E+06        -0.43851E+08         0.00000E+00
    0.00000E+00         0.00000E+00        -0.19932E+08
 
   -0.19687E+08         0.35546E+06         0.00000E+00
    0.35546E+06        -0.43958E+08         0.00000E+00
    0.00000E+00         0.00000E+00        -0.20000E+08
 
   -0.19735E+08         0.35912E+06         0.00000E+00
    0.35912E+06        -0.44069E+08         0.00000E+00
    0.00000E+00         0.00000E+00        -0.20069E+08
 
   -0.19786E+08         0.36293E+06         0.00000E+00
    0.36293E+06        -0.44183E+08         0.00000E+00
    0.00000E+00         0.00000E+00        -0.20140E+08
 
   -0.19840E+08         0.36682E+06         0.00000E+00
    0.36682E+06        -0.44302E+08         0.00000E+00
    0.00000E+00         0.00000E+00        -0.20212E+08
 
   -0.19898E+08         0.37073E+06         0.00000E+00
    0.37073E+06        -0.44425E+08         0.00000E+00
    0.00000E+00         0.00000E+00        -0.20285E+08
 
   -0.19959E+08         0.37456E+06         0.00000E+00
    0.37456E+06        -0.44553E+08         0.00000E+00
    0.00000E+00         0.00000E+00        -0.20360E+08
 
   -0.20024E+08         0.37821E+06         0.00000E+00
    0.37821E+06        -0.44687E+08         0.00000E+00
    0.00000E+00         0.00000E+00        -0.20437E+08
 
   -0.20094E+08         0.38158E+06         0.00000E+00
    0.38158E+06        -0.44827E+08         0.00000E+00
    0.00000E+00         0.00000E+00        -0.20516E+08
 
   -0.20169E+08         0.38452E+06         0.00000E+00
    0.38452E+06        -0.44974E+08         0.00000E+00
    0.00000E+00         0.00000E+00        -0.20596E+08
 
   -0.20250E+08         0.38688E+06         0.00000E+00
    0.38688E+06        -0.45127E+08         0.00000E+00
    0.00000E+00         0.00000E+00        -0.20679E+08
 
   -0.20336E+08         0.38848E+06         0.00000E+00
    0.38848E+06        -0.45289E+08         0.00000E+00
    0.00000E+00         0.00000E+00        -0.20763E+08
 
   -0.20430E+08         0.38912E+06         0.00000E+00
    0.38912E+06        -0.45460E+08         0.00000E+00
    0.00000E+00         0.00000E+00        -0.20850E+08
 
   -0.20532E+08         0.38855E+06         0.00000E+00
    0.38855E+06        -0.45640E+08         0.00000E+00
    0.00000E+00         0.00000E+00        -0.20939E+08
 
   -0.20641E+08         0.38651E+06         0.00000E+00
    0.38651E+06        -0.45830E+08         0.00000E+00
    0.00000E+00         0.00000E+00        -0.21030E+08
 
   -0.20761E+08         0.38269E+06         0.00000E+00
    0.38269E+06        -0.46032E+08         0.00000E+00
    0.00000E+00         0.00000E+00        -0.21123E+08
 
   -0.20891E+08         0.37673E+06         0.00000E+00
    0.37673E+06        -0.46246E+08         0.00000E+00
    0.00000E+00         0.00000E+00        -0.21219E+08
 
   -0.21032E+08         0.36824E+06         0.00000E+00
    0.36824E+06        -0.46473E+08         0.00000E+00
    0.00000E+00         0.00000E+00        -0.21317E+08
 
   -0.21187E+08         0.35678E+06         0.00000E+00
    0.35678E+06        -0.46715E+08         0.00000E+00
    0.00000E+00         0.00000E+00        -0.21418E+08
 
   -0.21356E+08         0.34188E+06         0.00000E+00
    0.34188E+06        -0.46973E+08         0.00000E+00
    0.00000E+00         0.00000E+00        -0.21520E+08
 
   -0.21542E+08         0.32302E+06         0.00000E+00
    0.32302E+06        -0.47249E+08         0.00000E+00
    0.00000E+00         0.00000E+00        -0.21625E+08
 
   -0.21745E+08         0.29969E+06         0.00000E+00
    0.29969E+06        -0.47543E+08         0.00000E+00
    0.00000E+00         0.00000E+00        -0.21732E+08
 
   -0.21967E+08         0.27136E+06         0.00000E+00
    0.27136E+06        -0.47858E+08         0.00000E+00
    0.00000E+00         0.00000E+00        -0.21842E+08
 
   -0.22212E+08         0.23754E+06         0.00000E+00
    0.23754E+06        -0.48194E+08         0.00000E+00
    0.00000E+00         0.00000E+00        -0.21953E+08
 
   -0.22480E+08         0.19784E+06         0.00000E+00
    0.19784E+06        -0.48554E+08         0.00000E+00
    0.00000E+00         0.00000E+00        -0.22067E+08
 
   -0.22773E+08         0.15204E+06         0.00000E+00
    0.15204E+06        -0.48938E+08         0.00000E+00
    0.00000E+00         0.00000E+00        -0.22182E+08
 
   -0.23095E+08         0.10018E+06         0.00000E+00
    0.10018E+06        -0.49348E+08         0.00000E+00
    0.00000E+00         0.00000E+00        -0.22298E+08
 
   -0.23446E+08         0.42711E+05         0.00000E+00
    0.42711E+05        -0.49784E+08         0.00000E+00
    0.00000E+00         0.00000E+00        -0.22416E+08
 
   -0.23828E+08        -0.19279E+05         0.00000E+00
   -0.19279E+05        -0.50247E+08         0.00000E+00
    0.00000E+00         0.00000E+00        -0.22536E+08
 
   -0.24242E+08        -0.83778E+05         0.00000E+00
   -0.83778E+05        -0.50736E+08         0.00000E+00
    0.00000E+00         0.00000E+00        -0.22656E+08
 
   -0.24686E+08        -0.14734E+06         0.00000E+00
   -0.14734E+06        -0.51249E+08         0.00000E+00
    0.00000E+00         0.00000E+00        -0.22777E+08
 
   -0.25158E+08        -0.20423E+06         0.00000E+00
   -0.20423E+06        -0.51783E+08         0.00000E+00
    0.00000E+00         0.00000E+00        -0.22899E+08
 
   -0.25649E+08        -0.24461E+06         0.00000E+00
   -0.24461E+06        -0.52329E+08         0.00000E+00
    0.00000E+00         0.00000E+00        -0.23019E+08
 
   -0.26145E+08        -0.25116E+06         0.00000E+00
   -0.25116E+06        -0.52869E+08         0.00000E+00
    0.00000E+00         0.00000E+00        -0.23133E+08
 
   -0.26626E+08        -0.19946E+06         0.00000E+00
   -0.19946E+06        -0.53364E+08         0.00000E+00
    0.00000E+00         0.00000E+00        -0.23219E+08
 
   -0.27074E+08        -0.78137E+05         0.00000E+00
   -0.78137E+05        -0.53752E+08         0.00000E+00
    0.00000E+00         0.00000E+00        -0.23234E+08
 
   -0.84356E+07        -0.14558E+06         0.00000E+00
   -0.14558E+06        -0.27490E+08         0.00000E+00
    0.00000E+00         0.00000E+00        -0.15316E+08
 
   -0.89226E+07        -0.37938E+06         0.00000E+00
   -0.37938E+06        -0.28111E+08         0.00000E+00
    0.00000E+00         0.00000E+00        -0.15241E+08
 
   -0.95195E+07        -0.47986E+06         0.00000E+00
   -0.47986E+06        -0.28882E+08         0.00000E+00
    0.00000E+00         0.00000E+00        -0.15211E+08
 
   -0.10168E+08        -0.47015E+06         0.00000E+00
   -0.47015E+06        -0.29703E+08         0.00000E+00
    0.00000E+00         0.00000E+00        -0.15194E+08
 
   -0.10832E+08        -0.39851E+06         0.00000E+00
   -0.39851E+06        -0.30518E+08         0.00000E+00
    0.00000E+00         0.00000E+00        -0.15181E+08
 
   -0.11491E+08        -0.29627E+06         0.00000E+00
   -0.29627E+06        -0.31298E+08         0.00000E+00
    0.00000E+00         0.00000E+00        -0.15177E+08
 
   -0.12128E+08        -0.18104E+06         0.00000E+00
   -0.18104E+06        -0.32033E+08         0.00000E+00
    0.00000E+00         0.00000E+00        -0.15186E+08
 
   -0.12735E+08        -0.63737E+05         0.00000E+00
   -0.63737E+05        -0.32720E+08         0.00000E+00
    0.00000E+00         0.00000E+00        -0.15210E+08
 
   -0.13304E+08         0.48647E+05         0.00000E+00
    0.48647E+05        -0.33359E+08         0.00000E+00
    0.00000E+00         0.00000E+00        -0.15252E+08
 
   -0.13832E+08         0.15182E+06         0.00000E+00
    0.15182E+06        -0.33952E+08         0.00000E+00
    0.00000E+00         0.00000E+00        -0.15309E+08
 
   -0.14317E+08         0.24340E+06         0.00000E+00
    0.24340E+06        -0.34502E+08         0.00000E+00
    0.00000E+00         0.00000E+00        -0.15382E+08
 
   -0.14760E+08         0.32240E+06         0.00000E+00
    0.32240E+06        -0.35012E+08         0.00000E+00
    0.00000E+00         0.00000E+00        -0.15467E+08
 
   -0.15161E+08         0.38879E+06         0.00000E+00
    0.38879E+06        -0.35485E+08         0.00000E+00
    0.00000E+00         0.00000E+00        -0.15562E+08
 
   -0.15525E+08         0.44316E+06         0.00000E+00
    0.44316E+06        -0.35925E+08         0.00000E+00
    0.00000E+00         0.00000E+00        -0.15665E+08
 
   -0.15852E+08         0.48647E+06         0.00000E+00
    0.48647E+06        -0.36335E+08         0.00000E+00
    0.00000E+00         0.00000E+00        -0.15775E+08
 
   -0.16146E+08         0.51989E+06         0.00000E+00
    0.51989E+06        -0.36716E+08         0.00000E+00
    0.00000E+00         0.00000E+00        -0.15890E+08
 
   -0.16411E+08         0.54462E+06         0.00000E+00
    0.54462E+06        -0.37073E+08         0.00000E+00
    0.00000E+00         0.00000E+00        -0.16007E+08
 
   -0.16649E+08         0.56189E+06         0.00000E+00
    0.56189E+06        -0.37406E+08         0.00000E+00
    0.00000E+00         0.00000E+00        -0.16126E+08
 
   -0.16863E+08         0.57281E+06         0.00000E+00
    0.57281E+06        -0.37718E+08         0.00000E+00
    0.00000E+00         0.00000E+00        -0.16246E+08
 
   -0.17055E+08         0.57844E+06         0.00000E+00
    0.57844E+06        -0.38010E+08         0.00000E+00
    0.00000E+00         0.00000E+00        -0.16366E+08
 
   -0.17229E+08         0.57969E+06         0.00000E+00
    0.57969E+06        -0.38285E+08         0.00000E+00
    0.00000E+00         0.00000E+00        -0.16485E+08
 
   -0.17386E+08         0.57737E+06         0.00000E+00
    0.57737E+06        -0.38544E+08         0.00000E+00
    0.00000E+00         0.00000E+00        -0.16603E+08
 
   -0.17528E+08         0.57219E+06         0.00000E+00
    0.57219E+06        -0.38787E+08         0.00000E+00
    0.00000E+00         0.00000E+00        -0.16719E+08
 
   -0.17657E+08         0.56475E+06         0.00000E+00
    0.56475E+06        -0.39017E+08         0.00000E+00
    0.00000E+00         0.00000E+00        -0.16833E+08
 
   -0.17774E+08         0.55556E+06         0.00000E+00
    0.55556E+06        -0.39234E+08         0.00000E+00
    0.00000E+00         0.00000E+00        -0.16944E+08
 
   -0.17881E+08         0.54504E+06         0.00000E+00
    0.54504E+06        -0.39439E+08         0.00000E+00
    0.00000E+00         0.00000E+00        -0.17053E+08
 
   -0.17979E+08         0.53357E+06         0.00000E+00
    0.53357E+06        -0.39634E+08         0.00000E+00
    0.00000E+00         0.00000E+00        -0.17160E+08
 
   -0.18068E+08         0.52143E+06         0.00000E+00
    0.52143E+06        -0.39819E+08         0.00000E+00
    0.00000E+00         0.00000E+00        -0.17264E+08
 
   -0.18151E+08         0.50887E+06         0.00000E+00
    0.50887E+06        -0.39994E+08         0.00000E+00
    0.00000E+00         0.00000E+00        -0.17365E+08
 
   -0.18227E+08         0.49611E+06         0.00000E+00
    0.49611E+06        -0.40161E+08         0.00000E+00
    0.00000E+00         0.00000E+00        -0.17463E+08
 
   -0.18298E+08         0.48329E+06         0.00000E+00
    0.48329E+06        -0.40320E+08         0.00000E+00
    0.00000E+00         0.00000E+00        -0.17559E+08
 
   -0.18364E+08         0.47057E+06         0.00000E+00
    0.47057E+06        -0.40472E+08         0.00000E+00
    0.00000E+00         0.00000E+00        -0.17652E+08
 
   -0.18425E+08         0.45806E+06         0.00000E+00
    0.45806E+06        -0.40618E+08         0.00000E+00
    0.00000E+00         0.00000E+00        -0.17742E+08
 
   -0.18482E+08         0.44583E+06         0.00000E+00
    0.44583E+06        -0.40757E+08         0.00000E+00
    0.00000E+00         0.00000E+00        -0.17830E+08
 
   -0.18536E+08         0.43397E+06         0.00000E+00
    0.43397E+06        -0.40890E+08         0.00000E+00
    0.00000E+00         0.00000E+00        -0.17916E+08
 
   -0.18587E+08         0.42253E+06         0.00000E+00
    0.42253E+06        -0.41019E+08         0.00000E+00
    0.00000E+00         0.00000E+00        -0.17999E+08
 
   -0.18634E+08         0.41155E+06         0.00000E+00
    0.41155E+06        -0.41142E+08         0.00000E+00
    0.00000E+00         0.00000E+00        -0.18081E+08
 
   -0.18680E+08         0.40108E+06         0.00000E+00
    0.40108E+06        -0.41261E+08         0.00000E+00
    0.00000E+00         0.00000E+00        -0.18160E+08
 
   -0.18723E+08         0.39113E+06         0.00000E+00
    0.39113E+06        -0.41376E+08         0.00000E+00
    0.00000E+00         0.00000E+00        -0.18237E+08
 
   -0.18764E+08         0.38173E+06         0.00000E+00
    0.38173E+06        -0.41487E+08         0.00000E+00
    0.00000E+00         0.00000E+00        -0.18312E+08
 
   -0.18803E+08         0.37290E+06         0.00000E+00
    0.37290E+06        -0.41595E+08         0.00000E+00
    0.00000E+00         0.00000E+00        -0.18385E+08
 
   -0.18841E+08         0.36463E+06         0.00000E+00
    0.36463E+06        -0.41699E+08         0.00000E+00
    0.00000E+00         0.00000E+00        -0.18457E+08
 
   -0.18878E+08         0.35695E+06         0.00000E+00
    0.35695E+06        -0.41801E+08         0.00000E+00
    0.00000E+00         0.00000E+00        -0.18527E+08
 
   -0.18913E+08         0.34984E+06         0.00000E+00
    0.34984E+06        -0.41901E+08         0.00000E+00
    0.00000E+00         0.00000E+00        -0.18596E+08
 
   -0.18947E+08         0.34332E+06         0.00000E+00
    0.34332E+06        -0.41998E+08         0.00000E+00
    0.00000E+00         0.00000E+00        -0.18664E+08
 
   -0.18981E+08         0.33737E+06         0.00000E+00
    0.33737E+06        -0.42093E+08         0.00000E+00
    0.00000E+00         0.00000E+00        -0.18730E+08
 
   -0.19014E+08         0.33200E+06         0.00000E+00
    0.33200E+06        -0.42187E+08         0.00000E+00
    0.00000E+00         0.00000E+00        -0.18796E+08
 
   -0.19046E+08         0.32719E+06         0.00000E+00
    0.32719E+06        -0.42279E+08         0.00000E+00
    0.00000E+00         0.00000E+00        -0.18860E+08
 
   -0.19078E+08         0.32296E+06         0.00000E+00
    0.32296E+06        -0.42369E+08         0.00000E+00
    0.00000E+00         0.00000E+00        -0.18924E+08
 
   -0.19109E+08         0.31927E+06         0.00000E+00
    0.31927E+06        -0.42459E+08         0.00000E+00
    0.00000E+00         0.00000E+00        -0.18987E+08
 
   -0.19141E+08         0.31614E+06         0.00000E+00
    0.31614E+06        -0.42548E+08         0.00000E+00
    0.00000E+00         0.00000E+00        -0.19050E+08
 
   -0.19172E+08         0.31354E+06         0.00000E+00
    0.31354E+06        -0.42637E+08         0.00000E+00
    0.00000E+00         0.00000E+00        -0.19112E+08
 
   -0.19203E+08         0.31146E+06         0.00000E+00
    0.31146E+06        -0.42725E+08         0.00000E+00
    0.00000E+00         0.00000E+00        -0.19174E+08
 
   -0.19235E+08         0.30990E+06         0.00000E+00
    0.30990E+06        -0.42813E+08         0.00000E+00
    0.00000E+00         0.00000E+00        -0.19236E+08
 
   -0.19267E+08         0.30884E+06         0.00000E+00
    0.30884E+06        -0.42902E+08         0.00000E+00
    0.00000E+00         0.00000E+00        -0.19297E+08
 
   -0.19299E+08         0.30827E+06         0.00000E+00
    0.30827E+06        -0.42991E+08         0.00000E+00
    0.00000E+00         0.00000E+00        -0.19359E+08
 
   -0.19332E+08         0.30818E+06         0.00000E+00
    0.30818E+06        -0.43080E+08         0.00000E+00
    0.00000E+00         0.00000E+00        -0.19421E+08
 
   -0.19366E+08         0.30853E+06         0.00000E+00
    0.30853E+06        -0.43170E+08         0.00000E+00
    0.00000E+00         0.00000E+00        -0.19483E+08
 
   -0.19401E+08         0.30933E+06         0.00000E+00
    0.30933E+06        -0.43262E+08         0.00000E+00
    0.00000E+00         0.00000E+00        -0.19545E+08
 
   -0.19436E+08         0.31054E+06         0.00000E+00
    0.31054E+06        -0.43355E+08         0.00000E+00
    0.00000E+00         0.00000E+00        -0.19608E+08
 
   -0.19473E+08         0.31215E+06         0.00000E+00
    0.31215E+06        -0.43449E+08         0.00000E+00
    0.00000E+00         0.00000E+00        -0.19672E+08
 
   -0.19511E+08         0.31413E+06         0.00000E+00
    0.31413E+06        -0.43545E+08         0.00000E+00
    0.00000E+00         0.00000E+00        -0.19736E+08
 
   -0.19551E+08         0.31646E+06         0.00000E+00
    0.31646E+06        -0.43644E+08         0.00000E+00
    0.00000E+00         0.00000E+00        -0.19801E+08
 
   -0.19592E+08         0.31909E+06         0.00000E+00
    0.31909E+06        -0.43745E+08         0.00000E+00
    0.00000E+00         0.00000E+00        -0.19867E+08
 
   -0.19635E+08         0.32201E+06         0.00000E+00
    0.32201E+06        -0.43849E+08         0.00000E+00
    0.00000E+00         0.00000E+00        -0.19934E+08
 
   -0.19681E+08         0.32516E+06         0.00000E+00
    0.32516E+06        -0.43956E+08         0.00000E+00
    0.00000E+00         0.00000E+00        -0.20002E+08
 
   -0.19729E+08         0.32850E+06         0.00000E+00
    0.32850E+06        -0.44066E+08         0.00000E+00
    0.00000E+00         0.00000E+00        -0.20071E+08
 
   -0.19780E+08         0.33198E+06         0.00000E+00
    0.33198E+06        -0.44180E+08         0.00000E+00
    0.00000E+00         0.00000E+00        -0.20142E+08
 
   -0.19833E+08         0.33555E+06         0.00000E+00
    0.33555E+06        -0.44298E+08         0.00000E+00
    0.00000E+00         0.00000E+00        -0.20214E+08
 
   -0.19890E+08         0.33912E+06         0.00000E+00
    0.33912E+06        -0.44421E+08         0.00000E+00
    0.00000E+00         0.00000E+00        -0.20287E+08
 
   -0.19951E+08         0.34262E+06         0.00000E+00
    0.34262E+06        -0.44549E+08         0.00000E+00
    0.00000E+00         0.00000E+00        -0.20363E+08
 
   -0.20016E+08         0.34596E+06         0.00000E+00
    0.34596E+06        -0.44683E+08         0.00000E+00
    0.00000E+00         0.00000E+00        -0.20439E+08
 
   -0.20085E+08         0.34904E+06         0.00000E+00
    0.34904E+06        -0.44822E+08         0.00000E+00
    0.00000E+00         0.00000E+00        -0.20518E+08
 
   -0.20160E+08         0.35172E+06         0.00000E+00
    0.35172E+06        -0.44969E+08         0.00000E+00
    0.00000E+00         0.00000E+00        -0.20599E+08
 
   -0.20240E+08         0.35387E+06         0.00000E+00
    0.35387E+06        -0.45122E+08         0.00000E+00
    0.00000E+00         0.00000E+00        -0.20681E+08
 
   -0.20326E+08         0.35532E+06         0.00000E+00
    0.35532E+06        -0.45284E+08         0.00000E+00
    0.00000E+00         0.00000E+00        -0.20766E+08
 
   -0.20419E+08         0.35588E+06         0.00000E+00
    0.35588E+06        -0.45454E+08         0.00000E+00
    0.00000E+00         0.00000E+00        -0.20853E+08
 
   -0.20520E+08         0.35532E+06         0.00000E+00
    0.35532E+06        -0.45633E+08         0.00000E+00
    0.00000E+00         0.00000E+00        -0.20941E+08
 
   -0.20630E+08         0.35341E+06         0.00000E+00
    0.35341E+06        -0.45823E+08         0.00000E+00
    0.00000E+00         0.00000E+00        -0.21032E+08
 
   -0.20749E+08         0.34983E+06         0.00000E+00
    0.34983E+06        -0.46024E+08         0.00000E+00
    0.00000E+00         0.00000E+00        -0.21126E+08
 
   -0.20878E+08         0.34428E+06         0.00000E+00
    0.34428E+06        -0.46238E+08         0.00000E+00
    0.00000E+00         0.00000E+00        -0.21221E+08
 
   -0.21020E+08         0.33637E+06         0.00000E+00
    0.33637E+06        -0.46464E+08         0.00000E+00
    0.00000E+00         0.00000E+00        -0.21319E+08
 
   -0.21175E+08         0.32569E+06         0.00000E+00
    0.32569E+06        -0.46706E+08         0.00000E+00
    0.00000E+00         0.00000E+00        -0.21419E+08
 
   -0.21344E+08         0.31180E+06         0.00000E+00
    0.31180E+06        -0.46964E+08         0.00000E+00
    0.00000E+00         0.00000E+00        -0.21521E+08
 
   -0.21529E+08         0.29422E+06         0.00000E+00
    0.29422E+06        -0.47239E+08         0.00000E+00
    0.00000E+00         0.00000E+00        -0.21625E+08
 
   -0.21733E+08         0.27244E+06         0.00000E+00
    0.27244E+06        -0.47533E+08         0.00000E+00
    0.00000E+00         0.00000E+00        -0.21732E+08
 
   -0.21957E+08         0.24596E+06         0.00000E+00
    0.24596E+06        -0.47848E+08         0.00000E+00
    0.00000E+00         0.00000E+00        -0.21840E+08
 
   -0.22203E+08         0.21430E+06         0.00000E+00
    0.21430E+06        -0.48184E+08         0.00000E+00
    0.00000E+00         0.00000E+00        -0.21950E+08
 
   -0.22473E+08         0.17709E+06         0.00000E+00
    0.17709E+06        -0.48544E+08         0.00000E+00
    0.00000E+00         0.00000E+00        -0.22062E+08
 
   -0.22770E+08         0.13407E+06         0.00000E+00
    0.13407E+06        -0.48930E+08         0.00000E+00
    0.00000E+00         0.00000E+00        -0.22176E+08
 
   -0.23096E+08         0.85237E+05         0.00000E+00
    0.85237E+05        -0.49341E+08         0.00000E+00
    0.00000E+00         0.00000E+00        -0.22291E+08
 
   -0.23452E+08         0.30966E+05         0.00000E+00
    0.30966E+05        -0.49780E+08         0.00000E+00
    0.00000E+00         0.00000E+00        -0.22407E+08
 
   -0.23842E+08        -0.27813E+05         0.00000E+00
   -0.27813E+05        -0.50247E+08         0.00000E+00
    0.00000E+00         0.00000E+00        -0.22524E+08
 
   -0.24264E+08        -0.89331E+05         0.00000E+00
   -0.89331E+05        -0.50741E+08         0.00000E+00
    0.00000E+00         0.00000E+00        -0.22642E+08
 
   -0.24719E+08        -0.15052E+06         0.00000E+00
   -0.15052E+06        -0.51261E+08         0.00000E+00
    0.00000E+00         0.00000E+00        -0.22760E+08
 
   -0.25204E+08        -0.20621E+06         0.00000E+00
   -0.20621E+06        -0.51804E+08         0.00000E+00
    0.00000E+00         0.00000E+00        -0.22880E+08
 
   -0.25711E+08        -0.24734E+06         0.00000E+00
   -0.24734E+06        -0.52362E+08         0.00000E+00
    0.00000E+00         0.00000E+00        -0.23000E+08
 
   -0.26225E+08        -0.25681E+06         0.00000E+00
   -0.25681E+06        -0.52917E+08         0.00000E+00
    0.00000E+00         0.00000E+00        -0.23115E+08
 
   -0.26723E+08        -0.20732E+06         0.00000E+00
   -0.20732E+06        -0.53432E+08         0.00000E+00
    0.00000E+00         0.00000E+00        -0.23207E+08
 
   -0.27182E+08        -0.82265E+05         0.00000E+00
   -0.82265E+05        -0.53834E+08         0.00000E+00
    0.00000E+00         0.00000E+00        -0.23229E+08
 
   -0.83293E+07        -0.15093E+06         0.00000E+00
   -0.15093E+06        -0.27352E+08         0.00000E+00
    0.00000E+00         0.00000E+00        -0.15343E+08
 
   -0.88253E+07        -0.38682E+06         0.00000E+00
   -0.38682E+06        -0.27998E+08         0.00000E+00
    0.00000E+00         0.00000E+00        -0.15277E+08
 
   -0.94377E+07        -0.47973E+06         0.00000E+00
   -0.47973E+06        -0.28800E+08         0.00000E+00
    0.00000E+00         0.00000E+00        -0.15252E+08
 
   -0.10102E+08        -0.46434E+06         0.00000E+00
   -0.46434E+06        -0.29648E+08         0.00000E+00
    0.00000E+00         0.00000E+00        -0.15234E+08
 
   -0.10781E+08        -0.39286E+06         0.00000E+00
   -0.39286E+06        -0.30482E+08         0.00000E+00
    0.00000E+00         0.00000E+00        -0.15217E+08
 
   -0.11452E+08        -0.29475E+06         0.00000E+00
   -0.29475E+06        -0.31277E+08         0.00000E+00
    0.00000E+00         0.00000E+00        -0.15208E+08
 
   -0.12102E+08        -0.18568E+06         0.00000E+00
   -0.18568E+06        -0.32024E+08         0.00000E+00
    0.00000E+00         0.00000E+00        -0.15211E+08
 
   -0.12719E+08        -0.75365E+05         0.00000E+00
   -0.75365E+05        -0.32719E+08         0.00000E+00
    0.00000E+00         0.00000E+00        -0.15230E+08
 
   -0.13297E+08         0.29962E+05         0.00000E+00
    0.29962E+05        -0.33364E+08         0.00000E+00
    0.00000E+00         0.00000E+00        -0.15266E+08
 
   -0.13832E+08         0.12646E+06         0.00000E+00
    0.12646E+06        -0.33961E+08         0.00000E+00
    0.00000E+00         0.00000E+00        -0.15319E+08
 
   -0.14323E+08         0.21201E+06         0.00000E+00
    0.21201E+06        -0.34514E+08         0.00000E+00
    0.00000E+00         0.00000E+00        -0.15387E+08
 
   -0.14770E+08         0.28574E+06         0.00000E+00
    0.28574E+06        -0.35026E+08         0.00000E+00
    0.00000E+00         0.00000E+00        -0.15468E+08
 
   -0.15175E+08         0.34766E+06         0.00000E+00
    0.34766E+06        -0.35500E+08         0.00000E+00
    0.00000E+00         0.00000E+00        -0.15561E+08
 
   -0.15541E+08         0.39834E+06         0.00000E+00
    0.39834E+06        -0.35941E+08         0.00000E+00
    0.00000E+00         0.00000E+00        -0.15662E+08
 
   -0.15870E+08         0.43871E+06         0.00000E+00
    0.43871E+06        -0.36351E+08         0.00000E+00
    0.00000E+00         0.00000E+00        -0.15770E+08
 
   -0.16165E+08         0.46985E+06         0.00000E+00
    0.46985E+06        -0.36732E+08         0.00000E+00
    0.00000E+00         0.00000E+00        -0.15883E+08
 
   -0.16430E+08         0.49292E+06         0.00000E+00
    0.49292E+06        -0.37088E+08         0.00000E+00
    0.00000E+00         0.00000E+00        -0.15999E+08
 
   -0.16668E+08         0.50905E+06         0.00000E+00
    0.50905E+06        -0.37421E+08         0.00000E+00
    0.00000E+00         0.00000E+00        -0.16118E+08
 
   -0.16882E+08         0.51930E+06         0.00000E+00
    0.51930E+06        -0.37732E+08         0.00000E+00
    0.00000E+00         0.00000E+00        -0.16237E+08
 
   -0.17074E+08         0.52464E+06         0.00000E+00
    0.52464E+06        -0.38024E+08         0.00000E+00
    0.00000E+00         0.00000E+00        -0.16357E+08
 
   -0.17247E+08         0.52593E+06         0.00000E+00
    0.52593E+06        -0.38298E+08         0.00000E+00
    0.00000E+00         0.00000E+00        -0.16476E+08
 
   -0.17403E+08         0.52393E+06         0.00000E+00
    0.52393E+06        -0.38556E+08         0.00000E+00
    0.00000E+00         0.00000E+00        -0.16593E+08
 
   -0.17545E+08         0.51928E+06         0.00000E+00
    0.51928E+06        -0.38799E+08         0.00000E+00
    0.00000E+00         0.00000E+00        -0.16709E+08
 
   -0.17673E+08         0.51256E+06         0.00000E+00
    0.51256E+06        -0.39028E+08         0.00000E+00
    0.00000E+00         0.00000E+00        -0.16823E+08
 
   -0.17789E+08         0.50422E+06         0.00000E+00
    0.50422E+06        -0.39244E+08         0.00000E+00
    0.00000E+00         0.00000E+00        -0.16935E+08
 
   -0.17895E+08         0.49467E+06         0.00000E+00
    0.49467E+06        -0.39449E+08         0.00000E+00
    0.00000E+00         0.00000E+00        -0.17045E+08
 
   -0.17992E+08         0.48424E+06         0.00000E+00
    0.48424E+06        -0.39643E+08         0.00000E+00
    0.00000E+00         0.00000E+00        -0.17152E+08
 
   -0.18081E+08         0.47320E+06         0.00000E+00
    0.47320E+06        -0.39827E+08         0.00000E+00
    0.00000E+00         0.00000E+00        -0.17256E+08
 
   -0.18163E+08         0.46178E+06         0.00000E+00
    0.46178E+06        -0.40002E+08         0.00000E+00
    0.00000E+00         0.00000E+00        -0.17357E+08
 
   -0.18239E+08         0.45017E+06         0.00000E+00
    0.45017E+06        -0.40168E+08         0.00000E+00
    0.00000E+00         0.00000E+00        -0.17456E+08
 
   -0.18309E+08         0.43852E+06         0.00000E+00
    0.43852E+06        -0.40327E+08         0.00000E+00
    0.00000E+00         0.00000E+00        -0.17552E+08
 
   -0.18374E+08         0.42695E+06         0.00000E+00
    0.42695E+06        -0.40479E+08         0.00000E+00
    0.00000E+00         0.00000E+00        -0.17645E+08
 
   -0.18435E+08         0.41557E+06         0.00000E+00
    0.41557E+06        -0.40624E+08         0.00000E+00
    0.00000E+00         0.00000E+00        -0.17736E+08
 
   -0.18491E+08         0.40446E+06         0.00000E+00
    0.40446E+06        -0.40762E+08         0.00000E+00
    0.00000E+00         0.00000E+00        -0.17825E+08
 
   -0.18544E+08         0.39367E+06         0.00000E+00
    0.39367E+06        -0.40895E+08         0.00000E+00
    0.00000E+00         0.00000E+00        -0.17911E+08
 
   -0.18594E+08         0.38328E+06         0.00000E+00
    0.38328E+06        -0.41023E+08         0.00000E+00
    0.00000E+00         0.00000E+00        -0.17994E+08
 
   -0.18641E+08         0.37330E+06         0.00000E+00
    0.37330E+06        -0.41146E+08         0.00000E+00
    0.00000E+00         0.00000E+00        -0.18076E+08
 
   -0.18686E+08         0.36378E+06         0.00000E+00
    0.36378E+06        -0.41265E+08         0.00000E+00
    0.00000E+00         0.00000E+00        -0.18155E+08
 
   -0.18729E+08         0.35475E+06         0.00000E+00
    0.35475E+06        -0.41380E+08         0.00000E+00
    0.00000E+00         0.00000E+00        -0.18232E+08
 
   -0.18769E+08         0.34621E+06         0.00000E+00
    0.34621E+06        -0.41491E+08         0.00000E+00
    0.00000E+00         0.00000E+00        -0.18308E+08
 
   -0.18808E+08         0.33818E+06         0.00000E+00
    0.33818E+06        -0.41598E+08         0.00000E+00
    0.00000E+00         0.00000E+00        -0.18382E+08
 
   -0.18846E+08         0.33067E+06         0.00000E+00
    0.33067E+06        -0.41702E+08         0.00000E+00
    0.00000E+00         0.00000E+00        -0.18454E+08
 
   -0.18882E+08         0.32369E+06         0.00000E+00
    0.32369E+06        -0.41804E+08         0.00000E+00
    0.00000E+00         0.00000E+00        -0.18524E+08
 
   -0.18916E+08         0.31724E+06         0.00000E+00
    0.31724E+06        -0.41903E+08         0.00000E+00
    0.00000E+00         0.00000E+00        -0.18593E+08
 
   -0.18950E+08         0.31131E+06         0.00000E+00
    0.31131E+06        -0.42000E+08         0.00000E+00
    0.00000E+00         0.00000E+00        -0.18661E+08
 
   -0.18983E+08         0.30591E+06         0.00000E+00
    0.30591E+06        -0.42095E+08         0.00000E+00
    0.00000E+00         0.00000E+00        -0.18728E+08
 
   -0.19016E+08         0.30103E+06         0.00000E+00
    0.30103E+06        -0.42188E+08         0.00000E+00
    0.00000E+00         0.00000E+00        -0.18794E+08
 
   -0.19048E+08         0.29666E+06         0.00000E+00
    0.29666E+06        -0.42280E+08         0.00000E+00
    0.00000E+00         0.00000E+00        -0.18859E+08
 
   -0.19079E+08         0.29281E+06         0.00000E+00
    0.29281E+06        -0.42371E+08         0.00000E+00
    0.00000E+00         0.00000E+00        -0.18923E+08
 
   -0.19110E+08         0.28947E+06         0.00000E+00
    0.28947E+06        -0.42460E+08         0.00000E+00
    0.00000E+00         0.00000E+00        -0.18986E+08
 
   -0.19141E+08         0.28662E+06         0.00000E+00
    0.28662E+06        -0.42549E+08         0.00000E+00
    0.00000E+00         0.00000E+00        -0.19049E+08
 
   -0.19172E+08         0.28425E+06         0.00000E+00
    0.28425E+06        -0.42638E+08         0.00000E+00
    0.00000E+00         0.00000E+00        -0.19111E+08
 
   -0.19203E+08         0.28237E+06         0.00000E+00
    0.28237E+06        -0.42726E+08         0.00000E+00
    0.00000E+00         0.00000E+00        -0.19173E+08
 
   -0.19234E+08         0.28095E+06         0.00000E+00
    0.28095E+06        -0.42814E+08         0.00000E+00
    0.00000E+00         0.00000E+00        -0.19235E+08
 
   -0.19266E+08         0.27998E+06         0.00000E+00
    0.27998E+06        -0.42902E+08         0.00000E+00
    0.00000E+00         0.00000E+00        -0.19297E+08
 
   -0.19298E+08         0.27946E+06         0.00000E+00
    0.27946E+06        -0.42991E+08         0.00000E+00
    0.00000E+00         0.00000E+00        -0.19359E+08
 
   -0.19330E+08         0.27937E+06         0.00000E+00
    0.27937E+06        -0.43080E+08         0.00000E+00
    0.00000E+00         0.00000E+00        -0.19421E+08
 
   -0.19364E+08         0.27969E+06         0.00000E+00
    0.27969E+06        -0.43170E+08         0.00000E+00
    0.00000E+00         0.00000E+00        -0.19483E+08
 
   -0.19398E+08         0.28041E+06         0.00000E+00
    0.28041E+06        -0.43261E+08         0.00000E+00
    0.00000E+00         0.00000E+00        -0.19546E+08
 
   -0.19433E+08         0.28150E+06         0.00000E+00
    0.28150E+06        -0.43354E+08         0.00000E+00
    0.00000E+00         0.00000E+00        -0.19609E+08
 
   -0.19469E+08         0.28296E+06         0.00000E+00
    0.28296E+06        -0.43448E+08         0.00000E+00
    0.00000E+00         0.00000E+00        -0.19672E+08
 
   -0.19507E+08         0.28475E+06         0.00000E+00
    0.28475E+06        -0.43544E+08         0.00000E+00
    0.00000E+00         0.00000E+00        -0.19737E+08
 
   -0.19546E+08         0.28686E+06         0.00000E+00
    0.28686E+06        -0.43642E+08         0.00000E+00
    0.00000E+00         0.00000E+00        -0.19802E+08
 
   -0.19587E+08         0.28925E+06         0.00000E+00
    0.28925E+06        -0.43743E+08         0.00000E+00
    0.00000E+00         0.00000E+00        -0.19868E+08
 
   -0.19630E+08         0.29189E+06         0.00000E+00
    0.29189E+06        -0.43847E+08         0.00000E+00
    0.00000E+00         0.00000E+00        -0.19935E+08
 
   -0.19675E+08         0.29474E+06         0.00000E+00
    0.29474E+06        -0.43953E+08         0.00000E+00
    0.00000E+00         0.00000E+00        -0.20003E+08
 
   -0.19723E+08         0.29777E+06         0.00000E+00
    0.29777E+06        -0.44063E+08         0.00000E+00
    0.00000E+00         0.00000E+00        -0.20073E+08
 
   -0.19773E+08         0.30093E+06         0.00000E+00
    0.30093E+06        -0.44177E+08         0.00000E+00
    0.00000E+00         0.00000E+00        -0.20144E+08
 
   -0.19826E+08         0.30416E+06         0.00000E+00
    0.30416E+06        -0.44295E+08         0.00000E+00
    0.00000E+00         0.00000E+00        -0.20216E+08
 
   -0.19883E+08         0.30740E+06         0.00000E+00
    0.30740E+06        -0.44418E+08         0.00000E+00
    0.00000E+00         0.00000E+00        -0.20289E+08
 
   -0.19943E+08         0.31058E+06         0.00000E+00
    0.31058E+06        -0.44545E+08         0.00000E+00
    0.00000E+00         0.00000E+00        -0.20365E+08
 
   -0.20008E+08         0.31361E+06         0.00000E+00
    0.31361E+06        -0.44679E+08         0.00000E+00
    0.00000E+00         0.00000E+00        -0.20442E+08
 
   -0.20076E+08         0.31639E+06         0.00000E+00
    0.31639E+06        -0.44818E+08         0.00000E+00
    0.00000E+00         0.00000E+00        -0.20521E+08
 
   -0.20150E+08         0.31882E+06         0.00000E+00
    0.31882E+06        -0.44964E+08         0.00000E+00
    0.00000E+00         0.00000E+00        -0.20601E+08
 
   -0.20230E+08         0.32077E+06         0.00000E+00
    0.32077E+06        -0.45117E+08         0.00000E+00
    0.00000E+00         0.00000E+00        -0.20684E+08
 
   -0.20316E+08         0.32207E+06         0.00000E+00
    0.32207E+06        -0.45278E+08         0.00000E+00
    0.00000E+00         0.00000E+00        -0.20768E+08
 
   -0.20408E+08         0.32256E+06         0.00000E+00
    0.32256E+06        -0.45447E+08         0.00000E+00
    0.00000E+00         0.00000E+00        -0.20855E+08
 
   -0.20509E+08         0.32203E+06         0.00000E+00
    0.32203E+06        -0.45626E+08         0.00000E+00
    0.00000E+00         0.00000E+00        -0.20944E+08
 
   -0.20618E+08         0.32025E+06         0.00000E+00
    0.32025E+06        -0.45816E+08         0.00000E+00
    0.00000E+00         0.00000E+00        -0.21035E+08
 
   -0.20737E+08         0.31695E+06         0.00000E+00
    0.31695E+06        -0.46016E+08         0.00000E+00
    0.00000E+00         0.00000E+00        -0.21128E+08
 
   -0.20866E+08         0.31183E+06         0.00000E+00
    0.31183E+06        -0.46229E+08         0.00000E+00
    0.00000E+00         0.00000E+00        -0.21223E+08
 
   -0.21007E+08         0.30454E+06         0.00000E+00
    0.30454E+06        -0.46455E+08         0.00000E+00
    0.00000E+00         0.00000E+00        -0.21321E+08
 
   -0.21162E+08         0.29470E+06         0.00000E+00
    0.29470E+06        -0.46697E+08         0.00000E+00
    0.00000E+00         0.00000E+00        -0.21420E+08
 
   -0.21331E+08         0.28189E+06         0.00000E+00
    0.28189E+06        -0.46954E+08         0.00000E+00
    0.00000E+00         0.00000E+00        -0.21522E+08
 
   -0.21517E+08         0.26565E+06         0.00000E+00
    0.26565E+06        -0.47229E+08         0.00000E+00
    0.00000E+00         0.00000E+00        -0.21626E+08
 
   -0.21721E+08         0.24552E+06         0.00000E+00
    0.24552E+06        -0.47522E+08         0.00000E+00
    0.00000E+00         0.00000E+00        -0.21732E+08
 
   -0.21946E+08         0.22101E+06         0.00000E+00
    0.22101E+06        -0.47837E+08         0.00000E+00
    0.00000E+00         0.00000E+00        -0.21839E+08
 
   -0.22193E+08         0.19167E+06         0.00000E+00
    0.19167E+06        -0.48174E+08         0.00000E+00
    0.00000E+00         0.00000E+00        -0.21948E+08
 
   -0.22466E+08         0.15712E+06         0.00000E+00
    0.15712E+06        -0.48535E+08         0.00000E+00
    0.00000E+00         0.00000E+00        -0.22059E+08
 
   -0.22766E+08         0.11710E+06         0.00000E+00
    0.11710E+06        -0.48921E+08         0.00000E+00
    0.00000E+00         0.00000E+00        -0.22171E+08
 
   -0.23095E+08         0.71558E+05         0.00000E+00
    0.71558E+05        -0.49335E+08         0.00000E+00
    0.00000E+00         0.00000E+00        -0.22284E+08
 
   -0.23457E+08         0.20785E+05         0.00000E+00
    0.20785E+05        -0.49776E+08         0.00000E+00
    0.00000E+00         0.00000E+00        -0.22398E+08
 
   -0.23854E+08        -0.34438E+05         0.00000E+00
   -0.34438E+05        -0.50246E+08         0.00000E+00
    0.00000E+00         0.00000E+00        -0.22513E+08
 
   -0.24285E+08        -0.92588E+05         0.00000E+00
   -0.92588E+05        -0.50746E+08         0.00000E+00
    0.00000E+00         0.00000E+00        -0.22628E+08
 
   -0.24751E+08        -0.15099E+06         0.00000E+00
   -0.15099E+06        -0.51273E+08         0.00000E+00
    0.00000E+00         0.00000E+00        -0.22744E+08
 
   -0.25250E+08        -0.20509E+06         0.00000E+00
   -0.20509E+06        -0.51825E+08         0.00000E+00
    0.00000E+00         0.00000E+00        -0.22861E+08
 
   -0.25774E+08        -0.24677E+06         0.00000E+00
   -0.24677E+06        -0.52394E+08         0.00000E+00
    0.00000E+00         0.00000E+00        -0.22980E+08
 
   -0.26308E+08        -0.25967E+06         0.00000E+00
   -0.25967E+06        -0.52966E+08         0.00000E+00
    0.00000E+00         0.00000E+00        -0.23096E+08
 
   -0.26825E+08        -0.21387E+06         0.00000E+00
   -0.21387E+06        -0.53501E+08         0.00000E+00
    0.00000E+00         0.00000E+00        -0.23194E+08
 
   -0.27296E+08        -0.86235E+05         0.00000E+00
   -0.86235E+05        -0.53920E+08         0.00000E+00
    0.00000E+00         0.00000E+00        -0.23223E+08
 
   -0.82188E+07        -0.15566E+06         0.00000E+00
   -0.15566E+06        -0.27207E+08         0.00000E+00
    0.00000E+00         0.00000E+00        -0.15371E+08
 
   -0.87258E+07        -0.39074E+06         0.00000E+00
   -0.39074E+06        -0.27880E+08         0.00000E+00
    0.00000E+00         0.00000E+00        -0.15314E+08
 
   -0.93554E+07        -0.47330E+06         0.00000E+00
   -0.47330E+06        -0.28717E+08         0.00000E+00
    0.00000E+00         0.00000E+00        -0.15293E+08
 
   -0.10037E+08        -0.45176E+06         0.00000E+00
   -0.45176E+06        -0.29593E+08         0.00000E+00
    0.00000E+00         0.00000E+00        -0.15273E+08
 
   -0.10731E+08        -0.38112E+06         0.00000E+00
   -0.38112E+06        -0.30447E+08         0.00000E+00
    0.00000E+00         0.00000E+00        -0.15252E+08
 
   -0.11416E+08        -0.28796E+06         0.00000E+00
   -0.28796E+06        -0.31257E+08         0.00000E+00
    0.00000E+00         0.00000E+00        -0.15237E+08
 
   -0.12077E+08        -0.18583E+06         0.00000E+00
   -0.18583E+06        -0.32015E+08         0.00000E+00
    0.00000E+00         0.00000E+00        -0.15234E+08
 
   -0.12705E+08        -0.83230E+05         0.00000E+00
   -0.83230E+05        -0.32718E+08         0.00000E+00
    0.00000E+00         0.00000E+00        -0.15248E+08
 
   -0.13292E+08         0.14373E+05         0.00000E+00
    0.14373E+05        -0.33369E+08         0.00000E+00
    0.00000E+00         0.00000E+00        -0.15279E+08
 
   -0.13834E+08         0.10360E+06         0.00000E+00
    0.10360E+06        -0.33971E+08         0.00000E+00
    0.00000E+00         0.00000E+00        -0.15327E+08
 
   -0.14331E+08         0.18258E+06         0.00000E+00
    0.18258E+06        -0.34527E+08         0.00000E+00
    0.00000E+00         0.00000E+00        -0.15391E+08
 
   -0.14783E+08         0.25058E+06         0.00000E+00
    0.25058E+06        -0.35040E+08         0.00000E+00
    0.00000E+00         0.00000E+00        -0.15469E+08
 
   -0.15191E+08         0.30765E+06         0.00000E+00
    0.30765E+06        -0.35516E+08         0.00000E+00
    0.00000E+00         0.00000E+00        -0.15559E+08
 
   -0.15559E+08         0.35432E+06         0.00000E+00
    0.35432E+06        -0.35957E+08         0.00000E+00
    0.00000E+00         0.00000E+00        -0.15657E+08
 
   -0.15889E+08         0.39148E+06         0.00000E+00
    0.39148E+06        -0.36367E+08         0.00000E+00
    0.00000E+00         0.00000E+00        -0.15764E+08
 
   -0.16185E+08         0.42014E+06         0.00000E+00
    0.42014E+06        -0.36748E+08         0.00000E+00
    0.00000E+00         0.00000E+00        -0.15875E+08
 
   -0.16451E+08         0.44138E+06         0.00000E+00
    0.44138E+06        -0.37104E+08         0.00000E+00
    0.00000E+00         0.00000E+00        -0.15991E+08
 
   -0.16689E+08         0.45624E+06         0.00000E+00
    0.45624E+06        -0.37436E+08         0.00000E+00
    0.00000E+00         0.00000E+00        -0.16109E+08
 
   -0.16902E+08         0.46571E+06         0.00000E+00
    0.46571E+06        -0.37746E+08         0.00000E+00
    0.00000E+00         0.00000E+00        -0.16228E+08
 
   -0.17094E+08         0.47069E+06         0.00000E+00
    0.47069E+06        -0.38037E+08         0.00000E+00
    0.00000E+00         0.00000E+00        -0.16347E+08
 
   -0.17266E+08         0.47197E+06         0.00000E+00
    0.47197E+06        -0.38311E+08         0.00000E+00
    0.00000E+00         0.00000E+00        -0.16466E+08
 
   -0.17422E+08         0.47025E+06         0.00000E+00
    0.47025E+06        -0.38568E+08         0.00000E+00
    0.00000E+00         0.00000E+00        -0.16584E+08
 
   -0.17562E+08         0.46612E+06         0.00000E+00
    0.46612E+06        -0.38810E+08         0.00000E+00
    0.00000E+00         0.00000E+00        -0.16700E+08
 
   -0.17689E+08         0.46009E+06         0.00000E+00
    0.46009E+06        -0.39038E+08         0.00000E+00
    0.00000E+00         0.00000E+00        -0.16814E+08
 
   -0.17805E+08         0.45261E+06         0.00000E+00
    0.45261E+06        -0.39254E+08         0.00000E+00
    0.00000E+00         0.00000E+00        -0.16927E+08
 
   -0.17910E+08         0.44402E+06         0.00000E+00
    0.44402E+06        -0.39458E+08         0.00000E+00
    0.00000E+00         0.00000E+00        -0.17036E+08
 
   -0.18006E+08         0.43463E+06         0.00000E+00
    0.43463E+06        -0.39652E+08         0.00000E+00
    0.00000E+00         0.00000E+00        -0.17143E+08
 
   -0.18095E+08         0.42470E+06         0.00000E+00
    0.42470E+06        -0.39835E+08         0.00000E+00
    0.00000E+00         0.00000E+00        -0.17248E+08
 
   -0.18176E+08         0.41443E+06         0.00000E+00
    0.41443E+06        -0.40010E+08         0.00000E+00
    0.00000E+00         0.00000E+00        -0.17350E+08
 
   -0.18251E+08         0.40398E+06         0.00000E+00
    0.40398E+06        -0.40176E+08         0.00000E+00
    0.00000E+00         0.00000E+00        -0.17449E+08
 
   -0.18320E+08         0.39350E+06         0.00000E+00
    0.39350E+06        -0.40334E+08         0.00000E+00
    0.00000E+00         0.00000E+00        -0.17545E+08
 
   -0.18384E+08         0.38309E+06         0.00000E+00
    0.38309E+06        -0.40485E+08         0.00000E+00
    0.00000E+00         0.00000E+00        -0.17639E+08
 
   -0.18444E+08         0.37285E+06         0.00000E+00
    0.37285E+06        -0.40630E+08         0.00000E+00
    0.00000E+00         0.00000E+00        -0.17730E+08
 
   -0.18500E+08         0.36286E+06         0.00000E+00
    0.36286E+06        -0.40768E+08         0.00000E+00
    0.00000E+00         0.00000E+00        -0.17819E+08
 
   -0.18553E+08         0.35316E+06         0.00000E+00
    0.35316E+06        -0.40901E+08         0.00000E+00
    0.00000E+00         0.00000E+00        -0.17905E+08
 
   -0.18602E+08         0.34382E+06         0.00000E+00
    0.34382E+06        -0.41028E+08         0.00000E+00
    0.00000E+00         0.00000E+00        -0.17989E+08
 
   -0.18649E+08         0.33485E+06         0.00000E+00
    0.33485E+06        -0.41151E+08         0.00000E+00
    0.00000E+00         0.00000E+00        -0.18071E+08
 
   -0.18693E+08         0.32630E+06         0.00000E+00
    0.32630E+06        -0.41269E+08         0.00000E+00
    0.00000E+00         0.00000E+00        -0.18151E+08
 
   -0.18735E+08         0.31818E+06         0.00000E+00
    0.31818E+06        -0.41383E+08         0.00000E+00
    0.00000E+00         0.00000E+00        -0.18228E+08
 
   -0.18775E+08         0.31050E+06         0.00000E+00
    0.31050E+06        -0.41494E+08         0.00000E+00
    0.00000E+00         0.00000E+00        -0.18304E+08
 
   -0.18813E+08         0.30329E+06         0.00000E+00
    0.30329E+06        -0.41601E+08         0.00000E+00
    0.00000E+00         0.00000E+00        -0.18378E+08
 
   -0.18850E+08         0.29655E+06         0.00000E+00
    0.29655E+06        -0.41705E+08         0.00000E+00
    0.00000E+00         0.00000E+00        -0.18451E+08
 
   -0.18886E+08         0.29027E+06         0.00000E+00
    0.29027E+06        -0.41807E+08         0.00000E+00
    0.00000E+00         0.00000E+00        -0.18521E+08
 
   -0.18920E+08         0.28448E+06         0.00000E+00
    0.28448E+06        -0.41906E+08         0.00000E+00
    0.00000E+00         0.00000E+00        -0.18591E+08
 
   -0.18954E+08         0.27915E+06         0.00000E+00
    0.27915E+06        -0.42002E+08         0.00000E+00
    0.00000E+00         0.00000E+00        -0.18659E+08
 
   -0.18986E+08         0.27430E+06         0.00000E+00
    0.27430E+06        -0.42097E+08         0.00000E+00
    0.00000E+00         0.00000E+00        -0.18726E+08
 
   -0.19018E+08         0.26992E+06         0.00000E+00
    0.26992E+06        -0.42190E+08         0.00000E+00
    0.00000E+00         0.00000E+00        -0.18792E+08
 
   -0.19049E+08         0.26600E+06         0.00000E+00
    0.26600E+06        -0.42282E+08         0.00000E+00
    0.00000E+00         0.00000E+00        -0.18857E+08
 
   -0.19080E+08         0.26254E+06         0.00000E+00
    0.26254E+06        -0.42372E+08         0.00000E+00
    0.00000E+00         0.00000E+00        -0.18921E+08
 
   -0.19111E+08         0.25953E+06         0.00000E+00
    0.25953E+06        -0.42461E+08         0.00000E+00
    0.00000E+00         0.00000E+00        -0.18985E+08
 
   -0.19142E+08         0.25697E+06         0.00000E+00
    0.25697E+06        -0.42550E+08         0.00000E+00
    0.00000E+00         0.00000E+00        -0.19048E+08
 
   -0.19172E+08         0.25484E+06         0.00000E+00
    0.25484E+06        -0.42638E+08         0.00000E+00
    0.00000E+00         0.00000E+00        -0.19110E+08
 
   -0.19203E+08         0.25315E+06         0.00000E+00
    0.25315E+06        -0.42726E+08         0.00000E+00
    0.00000E+00         0.00000E+00        -0.19173E+08
 
   -0.19234E+08         0.25187E+06         0.00000E+00
    0.25187E+06        -0.42814E+08         0.00000E+00
    0.00000E+00         0.00000E+00        -0.19235E+08
 
   -0.19265E+08         0.25100E+06         0.00000E+00
    0.25100E+06        -0.42902E+08         0.00000E+00
    0.00000E+00         0.00000E+00        -0.19297E+08
 
   -0.19296E+08         0.25053E+06         0.00000E+00
    0.25053E+06        -0.42990E+08         0.00000E+00
    0.00000E+00         0.00000E+00        -0.19359E+08
 
   -0.19328E+08         0.25044E+06         0.00000E+00
    0.25044E+06        -0.43079E+08         0.00000E+00
    0.00000E+00         0.00000E+00        -0.19421E+08
 
   -0.19361E+08         0.25073E+06         0.00000E+00
    0.25073E+06        -0.43169E+08         0.00000E+00
    0.00000E+00         0.00000E+00        -0.19483E+08
 
   -0.19395E+08         0.25137E+06         0.00000E+00
    0.25137E+06        -0.43260E+08         0.00000E+00
    0.00000E+00         0.00000E+00        -0.19546E+08
 
   -0.19430E+08         0.25235E+06         0.00000E+00
    0.25235E+06        -0.43353E+08         0.00000E+00
    0.00000E+00         0.00000E+00        -0.19609E+08
 
   -0.19466E+08         0.25365E+06         0.00000E+00
    0.25365E+06        -0.43447E+08         0.00000E+00
    0.00000E+00         0.00000E+00        -0.19673E+08
 
   -0.19503E+08         0.25526E+06         0.00000E+00
    0.25526E+06        -0.43543E+08         0.00000E+00
    0.00000E+00         0.00000E+00        -0.19738E+08
 
   -0.19542E+08         0.25714E+06         0.00000E+00
    0.25714E+06        -0.43641E+08         0.00000E+00
    0.00000E+00         0.00000E+00        -0.19803E+08
 
   -0.19583E+08         0.25929E+06         0.00000E+00
    0.25929E+06        -0.43741E+08         0.00000E+00
    0.00000E+00         0.00000E+00        -0.19869E+08
 
   -0.19625E+08         0.26165E+06         0.00000E+00
    0.26165E+06        -0.43844E+08         0.00000E+00
    0.00000E+00         0.00000E+00        -0.19937E+08
 
   -0.19670E+08         0.26421E+06         0.00000E+00
    0.26421E+06        -0.43951E+08         0.00000E+00
    0.00000E+00         0.00000E+00        -0.20005E+08
 
   -0.19717E+08         0.26693E+06         0.00000E+00
    0.26693E+06        -0.44061E+08         0.00000E+00
    0.00000E+00         0.00000E+00        -0.20075E+08
 
   -0.19767E+08         0.26976E+06         0.00000E+00
    0.26976E+06        -0.44174E+08         0.00000E+00
    0.00000E+00         0.00000E+00        -0.20145E+08
 
   -0.19819E+08         0.27266E+06         0.00000E+00
    0.27266E+06        -0.44292E+08         0.00000E+00
    0.00000E+00         0.00000E+00        -0.20218E+08
 
   -0.19876E+08         0.27557E+06         0.00000E+00
    0.27557E+06        -0.44414E+08         0.00000E+00
    0.00000E+00         0.00000E+00        -0.20292E+08
 
   -0.19935E+08         0.27842E+06         0.00000E+00
    0.27842E+06        -0.44541E+08         0.00000E+00
    0.00000E+00         0.00000E+00        -0.20367E+08
 
   -0.19999E+08         0.28114E+06         0.00000E+00
    0.28114E+06        -0.44674E+08         0.00000E+00
    0.00000E+00         0.00000E+00        -0.20444E+08
 
   -0.20067E+08         0.28364E+06         0.00000E+00
    0.28364E+06        -0.44813E+08         0.00000E+00
    0.00000E+00         0.00000E+00        -0.20523E+08
 
   -0.20141E+08         0.28582E+06         0.00000E+00
    0.28582E+06        -0.44959E+08         0.00000E+00
    0.00000E+00         0.00000E+00        -0.20604E+08
 
   -0.20220E+08         0.28756E+06         0.00000E+00
    0.28756E+06        -0.45111E+08         0.00000E+00
    0.00000E+00         0.00000E+00        -0.20686E+08
 
   -0.20305E+08         0.28872E+06         0.00000E+00
    0.28872E+06        -0.45272E+08         0.00000E+00
    0.00000E+00         0.00000E+00        -0.20771E+08
 
   -0.20397E+08         0.28915E+06         0.00000E+00
    0.28915E+06        -0.45441E+08         0.00000E+00
    0.00000E+00         0.00000E+00        -0.20858E+08
 
   -0.20497E+08         0.28866E+06         0.00000E+00
    0.28866E+06        -0.45619E+08         0.00000E+00
    0.00000E+00         0.00000E+00        -0.20946E+08
 
   -0.20606E+08         0.28703E+06         0.00000E+00
    0.28703E+06        -0.45808E+08         0.00000E+00
    0.00000E+00         0.00000E+00        -0.21037E+08
 
   -0.20724E+08         0.28403E+06         0.00000E+00
    0.28403E+06        -0.46008E+08         0.00000E+00
    0.00000E+00         0.00000E+00        -0.21130E+08
 
   -0.20853E+08         0.27937E+06         0.00000E+00
    0.27937E+06        -0.46220E+08         0.00000E+00
    0.00000E+00         0.00000E+00        -0.21226E+08
 
   -0.20994E+08         0.27273E+06         0.00000E+00
    0.27273E+06        -0.46446E+08         0.00000E+00
    0.00000E+00         0.00000E+00        -0.21323E+08
 
   -0.21148E+08         0.26377E+06         0.00000E+00
    0.26377E+06        -0.46687E+08         0.00000E+00
    0.00000E+00         0.00000E+00        -0.21422E+08
 
   -0.21318E+08         0.25210E+06         0.00000E+00
    0.25210E+06        -0.46944E+08         0.00000E+00
    0.00000E+00         0.00000E+00        -0.21523E+08
 
   -0.21504E+08         0.23729E+06         0.00000E+00
    0.23729E+06        -0.47218E+08         0.00000E+00
    0.00000E+00         0.00000E+00        -0.21627E+08
 
   -0.21708E+08         0.21890E+06         0.00000E+00
    0.21890E+06        -0.47512E+08         0.00000E+00
    0.00000E+00         0.00000E+00        -0.21732E+08
 
   -0.21934E+08         0.19649E+06         0.00000E+00
    0.19649E+06        -0.47826E+08         0.00000E+00
    0.00000E+00         0.00000E+00        -0.21839E+08
 
   -0.22183E+08         0.16962E+06         0.00000E+00
    0.16962E+06        -0.48163E+08         0.00000E+00
    0.00000E+00         0.00000E+00        -0.21947E+08
 
   -0.22457E+08         0.13791E+06         0.00000E+00
    0.13791E+06        -0.48525E+08         0.00000E+00
    0.00000E+00         0.00000E+00        -0.22056E+08
 
   -0.22760E+08         0.10111E+06         0.00000E+00
    0.10111E+06        -0.48912E+08         0.00000E+00
    0.00000E+00         0.00000E+00        -0.22167E+08
 
   -0.23094E+08         0.59124E+05         0.00000E+00
    0.59124E+05        -0.49327E+08         0.00000E+00
    0.00000E+00         0.00000E+00        -0.22278E+08
 
   -0.23461E+08         0.12165E+05         0.00000E+00
    0.12165E+05        -0.49772E+08         0.00000E+00
    0.00000E+00         0.00000E+00        -0.22390E+08
 
   -0.23864E+08        -0.39134E+05         0.00000E+00
   -0.39134E+05        -0.50246E+08         0.00000E+00
    0.00000E+00         0.00000E+00        -0.22502E+08
 
   -0.24305E+08        -0.93494E+05         0.00000E+00
   -0.93494E+05        -0.50750E+08         0.00000E+00
    0.00000E+00         0.00000E+00        -0.22615E+08
 
   -0.24782E+08        -0.14865E+06         0.00000E+00
   -0.14865E+06        -0.51284E+08         0.00000E+00
    0.00000E+00         0.00000E+00        -0.22728E+08
 
   -0.25295E+08        -0.20066E+06         0.00000E+00
   -0.20066E+06        -0.51845E+08         0.00000E+00
    0.00000E+00         0.00000E+00        -0.22843E+08
 
   -0.25837E+08        -0.24252E+06         0.00000E+00
   -0.24252E+06        -0.52427E+08         0.00000E+00
    0.00000E+00         0.00000E+00        -0.22959E+08
 
   -0.26392E+08        -0.25919E+06         0.00000E+00
   -0.25919E+06        -0.53016E+08         0.00000E+00
    0.00000E+00         0.00000E+00        -0.23076E+08
 
   -0.26931E+08        -0.21869E+06         0.00000E+00
   -0.21869E+06        -0.53573E+08         0.00000E+00
    0.00000E+00         0.00000E+00        -0.23179E+08
 
   -0.27417E+08        -0.89985E+05         0.00000E+00
   -0.89985E+05        -0.54010E+08         0.00000E+00
    0.00000E+00         0.00000E+00        -0.23216E+08
 
   -0.81036E+07        -0.15961E+06         0.00000E+00
   -0.15961E+06        -0.27053E+08         0.00000E+00
    0.00000E+00         0.00000E+00        -0.15399E+08
 
   -0.86240E+07        -0.39022E+06         0.00000E+00
   -0.39022E+06        -0.27759E+08         0.00000E+00
    0.00000E+00         0.00000E+00        -0.15352E+08
 
   -0.92729E+07        -0.45956E+06         0.00000E+00
   -0.45956E+06        -0.28634E+08         0.00000E+00
    0.00000E+00         0.00000E+00        -0.15335E+08
 
   -0.99717E+07        -0.43187E+06         0.00000E+00
   -0.43187E+06        -0.29538E+08         0.00000E+00
    0.00000E+00         0.00000E+00        -0.15312E+08
 
   -0.10682E+08        -0.36305E+06         0.00000E+00
   -0.36305E+06        -0.30412E+08         0.00000E+00
    0.00000E+00         0.00000E+00        -0.15286E+08
 
   -0.11381E+08        -0.27578E+06         0.00000E+00
   -0.27578E+06        -0.31238E+08         0.00000E+00
    0.00000E+00         0.00000E+00        -0.15265E+08
 
   -0.12055E+08        -0.18145E+06         0.00000E+00
   -0.18145E+06        -0.32007E+08         0.00000E+00
    0.00000E+00         0.00000E+00        -0.15256E+08
 
   -0.12693E+08        -0.87350E+05         0.00000E+00
   -0.87350E+05        -0.32718E+08         0.00000E+00
    0.00000E+00         0.00000E+00        -0.15264E+08
 
   -0.13289E+08         0.18321E+04         0.00000E+00
    0.18321E+04        -0.33375E+08         0.00000E+00
    0.00000E+00         0.00000E+00        -0.15289E+08
 
   -0.13838E+08         0.83167E+05         0.00000E+00
    0.83167E+05        -0.33981E+08         0.00000E+00
    0.00000E+00         0.00000E+00        -0.15333E+08
 
   -0.14341E+08         0.15505E+06         0.00000E+00
    0.15505E+06        -0.34539E+08         0.00000E+00
    0.00000E+00         0.00000E+00        -0.15393E+08
 
   -0.14797E+08         0.21686E+06         0.00000E+00
    0.21686E+06        -0.35055E+08         0.00000E+00
    0.00000E+00         0.00000E+00        -0.15468E+08
 
   -0.15208E+08         0.26867E+06         0.00000E+00
    0.26867E+06        -0.35532E+08         0.00000E+00
    0.00000E+00         0.00000E+00        -0.15555E+08
 
   -0.15578E+08         0.31102E+06         0.00000E+00
    0.31102E+06        -0.35973E+08         0.00000E+00
    0.00000E+00         0.00000E+00        -0.15652E+08
 
   -0.15910E+08         0.34471E+06         0.00000E+00
    0.34471E+06        -0.36383E+08         0.00000E+00
    0.00000E+00         0.00000E+00        -0.15757E+08
 
   -0.16207E+08         0.37068E+06         0.00000E+00
    0.37068E+06        -0.36764E+08         0.00000E+00
    0.00000E+00         0.00000E+00        -0.15867E+08
 
   -0.16473E+08         0.38993E+06         0.00000E+00
    0.38993E+06        -0.37119E+08         0.00000E+00
    0.00000E+00         0.00000E+00        -0.15982E+08
 
   -0.16710E+08         0.40340E+06         0.00000E+00
    0.40340E+06        -0.37451E+08         0.00000E+00
    0.00000E+00         0.00000E+00        -0.16099E+08
 
   -0.16923E+08         0.41201E+06         0.00000E+00
    0.41201E+06        -0.37761E+08         0.00000E+00
    0.00000E+00         0.00000E+00        -0.16218E+08
 
   -0.17114E+08         0.41656E+06         0.00000E+00
    0.41656E+06        -0.38051E+08         0.00000E+00
    0.00000E+00         0.00000E+00        -0.16337E+08
 
   -0.17286E+08         0.41778E+06         0.00000E+00
    0.41778E+06        -0.38324E+08         0.00000E+00
    0.00000E+00         0.00000E+00        -0.16456E+08
 
   -0.17441E+08         0.41630E+06         0.00000E+00
    0.41630E+06        -0.38580E+08         0.00000E+00
    0.00000E+00         0.00000E+00        -0.16574E+08
 
   -0.17580E+08         0.41267E+06         0.00000E+00
    0.41267E+06        -0.38821E+08         0.00000E+00
    0.00000E+00         0.00000E+00        -0.16691E+08
 
   -0.17706E+08         0.40733E+06         0.00000E+00
    0.40733E+06        -0.39049E+08         0.00000E+00
    0.00000E+00         0.00000E+00        -0.16805E+08
 
   -0.17821E+08         0.40069E+06         0.00000E+00
    0.40069E+06        -0.39264E+08         0.00000E+00
    0.00000E+00         0.00000E+00        -0.16918E+08
 
   -0.17925E+08         0.39307E+06         0.00000E+00
    0.39307E+06        -0.39468E+08         0.00000E+00
    0.00000E+00         0.00000E+00        -0.17028E+08
 
   -0.18021E+08         0.38474E+06         0.00000E+00
    0.38474E+06        -0.39660E+08         0.00000E+00
    0.00000E+00         0.00000E+00        -0.17136E+08
 
   -0.18108E+08         0.37592E+06         0.00000E+00
    0.37592E+06        -0.39843E+08         0.00000E+00
    0.00000E+00         0.00000E+00        -0.17240E+08
 
   -0.18188E+08         0.36680E+06         0.00000E+00
    0.36680E+06        -0.40017E+08         0.00000E+00
    0.00000E+00         0.00000E+00        -0.17343E+08
 
   -0.18263E+08         0.35752E+06         0.00000E+00
    0.35752E+06        -0.40183E+08         0.00000E+00
    0.00000E+00         0.00000E+00        -0.17442E+08
 
   -0.18331E+08         0.34822E+06         0.00000E+00
    0.34822E+06        -0.40341E+08         0.00000E+00
    0.00000E+00         0.00000E+00        -0.17539E+08
 
   -0.18395E+08         0.33898E+06         0.00000E+00
    0.33898E+06        -0.40491E+08         0.00000E+00
    0.00000E+00         0.00000E+00        -0.17633E+08
 
   -0.18454E+08         0.32990E+06         0.00000E+00
    0.32990E+06        -0.40635E+08         0.00000E+00
    0.00000E+00         0.00000E+00        -0.17725E+08
 
   -0.18509E+08         0.32104E+06         0.00000E+00
    0.32104E+06        -0.40773E+08         0.00000E+00
    0.00000E+00         0.00000E+00        -0.17814E+08
 
   -0.18561E+08         0.31244E+06         0.00000E+00
    0.31244E+06        -0.40906E+08         0.00000E+00
    0.00000E+00         0.00000E+00        -0.17900E+08
 
   -0.18610E+08         0.30415E+06         0.00000E+00
    0.30415E+06        -0.41033E+08         0.00000E+00
    0.00000E+00         0.00000E+00        -0.17985E+08
 
   -0.18656E+08         0.29620E+06         0.00000E+00
    0.29620E+06        -0.41155E+08         0.00000E+00
    0.00000E+00         0.00000E+00        -0.18067E+08
 
   -0.18699E+08         0.28862E+06         0.00000E+00
    0.28862E+06        -0.41273E+08         0.00000E+00
    0.00000E+00         0.00000E+00        -0.18147E+08
 
   -0.18741E+08         0.28142E+06         0.00000E+00
    0.28142E+06        -0.41387E+08         0.00000E+00
    0.00000E+00         0.00000E+00        -0.18225E+08
 
   -0.18780E+08         0.27462E+06         0.00000E+00
    0.27462E+06        -0.41498E+08         0.00000E+00
    0.00000E+00         0.00000E+00        -0.18301E+08
 
   -0.18818E+08         0.26823E+06         0.00000E+00
    0.26823E+06        -0.41604E+08         0.00000E+00
    0.00000E+00         0.00000E+00        -0.18375E+08
 
   -0.18855E+08         0.26226E+06         0.00000E+00
    0.26226E+06        -0.41708E+08         0.00000E+00
    0.00000E+00         0.00000E+00        -0.18448E+08
 
   -0.18890E+08         0.25670E+06         0.00000E+00
    0.25670E+06        -0.41809E+08         0.00000E+00
    0.00000E+00         0.00000E+00        -0.18519E+08
 
   -0.18924E+08         0.25156E+06         0.00000E+00
    0.25156E+06        -0.41908E+08         0.00000E+00
    0.00000E+00         0.00000E+00        -0.18588E+08
 
   -0.18957E+08         0.24685E+06         0.00000E+00
    0.24685E+06        -0.42005E+08         0.00000E+00
    0.00000E+00         0.00000E+00        -0.18657E+08
 
   -0.18989E+08         0.24255E+06         0.00000E+00
    0.24255E+06        -0.42099E+08         0.00000E+00
    0.00000E+00         0.00000E+00        -0.18724E+08
 
   -0.19020E+08         0.23867E+06         0.00000E+00
    0.23867E+06        -0.42192E+08         0.00000E+00
    0.00000E+00         0.00000E+00        -0.18790E+08
 
   -0.19051E+08         0.23519E+06         0.00000E+00
    0.23519E+06        -0.42283E+08         0.00000E+00
    0.00000E+00         0.00000E+00        -0.18855E+08
 
   -0.19082E+08         0.23213E+06         0.00000E+00
    0.23213E+06        -0.42373E+08         0.00000E+00
    0.00000E+00         0.00000E+00        -0.18920E+08
 
   -0.19112E+08         0.22946E+06         0.00000E+00
    0.22946E+06        -0.42463E+08         0.00000E+00
    0.00000E+00         0.00000E+00        -0.18984E+08
 
   -0.19142E+08         0.22719E+06         0.00000E+00
    0.22719E+06        -0.42551E+08         0.00000E+00
    0.00000E+00         0.00000E+00        -0.19047E+08
 
   -0.19172E+08         0.22531E+06         0.00000E+00
    0.22531E+06        -0.42639E+08         0.00000E+00
    0.00000E+00         0.00000E+00        -0.19110E+08
 
   -0.19203E+08         0.22381E+06         0.00000E+00
    0.22381E+06        -0.42727E+08         0.00000E+00
    0.00000E+00         0.00000E+00        -0.19172E+08
 
   -0.19233E+08         0.22267E+06         0.00000E+00
    0.22267E+06        -0.42814E+08         0.00000E+00
    0.00000E+00         0.00000E+00        -0.19234E+08
 
   -0.19264E+08         0.22190E+06         0.00000E+00
    0.22190E+06        -0.42902E+08         0.00000E+00
    0.00000E+00         0.00000E+00        -0.19297E+08
 
   -0.19295E+08         0.22148E+06         0.00000E+00
    0.22148E+06        -0.42990E+08         0.00000E+00
    0.00000E+00         0.00000E+00        -0.19359E+08
 
   -0.19327E+08         0.22140E+06         0.00000E+00
    0.22140E+06        -0.43079E+08         0.00000E+00
    0.00000E+00         0.00000E+00        -0.19421E+08
 
   -0.19359E+08         0.22165E+06         0.00000E+00
    0.22165E+06        -0.43169E+08         0.00000E+00
    0.00000E+00         0.00000E+00        -0.19484E+08
 
   -0.19393E+08         0.22222E+06         0.00000E+00
    0.22222E+06        -0.43259E+08         0.00000E+00
    0.00000E+00         0.00000E+00        -0.19547E+08
 
   -0.19427E+08         0.22308E+06         0.00000E+00
    0.22308E+06        -0.43352E+08         0.00000E+00
    0.00000E+00         0.00000E+00        -0.19610E+08
 
   -0.19463E+08         0.22423E+06         0.00000E+00
    0.22423E+06        -0.43445E+08         0.00000E+00
    0.00000E+00         0.00000E+00        -0.19674E+08
 
   -0.19499E+08         0.22565E+06         0.00000E+00
    0.22565E+06        -0.43541E+08         0.00000E+00
    0.00000E+00         0.00000E+00        -0.19739E+08
 
   -0.19538E+08         0.22732E+06         0.00000E+00
    0.22732E+06        -0.43639E+08         0.00000E+00
    0.00000E+00         0.00000E+00        -0.19804E+08
 
   -0.19578E+08         0.22921E+06         0.00000E+00
    0.22921E+06        -0.43739E+08         0.00000E+00
    0.00000E+00         0.00000E+00        -0.19871E+08
 
   -0.19620E+08         0.23131E+06         0.00000E+00
    0.23131E+06        -0.43842E+08         0.00000E+00
    0.00000E+00         0.00000E+00        -0.19938E+08
 
   -0.19664E+08         0.23357E+06         0.00000E+00
    0.23357E+06        -0.43948E+08         0.00000E+00
    0.00000E+00         0.00000E+00        -0.20007E+08
 
   -0.19711E+08         0.23598E+06         0.00000E+00
    0.23598E+06        -0.44058E+08         0.00000E+00
    0.00000E+00         0.00000E+00        -0.20076E+08
 
   -0.19760E+08         0.23848E+06         0.00000E+00
    0.23848E+06        -0.44171E+08         0.00000E+00
    0.00000E+00         0.00000E+00        -0.20147E+08
 
   -0.19813E+08         0.24105E+06         0.00000E+00
    0.24105E+06        -0.44288E+08         0.00000E+00
    0.00000E+00         0.00000E+00        -0.20220E+08
 
   -0.19868E+08         0.24362E+06         0.00000E+00
    0.24362E+06        -0.44410E+08         0.00000E+00
    0.00000E+00         0.00000E+00        -0.20294E+08
 
   -0.19927E+08         0.24615E+06         0.00000E+00
    0.24615E+06        -0.44537E+08         0.00000E+00
    0.00000E+00         0.00000E+00        -0.20369E+08
 
   -0.19991E+08         0.24856E+06         0.00000E+00
    0.24856E+06        -0.44670E+08         0.00000E+00
    0.00000E+00         0.00000E+00        -0.20446E+08
 
   -0.20059E+08         0.25077E+06         0.00000E+00
    0.25077E+06        -0.44808E+08         0.00000E+00
    0.00000E+00         0.00000E+00        -0.20525E+08
 
   -0.20131E+08         0.25270E+06         0.00000E+00
    0.25270E+06        -0.44953E+08         0.00000E+00
    0.00000E+00         0.00000E+00        -0.20606E+08
 
   -0.20210E+08         0.25424E+06         0.00000E+00
    0.25424E+06        -0.45105E+08         0.00000E+00
    0.00000E+00         0.00000E+00        -0.20689E+08
 
   -0.20295E+08         0.25527E+06         0.00000E+00
    0.25527E+06        -0.45265E+08         0.00000E+00
    0.00000E+00         0.00000E+00        -0.20774E+08
 
   -0.20386E+08         0.25565E+06         0.00000E+00
    0.25565E+06        -0.45434E+08         0.00000E+00
    0.00000E+00         0.00000E+00        -0.20860E+08
 
   -0.20486E+08         0.25520E+06         0.00000E+00
    0.25520E+06        -0.45612E+08         0.00000E+00
    0.00000E+00         0.00000E+00        -0.20949E+08
 
   -0.20594E+08         0.25374E+06         0.00000E+00
    0.25374E+06        -0.45800E+08         0.00000E+00
    0.00000E+00         0.00000E+00        -0.21040E+08
 
   -0.20711E+08         0.25105E+06         0.00000E+00
    0.25105E+06        -0.46000E+08         0.00000E+00
    0.00000E+00         0.00000E+00        -0.21133E+08
 
   -0.20840E+08         0.24687E+06         0.00000E+00
    0.24687E+06        -0.46211E+08         0.00000E+00
    0.00000E+00         0.00000E+00        -0.21228E+08
 
   -0.20980E+08         0.24092E+06         0.00000E+00
    0.24092E+06        -0.46437E+08         0.00000E+00
    0.00000E+00         0.00000E+00        -0.21325E+08
 
   -0.21135E+08         0.23289E+06         0.00000E+00
    0.23289E+06        -0.46677E+08         0.00000E+00
    0.00000E+00         0.00000E+00        -0.21424E+08
 
   -0.21304E+08         0.22241E+06         0.00000E+00
    0.22241E+06        -0.46933E+08         0.00000E+00
    0.00000E+00         0.00000E+00        -0.21525E+08
 
   -0.21490E+08         0.20910E+06         0.00000E+00
    0.20910E+06        -0.47207E+08         0.00000E+00
    0.00000E+00         0.00000E+00        -0.21628E+08
 
   -0.21695E+08         0.19255E+06         0.00000E+00
    0.19255E+06        -0.47501E+08         0.00000E+00
    0.00000E+00         0.00000E+00        -0.21733E+08
 
   -0.21922E+08         0.17235E+06         0.00000E+00
    0.17235E+06        -0.47815E+08         0.00000E+00
    0.00000E+00         0.00000E+00        -0.21839E+08
 
   -0.22172E+08         0.14810E+06         0.00000E+00
    0.14810E+06        -0.48152E+08         0.00000E+00
    0.00000E+00         0.00000E+00        -0.21946E+08
 
   -0.22448E+08         0.11943E+06         0.00000E+00
    0.11943E+06        -0.48514E+08         0.00000E+00
    0.00000E+00         0.00000E+00        -0.22054E+08
 
   -0.22754E+08         0.86068E+05         0.00000E+00
    0.86068E+05        -0.48903E+08         0.00000E+00
    0.00000E+00         0.00000E+00        -0.22163E+08
 
   -0.23091E+08         0.47914E+05         0.00000E+00
    0.47914E+05        -0.49320E+08         0.00000E+00
    0.00000E+00         0.00000E+00        -0.22273E+08
 
   -0.23464E+08         0.50956E+04         0.00000E+00
    0.50956E+04        -0.49767E+08         0.00000E+00
    0.00000E+00         0.00000E+00        -0.22383E+08
 
   -0.23874E+08        -0.41889E+05         0.00000E+00
   -0.41889E+05        -0.50245E+08         0.00000E+00
    0.00000E+00         0.00000E+00        -0.22493E+08
 
   -0.24323E+08        -0.92000E+05         0.00000E+00
   -0.92000E+05        -0.50754E+08         0.00000E+00
    0.00000E+00         0.00000E+00        -0.22603E+08
 
   -0.24812E+08        -0.14337E+06         0.00000E+00
   -0.14337E+06        -0.51295E+08         0.00000E+00
    0.00000E+00         0.00000E+00        -0.22713E+08
 
   -0.25340E+08        -0.19271E+06         0.00000E+00
   -0.19271E+06        -0.51865E+08         0.00000E+00
    0.00000E+00         0.00000E+00        -0.22825E+08
 
   -0.25901E+08        -0.23416E+06         0.00000E+00
   -0.23416E+06        -0.52459E+08         0.00000E+00
    0.00000E+00         0.00000E+00        -0.22938E+08
 
   -0.26479E+08        -0.25469E+06         0.00000E+00
   -0.25469E+06        -0.53065E+08         0.00000E+00
    0.00000E+00         0.00000E+00        -0.23055E+08
 
   -0.27044E+08        -0.22125E+06         0.00000E+00
   -0.22125E+06        -0.53647E+08         0.00000E+00
    0.00000E+00         0.00000E+00        -0.23163E+08
 
   -0.27547E+08        -0.93427E+05         0.00000E+00
   -0.93427E+05        -0.54106E+08         0.00000E+00
    0.00000E+00         0.00000E+00        -0.23208E+08
 
   -0.79835E+07        -0.16254E+06         0.00000E+00
   -0.16254E+06        -0.26890E+08         0.00000E+00
    0.00000E+00         0.00000E+00        -0.15428E+08
 
   -0.85202E+07        -0.38409E+06         0.00000E+00
   -0.38409E+06        -0.27635E+08         0.00000E+00
    0.00000E+00         0.00000E+00        -0.15392E+08
 
   -0.91905E+07        -0.43737E+06         0.00000E+00
   -0.43737E+06        -0.28551E+08         0.00000E+00
    0.00000E+00         0.00000E+00        -0.15377E+08
 
   -0.99079E+07        -0.40417E+06         0.00000E+00
   -0.40417E+06        -0.29484E+08         0.00000E+00
    0.00000E+00         0.00000E+00        -0.15351E+08
 
   -0.10634E+08        -0.33844E+06         0.00000E+00
   -0.33844E+06        -0.30379E+08         0.00000E+00
    0.00000E+00         0.00000E+00        -0.15318E+08
 
   -0.11348E+08        -0.25812E+06         0.00000E+00
   -0.25812E+06        -0.31219E+08         0.00000E+00
    0.00000E+00         0.00000E+00        -0.15291E+08
 
   -0.12034E+08        -0.17253E+06         0.00000E+00
   -0.17253E+06        -0.31999E+08         0.00000E+00
    0.00000E+00         0.00000E+00        -0.15276E+08
 
   -0.12683E+08        -0.87751E+05         0.00000E+00
   -0.87751E+05        -0.32719E+08         0.00000E+00
    0.00000E+00         0.00000E+00        -0.15278E+08
 
   -0.13287E+08        -0.77165E+04         0.00000E+00
   -0.77165E+04        -0.33382E+08         0.00000E+00
    0.00000E+00         0.00000E+00        -0.15298E+08
 
   -0.13844E+08         0.65094E+05         0.00000E+00
    0.65094E+05        -0.33992E+08         0.00000E+00
    0.00000E+00         0.00000E+00        -0.15338E+08
 
   -0.14353E+08         0.12933E+06         0.00000E+00
    0.12933E+06        -0.34553E+08         0.00000E+00
    0.00000E+00         0.00000E+00        -0.15394E+08
 
   -0.14813E+08         0.18448E+06         0.00000E+00
    0.18448E+06        -0.35070E+08         0.00000E+00
    0.00000E+00         0.00000E+00        -0.15466E+08
 
   -0.15227E+08         0.23066E+06         0.00000E+00
    0.23066E+06        -0.35548E+08         0.00000E+00
    0.00000E+00         0.00000E+00        -0.15551E+08
 
   -0.15599E+08         0.26836E+06         0.00000E+00
    0.26836E+06        -0.35990E+08         0.00000E+00
    0.00000E+00         0.00000E+00        -0.15646E+08
 
   -0.15932E+08         0.29833E+06         0.00000E+00
    0.29833E+06        -0.36399E+08         0.00000E+00
    0.00000E+00         0.00000E+00        -0.15749E+08
 
   -0.16230E+08         0.32141E+06         0.00000E+00
    0.32141E+06        -0.36780E+08         0.00000E+00
    0.00000E+00         0.00000E+00        -0.15859E+08
 
   -0.16496E+08         0.33851E+06         0.00000E+00
    0.33851E+06        -0.37135E+08         0.00000E+00
    0.00000E+00         0.00000E+00        -0.15973E+08
 
   -0.16733E+08         0.35048E+06         0.00000E+00
    0.35048E+06        -0.37466E+08         0.00000E+00
    0.00000E+00         0.00000E+00        -0.16090E+08
 
   -0.16945E+08         0.35814E+06         0.00000E+00
    0.35814E+06        -0.37775E+08         0.00000E+00
    0.00000E+00         0.00000E+00        -0.16208E+08
 
   -0.17136E+08         0.36220E+06         0.00000E+00
    0.36220E+06        -0.38065E+08         0.00000E+00
    0.00000E+00         0.00000E+00        -0.16328E+08
 
   -0.17306E+08         0.36333E+06         0.00000E+00
    0.36333E+06        -0.38337E+08         0.00000E+00
    0.00000E+00         0.00000E+00        -0.16447E+08
 
   -0.17460E+08         0.36207E+06         0.00000E+00
    0.36207E+06        -0.38592E+08         0.00000E+00
    0.00000E+00         0.00000E+00        -0.16565E+08
 
   -0.17599E+08         0.35891E+06         0.00000E+00
    0.35891E+06        -0.38833E+08         0.00000E+00
    0.00000E+00         0.00000E+00        -0.16682E+08
 
   -0.17724E+08         0.35427E+06         0.00000E+00
    0.35427E+06        -0.39060E+08         0.00000E+00
    0.00000E+00         0.00000E+00        -0.16797E+08
 
   -0.17838E+08         0.34847E+06         0.00000E+00
    0.34847E+06        -0.39274E+08         0.00000E+00
    0.00000E+00         0.00000E+00        -0.16909E+08
 
   -0.17941E+08         0.34182E+06         0.00000E+00
    0.34182E+06        -0.39477E+08         0.00000E+00
    0.00000E+00         0.00000E+00        -0.17020E+08
 
   -0.18035E+08         0.33455E+06         0.00000E+00
    0.33455E+06        -0.39669E+08         0.00000E+00
    0.00000E+00         0.00000E+00        -0.17128E+08
 
   -0.18122E+08         0.32685E+06         0.00000E+00
    0.32685E+06        -0.39852E+08         0.00000E+00
    0.00000E+00         0.00000E+00        -0.17233E+08
 
   -0.18201E+08         0.31889E+06         0.00000E+00
    0.31889E+06        -0.40025E+08         0.00000E+00
    0.00000E+00         0.00000E+00        -0.17336E+08
 
   -0.18275E+08         0.31080E+06         0.00000E+00
    0.31080E+06        -0.40190E+08         0.00000E+00
    0.00000E+00         0.00000E+00        -0.17436E+08
 
   -0.18342E+08         0.30268E+06         0.00000E+00
    0.30268E+06        -0.40347E+08         0.00000E+00
    0.00000E+00         0.00000E+00        -0.17533E+08
 
   -0.18405E+08         0.29463E+06         0.00000E+00
    0.29463E+06        -0.40498E+08         0.00000E+00
    0.00000E+00         0.00000E+00        -0.17627E+08
 
   -0.18464E+08         0.28671E+06         0.00000E+00
    0.28671E+06        -0.40641E+08         0.00000E+00
    0.00000E+00         0.00000E+00        -0.17719E+08
 
   -0.18518E+08         0.27899E+06         0.00000E+00
    0.27899E+06        -0.40779E+08         0.00000E+00
    0.00000E+00         0.00000E+00        -0.17809E+08
 
   -0.18569E+08         0.27150E+06         0.00000E+00
    0.27150E+06        -0.40911E+08         0.00000E+00
    0.00000E+00         0.00000E+00        -0.17896E+08
 
   -0.18618E+08         0.26428E+06         0.00000E+00
    0.26428E+06        -0.41038E+08         0.00000E+00
    0.00000E+00         0.00000E+00        -0.17980E+08
 
   -0.18663E+08         0.25736E+06         0.00000E+00
    0.25736E+06        -0.41160E+08         0.00000E+00
    0.00000E+00         0.00000E+00        -0.18063E+08
 
   -0.18706E+08         0.25075E+06         0.00000E+00
    0.25075E+06        -0.41277E+08         0.00000E+00
    0.00000E+00         0.00000E+00        -0.18143E+08
 
   -0.18747E+08         0.24449E+06         0.00000E+00
    0.24449E+06        -0.41391E+08         0.00000E+00
    0.00000E+00         0.00000E+00        -0.18221E+08
 
   -0.18786E+08         0.23857E+06         0.00000E+00
    0.23857E+06        -0.41501E+08         0.00000E+00
    0.00000E+00         0.00000E+00        -0.18297E+08
 
   -0.18823E+08         0.23301E+06         0.00000E+00
    0.23301E+06        -0.41608E+08         0.00000E+00
    0.00000E+00         0.00000E+00        -0.18372E+08
 
   -0.18859E+08         0.22781E+06         0.00000E+00
    0.22781E+06        -0.41711E+08         0.00000E+00
    0.00000E+00         0.00000E+00        -0.18445E+08
 
   -0.18894E+08         0.22297E+06         0.00000E+00
    0.22297E+06        -0.41812E+08         0.00000E+00
    0.00000E+00         0.00000E+00        -0.18516E+08
 
   -0.18927E+08         0.21850E+06         0.00000E+00
    0.21850E+06        -0.41911E+08         0.00000E+00
    0.00000E+00         0.00000E+00        -0.18586E+08
 
   -0.18960E+08         0.21440E+06         0.00000E+00
    0.21440E+06        -0.42007E+08         0.00000E+00
    0.00000E+00         0.00000E+00        -0.18655E+08
 
   -0.18992E+08         0.21066E+06         0.00000E+00
    0.21066E+06        -0.42101E+08         0.00000E+00
    0.00000E+00         0.00000E+00        -0.18722E+08
 
   -0.19023E+08         0.20728E+06         0.00000E+00
    0.20728E+06        -0.42194E+08         0.00000E+00
    0.00000E+00         0.00000E+00        -0.18788E+08
 
   -0.19053E+08         0.20426E+06         0.00000E+00
    0.20426E+06        -0.42285E+08         0.00000E+00
    0.00000E+00         0.00000E+00        -0.18854E+08
 
   -0.19083E+08         0.20159E+06         0.00000E+00
    0.20159E+06        -0.42375E+08         0.00000E+00
    0.00000E+00         0.00000E+00        -0.18919E+08
 
   -0.19113E+08         0.19927E+06         0.00000E+00
    0.19927E+06        -0.42464E+08         0.00000E+00
    0.00000E+00         0.00000E+00        -0.18983E+08
 
   -0.19143E+08         0.19730E+06         0.00000E+00
    0.19730E+06        -0.42552E+08         0.00000E+00
    0.00000E+00         0.00000E+00        -0.19046E+08
 
   -0.19173E+08         0.19566E+06         0.00000E+00
    0.19566E+06        -0.42640E+08         0.00000E+00
    0.00000E+00         0.00000E+00        -0.19109E+08
 
   -0.19202E+08         0.19435E+06         0.00000E+00
    0.19435E+06        -0.42727E+08         0.00000E+00
    0.00000E+00         0.00000E+00        -0.19172E+08
 
   -0.19232E+08         0.19336E+06         0.00000E+00
    0.19336E+06        -0.42814E+08         0.00000E+00
    0.00000E+00         0.00000E+00        -0.19234E+08
 
   -0.19263E+08         0.19269E+06         0.00000E+00
    0.19269E+06        -0.42902E+08         0.00000E+00
    0.00000E+00         0.00000E+00        -0.19296E+08
 
   -0.19294E+08         0.19232E+06         0.00000E+00
    0.19232E+06        -0.42990E+08         0.00000E+00
    0.00000E+00         0.00000E+00        -0.19359E+08
 
   -0.19325E+08         0.19225E+06         0.00000E+00
    0.19225E+06        -0.43078E+08         0.00000E+00
    0.00000E+00         0.00000E+00        -0.19421E+08
 
   -0.19357E+08         0.19246E+06         0.00000E+00
    0.19246E+06        -0.43168E+08         0.00000E+00
    0.00000E+00         0.00000E+00        -0.19484E+08
 
   -0.19390E+08         0.19295E+06         0.00000E+00
    0.19295E+06        -0.43258E+08         0.00000E+00
    0.00000E+00         0.00000E+00        -0.19547E+08
 
   -0.19424E+08         0.19370E+06         0.00000E+00
    0.19370E+06        -0.43350E+08         0.00000E+00
    0.00000E+00         0.00000E+00        -0.19611E+08
 
   -0.19459E+08         0.19470E+06         0.00000E+00
    0.19470E+06        -0.43444E+08         0.00000E+00
    0.00000E+00         0.00000E+00        -0.19675E+08
 
   -0.19496E+08         0.19593E+06         0.00000E+00
    0.19593E+06        -0.43539E+08         0.00000E+00
    0.00000E+00         0.00000E+00        -0.19740E+08
 
   -0.19534E+08         0.19738E+06         0.00000E+00
    0.19738E+06        -0.43637E+08         0.00000E+00
    0.00000E+00         0.00000E+00        -0.19805E+08
 
   -0.19573E+08         0.19903E+06         0.00000E+00
    0.19903E+06        -0.43737E+08         0.00000E+00
    0.00000E+00         0.00000E+00        -0.19872E+08
 
   -0.19615E+08         0.20085E+06         0.00000E+00
    0.20085E+06        -0.43840E+08         0.00000E+00
    0.00000E+00         0.00000E+00        -0.19939E+08
 
   -0.19659E+08         0.20282E+06         0.00000E+00
    0.20282E+06        -0.43945E+08         0.00000E+00
    0.00000E+00         0.00000E+00        -0.20008E+08
 
   -0.19705E+08         0.20491E+06         0.00000E+00
    0.20491E+06        -0.44055E+08         0.00000E+00
    0.00000E+00         0.00000E+00        -0.20078E+08
 
   -0.19754E+08         0.20709E+06         0.00000E+00
    0.20709E+06        -0.44168E+08         0.00000E+00
    0.00000E+00         0.00000E+00        -0.20149E+08
 
   -0.19806E+08         0.20932E+06         0.00000E+00
    0.20932E+06        -0.44285E+08         0.00000E+00
    0.00000E+00         0.00000E+00        -0.20222E+08
 
   -0.19861E+08         0.21156E+06         0.00000E+00
    0.21156E+06        -0.44406E+08         0.00000E+00
    0.00000E+00         0.00000E+00        -0.20296E+08
 
   -0.19920E+08         0.21376E+06         0.00000E+00
    0.21376E+06        -0.44533E+08         0.00000E+00
    0.00000E+00         0.00000E+00        -0.20372E+08
 
   -0.19982E+08         0.21586E+06         0.00000E+00
    0.21586E+06        -0.44665E+08         0.00000E+00
    0.00000E+00         0.00000E+00        -0.20449E+08
 
   -0.20050E+08         0.21779E+06         0.00000E+00
    0.21779E+06        -0.44803E+08         0.00000E+00
    0.00000E+00         0.00000E+00        -0.20528E+08
 
   -0.20122E+08         0.21947E+06         0.00000E+00
    0.21947E+06        -0.44948E+08         0.00000E+00
    0.00000E+00         0.00000E+00        -0.20609E+08
 
   -0.20200E+08         0.22081E+06         0.00000E+00
    0.22081E+06        -0.45099E+08         0.00000E+00
    0.00000E+00         0.00000E+00        -0.20692E+08
 
   -0.20284E+08         0.22171E+06         0.00000E+00
    0.22171E+06        -0.45259E+08         0.00000E+00
    0.00000E+00         0.00000E+00        -0.20776E+08
 
   -0.20375E+08         0.22203E+06         0.00000E+00
    0.22203E+06        -0.45427E+08         0.00000E+00
    0.00000E+00         0.00000E+00        -0.20863E+08
 
   -0.20474E+08         0.22164E+06         0.00000E+00
    0.22164E+06        -0.45604E+08         0.00000E+00
    0.00000E+00         0.00000E+00        -0.20952E+08
 
   -0.20581E+08         0.22036E+06         0.00000E+00
    0.22036E+06        -0.45792E+08         0.00000E+00
    0.00000E+00         0.00000E+00        -0.21043E+08
 
   -0.20699E+08         0.21799E+06         0.00000E+00
    0.21799E+06        -0.45991E+08         0.00000E+00
    0.00000E+00         0.00000E+00        -0.21136E+08
 
   -0.20827E+08         0.21433E+06         0.00000E+00
    0.21433E+06        -0.46202E+08         0.00000E+00
    0.00000E+00         0.00000E+00        -0.21231E+08
 
   -0.20967E+08         0.20910E+06         0.00000E+00
    0.20910E+06        -0.46427E+08         0.00000E+00
    0.00000E+00         0.00000E+00        -0.21328E+08
 
   -0.21120E+08         0.20203E+06         0.00000E+00
    0.20203E+06        -0.46667E+08         0.00000E+00
    0.00000E+00         0.00000E+00        -0.21427E+08
 
   -0.21289E+08         0.19280E+06         0.00000E+00
    0.19280E+06        -0.46922E+08         0.00000E+00
    0.00000E+00         0.00000E+00        -0.21527E+08
 
   -0.21476E+08         0.18106E+06         0.00000E+00
    0.18106E+06        -0.47196E+08         0.00000E+00
    0.00000E+00         0.00000E+00        -0.21630E+08
 
   -0.21681E+08         0.16645E+06         0.00000E+00
    0.16645E+06        -0.47489E+08         0.00000E+00
    0.00000E+00         0.00000E+00        -0.21734E+08
 
   -0.21908E+08         0.14858E+06         0.00000E+00
    0.14858E+06        -0.47804E+08         0.00000E+00
    0.00000E+00         0.00000E+00        -0.21839E+08
 
   -0.22159E+08         0.12709E+06         0.00000E+00
    0.12709E+06        -0.48141E+08         0.00000E+00
    0.00000E+00         0.00000E+00        -0.21946E+08
 
   -0.22438E+08         0.10163E+06         0.00000E+00
    0.10163E+06        -0.48504E+08         0.00000E+00
    0.00000E+00         0.00000E+00        -0.22053E+08
 
   -0.22746E+08         0.71945E+05         0.00000E+00
    0.71945E+05        -0.48894E+08         0.00000E+00
    0.00000E+00         0.00000E+00        -0.22161E+08
 
   -0.23087E+08         0.37900E+05         0.00000E+00
    0.37900E+05        -0.49312E+08         0.00000E+00
    0.00000E+00         0.00000E+00        -0.22269E+08
 
   -0.23465E+08        -0.43747E+03         0.00000E+00
   -0.43747E+03        -0.49762E+08         0.00000E+00
    0.00000E+00         0.00000E+00        -0.22377E+08
 
   -0.23882E+08        -0.42699E+05         0.00000E+00
   -0.42699E+05        -0.50244E+08         0.00000E+00
    0.00000E+00         0.00000E+00        -0.22484E+08
 
   -0.24340E+08        -0.88068E+05         0.00000E+00
   -0.88068E+05        -0.50758E+08         0.00000E+00
    0.00000E+00         0.00000E+00        -0.22592E+08
 
   -0.24841E+08        -0.13507E+06         0.00000E+00
   -0.13507E+06        -0.51306E+08         0.00000E+00
    0.00000E+00         0.00000E+00        -0.22699E+08
 
   -0.25384E+08        -0.18105E+06         0.00000E+00
   -0.18105E+06        -0.51885E+08         0.00000E+00
    0.00000E+00         0.00000E+00        -0.22808E+08
 
   -0.25965E+08        -0.22129E+06         0.00000E+00
   -0.22129E+06        -0.52491E+08         0.00000E+00
    0.00000E+00         0.00000E+00        -0.22917E+08
 
   -0.26569E+08        -0.24537E+06         0.00000E+00
   -0.24537E+06        -0.53115E+08         0.00000E+00
    0.00000E+00         0.00000E+00        -0.23032E+08
 
   -0.27162E+08        -0.22078E+06         0.00000E+00
   -0.22078E+06        -0.53722E+08         0.00000E+00
    0.00000E+00         0.00000E+00        -0.23144E+08
 
   -0.27688E+08        -0.96426E+05         0.00000E+00
   -0.96426E+05        -0.54207E+08         0.00000E+00
    0.00000E+00         0.00000E+00        -0.23198E+08
 
   -0.78578E+07        -0.16410E+06         0.00000E+00
   -0.16410E+06        -0.26717E+08         0.00000E+00
    0.00000E+00         0.00000E+00        -0.15459E+08
 
   -0.84146E+07        -0.37074E+06         0.00000E+00
   -0.37074E+06        -0.27507E+08         0.00000E+00
    0.00000E+00         0.00000E+00        -0.15433E+08
 
   -0.91086E+07        -0.40548E+06         0.00000E+00
   -0.40548E+06        -0.28468E+08         0.00000E+00
    0.00000E+00         0.00000E+00        -0.15420E+08
 
   -0.98453E+07        -0.36820E+06         0.00000E+00
   -0.36820E+06        -0.29430E+08         0.00000E+00
    0.00000E+00         0.00000E+00        -0.15387E+08
 
   -0.10588E+08        -0.30709E+06         0.00000E+00
   -0.30709E+06        -0.30346E+08         0.00000E+00
    0.00000E+00         0.00000E+00        -0.15348E+08
 
   -0.11316E+08        -0.23489E+06         0.00000E+00
   -0.23489E+06        -0.31201E+08         0.00000E+00
    0.00000E+00         0.00000E+00        -0.15314E+08
 
   -0.12015E+08        -0.15906E+06         0.00000E+00
   -0.15906E+06        -0.31992E+08         0.00000E+00
    0.00000E+00         0.00000E+00        -0.15293E+08
 
   -0.12675E+08        -0.84470E+05         0.00000E+00
   -0.84470E+05        -0.32720E+08         0.00000E+00
    0.00000E+00         0.00000E+00        -0.15290E+08
 
   -0.13289E+08        -0.14336E+05         0.00000E+00
   -0.14336E+05        -0.33389E+08         0.00000E+00
    0.00000E+00         0.00000E+00        -0.15305E+08
 
   -0.13853E+08         0.49297E+05         0.00000E+00
    0.49297E+05        -0.34003E+08         0.00000E+00
    0.00000E+00         0.00000E+00        -0.15340E+08
 
   -0.14367E+08         0.10533E+06         0.00000E+00
    0.10533E+06        -0.34567E+08         0.00000E+00
    0.00000E+00         0.00000E+00        -0.15393E+08
 
   -0.14831E+08         0.15336E+06         0.00000E+00
    0.15336E+06        -0.35085E+08         0.00000E+00
    0.00000E+00         0.00000E+00        -0.15462E+08
 
   -0.15248E+08         0.19351E+06         0.00000E+00
    0.19351E+06        -0.35564E+08         0.00000E+00
    0.00000E+00         0.00000E+00        -0.15545E+08
 
   -0.15622E+08         0.22626E+06         0.00000E+00
    0.22626E+06        -0.36006E+08         0.00000E+00
    0.00000E+00         0.00000E+00        -0.15639E+08
 
   -0.15956E+08         0.25225E+06         0.00000E+00
    0.25225E+06        -0.36416E+08         0.00000E+00
    0.00000E+00         0.00000E+00        -0.15741E+08
 
   -0.16254E+08         0.27226E+06         0.00000E+00
    0.27226E+06        -0.36797E+08         0.00000E+00
    0.00000E+00         0.00000E+00        -0.15850E+08
 
   -0.16520E+08         0.28706E+06         0.00000E+00
    0.28706E+06        -0.37151E+08         0.00000E+00
    0.00000E+00         0.00000E+00        -0.15963E+08
 
   -0.16757E+08         0.29743E+06         0.00000E+00
    0.29743E+06        -0.37481E+08         0.00000E+00
    0.00000E+00         0.00000E+00        -0.16080E+08
 
   -0.16968E+08         0.30405E+06         0.00000E+00
    0.30405E+06        -0.37789E+08         0.00000E+00
    0.00000E+00         0.00000E+00        -0.16198E+08
 
   -0.17158E+08         0.30758E+06         0.00000E+00
    0.30758E+06        -0.38078E+08         0.00000E+00
    0.00000E+00         0.00000E+00        -0.16318E+08
 
   -0.17328E+08         0.30857E+06         0.00000E+00
    0.30857E+06        -0.38350E+08         0.00000E+00
    0.00000E+00         0.00000E+00        -0.16437E+08
 
   -0.17480E+08         0.30752E+06         0.00000E+00
    0.30752E+06        -0.38604E+08         0.00000E+00
    0.00000E+00         0.00000E+00        -0.16556E+08
 
   -0.17618E+08         0.30483E+06         0.00000E+00
    0.30483E+06        -0.38844E+08         0.00000E+00
    0.00000E+00         0.00000E+00        -0.16673E+08
 
   -0.17742E+08         0.30087E+06         0.00000E+00
    0.30087E+06        -0.39071E+08         0.00000E+00
    0.00000E+00         0.00000E+00        -0.16788E+08
 
   -0.17855E+08         0.29592E+06         0.00000E+00
    0.29592E+06        -0.39284E+08         0.00000E+00
    0.00000E+00         0.00000E+00        -0.16901E+08
 
   -0.17957E+08         0.29025E+06         0.00000E+00
    0.29025E+06        -0.39487E+08         0.00000E+00
    0.00000E+00         0.00000E+00        -0.17012E+08
 
   -0.18050E+08         0.28404E+06         0.00000E+00
    0.28404E+06        -0.39678E+08         0.00000E+00
    0.00000E+00         0.00000E+00        -0.17120E+08
 
   -0.18136E+08         0.27748E+06         0.00000E+00
    0.27748E+06        -0.39860E+08         0.00000E+00
    0.00000E+00         0.00000E+00        -0.17226E+08
 
   -0.18214E+08         0.27069E+06         0.00000E+00
    0.27069E+06        -0.40033E+08         0.00000E+00
    0.00000E+00         0.00000E+00        -0.17329E+08
 
   -0.18287E+08         0.26380E+06         0.00000E+00
    0.26380E+06        -0.40197E+08         0.00000E+00
    0.00000E+00         0.00000E+00        -0.17429E+08
 
   -0.18354E+08         0.25688E+06         0.00000E+00
    0.25688E+06        -0.40354E+08         0.00000E+00
    0.00000E+00         0.00000E+00        -0.17527E+08
 
   -0.18416E+08         0.25003E+06         0.00000E+00
    0.25003E+06        -0.40504E+08         0.00000E+00
    0.00000E+00         0.00000E+00        -0.17622E+08
 
   -0.18474E+08         0.24329E+06         0.00000E+00
    0.24329E+06        -0.40647E+08         0.00000E+00
    0.00000E+00         0.00000E+00        -0.17714E+08
 
   -0.18528E+08         0.23672E+06         0.00000E+00
    0.23672E+06        -0.40784E+08         0.00000E+00
    0.00000E+00         0.00000E+00        -0.17804E+08
 
   -0.18578E+08         0.23034E+06         0.00000E+00
    0.23034E+06        -0.40916E+08         0.00000E+00
    0.00000E+00         0.00000E+00        -0.17891E+08
 
   -0.18626E+08         0.22420E+06         0.00000E+00
    0.22420E+06        -0.41042E+08         0.00000E+00
    0.00000E+00         0.00000E+00        -0.17976E+08
 
   -0.18670E+08         0.21832E+06         0.00000E+00
    0.21832E+06        -0.41164E+08         0.00000E+00
    0.00000E+00         0.00000E+00        -0.18059E+08
 
   -0.18713E+08         0.21270E+06         0.00000E+00
    0.21270E+06        -0.41282E+08         0.00000E+00
    0.00000E+00         0.00000E+00        -0.18139E+08
 
   -0.18753E+08         0.20738E+06         0.00000E+00
    0.20738E+06        -0.41395E+08         0.00000E+00
    0.00000E+00         0.00000E+00        -0.18218E+08
 
   -0.18792E+08         0.20235E+06         0.00000E+00
    0.20235E+06        -0.41505E+08         0.00000E+00
    0.00000E+00         0.00000E+00        -0.18294E+08
 
   -0.18828E+08         0.19762E+06         0.00000E+00
    0.19762E+06        -0.41611E+08         0.00000E+00
    0.00000E+00         0.00000E+00        -0.18369E+08
 
   -0.18864E+08         0.19320E+06         0.00000E+00
    0.19320E+06        -0.41714E+08         0.00000E+00
    0.00000E+00         0.00000E+00        -0.18442E+08
 
   -0.18898E+08         0.18909E+06         0.00000E+00
    0.18909E+06        -0.41815E+08         0.00000E+00
    0.00000E+00         0.00000E+00        -0.18514E+08
 
   -0.18931E+08         0.18529E+06         0.00000E+00
    0.18529E+06        -0.41913E+08         0.00000E+00
    0.00000E+00         0.00000E+00        -0.18584E+08
 
   -0.18963E+08         0.18180E+06         0.00000E+00
    0.18180E+06        -0.42009E+08         0.00000E+00
    0.00000E+00         0.00000E+00        -0.18653E+08
 
   -0.18994E+08         0.17863E+06         0.00000E+00
    0.17863E+06        -0.42103E+08         0.00000E+00
    0.00000E+00         0.00000E+00        -0.18720E+08
 
   -0.19025E+08         0.17576E+06         0.00000E+00
    0.17576E+06        -0.42195E+08         0.00000E+00
    0.00000E+00         0.00000E+00        -0.18787E+08
 
   -0.19055E+08         0.17319E+06         0.00000E+00
    0.17319E+06        -0.42286E+08         0.00000E+00
    0.00000E+00         0.00000E+00        -0.18853E+08
 
   -0.19085E+08         0.17093E+06         0.00000E+00
    0.17093E+06        -0.42376E+08         0.00000E+00
    0.00000E+00         0.00000E+00        -0.18917E+08
 
   -0.19114E+08         0.16896E+06         0.00000E+00
    0.16896E+06        -0.42465E+08         0.00000E+00
    0.00000E+00         0.00000E+00        -0.18982E+08
 
   -0.19144E+08         0.16728E+06         0.00000E+00
    0.16728E+06        -0.42553E+08         0.00000E+00
    0.00000E+00         0.00000E+00        -0.19045E+08
 
   -0.19173E+08         0.16588E+06         0.00000E+00
    0.16588E+06        -0.42640E+08         0.00000E+00
    0.00000E+00         0.00000E+00        -0.19108E+08
 
   -0.19202E+08         0.16477E+06         0.00000E+00
    0.16477E+06        -0.42727E+08         0.00000E+00
    0.00000E+00         0.00000E+00        -0.19171E+08
 
   -0.19232E+08         0.16393E+06         0.00000E+00
    0.16393E+06        -0.42814E+08         0.00000E+00
    0.00000E+00         0.00000E+00        -0.19234E+08
 
   -0.19262E+08         0.16336E+06         0.00000E+00
    0.16336E+06        -0.42902E+08         0.00000E+00
    0.00000E+00         0.00000E+00        -0.19296E+08
 
   -0.19292E+08         0.16304E+06         0.00000E+00
    0.16304E+06        -0.42990E+08         0.00000E+00
    0.00000E+00         0.00000E+00        -0.19359E+08
 
   -0.19323E+08         0.16298E+06         0.00000E+00
    0.16298E+06        -0.43078E+08         0.00000E+00
    0.00000E+00         0.00000E+00        -0.19422E+08
 
   -0.19355E+08         0.16316E+06         0.00000E+00
    0.16316E+06        -0.43167E+08         0.00000E+00
    0.00000E+00         0.00000E+00        -0.19484E+08
 
   -0.19388E+08         0.16358E+06         0.00000E+00
    0.16358E+06        -0.43257E+08         0.00000E+00
    0.00000E+00         0.00000E+00        -0.19548E+08
 
   -0.19421E+08         0.16421E+06         0.00000E+00
    0.16421E+06        -0.43349E+08         0.00000E+00
    0.00000E+00         0.00000E+00        -0.19611E+08
 
   -0.19456E+08         0.16506E+06         0.00000E+00
    0.16506E+06        -0.43442E+08         0.00000E+00
    0.00000E+00         0.00000E+00        -0.19676E+08
 
   -0.19492E+08         0.16611E+06         0.00000E+00
    0.16611E+06        -0.43538E+08         0.00000E+00
    0.00000E+00         0.00000E+00        -0.19741E+08
 
   -0.19530E+08         0.16733E+06         0.00000E+00
    0.16733E+06        -0.43635E+08         0.00000E+00
    0.00000E+00         0.00000E+00        -0.19807E+08
 
   -0.19569E+08         0.16873E+06         0.00000E+00
    0.16873E+06        -0.43735E+08         0.00000E+00
    0.00000E+00         0.00000E+00        -0.19873E+08
 
   -0.19610E+08         0.17027E+06         0.00000E+00
    0.17027E+06        -0.43837E+08         0.00000E+00
    0.00000E+00         0.00000E+00        -0.19941E+08
 
   -0.19653E+08         0.17195E+06         0.00000E+00
    0.17195E+06        -0.43943E+08         0.00000E+00
    0.00000E+00         0.00000E+00        -0.20010E+08
 
   -0.19699E+08         0.17372E+06         0.00000E+00
    0.17372E+06        -0.44052E+08         0.00000E+00
    0.00000E+00         0.00000E+00        -0.20080E+08
 
   -0.19748E+08         0.17558E+06         0.00000E+00
    0.17558E+06        -0.44164E+08         0.00000E+00
    0.00000E+00         0.00000E+00        -0.20151E+08
 
   -0.19799E+08         0.17747E+06         0.00000E+00
    0.17747E+06        -0.44281E+08         0.00000E+00
    0.00000E+00         0.00000E+00        -0.20224E+08
 
   -0.19853E+08         0.17938E+06         0.00000E+00
    0.17938E+06        -0.44402E+08         0.00000E+00
    0.00000E+00         0.00000E+00        -0.20298E+08
 
   -0.19912E+08         0.18125E+06         0.00000E+00
    0.18125E+06        -0.44529E+08         0.00000E+00
    0.00000E+00         0.00000E+00        -0.20374E+08
 
   -0.19974E+08         0.18304E+06         0.00000E+00
    0.18304E+06        -0.44660E+08         0.00000E+00
    0.00000E+00         0.00000E+00        -0.20451E+08
 
   -0.20041E+08         0.18468E+06         0.00000E+00
    0.18468E+06        -0.44798E+08         0.00000E+00
    0.00000E+00         0.00000E+00        -0.20530E+08
 
   -0.20112E+08         0.18611E+06         0.00000E+00
    0.18611E+06        -0.44942E+08         0.00000E+00
    0.00000E+00         0.00000E+00        -0.20612E+08
 
   -0.20190E+08         0.18726E+06         0.00000E+00
    0.18726E+06        -0.45093E+08         0.00000E+00
    0.00000E+00         0.00000E+00        -0.20694E+08
 
   -0.20273E+08         0.18802E+06         0.00000E+00
    0.18802E+06        -0.45252E+08         0.00000E+00
    0.00000E+00         0.00000E+00        -0.20779E+08
 
   -0.20364E+08         0.18830E+06         0.00000E+00
    0.18830E+06        -0.45420E+08         0.00000E+00
    0.00000E+00         0.00000E+00        -0.20866E+08
 
   -0.20462E+08         0.18797E+06         0.00000E+00
    0.18797E+06        -0.45597E+08         0.00000E+00
    0.00000E+00         0.00000E+00        -0.20955E+08
 
   -0.20569E+08         0.18687E+06         0.00000E+00
    0.18687E+06        -0.45784E+08         0.00000E+00
    0.00000E+00         0.00000E+00        -0.21046E+08
 
   -0.20685E+08         0.18485E+06         0.00000E+00
    0.18485E+06        -0.45982E+08         0.00000E+00
    0.00000E+00         0.00000E+00        -0.21139E+08
 
   -0.20813E+08         0.18171E+06         0.00000E+00
    0.18171E+06        -0.46193E+08         0.00000E+00
    0.00000E+00         0.00000E+00        -0.21234E+08
 
   -0.20952E+08         0.17723E+06         0.00000E+00
    0.17723E+06        -0.46417E+08         0.00000E+00
    0.00000E+00         0.00000E+00        -0.21331E+08
 
   -0.21106E+08         0.17117E+06         0.00000E+00
    0.17117E+06        -0.46656E+08         0.00000E+00
    0.00000E+00         0.00000E+00        -0.21430E+08
 
   -0.21274E+08         0.16324E+06         0.00000E+00
    0.16324E+06        -0.46912E+08         0.00000E+00
    0.00000E+00         0.00000E+00        -0.21530E+08
 
   -0.21461E+08         0.15314E+06         0.00000E+00
    0.15314E+06        -0.47185E+08         0.00000E+00
    0.00000E+00         0.00000E+00        -0.21632E+08
 
   -0.21666E+08         0.14055E+06         0.00000E+00
    0.14055E+06        -0.47478E+08         0.00000E+00
    0.00000E+00         0.00000E+00        -0.21736E+08
 
   -0.21894E+08         0.12513E+06         0.00000E+00
    0.12513E+06        -0.47792E+08         0.00000E+00
    0.00000E+00         0.00000E+00        -0.21840E+08
 
   -0.22146E+08         0.10654E+06         0.00000E+00
    0.10654E+06        -0.48130E+08         0.00000E+00
    0.00000E+00         0.00000E+00        -0.21946E+08
 
   -0.22426E+08         0.84483E+05         0.00000E+00
    0.84483E+05        -0.48493E+08         0.00000E+00
    0.00000E+00         0.00000E+00        -0.22052E+08
 
   -0.22737E+08         0.58703E+05         0.00000E+00
    0.58703E+05        -0.48884E+08         0.00000E+00
    0.00000E+00         0.00000E+00        -0.22159E+08
 
   -0.23082E+08         0.29052E+05         0.00000E+00
    0.29052E+05        -0.49304E+08         0.00000E+00
    0.00000E+00         0.00000E+00        -0.22265E+08
 
   -0.23465E+08        -0.44562E+04         0.00000E+00
   -0.44562E+04        -0.49757E+08         0.00000E+00
    0.00000E+00         0.00000E+00        -0.22371E+08
 
   -0.23888E+08        -0.41565E+05         0.00000E+00
   -0.41565E+05        -0.50242E+08         0.00000E+00
    0.00000E+00         0.00000E+00        -0.22477E+08
 
   -0.24355E+08        -0.81668E+05         0.00000E+00
   -0.81668E+05        -0.50762E+08         0.00000E+00
    0.00000E+00         0.00000E+00        -0.22582E+08
 
   -0.24868E+08        -0.12365E+06         0.00000E+00
   -0.12365E+06        -0.51316E+08         0.00000E+00
    0.00000E+00         0.00000E+00        -0.22686E+08
 
   -0.25427E+08        -0.16549E+06         0.00000E+00
   -0.16549E+06        -0.51904E+08         0.00000E+00
    0.00000E+00         0.00000E+00        -0.22791E+08
 
   -0.26028E+08        -0.20353E+06         0.00000E+00
   -0.20353E+06        -0.52523E+08         0.00000E+00
    0.00000E+00         0.00000E+00        -0.22897E+08
 
   -0.26659E+08        -0.23032E+06         0.00000E+00
   -0.23032E+06        -0.53164E+08         0.00000E+00
    0.00000E+00         0.00000E+00        -0.23007E+08
 
   -0.27286E+08        -0.21623E+06         0.00000E+00
   -0.21623E+06        -0.53799E+08         0.00000E+00
    0.00000E+00         0.00000E+00        -0.23121E+08
 
   -0.27839E+08        -0.98777E+05         0.00000E+00
   -0.98777E+05        -0.54314E+08         0.00000E+00
    0.00000E+00         0.00000E+00        -0.23185E+08
 
   -0.77260E+07        -0.16378E+06         0.00000E+00
   -0.16378E+06        -0.26532E+08         0.00000E+00
    0.00000E+00         0.00000E+00        -0.15491E+08
 
   -0.83079E+07        -0.34799E+06         0.00000E+00
   -0.34799E+06        -0.27378E+08         0.00000E+00
    0.00000E+00         0.00000E+00        -0.15476E+08
 
   -0.90279E+07        -0.36256E+06         0.00000E+00
   -0.36256E+06        -0.28386E+08         0.00000E+00
    0.00000E+00         0.00000E+00        -0.15462E+08
 
   -0.97842E+07        -0.32362E+06         0.00000E+00
   -0.32362E+06        -0.29378E+08         0.00000E+00
    0.00000E+00         0.00000E+00        -0.15423E+08
 
   -0.10544E+08        -0.26884E+06         0.00000E+00
   -0.26884E+06        -0.30313E+08         0.00000E+00
    0.00000E+00         0.00000E+00        -0.15377E+08
 
   -0.11287E+08        -0.20603E+06         0.00000E+00
   -0.20603E+06        -0.31184E+08         0.00000E+00
    0.00000E+00         0.00000E+00        -0.15336E+08
 
   -0.11999E+08        -0.14104E+06         0.00000E+00
   -0.14104E+06        -0.31986E+08         0.00000E+00
    0.00000E+00         0.00000E+00        -0.15309E+08
 
   -0.12669E+08        -0.77548E+05         0.00000E+00
   -0.77548E+05        -0.32722E+08         0.00000E+00
    0.00000E+00         0.00000E+00        -0.15299E+08
 
   -0.13292E+08        -0.18098E+05         0.00000E+00
   -0.18098E+05        -0.33397E+08         0.00000E+00
    0.00000E+00         0.00000E+00        -0.15310E+08
 
   -0.13864E+08         0.35689E+05         0.00000E+00
    0.35689E+05        -0.34014E+08         0.00000E+00
    0.00000E+00         0.00000E+00        -0.15341E+08
 
   -0.14383E+08         0.82946E+05         0.00000E+00
    0.82946E+05        -0.34581E+08         0.00000E+00
    0.00000E+00         0.00000E+00        -0.15391E+08
 
   -0.14851E+08         0.12338E+06         0.00000E+00
    0.12338E+06        -0.35101E+08         0.00000E+00
    0.00000E+00         0.00000E+00        -0.15457E+08
 
   -0.15271E+08         0.15714E+06         0.00000E+00
    0.15714E+06        -0.35581E+08         0.00000E+00
    0.00000E+00         0.00000E+00        -0.15538E+08
 
   -0.15647E+08         0.18462E+06         0.00000E+00
    0.18462E+06        -0.36023E+08         0.00000E+00
    0.00000E+00         0.00000E+00        -0.15630E+08
 
   -0.15982E+08         0.20640E+06         0.00000E+00
    0.20640E+06        -0.36433E+08         0.00000E+00
    0.00000E+00         0.00000E+00        -0.15731E+08
 
   -0.16280E+08         0.22315E+06         0.00000E+00
    0.22315E+06        -0.36813E+08         0.00000E+00
    0.00000E+00         0.00000E+00        -0.15840E+08
 
   -0.16545E+08         0.23553E+06         0.00000E+00
    0.23553E+06        -0.37166E+08         0.00000E+00
    0.00000E+00         0.00000E+00        -0.15953E+08
 
   -0.16782E+08         0.24418E+06         0.00000E+00
    0.24418E+06        -0.37496E+08         0.00000E+00
    0.00000E+00         0.00000E+00        -0.16069E+08
 
   -0.16992E+08         0.24971E+06         0.00000E+00
    0.24971E+06        -0.37804E+08         0.00000E+00
    0.00000E+00         0.00000E+00        -0.16188E+08
 
   -0.17181E+08         0.25265E+06         0.00000E+00
    0.25265E+06        -0.38092E+08         0.00000E+00
    0.00000E+00         0.00000E+00        -0.16308E+08
 
   -0.17349E+08         0.25349E+06         0.00000E+00
    0.25349E+06        -0.38363E+08         0.00000E+00
    0.00000E+00         0.00000E+00        -0.16427E+08
 
   -0.17501E+08         0.25262E+06         0.00000E+00
    0.25262E+06        -0.38617E+08         0.00000E+00
    0.00000E+00         0.00000E+00        -0.16546E+08
 
   -0.17637E+08         0.25040E+06         0.00000E+00
    0.25040E+06        -0.38856E+08         0.00000E+00
    0.00000E+00         0.00000E+00        -0.16664E+08
 
   -0.17760E+08         0.24712E+06         0.00000E+00
    0.24712E+06        -0.39081E+08         0.00000E+00
    0.00000E+00         0.00000E+00        -0.16779E+08
 
   -0.17872E+08         0.24304E+06         0.00000E+00
    0.24304E+06        -0.39294E+08         0.00000E+00
    0.00000E+00         0.00000E+00        -0.16893E+08
 
   -0.17973E+08         0.23835E+06         0.00000E+00
    0.23835E+06        -0.39496E+08         0.00000E+00
    0.00000E+00         0.00000E+00        -0.17004E+08
 
   -0.18066E+08         0.23322E+06         0.00000E+00
    0.23322E+06        -0.39687E+08         0.00000E+00
    0.00000E+00         0.00000E+00        -0.17113E+08
 
   -0.18150E+08         0.22780E+06         0.00000E+00
    0.22780E+06        -0.39868E+08         0.00000E+00
    0.00000E+00         0.00000E+00        -0.17219E+08
 
   -0.18228E+08         0.22221E+06         0.00000E+00
    0.22221E+06        -0.40041E+08         0.00000E+00
    0.00000E+00         0.00000E+00        -0.17322E+08
 
   -0.18299E+08         0.21652E+06         0.00000E+00
    0.21652E+06        -0.40205E+08         0.00000E+00
    0.00000E+00         0.00000E+00        -0.17423E+08
 
   -0.18365E+08         0.21083E+06         0.00000E+00
    0.21083E+06        -0.40361E+08         0.00000E+00
    0.00000E+00         0.00000E+00        -0.17521E+08
 
   -0.18427E+08         0.20518E+06         0.00000E+00
    0.20518E+06        -0.40510E+08         0.00000E+00
    0.00000E+00         0.00000E+00        -0.17616E+08
 
   -0.18484E+08         0.19963E+06         0.00000E+00
    0.19963E+06        -0.40653E+08         0.00000E+00
    0.00000E+00         0.00000E+00        -0.17709E+08
 
   -0.18537E+08         0.19422E+06         0.00000E+00
    0.19422E+06        -0.40790E+08         0.00000E+00
    0.00000E+00         0.00000E+00        -0.17799E+08
 
   -0.18587E+08         0.18898E+06         0.00000E+00
    0.18898E+06        -0.40921E+08         0.00000E+00
    0.00000E+00         0.00000E+00        -0.17887E+08
 
   -0.18634E+08         0.18392E+06         0.00000E+00
    0.18392E+06        -0.41047E+08         0.00000E+00
    0.00000E+00         0.00000E+00        -0.17972E+08
 
   -0.18678E+08         0.17908E+06         0.00000E+00
    0.17908E+06        -0.41169E+08         0.00000E+00
    0.00000E+00         0.00000E+00        -0.18055E+08
 
   -0.18720E+08         0.17447E+06         0.00000E+00
    0.17447E+06        -0.41286E+08         0.00000E+00
    0.00000E+00         0.00000E+00        -0.18136E+08
 
   -0.18759E+08         0.17009E+06         0.00000E+00
    0.17009E+06        -0.41399E+08         0.00000E+00
    0.00000E+00         0.00000E+00        -0.18214E+08
 
   -0.18797E+08         0.16595E+06         0.00000E+00
    0.16595E+06        -0.41508E+08         0.00000E+00
    0.00000E+00         0.00000E+00        -0.18291E+08
 
   -0.18834E+08         0.16207E+06         0.00000E+00
    0.16207E+06        -0.41614E+08         0.00000E+00
    0.00000E+00         0.00000E+00        -0.18366E+08
 
   -0.18869E+08         0.15843E+06         0.00000E+00
    0.15843E+06        -0.41717E+08         0.00000E+00
    0.00000E+00         0.00000E+00        -0.18440E+08
 
   -0.18902E+08         0.15506E+06         0.00000E+00
    0.15506E+06        -0.41818E+08         0.00000E+00
    0.00000E+00         0.00000E+00        -0.18511E+08
 
   -0.18935E+08         0.15194E+06         0.00000E+00
    0.15194E+06        -0.41915E+08         0.00000E+00
    0.00000E+00         0.00000E+00        -0.18582E+08
 
   -0.18966E+08         0.14907E+06         0.00000E+00
    0.14907E+06        -0.42011E+08         0.00000E+00
    0.00000E+00         0.00000E+00        -0.18651E+08
 
   -0.18997E+08         0.14646E+06         0.00000E+00
    0.14646E+06        -0.42105E+08         0.00000E+00
    0.00000E+00         0.00000E+00        -0.18719E+08
 
   -0.19027E+08         0.14411E+06         0.00000E+00
    0.14411E+06        -0.42197E+08         0.00000E+00
    0.00000E+00         0.00000E+00        -0.18785E+08
 
   -0.19057E+08         0.14200E+06         0.00000E+00
    0.14200E+06        -0.42288E+08         0.00000E+00
    0.00000E+00         0.00000E+00        -0.18851E+08
 
   -0.19086E+08         0.14014E+06         0.00000E+00
    0.14014E+06        -0.42377E+08         0.00000E+00
    0.00000E+00         0.00000E+00        -0.18916E+08
 
   -0.19115E+08         0.13852E+06         0.00000E+00
    0.13852E+06        -0.42466E+08         0.00000E+00
    0.00000E+00         0.00000E+00        -0.18981E+08
 
   -0.19144E+08         0.13714E+06         0.00000E+00
    0.13714E+06        -0.42553E+08         0.00000E+00
    0.00000E+00         0.00000E+00        -0.19045E+08
 
   -0.19173E+08         0.13599E+06         0.00000E+00
    0.13599E+06        -0.42641E+08         0.00000E+00
    0.00000E+00         0.00000E+00        -0.19108E+08
 
   -0.19202E+08         0.13508E+06         0.00000E+00
    0.13508E+06        -0.42728E+08         0.00000E+00
    0.00000E+00         0.00000E+00        -0.19171E+08
 
   -0.19231E+08         0.13439E+06         0.00000E+00
    0.13439E+06        -0.42815E+08         0.00000E+00
    0.00000E+00         0.00000E+00        -0.19234E+08
 
   -0.19261E+08         0.13392E+06         0.00000E+00
    0.13392E+06        -0.42902E+08         0.00000E+00
    0.00000E+00         0.00000E+00        -0.19296E+08
 
   -0.19291E+08         0.13366E+06         0.00000E+00
    0.13366E+06        -0.42989E+08         0.00000E+00
    0.00000E+00         0.00000E+00        -0.19359E+08
 
   -0.19322E+08         0.13361E+06         0.00000E+00
    0.13361E+06        -0.43077E+08         0.00000E+00
    0.00000E+00         0.00000E+00        -0.19422E+08
 
   -0.19353E+08         0.13375E+06         0.00000E+00
    0.13375E+06        -0.43166E+08         0.00000E+00
    0.00000E+00         0.00000E+00        -0.19485E+08
 
   -0.19385E+08         0.13409E+06         0.00000E+00
    0.13409E+06        -0.43256E+08         0.00000E+00
    0.00000E+00         0.00000E+00        -0.19548E+08
 
   -0.19418E+08         0.13461E+06         0.00000E+00
    0.13461E+06        -0.43348E+08         0.00000E+00
    0.00000E+00         0.00000E+00        -0.19612E+08
 
   -0.19453E+08         0.13531E+06         0.00000E+00
    0.13531E+06        -0.43441E+08         0.00000E+00
    0.00000E+00         0.00000E+00        -0.19677E+08
 
   -0.19488E+08         0.13617E+06         0.00000E+00
    0.13617E+06        -0.43536E+08         0.00000E+00
    0.00000E+00         0.00000E+00        -0.19742E+08
 
   -0.19526E+08         0.13718E+06         0.00000E+00
    0.13718E+06        -0.43633E+08         0.00000E+00
    0.00000E+00         0.00000E+00        -0.19808E+08
 
   -0.19564E+08         0.13832E+06         0.00000E+00
    0.13832E+06        -0.43732E+08         0.00000E+00
    0.00000E+00         0.00000E+00        -0.19875E+08
 
   -0.19605E+08         0.13959E+06         0.00000E+00
    0.13959E+06        -0.43835E+08         0.00000E+00
    0.00000E+00         0.00000E+00        -0.19942E+08
 
   -0.19648E+08         0.14096E+06         0.00000E+00
    0.14096E+06        -0.43940E+08         0.00000E+00
    0.00000E+00         0.00000E+00        -0.20011E+08
 
   -0.19693E+08         0.14242E+06         0.00000E+00
    0.14242E+06        -0.44048E+08         0.00000E+00
    0.00000E+00         0.00000E+00        -0.20081E+08
 
   -0.19741E+08         0.14395E+06         0.00000E+00
    0.14395E+06        -0.44161E+08         0.00000E+00
    0.00000E+00         0.00000E+00        -0.20153E+08
 
   -0.19792E+08         0.14551E+06         0.00000E+00
    0.14551E+06        -0.44277E+08         0.00000E+00
    0.00000E+00         0.00000E+00        -0.20226E+08
 
   -0.19846E+08         0.14708E+06         0.00000E+00
    0.14708E+06        -0.44398E+08         0.00000E+00
    0.00000E+00         0.00000E+00        -0.20300E+08
 
   -0.19904E+08         0.14862E+06         0.00000E+00
    0.14862E+06        -0.44524E+08         0.00000E+00
    0.00000E+00         0.00000E+00        -0.20376E+08
 
   -0.19966E+08         0.15009E+06         0.00000E+00
    0.15009E+06        -0.44655E+08         0.00000E+00
    0.00000E+00         0.00000E+00        -0.20454E+08
 
   -0.20032E+08         0.15144E+06         0.00000E+00
    0.15144E+06        -0.44792E+08         0.00000E+00
    0.00000E+00         0.00000E+00        -0.20533E+08
 
   -0.20103E+08         0.15263E+06         0.00000E+00
    0.15263E+06        -0.44936E+08         0.00000E+00
    0.00000E+00         0.00000E+00        -0.20614E+08
 
   -0.20180E+08         0.15357E+06         0.00000E+00
    0.15357E+06        -0.45087E+08         0.00000E+00
    0.00000E+00         0.00000E+00        -0.20697E+08
 
   -0.20263E+08         0.15421E+06         0.00000E+00
    0.15421E+06        -0.45246E+08         0.00000E+00
    0.00000E+00         0.00000E+00        -0.20782E+08
 
   -0.20352E+08         0.15444E+06         0.00000E+00
    0.15444E+06        -0.45413E+08         0.00000E+00
    0.00000E+00         0.00000E+00        -0.20869E+08
 
   -0.20450E+08         0.15417E+06         0.00000E+00
    0.15417E+06        -0.45589E+08         0.00000E+00
    0.00000E+00         0.00000E+00        -0.20958E+08
 
   -0.20556E+08         0.15327E+06         0.00000E+00
    0.15327E+06        -0.45776E+08         0.00000E+00
    0.00000E+00         0.00000E+00        -0.21049E+08
 
   -0.20672E+08         0.15160E+06         0.00000E+00
    0.15160E+06        -0.45973E+08         0.00000E+00
    0.00000E+00         0.00000E+00        -0.21142E+08
 
   -0.20799E+08         0.14901E+06         0.00000E+00
    0.14901E+06        -0.46183E+08         0.00000E+00
    0.00000E+00         0.00000E+00        -0.21237E+08
 
   -0.20938E+08         0.14530E+06         0.00000E+00
    0.14530E+06        -0.46407E+08         0.00000E+00
    0.00000E+00         0.00000E+00        -0.21334E+08
 
   -0.21091E+08         0.14028E+06         0.00000E+00
    0.14028E+06        -0.46645E+08         0.00000E+00
    0.00000E+00         0.00000E+00        -0.21433E+08
 
   -0.21259E+08         0.13369E+06         0.00000E+00
    0.13369E+06        -0.46900E+08         0.00000E+00
    0.00000E+00         0.00000E+00        -0.21533E+08
 
   -0.21445E+08         0.12530E+06         0.00000E+00
    0.12530E+06        -0.47173E+08         0.00000E+00
    0.00000E+00         0.00000E+00        -0.21635E+08
 
   -0.21651E+08         0.11482E+06         0.00000E+00
    0.11482E+06        -0.47466E+08         0.00000E+00
    0.00000E+00         0.00000E+00        -0.21738E+08
 
   -0.21879E+08         0.10195E+06         0.00000E+00
    0.10195E+06        -0.47780E+08         0.00000E+00
    0.00000E+00         0.00000E+00        -0.21842E+08
 
   -0.22132E+08         0.86419E+05         0.00000E+00
    0.86419E+05        -0.48118E+08         0.00000E+00
    0.00000E+00         0.00000E+00        -0.21947E+08
 
   -0.22414E+08         0.67945E+05         0.00000E+00
    0.67945E+05        -0.48482E+08         0.00000E+00
    0.00000E+00         0.00000E+00        -0.22053E+08
 
   -0.22727E+08         0.46299E+05         0.00000E+00
    0.46299E+05        -0.48874E+08         0.00000E+00
    0.00000E+00         0.00000E+00        -0.22158E+08
 
   -0.23075E+08         0.21329E+05         0.00000E+00
    0.21329E+05        -0.49296E+08         0.00000E+00
    0.00000E+00         0.00000E+00        -0.22263E+08
 
   -0.23463E+08        -0.69893E+04         0.00000E+00
   -0.69893E+04        -0.49751E+08         0.00000E+00
    0.00000E+00         0.00000E+00        -0.22368E+08
 
   -0.23893E+08        -0.38500E+05         0.00000E+00
   -0.38500E+05        -0.50240E+08         0.00000E+00
    0.00000E+00         0.00000E+00        -0.22471E+08
 
   -0.24369E+08        -0.72783E+05         0.00000E+00
   -0.72783E+05        -0.50765E+08         0.00000E+00
    0.00000E+00         0.00000E+00        -0.22573E+08
 
   -0.24894E+08        -0.10904E+06         0.00000E+00
   -0.10904E+06        -0.51326E+08         0.00000E+00
    0.00000E+00         0.00000E+00        -0.22674E+08
 
   -0.25468E+08        -0.14587E+06         0.00000E+00
   -0.14587E+06        -0.51924E+08         0.00000E+00
    0.00000E+00         0.00000E+00        -0.22775E+08
 
   -0.26091E+08        -0.18054E+06         0.00000E+00
   -0.18054E+06        -0.52554E+08         0.00000E+00
    0.00000E+00         0.00000E+00        -0.22876E+08
 
   -0.26751E+08        -0.20851E+06         0.00000E+00
   -0.20851E+06        -0.53212E+08         0.00000E+00
    0.00000E+00         0.00000E+00        -0.22981E+08
 
   -0.27418E+08        -0.20612E+06         0.00000E+00
   -0.20612E+06        -0.53876E+08         0.00000E+00
    0.00000E+00         0.00000E+00        -0.23096E+08
 
   -0.28005E+08        -0.10015E+06         0.00000E+00
   -0.10015E+06        -0.54427E+08         0.00000E+00
    0.00000E+00         0.00000E+00        -0.23170E+08
 
   -0.75875E+07        -0.16072E+06         0.00000E+00
   -0.16072E+06        -0.26335E+08         0.00000E+00
    0.00000E+00         0.00000E+00        -0.15526E+08
 
   -0.82008E+07        -0.31284E+06         0.00000E+00
   -0.31284E+06        -0.27247E+08         0.00000E+00
    0.00000E+00         0.00000E+00        -0.15520E+08
 
   -0.89488E+07        -0.30738E+06         0.00000E+00
   -0.30738E+06        -0.28306E+08         0.00000E+00
    0.00000E+00         0.00000E+00        -0.15503E+08
 
   -0.97249E+07        -0.27021E+06         0.00000E+00
   -0.27021E+06        -0.29326E+08         0.00000E+00
    0.00000E+00         0.00000E+00        -0.15457E+08
 
   -0.10501E+08        -0.22352E+06         0.00000E+00
   -0.22352E+06        -0.30282E+08         0.00000E+00
    0.00000E+00         0.00000E+00        -0.15404E+08
 
   -0.11260E+08        -0.17150E+06         0.00000E+00
   -0.17150E+06        -0.31168E+08         0.00000E+00
    0.00000E+00         0.00000E+00        -0.15356E+08
 
   -0.11985E+08        -0.11848E+06         0.00000E+00
   -0.11848E+06        -0.31981E+08         0.00000E+00
    0.00000E+00         0.00000E+00        -0.15322E+08
 
   -0.12666E+08        -0.67038E+05         0.00000E+00
   -0.67038E+05        -0.32725E+08         0.00000E+00
    0.00000E+00         0.00000E+00        -0.15307E+08
 
   -0.13298E+08        -0.19084E+05         0.00000E+00
   -0.19084E+05        -0.33405E+08         0.00000E+00
    0.00000E+00         0.00000E+00        -0.15313E+08
 
   -0.13877E+08         0.24171E+05         0.00000E+00
    0.24171E+05        -0.34026E+08         0.00000E+00
    0.00000E+00         0.00000E+00        -0.15340E+08
 
   -0.14401E+08         0.62083E+05         0.00000E+00
    0.62083E+05        -0.34595E+08         0.00000E+00
    0.00000E+00         0.00000E+00        -0.15386E+08
 
   -0.14873E+08         0.94456E+05         0.00000E+00
    0.94456E+05        -0.35117E+08         0.00000E+00
    0.00000E+00         0.00000E+00        -0.15451E+08
 
   -0.15296E+08         0.12143E+06         0.00000E+00
    0.12143E+06        -0.35597E+08         0.00000E+00
    0.00000E+00         0.00000E+00        -0.15529E+08
 
   -0.15673E+08         0.14334E+06         0.00000E+00
    0.14334E+06        -0.36040E+08         0.00000E+00
    0.00000E+00         0.00000E+00        -0.15620E+08
 
   -0.16009E+08         0.16069E+06         0.00000E+00
    0.16069E+06        -0.36450E+08         0.00000E+00
    0.00000E+00         0.00000E+00        -0.15721E+08
 
   -0.16307E+08         0.17400E+06         0.00000E+00
    0.17400E+06        -0.36829E+08         0.00000E+00
    0.00000E+00         0.00000E+00        -0.15829E+08
 
   -0.16572E+08         0.18382E+06         0.00000E+00
    0.18382E+06        -0.37182E+08         0.00000E+00
    0.00000E+00         0.00000E+00        -0.15942E+08
 
   -0.16807E+08         0.19068E+06         0.00000E+00
    0.19068E+06        -0.37511E+08         0.00000E+00
    0.00000E+00         0.00000E+00        -0.16059E+08
 
   -0.17017E+08         0.19506E+06         0.00000E+00
    0.19506E+06        -0.37818E+08         0.00000E+00
    0.00000E+00         0.00000E+00        -0.16178E+08
 
   -0.17205E+08         0.19738E+06         0.00000E+00
    0.19738E+06        -0.38106E+08         0.00000E+00
    0.00000E+00         0.00000E+00        -0.16298E+08
 
   -0.17372E+08         0.19803E+06         0.00000E+00
    0.19803E+06        -0.38376E+08         0.00000E+00
    0.00000E+00         0.00000E+00        -0.16418E+08
 
   -0.17522E+08         0.19734E+06         0.00000E+00
    0.19734E+06        -0.38629E+08         0.00000E+00
    0.00000E+00         0.00000E+00        -0.16537E+08
 
   -0.17657E+08         0.19559E+06         0.00000E+00
    0.19559E+06        -0.38867E+08         0.00000E+00
    0.00000E+00         0.00000E+00        -0.16655E+08
 
   -0.17779E+08         0.19301E+06         0.00000E+00
    0.19301E+06        -0.39092E+08         0.00000E+00
    0.00000E+00         0.00000E+00        -0.16771E+08
 
   -0.17890E+08         0.18979E+06         0.00000E+00
    0.18979E+06        -0.39305E+08         0.00000E+00
    0.00000E+00         0.00000E+00        -0.16885E+08
 
   -0.17990E+08         0.18610E+06         0.00000E+00
    0.18610E+06        -0.39506E+08         0.00000E+00
    0.00000E+00         0.00000E+00        -0.16997E+08
 
   -0.18081E+08         0.18207E+06         0.00000E+00
    0.18207E+06        -0.39696E+08         0.00000E+00
    0.00000E+00         0.00000E+00        -0.17106E+08
 
   -0.18165E+08         0.17782E+06         0.00000E+00
    0.17782E+06        -0.39877E+08         0.00000E+00
    0.00000E+00         0.00000E+00        -0.17212E+08
 
   -0.18241E+08         0.17343E+06         0.00000E+00
    0.17343E+06        -0.40048E+08         0.00000E+00
    0.00000E+00         0.00000E+00        -0.17316E+08
 
   -0.18312E+08         0.16897E+06         0.00000E+00
    0.16897E+06        -0.40212E+08         0.00000E+00
    0.00000E+00         0.00000E+00        -0.17417E+08
 
   -0.18377E+08         0.16450E+06         0.00000E+00
    0.16450E+06        -0.40368E+08         0.00000E+00
    0.00000E+00         0.00000E+00        -0.17516E+08
 
   -0.18438E+08         0.16008E+06         0.00000E+00
    0.16008E+06        -0.40517E+08         0.00000E+00
    0.00000E+00         0.00000E+00        -0.17611E+08
 
   -0.18494E+08         0.15573E+06         0.00000E+00
    0.15573E+06        -0.40659E+08         0.00000E+00
    0.00000E+00         0.00000E+00        -0.17704E+08
 
   -0.18546E+08         0.15150E+06         0.00000E+00
    0.15150E+06        -0.40795E+08         0.00000E+00
    0.00000E+00         0.00000E+00        -0.17795E+08
 
   -0.18595E+08         0.14739E+06         0.00000E+00
    0.14739E+06        -0.40926E+08         0.00000E+00
    0.00000E+00         0.00000E+00        -0.17883E+08
 
   -0.18642E+08         0.14344E+06         0.00000E+00
    0.14344E+06        -0.41052E+08         0.00000E+00
    0.00000E+00         0.00000E+00        -0.17968E+08
 
   -0.18685E+08         0.13966E+06         0.00000E+00
    0.13966E+06        -0.41173E+08         0.00000E+00
    0.00000E+00         0.00000E+00        -0.18051E+08
 
   -0.18727E+08         0.13605E+06         0.00000E+00
    0.13605E+06        -0.41290E+08         0.00000E+00
    0.00000E+00         0.00000E+00        -0.18132E+08
 
   -0.18766E+08         0.13262E+06         0.00000E+00
    0.13262E+06        -0.41403E+08         0.00000E+00
    0.00000E+00         0.00000E+00        -0.18211E+08
 
   -0.18803E+08         0.12939E+06         0.00000E+00
    0.12939E+06        -0.41512E+08         0.00000E+00
    0.00000E+00         0.00000E+00        -0.18288E+08
 
   -0.18839E+08         0.12635E+06         0.00000E+00
    0.12635E+06        -0.41617E+08         0.00000E+00
    0.00000E+00         0.00000E+00        -0.18364E+08
 
   -0.18873E+08         0.12352E+06         0.00000E+00
    0.12352E+06        -0.41720E+08         0.00000E+00
    0.00000E+00         0.00000E+00        -0.18437E+08
 
   -0.18906E+08         0.12088E+06         0.00000E+00
    0.12088E+06        -0.41820E+08         0.00000E+00
    0.00000E+00         0.00000E+00        -0.18509E+08
 
   -0.18938E+08         0.11844E+06         0.00000E+00
    0.11844E+06        -0.41918E+08         0.00000E+00
    0.00000E+00         0.00000E+00        -0.18580E+08
 
   -0.18970E+08         0.11620E+06         0.00000E+00
    0.11620E+06        -0.42013E+08         0.00000E+00
    0.00000E+00         0.00000E+00        -0.18649E+08
 
   -0.19000E+08         0.11417E+06         0.00000E+00
    0.11417E+06        -0.42107E+08         0.00000E+00
    0.00000E+00         0.00000E+00        -0.18717E+08
 
   -0.19030E+08         0.11232E+06         0.00000E+00
    0.11232E+06        -0.42199E+08         0.00000E+00
    0.00000E+00         0.00000E+00        -0.18784E+08
 
   -0.19059E+08         0.11068E+06         0.00000E+00
    0.11068E+06        -0.42289E+08         0.00000E+00
    0.00000E+00         0.00000E+00        -0.18850E+08
 
   -0.19088E+08         0.10922E+06         0.00000E+00
    0.10922E+06        -0.42378E+08         0.00000E+00
    0.00000E+00         0.00000E+00        -0.18915E+08
 
   -0.19117E+08         0.10796E+06         0.00000E+00
    0.10796E+06        -0.42467E+08         0.00000E+00
    0.00000E+00         0.00000E+00        -0.18980E+08
 
   -0.19145E+08         0.10688E+06         0.00000E+00
    0.10688E+06        -0.42554E+08         0.00000E+00
    0.00000E+00         0.00000E+00        -0.19044E+08
 
   -0.19174E+08         0.10599E+06         0.00000E+00
    0.10599E+06        -0.42641E+08         0.00000E+00
    0.00000E+00         0.00000E+00        -0.19107E+08
 
   -0.19202E+08         0.10527E+06         0.00000E+00
    0.10527E+06        -0.42728E+08         0.00000E+00
    0.00000E+00         0.00000E+00        -0.19171E+08
 
   -0.19231E+08         0.10473E+06         0.00000E+00
    0.10473E+06        -0.42815E+08         0.00000E+00
    0.00000E+00         0.00000E+00        -0.19234E+08
 
   -0.19260E+08         0.10437E+06         0.00000E+00
    0.10437E+06        -0.42901E+08         0.00000E+00
    0.00000E+00         0.00000E+00        -0.19296E+08
 
   -0.19290E+08         0.10416E+06         0.00000E+00
    0.10416E+06        -0.42989E+08         0.00000E+00
    0.00000E+00         0.00000E+00        -0.19359E+08
 
   -0.19320E+08         0.10412E+06         0.00000E+00
    0.10412E+06        -0.43077E+08         0.00000E+00
    0.00000E+00         0.00000E+00        -0.19422E+08
 
   -0.19351E+08         0.10424E+06         0.00000E+00
    0.10424E+06        -0.43165E+08         0.00000E+00
    0.00000E+00         0.00000E+00        -0.19485E+08
 
   -0.19383E+08         0.10450E+06         0.00000E+00
    0.10450E+06        -0.43255E+08         0.00000E+00
    0.00000E+00         0.00000E+00        -0.19549E+08
 
   -0.19416E+08         0.10491E+06         0.00000E+00
    0.10491E+06        -0.43346E+08         0.00000E+00
    0.00000E+00         0.00000E+00        -0.19613E+08
 
   -0.19450E+08         0.10545E+06         0.00000E+00
    0.10545E+06        -0.43439E+08         0.00000E+00
    0.00000E+00         0.00000E+00        -0.19678E+08
 
   -0.19485E+08         0.10612E+06         0.00000E+00
    0.10612E+06        -0.43534E+08         0.00000E+00
    0.00000E+00         0.00000E+00        -0.19743E+08
 
   -0.19522E+08         0.10691E+06         0.00000E+00
    0.10691E+06        -0.43631E+08         0.00000E+00
    0.00000E+00         0.00000E+00        -0.19809E+08
 
   -0.19560E+08         0.10780E+06         0.00000E+00
    0.10780E+06        -0.43730E+08         0.00000E+00
    0.00000E+00         0.00000E+00        -0.19876E+08
 
   -0.19600E+08         0.10879E+06         0.00000E+00
    0.10879E+06        -0.43832E+08         0.00000E+00
    0.00000E+00         0.00000E+00        -0.19944E+08
 
   -0.19643E+08         0.10987E+06         0.00000E+00
    0.10987E+06        -0.43937E+08         0.00000E+00
    0.00000E+00         0.00000E+00        -0.20013E+08
 
   -0.19688E+08         0.11101E+06         0.00000E+00
    0.11101E+06        -0.44045E+08         0.00000E+00
    0.00000E+00         0.00000E+00        -0.20083E+08
 
   -0.19735E+08         0.11220E+06         0.00000E+00
    0.11220E+06        -0.44157E+08         0.00000E+00
    0.00000E+00         0.00000E+00        -0.20155E+08
 
   -0.19785E+08         0.11342E+06         0.00000E+00
    0.11342E+06        -0.44273E+08         0.00000E+00
    0.00000E+00         0.00000E+00        -0.20228E+08
 
   -0.19839E+08         0.11465E+06         0.00000E+00
    0.11465E+06        -0.44394E+08         0.00000E+00
    0.00000E+00         0.00000E+00        -0.20302E+08
 
   -0.19896E+08         0.11585E+06         0.00000E+00
    0.11585E+06        -0.44519E+08         0.00000E+00
    0.00000E+00         0.00000E+00        -0.20378E+08
 
   -0.19957E+08         0.11701E+06         0.00000E+00
    0.11701E+06        -0.44650E+08         0.00000E+00
    0.00000E+00         0.00000E+00        -0.20456E+08
 
   -0.20023E+08         0.11807E+06         0.00000E+00
    0.11807E+06        -0.44787E+08         0.00000E+00
    0.00000E+00         0.00000E+00        -0.20536E+08
 
   -0.20093E+08         0.11900E+06         0.00000E+00
    0.11900E+06        -0.44930E+08         0.00000E+00
    0.00000E+00         0.00000E+00        -0.20617E+08
 
   -0.20170E+08         0.11975E+06         0.00000E+00
    0.11975E+06        -0.45081E+08         0.00000E+00
    0.00000E+00         0.00000E+00        -0.20700E+08
 
   -0.20252E+08         0.12025E+06         0.00000E+00
    0.12025E+06        -0.45239E+08         0.00000E+00
    0.00000E+00         0.00000E+00        -0.20785E+08
 
   -0.20341E+08         0.12044E+06         0.00000E+00
    0.12044E+06        -0.45405E+08         0.00000E+00
    0.00000E+00         0.00000E+00        -0.20872E+08
 
   -0.20438E+08         0.12023E+06         0.00000E+00
    0.12023E+06        -0.45581E+08         0.00000E+00
    0.00000E+00         0.00000E+00        -0.20961E+08
 
   -0.20543E+08         0.11953E+06         0.00000E+00
    0.11953E+06        -0.45767E+08         0.00000E+00
    0.00000E+00         0.00000E+00        -0.21053E+08
 
   -0.20659E+08         0.11823E+06         0.00000E+00
    0.11823E+06        -0.45964E+08         0.00000E+00
    0.00000E+00         0.00000E+00        -0.21146E+08
 
   -0.20785E+08         0.11620E+06         0.00000E+00
    0.11620E+06        -0.46174E+08         0.00000E+00
    0.00000E+00         0.00000E+00        -0.21241E+08
 
   -0.20923E+08         0.11329E+06         0.00000E+00
    0.11329E+06        -0.46397E+08         0.00000E+00
    0.00000E+00         0.00000E+00        -0.21337E+08
 
   -0.21075E+08         0.10933E+06         0.00000E+00
    0.10933E+06        -0.46635E+08         0.00000E+00
    0.00000E+00         0.00000E+00        -0.21436E+08
 
   -0.21243E+08         0.10414E+06         0.00000E+00
    0.10414E+06        -0.46889E+08         0.00000E+00
    0.00000E+00         0.00000E+00        -0.21536E+08
 
   -0.21429E+08         0.97512E+05         0.00000E+00
    0.97512E+05        -0.47161E+08         0.00000E+00
    0.00000E+00         0.00000E+00        -0.21638E+08
 
   -0.21635E+08         0.89216E+05         0.00000E+00
    0.89216E+05        -0.47453E+08         0.00000E+00
    0.00000E+00         0.00000E+00        -0.21741E+08
 
   -0.21863E+08         0.79018E+05         0.00000E+00
    0.79018E+05        -0.47768E+08         0.00000E+00
    0.00000E+00         0.00000E+00        -0.21845E+08
 
   -0.22117E+08         0.66678E+05         0.00000E+00
    0.66678E+05        -0.48106E+08         0.00000E+00
    0.00000E+00         0.00000E+00        -0.21949E+08
 
   -0.22400E+08         0.51967E+05         0.00000E+00
    0.51967E+05        -0.48470E+08         0.00000E+00
    0.00000E+00         0.00000E+00        -0.22054E+08
 
   -0.22715E+08         0.34685E+05         0.00000E+00
    0.34685E+05        -0.48863E+08         0.00000E+00
    0.00000E+00         0.00000E+00        -0.22158E+08
 
   -0.23067E+08         0.14690E+05         0.00000E+00
    0.14690E+05        -0.49288E+08         0.00000E+00
    0.00000E+00         0.00000E+00        -0.22262E+08
 
   -0.23459E+08        -0.80734E+04         0.00000E+00
   -0.80734E+04        -0.49745E+08         0.00000E+00
    0.00000E+00         0.00000E+00        -0.22365E+08
 
   -0.23896E+08        -0.33525E+05         0.00000E+00
   -0.33525E+05        -0.50238E+08         0.00000E+00
    0.00000E+00         0.00000E+00        -0.22466E+08
 
   -0.24381E+08        -0.61408E+05         0.00000E+00
   -0.61408E+05        -0.50768E+08         0.00000E+00
    0.00000E+00         0.00000E+00        -0.22566E+08
 
   -0.24917E+08        -0.91194E+05         0.00000E+00
   -0.91194E+05        -0.51336E+08         0.00000E+00
    0.00000E+00         0.00000E+00        -0.22663E+08
 
   -0.25508E+08        -0.12204E+06         0.00000E+00
   -0.12204E+06        -0.51942E+08         0.00000E+00
    0.00000E+00         0.00000E+00        -0.22760E+08
 
   -0.26152E+08        -0.15205E+06         0.00000E+00
   -0.15205E+06        -0.52585E+08         0.00000E+00
    0.00000E+00         0.00000E+00        -0.22856E+08
 
   -0.26844E+08        -0.17894E+06         0.00000E+00
   -0.17894E+06        -0.53260E+08         0.00000E+00
    0.00000E+00         0.00000E+00        -0.22955E+08
 
   -0.27555E+08        -0.18833E+06         0.00000E+00
   -0.18833E+06        -0.53954E+08         0.00000E+00
    0.00000E+00         0.00000E+00        -0.23066E+08
 
   -0.28188E+08        -0.99972E+05         0.00000E+00
   -0.99972E+05        -0.54548E+08         0.00000E+00
    0.00000E+00         0.00000E+00        -0.23150E+08
 
   -0.74413E+07        -0.15351E+06         0.00000E+00
   -0.15351E+06        -0.26122E+08         0.00000E+00
    0.00000E+00         0.00000E+00        -0.15562E+08
 
   -0.80949E+07        -0.26113E+06         0.00000E+00
   -0.26113E+06        -0.27118E+08         0.00000E+00
    0.00000E+00         0.00000E+00        -0.15566E+08
 
   -0.88720E+07        -0.23909E+06         0.00000E+00
   -0.23909E+06        -0.28227E+08         0.00000E+00
    0.00000E+00         0.00000E+00        -0.15542E+08
 
   -0.96677E+07        -0.20787E+06         0.00000E+00
   -0.20787E+06        -0.29274E+08         0.00000E+00
    0.00000E+00         0.00000E+00        -0.15488E+08
 
   -0.10462E+08        -0.17098E+06         0.00000E+00
   -0.17098E+06        -0.30252E+08         0.00000E+00
    0.00000E+00         0.00000E+00        -0.15428E+08
 
   -0.11235E+08        -0.13128E+06         0.00000E+00
   -0.13128E+06        -0.31152E+08         0.00000E+00
    0.00000E+00         0.00000E+00        -0.15373E+08
 
   -0.11973E+08        -0.91408E+05         0.00000E+00
   -0.91408E+05        -0.31977E+08         0.00000E+00
    0.00000E+00         0.00000E+00        -0.15332E+08
 
   -0.12666E+08        -0.53005E+05         0.00000E+00
   -0.53005E+05        -0.32729E+08         0.00000E+00
    0.00000E+00         0.00000E+00        -0.15311E+08
 
   -0.13307E+08        -0.17382E+05         0.00000E+00
   -0.17382E+05        -0.33414E+08         0.00000E+00
    0.00000E+00         0.00000E+00        -0.15313E+08
 
   -0.13892E+08         0.14638E+05         0.00000E+00
    0.14638E+05        -0.34039E+08         0.00000E+00
    0.00000E+00         0.00000E+00        -0.15336E+08
 
   -0.14422E+08         0.42622E+05         0.00000E+00
    0.42622E+05        -0.34610E+08         0.00000E+00
    0.00000E+00         0.00000E+00        -0.15380E+08
 
   -0.14898E+08         0.66458E+05         0.00000E+00
    0.66458E+05        -0.35134E+08         0.00000E+00
    0.00000E+00         0.00000E+00        -0.15442E+08
 
   -0.15323E+08         0.86269E+05         0.00000E+00
    0.86269E+05        -0.35615E+08         0.00000E+00
    0.00000E+00         0.00000E+00        -0.15520E+08
 
   -0.15702E+08         0.10233E+06         0.00000E+00
    0.10233E+06        -0.36058E+08         0.00000E+00
    0.00000E+00         0.00000E+00        -0.15610E+08
 
   -0.16037E+08         0.11502E+06         0.00000E+00
    0.11502E+06        -0.36467E+08         0.00000E+00
    0.00000E+00         0.00000E+00        -0.15710E+08
 
   -0.16335E+08         0.12474E+06         0.00000E+00
    0.12474E+06        -0.36846E+08         0.00000E+00
    0.00000E+00         0.00000E+00        -0.15817E+08
 
   -0.16600E+08         0.13189E+06         0.00000E+00
    0.13189E+06        -0.37198E+08         0.00000E+00
    0.00000E+00         0.00000E+00        -0.15931E+08
 
   -0.16835E+08         0.13687E+06         0.00000E+00
    0.13687E+06        -0.37527E+08         0.00000E+00
    0.00000E+00         0.00000E+00        -0.16048E+08
 
   -0.17043E+08         0.14004E+06         0.00000E+00
    0.14004E+06        -0.37833E+08         0.00000E+00
    0.00000E+00         0.00000E+00        -0.16167E+08
 
   -0.17229E+08         0.14171E+06         0.00000E+00
    0.14171E+06        -0.38120E+08         0.00000E+00
    0.00000E+00         0.00000E+00        -0.16287E+08
 
   -0.17395E+08         0.14217E+06         0.00000E+00
    0.14217E+06        -0.38389E+08         0.00000E+00
    0.00000E+00         0.00000E+00        -0.16408E+08
 
   -0.17544E+08         0.14166E+06         0.00000E+00
    0.14166E+06        -0.38641E+08         0.00000E+00
    0.00000E+00         0.00000E+00        -0.16527E+08
 
   -0.17678E+08         0.14038E+06         0.00000E+00
    0.14038E+06        -0.38879E+08         0.00000E+00
    0.00000E+00         0.00000E+00        -0.16646E+08
 
   -0.17799E+08         0.13850E+06         0.00000E+00
    0.13850E+06        -0.39103E+08         0.00000E+00
    0.00000E+00         0.00000E+00        -0.16763E+08
 
   -0.17908E+08         0.13617E+06         0.00000E+00
    0.13617E+06        -0.39315E+08         0.00000E+00
    0.00000E+00         0.00000E+00        -0.16877E+08
 
   -0.18007E+08         0.13350E+06         0.00000E+00
    0.13350E+06        -0.39515E+08         0.00000E+00
    0.00000E+00         0.00000E+00        -0.16989E+08
 
   -0.18097E+08         0.13059E+06         0.00000E+00
    0.13059E+06        -0.39705E+08         0.00000E+00
    0.00000E+00         0.00000E+00        -0.17099E+08
 
   -0.18179E+08         0.12751E+06         0.00000E+00
    0.12751E+06        -0.39885E+08         0.00000E+00
    0.00000E+00         0.00000E+00        -0.17206E+08
 
   -0.18255E+08         0.12434E+06         0.00000E+00
    0.12434E+06        -0.40056E+08         0.00000E+00
    0.00000E+00         0.00000E+00        -0.17310E+08
 
   -0.18325E+08         0.12113E+06         0.00000E+00
    0.12113E+06        -0.40219E+08         0.00000E+00
    0.00000E+00         0.00000E+00        -0.17412E+08
 
   -0.18389E+08         0.11791E+06         0.00000E+00
    0.11791E+06        -0.40375E+08         0.00000E+00
    0.00000E+00         0.00000E+00        -0.17510E+08
 
   -0.18449E+08         0.11473E+06         0.00000E+00
    0.11473E+06        -0.40523E+08         0.00000E+00
    0.00000E+00         0.00000E+00        -0.17606E+08
 
   -0.18504E+08         0.11160E+06         0.00000E+00
    0.11160E+06        -0.40665E+08         0.00000E+00
    0.00000E+00         0.00000E+00        -0.17700E+08
 
   -0.18556E+08         0.10855E+06         0.00000E+00
    0.10855E+06        -0.40801E+08         0.00000E+00
    0.00000E+00         0.00000E+00        -0.17790E+08
 
   -0.18604E+08         0.10560E+06         0.00000E+00
    0.10560E+06        -0.40931E+08         0.00000E+00
    0.00000E+00         0.00000E+00        -0.17879E+08
 
   -0.18650E+08         0.10276E+06         0.00000E+00
    0.10276E+06        -0.41057E+08         0.00000E+00
    0.00000E+00         0.00000E+00        -0.17964E+08
 
   -0.18693E+08         0.10004E+06         0.00000E+00
    0.10004E+06        -0.41178E+08         0.00000E+00
    0.00000E+00         0.00000E+00        -0.18048E+08
 
   -0.18733E+08         0.97445E+05         0.00000E+00
    0.97445E+05        -0.41294E+08         0.00000E+00
    0.00000E+00         0.00000E+00        -0.18129E+08
 
   -0.18772E+08         0.94986E+05         0.00000E+00
    0.94986E+05        -0.41406E+08         0.00000E+00
    0.00000E+00         0.00000E+00        -0.18208E+08
 
   -0.18809E+08         0.92665E+05         0.00000E+00
    0.92665E+05        -0.41515E+08         0.00000E+00
    0.00000E+00         0.00000E+00        -0.18286E+08
 
   -0.18844E+08         0.90485E+05         0.00000E+00
    0.90485E+05        -0.41621E+08         0.00000E+00
    0.00000E+00         0.00000E+00        -0.18361E+08
 
   -0.18878E+08         0.88448E+05         0.00000E+00
    0.88448E+05        -0.41723E+08         0.00000E+00
    0.00000E+00         0.00000E+00        -0.18435E+08
 
   -0.18911E+08         0.86555E+05         0.00000E+00
    0.86555E+05        -0.41823E+08         0.00000E+00
    0.00000E+00         0.00000E+00        -0.18507E+08
 
   -0.18942E+08         0.84805E+05         0.00000E+00
    0.84805E+05        -0.41920E+08         0.00000E+00
    0.00000E+00         0.00000E+00        -0.18578E+08
 
   -0.18973E+08         0.83200E+05         0.00000E+00
    0.83200E+05        -0.42015E+08         0.00000E+00
    0.00000E+00         0.00000E+00        -0.18648E+08
 
   -0.19003E+08         0.81737E+05         0.00000E+00
    0.81737E+05        -0.42109E+08         0.00000E+00
    0.00000E+00         0.00000E+00        -0.18716E+08
 
   -0.19032E+08         0.80416E+05         0.00000E+00
    0.80416E+05        -0.42200E+08         0.00000E+00
    0.00000E+00         0.00000E+00        -0.18783E+08
 
   -0.19061E+08         0.79235E+05         0.00000E+00
    0.79235E+05        -0.42290E+08         0.00000E+00
    0.00000E+00         0.00000E+00        -0.18849E+08
 
   -0.19090E+08         0.78192E+05         0.00000E+00
    0.78192E+05        -0.42379E+08         0.00000E+00
    0.00000E+00         0.00000E+00        -0.18915E+08
 
   -0.19118E+08         0.77285E+05         0.00000E+00
    0.77285E+05        -0.42467E+08         0.00000E+00
    0.00000E+00         0.00000E+00        -0.18979E+08
 
   -0.19146E+08         0.76512E+05         0.00000E+00
    0.76512E+05        -0.42555E+08         0.00000E+00
    0.00000E+00         0.00000E+00        -0.19043E+08
 
   -0.19174E+08         0.75871E+05         0.00000E+00
    0.75871E+05        -0.42642E+08         0.00000E+00
    0.00000E+00         0.00000E+00        -0.19107E+08
 
   -0.19202E+08         0.75358E+05         0.00000E+00
    0.75358E+05        -0.42728E+08         0.00000E+00
    0.00000E+00         0.00000E+00        -0.19170E+08
 
   -0.19231E+08         0.74971E+05         0.00000E+00
    0.74971E+05        -0.42815E+08         0.00000E+00
    0.00000E+00         0.00000E+00        -0.19233E+08
 
   -0.19259E+08         0.74706E+05         0.00000E+00
    0.74706E+05        -0.42901E+08         0.00000E+00
    0.00000E+00         0.00000E+00        -0.19296E+08
 
   -0.19289E+08         0.74561E+05         0.00000E+00
    0.74561E+05        -0.42988E+08         0.00000E+00
    0.00000E+00         0.00000E+00        -0.19359E+08
 
   -0.19318E+08         0.74531E+05         0.00000E+00
    0.74531E+05        -0.43076E+08         0.00000E+00
    0.00000E+00         0.00000E+00        -0.19422E+08
 
   -0.19349E+08         0.74613E+05         0.00000E+00
    0.74613E+05        -0.43164E+08         0.00000E+00
    0.00000E+00         0.00000E+00        -0.19486E+08
 
   -0.19380E+08         0.74802E+05         0.00000E+00
    0.74802E+05        -0.43254E+08         0.00000E+00
    0.00000E+00         0.00000E+00        -0.19550E+08
 
   -0.19413E+08         0.75094E+05         0.00000E+00
    0.75094E+05        -0.43345E+08         0.00000E+00
    0.00000E+00         0.00000E+00        -0.19614E+08
 
   -0.19446E+08         0.75483E+05         0.00000E+00
    0.75483E+05        -0.43438E+08         0.00000E+00
    0.00000E+00         0.00000E+00        -0.19678E+08
 
   -0.19481E+08         0.75963E+05         0.00000E+00
    0.75963E+05        -0.43532E+08         0.00000E+00
    0.00000E+00         0.00000E+00        -0.19744E+08
 
   -0.19518E+08         0.76528E+05         0.00000E+00
    0.76528E+05        -0.43629E+08         0.00000E+00
    0.00000E+00         0.00000E+00        -0.19810E+08
 
   -0.19556E+08         0.77171E+05         0.00000E+00
    0.77171E+05        -0.43727E+08         0.00000E+00
    0.00000E+00         0.00000E+00        -0.19877E+08
 
   -0.19595E+08         0.77883E+05         0.00000E+00
    0.77883E+05        -0.43829E+08         0.00000E+00
    0.00000E+00         0.00000E+00        -0.19945E+08
 
   -0.19637E+08         0.78654E+05         0.00000E+00
    0.78654E+05        -0.43934E+08         0.00000E+00
    0.00000E+00         0.00000E+00        -0.20014E+08
 
   -0.19682E+08         0.79475E+05         0.00000E+00
    0.79475E+05        -0.44042E+08         0.00000E+00
    0.00000E+00         0.00000E+00        -0.20085E+08
 
   -0.19729E+08         0.80331E+05         0.00000E+00
    0.80331E+05        -0.44153E+08         0.00000E+00
    0.00000E+00         0.00000E+00        -0.20157E+08
 
   -0.19779E+08         0.81210E+05         0.00000E+00
    0.81210E+05        -0.44269E+08         0.00000E+00
    0.00000E+00         0.00000E+00        -0.20230E+08
 
   -0.19832E+08         0.82094E+05         0.00000E+00
    0.82094E+05        -0.44389E+08         0.00000E+00
    0.00000E+00         0.00000E+00        -0.20304E+08
 
   -0.19888E+08         0.82964E+05         0.00000E+00
    0.82964E+05        -0.44514E+08         0.00000E+00
    0.00000E+00         0.00000E+00        -0.20381E+08
 
   -0.19949E+08         0.83797E+05         0.00000E+00
    0.83797E+05        -0.44645E+08         0.00000E+00
    0.00000E+00         0.00000E+00        -0.20459E+08
 
   -0.20014E+08         0.84566E+05         0.00000E+00
    0.84566E+05        -0.44781E+08         0.00000E+00
    0.00000E+00         0.00000E+00        -0.20538E+08
 
   -0.20084E+08         0.85240E+05         0.00000E+00
    0.85240E+05        -0.44924E+08         0.00000E+00
    0.00000E+00         0.00000E+00        -0.20620E+08
 
   -0.20159E+08         0.85783E+05         0.00000E+00
    0.85783E+05        -0.45074E+08         0.00000E+00
    0.00000E+00         0.00000E+00        -0.20703E+08
 
   -0.20241E+08         0.86150E+05         0.00000E+00
    0.86150E+05        -0.45232E+08         0.00000E+00
    0.00000E+00         0.00000E+00        -0.20788E+08
 
   -0.20329E+08         0.86293E+05         0.00000E+00
    0.86293E+05        -0.45398E+08         0.00000E+00
    0.00000E+00         0.00000E+00        -0.20876E+08
 
   -0.20426E+08         0.86150E+05         0.00000E+00
    0.86150E+05        -0.45573E+08         0.00000E+00
    0.00000E+00         0.00000E+00        -0.20965E+08
 
   -0.20530E+08         0.85653E+05         0.00000E+00
    0.85653E+05        -0.45758E+08         0.00000E+00
    0.00000E+00         0.00000E+00        -0.21056E+08
 
   -0.20645E+08         0.84721E+05         0.00000E+00
    0.84721E+05        -0.45955E+08         0.00000E+00
    0.00000E+00         0.00000E+00        -0.21149E+08
 
   -0.20770E+08         0.83260E+05         0.00000E+00
    0.83260E+05        -0.46164E+08         0.00000E+00
    0.00000E+00         0.00000E+00        -0.21244E+08
 
   -0.20908E+08         0.81162E+05         0.00000E+00
    0.81162E+05        -0.46386E+08         0.00000E+00
    0.00000E+00         0.00000E+00        -0.21341E+08
 
   -0.21059E+08         0.78305E+05         0.00000E+00
    0.78305E+05        -0.46623E+08         0.00000E+00
    0.00000E+00         0.00000E+00        -0.21440E+08
 
   -0.21227E+08         0.74548E+05         0.00000E+00
    0.74548E+05        -0.46877E+08         0.00000E+00
    0.00000E+00         0.00000E+00        -0.21540E+08
 
   -0.21412E+08         0.69738E+05         0.00000E+00
    0.69738E+05        -0.47149E+08         0.00000E+00
    0.00000E+00         0.00000E+00        -0.21642E+08
 
   -0.21618E+08         0.63708E+05         0.00000E+00
    0.63708E+05        -0.47441E+08         0.00000E+00
    0.00000E+00         0.00000E+00        -0.21745E+08
 
   -0.21846E+08         0.56279E+05         0.00000E+00
    0.56279E+05        -0.47755E+08         0.00000E+00
    0.00000E+00         0.00000E+00        -0.21848E+08
 
   -0.22101E+08         0.47268E+05         0.00000E+00
    0.47268E+05        -0.48093E+08         0.00000E+00
    0.00000E+00         0.00000E+00        -0.21952E+08
 
   -0.22385E+08         0.36499E+05         0.00000E+00
    0.36499E+05        -0.48458E+08         0.00000E+00
    0.00000E+00         0.00000E+00        -0.22056E+08
 
   -0.22702E+08         0.23811E+05         0.00000E+00
    0.23811E+05        -0.48853E+08         0.00000E+00
    0.00000E+00         0.00000E+00        -0.22160E+08
 
   -0.23057E+08         0.90823E+04         0.00000E+00
    0.90823E+04        -0.49279E+08         0.00000E+00
    0.00000E+00         0.00000E+00        -0.22262E+08
 
   -0.23454E+08        -0.77527E+04         0.00000E+00
   -0.77527E+04        -0.49739E+08         0.00000E+00
    0.00000E+00         0.00000E+00        -0.22363E+08
 
   -0.23896E+08        -0.26673E+05         0.00000E+00
   -0.26673E+05        -0.50235E+08         0.00000E+00
    0.00000E+00         0.00000E+00        -0.22463E+08
 
   -0.24390E+08        -0.47549E+05         0.00000E+00
   -0.47549E+05        -0.50770E+08         0.00000E+00
    0.00000E+00         0.00000E+00        -0.22560E+08
 
   -0.24939E+08        -0.70086E+05         0.00000E+00
   -0.70086E+05        -0.51345E+08         0.00000E+00
    0.00000E+00         0.00000E+00        -0.22654E+08
 
   -0.25546E+08        -0.93862E+05         0.00000E+00
   -0.93862E+05        -0.51961E+08         0.00000E+00
    0.00000E+00         0.00000E+00        -0.22746E+08
 
   -0.26213E+08        -0.11788E+06         0.00000E+00
   -0.11788E+06        -0.52616E+08         0.00000E+00
    0.00000E+00         0.00000E+00        -0.22837E+08
 
   -0.26936E+08        -0.14079E+06         0.00000E+00
   -0.14079E+06        -0.53307E+08         0.00000E+00
    0.00000E+00         0.00000E+00        -0.22928E+08
 
   -0.27698E+08        -0.15983E+06         0.00000E+00
   -0.15983E+06        -0.54030E+08         0.00000E+00
    0.00000E+00         0.00000E+00        -0.23032E+08
 
   -0.28393E+08        -0.97253E+05         0.00000E+00
   -0.97253E+05        -0.54677E+08         0.00000E+00
    0.00000E+00         0.00000E+00        -0.23124E+08
 
   -0.72866E+07        -0.13960E+06         0.00000E+00
   -0.13960E+06        -0.25893E+08         0.00000E+00
    0.00000E+00         0.00000E+00        -0.15602E+08
 
   -0.79927E+07        -0.18708E+06         0.00000E+00
   -0.18708E+06        -0.26993E+08         0.00000E+00
    0.00000E+00         0.00000E+00        -0.15612E+08
 
   -0.87977E+07        -0.15784E+06         0.00000E+00
   -0.15784E+06        -0.28148E+08         0.00000E+00
    0.00000E+00         0.00000E+00        -0.15579E+08
 
   -0.96130E+07        -0.13641E+06         0.00000E+00
   -0.13641E+06        -0.29223E+08         0.00000E+00
    0.00000E+00         0.00000E+00        -0.15518E+08
 
   -0.10424E+08        -0.11110E+06         0.00000E+00
   -0.11110E+06        -0.30222E+08         0.00000E+00
    0.00000E+00         0.00000E+00        -0.15449E+08
 
   -0.11213E+08        -0.85385E+05         0.00000E+00
   -0.85385E+05        -0.31138E+08         0.00000E+00
    0.00000E+00         0.00000E+00        -0.15387E+08
 
   -0.11964E+08        -0.59847E+05         0.00000E+00
   -0.59847E+05        -0.31973E+08         0.00000E+00
    0.00000E+00         0.00000E+00        -0.15340E+08
 
   -0.12668E+08        -0.35523E+05         0.00000E+00
   -0.35523E+05        -0.32733E+08         0.00000E+00
    0.00000E+00         0.00000E+00        -0.15313E+08
 
   -0.13318E+08        -0.13091E+05         0.00000E+00
   -0.13091E+05        -0.33424E+08         0.00000E+00
    0.00000E+00         0.00000E+00        -0.15310E+08
 
   -0.13911E+08         0.69737E+04         0.00000E+00
    0.69737E+04        -0.34052E+08         0.00000E+00
    0.00000E+00         0.00000E+00        -0.15330E+08
 
   -0.14446E+08         0.24441E+05         0.00000E+00
    0.24441E+05        -0.34626E+08         0.00000E+00
    0.00000E+00         0.00000E+00        -0.15371E+08
 
   -0.14925E+08         0.39266E+05         0.00000E+00
    0.39266E+05        -0.35151E+08         0.00000E+00
    0.00000E+00         0.00000E+00        -0.15432E+08
 
   -0.15352E+08         0.51548E+05         0.00000E+00
    0.51548E+05        -0.35632E+08         0.00000E+00
    0.00000E+00         0.00000E+00        -0.15508E+08
 
   -0.15732E+08         0.61477E+05         0.00000E+00
    0.61477E+05        -0.36075E+08         0.00000E+00
    0.00000E+00         0.00000E+00        -0.15598E+08
 
   -0.16068E+08         0.69294E+05         0.00000E+00
    0.69294E+05        -0.36484E+08         0.00000E+00
    0.00000E+00         0.00000E+00        -0.15697E+08
 
   -0.16366E+08         0.75261E+05         0.00000E+00
    0.75261E+05        -0.36863E+08         0.00000E+00
    0.00000E+00         0.00000E+00        -0.15805E+08
 
   -0.16629E+08         0.79640E+05         0.00000E+00
    0.79640E+05        -0.37215E+08         0.00000E+00
    0.00000E+00         0.00000E+00        -0.15919E+08
 
   -0.16863E+08         0.82678E+05         0.00000E+00
    0.82678E+05        -0.37542E+08         0.00000E+00
    0.00000E+00         0.00000E+00        -0.16036E+08
 
   -0.17070E+08         0.84600E+05         0.00000E+00
    0.84600E+05        -0.37848E+08         0.00000E+00
    0.00000E+00         0.00000E+00        -0.16156E+08
 
   -0.17255E+08         0.85607E+05         0.00000E+00
    0.85607E+05        -0.38134E+08         0.00000E+00
    0.00000E+00         0.00000E+00        -0.16277E+08
 
   -0.17419E+08         0.85872E+05         0.00000E+00
    0.85872E+05        -0.38402E+08         0.00000E+00
    0.00000E+00         0.00000E+00        -0.16398E+08
 
   -0.17567E+08         0.85545E+05         0.00000E+00
    0.85545E+05        -0.38653E+08         0.00000E+00
    0.00000E+00         0.00000E+00        -0.16518E+08
 
   -0.17699E+08         0.84750E+05         0.00000E+00
    0.84750E+05        -0.38890E+08         0.00000E+00
    0.00000E+00         0.00000E+00        -0.16637E+08
 
   -0.17818E+08         0.83594E+05         0.00000E+00
    0.83594E+05        -0.39114E+08         0.00000E+00
    0.00000E+00         0.00000E+00        -0.16754E+08
 
   -0.17926E+08         0.82164E+05         0.00000E+00
    0.82164E+05        -0.39325E+08         0.00000E+00
    0.00000E+00         0.00000E+00        -0.16869E+08
 
   -0.18024E+08         0.80531E+05         0.00000E+00
    0.80531E+05        -0.39524E+08         0.00000E+00
    0.00000E+00         0.00000E+00        -0.16982E+08
 
   -0.18113E+08         0.78755E+05         0.00000E+00
    0.78755E+05        -0.39714E+08         0.00000E+00
    0.00000E+00         0.00000E+00        -0.17092E+08
 
   -0.18194E+08         0.76884E+05         0.00000E+00
    0.76884E+05        -0.39893E+08         0.00000E+00
    0.00000E+00         0.00000E+00        -0.17200E+08
 
   -0.18269E+08         0.74956E+05         0.00000E+00
    0.74956E+05        -0.40064E+08         0.00000E+00
    0.00000E+00         0.00000E+00        -0.17304E+08
 
   -0.18338E+08         0.73003E+05         0.00000E+00
    0.73003E+05        -0.40226E+08         0.00000E+00
    0.00000E+00         0.00000E+00        -0.17406E+08
 
   -0.18401E+08         0.71051E+05         0.00000E+00
    0.71051E+05        -0.40381E+08         0.00000E+00
    0.00000E+00         0.00000E+00        -0.17505E+08
 
   -0.18460E+08         0.69119E+05         0.00000E+00
    0.69119E+05        -0.40529E+08         0.00000E+00
    0.00000E+00         0.00000E+00        -0.17602E+08
 
   -0.18514E+08         0.67225E+05         0.00000E+00
    0.67225E+05        -0.40671E+08         0.00000E+00
    0.00000E+00         0.00000E+00        -0.17695E+08
 
   -0.18565E+08         0.65379E+05         0.00000E+00
    0.65379E+05        -0.40807E+08         0.00000E+00
    0.00000E+00         0.00000E+00        -0.17786E+08
 
   -0.18613E+08         0.63593E+05         0.00000E+00
    0.63593E+05        -0.40937E+08         0.00000E+00
    0.00000E+00         0.00000E+00        -0.17875E+08
 
   -0.18658E+08         0.61875E+05         0.00000E+00
    0.61875E+05        -0.41062E+08         0.00000E+00
    0.00000E+00         0.00000E+00        -0.17961E+08
 
   -0.18700E+08         0.60230E+05         0.00000E+00
    0.60230E+05        -0.41182E+08         0.00000E+00
    0.00000E+00         0.00000E+00        -0.18045E+08
 
   -0.18740E+08         0.58663E+05         0.00000E+00
    0.58663E+05        -0.41298E+08         0.00000E+00
    0.00000E+00         0.00000E+00        -0.18126E+08
 
   -0.18778E+08         0.57178E+05         0.00000E+00
    0.57178E+05        -0.41410E+08         0.00000E+00
    0.00000E+00         0.00000E+00        -0.18206E+08
 
   -0.18815E+08         0.55776E+05         0.00000E+00
    0.55776E+05        -0.41519E+08         0.00000E+00
    0.00000E+00         0.00000E+00        -0.18283E+08
 
   -0.18849E+08         0.54460E+05         0.00000E+00
    0.54460E+05        -0.41624E+08         0.00000E+00
    0.00000E+00         0.00000E+00        -0.18359E+08
 
   -0.18883E+08         0.53231E+05         0.00000E+00
    0.53231E+05        -0.41726E+08         0.00000E+00
    0.00000E+00         0.00000E+00        -0.18433E+08
 
   -0.18915E+08         0.52088E+05         0.00000E+00
    0.52088E+05        -0.41826E+08         0.00000E+00
    0.00000E+00         0.00000E+00        -0.18505E+08
 
   -0.18946E+08         0.51032E+05         0.00000E+00
    0.51032E+05        -0.41923E+08         0.00000E+00
    0.00000E+00         0.00000E+00        -0.18576E+08
 
   -0.18976E+08         0.50064E+05         0.00000E+00
    0.50064E+05        -0.42018E+08         0.00000E+00
    0.00000E+00         0.00000E+00        -0.18646E+08
 
   -0.19006E+08         0.49181E+05         0.00000E+00
    0.49181E+05        -0.42111E+08         0.00000E+00
    0.00000E+00         0.00000E+00        -0.18714E+08
 
   -0.19035E+08         0.48384E+05         0.00000E+00
    0.48384E+05        -0.42202E+08         0.00000E+00
    0.00000E+00         0.00000E+00        -0.18782E+08
 
   -0.19063E+08         0.47672E+05         0.00000E+00
    0.47672E+05        -0.42292E+08         0.00000E+00
    0.00000E+00         0.00000E+00        -0.18848E+08
 
   -0.19091E+08         0.47043E+05         0.00000E+00
    0.47043E+05        -0.42381E+08         0.00000E+00
    0.00000E+00         0.00000E+00        -0.18914E+08
 
   -0.19119E+08         0.46496E+05         0.00000E+00
    0.46496E+05        -0.42468E+08         0.00000E+00
    0.00000E+00         0.00000E+00        -0.18979E+08
 
   -0.19147E+08         0.46030E+05         0.00000E+00
    0.46030E+05        -0.42555E+08         0.00000E+00
    0.00000E+00         0.00000E+00        -0.19043E+08
 
   -0.19174E+08         0.45643E+05         0.00000E+00
    0.45643E+05        -0.42642E+08         0.00000E+00
    0.00000E+00         0.00000E+00        -0.19107E+08
 
   -0.19202E+08         0.45334E+05         0.00000E+00
    0.45334E+05        -0.42728E+08         0.00000E+00
    0.00000E+00         0.00000E+00        -0.19170E+08
 
   -0.19230E+08         0.45100E+05         0.00000E+00
    0.45100E+05        -0.42815E+08         0.00000E+00
    0.00000E+00         0.00000E+00        -0.19233E+08
 
   -0.19259E+08         0.44941E+05         0.00000E+00
    0.44941E+05        -0.42901E+08         0.00000E+00
    0.00000E+00         0.00000E+00        -0.19296E+08
 
   -0.19288E+08         0.44853E+05         0.00000E+00
    0.44853E+05        -0.42988E+08         0.00000E+00
    0.00000E+00         0.00000E+00        -0.19360E+08
 
   -0.19317E+08         0.44835E+05         0.00000E+00
    0.44835E+05        -0.43075E+08         0.00000E+00
    0.00000E+00         0.00000E+00        -0.19423E+08
 
   -0.19347E+08         0.44885E+05         0.00000E+00
    0.44885E+05        -0.43163E+08         0.00000E+00
    0.00000E+00         0.00000E+00        -0.19486E+08
 
   -0.19378E+08         0.44999E+05         0.00000E+00
    0.44999E+05        -0.43253E+08         0.00000E+00
    0.00000E+00         0.00000E+00        -0.19550E+08
 
   -0.19410E+08         0.45175E+05         0.00000E+00
    0.45175E+05        -0.43344E+08         0.00000E+00
    0.00000E+00         0.00000E+00        -0.19614E+08
 
   -0.19443E+08         0.45410E+05         0.00000E+00
    0.45410E+05        -0.43436E+08         0.00000E+00
    0.00000E+00         0.00000E+00        -0.19679E+08
 
   -0.19478E+08         0.45700E+05         0.00000E+00
    0.45700E+05        -0.43530E+08         0.00000E+00
    0.00000E+00         0.00000E+00        -0.19745E+08
 
   -0.19514E+08         0.46041E+05         0.00000E+00
    0.46041E+05        -0.43626E+08         0.00000E+00
    0.00000E+00         0.00000E+00        -0.19811E+08
 
   -0.19551E+08         0.46429E+05         0.00000E+00
    0.46429E+05        -0.43725E+08         0.00000E+00
    0.00000E+00         0.00000E+00        -0.19878E+08
 
   -0.19591E+08         0.46860E+05         0.00000E+00
    0.46860E+05        -0.43826E+08         0.00000E+00
    0.00000E+00         0.00000E+00        -0.19947E+08
 
   -0.19632E+08         0.47327E+05         0.00000E+00
    0.47327E+05        -0.43931E+08         0.00000E+00
    0.00000E+00         0.00000E+00        -0.20016E+08
 
   -0.19676E+08         0.47823E+05         0.00000E+00
    0.47823E+05        -0.44038E+08         0.00000E+00
    0.00000E+00         0.00000E+00        -0.20087E+08
 
   -0.19723E+08         0.48342E+05         0.00000E+00
    0.48342E+05        -0.44150E+08         0.00000E+00
    0.00000E+00         0.00000E+00        -0.20159E+08
 
   -0.19772E+08         0.48875E+05         0.00000E+00
    0.48875E+05        -0.44265E+08         0.00000E+00
    0.00000E+00         0.00000E+00        -0.20232E+08
 
   -0.19824E+08         0.49411E+05         0.00000E+00
    0.49411E+05        -0.44385E+08         0.00000E+00
    0.00000E+00         0.00000E+00        -0.20307E+08
 
   -0.19880E+08         0.49940E+05         0.00000E+00
    0.49940E+05        -0.44509E+08         0.00000E+00
    0.00000E+00         0.00000E+00        -0.20383E+08
 
   -0.19941E+08         0.50446E+05         0.00000E+00
    0.50446E+05        -0.44640E+08         0.00000E+00
    0.00000E+00         0.00000E+00        -0.20461E+08
 
   -0.20005E+08         0.50916E+05         0.00000E+00
    0.50916E+05        -0.44775E+08         0.00000E+00
    0.00000E+00         0.00000E+00        -0.20541E+08
 
   -0.20074E+08         0.51328E+05         0.00000E+00
    0.51328E+05        -0.44918E+08         0.00000E+00
    0.00000E+00         0.00000E+00        -0.20623E+08
 
   -0.20149E+08         0.51662E+05         0.00000E+00
    0.51662E+05        -0.45067E+08         0.00000E+00
    0.00000E+00         0.00000E+00        -0.20706E+08
 
   -0.20230E+08         0.51891E+05         0.00000E+00
    0.51891E+05        -0.45224E+08         0.00000E+00
    0.00000E+00         0.00000E+00        -0.20791E+08
 
   -0.20318E+08         0.51983E+05         0.00000E+00
    0.51983E+05        -0.45390E+08         0.00000E+00
    0.00000E+00         0.00000E+00        -0.20879E+08
 
   -0.20413E+08         0.51904E+05         0.00000E+00
    0.51904E+05        -0.45564E+08         0.00000E+00
    0.00000E+00         0.00000E+00        -0.20968E+08
 
   -0.20517E+08         0.51610E+05         0.00000E+00
    0.51610E+05        -0.45749E+08         0.00000E+00
    0.00000E+00         0.00000E+00        -0.21060E+08
 
   -0.20631E+08         0.51052E+05         0.00000E+00
    0.51052E+05        -0.45945E+08         0.00000E+00
    0.00000E+00         0.00000E+00        -0.21153E+08
 
   -0.20755E+08         0.50171E+05         0.00000E+00
    0.50171E+05        -0.46153E+08         0.00000E+00
    0.00000E+00         0.00000E+00        -0.21248E+08
 
   -0.20892E+08         0.48902E+05         0.00000E+00
    0.48902E+05        -0.46375E+08         0.00000E+00
    0.00000E+00         0.00000E+00        -0.21345E+08
 
   -0.21043E+08         0.47167E+05         0.00000E+00
    0.47167E+05        -0.46612E+08         0.00000E+00
    0.00000E+00         0.00000E+00        -0.21444E+08
 
   -0.21210E+08         0.44879E+05         0.00000E+00
    0.44879E+05        -0.46865E+08         0.00000E+00
    0.00000E+00         0.00000E+00        -0.21544E+08
 
   -0.21395E+08         0.41942E+05         0.00000E+00
    0.41942E+05        -0.47137E+08         0.00000E+00
    0.00000E+00         0.00000E+00        -0.21646E+08
 
   -0.21600E+08         0.38250E+05         0.00000E+00
    0.38250E+05        -0.47428E+08         0.00000E+00
    0.00000E+00         0.00000E+00        -0.21749E+08
 
   -0.21828E+08         0.33688E+05         0.00000E+00
    0.33688E+05        -0.47742E+08         0.00000E+00
    0.00000E+00         0.00000E+00        -0.21852E+08
 
   -0.22083E+08         0.28139E+05         0.00000E+00
    0.28139E+05        -0.48081E+08         0.00000E+00
    0.00000E+00         0.00000E+00        -0.21956E+08
 
   -0.22369E+08         0.21485E+05         0.00000E+00
    0.21485E+05        -0.48446E+08         0.00000E+00
    0.00000E+00         0.00000E+00        -0.22059E+08
 
   -0.22688E+08         0.13619E+05         0.00000E+00
    0.13619E+05        -0.48842E+08         0.00000E+00
    0.00000E+00         0.00000E+00        -0.22162E+08
 
   -0.23045E+08         0.44504E+04         0.00000E+00
    0.44504E+04        -0.49269E+08         0.00000E+00
    0.00000E+00         0.00000E+00        -0.22264E+08
 
   -0.23446E+08        -0.60794E+04         0.00000E+00
   -0.60794E+04        -0.49732E+08         0.00000E+00
    0.00000E+00         0.00000E+00        -0.22363E+08
 
   -0.23895E+08        -0.17987E+05         0.00000E+00
   -0.17987E+05        -0.50232E+08         0.00000E+00
    0.00000E+00         0.00000E+00        -0.22461E+08
 
   -0.24398E+08        -0.31228E+05         0.00000E+00
   -0.31228E+05        -0.50772E+08         0.00000E+00
    0.00000E+00         0.00000E+00        -0.22555E+08
 
   -0.24958E+08        -0.45717E+05         0.00000E+00
   -0.45717E+05        -0.51354E+08         0.00000E+00
    0.00000E+00         0.00000E+00        -0.22646E+08
 
   -0.25582E+08        -0.61232E+05         0.00000E+00
   -0.61232E+05        -0.51979E+08         0.00000E+00
    0.00000E+00         0.00000E+00        -0.22734E+08
 
   -0.26271E+08        -0.77819E+05         0.00000E+00
   -0.77819E+05        -0.52646E+08         0.00000E+00
    0.00000E+00         0.00000E+00        -0.22820E+08
 
   -0.27026E+08        -0.93816E+05         0.00000E+00
   -0.93816E+05        -0.53353E+08         0.00000E+00
    0.00000E+00         0.00000E+00        -0.22903E+08
 
   -0.27844E+08        -0.11631E+06         0.00000E+00
   -0.11631E+06        -0.54103E+08         0.00000E+00
    0.00000E+00         0.00000E+00        -0.22993E+08
 
   -0.28624E+08        -0.90120E+05         0.00000E+00
   -0.90120E+05        -0.54816E+08         0.00000E+00
    0.00000E+00         0.00000E+00        -0.23089E+08
 
   -0.71220E+07        -0.11427E+06         0.00000E+00
   -0.11427E+06        -0.25644E+08         0.00000E+00
    0.00000E+00         0.00000E+00        -0.15646E+08
 
   -0.78987E+07        -0.82668E+05         0.00000E+00
   -0.82668E+05        -0.26878E+08         0.00000E+00
    0.00000E+00         0.00000E+00        -0.15657E+08
 
   -0.87252E+07        -0.65915E+05         0.00000E+00
   -0.65915E+05        -0.28067E+08         0.00000E+00
    0.00000E+00         0.00000E+00        -0.15613E+08
 
   -0.95618E+07        -0.54959E+05         0.00000E+00
   -0.54959E+05        -0.29174E+08         0.00000E+00
    0.00000E+00         0.00000E+00        -0.15545E+08
 
   -0.10390E+08        -0.44088E+05         0.00000E+00
   -0.44088E+05        -0.30193E+08         0.00000E+00
    0.00000E+00         0.00000E+00        -0.15468E+08
 
   -0.11194E+08        -0.33746E+05         0.00000E+00
   -0.33746E+05        -0.31124E+08         0.00000E+00
    0.00000E+00         0.00000E+00        -0.15398E+08
 
   -0.11958E+08        -0.23870E+05         0.00000E+00
   -0.23870E+05        -0.31970E+08         0.00000E+00
    0.00000E+00         0.00000E+00        -0.15344E+08
 
   -0.12673E+08        -0.14668E+05         0.00000E+00
   -0.14668E+05        -0.32738E+08         0.00000E+00
    0.00000E+00         0.00000E+00        -0.15312E+08
 
   -0.13332E+08        -0.63218E+04         0.00000E+00
   -0.63218E+04        -0.33434E+08         0.00000E+00
    0.00000E+00         0.00000E+00        -0.15305E+08
 
   -0.13932E+08         0.10532E+04         0.00000E+00
    0.10532E+04        -0.34066E+08         0.00000E+00
    0.00000E+00         0.00000E+00        -0.15321E+08
 
   -0.14472E+08         0.74065E+04         0.00000E+00
    0.74065E+04        -0.34642E+08         0.00000E+00
    0.00000E+00         0.00000E+00        -0.15360E+08
 
   -0.14954E+08         0.12750E+05         0.00000E+00
    0.12750E+05        -0.35168E+08         0.00000E+00
    0.00000E+00         0.00000E+00        -0.15419E+08
 
   -0.15384E+08         0.17139E+05         0.00000E+00
    0.17139E+05        -0.35650E+08         0.00000E+00
    0.00000E+00         0.00000E+00        -0.15495E+08
 
   -0.15764E+08         0.20659E+05         0.00000E+00
    0.20659E+05        -0.36093E+08         0.00000E+00
    0.00000E+00         0.00000E+00        -0.15584E+08
 
   -0.16100E+08         0.23408E+05         0.00000E+00
    0.23408E+05        -0.36501E+08         0.00000E+00
    0.00000E+00         0.00000E+00        -0.15684E+08
 
   -0.16397E+08         0.25490E+05         0.00000E+00
    0.25490E+05        -0.36880E+08         0.00000E+00
    0.00000E+00         0.00000E+00        -0.15792E+08
 
   -0.16660E+08         0.27003E+05         0.00000E+00
    0.27003E+05        -0.37231E+08         0.00000E+00
    0.00000E+00         0.00000E+00        -0.15906E+08
 
   -0.16892E+08         0.28042E+05         0.00000E+00
    0.28042E+05        -0.37557E+08         0.00000E+00
    0.00000E+00         0.00000E+00        -0.16024E+08
 
   -0.17098E+08         0.28689E+05         0.00000E+00
    0.28689E+05        -0.37862E+08         0.00000E+00
    0.00000E+00         0.00000E+00        -0.16144E+08
 
   -0.17281E+08         0.29017E+05         0.00000E+00
    0.29017E+05        -0.38147E+08         0.00000E+00
    0.00000E+00         0.00000E+00        -0.16266E+08
 
   -0.17444E+08         0.29089E+05         0.00000E+00
    0.29089E+05        -0.38415E+08         0.00000E+00
    0.00000E+00         0.00000E+00        -0.16388E+08
 
   -0.17590E+08         0.28958E+05         0.00000E+00
    0.28958E+05        -0.38666E+08         0.00000E+00
    0.00000E+00         0.00000E+00        -0.16509E+08
 
   -0.17721E+08         0.28668E+05         0.00000E+00
    0.28668E+05        -0.38902E+08         0.00000E+00
    0.00000E+00         0.00000E+00        -0.16628E+08
 
   -0.17839E+08         0.28256E+05         0.00000E+00
    0.28256E+05        -0.39124E+08         0.00000E+00
    0.00000E+00         0.00000E+00        -0.16746E+08
 
   -0.17945E+08         0.27753E+05         0.00000E+00
    0.27753E+05        -0.39335E+08         0.00000E+00
    0.00000E+00         0.00000E+00        -0.16862E+08
 
   -0.18042E+08         0.27183E+05         0.00000E+00
    0.27183E+05        -0.39534E+08         0.00000E+00
    0.00000E+00         0.00000E+00        -0.16975E+08
 
   -0.18130E+08         0.26567E+05         0.00000E+00
    0.26567E+05        -0.39723E+08         0.00000E+00
    0.00000E+00         0.00000E+00        -0.17086E+08
 
   -0.18210E+08         0.25920E+05         0.00000E+00
    0.25920E+05        -0.39902E+08         0.00000E+00
    0.00000E+00         0.00000E+00        -0.17194E+08
 
   -0.18283E+08         0.25257E+05         0.00000E+00
    0.25257E+05        -0.40072E+08         0.00000E+00
    0.00000E+00         0.00000E+00        -0.17299E+08
 
   -0.18351E+08         0.24586E+05         0.00000E+00
    0.24586E+05        -0.40234E+08         0.00000E+00
    0.00000E+00         0.00000E+00        -0.17401E+08
 
   -0.18413E+08         0.23918E+05         0.00000E+00
    0.23918E+05        -0.40388E+08         0.00000E+00
    0.00000E+00         0.00000E+00        -0.17501E+08
 
   -0.18471E+08         0.23258E+05         0.00000E+00
    0.23258E+05        -0.40536E+08         0.00000E+00
    0.00000E+00         0.00000E+00        -0.17597E+08
 
   -0.18525E+08         0.22612E+05         0.00000E+00
    0.22612E+05        -0.40677E+08         0.00000E+00
    0.00000E+00         0.00000E+00        -0.17691E+08
 
   -0.18575E+08         0.21984E+05         0.00000E+00
    0.21984E+05        -0.40812E+08         0.00000E+00
    0.00000E+00         0.00000E+00        -0.17783E+08
 
   -0.18622E+08         0.21377E+05         0.00000E+00
    0.21377E+05        -0.40942E+08         0.00000E+00
    0.00000E+00         0.00000E+00        -0.17871E+08
 
   -0.18666E+08         0.20793E+05         0.00000E+00
    0.20793E+05        -0.41066E+08         0.00000E+00
    0.00000E+00         0.00000E+00        -0.17958E+08
 
   -0.18708E+08         0.20236E+05         0.00000E+00
    0.20236E+05        -0.41186E+08         0.00000E+00
    0.00000E+00         0.00000E+00        -0.18042E+08
 
   -0.18747E+08         0.19705E+05         0.00000E+00
    0.19705E+05        -0.41302E+08         0.00000E+00
    0.00000E+00         0.00000E+00        -0.18124E+08
 
   -0.18785E+08         0.19202E+05         0.00000E+00
    0.19202E+05        -0.41414E+08         0.00000E+00
    0.00000E+00         0.00000E+00        -0.18203E+08
 
   -0.18821E+08         0.18728E+05         0.00000E+00
    0.18728E+05        -0.41522E+08         0.00000E+00
    0.00000E+00         0.00000E+00        -0.18281E+08
 
   -0.18855E+08         0.18283E+05         0.00000E+00
    0.18283E+05        -0.41627E+08         0.00000E+00
    0.00000E+00         0.00000E+00        -0.18357E+08
 
   -0.18888E+08         0.17867E+05         0.00000E+00
    0.17867E+05        -0.41729E+08         0.00000E+00
    0.00000E+00         0.00000E+00        -0.18431E+08
 
   -0.18919E+08         0.17481E+05         0.00000E+00
    0.17481E+05        -0.41828E+08         0.00000E+00
    0.00000E+00         0.00000E+00        -0.18504E+08
 
   -0.18950E+08         0.17125E+05         0.00000E+00
    0.17125E+05        -0.41925E+08         0.00000E+00
    0.00000E+00         0.00000E+00        -0.18575E+08
 
   -0.18980E+08         0.16798E+05         0.00000E+00
    0.16798E+05        -0.42020E+08         0.00000E+00
    0.00000E+00         0.00000E+00        -0.18645E+08
 
   -0.19009E+08         0.16500E+05         0.00000E+00
    0.16500E+05        -0.42112E+08         0.00000E+00
    0.00000E+00         0.00000E+00        -0.18713E+08
 
   -0.19037E+08         0.16231E+05         0.00000E+00
    0.16231E+05        -0.42203E+08         0.00000E+00
    0.00000E+00         0.00000E+00        -0.18781E+08
 
   -0.19065E+08         0.15991E+05         0.00000E+00
    0.15991E+05        -0.42293E+08         0.00000E+00
    0.00000E+00         0.00000E+00        -0.18847E+08
 
   -0.19093E+08         0.15779E+05         0.00000E+00
    0.15779E+05        -0.42382E+08         0.00000E+00
    0.00000E+00         0.00000E+00        -0.18913E+08
 
   -0.19120E+08         0.15595E+05         0.00000E+00
    0.15595E+05        -0.42469E+08         0.00000E+00
    0.00000E+00         0.00000E+00        -0.18978E+08
 
   -0.19148E+08         0.15438E+05         0.00000E+00
    0.15438E+05        -0.42556E+08         0.00000E+00
    0.00000E+00         0.00000E+00        -0.19042E+08
 
   -0.19175E+08         0.15308E+05         0.00000E+00
    0.15308E+05        -0.42642E+08         0.00000E+00
    0.00000E+00         0.00000E+00        -0.19106E+08
 
   -0.19202E+08         0.15204E+05         0.00000E+00
    0.15204E+05        -0.42728E+08         0.00000E+00
    0.00000E+00         0.00000E+00        -0.19170E+08
 
   -0.19230E+08         0.15125E+05         0.00000E+00
    0.15125E+05        -0.42814E+08         0.00000E+00
    0.00000E+00         0.00000E+00        -0.19233E+08
 
   -0.19258E+08         0.15071E+05         0.00000E+00
    0.15071E+05        -0.42901E+08         0.00000E+00
    0.00000E+00         0.00000E+00        -0.19297E+08
 
   -0.19287E+08         0.15042E+05         0.00000E+00
    0.15042E+05        -0.42987E+08         0.00000E+00
    0.00000E+00         0.00000E+00        -0.19360E+08
 
   -0.19316E+08         0.15036E+05         0.00000E+00
    0.15036E+05        -0.43074E+08         0.00000E+00
    0.00000E+00         0.00000E+00        -0.19423E+08
 
   -0.19345E+08         0.15053E+05         0.00000E+00
    0.15053E+05        -0.43162E+08         0.00000E+00
    0.00000E+00         0.00000E+00        -0.19487E+08
 
   -0.19376E+08         0.15092E+05         0.00000E+00
    0.15092E+05        -0.43252E+08         0.00000E+00
    0.00000E+00         0.00000E+00        -0.19551E+08
 
   -0.19408E+08         0.15152E+05         0.00000E+00
    0.15152E+05        -0.43342E+08         0.00000E+00
    0.00000E+00         0.00000E+00        -0.19615E+08
 
   -0.19440E+08         0.15232E+05         0.00000E+00
    0.15232E+05        -0.43434E+08         0.00000E+00
    0.00000E+00         0.00000E+00        -0.19680E+08
 
   -0.19474E+08         0.15330E+05         0.00000E+00
    0.15330E+05        -0.43528E+08         0.00000E+00
    0.00000E+00         0.00000E+00        -0.19746E+08
 
   -0.19510E+08         0.15446E+05         0.00000E+00
    0.15446E+05        -0.43624E+08         0.00000E+00
    0.00000E+00         0.00000E+00        -0.19812E+08
 
   -0.19547E+08         0.15578E+05         0.00000E+00
    0.15578E+05        -0.43722E+08         0.00000E+00
    0.00000E+00         0.00000E+00        -0.19880E+08
 
   -0.19586E+08         0.15725E+05         0.00000E+00
    0.15725E+05        -0.43823E+08         0.00000E+00
    0.00000E+00         0.00000E+00        -0.19948E+08
 
   -0.19627E+08         0.15884E+05         0.00000E+00
    0.15884E+05        -0.43927E+08         0.00000E+00
    0.00000E+00         0.00000E+00        -0.20018E+08
 
   -0.19670E+08         0.16053E+05         0.00000E+00
    0.16053E+05        -0.44035E+08         0.00000E+00
    0.00000E+00         0.00000E+00        -0.20088E+08
 
   -0.19716E+08         0.16230E+05         0.00000E+00
    0.16230E+05        -0.44146E+08         0.00000E+00
    0.00000E+00         0.00000E+00        -0.20160E+08
 
   -0.19765E+08         0.16413E+05         0.00000E+00
    0.16413E+05        -0.44261E+08         0.00000E+00
    0.00000E+00         0.00000E+00        -0.20234E+08
 
   -0.19817E+08         0.16597E+05         0.00000E+00
    0.16597E+05        -0.44380E+08         0.00000E+00
    0.00000E+00         0.00000E+00        -0.20309E+08
 
   -0.19873E+08         0.16779E+05         0.00000E+00
    0.16779E+05        -0.44504E+08         0.00000E+00
    0.00000E+00         0.00000E+00        -0.20385E+08
 
   -0.19932E+08         0.16954E+05         0.00000E+00
    0.16954E+05        -0.44634E+08         0.00000E+00
    0.00000E+00         0.00000E+00        -0.20464E+08
 
   -0.19996E+08         0.17118E+05         0.00000E+00
    0.17118E+05        -0.44770E+08         0.00000E+00
    0.00000E+00         0.00000E+00        -0.20544E+08
 
   -0.20065E+08         0.17262E+05         0.00000E+00
    0.17262E+05        -0.44911E+08         0.00000E+00
    0.00000E+00         0.00000E+00        -0.20625E+08
 
   -0.20139E+08         0.17381E+05         0.00000E+00
    0.17381E+05        -0.45060E+08         0.00000E+00
    0.00000E+00         0.00000E+00        -0.20709E+08
 
   -0.20219E+08         0.17465E+05         0.00000E+00
    0.17465E+05        -0.45217E+08         0.00000E+00
    0.00000E+00         0.00000E+00        -0.20795E+08
 
   -0.20306E+08         0.17503E+05         0.00000E+00
    0.17503E+05        -0.45382E+08         0.00000E+00
    0.00000E+00         0.00000E+00        -0.20882E+08
 
   -0.20401E+08         0.17483E+05         0.00000E+00
    0.17483E+05        -0.45556E+08         0.00000E+00
    0.00000E+00         0.00000E+00        -0.20972E+08
 
   -0.20504E+08         0.17390E+05         0.00000E+00
    0.17390E+05        -0.45740E+08         0.00000E+00
    0.00000E+00         0.00000E+00        -0.21063E+08
 
   -0.20617E+08         0.17206E+05         0.00000E+00
    0.17206E+05        -0.45935E+08         0.00000E+00
    0.00000E+00         0.00000E+00        -0.21157E+08
 
   -0.20740E+08         0.16911E+05         0.00000E+00
    0.16911E+05        -0.46143E+08         0.00000E+00
    0.00000E+00         0.00000E+00        -0.21252E+08
 
   -0.20876E+08         0.16482E+05         0.00000E+00
    0.16482E+05        -0.46364E+08         0.00000E+00
    0.00000E+00         0.00000E+00        -0.21350E+08
 
   -0.21026E+08         0.15889E+05         0.00000E+00
    0.15889E+05        -0.46600E+08         0.00000E+00
    0.00000E+00         0.00000E+00        -0.21449E+08
 
   -0.21192E+08         0.15102E+05         0.00000E+00
    0.15102E+05        -0.46853E+08         0.00000E+00
    0.00000E+00         0.00000E+00        -0.21549E+08
 
   -0.21377E+08         0.14085E+05         0.00000E+00
    0.14085E+05        -0.47124E+08         0.00000E+00
    0.00000E+00         0.00000E+00        -0.21651E+08
 
   -0.21581E+08         0.12798E+05         0.00000E+00
    0.12798E+05        -0.47415E+08         0.00000E+00
    0.00000E+00         0.00000E+00        -0.21753E+08
 
   -0.21810E+08         0.11197E+05         0.00000E+00
    0.11197E+05        -0.47729E+08         0.00000E+00
    0.00000E+00         0.00000E+00        -0.21857E+08
 
   -0.22065E+08         0.92359E+04         0.00000E+00
    0.92359E+04        -0.48068E+08         0.00000E+00
    0.00000E+00         0.00000E+00        -0.21960E+08
 
   -0.22351E+08         0.68681E+04         0.00000E+00
    0.68681E+04        -0.48434E+08         0.00000E+00
    0.00000E+00         0.00000E+00        -0.22063E+08
 
   -0.22672E+08         0.40470E+04         0.00000E+00
    0.40470E+04        -0.48830E+08         0.00000E+00
    0.00000E+00         0.00000E+00        -0.22166E+08
 
   -0.23032E+08         0.73055E+03         0.00000E+00
    0.73055E+03        -0.49260E+08         0.00000E+00
    0.00000E+00         0.00000E+00        -0.22266E+08
 
   -0.23437E+08        -0.31165E+04         0.00000E+00
   -0.31165E+04        -0.49725E+08         0.00000E+00
    0.00000E+00         0.00000E+00        -0.22365E+08
 
   -0.23892E+08        -0.75190E+04         0.00000E+00
   -0.75190E+04        -0.50229E+08         0.00000E+00
    0.00000E+00         0.00000E+00        -0.22460E+08
 
   -0.24403E+08        -0.12495E+05         0.00000E+00
   -0.12495E+05        -0.50774E+08         0.00000E+00
    0.00000E+00         0.00000E+00        -0.22552E+08
 
   -0.24975E+08        -0.18061E+05         0.00000E+00
   -0.18061E+05        -0.51363E+08         0.00000E+00
    0.00000E+00         0.00000E+00        -0.22640E+08
 
   -0.25615E+08        -0.24250E+05         0.00000E+00
   -0.24250E+05        -0.51997E+08         0.00000E+00
    0.00000E+00         0.00000E+00        -0.22724E+08
 
   -0.26327E+08        -0.31287E+05         0.00000E+00
   -0.31287E+05        -0.52676E+08         0.00000E+00
    0.00000E+00         0.00000E+00        -0.22804E+08
 
   -0.27116E+08        -0.39116E+05         0.00000E+00
   -0.39116E+05        -0.53401E+08         0.00000E+00
    0.00000E+00         0.00000E+00        -0.22880E+08
 
   -0.27986E+08        -0.51659E+05         0.00000E+00
   -0.51659E+05        -0.54170E+08         0.00000E+00
    0.00000E+00         0.00000E+00        -0.22952E+08
 
   -0.28892E+08        -0.74897E+05         0.00000E+00
   -0.74897E+05        -0.54965E+08         0.00000E+00
    0.00000E+00         0.00000E+00        -0.23042E+08
 
TENSORS stresstot double 
   -0.83966E+08         0.54232E+06         0.00000E+00
    0.54232E+06        -0.97436E+08         0.00000E+00
    0.00000E+00         0.00000E+00        -0.84188E+08
 
   -0.83175E+08         0.13749E+07         0.00000E+00
    0.13749E+07        -0.96877E+08         0.00000E+00
    0.00000E+00         0.00000E+00        -0.83291E+08
 
   -0.82351E+08         0.18716E+07         0.00000E+00
    0.18716E+07        -0.96516E+08         0.00000E+00
    0.00000E+00         0.00000E+00        -0.82435E+08
 
   -0.81554E+08         0.22306E+07         0.00000E+00
    0.22306E+07        -0.96276E+08         0.00000E+00
    0.00000E+00         0.00000E+00        -0.81616E+08
 
   -0.80786E+08         0.25014E+07         0.00000E+00
    0.25014E+07        -0.96145E+08         0.00000E+00
    0.00000E+00         0.00000E+00        -0.80833E+08
 
   -0.80047E+08         0.27142E+07         0.00000E+00
    0.27142E+07        -0.96101E+08         0.00000E+00
    0.00000E+00         0.00000E+00        -0.80086E+08
 
   -0.79340E+08         0.28861E+07         0.00000E+00
    0.28861E+07        -0.96125E+08         0.00000E+00
    0.00000E+00         0.00000E+00        -0.79371E+08
 
   -0.78662E+08         0.30272E+07         0.00000E+00
    0.30272E+07        -0.96200E+08         0.00000E+00
    0.00000E+00         0.00000E+00        -0.78687E+08
 
   -0.78031E+08         0.31373E+07         0.00000E+00
    0.31373E+07        -0.96289E+08         0.00000E+00
    0.00000E+00         0.00000E+00        -0.78052E+08
 
   -0.77586E+08         0.31720E+07         0.00000E+00
    0.31720E+07        -0.96238E+08         0.00000E+00
    0.00000E+00         0.00000E+00        -0.77603E+08
 
   -0.77239E+08         0.31658E+07         0.00000E+00
    0.31658E+07        -0.96125E+08         0.00000E+00
    0.00000E+00         0.00000E+00        -0.77252E+08
 
   -0.76907E+08         0.31488E+07         0.00000E+00
    0.31488E+07        -0.96026E+08         0.00000E+00
    0.00000E+00         0.00000E+00        -0.76916E+08
 
   -0.76589E+08         0.31227E+07         0.00000E+00
    0.31227E+07        -0.95936E+08         0.00000E+00
    0.00000E+00         0.00000E+00        -0.76595E+08
 
   -0.76283E+08         0.30891E+07         0.00000E+00
    0.30891E+07        -0.95850E+08         0.00000E+00
    0.00000E+00         0.00000E+00        -0.76286E+08
 
   -0.75987E+08         0.30487E+07         0.00000E+00
    0.30487E+07        -0.95768E+08         0.00000E+00
    0.00000E+00         0.00000E+00        -0.75988E+08
 
   -0.75700E+08         0.30026E+07         0.00000E+00
    0.30026E+07        -0.95686E+08         0.00000E+00
    0.00000E+00         0.00000E+00        -0.75699E+08
 
   -0.75423E+08         0.29516E+07         0.00000E+00
    0.29516E+07        -0.95605E+08         0.00000E+00
    0.00000E+00         0.00000E+00        -0.75420E+08
 
   -0.75153E+08         0.28963E+07         0.00000E+00
    0.28963E+07        -0.95523E+08         0.00000E+00
    0.00000E+00         0.00000E+00        -0.75149E+08
 
   -0.74892E+08         0.28375E+07         0.00000E+00
    0.28375E+07        -0.95440E+08         0.00000E+00
    0.00000E+00         0.00000E+00        -0.74886E+08
 
   -0.74638E+08         0.27758E+07         0.00000E+00
    0.27758E+07        -0.95355E+08         0.00000E+00
    0.00000E+00         0.00000E+00        -0.74631E+08
 
   -0.74391E+08         0.27119E+07         0.00000E+00
    0.27119E+07        -0.95270E+08         0.00000E+00
    0.00000E+00         0.00000E+00        -0.74383E+08
 
   -0.74152E+08         0.26464E+07         0.00000E+00
    0.26464E+07        -0.95184E+08         0.00000E+00
    0.00000E+00         0.00000E+00        -0.74143E+08
 
   -0.73920E+08         0.25797E+07         0.00000E+00
    0.25797E+07        -0.95097E+08         0.00000E+00
    0.00000E+00         0.00000E+00        -0.73910E+08
 
   -0.73695E+08         0.25124E+07         0.00000E+00
    0.25124E+07        -0.95009E+08         0.00000E+00
    0.00000E+00         0.00000E+00        -0.73685E+08
 
   -0.73476E+08         0.24451E+07         0.00000E+00
    0.24451E+07        -0.94921E+08         0.00000E+00
    0.00000E+00         0.00000E+00        -0.73466E+08
 
   -0.73265E+08         0.23780E+07         0.00000E+00
    0.23780E+07        -0.94834E+08         0.00000E+00
    0.00000E+00         0.00000E+00        -0.73254E+08
 
   -0.73060E+08         0.23115E+07         0.00000E+00
    0.23115E+07        -0.94746E+08         0.00000E+00
    0.00000E+00         0.00000E+00        -0.73049E+08
 
   -0.72861E+08         0.22461E+07         0.00000E+00
    0.22461E+07        -0.94658E+08         0.00000E+00
    0.00000E+00         0.00000E+00        -0.72850E+08
 
   -0.72669E+08         0.21819E+07         0.00000E+00
    0.21819E+07        -0.94572E+08         0.00000E+00
    0.00000E+00         0.00000E+00        -0.72658E+08
 
   -0.72482E+08         0.21193E+07         0.00000E+00
    0.21193E+07        -0.94486E+08         0.00000E+00
    0.00000E+00         0.00000E+00        -0.72472E+08
 
   -0.72302E+08         0.20585E+07         0.00000E+00
    0.20585E+07        -0.94400E+08         0.00000E+00
    0.00000E+00         0.00000E+00        -0.72292E+08
 
   -0.72127E+08         0.19996E+07         0.00000E+00
    0.19996E+07        -0.94316E+08         0.00000E+00
    0.00000E+00         0.00000E+00        -0.72117E+08
 
   -0.71958E+08         0.19428E+07         0.00000E+00
    0.19428E+07        -0.94233E+08         0.00000E+00
    0.00000E+00         0.00000E+00        -0.71948E+08
 
   -0.71794E+08         0.18883E+07         0.00000E+00
    0.18883E+07        -0.94151E+08         0.00000E+00
    0.00000E+00         0.00000E+00        -0.71784E+08
 
   -0.71634E+08         0.18360E+07         0.00000E+00
    0.18360E+07        -0.94069E+08         0.00000E+00
    0.00000E+00         0.00000E+00        -0.71625E+08
 
   -0.71480E+08         0.17862E+07         0.00000E+00
    0.17862E+07        -0.93990E+08         0.00000E+00
    0.00000E+00         0.00000E+00        -0.71471E+08
 
   -0.71330E+08         0.17389E+07         0.00000E+00
    0.17389E+07        -0.93911E+08         0.00000E+00
    0.00000E+00         0.00000E+00        -0.71321E+08
 
   -0.71184E+08         0.16941E+07         0.00000E+00
    0.16941E+07        -0.93833E+08         0.00000E+00
    0.00000E+00         0.00000E+00        -0.71176E+08
 
   -0.71042E+08         0.16519E+07         0.00000E+00
    0.16519E+07        -0.93757E+08         0.00000E+00
    0.00000E+00         0.00000E+00        -0.71034E+08
 
   -0.70903E+08         0.16122E+07         0.00000E+00
    0.16122E+07        -0.93681E+08         0.00000E+00
    0.00000E+00         0.00000E+00        -0.70896E+08
 
   -0.70768E+08         0.15752E+07         0.00000E+00
    0.15752E+07        -0.93607E+08         0.00000E+00
    0.00000E+00         0.00000E+00        -0.70762E+08
 
   -0.70637E+08         0.15408E+07         0.00000E+00
    0.15408E+07        -0.93533E+08         0.00000E+00
    0.00000E+00         0.00000E+00        -0.70631E+08
 
   -0.70508E+08         0.15090E+07         0.00000E+00
    0.15090E+07        -0.93461E+08         0.00000E+00
    0.00000E+00         0.00000E+00        -0.70502E+08
 
   -0.70382E+08         0.14797E+07         0.00000E+00
    0.14797E+07        -0.93389E+08         0.00000E+00
    0.00000E+00         0.00000E+00        -0.70377E+08
 
   -0.70258E+08         0.14531E+07         0.00000E+00
    0.14531E+07        -0.93319E+08         0.00000E+00
    0.00000E+00         0.00000E+00        -0.70254E+08
 
   -0.70136E+08         0.14290E+07         0.00000E+00
    0.14290E+07        -0.93249E+08         0.00000E+00
    0.00000E+00         0.00000E+00        -0.70133E+08
 
   -0.70017E+08         0.14074E+07         0.00000E+00
    0.14074E+07        -0.93179E+08         0.00000E+00
    0.00000E+00         0.00000E+00        -0.70014E+08
 
   -0.69899E+08         0.13883E+07         0.00000E+00
    0.13883E+07        -0.93110E+08         0.00000E+00
    0.00000E+00         0.00000E+00        -0.69896E+08
 
   -0.69783E+08         0.13718E+07         0.00000E+00
    0.13718E+07        -0.93042E+08         0.00000E+00
    0.00000E+00         0.00000E+00        -0.69780E+08
 
   -0.69668E+08         0.13576E+07         0.00000E+00
    0.13576E+07        -0.92974E+08         0.00000E+00
    0.00000E+00         0.00000E+00        -0.69666E+08
 
   -0.69554E+08         0.13459E+07         0.00000E+00
    0.13459E+07        -0.92906E+08         0.00000E+00
    0.00000E+00         0.00000E+00        -0.69552E+08
 
   -0.69441E+08         0.13366E+07         0.00000E+00
    0.13366E+07        -0.92838E+08         0.00000E+00
    0.00000E+00         0.00000E+00        -0.69440E+08
 
   -0.69328E+08         0.13296E+07         0.00000E+00
    0.13296E+07        -0.92771E+08         0.00000E+00
    0.00000E+00         0.00000E+00        -0.69328E+08
 
   -0.69216E+08         0.13249E+07         0.00000E+00
    0.13249E+07        -0.92704E+08         0.00000E+00
    0.00000E+00         0.00000E+00        -0.69216E+08
 
   -0.69104E+08         0.13225E+07         0.00000E+00
    0.13225E+07        -0.92636E+08         0.00000E+00
    0.00000E+00         0.00000E+00        -0.69104E+08
 
   -0.68992E+08         0.13223E+07         0.00000E+00
    0.13223E+07        -0.92568E+08         0.00000E+00
    0.00000E+00         0.00000E+00        -0.68993E+08
 
   -0.68879E+08         0.13242E+07         0.00000E+00
    0.13242E+07        -0.92500E+08         0.00000E+00
    0.00000E+00         0.00000E+00        -0.68881E+08
 
   -0.68766E+08         0.13283E+07         0.00000E+00
    0.13283E+07        -0.92432E+08         0.00000E+00
    0.00000E+00         0.00000E+00        -0.68768E+08
 
   -0.68653E+08         0.13344E+07         0.00000E+00
    0.13344E+07        -0.92363E+08         0.00000E+00
    0.00000E+00         0.00000E+00        -0.68655E+08
 
   -0.68538E+08         0.13425E+07         0.00000E+00
    0.13425E+07        -0.92293E+08         0.00000E+00
    0.00000E+00         0.00000E+00        -0.68541E+08
 
   -0.68422E+08         0.13525E+07         0.00000E+00
    0.13525E+07        -0.92223E+08         0.00000E+00
    0.00000E+00         0.00000E+00        -0.68425E+08
 
   -0.68305E+08         0.13643E+07         0.00000E+00
    0.13643E+07        -0.92153E+08         0.00000E+00
    0.00000E+00         0.00000E+00        -0.68309E+08
 
   -0.68187E+08         0.13779E+07         0.00000E+00
    0.13779E+07        -0.92081E+08         0.00000E+00
    0.00000E+00         0.00000E+00        -0.68190E+08
 
   -0.68066E+08         0.13932E+07         0.00000E+00
    0.13932E+07        -0.92009E+08         0.00000E+00
    0.00000E+00         0.00000E+00        -0.68070E+08
 
   -0.67944E+08         0.14100E+07         0.00000E+00
    0.14100E+07        -0.91936E+08         0.00000E+00
    0.00000E+00         0.00000E+00        -0.67948E+08
 
   -0.67819E+08         0.14282E+07         0.00000E+00
    0.14282E+07        -0.91862E+08         0.00000E+00
    0.00000E+00         0.00000E+00        -0.67824E+08
 
   -0.67692E+08         0.14476E+07         0.00000E+00
    0.14476E+07        -0.91787E+08         0.00000E+00
    0.00000E+00         0.00000E+00        -0.67697E+08
 
   -0.67562E+08         0.14683E+07         0.00000E+00
    0.14683E+07        -0.91712E+08         0.00000E+00
    0.00000E+00         0.00000E+00        -0.67567E+08
 
   -0.67430E+08         0.14898E+07         0.00000E+00
    0.14898E+07        -0.91635E+08         0.00000E+00
    0.00000E+00         0.00000E+00        -0.67435E+08
 
   -0.67294E+08         0.15121E+07         0.00000E+00
    0.15121E+07        -0.91557E+08         0.00000E+00
    0.00000E+00         0.00000E+00        -0.67300E+08
 
   -0.67155E+08         0.15349E+07         0.00000E+00
    0.15349E+07        -0.91479E+08         0.00000E+00
    0.00000E+00         0.00000E+00        -0.67161E+08
 
   -0.67013E+08         0.15580E+07         0.00000E+00
    0.15580E+07        -0.91400E+08         0.00000E+00
    0.00000E+00         0.00000E+00        -0.67019E+08
 
   -0.66867E+08         0.15811E+07         0.00000E+00
    0.15811E+07        -0.91320E+08         0.00000E+00
    0.00000E+00         0.00000E+00        -0.66873E+08
 
   -0.66717E+08         0.16039E+07         0.00000E+00
    0.16039E+07        -0.91240E+08         0.00000E+00
    0.00000E+00         0.00000E+00        -0.66723E+08
 
   -0.66564E+08         0.16261E+07         0.00000E+00
    0.16261E+07        -0.91159E+08         0.00000E+00
    0.00000E+00         0.00000E+00        -0.66569E+08
 
   -0.66406E+08         0.16473E+07         0.00000E+00
    0.16473E+07        -0.91078E+08         0.00000E+00
    0.00000E+00         0.00000E+00        -0.66411E+08
 
   -0.66243E+08         0.16670E+07         0.00000E+00
    0.16670E+07        -0.90997E+08         0.00000E+00
    0.00000E+00         0.00000E+00        -0.66248E+08
 
   -0.66076E+08         0.16850E+07         0.00000E+00
    0.16850E+07        -0.90917E+08         0.00000E+00
    0.00000E+00         0.00000E+00        -0.66081E+08
 
   -0.65904E+08         0.17006E+07         0.00000E+00
    0.17006E+07        -0.90836E+08         0.00000E+00
    0.00000E+00         0.00000E+00        -0.65908E+08
 
   -0.65726E+08         0.17135E+07         0.00000E+00
    0.17135E+07        -0.90757E+08         0.00000E+00
    0.00000E+00         0.00000E+00        -0.65730E+08
 
   -0.65544E+08         0.17232E+07         0.00000E+00
    0.17232E+07        -0.90678E+08         0.00000E+00
    0.00000E+00         0.00000E+00        -0.65547E+08
 
   -0.65356E+08         0.17290E+07         0.00000E+00
    0.17290E+07        -0.90600E+08         0.00000E+00
    0.00000E+00         0.00000E+00        -0.65358E+08
 
   -0.65161E+08         0.17306E+07         0.00000E+00
    0.17306E+07        -0.90524E+08         0.00000E+00
    0.00000E+00         0.00000E+00        -0.65163E+08
 
   -0.64961E+08         0.17273E+07         0.00000E+00
    0.17273E+07        -0.90448E+08         0.00000E+00
    0.00000E+00         0.00000E+00        -0.64962E+08
 
   -0.64753E+08         0.17188E+07         0.00000E+00
    0.17188E+07        -0.90374E+08         0.00000E+00
    0.00000E+00         0.00000E+00        -0.64753E+08
 
   -0.64538E+08         0.17045E+07         0.00000E+00
    0.17045E+07        -0.90301E+08         0.00000E+00
    0.00000E+00         0.00000E+00        -0.64537E+08
 
   -0.64315E+08         0.16840E+07         0.00000E+00
    0.16840E+07        -0.90227E+08         0.00000E+00
    0.00000E+00         0.00000E+00        -0.64312E+08
 
   -0.64083E+08         0.16569E+07         0.00000E+00
    0.16569E+07        -0.90152E+08         0.00000E+00
    0.00000E+00         0.00000E+00        -0.64079E+08
 
   -0.63840E+08         0.16230E+07         0.00000E+00
    0.16230E+07        -0.90074E+08         0.00000E+00
    0.00000E+00         0.00000E+00        -0.63835E+08
 
   -0.63585E+08         0.15819E+07         0.00000E+00
    0.15819E+07        -0.89992E+08         0.00000E+00
    0.00000E+00         0.00000E+00        -0.63578E+08
 
   -0.63316E+08         0.15332E+07         0.00000E+00
    0.15332E+07        -0.89900E+08         0.00000E+00
    0.00000E+00         0.00000E+00        -0.63307E+08
 
   -0.63030E+08         0.14766E+07         0.00000E+00
    0.14766E+07        -0.89797E+08         0.00000E+00
    0.00000E+00         0.00000E+00        -0.63020E+08
 
   -0.62725E+08         0.14111E+07         0.00000E+00
    0.14111E+07        -0.89676E+08         0.00000E+00
    0.00000E+00         0.00000E+00        -0.62712E+08
 
   -0.62395E+08         0.13355E+07         0.00000E+00
    0.13355E+07        -0.89530E+08         0.00000E+00
    0.00000E+00         0.00000E+00        -0.62380E+08
 
   -0.62037E+08         0.12472E+07         0.00000E+00
    0.12472E+07        -0.89352E+08         0.00000E+00
    0.00000E+00         0.00000E+00        -0.62020E+08
 
   -0.61646E+08         0.11419E+07         0.00000E+00
    0.11419E+07        -0.89134E+08         0.00000E+00
    0.00000E+00         0.00000E+00        -0.61624E+08
 
   -0.61217E+08         0.10123E+07         0.00000E+00
    0.10123E+07        -0.88865E+08         0.00000E+00
    0.00000E+00         0.00000E+00        -0.61188E+08
 
   -0.60743E+08         0.84501E+06         0.00000E+00
    0.84501E+06        -0.88536E+08         0.00000E+00
    0.00000E+00         0.00000E+00        -0.60705E+08
 
   -0.60223E+08         0.61809E+06         0.00000E+00
    0.61809E+06        -0.88141E+08         0.00000E+00
    0.00000E+00         0.00000E+00        -0.60170E+08
 
   -0.59659E+08         0.24342E+06         0.00000E+00
    0.24342E+06        -0.87658E+08         0.00000E+00
    0.00000E+00         0.00000E+00        -0.59559E+08
 
   -0.83551E+08         0.45488E+06         0.00000E+00
    0.45488E+06        -0.97628E+08         0.00000E+00
    0.00000E+00         0.00000E+00        -0.84188E+08
 
   -0.82935E+08         0.12105E+07         0.00000E+00
    0.12105E+07        -0.97002E+08         0.00000E+00
    0.00000E+00         0.00000E+00        -0.83291E+08
 
   -0.82182E+08         0.17163E+07         0.00000E+00
    0.17163E+07        -0.96598E+08         0.00000E+00
    0.00000E+00         0.00000E+00        -0.82435E+08
 
   -0.81428E+08         0.20768E+07         0.00000E+00
    0.20768E+07        -0.96338E+08         0.00000E+00
    0.00000E+00         0.00000E+00        -0.81616E+08
 
   -0.80688E+08         0.23530E+07         0.00000E+00
    0.23530E+07        -0.96193E+08         0.00000E+00
    0.00000E+00         0.00000E+00        -0.80833E+08
 
   -0.79969E+08         0.25711E+07         0.00000E+00
    0.25711E+07        -0.96140E+08         0.00000E+00
    0.00000E+00         0.00000E+00        -0.80086E+08
 
   -0.79276E+08         0.27487E+07         0.00000E+00
    0.27487E+07        -0.96157E+08         0.00000E+00
    0.00000E+00         0.00000E+00        -0.79371E+08
 
   -0.78609E+08         0.28954E+07         0.00000E+00
    0.28954E+07        -0.96226E+08         0.00000E+00
    0.00000E+00         0.00000E+00        -0.78687E+08
 
   -0.77985E+08         0.30125E+07         0.00000E+00
    0.30125E+07        -0.96314E+08         0.00000E+00
    0.00000E+00         0.00000E+00        -0.78049E+08
 
   -0.77544E+08         0.30565E+07         0.00000E+00
    0.30565E+07        -0.96264E+08         0.00000E+00
    0.00000E+00         0.00000E+00        -0.77594E+08
 
   -0.77202E+08         0.30588E+07         0.00000E+00
    0.30588E+07        -0.96149E+08         0.00000E+00
    0.00000E+00         0.00000E+00        -0.77241E+08
 
   -0.76876E+08         0.30494E+07         0.00000E+00
    0.30494E+07        -0.96048E+08         0.00000E+00
    0.00000E+00         0.00000E+00        -0.76904E+08
 
   -0.76563E+08         0.30302E+07         0.00000E+00
    0.30302E+07        -0.95955E+08         0.00000E+00
    0.00000E+00         0.00000E+00        -0.76582E+08
 
   -0.76261E+08         0.30026E+07         0.00000E+00
    0.30026E+07        -0.95868E+08         0.00000E+00
    0.00000E+00         0.00000E+00        -0.76272E+08
 
   -0.75969E+08         0.29678E+07         0.00000E+00
    0.29678E+07        -0.95784E+08         0.00000E+00
    0.00000E+00         0.00000E+00        -0.75972E+08
 
   -0.75686E+08         0.29267E+07         0.00000E+00
    0.29267E+07        -0.95701E+08         0.00000E+00
    0.00000E+00         0.00000E+00        -0.75683E+08
 
   -0.75412E+08         0.28802E+07         0.00000E+00
    0.28802E+07        -0.95618E+08         0.00000E+00
    0.00000E+00         0.00000E+00        -0.75403E+08
 
   -0.75145E+08         0.28290E+07         0.00000E+00
    0.28290E+07        -0.95535E+08         0.00000E+00
    0.00000E+00         0.00000E+00        -0.75132E+08
 
   -0.74886E+08         0.27740E+07         0.00000E+00
    0.27740E+07        -0.95451E+08         0.00000E+00
    0.00000E+00         0.00000E+00        -0.74868E+08
 
   -0.74634E+08         0.27157E+07         0.00000E+00
    0.27157E+07        -0.95366E+08         0.00000E+00
    0.00000E+00         0.00000E+00        -0.74613E+08
 
   -0.74389E+08         0.26549E+07         0.00000E+00
    0.26549E+07        -0.95280E+08         0.00000E+00
    0.00000E+00         0.00000E+00        -0.74365E+08
 
   -0.74152E+08         0.25922E+07         0.00000E+00
    0.25922E+07        -0.95193E+08         0.00000E+00
    0.00000E+00         0.00000E+00        -0.74125E+08
 
   -0.73921E+08         0.25282E+07         0.00000E+00
    0.25282E+07        -0.95105E+08         0.00000E+00
    0.00000E+00         0.00000E+00        -0.73893E+08
 
   -0.73697E+08         0.24634E+07         0.00000E+00
    0.24634E+07        -0.95017E+08         0.00000E+00
    0.00000E+00         0.00000E+00        -0.73667E+08
 
   -0.73479E+08         0.23982E+07         0.00000E+00
    0.23982E+07        -0.94929E+08         0.00000E+00
    0.00000E+00         0.00000E+00        -0.73449E+08
 
   -0.73269E+08         0.23332E+07         0.00000E+00
    0.23332E+07        -0.94840E+08         0.00000E+00
    0.00000E+00         0.00000E+00        -0.73237E+08
 
   -0.73064E+08         0.22687E+07         0.00000E+00
    0.22687E+07        -0.94752E+08         0.00000E+00
    0.00000E+00         0.00000E+00        -0.73032E+08
 
   -0.72866E+08         0.22050E+07         0.00000E+00
    0.22050E+07        -0.94664E+08         0.00000E+00
    0.00000E+00         0.00000E+00        -0.72834E+08
 
   -0.72674E+08         0.21425E+07         0.00000E+00
    0.21425E+07        -0.94577E+08         0.00000E+00
    0.00000E+00         0.00000E+00        -0.72643E+08
 
   -0.72488E+08         0.20814E+07         0.00000E+00
    0.20814E+07        -0.94491E+08         0.00000E+00
    0.00000E+00         0.00000E+00        -0.72457E+08
 
   -0.72308E+08         0.20220E+07         0.00000E+00
    0.20220E+07        -0.94405E+08         0.00000E+00
    0.00000E+00         0.00000E+00        -0.72277E+08
 
   -0.72133E+08         0.19644E+07         0.00000E+00
    0.19644E+07        -0.94320E+08         0.00000E+00
    0.00000E+00         0.00000E+00        -0.72103E+08
 
   -0.71963E+08         0.19089E+07         0.00000E+00
    0.19089E+07        -0.94237E+08         0.00000E+00
    0.00000E+00         0.00000E+00        -0.71935E+08
 
   -0.71799E+08         0.18555E+07         0.00000E+00
    0.18555E+07        -0.94154E+08         0.00000E+00
    0.00000E+00         0.00000E+00        -0.71771E+08
 
   -0.71640E+08         0.18043E+07         0.00000E+00
    0.18043E+07        -0.94073E+08         0.00000E+00
    0.00000E+00         0.00000E+00        -0.71613E+08
 
   -0.71485E+08         0.17555E+07         0.00000E+00
    0.17555E+07        -0.93993E+08         0.00000E+00
    0.00000E+00         0.00000E+00        -0.71460E+08
 
   -0.71335E+08         0.17091E+07         0.00000E+00
    0.17091E+07        -0.93914E+08         0.00000E+00
    0.00000E+00         0.00000E+00        -0.71310E+08
 
   -0.71188E+08         0.16652E+07         0.00000E+00
    0.16652E+07        -0.93836E+08         0.00000E+00
    0.00000E+00         0.00000E+00        -0.71166E+08
 
   -0.71046E+08         0.16237E+07         0.00000E+00
    0.16237E+07        -0.93759E+08         0.00000E+00
    0.00000E+00         0.00000E+00        -0.71025E+08
 
   -0.70907E+08         0.15848E+07         0.00000E+00
    0.15848E+07        -0.93684E+08         0.00000E+00
    0.00000E+00         0.00000E+00        -0.70887E+08
 
   -0.70772E+08         0.15485E+07         0.00000E+00
    0.15485E+07        -0.93609E+08         0.00000E+00
    0.00000E+00         0.00000E+00        -0.70753E+08
 
   -0.70640E+08         0.15147E+07         0.00000E+00
    0.15147E+07        -0.93536E+08         0.00000E+00
    0.00000E+00         0.00000E+00        -0.70623E+08
 
   -0.70511E+08         0.14834E+07         0.00000E+00
    0.14834E+07        -0.93463E+08         0.00000E+00
    0.00000E+00         0.00000E+00        -0.70495E+08
 
   -0.70384E+08         0.14547E+07         0.00000E+00
    0.14547E+07        -0.93392E+08         0.00000E+00
    0.00000E+00         0.00000E+00        -0.70370E+08
 
   -0.70260E+08         0.14284E+07         0.00000E+00
    0.14284E+07        -0.93321E+08         0.00000E+00
    0.00000E+00         0.00000E+00        -0.70247E+08
 
   -0.70138E+08         0.14047E+07         0.00000E+00
    0.14047E+07        -0.93251E+08         0.00000E+00
    0.00000E+00         0.00000E+00        -0.70127E+08
 
   -0.70018E+08         0.13835E+07         0.00000E+00
    0.13835E+07        -0.93181E+08         0.00000E+00
    0.00000E+00         0.00000E+00        -0.70008E+08
 
   -0.69900E+08         0.13648E+07         0.00000E+00
    0.13648E+07        -0.93112E+08         0.00000E+00
    0.00000E+00         0.00000E+00        -0.69892E+08
 
   -0.69783E+08         0.13484E+07         0.00000E+00
    0.13484E+07        -0.93044E+08         0.00000E+00
    0.00000E+00         0.00000E+00        -0.69776E+08
 
   -0.69668E+08         0.13345E+07         0.00000E+00
    0.13345E+07        -0.92975E+08         0.00000E+00
    0.00000E+00         0.00000E+00        -0.69662E+08
 
   -0.69553E+08         0.13229E+07         0.00000E+00
    0.13229E+07        -0.92908E+08         0.00000E+00
    0.00000E+00         0.00000E+00        -0.69549E+08
 
   -0.69440E+08         0.13137E+07         0.00000E+00
    0.13137E+07        -0.92840E+08         0.00000E+00
    0.00000E+00         0.00000E+00        -0.69437E+08
 
   -0.69327E+08         0.13068E+07         0.00000E+00
    0.13068E+07        -0.92773E+08         0.00000E+00
    0.00000E+00         0.00000E+00        -0.69325E+08
 
   -0.69214E+08         0.13021E+07         0.00000E+00
    0.13021E+07        -0.92705E+08         0.00000E+00
    0.00000E+00         0.00000E+00        -0.69214E+08
 
   -0.69102E+08         0.12996E+07         0.00000E+00
    0.12996E+07        -0.92637E+08         0.00000E+00
    0.00000E+00         0.00000E+00        -0.69103E+08
 
   -0.68989E+08         0.12993E+07         0.00000E+00
    0.12993E+07        -0.92570E+08         0.00000E+00
    0.00000E+00         0.00000E+00        -0.68992E+08
 
   -0.68876E+08         0.13011E+07         0.00000E+00
    0.13011E+07        -0.92502E+08         0.00000E+00
    0.00000E+00         0.00000E+00        -0.68880E+08
 
   -0.68763E+08         0.13050E+07         0.00000E+00
    0.13050E+07        -0.92433E+08         0.00000E+00
    0.00000E+00         0.00000E+00        -0.68768E+08
 
   -0.68649E+08         0.13109E+07         0.00000E+00
    0.13109E+07        -0.92364E+08         0.00000E+00
    0.00000E+00         0.00000E+00        -0.68655E+08
 
   -0.68534E+08         0.13187E+07         0.00000E+00
    0.13187E+07        -0.92295E+08         0.00000E+00
    0.00000E+00         0.00000E+00        -0.68541E+08
 
   -0.68417E+08         0.13284E+07         0.00000E+00
    0.13284E+07        -0.92225E+08         0.00000E+00
    0.00000E+00         0.00000E+00        -0.68426E+08
 
   -0.68300E+08         0.13399E+07         0.00000E+00
    0.13399E+07        -0.92154E+08         0.00000E+00
    0.00000E+00         0.00000E+00        -0.68310E+08
 
   -0.68181E+08         0.13531E+07         0.00000E+00
    0.13531E+07        -0.92083E+08         0.00000E+00
    0.00000E+00         0.00000E+00        -0.68192E+08
 
   -0.68060E+08         0.13679E+07         0.00000E+00
    0.13679E+07        -0.92011E+08         0.00000E+00
    0.00000E+00         0.00000E+00        -0.68072E+08
 
   -0.67937E+08         0.13842E+07         0.00000E+00
    0.13842E+07        -0.91937E+08         0.00000E+00
    0.00000E+00         0.00000E+00        -0.67950E+08
 
   -0.67812E+08         0.14019E+07         0.00000E+00
    0.14019E+07        -0.91864E+08         0.00000E+00
    0.00000E+00         0.00000E+00        -0.67826E+08
 
   -0.67685E+08         0.14208E+07         0.00000E+00
    0.14208E+07        -0.91789E+08         0.00000E+00
    0.00000E+00         0.00000E+00        -0.67699E+08
 
   -0.67554E+08         0.14407E+07         0.00000E+00
    0.14407E+07        -0.91713E+08         0.00000E+00
    0.00000E+00         0.00000E+00        -0.67570E+08
 
   -0.67422E+08         0.14616E+07         0.00000E+00
    0.14616E+07        -0.91636E+08         0.00000E+00
    0.00000E+00         0.00000E+00        -0.67438E+08
 
   -0.67286E+08         0.14832E+07         0.00000E+00
    0.14832E+07        -0.91559E+08         0.00000E+00
    0.00000E+00         0.00000E+00        -0.67303E+08
 
   -0.67147E+08         0.15052E+07         0.00000E+00
    0.15052E+07        -0.91481E+08         0.00000E+00
    0.00000E+00         0.00000E+00        -0.67164E+08
 
   -0.67004E+08         0.15275E+07         0.00000E+00
    0.15275E+07        -0.91402E+08         0.00000E+00
    0.00000E+00         0.00000E+00        -0.67022E+08
 
   -0.66858E+08         0.15498E+07         0.00000E+00
    0.15498E+07        -0.91322E+08         0.00000E+00
    0.00000E+00         0.00000E+00        -0.66876E+08
 
   -0.66708E+08         0.15717E+07         0.00000E+00
    0.15717E+07        -0.91242E+08         0.00000E+00
    0.00000E+00         0.00000E+00        -0.66726E+08
 
   -0.66554E+08         0.15929E+07         0.00000E+00
    0.15929E+07        -0.91161E+08         0.00000E+00
    0.00000E+00         0.00000E+00        -0.66572E+08
 
   -0.66396E+08         0.16131E+07         0.00000E+00
    0.16131E+07        -0.91080E+08         0.00000E+00
    0.00000E+00         0.00000E+00        -0.66413E+08
 
   -0.66234E+08         0.16318E+07         0.00000E+00
    0.16318E+07        -0.90999E+08         0.00000E+00
    0.00000E+00         0.00000E+00        -0.66250E+08
 
   -0.66067E+08         0.16487E+07         0.00000E+00
    0.16487E+07        -0.90919E+08         0.00000E+00
    0.00000E+00         0.00000E+00        -0.66082E+08
 
   -0.65895E+08         0.16633E+07         0.00000E+00
    0.16633E+07        -0.90838E+08         0.00000E+00
    0.00000E+00         0.00000E+00        -0.65909E+08
 
   -0.65718E+08         0.16750E+07         0.00000E+00
    0.16750E+07        -0.90759E+08         0.00000E+00
    0.00000E+00         0.00000E+00        -0.65730E+08
 
   -0.65536E+08         0.16834E+07         0.00000E+00
    0.16834E+07        -0.90680E+08         0.00000E+00
    0.00000E+00         0.00000E+00        -0.65546E+08
 
   -0.65348E+08         0.16880E+07         0.00000E+00
    0.16880E+07        -0.90603E+08         0.00000E+00
    0.00000E+00         0.00000E+00        -0.65356E+08
 
   -0.65155E+08         0.16883E+07         0.00000E+00
    0.16883E+07        -0.90526E+08         0.00000E+00
    0.00000E+00         0.00000E+00        -0.65160E+08
 
   -0.64955E+08         0.16837E+07         0.00000E+00
    0.16837E+07        -0.90451E+08         0.00000E+00
    0.00000E+00         0.00000E+00        -0.64958E+08
 
   -0.64749E+08         0.16737E+07         0.00000E+00
    0.16737E+07        -0.90377E+08         0.00000E+00
    0.00000E+00         0.00000E+00        -0.64748E+08
 
   -0.64535E+08         0.16579E+07         0.00000E+00
    0.16579E+07        -0.90303E+08         0.00000E+00
    0.00000E+00         0.00000E+00        -0.64531E+08
 
   -0.64313E+08         0.16358E+07         0.00000E+00
    0.16358E+07        -0.90230E+08         0.00000E+00
    0.00000E+00         0.00000E+00        -0.64305E+08
 
   -0.64082E+08         0.16071E+07         0.00000E+00
    0.16071E+07        -0.90155E+08         0.00000E+00
    0.00000E+00         0.00000E+00        -0.64070E+08
 
   -0.63841E+08         0.15715E+07         0.00000E+00
    0.15715E+07        -0.90078E+08         0.00000E+00
    0.00000E+00         0.00000E+00        -0.63824E+08
 
   -0.63587E+08         0.15285E+07         0.00000E+00
    0.15285E+07        -0.89995E+08         0.00000E+00
    0.00000E+00         0.00000E+00        -0.63566E+08
 
   -0.63320E+08         0.14780E+07         0.00000E+00
    0.14780E+07        -0.89904E+08         0.00000E+00
    0.00000E+00         0.00000E+00        -0.63294E+08
 
   -0.63036E+08         0.14194E+07         0.00000E+00
    0.14194E+07        -0.89801E+08         0.00000E+00
    0.00000E+00         0.00000E+00        -0.63005E+08
 
   -0.62733E+08         0.13519E+07         0.00000E+00
    0.13519E+07        -0.89679E+08         0.00000E+00
    0.00000E+00         0.00000E+00        -0.62695E+08
 
   -0.62406E+08         0.12743E+07         0.00000E+00
    0.12743E+07        -0.89534E+08         0.00000E+00
    0.00000E+00         0.00000E+00        -0.62361E+08
 
   -0.62052E+08         0.11839E+07         0.00000E+00
    0.11839E+07        -0.89356E+08         0.00000E+00
    0.00000E+00         0.00000E+00        -0.61998E+08
 
   -0.61666E+08         0.10767E+07         0.00000E+00
    0.10767E+07        -0.89138E+08         0.00000E+00
    0.00000E+00         0.00000E+00        -0.61598E+08
 
   -0.61243E+08         0.94518E+06         0.00000E+00
    0.94518E+06        -0.88870E+08         0.00000E+00
    0.00000E+00         0.00000E+00        -0.61157E+08
 
   -0.60780E+08         0.77763E+06         0.00000E+00
    0.77763E+06        -0.88542E+08         0.00000E+00
    0.00000E+00         0.00000E+00        -0.60665E+08
 
   -0.60275E+08         0.54681E+06         0.00000E+00
    0.54681E+06        -0.88143E+08         0.00000E+00
    0.00000E+00         0.00000E+00        -0.60114E+08
 
   -0.59760E+08         0.20570E+06         0.00000E+00
    0.20570E+06        -0.87671E+08         0.00000E+00
    0.00000E+00         0.00000E+00        -0.59472E+08
 
   -0.83184E+08         0.38968E+06         0.00000E+00
    0.38968E+06        -0.97792E+08         0.00000E+00
    0.00000E+00         0.00000E+00        -0.84188E+08
 
   -0.82689E+08         0.10720E+07         0.00000E+00
    0.10720E+07        -0.97123E+08         0.00000E+00
    0.00000E+00         0.00000E+00        -0.83291E+08
 
   -0.82010E+08         0.15696E+07         0.00000E+00
    0.15696E+07        -0.96680E+08         0.00000E+00
    0.00000E+00         0.00000E+00        -0.82435E+08
 
   -0.81298E+08         0.19304E+07         0.00000E+00
    0.19304E+07        -0.96401E+08         0.00000E+00
    0.00000E+00         0.00000E+00        -0.81616E+08
 
   -0.80586E+08         0.22090E+07         0.00000E+00
    0.22090E+07        -0.96242E+08         0.00000E+00
    0.00000E+00         0.00000E+00        -0.80833E+08
 
   -0.79888E+08         0.24314E+07         0.00000E+00
    0.24314E+07        -0.96179E+08         0.00000E+00
    0.00000E+00         0.00000E+00        -0.80086E+08
 
   -0.79209E+08         0.26138E+07         0.00000E+00
    0.26138E+07        -0.96190E+08         0.00000E+00
    0.00000E+00         0.00000E+00        -0.79371E+08
 
   -0.78555E+08         0.27658E+07         0.00000E+00
    0.27658E+07        -0.96253E+08         0.00000E+00
    0.00000E+00         0.00000E+00        -0.78687E+08
 
   -0.77938E+08         0.28889E+07         0.00000E+00
    0.28889E+07        -0.96339E+08         0.00000E+00
    0.00000E+00         0.00000E+00        -0.78046E+08
 
   -0.77501E+08         0.29418E+07         0.00000E+00
    0.29418E+07        -0.96289E+08         0.00000E+00
    0.00000E+00         0.00000E+00        -0.77588E+08
 
   -0.77166E+08         0.29524E+07         0.00000E+00
    0.29524E+07        -0.96172E+08         0.00000E+00
    0.00000E+00         0.00000E+00        -0.77232E+08
 
   -0.76845E+08         0.29505E+07         0.00000E+00
    0.29505E+07        -0.96069E+08         0.00000E+00
    0.00000E+00         0.00000E+00        -0.76894E+08
 
   -0.76537E+08         0.29381E+07         0.00000E+00
    0.29381E+07        -0.95974E+08         0.00000E+00
    0.00000E+00         0.00000E+00        -0.76570E+08
 
   -0.76239E+08         0.29166E+07         0.00000E+00
    0.29166E+07        -0.95886E+08         0.00000E+00
    0.00000E+00         0.00000E+00        -0.76258E+08
 
   -0.75952E+08         0.28873E+07         0.00000E+00
    0.28873E+07        -0.95800E+08         0.00000E+00
    0.00000E+00         0.00000E+00        -0.75958E+08
 
   -0.75672E+08         0.28511E+07         0.00000E+00
    0.28511E+07        -0.95716E+08         0.00000E+00
    0.00000E+00         0.00000E+00        -0.75668E+08
 
   -0.75401E+08         0.28091E+07         0.00000E+00
    0.28091E+07        -0.95632E+08         0.00000E+00
    0.00000E+00         0.00000E+00        -0.75387E+08
 
   -0.75137E+08         0.27620E+07         0.00000E+00
    0.27620E+07        -0.95548E+08         0.00000E+00
    0.00000E+00         0.00000E+00        -0.75115E+08
 
   -0.74880E+08         0.27106E+07         0.00000E+00
    0.27106E+07        -0.95463E+08         0.00000E+00
    0.00000E+00         0.00000E+00        -0.74851E+08
 
   -0.74631E+08         0.26557E+07         0.00000E+00
    0.26557E+07        -0.95377E+08         0.00000E+00
    0.00000E+00         0.00000E+00        -0.74596E+08
 
   -0.74388E+08         0.25980E+07         0.00000E+00
    0.25980E+07        -0.95290E+08         0.00000E+00
    0.00000E+00         0.00000E+00        -0.74348E+08
 
   -0.74152E+08         0.25381E+07         0.00000E+00
    0.25381E+07        -0.95202E+08         0.00000E+00
    0.00000E+00         0.00000E+00        -0.74108E+08
 
   -0.73922E+08         0.24767E+07         0.00000E+00
    0.24767E+07        -0.95114E+08         0.00000E+00
    0.00000E+00         0.00000E+00        -0.73875E+08
 
   -0.73699E+08         0.24142E+07         0.00000E+00
    0.24142E+07        -0.95025E+08         0.00000E+00
    0.00000E+00         0.00000E+00        -0.73650E+08
 
   -0.73483E+08         0.23513E+07         0.00000E+00
    0.23513E+07        -0.94936E+08         0.00000E+00
    0.00000E+00         0.00000E+00        -0.73432E+08
 
   -0.73273E+08         0.22883E+07         0.00000E+00
    0.22883E+07        -0.94847E+08         0.00000E+00
    0.00000E+00         0.00000E+00        -0.73221E+08
 
   -0.73069E+08         0.22256E+07         0.00000E+00
    0.22256E+07        -0.94758E+08         0.00000E+00
    0.00000E+00         0.00000E+00        -0.73016E+08
 
   -0.72871E+08         0.21637E+07         0.00000E+00
    0.21637E+07        -0.94670E+08         0.00000E+00
    0.00000E+00         0.00000E+00        -0.72818E+08
 
   -0.72679E+08         0.21029E+07         0.00000E+00
    0.21029E+07        -0.94582E+08         0.00000E+00
    0.00000E+00         0.00000E+00        -0.72627E+08
 
   -0.72494E+08         0.20433E+07         0.00000E+00
    0.20433E+07        -0.94496E+08         0.00000E+00
    0.00000E+00         0.00000E+00        -0.72442E+08
 
   -0.72313E+08         0.19853E+07         0.00000E+00
    0.19853E+07        -0.94410E+08         0.00000E+00
    0.00000E+00         0.00000E+00        -0.72263E+08
 
   -0.72139E+08         0.19291E+07         0.00000E+00
    0.19291E+07        -0.94325E+08         0.00000E+00
    0.00000E+00         0.00000E+00        -0.72089E+08
 
   -0.71969E+08         0.18747E+07         0.00000E+00
    0.18747E+07        -0.94241E+08         0.00000E+00
    0.00000E+00         0.00000E+00        -0.71921E+08
 
   -0.71805E+08         0.18225E+07         0.00000E+00
    0.18225E+07        -0.94158E+08         0.00000E+00
    0.00000E+00         0.00000E+00        -0.71759E+08
 
   -0.71645E+08         0.17724E+07         0.00000E+00
    0.17724E+07        -0.94077E+08         0.00000E+00
    0.00000E+00         0.00000E+00        -0.71601E+08
 
   -0.71490E+08         0.17246E+07         0.00000E+00
    0.17246E+07        -0.93996E+08         0.00000E+00
    0.00000E+00         0.00000E+00        -0.71448E+08
 
   -0.71340E+08         0.16791E+07         0.00000E+00
    0.16791E+07        -0.93917E+08         0.00000E+00
    0.00000E+00         0.00000E+00        -0.71300E+08
 
   -0.71193E+08         0.16360E+07         0.00000E+00
    0.16360E+07        -0.93839E+08         0.00000E+00
    0.00000E+00         0.00000E+00        -0.71155E+08
 
   -0.71050E+08         0.15954E+07         0.00000E+00
    0.15954E+07        -0.93762E+08         0.00000E+00
    0.00000E+00         0.00000E+00        -0.71015E+08
 
   -0.70911E+08         0.15572E+07         0.00000E+00
    0.15572E+07        -0.93687E+08         0.00000E+00
    0.00000E+00         0.00000E+00        -0.70878E+08
 
   -0.70776E+08         0.15215E+07         0.00000E+00
    0.15215E+07        -0.93612E+08         0.00000E+00
    0.00000E+00         0.00000E+00        -0.70745E+08
 
   -0.70643E+08         0.14883E+07         0.00000E+00
    0.14883E+07        -0.93538E+08         0.00000E+00
    0.00000E+00         0.00000E+00        -0.70615E+08
 
   -0.70514E+08         0.14576E+07         0.00000E+00
    0.14576E+07        -0.93466E+08         0.00000E+00
    0.00000E+00         0.00000E+00        -0.70488E+08
 
   -0.70387E+08         0.14294E+07         0.00000E+00
    0.14294E+07        -0.93394E+08         0.00000E+00
    0.00000E+00         0.00000E+00        -0.70363E+08
 
   -0.70262E+08         0.14036E+07         0.00000E+00
    0.14036E+07        -0.93323E+08         0.00000E+00
    0.00000E+00         0.00000E+00        -0.70241E+08
 
   -0.70140E+08         0.13803E+07         0.00000E+00
    0.13803E+07        -0.93253E+08         0.00000E+00
    0.00000E+00         0.00000E+00        -0.70121E+08
 
   -0.70020E+08         0.13594E+07         0.00000E+00
    0.13594E+07        -0.93183E+08         0.00000E+00
    0.00000E+00         0.00000E+00        -0.70003E+08
 
   -0.69901E+08         0.13410E+07         0.00000E+00
    0.13410E+07        -0.93114E+08         0.00000E+00
    0.00000E+00         0.00000E+00        -0.69887E+08
 
   -0.69784E+08         0.13249E+07         0.00000E+00
    0.13249E+07        -0.93045E+08         0.00000E+00
    0.00000E+00         0.00000E+00        -0.69772E+08
 
   -0.69668E+08         0.13112E+07         0.00000E+00
    0.13112E+07        -0.92977E+08         0.00000E+00
    0.00000E+00         0.00000E+00        -0.69658E+08
 
   -0.69553E+08         0.12997E+07         0.00000E+00
    0.12997E+07        -0.92909E+08         0.00000E+00
    0.00000E+00         0.00000E+00        -0.69546E+08
 
   -0.69439E+08         0.12906E+07         0.00000E+00
    0.12906E+07        -0.92842E+08         0.00000E+00
    0.00000E+00         0.00000E+00        -0.69434E+08
 
   -0.69325E+08         0.12837E+07         0.00000E+00
    0.12837E+07        -0.92774E+08         0.00000E+00
    0.00000E+00         0.00000E+00        -0.69323E+08
 
   -0.69212E+08         0.12791E+07         0.00000E+00
    0.12791E+07        -0.92706E+08         0.00000E+00
    0.00000E+00         0.00000E+00        -0.69212E+08
 
   -0.69099E+08         0.12766E+07         0.00000E+00
    0.12766E+07        -0.92639E+08         0.00000E+00
    0.00000E+00         0.00000E+00        -0.69101E+08
 
   -0.68986E+08         0.12762E+07         0.00000E+00
    0.12762E+07        -0.92571E+08         0.00000E+00
    0.00000E+00         0.00000E+00        -0.68990E+08
 
   -0.68873E+08         0.12779E+07         0.00000E+00
    0.12779E+07        -0.92503E+08         0.00000E+00
    0.00000E+00         0.00000E+00        -0.68879E+08
 
   -0.68759E+08         0.12816E+07         0.00000E+00
    0.12816E+07        -0.92434E+08         0.00000E+00
    0.00000E+00         0.00000E+00        -0.68768E+08
 
   -0.68644E+08         0.12873E+07         0.00000E+00
    0.12873E+07        -0.92366E+08         0.00000E+00
    0.00000E+00         0.00000E+00        -0.68655E+08
 
   -0.68529E+08         0.12948E+07         0.00000E+00
    0.12948E+07        -0.92296E+08         0.00000E+00
    0.00000E+00         0.00000E+00        -0.68542E+08
 
   -0.68412E+08         0.13042E+07         0.00000E+00
    0.13042E+07        -0.92226E+08         0.00000E+00
    0.00000E+00         0.00000E+00        -0.68427E+08
 
   -0.68294E+08         0.13154E+07         0.00000E+00
    0.13154E+07        -0.92155E+08         0.00000E+00
    0.00000E+00         0.00000E+00        -0.68311E+08
 
   -0.68175E+08         0.13282E+07         0.00000E+00
    0.13282E+07        -0.92084E+08         0.00000E+00
    0.00000E+00         0.00000E+00        -0.68193E+08
 
   -0.68054E+08         0.13425E+07         0.00000E+00
    0.13425E+07        -0.92012E+08         0.00000E+00
    0.00000E+00         0.00000E+00        -0.68074E+08
 
   -0.67930E+08         0.13583E+07         0.00000E+00
    0.13583E+07        -0.91939E+08         0.00000E+00
    0.00000E+00         0.00000E+00        -0.67952E+08
 
   -0.67805E+08         0.13755E+07         0.00000E+00
    0.13755E+07        -0.91865E+08         0.00000E+00
    0.00000E+00         0.00000E+00        -0.67828E+08
 
   -0.67677E+08         0.13938E+07         0.00000E+00
    0.13938E+07        -0.91790E+08         0.00000E+00
    0.00000E+00         0.00000E+00        -0.67702E+08
 
   -0.67547E+08         0.14131E+07         0.00000E+00
    0.14131E+07        -0.91714E+08         0.00000E+00
    0.00000E+00         0.00000E+00        -0.67573E+08
 
   -0.67414E+08         0.14333E+07         0.00000E+00
    0.14333E+07        -0.91638E+08         0.00000E+00
    0.00000E+00         0.00000E+00        -0.67440E+08
 
   -0.67277E+08         0.14542E+07         0.00000E+00
    0.14542E+07        -0.91560E+08         0.00000E+00
    0.00000E+00         0.00000E+00        -0.67305E+08
 
   -0.67138E+08         0.14755E+07         0.00000E+00
    0.14755E+07        -0.91482E+08         0.00000E+00
    0.00000E+00         0.00000E+00        -0.67167E+08
 
   -0.66995E+08         0.14970E+07         0.00000E+00
    0.14970E+07        -0.91403E+08         0.00000E+00
    0.00000E+00         0.00000E+00        -0.67024E+08
 
   -0.66849E+08         0.15184E+07         0.00000E+00
    0.15184E+07        -0.91323E+08         0.00000E+00
    0.00000E+00         0.00000E+00        -0.66878E+08
 
   -0.66699E+08         0.15395E+07         0.00000E+00
    0.15395E+07        -0.91243E+08         0.00000E+00
    0.00000E+00         0.00000E+00        -0.66728E+08
 
   -0.66545E+08         0.15598E+07         0.00000E+00
    0.15598E+07        -0.91163E+08         0.00000E+00
    0.00000E+00         0.00000E+00        -0.66574E+08
 
   -0.66387E+08         0.15790E+07         0.00000E+00
    0.15790E+07        -0.91082E+08         0.00000E+00
    0.00000E+00         0.00000E+00        -0.66415E+08
 
   -0.66225E+08         0.15968E+07         0.00000E+00
    0.15968E+07        -0.91001E+08         0.00000E+00
    0.00000E+00         0.00000E+00        -0.66251E+08
 
   -0.66058E+08         0.16126E+07         0.00000E+00
    0.16126E+07        -0.90921E+08         0.00000E+00
    0.00000E+00         0.00000E+00        -0.66083E+08
 
   -0.65887E+08         0.16261E+07         0.00000E+00
    0.16261E+07        -0.90840E+08         0.00000E+00
    0.00000E+00         0.00000E+00        -0.65909E+08
 
   -0.65710E+08         0.16367E+07         0.00000E+00
    0.16367E+07        -0.90761E+08         0.00000E+00
    0.00000E+00         0.00000E+00        -0.65730E+08
 
   -0.65529E+08         0.16440E+07         0.00000E+00
    0.16440E+07        -0.90682E+08         0.00000E+00
    0.00000E+00         0.00000E+00        -0.65545E+08
 
   -0.65341E+08         0.16474E+07         0.00000E+00
    0.16474E+07        -0.90605E+08         0.00000E+00
    0.00000E+00         0.00000E+00        -0.65355E+08
 
   -0.65149E+08         0.16463E+07         0.00000E+00
    0.16463E+07        -0.90529E+08         0.00000E+00
    0.00000E+00         0.00000E+00        -0.65158E+08
 
   -0.64950E+08         0.16404E+07         0.00000E+00
    0.16404E+07        -0.90453E+08         0.00000E+00
    0.00000E+00         0.00000E+00        -0.64954E+08
 
   -0.64744E+08         0.16290E+07         0.00000E+00
    0.16290E+07        -0.90379E+08         0.00000E+00
    0.00000E+00         0.00000E+00        -0.64743E+08
 
   -0.64532E+08         0.16118E+07         0.00000E+00
    0.16118E+07        -0.90306E+08         0.00000E+00
    0.00000E+00         0.00000E+00        -0.64525E+08
 
   -0.64311E+08         0.15882E+07         0.00000E+00
    0.15882E+07        -0.90233E+08         0.00000E+00
    0.00000E+00         0.00000E+00        -0.64298E+08
 
   -0.64081E+08         0.15579E+07         0.00000E+00
    0.15579E+07        -0.90158E+08         0.00000E+00
    0.00000E+00         0.00000E+00        -0.64061E+08
 
   -0.63842E+08         0.15205E+07         0.00000E+00
    0.15205E+07        -0.90081E+08         0.00000E+00
    0.00000E+00         0.00000E+00        -0.63814E+08
 
   -0.63590E+08         0.14758E+07         0.00000E+00
    0.14758E+07        -0.89998E+08         0.00000E+00
    0.00000E+00         0.00000E+00        -0.63555E+08
 
   -0.63325E+08         0.14235E+07         0.00000E+00
    0.14235E+07        -0.89907E+08         0.00000E+00
    0.00000E+00         0.00000E+00        -0.63281E+08
 
   -0.63043E+08         0.13629E+07         0.00000E+00
    0.13629E+07        -0.89804E+08         0.00000E+00
    0.00000E+00         0.00000E+00        -0.62990E+08
 
   -0.62742E+08         0.12936E+07         0.00000E+00
    0.12936E+07        -0.89683E+08         0.00000E+00
    0.00000E+00         0.00000E+00        -0.62678E+08
 
   -0.62419E+08         0.12140E+07         0.00000E+00
    0.12140E+07        -0.89538E+08         0.00000E+00
    0.00000E+00         0.00000E+00        -0.62342E+08
 
   -0.62068E+08         0.11220E+07         0.00000E+00
    0.11220E+07        -0.89361E+08         0.00000E+00
    0.00000E+00         0.00000E+00        -0.61975E+08
 
   -0.61687E+08         0.10133E+07         0.00000E+00
    0.10133E+07        -0.89143E+08         0.00000E+00
    0.00000E+00         0.00000E+00        -0.61572E+08
 
   -0.61272E+08         0.88110E+06         0.00000E+00
    0.88110E+06        -0.88875E+08         0.00000E+00
    0.00000E+00         0.00000E+00        -0.61125E+08
 
   -0.60820E+08         0.71370E+06         0.00000E+00
    0.71370E+06        -0.88547E+08         0.00000E+00
    0.00000E+00         0.00000E+00        -0.60626E+08
 
   -0.60333E+08         0.48661E+06         0.00000E+00
    0.48661E+06        -0.88149E+08         0.00000E+00
    0.00000E+00         0.00000E+00        -0.60059E+08
 
   -0.59852E+08         0.17740E+06         0.00000E+00
    0.17740E+06        -0.87685E+08         0.00000E+00
    0.00000E+00         0.00000E+00        -0.59396E+08
 
   -0.82854E+08         0.33883E+06         0.00000E+00
    0.33883E+06        -0.97936E+08         0.00000E+00
    0.00000E+00         0.00000E+00        -0.84188E+08
 
   -0.82445E+08         0.95392E+06         0.00000E+00
    0.95392E+06        -0.97237E+08         0.00000E+00
    0.00000E+00         0.00000E+00        -0.83291E+08
 
   -0.81835E+08         0.14328E+07         0.00000E+00
    0.14328E+07        -0.96763E+08         0.00000E+00
    0.00000E+00         0.00000E+00        -0.82435E+08
 
   -0.81164E+08         0.17907E+07         0.00000E+00
    0.17907E+07        -0.96463E+08         0.00000E+00
    0.00000E+00         0.00000E+00        -0.81616E+08
 
   -0.80481E+08         0.20698E+07         0.00000E+00
    0.20698E+07        -0.96292E+08         0.00000E+00
    0.00000E+00         0.00000E+00        -0.80833E+08
 
   -0.79803E+08         0.22952E+07         0.00000E+00
    0.22952E+07        -0.96220E+08         0.00000E+00
    0.00000E+00         0.00000E+00        -0.80086E+08
 
   -0.79140E+08         0.24817E+07         0.00000E+00
    0.24817E+07        -0.96223E+08         0.00000E+00
    0.00000E+00         0.00000E+00        -0.79371E+08
 
   -0.78498E+08         0.26383E+07         0.00000E+00
    0.26383E+07        -0.96281E+08         0.00000E+00
    0.00000E+00         0.00000E+00        -0.78687E+08
 
   -0.77890E+08         0.27669E+07         0.00000E+00
    0.27669E+07        -0.96364E+08         0.00000E+00
    0.00000E+00         0.00000E+00        -0.78046E+08
 
   -0.77460E+08         0.28279E+07         0.00000E+00
    0.28279E+07        -0.96313E+08         0.00000E+00
    0.00000E+00         0.00000E+00        -0.77583E+08
 
   -0.77131E+08         0.28468E+07         0.00000E+00
    0.28468E+07        -0.96194E+08         0.00000E+00
    0.00000E+00         0.00000E+00        -0.77225E+08
 
   -0.76815E+08         0.28523E+07         0.00000E+00
    0.28523E+07        -0.96089E+08         0.00000E+00
    0.00000E+00         0.00000E+00        -0.76885E+08
 
   -0.76512E+08         0.28466E+07         0.00000E+00
    0.28466E+07        -0.95993E+08         0.00000E+00
    0.00000E+00         0.00000E+00        -0.76559E+08
 
   -0.76219E+08         0.28311E+07         0.00000E+00
    0.28311E+07        -0.95903E+08         0.00000E+00
    0.00000E+00         0.00000E+00        -0.76246E+08
 
   -0.75935E+08         0.28072E+07         0.00000E+00
    0.28072E+07        -0.95816E+08         0.00000E+00
    0.00000E+00         0.00000E+00        -0.75945E+08
 
   -0.75659E+08         0.27760E+07         0.00000E+00
    0.27760E+07        -0.95731E+08         0.00000E+00
    0.00000E+00         0.00000E+00        -0.75653E+08
 
   -0.75391E+08         0.27383E+07         0.00000E+00
    0.27383E+07        -0.95646E+08         0.00000E+00
    0.00000E+00         0.00000E+00        -0.75372E+08
 
   -0.75130E+08         0.26952E+07         0.00000E+00
    0.26952E+07        -0.95560E+08         0.00000E+00
    0.00000E+00         0.00000E+00        -0.75099E+08
 
   -0.74876E+08         0.26475E+07         0.00000E+00
    0.26475E+07        -0.95474E+08         0.00000E+00
    0.00000E+00         0.00000E+00        -0.74835E+08
 
   -0.74628E+08         0.25959E+07         0.00000E+00
    0.25959E+07        -0.95387E+08         0.00000E+00
    0.00000E+00         0.00000E+00        -0.74579E+08
 
   -0.74387E+08         0.25412E+07         0.00000E+00
    0.25412E+07        -0.95300E+08         0.00000E+00
    0.00000E+00         0.00000E+00        -0.74331E+08
 
   -0.74152E+08         0.24840E+07         0.00000E+00
    0.24840E+07        -0.95211E+08         0.00000E+00
    0.00000E+00         0.00000E+00        -0.74091E+08
 
   -0.73924E+08         0.24251E+07         0.00000E+00
    0.24251E+07        -0.95122E+08         0.00000E+00
    0.00000E+00         0.00000E+00        -0.73858E+08
 
   -0.73702E+08         0.23650E+07         0.00000E+00
    0.23650E+07        -0.95033E+08         0.00000E+00
    0.00000E+00         0.00000E+00        -0.73633E+08
 
   -0.73486E+08         0.23042E+07         0.00000E+00
    0.23042E+07        -0.94943E+08         0.00000E+00
    0.00000E+00         0.00000E+00        -0.73415E+08
 
   -0.73277E+08         0.22432E+07         0.00000E+00
    0.22432E+07        -0.94854E+08         0.00000E+00
    0.00000E+00         0.00000E+00        -0.73204E+08
 
   -0.73074E+08         0.21825E+07         0.00000E+00
    0.21825E+07        -0.94765E+08         0.00000E+00
    0.00000E+00         0.00000E+00        -0.73000E+08
 
   -0.72876E+08         0.21223E+07         0.00000E+00
    0.21223E+07        -0.94676E+08         0.00000E+00
    0.00000E+00         0.00000E+00        -0.72803E+08
 
   -0.72685E+08         0.20630E+07         0.00000E+00
    0.20630E+07        -0.94588E+08         0.00000E+00
    0.00000E+00         0.00000E+00        -0.72612E+08
 
   -0.72499E+08         0.20050E+07         0.00000E+00
    0.20050E+07        -0.94501E+08         0.00000E+00
    0.00000E+00         0.00000E+00        -0.72427E+08
 
   -0.72319E+08         0.19484E+07         0.00000E+00
    0.19484E+07        -0.94415E+08         0.00000E+00
    0.00000E+00         0.00000E+00        -0.72249E+08
 
   -0.72145E+08         0.18934E+07         0.00000E+00
    0.18934E+07        -0.94329E+08         0.00000E+00
    0.00000E+00         0.00000E+00        -0.72076E+08
 
   -0.71975E+08         0.18403E+07         0.00000E+00
    0.18403E+07        -0.94245E+08         0.00000E+00
    0.00000E+00         0.00000E+00        -0.71908E+08
 
   -0.71811E+08         0.17892E+07         0.00000E+00
    0.17892E+07        -0.94162E+08         0.00000E+00
    0.00000E+00         0.00000E+00        -0.71746E+08
 
   -0.71651E+08         0.17402E+07         0.00000E+00
    0.17402E+07        -0.94080E+08         0.00000E+00
    0.00000E+00         0.00000E+00        -0.71589E+08
 
   -0.71496E+08         0.16934E+07         0.00000E+00
    0.16934E+07        -0.94000E+08         0.00000E+00
    0.00000E+00         0.00000E+00        -0.71437E+08
 
   -0.71345E+08         0.16488E+07         0.00000E+00
    0.16488E+07        -0.93920E+08         0.00000E+00
    0.00000E+00         0.00000E+00        -0.71289E+08
 
   -0.71198E+08         0.16066E+07         0.00000E+00
    0.16066E+07        -0.93842E+08         0.00000E+00
    0.00000E+00         0.00000E+00        -0.71145E+08
 
   -0.71055E+08         0.15667E+07         0.00000E+00
    0.15667E+07        -0.93765E+08         0.00000E+00
    0.00000E+00         0.00000E+00        -0.71005E+08
 
   -0.70916E+08         0.15293E+07         0.00000E+00
    0.15293E+07        -0.93689E+08         0.00000E+00
    0.00000E+00         0.00000E+00        -0.70869E+08
 
   -0.70780E+08         0.14943E+07         0.00000E+00
    0.14943E+07        -0.93614E+08         0.00000E+00
    0.00000E+00         0.00000E+00        -0.70736E+08
 
   -0.70647E+08         0.14617E+07         0.00000E+00
    0.14617E+07        -0.93541E+08         0.00000E+00
    0.00000E+00         0.00000E+00        -0.70607E+08
 
   -0.70517E+08         0.14316E+07         0.00000E+00
    0.14316E+07        -0.93468E+08         0.00000E+00
    0.00000E+00         0.00000E+00        -0.70480E+08
 
   -0.70389E+08         0.14038E+07         0.00000E+00
    0.14038E+07        -0.93396E+08         0.00000E+00
    0.00000E+00         0.00000E+00        -0.70356E+08
 
   -0.70265E+08         0.13785E+07         0.00000E+00
    0.13785E+07        -0.93325E+08         0.00000E+00
    0.00000E+00         0.00000E+00        -0.70235E+08
 
   -0.70142E+08         0.13556E+07         0.00000E+00
    0.13556E+07        -0.93254E+08         0.00000E+00
    0.00000E+00         0.00000E+00        -0.70115E+08
 
   -0.70021E+08         0.13351E+07         0.00000E+00
    0.13351E+07        -0.93185E+08         0.00000E+00
    0.00000E+00         0.00000E+00        -0.69998E+08
 
   -0.69902E+08         0.13170E+07         0.00000E+00
    0.13170E+07        -0.93116E+08         0.00000E+00
    0.00000E+00         0.00000E+00        -0.69882E+08
 
   -0.69784E+08         0.13011E+07         0.00000E+00
    0.13011E+07        -0.93047E+08         0.00000E+00
    0.00000E+00         0.00000E+00        -0.69768E+08
 
   -0.69668E+08         0.12876E+07         0.00000E+00
    0.12876E+07        -0.92979E+08         0.00000E+00
    0.00000E+00         0.00000E+00        -0.69655E+08
 
   -0.69553E+08         0.12763E+07         0.00000E+00
    0.12763E+07        -0.92911E+08         0.00000E+00
    0.00000E+00         0.00000E+00        -0.69543E+08
 
   -0.69438E+08         0.12673E+07         0.00000E+00
    0.12673E+07        -0.92843E+08         0.00000E+00
    0.00000E+00         0.00000E+00        -0.69431E+08
 
   -0.69324E+08         0.12605E+07         0.00000E+00
    0.12605E+07        -0.92775E+08         0.00000E+00
    0.00000E+00         0.00000E+00        -0.69321E+08
 
   -0.69211E+08         0.12559E+07         0.00000E+00
    0.12559E+07        -0.92708E+08         0.00000E+00
    0.00000E+00         0.00000E+00        -0.69210E+08
 
   -0.69097E+08         0.12533E+07         0.00000E+00
    0.12533E+07        -0.92640E+08         0.00000E+00
    0.00000E+00         0.00000E+00        -0.69100E+08
 
   -0.68984E+08         0.12529E+07         0.00000E+00
    0.12529E+07        -0.92572E+08         0.00000E+00
    0.00000E+00         0.00000E+00        -0.68989E+08
 
   -0.68870E+08         0.12545E+07         0.00000E+00
    0.12545E+07        -0.92504E+08         0.00000E+00
    0.00000E+00         0.00000E+00        -0.68879E+08
 
   -0.68755E+08         0.12580E+07         0.00000E+00
    0.12580E+07        -0.92436E+08         0.00000E+00
    0.00000E+00         0.00000E+00        -0.68767E+08
 
   -0.68640E+08         0.12635E+07         0.00000E+00
    0.12635E+07        -0.92367E+08         0.00000E+00
    0.00000E+00         0.00000E+00        -0.68655E+08
 
   -0.68525E+08         0.12708E+07         0.00000E+00
    0.12708E+07        -0.92297E+08         0.00000E+00
    0.00000E+00         0.00000E+00        -0.68542E+08
 
   -0.68407E+08         0.12799E+07         0.00000E+00
    0.12799E+07        -0.92227E+08         0.00000E+00
    0.00000E+00         0.00000E+00        -0.68428E+08
 
   -0.68289E+08         0.12907E+07         0.00000E+00
    0.12907E+07        -0.92157E+08         0.00000E+00
    0.00000E+00         0.00000E+00        -0.68312E+08
 
   -0.68169E+08         0.13031E+07         0.00000E+00
    0.13031E+07        -0.92085E+08         0.00000E+00
    0.00000E+00         0.00000E+00        -0.68195E+08
 
   -0.68047E+08         0.13170E+07         0.00000E+00
    0.13170E+07        -0.92013E+08         0.00000E+00
    0.00000E+00         0.00000E+00        -0.68075E+08
 
   -0.67924E+08         0.13323E+07         0.00000E+00
    0.13323E+07        -0.91940E+08         0.00000E+00
    0.00000E+00         0.00000E+00        -0.67954E+08
 
   -0.67798E+08         0.13489E+07         0.00000E+00
    0.13489E+07        -0.91866E+08         0.00000E+00
    0.00000E+00         0.00000E+00        -0.67830E+08
 
   -0.67670E+08         0.13667E+07         0.00000E+00
    0.13667E+07        -0.91791E+08         0.00000E+00
    0.00000E+00         0.00000E+00        -0.67704E+08
 
   -0.67539E+08         0.13854E+07         0.00000E+00
    0.13854E+07        -0.91716E+08         0.00000E+00
    0.00000E+00         0.00000E+00        -0.67575E+08
 
   -0.67406E+08         0.14050E+07         0.00000E+00
    0.14050E+07        -0.91639E+08         0.00000E+00
    0.00000E+00         0.00000E+00        -0.67443E+08
 
   -0.67269E+08         0.14252E+07         0.00000E+00
    0.14252E+07        -0.91562E+08         0.00000E+00
    0.00000E+00         0.00000E+00        -0.67308E+08
 
   -0.67130E+08         0.14458E+07         0.00000E+00
    0.14458E+07        -0.91483E+08         0.00000E+00
    0.00000E+00         0.00000E+00        -0.67169E+08
 
   -0.66987E+08         0.14665E+07         0.00000E+00
    0.14665E+07        -0.91404E+08         0.00000E+00
    0.00000E+00         0.00000E+00        -0.67027E+08
 
   -0.66840E+08         0.14871E+07         0.00000E+00
    0.14871E+07        -0.91325E+08         0.00000E+00
    0.00000E+00         0.00000E+00        -0.66881E+08
 
   -0.66690E+08         0.15073E+07         0.00000E+00
    0.15073E+07        -0.91245E+08         0.00000E+00
    0.00000E+00         0.00000E+00        -0.66731E+08
 
   -0.66536E+08         0.15267E+07         0.00000E+00
    0.15267E+07        -0.91164E+08         0.00000E+00
    0.00000E+00         0.00000E+00        -0.66576E+08
 
   -0.66378E+08         0.15450E+07         0.00000E+00
    0.15450E+07        -0.91083E+08         0.00000E+00
    0.00000E+00         0.00000E+00        -0.66417E+08
 
   -0.66216E+08         0.15618E+07         0.00000E+00
    0.15618E+07        -0.91003E+08         0.00000E+00
    0.00000E+00         0.00000E+00        -0.66253E+08
 
   -0.66049E+08         0.15767E+07         0.00000E+00
    0.15767E+07        -0.90922E+08         0.00000E+00
    0.00000E+00         0.00000E+00        -0.66084E+08
 
   -0.65878E+08         0.15891E+07         0.00000E+00
    0.15891E+07        -0.90842E+08         0.00000E+00
    0.00000E+00         0.00000E+00        -0.65910E+08
 
   -0.65702E+08         0.15986E+07         0.00000E+00
    0.15986E+07        -0.90763E+08         0.00000E+00
    0.00000E+00         0.00000E+00        -0.65730E+08
 
   -0.65521E+08         0.16048E+07         0.00000E+00
    0.16048E+07        -0.90684E+08         0.00000E+00
    0.00000E+00         0.00000E+00        -0.65544E+08
 
   -0.65335E+08         0.16070E+07         0.00000E+00
    0.16070E+07        -0.90607E+08         0.00000E+00
    0.00000E+00         0.00000E+00        -0.65353E+08
 
   -0.65142E+08         0.16047E+07         0.00000E+00
    0.16047E+07        -0.90530E+08         0.00000E+00
    0.00000E+00         0.00000E+00        -0.65155E+08
 
   -0.64944E+08         0.15975E+07         0.00000E+00
    0.15975E+07        -0.90455E+08         0.00000E+00
    0.00000E+00         0.00000E+00        -0.64950E+08
 
   -0.64740E+08         0.15848E+07         0.00000E+00
    0.15848E+07        -0.90381E+08         0.00000E+00
    0.00000E+00         0.00000E+00        -0.64738E+08
 
   -0.64528E+08         0.15661E+07         0.00000E+00
    0.15661E+07        -0.90308E+08         0.00000E+00
    0.00000E+00         0.00000E+00        -0.64518E+08
 
   -0.64309E+08         0.15411E+07         0.00000E+00
    0.15411E+07        -0.90235E+08         0.00000E+00
    0.00000E+00         0.00000E+00        -0.64290E+08
 
   -0.64081E+08         0.15092E+07         0.00000E+00
    0.15092E+07        -0.90160E+08         0.00000E+00
    0.00000E+00         0.00000E+00        -0.64052E+08
 
   -0.63843E+08         0.14702E+07         0.00000E+00
    0.14702E+07        -0.90083E+08         0.00000E+00
    0.00000E+00         0.00000E+00        -0.63804E+08
 
   -0.63593E+08         0.14238E+07         0.00000E+00
    0.14238E+07        -0.90001E+08         0.00000E+00
    0.00000E+00         0.00000E+00        -0.63543E+08
 
   -0.63330E+08         0.13696E+07         0.00000E+00
    0.13696E+07        -0.89910E+08         0.00000E+00
    0.00000E+00         0.00000E+00        -0.63267E+08
 
   -0.63050E+08         0.13073E+07         0.00000E+00
    0.13073E+07        -0.89807E+08         0.00000E+00
    0.00000E+00         0.00000E+00        -0.62974E+08
 
   -0.62752E+08         0.12361E+07         0.00000E+00
    0.12361E+07        -0.89687E+08         0.00000E+00
    0.00000E+00         0.00000E+00        -0.62661E+08
 
   -0.62432E+08         0.11549E+07         0.00000E+00
    0.11549E+07        -0.89542E+08         0.00000E+00
    0.00000E+00         0.00000E+00        -0.62322E+08
 
   -0.62086E+08         0.10614E+07         0.00000E+00
    0.10614E+07        -0.89365E+08         0.00000E+00
    0.00000E+00         0.00000E+00        -0.61953E+08
 
   -0.61710E+08         0.95188E+06         0.00000E+00
    0.95188E+06        -0.89148E+08         0.00000E+00
    0.00000E+00         0.00000E+00        -0.61546E+08
 
   -0.61302E+08         0.81979E+06         0.00000E+00
    0.81979E+06        -0.88881E+08         0.00000E+00
    0.00000E+00         0.00000E+00        -0.61094E+08
 
   -0.60861E+08         0.65394E+06         0.00000E+00
    0.65394E+06        -0.88554E+08         0.00000E+00
    0.00000E+00         0.00000E+00        -0.60586E+08
 
   -0.60392E+08         0.43512E+06         0.00000E+00
    0.43512E+06        -0.88157E+08         0.00000E+00
    0.00000E+00         0.00000E+00        -0.60006E+08
 
   -0.59938E+08         0.15519E+06         0.00000E+00
    0.15519E+06        -0.87700E+08         0.00000E+00
    0.00000E+00         0.00000E+00        -0.59328E+08
 
   -0.82553E+08         0.29767E+06         0.00000E+00
    0.29767E+06        -0.98062E+08         0.00000E+00
    0.00000E+00         0.00000E+00        -0.84188E+08
 
   -0.82207E+08         0.85204E+06         0.00000E+00
    0.85204E+06        -0.97343E+08         0.00000E+00
    0.00000E+00         0.00000E+00        -0.83291E+08
 
   -0.81657E+08         0.13064E+07         0.00000E+00
    0.13064E+07        -0.96844E+08         0.00000E+00
    0.00000E+00         0.00000E+00        -0.82435E+08
 
   -0.81027E+08         0.16576E+07         0.00000E+00
    0.16576E+07        -0.96525E+08         0.00000E+00
    0.00000E+00         0.00000E+00        -0.81616E+08
 
   -0.80372E+08         0.19354E+07         0.00000E+00
    0.19354E+07        -0.96341E+08         0.00000E+00
    0.00000E+00         0.00000E+00        -0.80833E+08
 
   -0.79715E+08         0.21625E+07         0.00000E+00
    0.21625E+07        -0.96261E+08         0.00000E+00
    0.00000E+00         0.00000E+00        -0.80086E+08
 
   -0.79068E+08         0.23523E+07         0.00000E+00
    0.23523E+07        -0.96258E+08         0.00000E+00
    0.00000E+00         0.00000E+00        -0.79371E+08
 
   -0.78439E+08         0.25132E+07         0.00000E+00
    0.25132E+07        -0.96310E+08         0.00000E+00
    0.00000E+00         0.00000E+00        -0.78687E+08
 
   -0.77842E+08         0.26465E+07         0.00000E+00
    0.26465E+07        -0.96388E+08         0.00000E+00
    0.00000E+00         0.00000E+00        -0.78046E+08
 
   -0.77419E+08         0.27151E+07         0.00000E+00
    0.27151E+07        -0.96336E+08         0.00000E+00
    0.00000E+00         0.00000E+00        -0.77580E+08
 
   -0.77096E+08         0.27421E+07         0.00000E+00
    0.27421E+07        -0.96215E+08         0.00000E+00
    0.00000E+00         0.00000E+00        -0.77220E+08
 
   -0.76786E+08         0.27549E+07         0.00000E+00
    0.27549E+07        -0.96109E+08         0.00000E+00
    0.00000E+00         0.00000E+00        -0.76877E+08
 
   -0.76488E+08         0.27557E+07         0.00000E+00
    0.27557E+07        -0.96012E+08         0.00000E+00
    0.00000E+00         0.00000E+00        -0.76549E+08
 
   -0.76199E+08         0.27462E+07         0.00000E+00
    0.27462E+07        -0.95920E+08         0.00000E+00
    0.00000E+00         0.00000E+00        -0.76235E+08
 
   -0.75919E+08         0.27276E+07         0.00000E+00
    0.27276E+07        -0.95832E+08         0.00000E+00
    0.00000E+00         0.00000E+00        -0.75932E+08
 
   -0.75647E+08         0.27012E+07         0.00000E+00
    0.27012E+07        -0.95745E+08         0.00000E+00
    0.00000E+00         0.00000E+00        -0.75640E+08
 
   -0.75381E+08         0.26679E+07         0.00000E+00
    0.26679E+07        -0.95659E+08         0.00000E+00
    0.00000E+00         0.00000E+00        -0.75357E+08
 
   -0.75123E+08         0.26287E+07         0.00000E+00
    0.26287E+07        -0.95573E+08         0.00000E+00
    0.00000E+00         0.00000E+00        -0.75084E+08
 
   -0.74871E+08         0.25845E+07         0.00000E+00
    0.25845E+07        -0.95486E+08         0.00000E+00
    0.00000E+00         0.00000E+00        -0.74819E+08
 
   -0.74625E+08         0.25362E+07         0.00000E+00
    0.25362E+07        -0.95398E+08         0.00000E+00
    0.00000E+00         0.00000E+00        -0.74563E+08
 
   -0.74386E+08         0.24844E+07         0.00000E+00
    0.24844E+07        -0.95310E+08         0.00000E+00
    0.00000E+00         0.00000E+00        -0.74314E+08
 
   -0.74153E+08         0.24300E+07         0.00000E+00
    0.24300E+07        -0.95220E+08         0.00000E+00
    0.00000E+00         0.00000E+00        -0.74074E+08
 
   -0.73926E+08         0.23736E+07         0.00000E+00
    0.23736E+07        -0.95131E+08         0.00000E+00
    0.00000E+00         0.00000E+00        -0.73842E+08
 
   -0.73705E+08         0.23158E+07         0.00000E+00
    0.23158E+07        -0.95041E+08         0.00000E+00
    0.00000E+00         0.00000E+00        -0.73616E+08
 
   -0.73490E+08         0.22571E+07         0.00000E+00
    0.22571E+07        -0.94951E+08         0.00000E+00
    0.00000E+00         0.00000E+00        -0.73399E+08
 
   -0.73281E+08         0.21981E+07         0.00000E+00
    0.21981E+07        -0.94861E+08         0.00000E+00
    0.00000E+00         0.00000E+00        -0.73188E+08
 
   -0.73079E+08         0.21392E+07         0.00000E+00
    0.21392E+07        -0.94771E+08         0.00000E+00
    0.00000E+00         0.00000E+00        -0.72984E+08
 
   -0.72882E+08         0.20807E+07         0.00000E+00
    0.20807E+07        -0.94682E+08         0.00000E+00
    0.00000E+00         0.00000E+00        -0.72787E+08
 
   -0.72691E+08         0.20230E+07         0.00000E+00
    0.20230E+07        -0.94594E+08         0.00000E+00
    0.00000E+00         0.00000E+00        -0.72597E+08
 
   -0.72505E+08         0.19665E+07         0.00000E+00
    0.19665E+07        -0.94506E+08         0.00000E+00
    0.00000E+00         0.00000E+00        -0.72413E+08
 
   -0.72325E+08         0.19113E+07         0.00000E+00
    0.19113E+07        -0.94419E+08         0.00000E+00
    0.00000E+00         0.00000E+00        -0.72235E+08
 
   -0.72151E+08         0.18576E+07         0.00000E+00
    0.18576E+07        -0.94334E+08         0.00000E+00
    0.00000E+00         0.00000E+00        -0.72062E+08
 
   -0.71981E+08         0.18057E+07         0.00000E+00
    0.18057E+07        -0.94249E+08         0.00000E+00
    0.00000E+00         0.00000E+00        -0.71896E+08
 
   -0.71816E+08         0.17557E+07         0.00000E+00
    0.17557E+07        -0.94166E+08         0.00000E+00
    0.00000E+00         0.00000E+00        -0.71734E+08
 
   -0.71656E+08         0.17078E+07         0.00000E+00
    0.17078E+07        -0.94084E+08         0.00000E+00
    0.00000E+00         0.00000E+00        -0.71577E+08
 
   -0.71501E+08         0.16619E+07         0.00000E+00
    0.16619E+07        -0.94003E+08         0.00000E+00
    0.00000E+00         0.00000E+00        -0.71426E+08
 
   -0.71350E+08         0.16183E+07         0.00000E+00
    0.16183E+07        -0.93924E+08         0.00000E+00
    0.00000E+00         0.00000E+00        -0.71278E+08
 
   -0.71203E+08         0.15770E+07         0.00000E+00
    0.15770E+07        -0.93845E+08         0.00000E+00
    0.00000E+00         0.00000E+00        -0.71135E+08
 
   -0.71059E+08         0.15379E+07         0.00000E+00
    0.15379E+07        -0.93768E+08         0.00000E+00
    0.00000E+00         0.00000E+00        -0.70996E+08
 
   -0.70920E+08         0.15012E+07         0.00000E+00
    0.15012E+07        -0.93692E+08         0.00000E+00
    0.00000E+00         0.00000E+00        -0.70860E+08
 
   -0.70783E+08         0.14669E+07         0.00000E+00
    0.14669E+07        -0.93617E+08         0.00000E+00
    0.00000E+00         0.00000E+00        -0.70728E+08
 
   -0.70650E+08         0.14349E+07         0.00000E+00
    0.14349E+07        -0.93543E+08         0.00000E+00
    0.00000E+00         0.00000E+00        -0.70599E+08
 
   -0.70520E+08         0.14053E+07         0.00000E+00
    0.14053E+07        -0.93470E+08         0.00000E+00
    0.00000E+00         0.00000E+00        -0.70473E+08
 
   -0.70392E+08         0.13781E+07         0.00000E+00
    0.13781E+07        -0.93398E+08         0.00000E+00
    0.00000E+00         0.00000E+00        -0.70350E+08
 
   -0.70267E+08         0.13532E+07         0.00000E+00
    0.13532E+07        -0.93327E+08         0.00000E+00
    0.00000E+00         0.00000E+00        -0.70229E+08
 
   -0.70144E+08         0.13307E+07         0.00000E+00
    0.13307E+07        -0.93257E+08         0.00000E+00
    0.00000E+00         0.00000E+00        -0.70110E+08
 
   -0.70022E+08         0.13106E+07         0.00000E+00
    0.13106E+07        -0.93187E+08         0.00000E+00
    0.00000E+00         0.00000E+00        -0.69993E+08
 
   -0.69903E+08         0.12927E+07         0.00000E+00
    0.12927E+07        -0.93117E+08         0.00000E+00
    0.00000E+00         0.00000E+00        -0.69878E+08
 
   -0.69785E+08         0.12772E+07         0.00000E+00
    0.12772E+07        -0.93049E+08         0.00000E+00
    0.00000E+00         0.00000E+00        -0.69764E+08
 
   -0.69668E+08         0.12638E+07         0.00000E+00
    0.12638E+07        -0.92980E+08         0.00000E+00
    0.00000E+00         0.00000E+00        -0.69651E+08
 
   -0.69552E+08         0.12528E+07         0.00000E+00
    0.12528E+07        -0.92912E+08         0.00000E+00
    0.00000E+00         0.00000E+00        -0.69540E+08
 
   -0.69437E+08         0.12439E+07         0.00000E+00
    0.12439E+07        -0.92845E+08         0.00000E+00
    0.00000E+00         0.00000E+00        -0.69429E+08
 
   -0.69323E+08         0.12371E+07         0.00000E+00
    0.12371E+07        -0.92777E+08         0.00000E+00
    0.00000E+00         0.00000E+00        -0.69318E+08
 
   -0.69209E+08         0.12325E+07         0.00000E+00
    0.12325E+07        -0.92709E+08         0.00000E+00
    0.00000E+00         0.00000E+00        -0.69208E+08
 
   -0.69095E+08         0.12299E+07         0.00000E+00
    0.12299E+07        -0.92642E+08         0.00000E+00
    0.00000E+00         0.00000E+00        -0.69098E+08
 
   -0.68981E+08         0.12294E+07         0.00000E+00
    0.12294E+07        -0.92574E+08         0.00000E+00
    0.00000E+00         0.00000E+00        -0.68988E+08
 
   -0.68867E+08         0.12309E+07         0.00000E+00
    0.12309E+07        -0.92505E+08         0.00000E+00
    0.00000E+00         0.00000E+00        -0.68878E+08
 
   -0.68752E+08         0.12342E+07         0.00000E+00
    0.12342E+07        -0.92437E+08         0.00000E+00
    0.00000E+00         0.00000E+00        -0.68767E+08
 
   -0.68636E+08         0.12395E+07         0.00000E+00
    0.12395E+07        -0.92368E+08         0.00000E+00
    0.00000E+00         0.00000E+00        -0.68655E+08
 
   -0.68520E+08         0.12466E+07         0.00000E+00
    0.12466E+07        -0.92299E+08         0.00000E+00
    0.00000E+00         0.00000E+00        -0.68543E+08
 
   -0.68403E+08         0.12554E+07         0.00000E+00
    0.12554E+07        -0.92228E+08         0.00000E+00
    0.00000E+00         0.00000E+00        -0.68429E+08
 
   -0.68284E+08         0.12658E+07         0.00000E+00
    0.12658E+07        -0.92158E+08         0.00000E+00
    0.00000E+00         0.00000E+00        -0.68313E+08
 
   -0.68163E+08         0.12778E+07         0.00000E+00
    0.12778E+07        -0.92086E+08         0.00000E+00
    0.00000E+00         0.00000E+00        -0.68196E+08
 
   -0.68041E+08         0.12913E+07         0.00000E+00
    0.12913E+07        -0.92014E+08         0.00000E+00
    0.00000E+00         0.00000E+00        -0.68077E+08
 
   -0.67917E+08         0.13062E+07         0.00000E+00
    0.13062E+07        -0.91941E+08         0.00000E+00
    0.00000E+00         0.00000E+00        -0.67956E+08
 
   -0.67791E+08         0.13223E+07         0.00000E+00
    0.13223E+07        -0.91867E+08         0.00000E+00
    0.00000E+00         0.00000E+00        -0.67832E+08
 
   -0.67662E+08         0.13395E+07         0.00000E+00
    0.13395E+07        -0.91792E+08         0.00000E+00
    0.00000E+00         0.00000E+00        -0.67706E+08
 
   -0.67531E+08         0.13577E+07         0.00000E+00
    0.13577E+07        -0.91717E+08         0.00000E+00
    0.00000E+00         0.00000E+00        -0.67577E+08
 
   -0.67398E+08         0.13766E+07         0.00000E+00
    0.13766E+07        -0.91640E+08         0.00000E+00
    0.00000E+00         0.00000E+00        -0.67445E+08
 
   -0.67261E+08         0.13961E+07         0.00000E+00
    0.13961E+07        -0.91563E+08         0.00000E+00
    0.00000E+00         0.00000E+00        -0.67310E+08
 
   -0.67121E+08         0.14160E+07         0.00000E+00
    0.14160E+07        -0.91485E+08         0.00000E+00
    0.00000E+00         0.00000E+00        -0.67172E+08
 
   -0.66978E+08         0.14360E+07         0.00000E+00
    0.14360E+07        -0.91406E+08         0.00000E+00
    0.00000E+00         0.00000E+00        -0.67029E+08
 
   -0.66831E+08         0.14558E+07         0.00000E+00
    0.14558E+07        -0.91326E+08         0.00000E+00
    0.00000E+00         0.00000E+00        -0.66883E+08
 
   -0.66681E+08         0.14752E+07         0.00000E+00
    0.14752E+07        -0.91246E+08         0.00000E+00
    0.00000E+00         0.00000E+00        -0.66733E+08
 
   -0.66527E+08         0.14937E+07         0.00000E+00
    0.14937E+07        -0.91165E+08         0.00000E+00
    0.00000E+00         0.00000E+00        -0.66578E+08
 
   -0.66369E+08         0.15111E+07         0.00000E+00
    0.15111E+07        -0.91085E+08         0.00000E+00
    0.00000E+00         0.00000E+00        -0.66419E+08
 
   -0.66207E+08         0.15270E+07         0.00000E+00
    0.15270E+07        -0.91004E+08         0.00000E+00
    0.00000E+00         0.00000E+00        -0.66254E+08
 
   -0.66041E+08         0.15408E+07         0.00000E+00
    0.15408E+07        -0.90923E+08         0.00000E+00
    0.00000E+00         0.00000E+00        -0.66085E+08
 
   -0.65870E+08         0.15523E+07         0.00000E+00
    0.15523E+07        -0.90843E+08         0.00000E+00
    0.00000E+00         0.00000E+00        -0.65910E+08
 
   -0.65694E+08         0.15608E+07         0.00000E+00
    0.15608E+07        -0.90764E+08         0.00000E+00
    0.00000E+00         0.00000E+00        -0.65730E+08
 
   -0.65513E+08         0.15658E+07         0.00000E+00
    0.15658E+07        -0.90686E+08         0.00000E+00
    0.00000E+00         0.00000E+00        -0.65543E+08
 
   -0.65328E+08         0.15669E+07         0.00000E+00
    0.15669E+07        -0.90608E+08         0.00000E+00
    0.00000E+00         0.00000E+00        -0.65351E+08
 
   -0.65136E+08         0.15635E+07         0.00000E+00
    0.15635E+07        -0.90532E+08         0.00000E+00
    0.00000E+00         0.00000E+00        -0.65152E+08
 
   -0.64939E+08         0.15550E+07         0.00000E+00
    0.15550E+07        -0.90457E+08         0.00000E+00
    0.00000E+00         0.00000E+00        -0.64946E+08
 
   -0.64736E+08         0.15410E+07         0.00000E+00
    0.15410E+07        -0.90383E+08         0.00000E+00
    0.00000E+00         0.00000E+00        -0.64733E+08
 
   -0.64525E+08         0.15210E+07         0.00000E+00
    0.15210E+07        -0.90310E+08         0.00000E+00
    0.00000E+00         0.00000E+00        -0.64512E+08
 
   -0.64307E+08         0.14944E+07         0.00000E+00
    0.14944E+07        -0.90236E+08         0.00000E+00
    0.00000E+00         0.00000E+00        -0.64283E+08
 
   -0.64081E+08         0.14610E+07         0.00000E+00
    0.14610E+07        -0.90162E+08         0.00000E+00
    0.00000E+00         0.00000E+00        -0.64043E+08
 
   -0.63844E+08         0.14204E+07         0.00000E+00
    0.14204E+07        -0.90085E+08         0.00000E+00
    0.00000E+00         0.00000E+00        -0.63793E+08
 
   -0.63597E+08         0.13723E+07         0.00000E+00
    0.13723E+07        -0.90003E+08         0.00000E+00
    0.00000E+00         0.00000E+00        -0.63531E+08
 
   -0.63335E+08         0.13164E+07         0.00000E+00
    0.13164E+07        -0.89913E+08         0.00000E+00
    0.00000E+00         0.00000E+00        -0.63253E+08
 
   -0.63059E+08         0.12524E+07         0.00000E+00
    0.12524E+07        -0.89810E+08         0.00000E+00
    0.00000E+00         0.00000E+00        -0.62959E+08
 
   -0.62763E+08         0.11796E+07         0.00000E+00
    0.11796E+07        -0.89690E+08         0.00000E+00
    0.00000E+00         0.00000E+00        -0.62644E+08
 
   -0.62447E+08         0.10969E+07         0.00000E+00
    0.10969E+07        -0.89546E+08         0.00000E+00
    0.00000E+00         0.00000E+00        -0.62303E+08
 
   -0.62105E+08         0.10023E+07         0.00000E+00
    0.10023E+07        -0.89370E+08         0.00000E+00
    0.00000E+00         0.00000E+00        -0.61930E+08
 
   -0.61735E+08         0.89239E+06         0.00000E+00
    0.89239E+06        -0.89154E+08         0.00000E+00
    0.00000E+00         0.00000E+00        -0.61520E+08
 
   -0.61334E+08         0.76117E+06         0.00000E+00
    0.76117E+06        -0.88887E+08         0.00000E+00
    0.00000E+00         0.00000E+00        -0.61062E+08
 
   -0.60904E+08         0.59843E+06         0.00000E+00
    0.59843E+06        -0.88561E+08         0.00000E+00
    0.00000E+00         0.00000E+00        -0.60547E+08
 
   -0.60452E+08         0.39048E+06         0.00000E+00
    0.39048E+06        -0.88167E+08         0.00000E+00
    0.00000E+00         0.00000E+00        -0.59955E+08
 
   -0.60018E+08         0.13711E+06         0.00000E+00
    0.13711E+06        -0.87716E+08         0.00000E+00
    0.00000E+00         0.00000E+00        -0.59268E+08
 
   -0.82275E+08         0.26332E+06         0.00000E+00
    0.26332E+06        -0.98173E+08         0.00000E+00
    0.00000E+00         0.00000E+00        -0.84188E+08
 
   -0.81977E+08         0.76298E+06         0.00000E+00
    0.76298E+06        -0.97441E+08         0.00000E+00
    0.00000E+00         0.00000E+00        -0.83291E+08
 
   -0.81480E+08         0.11896E+07         0.00000E+00
    0.11896E+07        -0.96922E+08         0.00000E+00
    0.00000E+00         0.00000E+00        -0.82435E+08
 
   -0.80888E+08         0.15310E+07         0.00000E+00
    0.15310E+07        -0.96586E+08         0.00000E+00
    0.00000E+00         0.00000E+00        -0.81616E+08
 
   -0.80261E+08         0.18058E+07         0.00000E+00
    0.18058E+07        -0.96391E+08         0.00000E+00
    0.00000E+00         0.00000E+00        -0.80833E+08
 
   -0.79624E+08         0.20334E+07         0.00000E+00
    0.20334E+07        -0.96302E+08         0.00000E+00
    0.00000E+00         0.00000E+00        -0.80086E+08
 
   -0.78994E+08         0.22258E+07         0.00000E+00
    0.22258E+07        -0.96293E+08         0.00000E+00
    0.00000E+00         0.00000E+00        -0.79371E+08
 
   -0.78377E+08         0.23904E+07         0.00000E+00
    0.23904E+07        -0.96340E+08         0.00000E+00
    0.00000E+00         0.00000E+00        -0.78687E+08
 
   -0.77794E+08         0.25278E+07         0.00000E+00
    0.25278E+07        -0.96413E+08         0.00000E+00
    0.00000E+00         0.00000E+00        -0.78047E+08
 
   -0.77379E+08         0.26034E+07         0.00000E+00
    0.26034E+07        -0.96358E+08         0.00000E+00
    0.00000E+00         0.00000E+00        -0.77579E+08
 
   -0.77062E+08         0.26383E+07         0.00000E+00
    0.26383E+07        -0.96236E+08         0.00000E+00
    0.00000E+00         0.00000E+00        -0.77216E+08
 
   -0.76758E+08         0.26583E+07         0.00000E+00
    0.26583E+07        -0.96129E+08         0.00000E+00
    0.00000E+00         0.00000E+00        -0.76870E+08
 
   -0.76464E+08         0.26656E+07         0.00000E+00
    0.26656E+07        -0.96030E+08         0.00000E+00
    0.00000E+00         0.00000E+00        -0.76541E+08
 
   -0.76180E+08         0.26619E+07         0.00000E+00
    0.26619E+07        -0.95937E+08         0.00000E+00
    0.00000E+00         0.00000E+00        -0.76225E+08
 
   -0.75904E+08         0.26486E+07         0.00000E+00
    0.26486E+07        -0.95848E+08         0.00000E+00
    0.00000E+00         0.00000E+00        -0.75920E+08
 
   -0.75635E+08         0.26269E+07         0.00000E+00
    0.26269E+07        -0.95760E+08         0.00000E+00
    0.00000E+00         0.00000E+00        -0.75627E+08
 
   -0.75372E+08         0.25978E+07         0.00000E+00
    0.25978E+07        -0.95673E+08         0.00000E+00
    0.00000E+00         0.00000E+00        -0.75343E+08
 
   -0.75117E+08         0.25625E+07         0.00000E+00
    0.25625E+07        -0.95586E+08         0.00000E+00
    0.00000E+00         0.00000E+00        -0.75069E+08
 
   -0.74867E+08         0.25218E+07         0.00000E+00
    0.25218E+07        -0.95498E+08         0.00000E+00
    0.00000E+00         0.00000E+00        -0.74804E+08
 
   -0.74623E+08         0.24766E+07         0.00000E+00
    0.24766E+07        -0.95409E+08         0.00000E+00
    0.00000E+00         0.00000E+00        -0.74547E+08
 
   -0.74386E+08         0.24278E+07         0.00000E+00
    0.24278E+07        -0.95320E+08         0.00000E+00
    0.00000E+00         0.00000E+00        -0.74298E+08
 
   -0.74154E+08         0.23760E+07         0.00000E+00
    0.23760E+07        -0.95230E+08         0.00000E+00
    0.00000E+00         0.00000E+00        -0.74058E+08
 
   -0.73928E+08         0.23221E+07         0.00000E+00
    0.23221E+07        -0.95139E+08         0.00000E+00
    0.00000E+00         0.00000E+00        -0.73825E+08
 
   -0.73708E+08         0.22665E+07         0.00000E+00
    0.22665E+07        -0.95049E+08         0.00000E+00
    0.00000E+00         0.00000E+00        -0.73600E+08
 
   -0.73494E+08         0.22099E+07         0.00000E+00
    0.22099E+07        -0.94958E+08         0.00000E+00
    0.00000E+00         0.00000E+00        -0.73383E+08
 
   -0.73286E+08         0.21529E+07         0.00000E+00
    0.21529E+07        -0.94868E+08         0.00000E+00
    0.00000E+00         0.00000E+00        -0.73172E+08
 
   -0.73084E+08         0.20957E+07         0.00000E+00
    0.20957E+07        -0.94778E+08         0.00000E+00
    0.00000E+00         0.00000E+00        -0.72969E+08
 
   -0.72887E+08         0.20389E+07         0.00000E+00
    0.20389E+07        -0.94688E+08         0.00000E+00
    0.00000E+00         0.00000E+00        -0.72772E+08
 
   -0.72696E+08         0.19829E+07         0.00000E+00
    0.19829E+07        -0.94599E+08         0.00000E+00
    0.00000E+00         0.00000E+00        -0.72582E+08
 
   -0.72511E+08         0.19278E+07         0.00000E+00
    0.19278E+07        -0.94511E+08         0.00000E+00
    0.00000E+00         0.00000E+00        -0.72399E+08
 
   -0.72331E+08         0.18739E+07         0.00000E+00
    0.18739E+07        -0.94424E+08         0.00000E+00
    0.00000E+00         0.00000E+00        -0.72221E+08
 
   -0.72157E+08         0.18216E+07         0.00000E+00
    0.18216E+07        -0.94339E+08         0.00000E+00
    0.00000E+00         0.00000E+00        -0.72049E+08
 
   -0.71987E+08         0.17709E+07         0.00000E+00
    0.17709E+07        -0.94254E+08         0.00000E+00
    0.00000E+00         0.00000E+00        -0.71883E+08
 
   -0.71822E+08         0.17220E+07         0.00000E+00
    0.17220E+07        -0.94170E+08         0.00000E+00
    0.00000E+00         0.00000E+00        -0.71722E+08
 
   -0.71662E+08         0.16751E+07         0.00000E+00
    0.16751E+07        -0.94088E+08         0.00000E+00
    0.00000E+00         0.00000E+00        -0.71566E+08
 
   -0.71506E+08         0.16303E+07         0.00000E+00
    0.16303E+07        -0.94007E+08         0.00000E+00
    0.00000E+00         0.00000E+00        -0.71415E+08
 
   -0.71355E+08         0.15876E+07         0.00000E+00
    0.15876E+07        -0.93927E+08         0.00000E+00
    0.00000E+00         0.00000E+00        -0.71268E+08
 
   -0.71208E+08         0.15471E+07         0.00000E+00
    0.15471E+07        -0.93849E+08         0.00000E+00
    0.00000E+00         0.00000E+00        -0.71125E+08
 
   -0.71064E+08         0.15088E+07         0.00000E+00
    0.15088E+07        -0.93771E+08         0.00000E+00
    0.00000E+00         0.00000E+00        -0.70986E+08
 
   -0.70924E+08         0.14728E+07         0.00000E+00
    0.14728E+07        -0.93695E+08         0.00000E+00
    0.00000E+00         0.00000E+00        -0.70852E+08
 
   -0.70787E+08         0.14392E+07         0.00000E+00
    0.14392E+07        -0.93620E+08         0.00000E+00
    0.00000E+00         0.00000E+00        -0.70720E+08
 
   -0.70654E+08         0.14078E+07         0.00000E+00
    0.14078E+07        -0.93546E+08         0.00000E+00
    0.00000E+00         0.00000E+00        -0.70591E+08
 
   -0.70523E+08         0.13788E+07         0.00000E+00
    0.13788E+07        -0.93473E+08         0.00000E+00
    0.00000E+00         0.00000E+00        -0.70466E+08
 
   -0.70395E+08         0.13521E+07         0.00000E+00
    0.13521E+07        -0.93400E+08         0.00000E+00
    0.00000E+00         0.00000E+00        -0.70343E+08
 
   -0.70269E+08         0.13277E+07         0.00000E+00
    0.13277E+07        -0.93329E+08         0.00000E+00
    0.00000E+00         0.00000E+00        -0.70223E+08
 
   -0.70145E+08         0.13057E+07         0.00000E+00
    0.13057E+07        -0.93259E+08         0.00000E+00
    0.00000E+00         0.00000E+00        -0.70104E+08
 
   -0.70024E+08         0.12858E+07         0.00000E+00
    0.12858E+07        -0.93189E+08         0.00000E+00
    0.00000E+00         0.00000E+00        -0.69988E+08
 
   -0.69904E+08         0.12683E+07         0.00000E+00
    0.12683E+07        -0.93119E+08         0.00000E+00
    0.00000E+00         0.00000E+00        -0.69873E+08
 
   -0.69785E+08         0.12530E+07         0.00000E+00
    0.12530E+07        -0.93051E+08         0.00000E+00
    0.00000E+00         0.00000E+00        -0.69760E+08
 
   -0.69668E+08         0.12399E+07         0.00000E+00
    0.12399E+07        -0.92982E+08         0.00000E+00
    0.00000E+00         0.00000E+00        -0.69648E+08
 
   -0.69552E+08         0.12290E+07         0.00000E+00
    0.12290E+07        -0.92914E+08         0.00000E+00
    0.00000E+00         0.00000E+00        -0.69536E+08
 
   -0.69436E+08         0.12202E+07         0.00000E+00
    0.12202E+07        -0.92846E+08         0.00000E+00
    0.00000E+00         0.00000E+00        -0.69426E+08
 
   -0.69322E+08         0.12135E+07         0.00000E+00
    0.12135E+07        -0.92778E+08         0.00000E+00
    0.00000E+00         0.00000E+00        -0.69316E+08
 
   -0.69207E+08         0.12089E+07         0.00000E+00
    0.12089E+07        -0.92711E+08         0.00000E+00
    0.00000E+00         0.00000E+00        -0.69207E+08
 
   -0.69093E+08         0.12063E+07         0.00000E+00
    0.12063E+07        -0.92643E+08         0.00000E+00
    0.00000E+00         0.00000E+00        -0.69097E+08
 
   -0.68978E+08         0.12057E+07         0.00000E+00
    0.12057E+07        -0.92575E+08         0.00000E+00
    0.00000E+00         0.00000E+00        -0.68987E+08
 
   -0.68864E+08         0.12071E+07         0.00000E+00
    0.12071E+07        -0.92507E+08         0.00000E+00
    0.00000E+00         0.00000E+00        -0.68877E+08
 
   -0.68748E+08         0.12103E+07         0.00000E+00
    0.12103E+07        -0.92438E+08         0.00000E+00
    0.00000E+00         0.00000E+00        -0.68767E+08
 
   -0.68632E+08         0.12154E+07         0.00000E+00
    0.12154E+07        -0.92369E+08         0.00000E+00
    0.00000E+00         0.00000E+00        -0.68655E+08
 
   -0.68516E+08         0.12222E+07         0.00000E+00
    0.12222E+07        -0.92300E+08         0.00000E+00
    0.00000E+00         0.00000E+00        -0.68543E+08
 
   -0.68398E+08         0.12307E+07         0.00000E+00
    0.12307E+07        -0.92230E+08         0.00000E+00
    0.00000E+00         0.00000E+00        -0.68429E+08
 
   -0.68278E+08         0.12408E+07         0.00000E+00
    0.12408E+07        -0.92159E+08         0.00000E+00
    0.00000E+00         0.00000E+00        -0.68314E+08
 
   -0.68158E+08         0.12525E+07         0.00000E+00
    0.12525E+07        -0.92087E+08         0.00000E+00
    0.00000E+00         0.00000E+00        -0.68197E+08
 
   -0.68035E+08         0.12656E+07         0.00000E+00
    0.12656E+07        -0.92015E+08         0.00000E+00
    0.00000E+00         0.00000E+00        -0.68079E+08
 
   -0.67911E+08         0.12800E+07         0.00000E+00
    0.12800E+07        -0.91942E+08         0.00000E+00
    0.00000E+00         0.00000E+00        -0.67958E+08
 
   -0.67784E+08         0.12956E+07         0.00000E+00
    0.12956E+07        -0.91868E+08         0.00000E+00
    0.00000E+00         0.00000E+00        -0.67834E+08
 
   -0.67655E+08         0.13123E+07         0.00000E+00
    0.13123E+07        -0.91793E+08         0.00000E+00
    0.00000E+00         0.00000E+00        -0.67708E+08
 
   -0.67524E+08         0.13298E+07         0.00000E+00
    0.13298E+07        -0.91718E+08         0.00000E+00
    0.00000E+00         0.00000E+00        -0.67580E+08
 
   -0.67390E+08         0.13482E+07         0.00000E+00
    0.13482E+07        -0.91641E+08         0.00000E+00
    0.00000E+00         0.00000E+00        -0.67448E+08
 
   -0.67253E+08         0.13670E+07         0.00000E+00
    0.13670E+07        -0.91564E+08         0.00000E+00
    0.00000E+00         0.00000E+00        -0.67313E+08
 
   -0.67113E+08         0.13862E+07         0.00000E+00
    0.13862E+07        -0.91486E+08         0.00000E+00
    0.00000E+00         0.00000E+00        -0.67174E+08
 
   -0.66969E+08         0.14054E+07         0.00000E+00
    0.14054E+07        -0.91407E+08         0.00000E+00
    0.00000E+00         0.00000E+00        -0.67032E+08
 
   -0.66823E+08         0.14245E+07         0.00000E+00
    0.14245E+07        -0.91327E+08         0.00000E+00
    0.00000E+00         0.00000E+00        -0.66886E+08
 
   -0.66672E+08         0.14430E+07         0.00000E+00
    0.14430E+07        -0.91247E+08         0.00000E+00
    0.00000E+00         0.00000E+00        -0.66735E+08
 
   -0.66518E+08         0.14608E+07         0.00000E+00
    0.14608E+07        -0.91166E+08         0.00000E+00
    0.00000E+00         0.00000E+00        -0.66580E+08
 
   -0.66360E+08         0.14773E+07         0.00000E+00
    0.14773E+07        -0.91086E+08         0.00000E+00
    0.00000E+00         0.00000E+00        -0.66420E+08
 
   -0.66198E+08         0.14923E+07         0.00000E+00
    0.14923E+07        -0.91005E+08         0.00000E+00
    0.00000E+00         0.00000E+00        -0.66256E+08
 
   -0.66032E+08         0.15052E+07         0.00000E+00
    0.15052E+07        -0.90925E+08         0.00000E+00
    0.00000E+00         0.00000E+00        -0.66086E+08
 
   -0.65861E+08         0.15156E+07         0.00000E+00
    0.15156E+07        -0.90844E+08         0.00000E+00
    0.00000E+00         0.00000E+00        -0.65910E+08
 
   -0.65686E+08         0.15231E+07         0.00000E+00
    0.15231E+07        -0.90765E+08         0.00000E+00
    0.00000E+00         0.00000E+00        -0.65729E+08
 
   -0.65506E+08         0.15271E+07         0.00000E+00
    0.15271E+07        -0.90687E+08         0.00000E+00
    0.00000E+00         0.00000E+00        -0.65542E+08
 
   -0.65321E+08         0.15271E+07         0.00000E+00
    0.15271E+07        -0.90609E+08         0.00000E+00
    0.00000E+00         0.00000E+00        -0.65349E+08
 
   -0.65130E+08         0.15225E+07         0.00000E+00
    0.15225E+07        -0.90533E+08         0.00000E+00
    0.00000E+00         0.00000E+00        -0.65149E+08
 
   -0.64934E+08         0.15129E+07         0.00000E+00
    0.15129E+07        -0.90458E+08         0.00000E+00
    0.00000E+00         0.00000E+00        -0.64942E+08
 
   -0.64732E+08         0.14976E+07         0.00000E+00
    0.14976E+07        -0.90384E+08         0.00000E+00
    0.00000E+00         0.00000E+00        -0.64728E+08
 
   -0.64522E+08         0.14763E+07         0.00000E+00
    0.14763E+07        -0.90311E+08         0.00000E+00
    0.00000E+00         0.00000E+00        -0.64506E+08
 
   -0.64306E+08         0.14483E+07         0.00000E+00
    0.14483E+07        -0.90238E+08         0.00000E+00
    0.00000E+00         0.00000E+00        -0.64275E+08
 
   -0.64081E+08         0.14135E+07         0.00000E+00
    0.14135E+07        -0.90164E+08         0.00000E+00
    0.00000E+00         0.00000E+00        -0.64034E+08
 
   -0.63846E+08         0.13713E+07         0.00000E+00
    0.13713E+07        -0.90087E+08         0.00000E+00
    0.00000E+00         0.00000E+00        -0.63783E+08
 
   -0.63600E+08         0.13216E+07         0.00000E+00
    0.13216E+07        -0.90005E+08         0.00000E+00
    0.00000E+00         0.00000E+00        -0.63518E+08
 
   -0.63341E+08         0.12640E+07         0.00000E+00
    0.12640E+07        -0.89915E+08         0.00000E+00
    0.00000E+00         0.00000E+00        -0.63240E+08
 
   -0.63067E+08         0.11983E+07         0.00000E+00
    0.11983E+07        -0.89813E+08         0.00000E+00
    0.00000E+00         0.00000E+00        -0.62943E+08
 
   -0.62775E+08         0.11240E+07         0.00000E+00
    0.11240E+07        -0.89694E+08         0.00000E+00
    0.00000E+00         0.00000E+00        -0.62626E+08
 
   -0.62462E+08         0.10400E+07         0.00000E+00
    0.10400E+07        -0.89550E+08         0.00000E+00
    0.00000E+00         0.00000E+00        -0.62283E+08
 
   -0.62125E+08         0.94468E+06         0.00000E+00
    0.94468E+06        -0.89375E+08         0.00000E+00
    0.00000E+00         0.00000E+00        -0.61908E+08
 
   -0.61761E+08         0.83485E+06         0.00000E+00
    0.83485E+06        -0.89160E+08         0.00000E+00
    0.00000E+00         0.00000E+00        -0.61493E+08
 
   -0.61368E+08         0.70520E+06         0.00000E+00
    0.70520E+06        -0.88895E+08         0.00000E+00
    0.00000E+00         0.00000E+00        -0.61031E+08
 
   -0.60948E+08         0.54700E+06         0.00000E+00
    0.54700E+06        -0.88570E+08         0.00000E+00
    0.00000E+00         0.00000E+00        -0.60508E+08
 
   -0.60512E+08         0.35128E+06         0.00000E+00
    0.35128E+06        -0.88178E+08         0.00000E+00
    0.00000E+00         0.00000E+00        -0.59908E+08
 
   -0.60094E+08         0.12193E+06         0.00000E+00
    0.12193E+06        -0.87732E+08         0.00000E+00
    0.00000E+00         0.00000E+00        -0.59212E+08
 
   -0.82017E+08         0.23392E+06         0.00000E+00
    0.23392E+06        -0.98272E+08         0.00000E+00
    0.00000E+00         0.00000E+00        -0.84188E+08
 
   -0.81755E+08         0.68417E+06         0.00000E+00
    0.68417E+06        -0.97531E+08         0.00000E+00
    0.00000E+00         0.00000E+00        -0.83291E+08
 
   -0.81303E+08         0.10818E+07         0.00000E+00
    0.10818E+07        -0.96997E+08         0.00000E+00
    0.00000E+00         0.00000E+00        -0.82435E+08
 
   -0.80748E+08         0.14106E+07         0.00000E+00
    0.14106E+07        -0.96646E+08         0.00000E+00
    0.00000E+00         0.00000E+00        -0.81616E+08
 
   -0.80147E+08         0.16809E+07         0.00000E+00
    0.16809E+07        -0.96441E+08         0.00000E+00
    0.00000E+00         0.00000E+00        -0.80833E+08
 
   -0.79531E+08         0.19080E+07         0.00000E+00
    0.19080E+07        -0.96344E+08         0.00000E+00
    0.00000E+00         0.00000E+00        -0.80086E+08
 
   -0.78917E+08         0.21022E+07         0.00000E+00
    0.21022E+07        -0.96329E+08         0.00000E+00
    0.00000E+00         0.00000E+00        -0.79371E+08
 
   -0.78314E+08         0.22700E+07         0.00000E+00
    0.22700E+07        -0.96371E+08         0.00000E+00
    0.00000E+00         0.00000E+00        -0.78687E+08
 
   -0.77745E+08         0.24110E+07         0.00000E+00
    0.24110E+07        -0.96437E+08         0.00000E+00
    0.00000E+00         0.00000E+00        -0.78049E+08
 
   -0.77339E+08         0.24931E+07         0.00000E+00
    0.24931E+07        -0.96378E+08         0.00000E+00
    0.00000E+00         0.00000E+00        -0.77580E+08
 
   -0.77029E+08         0.25356E+07         0.00000E+00
    0.25356E+07        -0.96256E+08         0.00000E+00
    0.00000E+00         0.00000E+00        -0.77213E+08
 
   -0.76730E+08         0.25626E+07         0.00000E+00
    0.25626E+07        -0.96148E+08         0.00000E+00
    0.00000E+00         0.00000E+00        -0.76865E+08
 
   -0.76441E+08         0.25763E+07         0.00000E+00
    0.25763E+07        -0.96048E+08         0.00000E+00
    0.00000E+00         0.00000E+00        -0.76533E+08
 
   -0.76161E+08         0.25783E+07         0.00000E+00
    0.25783E+07        -0.95954E+08         0.00000E+00
    0.00000E+00         0.00000E+00        -0.76215E+08
 
   -0.75889E+08         0.25702E+07         0.00000E+00
    0.25702E+07        -0.95864E+08         0.00000E+00
    0.00000E+00         0.00000E+00        -0.75910E+08
 
   -0.75623E+08         0.25531E+07         0.00000E+00
    0.25531E+07        -0.95775E+08         0.00000E+00
    0.00000E+00         0.00000E+00        -0.75615E+08
 
   -0.75364E+08         0.25282E+07         0.00000E+00
    0.25282E+07        -0.95687E+08         0.00000E+00
    0.00000E+00         0.00000E+00        -0.75330E+08
 
   -0.75111E+08         0.24966E+07         0.00000E+00
    0.24966E+07        -0.95598E+08         0.00000E+00
    0.00000E+00         0.00000E+00        -0.75055E+08
 
   -0.74863E+08         0.24593E+07         0.00000E+00
    0.24593E+07        -0.95510E+08         0.00000E+00
    0.00000E+00         0.00000E+00        -0.74789E+08
 
   -0.74622E+08         0.24173E+07         0.00000E+00
    0.24173E+07        -0.95420E+08         0.00000E+00
    0.00000E+00         0.00000E+00        -0.74532E+08
 
   -0.74386E+08         0.23713E+07         0.00000E+00
    0.23713E+07        -0.95330E+08         0.00000E+00
    0.00000E+00         0.00000E+00        -0.74283E+08
 
   -0.74155E+08         0.23221E+07         0.00000E+00
    0.23221E+07        -0.95239E+08         0.00000E+00
    0.00000E+00         0.00000E+00        -0.74042E+08
 
   -0.73931E+08         0.22706E+07         0.00000E+00
    0.22706E+07        -0.95148E+08         0.00000E+00
    0.00000E+00         0.00000E+00        -0.73809E+08
 
   -0.73712E+08         0.22172E+07         0.00000E+00
    0.22172E+07        -0.95057E+08         0.00000E+00
    0.00000E+00         0.00000E+00        -0.73584E+08
 
   -0.73499E+08         0.21627E+07         0.00000E+00
    0.21627E+07        -0.94966E+08         0.00000E+00
    0.00000E+00         0.00000E+00        -0.73367E+08
 
   -0.73291E+08         0.21075E+07         0.00000E+00
    0.21075E+07        -0.94875E+08         0.00000E+00
    0.00000E+00         0.00000E+00        -0.73157E+08
 
   -0.73089E+08         0.20522E+07         0.00000E+00
    0.20522E+07        -0.94784E+08         0.00000E+00
    0.00000E+00         0.00000E+00        -0.72954E+08
 
   -0.72893E+08         0.19970E+07         0.00000E+00
    0.19970E+07        -0.94694E+08         0.00000E+00
    0.00000E+00         0.00000E+00        -0.72757E+08
 
   -0.72702E+08         0.19425E+07         0.00000E+00
    0.19425E+07        -0.94605E+08         0.00000E+00
    0.00000E+00         0.00000E+00        -0.72568E+08
 
   -0.72517E+08         0.18889E+07         0.00000E+00
    0.18889E+07        -0.94517E+08         0.00000E+00
    0.00000E+00         0.00000E+00        -0.72385E+08
 
   -0.72337E+08         0.18364E+07         0.00000E+00
    0.18364E+07        -0.94430E+08         0.00000E+00
    0.00000E+00         0.00000E+00        -0.72207E+08
 
   -0.72163E+08         0.17853E+07         0.00000E+00
    0.17853E+07        -0.94343E+08         0.00000E+00
    0.00000E+00         0.00000E+00        -0.72036E+08
 
   -0.71993E+08         0.17359E+07         0.00000E+00
    0.17359E+07        -0.94258E+08         0.00000E+00
    0.00000E+00         0.00000E+00        -0.71870E+08
 
   -0.71828E+08         0.16881E+07         0.00000E+00
    0.16881E+07        -0.94174E+08         0.00000E+00
    0.00000E+00         0.00000E+00        -0.71710E+08
 
   -0.71668E+08         0.16423E+07         0.00000E+00
    0.16423E+07        -0.94092E+08         0.00000E+00
    0.00000E+00         0.00000E+00        -0.71554E+08
 
   -0.71512E+08         0.15984E+07         0.00000E+00
    0.15984E+07        -0.94011E+08         0.00000E+00
    0.00000E+00         0.00000E+00        -0.71404E+08
 
   -0.71360E+08         0.15566E+07         0.00000E+00
    0.15566E+07        -0.93931E+08         0.00000E+00
    0.00000E+00         0.00000E+00        -0.71257E+08
 
   -0.71212E+08         0.15170E+07         0.00000E+00
    0.15170E+07        -0.93852E+08         0.00000E+00
    0.00000E+00         0.00000E+00        -0.71115E+08
 
   -0.71069E+08         0.14795E+07         0.00000E+00
    0.14795E+07        -0.93774E+08         0.00000E+00
    0.00000E+00         0.00000E+00        -0.70977E+08
 
   -0.70928E+08         0.14443E+07         0.00000E+00
    0.14443E+07        -0.93698E+08         0.00000E+00
    0.00000E+00         0.00000E+00        -0.70843E+08
 
   -0.70791E+08         0.14113E+07         0.00000E+00
    0.14113E+07        -0.93622E+08         0.00000E+00
    0.00000E+00         0.00000E+00        -0.70712E+08
 
   -0.70657E+08         0.13806E+07         0.00000E+00
    0.13806E+07        -0.93548E+08         0.00000E+00
    0.00000E+00         0.00000E+00        -0.70584E+08
 
   -0.70526E+08         0.13521E+07         0.00000E+00
    0.13521E+07        -0.93475E+08         0.00000E+00
    0.00000E+00         0.00000E+00        -0.70459E+08
 
   -0.70397E+08         0.13259E+07         0.00000E+00
    0.13259E+07        -0.93403E+08         0.00000E+00
    0.00000E+00         0.00000E+00        -0.70337E+08
 
   -0.70271E+08         0.13020E+07         0.00000E+00
    0.13020E+07        -0.93331E+08         0.00000E+00
    0.00000E+00         0.00000E+00        -0.70217E+08
 
   -0.70147E+08         0.12803E+07         0.00000E+00
    0.12803E+07        -0.93261E+08         0.00000E+00
    0.00000E+00         0.00000E+00        -0.70099E+08
 
   -0.70025E+08         0.12609E+07         0.00000E+00
    0.12609E+07        -0.93191E+08         0.00000E+00
    0.00000E+00         0.00000E+00        -0.69983E+08
 
   -0.69905E+08         0.12437E+07         0.00000E+00
    0.12437E+07        -0.93121E+08         0.00000E+00
    0.00000E+00         0.00000E+00        -0.69869E+08
 
   -0.69786E+08         0.12286E+07         0.00000E+00
    0.12286E+07        -0.93052E+08         0.00000E+00
    0.00000E+00         0.00000E+00        -0.69756E+08
 
   -0.69668E+08         0.12157E+07         0.00000E+00
    0.12157E+07        -0.92984E+08         0.00000E+00
    0.00000E+00         0.00000E+00        -0.69644E+08
 
   -0.69551E+08         0.12050E+07         0.00000E+00
    0.12050E+07        -0.92916E+08         0.00000E+00
    0.00000E+00         0.00000E+00        -0.69533E+08
 
   -0.69436E+08         0.11963E+07         0.00000E+00
    0.11963E+07        -0.92848E+08         0.00000E+00
    0.00000E+00         0.00000E+00        -0.69423E+08
 
   -0.69320E+08         0.11897E+07         0.00000E+00
    0.11897E+07        -0.92780E+08         0.00000E+00
    0.00000E+00         0.00000E+00        -0.69314E+08
 
   -0.69205E+08         0.11852E+07         0.00000E+00
    0.11852E+07        -0.92712E+08         0.00000E+00
    0.00000E+00         0.00000E+00        -0.69205E+08
 
   -0.69090E+08         0.11826E+07         0.00000E+00
    0.11826E+07        -0.92644E+08         0.00000E+00
    0.00000E+00         0.00000E+00        -0.69096E+08
 
   -0.68976E+08         0.11819E+07         0.00000E+00
    0.11819E+07        -0.92576E+08         0.00000E+00
    0.00000E+00         0.00000E+00        -0.68986E+08
 
   -0.68860E+08         0.11832E+07         0.00000E+00
    0.11832E+07        -0.92508E+08         0.00000E+00
    0.00000E+00         0.00000E+00        -0.68877E+08
 
   -0.68745E+08         0.11862E+07         0.00000E+00
    0.11862E+07        -0.92439E+08         0.00000E+00
    0.00000E+00         0.00000E+00        -0.68767E+08
 
   -0.68628E+08         0.11911E+07         0.00000E+00
    0.11911E+07        -0.92370E+08         0.00000E+00
    0.00000E+00         0.00000E+00        -0.68655E+08
 
   -0.68511E+08         0.11977E+07         0.00000E+00
    0.11977E+07        -0.92301E+08         0.00000E+00
    0.00000E+00         0.00000E+00        -0.68543E+08
 
   -0.68393E+08         0.12059E+07         0.00000E+00
    0.12059E+07        -0.92231E+08         0.00000E+00
    0.00000E+00         0.00000E+00        -0.68430E+08
 
   -0.68273E+08         0.12157E+07         0.00000E+00
    0.12157E+07        -0.92160E+08         0.00000E+00
    0.00000E+00         0.00000E+00        -0.68315E+08
 
   -0.68152E+08         0.12270E+07         0.00000E+00
    0.12270E+07        -0.92088E+08         0.00000E+00
    0.00000E+00         0.00000E+00        -0.68199E+08
 
   -0.68029E+08         0.12397E+07         0.00000E+00
    0.12397E+07        -0.92016E+08         0.00000E+00
    0.00000E+00         0.00000E+00        -0.68080E+08
 
   -0.67904E+08         0.12536E+07         0.00000E+00
    0.12536E+07        -0.91943E+08         0.00000E+00
    0.00000E+00         0.00000E+00        -0.67959E+08
 
   -0.67777E+08         0.12688E+07         0.00000E+00
    0.12688E+07        -0.91869E+08         0.00000E+00
    0.00000E+00         0.00000E+00        -0.67836E+08
 
   -0.67648E+08         0.12849E+07         0.00000E+00
    0.12849E+07        -0.91794E+08         0.00000E+00
    0.00000E+00         0.00000E+00        -0.67711E+08
 
   -0.67516E+08         0.13019E+07         0.00000E+00
    0.13019E+07        -0.91719E+08         0.00000E+00
    0.00000E+00         0.00000E+00        -0.67582E+08
 
   -0.67382E+08         0.13196E+07         0.00000E+00
    0.13196E+07        -0.91642E+08         0.00000E+00
    0.00000E+00         0.00000E+00        -0.67450E+08
 
   -0.67244E+08         0.13378E+07         0.00000E+00
    0.13378E+07        -0.91565E+08         0.00000E+00
    0.00000E+00         0.00000E+00        -0.67315E+08
 
   -0.67104E+08         0.13563E+07         0.00000E+00
    0.13563E+07        -0.91486E+08         0.00000E+00
    0.00000E+00         0.00000E+00        -0.67177E+08
 
   -0.66961E+08         0.13749E+07         0.00000E+00
    0.13749E+07        -0.91408E+08         0.00000E+00
    0.00000E+00         0.00000E+00        -0.67034E+08
 
   -0.66814E+08         0.13932E+07         0.00000E+00
    0.13932E+07        -0.91328E+08         0.00000E+00
    0.00000E+00         0.00000E+00        -0.66888E+08
 
   -0.66663E+08         0.14110E+07         0.00000E+00
    0.14110E+07        -0.91248E+08         0.00000E+00
    0.00000E+00         0.00000E+00        -0.66737E+08
 
   -0.66509E+08         0.14279E+07         0.00000E+00
    0.14279E+07        -0.91167E+08         0.00000E+00
    0.00000E+00         0.00000E+00        -0.66582E+08
 
   -0.66351E+08         0.14436E+07         0.00000E+00
    0.14436E+07        -0.91087E+08         0.00000E+00
    0.00000E+00         0.00000E+00        -0.66422E+08
 
   -0.66189E+08         0.14577E+07         0.00000E+00
    0.14577E+07        -0.91006E+08         0.00000E+00
    0.00000E+00         0.00000E+00        -0.66257E+08
 
   -0.66023E+08         0.14697E+07         0.00000E+00
    0.14697E+07        -0.90925E+08         0.00000E+00
    0.00000E+00         0.00000E+00        -0.66087E+08
 
   -0.65853E+08         0.14792E+07         0.00000E+00
    0.14792E+07        -0.90845E+08         0.00000E+00
    0.00000E+00         0.00000E+00        -0.65911E+08
 
   -0.65678E+08         0.14857E+07         0.00000E+00
    0.14857E+07        -0.90766E+08         0.00000E+00
    0.00000E+00         0.00000E+00        -0.65729E+08
 
   -0.65498E+08         0.14887E+07         0.00000E+00
    0.14887E+07        -0.90687E+08         0.00000E+00
    0.00000E+00         0.00000E+00        -0.65541E+08
 
   -0.65314E+08         0.14876E+07         0.00000E+00
    0.14876E+07        -0.90610E+08         0.00000E+00
    0.00000E+00         0.00000E+00        -0.65347E+08
 
   -0.65124E+08         0.14820E+07         0.00000E+00
    0.14820E+07        -0.90534E+08         0.00000E+00
    0.00000E+00         0.00000E+00        -0.65146E+08
 
   -0.64929E+08         0.14712E+07         0.00000E+00
    0.14712E+07        -0.90459E+08         0.00000E+00
    0.00000E+00         0.00000E+00        -0.64939E+08
 
   -0.64727E+08         0.14547E+07         0.00000E+00
    0.14547E+07        -0.90385E+08         0.00000E+00
    0.00000E+00         0.00000E+00        -0.64723E+08
 
   -0.64519E+08         0.14321E+07         0.00000E+00
    0.14321E+07        -0.90312E+08         0.00000E+00
    0.00000E+00         0.00000E+00        -0.64500E+08
 
   -0.64304E+08         0.14028E+07         0.00000E+00
    0.14028E+07        -0.90239E+08         0.00000E+00
    0.00000E+00         0.00000E+00        -0.64267E+08
 
   -0.64081E+08         0.13665E+07         0.00000E+00
    0.13665E+07        -0.90165E+08         0.00000E+00
    0.00000E+00         0.00000E+00        -0.64025E+08
 
   -0.63848E+08         0.13228E+07         0.00000E+00
    0.13228E+07        -0.90088E+08         0.00000E+00
    0.00000E+00         0.00000E+00        -0.63772E+08
 
   -0.63604E+08         0.12715E+07         0.00000E+00
    0.12715E+07        -0.90007E+08         0.00000E+00
    0.00000E+00         0.00000E+00        -0.63506E+08
 
   -0.63348E+08         0.12124E+07         0.00000E+00
    0.12124E+07        -0.89917E+08         0.00000E+00
    0.00000E+00         0.00000E+00        -0.63225E+08
 
   -0.63077E+08         0.11452E+07         0.00000E+00
    0.11452E+07        -0.89816E+08         0.00000E+00
    0.00000E+00         0.00000E+00        -0.62927E+08
 
   -0.62788E+08         0.10694E+07         0.00000E+00
    0.10694E+07        -0.89697E+08         0.00000E+00
    0.00000E+00         0.00000E+00        -0.62608E+08
 
   -0.62478E+08         0.98434E+06         0.00000E+00
    0.98434E+06        -0.89555E+08         0.00000E+00
    0.00000E+00         0.00000E+00        -0.62262E+08
 
   -0.62146E+08         0.88852E+06         0.00000E+00
    0.88852E+06        -0.89381E+08         0.00000E+00
    0.00000E+00         0.00000E+00        -0.61885E+08
 
   -0.61788E+08         0.77922E+06         0.00000E+00
    0.77922E+06        -0.89167E+08         0.00000E+00
    0.00000E+00         0.00000E+00        -0.61467E+08
 
   -0.61403E+08         0.65182E+06         0.00000E+00
    0.65182E+06        -0.88903E+08         0.00000E+00
    0.00000E+00         0.00000E+00        -0.61000E+08
 
   -0.60993E+08         0.49929E+06         0.00000E+00
    0.49929E+06        -0.88579E+08         0.00000E+00
    0.00000E+00         0.00000E+00        -0.60471E+08
 
   -0.60572E+08         0.31641E+06         0.00000E+00
    0.31641E+06        -0.88192E+08         0.00000E+00
    0.00000E+00         0.00000E+00        -0.59863E+08
 
   -0.60168E+08         0.10887E+06         0.00000E+00
    0.10887E+06        -0.87750E+08         0.00000E+00
    0.00000E+00         0.00000E+00        -0.59162E+08
 
   -0.81774E+08         0.20825E+06         0.00000E+00
    0.20825E+06        -0.98360E+08         0.00000E+00
    0.00000E+00         0.00000E+00        -0.84188E+08
 
   -0.81541E+08         0.61364E+06         0.00000E+00
    0.61364E+06        -0.97614E+08         0.00000E+00
    0.00000E+00         0.00000E+00        -0.83291E+08
 
   -0.81128E+08         0.98196E+06         0.00000E+00
    0.98196E+06        -0.97067E+08         0.00000E+00
    0.00000E+00         0.00000E+00        -0.82435E+08
 
   -0.80606E+08         0.12963E+07         0.00000E+00
    0.12963E+07        -0.96705E+08         0.00000E+00
    0.00000E+00         0.00000E+00        -0.81616E+08
 
   -0.80032E+08         0.15606E+07         0.00000E+00
    0.15606E+07        -0.96489E+08         0.00000E+00
    0.00000E+00         0.00000E+00        -0.80833E+08
 
   -0.79436E+08         0.17862E+07         0.00000E+00
    0.17862E+07        -0.96386E+08         0.00000E+00
    0.00000E+00         0.00000E+00        -0.80086E+08
 
   -0.78839E+08         0.19816E+07         0.00000E+00
    0.19816E+07        -0.96365E+08         0.00000E+00
    0.00000E+00         0.00000E+00        -0.79371E+08
 
   -0.78250E+08         0.21522E+07         0.00000E+00
    0.21522E+07        -0.96403E+08         0.00000E+00
    0.00000E+00         0.00000E+00        -0.78687E+08
 
   -0.77695E+08         0.22961E+07         0.00000E+00
    0.22961E+07        -0.96460E+08         0.00000E+00
    0.00000E+00         0.00000E+00        -0.78053E+08
 
   -0.77300E+08         0.23842E+07         0.00000E+00
    0.23842E+07        -0.96398E+08         0.00000E+00
    0.00000E+00         0.00000E+00        -0.77583E+08
 
   -0.76996E+08         0.24342E+07         0.00000E+00
    0.24342E+07        -0.96275E+08         0.00000E+00
    0.00000E+00         0.00000E+00        -0.77213E+08
 
   -0.76703E+08         0.24680E+07         0.00000E+00
    0.24680E+07        -0.96166E+08         0.00000E+00
    0.00000E+00         0.00000E+00        -0.76862E+08
 
   -0.76419E+08         0.24879E+07         0.00000E+00
    0.24879E+07        -0.96066E+08         0.00000E+00
    0.00000E+00         0.00000E+00        -0.76527E+08
 
   -0.76143E+08         0.24955E+07         0.00000E+00
    0.24955E+07        -0.95971E+08         0.00000E+00
    0.00000E+00         0.00000E+00        -0.76207E+08
 
   -0.75875E+08         0.24923E+07         0.00000E+00
    0.24923E+07        -0.95879E+08         0.00000E+00
    0.00000E+00         0.00000E+00        -0.75900E+08
 
   -0.75613E+08         0.24798E+07         0.00000E+00
    0.24798E+07        -0.95790E+08         0.00000E+00
    0.00000E+00         0.00000E+00        -0.75603E+08
 
   -0.75356E+08         0.24590E+07         0.00000E+00
    0.24590E+07        -0.95700E+08         0.00000E+00
    0.00000E+00         0.00000E+00        -0.75318E+08
 
   -0.75106E+08         0.24311E+07         0.00000E+00
    0.24311E+07        -0.95611E+08         0.00000E+00
    0.00000E+00         0.00000E+00        -0.75042E+08
 
   -0.74860E+08         0.23971E+07         0.00000E+00
    0.23971E+07        -0.95522E+08         0.00000E+00
    0.00000E+00         0.00000E+00        -0.74775E+08
 
   -0.74621E+08         0.23581E+07         0.00000E+00
    0.23581E+07        -0.95431E+08         0.00000E+00
    0.00000E+00         0.00000E+00        -0.74517E+08
 
   -0.74386E+08         0.23149E+07         0.00000E+00
    0.23149E+07        -0.95340E+08         0.00000E+00
    0.00000E+00         0.00000E+00        -0.74268E+08
 
   -0.74157E+08         0.22683E+07         0.00000E+00
    0.22683E+07        -0.95249E+08         0.00000E+00
    0.00000E+00         0.00000E+00        -0.74027E+08
 
   -0.73934E+08         0.22191E+07         0.00000E+00
    0.22191E+07        -0.95157E+08         0.00000E+00
    0.00000E+00         0.00000E+00        -0.73794E+08
 
   -0.73716E+08         0.21679E+07         0.00000E+00
    0.21679E+07        -0.95066E+08         0.00000E+00
    0.00000E+00         0.00000E+00        -0.73569E+08
 
   -0.73503E+08         0.21154E+07         0.00000E+00
    0.21154E+07        -0.94974E+08         0.00000E+00
    0.00000E+00         0.00000E+00        -0.73351E+08
 
   -0.73296E+08         0.20621E+07         0.00000E+00
    0.20621E+07        -0.94882E+08         0.00000E+00
    0.00000E+00         0.00000E+00        -0.73141E+08
 
   -0.73095E+08         0.20085E+07         0.00000E+00
    0.20085E+07        -0.94791E+08         0.00000E+00
    0.00000E+00         0.00000E+00        -0.72939E+08
 
   -0.72899E+08         0.19550E+07         0.00000E+00
    0.19550E+07        -0.94701E+08         0.00000E+00
    0.00000E+00         0.00000E+00        -0.72743E+08
 
   -0.72708E+08         0.19020E+07         0.00000E+00
    0.19020E+07        -0.94611E+08         0.00000E+00
    0.00000E+00         0.00000E+00        -0.72554E+08
 
   -0.72523E+08         0.18498E+07         0.00000E+00
    0.18498E+07        -0.94522E+08         0.00000E+00
    0.00000E+00         0.00000E+00        -0.72371E+08
 
   -0.72344E+08         0.17987E+07         0.00000E+00
    0.17987E+07        -0.94435E+08         0.00000E+00
    0.00000E+00         0.00000E+00        -0.72194E+08
 
   -0.72169E+08         0.17489E+07         0.00000E+00
    0.17489E+07        -0.94348E+08         0.00000E+00
    0.00000E+00         0.00000E+00        -0.72023E+08
 
   -0.71999E+08         0.17006E+07         0.00000E+00
    0.17006E+07        -0.94263E+08         0.00000E+00
    0.00000E+00         0.00000E+00        -0.71858E+08
 
   -0.71834E+08         0.16540E+07         0.00000E+00
    0.16540E+07        -0.94179E+08         0.00000E+00
    0.00000E+00         0.00000E+00        -0.71698E+08
 
   -0.71673E+08         0.16092E+07         0.00000E+00
    0.16092E+07        -0.94096E+08         0.00000E+00
    0.00000E+00         0.00000E+00        -0.71543E+08
 
   -0.71517E+08         0.15663E+07         0.00000E+00
    0.15663E+07        -0.94014E+08         0.00000E+00
    0.00000E+00         0.00000E+00        -0.71393E+08
 
   -0.71365E+08         0.15254E+07         0.00000E+00
    0.15254E+07        -0.93934E+08         0.00000E+00
    0.00000E+00         0.00000E+00        -0.71247E+08
 
   -0.71217E+08         0.14866E+07         0.00000E+00
    0.14866E+07        -0.93855E+08         0.00000E+00
    0.00000E+00         0.00000E+00        -0.71106E+08
 
   -0.71073E+08         0.14500E+07         0.00000E+00
    0.14500E+07        -0.93777E+08         0.00000E+00
    0.00000E+00         0.00000E+00        -0.70968E+08
 
   -0.70932E+08         0.14155E+07         0.00000E+00
    0.14155E+07        -0.93701E+08         0.00000E+00
    0.00000E+00         0.00000E+00        -0.70834E+08
 
   -0.70795E+08         0.13832E+07         0.00000E+00
    0.13832E+07        -0.93625E+08         0.00000E+00
    0.00000E+00         0.00000E+00        -0.70704E+08
 
   -0.70661E+08         0.13531E+07         0.00000E+00
    0.13531E+07        -0.93551E+08         0.00000E+00
    0.00000E+00         0.00000E+00        -0.70576E+08
 
   -0.70529E+08         0.13252E+07         0.00000E+00
    0.13252E+07        -0.93477E+08         0.00000E+00
    0.00000E+00         0.00000E+00        -0.70452E+08
 
   -0.70400E+08         0.12995E+07         0.00000E+00
    0.12995E+07        -0.93405E+08         0.00000E+00
    0.00000E+00         0.00000E+00        -0.70330E+08
 
   -0.70273E+08         0.12761E+07         0.00000E+00
    0.12761E+07        -0.93333E+08         0.00000E+00
    0.00000E+00         0.00000E+00        -0.70211E+08
 
   -0.70149E+08         0.12548E+07         0.00000E+00
    0.12548E+07        -0.93263E+08         0.00000E+00
    0.00000E+00         0.00000E+00        -0.70093E+08
 
   -0.70027E+08         0.12357E+07         0.00000E+00
    0.12357E+07        -0.93193E+08         0.00000E+00
    0.00000E+00         0.00000E+00        -0.69978E+08
 
   -0.69906E+08         0.12188E+07         0.00000E+00
    0.12188E+07        -0.93123E+08         0.00000E+00
    0.00000E+00         0.00000E+00        -0.69864E+08
 
   -0.69786E+08         0.12041E+07         0.00000E+00
    0.12041E+07        -0.93054E+08         0.00000E+00
    0.00000E+00         0.00000E+00        -0.69752E+08
 
   -0.69668E+08         0.11914E+07         0.00000E+00
    0.11914E+07        -0.92985E+08         0.00000E+00
    0.00000E+00         0.00000E+00        -0.69640E+08
 
   -0.69551E+08         0.11808E+07         0.00000E+00
    0.11808E+07        -0.92917E+08         0.00000E+00
    0.00000E+00         0.00000E+00        -0.69530E+08
 
   -0.69435E+08         0.11723E+07         0.00000E+00
    0.11723E+07        -0.92849E+08         0.00000E+00
    0.00000E+00         0.00000E+00        -0.69421E+08
 
   -0.69319E+08         0.11658E+07         0.00000E+00
    0.11658E+07        -0.92781E+08         0.00000E+00
    0.00000E+00         0.00000E+00        -0.69312E+08
 
   -0.69204E+08         0.11612E+07         0.00000E+00
    0.11612E+07        -0.92713E+08         0.00000E+00
    0.00000E+00         0.00000E+00        -0.69203E+08
 
   -0.69088E+08         0.11586E+07         0.00000E+00
    0.11586E+07        -0.92645E+08         0.00000E+00
    0.00000E+00         0.00000E+00        -0.69094E+08
 
   -0.68973E+08         0.11579E+07         0.00000E+00
    0.11579E+07        -0.92577E+08         0.00000E+00
    0.00000E+00         0.00000E+00        -0.68985E+08
 
   -0.68857E+08         0.11591E+07         0.00000E+00
    0.11591E+07        -0.92509E+08         0.00000E+00
    0.00000E+00         0.00000E+00        -0.68876E+08
 
   -0.68741E+08         0.11620E+07         0.00000E+00
    0.11620E+07        -0.92440E+08         0.00000E+00
    0.00000E+00         0.00000E+00        -0.68766E+08
 
   -0.68625E+08         0.11667E+07         0.00000E+00
    0.11667E+07        -0.92371E+08         0.00000E+00
    0.00000E+00         0.00000E+00        -0.68656E+08
 
   -0.68507E+08         0.11730E+07         0.00000E+00
    0.11730E+07        -0.92302E+08         0.00000E+00
    0.00000E+00         0.00000E+00        -0.68544E+08
 
   -0.68388E+08         0.11810E+07         0.00000E+00
    0.11810E+07        -0.92232E+08         0.00000E+00
    0.00000E+00         0.00000E+00        -0.68431E+08
 
   -0.68268E+08         0.11905E+07         0.00000E+00
    0.11905E+07        -0.92161E+08         0.00000E+00
    0.00000E+00         0.00000E+00        -0.68316E+08
 
   -0.68146E+08         0.12014E+07         0.00000E+00
    0.12014E+07        -0.92089E+08         0.00000E+00
    0.00000E+00         0.00000E+00        -0.68200E+08
 
   -0.68023E+08         0.12137E+07         0.00000E+00
    0.12137E+07        -0.92017E+08         0.00000E+00
    0.00000E+00         0.00000E+00        -0.68082E+08
 
   -0.67898E+08         0.12272E+07         0.00000E+00
    0.12272E+07        -0.91944E+08         0.00000E+00
    0.00000E+00         0.00000E+00        -0.67961E+08
 
   -0.67770E+08         0.12418E+07         0.00000E+00
    0.12418E+07        -0.91870E+08         0.00000E+00
    0.00000E+00         0.00000E+00        -0.67838E+08
 
   -0.67641E+08         0.12575E+07         0.00000E+00
    0.12575E+07        -0.91795E+08         0.00000E+00
    0.00000E+00         0.00000E+00        -0.67713E+08
 
   -0.67509E+08         0.12739E+07         0.00000E+00
    0.12739E+07        -0.91719E+08         0.00000E+00
    0.00000E+00         0.00000E+00        -0.67584E+08
 
   -0.67374E+08         0.12910E+07         0.00000E+00
    0.12910E+07        -0.91643E+08         0.00000E+00
    0.00000E+00         0.00000E+00        -0.67453E+08
 
   -0.67236E+08         0.13086E+07         0.00000E+00
    0.13086E+07        -0.91565E+08         0.00000E+00
    0.00000E+00         0.00000E+00        -0.67318E+08
 
   -0.67096E+08         0.13265E+07         0.00000E+00
    0.13265E+07        -0.91487E+08         0.00000E+00
    0.00000E+00         0.00000E+00        -0.67179E+08
 
   -0.66952E+08         0.13443E+07         0.00000E+00
    0.13443E+07        -0.91408E+08         0.00000E+00
    0.00000E+00         0.00000E+00        -0.67037E+08
 
   -0.66805E+08         0.13619E+07         0.00000E+00
    0.13619E+07        -0.91329E+08         0.00000E+00
    0.00000E+00         0.00000E+00        -0.66890E+08
 
   -0.66654E+08         0.13789E+07         0.00000E+00
    0.13789E+07        -0.91248E+08         0.00000E+00
    0.00000E+00         0.00000E+00        -0.66739E+08
 
   -0.66500E+08         0.13951E+07         0.00000E+00
    0.13951E+07        -0.91168E+08         0.00000E+00
    0.00000E+00         0.00000E+00        -0.66584E+08
 
   -0.66342E+08         0.14099E+07         0.00000E+00
    0.14099E+07        -0.91087E+08         0.00000E+00
    0.00000E+00         0.00000E+00        -0.66424E+08
 
   -0.66180E+08         0.14232E+07         0.00000E+00
    0.14232E+07        -0.91006E+08         0.00000E+00
    0.00000E+00         0.00000E+00        -0.66258E+08
 
   -0.66014E+08         0.14343E+07         0.00000E+00
    0.14343E+07        -0.90926E+08         0.00000E+00
    0.00000E+00         0.00000E+00        -0.66087E+08
 
   -0.65844E+08         0.14429E+07         0.00000E+00
    0.14429E+07        -0.90846E+08         0.00000E+00
    0.00000E+00         0.00000E+00        -0.65911E+08
 
   -0.65670E+08         0.14485E+07         0.00000E+00
    0.14485E+07        -0.90766E+08         0.00000E+00
    0.00000E+00         0.00000E+00        -0.65729E+08
 
   -0.65491E+08         0.14505E+07         0.00000E+00
    0.14505E+07        -0.90688E+08         0.00000E+00
    0.00000E+00         0.00000E+00        -0.65540E+08
 
   -0.65307E+08         0.14485E+07         0.00000E+00
    0.14485E+07        -0.90610E+08         0.00000E+00
    0.00000E+00         0.00000E+00        -0.65345E+08
 
   -0.65118E+08         0.14418E+07         0.00000E+00
    0.14418E+07        -0.90534E+08         0.00000E+00
    0.00000E+00         0.00000E+00        -0.65144E+08
 
   -0.64923E+08         0.14299E+07         0.00000E+00
    0.14299E+07        -0.90459E+08         0.00000E+00
    0.00000E+00         0.00000E+00        -0.64935E+08
 
   -0.64723E+08         0.14122E+07         0.00000E+00
    0.14122E+07        -0.90385E+08         0.00000E+00
    0.00000E+00         0.00000E+00        -0.64718E+08
 
   -0.64517E+08         0.13884E+07         0.00000E+00
    0.13884E+07        -0.90312E+08         0.00000E+00
    0.00000E+00         0.00000E+00        -0.64493E+08
 
   -0.64303E+08         0.13578E+07         0.00000E+00
    0.13578E+07        -0.90239E+08         0.00000E+00
    0.00000E+00         0.00000E+00        -0.64259E+08
 
   -0.64081E+08         0.13201E+07         0.00000E+00
    0.13201E+07        -0.90166E+08         0.00000E+00
    0.00000E+00         0.00000E+00        -0.64016E+08
 
   -0.63850E+08         0.12750E+07         0.00000E+00
    0.12750E+07        -0.90089E+08         0.00000E+00
    0.00000E+00         0.00000E+00        -0.63761E+08
 
   -0.63609E+08         0.12222E+07         0.00000E+00
    0.12222E+07        -0.90008E+08         0.00000E+00
    0.00000E+00         0.00000E+00        -0.63494E+08
 
   -0.63355E+08         0.11616E+07         0.00000E+00
    0.11616E+07        -0.89919E+08         0.00000E+00
    0.00000E+00         0.00000E+00        -0.63211E+08
 
   -0.63087E+08         0.10929E+07         0.00000E+00
    0.10929E+07        -0.89818E+08         0.00000E+00
    0.00000E+00         0.00000E+00        -0.62911E+08
 
   -0.62801E+08         0.10158E+07         0.00000E+00
    0.10158E+07        -0.89701E+08         0.00000E+00
    0.00000E+00         0.00000E+00        -0.62590E+08
 
   -0.62496E+08         0.92989E+06         0.00000E+00
    0.92989E+06        -0.89559E+08         0.00000E+00
    0.00000E+00         0.00000E+00        -0.62242E+08
 
   -0.62168E+08         0.83385E+06         0.00000E+00
    0.83385E+06        -0.89387E+08         0.00000E+00
    0.00000E+00         0.00000E+00        -0.61862E+08
 
   -0.61816E+08         0.72547E+06         0.00000E+00
    0.72547E+06        -0.89174E+08         0.00000E+00
    0.00000E+00         0.00000E+00        -0.61441E+08
 
   -0.61439E+08         0.60094E+06         0.00000E+00
    0.60094E+06        -0.88912E+08         0.00000E+00
    0.00000E+00         0.00000E+00        -0.60970E+08
 
   -0.61040E+08         0.45495E+06         0.00000E+00
    0.45495E+06        -0.88591E+08         0.00000E+00
    0.00000E+00         0.00000E+00        -0.60435E+08
 
   -0.60631E+08         0.28504E+06         0.00000E+00
    0.28504E+06        -0.88206E+08         0.00000E+00
    0.00000E+00         0.00000E+00        -0.59820E+08
 
   -0.60238E+08         0.97387E+05         0.00000E+00
    0.97387E+05        -0.87768E+08         0.00000E+00
    0.00000E+00         0.00000E+00        -0.59115E+08
 
   -0.81546E+08         0.18545E+06         0.00000E+00
    0.18545E+06        -0.98439E+08         0.00000E+00
    0.00000E+00         0.00000E+00        -0.84188E+08
 
   -0.81335E+08         0.54986E+06         0.00000E+00
    0.54986E+06        -0.97688E+08         0.00000E+00
    0.00000E+00         0.00000E+00        -0.83291E+08
 
   -0.80955E+08         0.88930E+06         0.00000E+00
    0.88930E+06        -0.97133E+08         0.00000E+00
    0.00000E+00         0.00000E+00        -0.82435E+08
 
   -0.80464E+08         0.11878E+07         0.00000E+00
    0.11878E+07        -0.96761E+08         0.00000E+00
    0.00000E+00         0.00000E+00        -0.81616E+08
 
   -0.79915E+08         0.14448E+07         0.00000E+00
    0.14448E+07        -0.96538E+08         0.00000E+00
    0.00000E+00         0.00000E+00        -0.80833E+08
 
   -0.79339E+08         0.16680E+07         0.00000E+00
    0.16680E+07        -0.96428E+08         0.00000E+00
    0.00000E+00         0.00000E+00        -0.80086E+08
 
   -0.78758E+08         0.18640E+07         0.00000E+00
    0.18640E+07        -0.96401E+08         0.00000E+00
    0.00000E+00         0.00000E+00        -0.79371E+08
 
   -0.78183E+08         0.20369E+07         0.00000E+00
    0.20369E+07        -0.96435E+08         0.00000E+00
    0.00000E+00         0.00000E+00        -0.78687E+08
 
   -0.77646E+08         0.21833E+07         0.00000E+00
    0.21833E+07        -0.96484E+08         0.00000E+00
    0.00000E+00         0.00000E+00        -0.78057E+08
 
   -0.77262E+08         0.22769E+07         0.00000E+00
    0.22769E+07        -0.96417E+08         0.00000E+00
    0.00000E+00         0.00000E+00        -0.77588E+08
 
   -0.76964E+08         0.23340E+07         0.00000E+00
    0.23340E+07        -0.96294E+08         0.00000E+00
    0.00000E+00         0.00000E+00        -0.77213E+08
 
   -0.76676E+08         0.23745E+07         0.00000E+00
    0.23745E+07        -0.96184E+08         0.00000E+00
    0.00000E+00         0.00000E+00        -0.76859E+08
 
   -0.76398E+08         0.24004E+07         0.00000E+00
    0.24004E+07        -0.96083E+08         0.00000E+00
    0.00000E+00         0.00000E+00        -0.76522E+08
 
   -0.76126E+08         0.24135E+07         0.00000E+00
    0.24135E+07        -0.95987E+08         0.00000E+00
    0.00000E+00         0.00000E+00        -0.76200E+08
 
   -0.75861E+08         0.24152E+07         0.00000E+00
    0.24152E+07        -0.95895E+08         0.00000E+00
    0.00000E+00         0.00000E+00        -0.75891E+08
 
   -0.75602E+08         0.24070E+07         0.00000E+00
    0.24070E+07        -0.95804E+08         0.00000E+00
    0.00000E+00         0.00000E+00        -0.75593E+08
 
   -0.75349E+08         0.23902E+07         0.00000E+00
    0.23902E+07        -0.95714E+08         0.00000E+00
    0.00000E+00         0.00000E+00        -0.75306E+08
 
   -0.75101E+08         0.23659E+07         0.00000E+00
    0.23659E+07        -0.95624E+08         0.00000E+00
    0.00000E+00         0.00000E+00        -0.75029E+08
 
   -0.74858E+08         0.23352E+07         0.00000E+00
    0.23352E+07        -0.95534E+08         0.00000E+00
    0.00000E+00         0.00000E+00        -0.74761E+08
 
   -0.74620E+08         0.22991E+07         0.00000E+00
    0.22991E+07        -0.95443E+08         0.00000E+00
    0.00000E+00         0.00000E+00        -0.74503E+08
 
   -0.74387E+08         0.22586E+07         0.00000E+00
    0.22586E+07        -0.95351E+08         0.00000E+00
    0.00000E+00         0.00000E+00        -0.74253E+08
 
   -0.74159E+08         0.22145E+07         0.00000E+00
    0.22145E+07        -0.95259E+08         0.00000E+00
    0.00000E+00         0.00000E+00        -0.74012E+08
 
   -0.73937E+08         0.21676E+07         0.00000E+00
    0.21676E+07        -0.95167E+08         0.00000E+00
    0.00000E+00         0.00000E+00        -0.73779E+08
 
   -0.73720E+08         0.21185E+07         0.00000E+00
    0.21185E+07        -0.95074E+08         0.00000E+00
    0.00000E+00         0.00000E+00        -0.73554E+08
 
   -0.73508E+08         0.20680E+07         0.00000E+00
    0.20680E+07        -0.94982E+08         0.00000E+00
    0.00000E+00         0.00000E+00        -0.73336E+08
 
   -0.73301E+08         0.20165E+07         0.00000E+00
    0.20165E+07        -0.94890E+08         0.00000E+00
    0.00000E+00         0.00000E+00        -0.73127E+08
 
   -0.73101E+08         0.19646E+07         0.00000E+00
    0.19646E+07        -0.94798E+08         0.00000E+00
    0.00000E+00         0.00000E+00        -0.72924E+08
 
   -0.72905E+08         0.19128E+07         0.00000E+00
    0.19128E+07        -0.94707E+08         0.00000E+00
    0.00000E+00         0.00000E+00        -0.72728E+08
 
   -0.72715E+08         0.18613E+07         0.00000E+00
    0.18613E+07        -0.94617E+08         0.00000E+00
    0.00000E+00         0.00000E+00        -0.72540E+08
 
   -0.72530E+08         0.18105E+07         0.00000E+00
    0.18105E+07        -0.94528E+08         0.00000E+00
    0.00000E+00         0.00000E+00        -0.72357E+08
 
   -0.72350E+08         0.17607E+07         0.00000E+00
    0.17607E+07        -0.94440E+08         0.00000E+00
    0.00000E+00         0.00000E+00        -0.72181E+08
 
   -0.72175E+08         0.17122E+07         0.00000E+00
    0.17122E+07        -0.94353E+08         0.00000E+00
    0.00000E+00         0.00000E+00        -0.72011E+08
 
   -0.72005E+08         0.16651E+07         0.00000E+00
    0.16651E+07        -0.94267E+08         0.00000E+00
    0.00000E+00         0.00000E+00        -0.71846E+08
 
   -0.71840E+08         0.16196E+07         0.00000E+00
    0.16196E+07        -0.94183E+08         0.00000E+00
    0.00000E+00         0.00000E+00        -0.71686E+08
 
   -0.71679E+08         0.15758E+07         0.00000E+00
    0.15758E+07        -0.94100E+08         0.00000E+00
    0.00000E+00         0.00000E+00        -0.71532E+08
 
   -0.71523E+08         0.15339E+07         0.00000E+00
    0.15339E+07        -0.94018E+08         0.00000E+00
    0.00000E+00         0.00000E+00        -0.71382E+08
 
   -0.71371E+08         0.14940E+07         0.00000E+00
    0.14940E+07        -0.93938E+08         0.00000E+00
    0.00000E+00         0.00000E+00        -0.71237E+08
 
   -0.71222E+08         0.14561E+07         0.00000E+00
    0.14561E+07        -0.93858E+08         0.00000E+00
    0.00000E+00         0.00000E+00        -0.71096E+08
 
   -0.71078E+08         0.14202E+07         0.00000E+00
    0.14202E+07        -0.93780E+08         0.00000E+00
    0.00000E+00         0.00000E+00        -0.70959E+08
 
   -0.70937E+08         0.13864E+07         0.00000E+00
    0.13864E+07        -0.93704E+08         0.00000E+00
    0.00000E+00         0.00000E+00        -0.70826E+08
 
   -0.70799E+08         0.13548E+07         0.00000E+00
    0.13548E+07        -0.93628E+08         0.00000E+00
    0.00000E+00         0.00000E+00        -0.70696E+08
 
   -0.70664E+08         0.13253E+07         0.00000E+00
    0.13253E+07        -0.93553E+08         0.00000E+00
    0.00000E+00         0.00000E+00        -0.70569E+08
 
   -0.70532E+08         0.12980E+07         0.00000E+00
    0.12980E+07        -0.93480E+08         0.00000E+00
    0.00000E+00         0.00000E+00        -0.70445E+08
 
   -0.70403E+08         0.12729E+07         0.00000E+00
    0.12729E+07        -0.93407E+08         0.00000E+00
    0.00000E+00         0.00000E+00        -0.70324E+08
 
   -0.70276E+08         0.12499E+07         0.00000E+00
    0.12499E+07        -0.93336E+08         0.00000E+00
    0.00000E+00         0.00000E+00        -0.70205E+08
 
   -0.70151E+08         0.12291E+07         0.00000E+00
    0.12291E+07        -0.93265E+08         0.00000E+00
    0.00000E+00         0.00000E+00        -0.70088E+08
 
   -0.70028E+08         0.12104E+07         0.00000E+00
    0.12104E+07        -0.93194E+08         0.00000E+00
    0.00000E+00         0.00000E+00        -0.69973E+08
 
   -0.69907E+08         0.11938E+07         0.00000E+00
    0.11938E+07        -0.93125E+08         0.00000E+00
    0.00000E+00         0.00000E+00        -0.69860E+08
 
   -0.69787E+08         0.11793E+07         0.00000E+00
    0.11793E+07        -0.93056E+08         0.00000E+00
    0.00000E+00         0.00000E+00        -0.69748E+08
 
   -0.69668E+08         0.11669E+07         0.00000E+00
    0.11669E+07        -0.92987E+08         0.00000E+00
    0.00000E+00         0.00000E+00        -0.69637E+08
 
   -0.69551E+08         0.11564E+07         0.00000E+00
    0.11564E+07        -0.92919E+08         0.00000E+00
    0.00000E+00         0.00000E+00        -0.69527E+08
 
   -0.69434E+08         0.11480E+07         0.00000E+00
    0.11480E+07        -0.92851E+08         0.00000E+00
    0.00000E+00         0.00000E+00        -0.69418E+08
 
   -0.69318E+08         0.11416E+07         0.00000E+00
    0.11416E+07        -0.92783E+08         0.00000E+00
    0.00000E+00         0.00000E+00        -0.69310E+08
 
   -0.69202E+08         0.11371E+07         0.00000E+00
    0.11371E+07        -0.92715E+08         0.00000E+00
    0.00000E+00         0.00000E+00        -0.69201E+08
 
   -0.69086E+08         0.11345E+07         0.00000E+00
    0.11345E+07        -0.92647E+08         0.00000E+00
    0.00000E+00         0.00000E+00        -0.69093E+08
 
   -0.68970E+08         0.11337E+07         0.00000E+00
    0.11337E+07        -0.92579E+08         0.00000E+00
    0.00000E+00         0.00000E+00        -0.68984E+08
 
   -0.68854E+08         0.11348E+07         0.00000E+00
    0.11348E+07        -0.92510E+08         0.00000E+00
    0.00000E+00         0.00000E+00        -0.68876E+08
 
   -0.68738E+08         0.11376E+07         0.00000E+00
    0.11376E+07        -0.92441E+08         0.00000E+00
    0.00000E+00         0.00000E+00        -0.68766E+08
 
   -0.68621E+08         0.11421E+07         0.00000E+00
    0.11421E+07        -0.92372E+08         0.00000E+00
    0.00000E+00         0.00000E+00        -0.68656E+08
 
   -0.68502E+08         0.11482E+07         0.00000E+00
    0.11482E+07        -0.92303E+08         0.00000E+00
    0.00000E+00         0.00000E+00        -0.68544E+08
 
   -0.68383E+08         0.11559E+07         0.00000E+00
    0.11559E+07        -0.92233E+08         0.00000E+00
    0.00000E+00         0.00000E+00        -0.68431E+08
 
   -0.68263E+08         0.11651E+07         0.00000E+00
    0.11651E+07        -0.92162E+08         0.00000E+00
    0.00000E+00         0.00000E+00        -0.68317E+08
 
   -0.68141E+08         0.11756E+07         0.00000E+00
    0.11756E+07        -0.92090E+08         0.00000E+00
    0.00000E+00         0.00000E+00        -0.68201E+08
 
   -0.68017E+08         0.11875E+07         0.00000E+00
    0.11875E+07        -0.92018E+08         0.00000E+00
    0.00000E+00         0.00000E+00        -0.68083E+08
 
   -0.67891E+08         0.12006E+07         0.00000E+00
    0.12006E+07        -0.91945E+08         0.00000E+00
    0.00000E+00         0.00000E+00        -0.67963E+08
 
   -0.67764E+08         0.12148E+07         0.00000E+00
    0.12148E+07        -0.91871E+08         0.00000E+00
    0.00000E+00         0.00000E+00        -0.67840E+08
 
   -0.67634E+08         0.12299E+07         0.00000E+00
    0.12299E+07        -0.91796E+08         0.00000E+00
    0.00000E+00         0.00000E+00        -0.67715E+08
 
   -0.67501E+08         0.12458E+07         0.00000E+00
    0.12458E+07        -0.91720E+08         0.00000E+00
    0.00000E+00         0.00000E+00        -0.67587E+08
 
   -0.67366E+08         0.12624E+07         0.00000E+00
    0.12624E+07        -0.91644E+08         0.00000E+00
    0.00000E+00         0.00000E+00        -0.67455E+08
 
   -0.67228E+08         0.12794E+07         0.00000E+00
    0.12794E+07        -0.91566E+08         0.00000E+00
    0.00000E+00         0.00000E+00        -0.67320E+08
 
   -0.67087E+08         0.12965E+07         0.00000E+00
    0.12965E+07        -0.91488E+08         0.00000E+00
    0.00000E+00         0.00000E+00        -0.67182E+08
 
   -0.66943E+08         0.13137E+07         0.00000E+00
    0.13137E+07        -0.91409E+08         0.00000E+00
    0.00000E+00         0.00000E+00        -0.67039E+08
 
   -0.66796E+08         0.13306E+07         0.00000E+00
    0.13306E+07        -0.91329E+08         0.00000E+00
    0.00000E+00         0.00000E+00        -0.66893E+08
 
   -0.66645E+08         0.13469E+07         0.00000E+00
    0.13469E+07        -0.91249E+08         0.00000E+00
    0.00000E+00         0.00000E+00        -0.66741E+08
 
   -0.66491E+08         0.13623E+07         0.00000E+00
    0.13623E+07        -0.91168E+08         0.00000E+00
    0.00000E+00         0.00000E+00        -0.66586E+08
 
   -0.66333E+08         0.13764E+07         0.00000E+00
    0.13764E+07        -0.91088E+08         0.00000E+00
    0.00000E+00         0.00000E+00        -0.66425E+08
 
   -0.66172E+08         0.13888E+07         0.00000E+00
    0.13888E+07        -0.91007E+08         0.00000E+00
    0.00000E+00         0.00000E+00        -0.66259E+08
 
   -0.66006E+08         0.13991E+07         0.00000E+00
    0.13991E+07        -0.90926E+08         0.00000E+00
    0.00000E+00         0.00000E+00        -0.66088E+08
 
   -0.65836E+08         0.14069E+07         0.00000E+00
    0.14069E+07        -0.90846E+08         0.00000E+00
    0.00000E+00         0.00000E+00        -0.65911E+08
 
   -0.65662E+08         0.14116E+07         0.00000E+00
    0.14116E+07        -0.90767E+08         0.00000E+00
    0.00000E+00         0.00000E+00        -0.65728E+08
 
   -0.65483E+08         0.14126E+07         0.00000E+00
    0.14126E+07        -0.90688E+08         0.00000E+00
    0.00000E+00         0.00000E+00        -0.65539E+08
 
   -0.65300E+08         0.14096E+07         0.00000E+00
    0.14096E+07        -0.90610E+08         0.00000E+00
    0.00000E+00         0.00000E+00        -0.65343E+08
 
   -0.65112E+08         0.14019E+07         0.00000E+00
    0.14019E+07        -0.90534E+08         0.00000E+00
    0.00000E+00         0.00000E+00        -0.65141E+08
 
   -0.64918E+08         0.13889E+07         0.00000E+00
    0.13889E+07        -0.90459E+08         0.00000E+00
    0.00000E+00         0.00000E+00        -0.64931E+08
 
   -0.64719E+08         0.13702E+07         0.00000E+00
    0.13702E+07        -0.90385E+08         0.00000E+00
    0.00000E+00         0.00000E+00        -0.64713E+08
 
   -0.64514E+08         0.13452E+07         0.00000E+00
    0.13452E+07        -0.90312E+08         0.00000E+00
    0.00000E+00         0.00000E+00        -0.64487E+08
 
   -0.64301E+08         0.13133E+07         0.00000E+00
    0.13133E+07        -0.90240E+08         0.00000E+00
    0.00000E+00         0.00000E+00        -0.64252E+08
 
   -0.64082E+08         0.12744E+07         0.00000E+00
    0.12744E+07        -0.90166E+08         0.00000E+00
    0.00000E+00         0.00000E+00        -0.64006E+08
 
   -0.63853E+08         0.12279E+07         0.00000E+00
    0.12279E+07        -0.90090E+08         0.00000E+00
    0.00000E+00         0.00000E+00        -0.63750E+08
 
   -0.63614E+08         0.11737E+07         0.00000E+00
    0.11737E+07        -0.90009E+08         0.00000E+00
    0.00000E+00         0.00000E+00        -0.63481E+08
 
   -0.63362E+08         0.11116E+07         0.00000E+00
    0.11116E+07        -0.89921E+08         0.00000E+00
    0.00000E+00         0.00000E+00        -0.63197E+08
 
   -0.63097E+08         0.10415E+07         0.00000E+00
    0.10415E+07        -0.89821E+08         0.00000E+00
    0.00000E+00         0.00000E+00        -0.62895E+08
 
   -0.62815E+08         0.96334E+06         0.00000E+00
    0.96334E+06        -0.89704E+08         0.00000E+00
    0.00000E+00         0.00000E+00        -0.62572E+08
 
   -0.62514E+08         0.87667E+06         0.00000E+00
    0.87667E+06        -0.89564E+08         0.00000E+00
    0.00000E+00         0.00000E+00        -0.62222E+08
 
   -0.62192E+08         0.78065E+06         0.00000E+00
    0.78065E+06        -0.89393E+08         0.00000E+00
    0.00000E+00         0.00000E+00        -0.61839E+08
 
   -0.61846E+08         0.67357E+06         0.00000E+00
    0.67357E+06        -0.89182E+08         0.00000E+00
    0.00000E+00         0.00000E+00        -0.61415E+08
 
   -0.61476E+08         0.55245E+06         0.00000E+00
    0.55245E+06        -0.88921E+08         0.00000E+00
    0.00000E+00         0.00000E+00        -0.60940E+08
 
   -0.61087E+08         0.41359E+06         0.00000E+00
    0.41359E+06        -0.88603E+08         0.00000E+00
    0.00000E+00         0.00000E+00        -0.60400E+08
 
   -0.60690E+08         0.25652E+06         0.00000E+00
    0.25652E+06        -0.88222E+08         0.00000E+00
    0.00000E+00         0.00000E+00        -0.59781E+08
 
   -0.60306E+08         0.87129E+05         0.00000E+00
    0.87129E+05        -0.87788E+08         0.00000E+00
    0.00000E+00         0.00000E+00        -0.59073E+08
 
   -0.81329E+08         0.16491E+06         0.00000E+00
    0.16491E+06        -0.98509E+08         0.00000E+00
    0.00000E+00         0.00000E+00        -0.84188E+08
 
   -0.81137E+08         0.49163E+06         0.00000E+00
    0.49163E+06        -0.97756E+08         0.00000E+00
    0.00000E+00         0.00000E+00        -0.83291E+08
 
   -0.80785E+08         0.80294E+06         0.00000E+00
    0.80294E+06        -0.97195E+08         0.00000E+00
    0.00000E+00         0.00000E+00        -0.82435E+08
 
   -0.80322E+08         0.10846E+07         0.00000E+00
    0.10846E+07        -0.96815E+08         0.00000E+00
    0.00000E+00         0.00000E+00        -0.81616E+08
 
   -0.79796E+08         0.13334E+07         0.00000E+00
    0.13334E+07        -0.96585E+08         0.00000E+00
    0.00000E+00         0.00000E+00        -0.80833E+08
 
   -0.79241E+08         0.15535E+07         0.00000E+00
    0.15535E+07        -0.96469E+08         0.00000E+00
    0.00000E+00         0.00000E+00        -0.80086E+08
 
   -0.78676E+08         0.17495E+07         0.00000E+00
    0.17495E+07        -0.96438E+08         0.00000E+00
    0.00000E+00         0.00000E+00        -0.79371E+08
 
   -0.78116E+08         0.19243E+07         0.00000E+00
    0.19243E+07        -0.96468E+08         0.00000E+00
    0.00000E+00         0.00000E+00        -0.78687E+08
 
   -0.77596E+08         0.20727E+07         0.00000E+00
    0.20727E+07        -0.96507E+08         0.00000E+00
    0.00000E+00         0.00000E+00        -0.78062E+08
 
   -0.77225E+08         0.21713E+07         0.00000E+00
    0.21713E+07        -0.96435E+08         0.00000E+00
    0.00000E+00         0.00000E+00        -0.77594E+08
 
   -0.76933E+08         0.22353E+07         0.00000E+00
    0.22353E+07        -0.96312E+08         0.00000E+00
    0.00000E+00         0.00000E+00        -0.77215E+08
 
   -0.76651E+08         0.22822E+07         0.00000E+00
    0.22822E+07        -0.96201E+08         0.00000E+00
    0.00000E+00         0.00000E+00        -0.76858E+08
 
   -0.76377E+08         0.23140E+07         0.00000E+00
    0.23140E+07        -0.96100E+08         0.00000E+00
    0.00000E+00         0.00000E+00        -0.76518E+08
 
   -0.76110E+08         0.23323E+07         0.00000E+00
    0.23323E+07        -0.96003E+08         0.00000E+00
    0.00000E+00         0.00000E+00        -0.76194E+08
 
   -0.75849E+08         0.23388E+07         0.00000E+00
    0.23388E+07        -0.95910E+08         0.00000E+00
    0.00000E+00         0.00000E+00        -0.75882E+08
 
   -0.75593E+08         0.23349E+07         0.00000E+00
    0.23349E+07        -0.95819E+08         0.00000E+00
    0.00000E+00         0.00000E+00        -0.75583E+08
 
   -0.75342E+08         0.23219E+07         0.00000E+00
    0.23219E+07        -0.95728E+08         0.00000E+00
    0.00000E+00         0.00000E+00        -0.75294E+08
 
   -0.75097E+08         0.23011E+07         0.00000E+00
    0.23011E+07        -0.95637E+08         0.00000E+00
    0.00000E+00         0.00000E+00        -0.75016E+08
 
   -0.74856E+08         0.22736E+07         0.00000E+00
    0.22736E+07        -0.95546E+08         0.00000E+00
    0.00000E+00         0.00000E+00        -0.74748E+08
 
   -0.74620E+08         0.22404E+07         0.00000E+00
    0.22404E+07        -0.95454E+08         0.00000E+00
    0.00000E+00         0.00000E+00        -0.74489E+08
 
   -0.74388E+08         0.22025E+07         0.00000E+00
    0.22025E+07        -0.95362E+08         0.00000E+00
    0.00000E+00         0.00000E+00        -0.74238E+08
 
   -0.74162E+08         0.21608E+07         0.00000E+00
    0.21608E+07        -0.95269E+08         0.00000E+00
    0.00000E+00         0.00000E+00        -0.73997E+08
 
   -0.73940E+08         0.21161E+07         0.00000E+00
    0.21161E+07        -0.95176E+08         0.00000E+00
    0.00000E+00         0.00000E+00        -0.73764E+08
 
   -0.73724E+08         0.20691E+07         0.00000E+00
    0.20691E+07        -0.95083E+08         0.00000E+00
    0.00000E+00         0.00000E+00        -0.73539E+08
 
   -0.73513E+08         0.20205E+07         0.00000E+00
    0.20205E+07        -0.94990E+08         0.00000E+00
    0.00000E+00         0.00000E+00        -0.73321E+08
 
   -0.73307E+08         0.19709E+07         0.00000E+00
    0.19709E+07        -0.94897E+08         0.00000E+00
    0.00000E+00         0.00000E+00        -0.73112E+08
 
   -0.73106E+08         0.19207E+07         0.00000E+00
    0.19207E+07        -0.94805E+08         0.00000E+00
    0.00000E+00         0.00000E+00        -0.72910E+08
 
   -0.72911E+08         0.18704E+07         0.00000E+00
    0.18704E+07        -0.94714E+08         0.00000E+00
    0.00000E+00         0.00000E+00        -0.72714E+08
 
   -0.72721E+08         0.18204E+07         0.00000E+00
    0.18204E+07        -0.94623E+08         0.00000E+00
    0.00000E+00         0.00000E+00        -0.72526E+08
 
   -0.72536E+08         0.17710E+07         0.00000E+00
    0.17710E+07        -0.94534E+08         0.00000E+00
    0.00000E+00         0.00000E+00        -0.72344E+08
 
   -0.72356E+08         0.17226E+07         0.00000E+00
    0.17226E+07        -0.94445E+08         0.00000E+00
    0.00000E+00         0.00000E+00        -0.72168E+08
 
   -0.72181E+08         0.16753E+07         0.00000E+00
    0.16753E+07        -0.94358E+08         0.00000E+00
    0.00000E+00         0.00000E+00        -0.71998E+08
 
   -0.72011E+08         0.16294E+07         0.00000E+00
    0.16294E+07        -0.94272E+08         0.00000E+00
    0.00000E+00         0.00000E+00        -0.71834E+08
 
   -0.71846E+08         0.15850E+07         0.00000E+00
    0.15850E+07        -0.94187E+08         0.00000E+00
    0.00000E+00         0.00000E+00        -0.71675E+08
 
   -0.71685E+08         0.15423E+07         0.00000E+00
    0.15423E+07        -0.94104E+08         0.00000E+00
    0.00000E+00         0.00000E+00        -0.71521E+08
 
   -0.71528E+08         0.15014E+07         0.00000E+00
    0.15014E+07        -0.94022E+08         0.00000E+00
    0.00000E+00         0.00000E+00        -0.71372E+08
 
   -0.71376E+08         0.14623E+07         0.00000E+00
    0.14623E+07        -0.93941E+08         0.00000E+00
    0.00000E+00         0.00000E+00        -0.71227E+08
 
   -0.71227E+08         0.14253E+07         0.00000E+00
    0.14253E+07        -0.93862E+08         0.00000E+00
    0.00000E+00         0.00000E+00        -0.71087E+08
 
   -0.71082E+08         0.13902E+07         0.00000E+00
    0.13902E+07        -0.93784E+08         0.00000E+00
    0.00000E+00         0.00000E+00        -0.70951E+08
 
   -0.70941E+08         0.13572E+07         0.00000E+00
    0.13572E+07        -0.93707E+08         0.00000E+00
    0.00000E+00         0.00000E+00        -0.70818E+08
 
   -0.70803E+08         0.13262E+07         0.00000E+00
    0.13262E+07        -0.93631E+08         0.00000E+00
    0.00000E+00         0.00000E+00        -0.70688E+08
 
   -0.70668E+08         0.12974E+07         0.00000E+00
    0.12974E+07        -0.93556E+08         0.00000E+00
    0.00000E+00         0.00000E+00        -0.70562E+08
 
   -0.70535E+08         0.12707E+07         0.00000E+00
    0.12707E+07        -0.93482E+08         0.00000E+00
    0.00000E+00         0.00000E+00        -0.70438E+08
 
   -0.70405E+08         0.12461E+07         0.00000E+00
    0.12461E+07        -0.93410E+08         0.00000E+00
    0.00000E+00         0.00000E+00        -0.70318E+08
 
   -0.70278E+08         0.12236E+07         0.00000E+00
    0.12236E+07        -0.93338E+08         0.00000E+00
    0.00000E+00         0.00000E+00        -0.70199E+08
 
   -0.70153E+08         0.12032E+07         0.00000E+00
    0.12032E+07        -0.93267E+08         0.00000E+00
    0.00000E+00         0.00000E+00        -0.70083E+08
 
   -0.70029E+08         0.11848E+07         0.00000E+00
    0.11848E+07        -0.93196E+08         0.00000E+00
    0.00000E+00         0.00000E+00        -0.69968E+08
 
   -0.69908E+08         0.11686E+07         0.00000E+00
    0.11686E+07        -0.93127E+08         0.00000E+00
    0.00000E+00         0.00000E+00        -0.69855E+08
 
   -0.69787E+08         0.11543E+07         0.00000E+00
    0.11543E+07        -0.93057E+08         0.00000E+00
    0.00000E+00         0.00000E+00        -0.69744E+08
 
   -0.69668E+08         0.11421E+07         0.00000E+00
    0.11421E+07        -0.92989E+08         0.00000E+00
    0.00000E+00         0.00000E+00        -0.69634E+08
 
   -0.69550E+08         0.11319E+07         0.00000E+00
    0.11319E+07        -0.92920E+08         0.00000E+00
    0.00000E+00         0.00000E+00        -0.69524E+08
 
   -0.69433E+08         0.11236E+07         0.00000E+00
    0.11236E+07        -0.92852E+08         0.00000E+00
    0.00000E+00         0.00000E+00        -0.69416E+08
 
   -0.69316E+08         0.11173E+07         0.00000E+00
    0.11173E+07        -0.92784E+08         0.00000E+00
    0.00000E+00         0.00000E+00        -0.69307E+08
 
   -0.69200E+08         0.11128E+07         0.00000E+00
    0.11128E+07        -0.92716E+08         0.00000E+00
    0.00000E+00         0.00000E+00        -0.69199E+08
 
   -0.69084E+08         0.11102E+07         0.00000E+00
    0.11102E+07        -0.92648E+08         0.00000E+00
    0.00000E+00         0.00000E+00        -0.69092E+08
 
   -0.68968E+08         0.11094E+07         0.00000E+00
    0.11094E+07        -0.92580E+08         0.00000E+00
    0.00000E+00         0.00000E+00        -0.68983E+08
 
   -0.68851E+08         0.11103E+07         0.00000E+00
    0.11103E+07        -0.92511E+08         0.00000E+00
    0.00000E+00         0.00000E+00        -0.68875E+08
 
   -0.68734E+08         0.11130E+07         0.00000E+00
    0.11130E+07        -0.92443E+08         0.00000E+00
    0.00000E+00         0.00000E+00        -0.68766E+08
 
   -0.68617E+08         0.11173E+07         0.00000E+00
    0.11173E+07        -0.92373E+08         0.00000E+00
    0.00000E+00         0.00000E+00        -0.68656E+08
 
   -0.68498E+08         0.11232E+07         0.00000E+00
    0.11232E+07        -0.92304E+08         0.00000E+00
    0.00000E+00         0.00000E+00        -0.68545E+08
 
   -0.68378E+08         0.11307E+07         0.00000E+00
    0.11307E+07        -0.92233E+08         0.00000E+00
    0.00000E+00         0.00000E+00        -0.68432E+08
 
   -0.68258E+08         0.11395E+07         0.00000E+00
    0.11395E+07        -0.92163E+08         0.00000E+00
    0.00000E+00         0.00000E+00        -0.68318E+08
 
   -0.68135E+08         0.11498E+07         0.00000E+00
    0.11498E+07        -0.92091E+08         0.00000E+00
    0.00000E+00         0.00000E+00        -0.68202E+08
 
   -0.68011E+08         0.11613E+07         0.00000E+00
    0.11613E+07        -0.92019E+08         0.00000E+00
    0.00000E+00         0.00000E+00        -0.68085E+08
 
   -0.67885E+08         0.11739E+07         0.00000E+00
    0.11739E+07        -0.91945E+08         0.00000E+00
    0.00000E+00         0.00000E+00        -0.67965E+08
 
   -0.67757E+08         0.11877E+07         0.00000E+00
    0.11877E+07        -0.91871E+08         0.00000E+00
    0.00000E+00         0.00000E+00        -0.67842E+08
 
   -0.67626E+08         0.12023E+07         0.00000E+00
    0.12023E+07        -0.91796E+08         0.00000E+00
    0.00000E+00         0.00000E+00        -0.67717E+08
 
   -0.67494E+08         0.12177E+07         0.00000E+00
    0.12177E+07        -0.91721E+08         0.00000E+00
    0.00000E+00         0.00000E+00        -0.67589E+08
 
   -0.67358E+08         0.12337E+07         0.00000E+00
    0.12337E+07        -0.91644E+08         0.00000E+00
    0.00000E+00         0.00000E+00        -0.67457E+08
 
   -0.67220E+08         0.12500E+07         0.00000E+00
    0.12500E+07        -0.91566E+08         0.00000E+00
    0.00000E+00         0.00000E+00        -0.67322E+08
 
   -0.67079E+08         0.12666E+07         0.00000E+00
    0.12666E+07        -0.91488E+08         0.00000E+00
    0.00000E+00         0.00000E+00        -0.67184E+08
 
   -0.66935E+08         0.12831E+07         0.00000E+00
    0.12831E+07        -0.91409E+08         0.00000E+00
    0.00000E+00         0.00000E+00        -0.67041E+08
 
   -0.66787E+08         0.12993E+07         0.00000E+00
    0.12993E+07        -0.91329E+08         0.00000E+00
    0.00000E+00         0.00000E+00        -0.66895E+08
 
   -0.66637E+08         0.13149E+07         0.00000E+00
    0.13149E+07        -0.91249E+08         0.00000E+00
    0.00000E+00         0.00000E+00        -0.66744E+08
 
   -0.66482E+08         0.13295E+07         0.00000E+00
    0.13295E+07        -0.91168E+08         0.00000E+00
    0.00000E+00         0.00000E+00        -0.66588E+08
 
   -0.66324E+08         0.13429E+07         0.00000E+00
    0.13429E+07        -0.91088E+08         0.00000E+00
    0.00000E+00         0.00000E+00        -0.66427E+08
 
   -0.66163E+08         0.13545E+07         0.00000E+00
    0.13545E+07        -0.91007E+08         0.00000E+00
    0.00000E+00         0.00000E+00        -0.66261E+08
 
   -0.65997E+08         0.13640E+07         0.00000E+00
    0.13640E+07        -0.90926E+08         0.00000E+00
    0.00000E+00         0.00000E+00        -0.66089E+08
 
   -0.65827E+08         0.13710E+07         0.00000E+00
    0.13710E+07        -0.90846E+08         0.00000E+00
    0.00000E+00         0.00000E+00        -0.65911E+08
 
   -0.65654E+08         0.13748E+07         0.00000E+00
    0.13748E+07        -0.90766E+08         0.00000E+00
    0.00000E+00         0.00000E+00        -0.65728E+08
 
   -0.65475E+08         0.13750E+07         0.00000E+00
    0.13750E+07        -0.90688E+08         0.00000E+00
    0.00000E+00         0.00000E+00        -0.65538E+08
 
   -0.65293E+08         0.13711E+07         0.00000E+00
    0.13711E+07        -0.90610E+08         0.00000E+00
    0.00000E+00         0.00000E+00        -0.65341E+08
 
   -0.65105E+08         0.13624E+07         0.00000E+00
    0.13624E+07        -0.90534E+08         0.00000E+00
    0.00000E+00         0.00000E+00        -0.65138E+08
 
   -0.64913E+08         0.13484E+07         0.00000E+00
    0.13484E+07        -0.90459E+08         0.00000E+00
    0.00000E+00         0.00000E+00        -0.64927E+08
 
   -0.64715E+08         0.13286E+07         0.00000E+00
    0.13286E+07        -0.90385E+08         0.00000E+00
    0.00000E+00         0.00000E+00        -0.64708E+08
 
   -0.64511E+08         0.13025E+07         0.00000E+00
    0.13025E+07        -0.90312E+08         0.00000E+00
    0.00000E+00         0.00000E+00        -0.64480E+08
 
   -0.64300E+08         0.12695E+07         0.00000E+00
    0.12695E+07        -0.90239E+08         0.00000E+00
    0.00000E+00         0.00000E+00        -0.64244E+08
 
   -0.64082E+08         0.12292E+07         0.00000E+00
    0.12292E+07        -0.90166E+08         0.00000E+00
    0.00000E+00         0.00000E+00        -0.63997E+08
 
   -0.63855E+08         0.11814E+07         0.00000E+00
    0.11814E+07        -0.90090E+08         0.00000E+00
    0.00000E+00         0.00000E+00        -0.63739E+08
 
   -0.63619E+08         0.11259E+07         0.00000E+00
    0.11259E+07        -0.90010E+08         0.00000E+00
    0.00000E+00         0.00000E+00        -0.63468E+08
 
   -0.63370E+08         0.10624E+07         0.00000E+00
    0.10624E+07        -0.89922E+08         0.00000E+00
    0.00000E+00         0.00000E+00        -0.63183E+08
 
   -0.63108E+08         0.99113E+06         0.00000E+00
    0.99113E+06        -0.89823E+08         0.00000E+00
    0.00000E+00         0.00000E+00        -0.62879E+08
 
   -0.62830E+08         0.91192E+06         0.00000E+00
    0.91192E+06        -0.89707E+08         0.00000E+00
    0.00000E+00         0.00000E+00        -0.62554E+08
 
   -0.62533E+08         0.82469E+06         0.00000E+00
    0.82469E+06        -0.89569E+08         0.00000E+00
    0.00000E+00         0.00000E+00        -0.62202E+08
 
   -0.62216E+08         0.72893E+06         0.00000E+00
    0.72893E+06        -0.89399E+08         0.00000E+00
    0.00000E+00         0.00000E+00        -0.61816E+08
 
   -0.61876E+08         0.62347E+06         0.00000E+00
    0.62347E+06        -0.89190E+08         0.00000E+00
    0.00000E+00         0.00000E+00        -0.61390E+08
 
   -0.61515E+08         0.50619E+06         0.00000E+00
    0.50619E+06        -0.88932E+08         0.00000E+00
    0.00000E+00         0.00000E+00        -0.60911E+08
 
   -0.61135E+08         0.37487E+06         0.00000E+00
    0.37487E+06        -0.88617E+08         0.00000E+00
    0.00000E+00         0.00000E+00        -0.60367E+08
 
   -0.60748E+08         0.23035E+06         0.00000E+00
    0.23035E+06        -0.88240E+08         0.00000E+00
    0.00000E+00         0.00000E+00        -0.59744E+08
 
   -0.60372E+08         0.77832E+05         0.00000E+00
    0.77832E+05        -0.87808E+08         0.00000E+00
    0.00000E+00         0.00000E+00        -0.59033E+08
 
   -0.81122E+08         0.14617E+06         0.00000E+00
    0.14617E+06        -0.98571E+08         0.00000E+00
    0.00000E+00         0.00000E+00        -0.84188E+08
 
   -0.80946E+08         0.43803E+06         0.00000E+00
    0.43803E+06        -0.97817E+08         0.00000E+00
    0.00000E+00         0.00000E+00        -0.83291E+08
 
   -0.80618E+08         0.72214E+06         0.00000E+00
    0.72214E+06        -0.97253E+08         0.00000E+00
    0.00000E+00         0.00000E+00        -0.82435E+08
 
   -0.80180E+08         0.98659E+06         0.00000E+00
    0.98659E+06        -0.96867E+08         0.00000E+00
    0.00000E+00         0.00000E+00        -0.81616E+08
 
   -0.79677E+08         0.12262E+07         0.00000E+00
    0.12262E+07        -0.96631E+08         0.00000E+00
    0.00000E+00         0.00000E+00        -0.80833E+08
 
   -0.79141E+08         0.14424E+07         0.00000E+00
    0.14424E+07        -0.96510E+08         0.00000E+00
    0.00000E+00         0.00000E+00        -0.80086E+08
 
   -0.78593E+08         0.16380E+07         0.00000E+00
    0.16380E+07        -0.96475E+08         0.00000E+00
    0.00000E+00         0.00000E+00        -0.79371E+08
 
   -0.78046E+08         0.18143E+07         0.00000E+00
    0.18143E+07        -0.96501E+08         0.00000E+00
    0.00000E+00         0.00000E+00        -0.78687E+08
 
   -0.77546E+08         0.19644E+07         0.00000E+00
    0.19644E+07        -0.96530E+08         0.00000E+00
    0.00000E+00         0.00000E+00        -0.78068E+08
 
   -0.77189E+08         0.20675E+07         0.00000E+00
    0.20675E+07        -0.96452E+08         0.00000E+00
    0.00000E+00         0.00000E+00        -0.77601E+08
 
   -0.76903E+08         0.21382E+07         0.00000E+00
    0.21382E+07        -0.96329E+08         0.00000E+00
    0.00000E+00         0.00000E+00        -0.77219E+08
 
   -0.76626E+08         0.21912E+07         0.00000E+00
    0.21912E+07        -0.96218E+08         0.00000E+00
    0.00000E+00         0.00000E+00        -0.76858E+08
 
   -0.76357E+08         0.22286E+07         0.00000E+00
    0.22286E+07        -0.96116E+08         0.00000E+00
    0.00000E+00         0.00000E+00        -0.76515E+08
 
   -0.76094E+08         0.22520E+07         0.00000E+00
    0.22520E+07        -0.96019E+08         0.00000E+00
    0.00000E+00         0.00000E+00        -0.76188E+08
 
   -0.75837E+08         0.22631E+07         0.00000E+00
    0.22631E+07        -0.95926E+08         0.00000E+00
    0.00000E+00         0.00000E+00        -0.75875E+08
 
   -0.75584E+08         0.22634E+07         0.00000E+00
    0.22634E+07        -0.95833E+08         0.00000E+00
    0.00000E+00         0.00000E+00        -0.75573E+08
 
   -0.75337E+08         0.22541E+07         0.00000E+00
    0.22541E+07        -0.95742E+08         0.00000E+00
    0.00000E+00         0.00000E+00        -0.75284E+08
 
   -0.75093E+08         0.22367E+07         0.00000E+00
    0.22367E+07        -0.95650E+08         0.00000E+00
    0.00000E+00         0.00000E+00        -0.75004E+08
 
   -0.74854E+08         0.22122E+07         0.00000E+00
    0.22122E+07        -0.95558E+08         0.00000E+00
    0.00000E+00         0.00000E+00        -0.74735E+08
 
   -0.74620E+08         0.21818E+07         0.00000E+00
    0.21818E+07        -0.95465E+08         0.00000E+00
    0.00000E+00         0.00000E+00        -0.74475E+08
 
   -0.74390E+08         0.21465E+07         0.00000E+00
    0.21465E+07        -0.95372E+08         0.00000E+00
    0.00000E+00         0.00000E+00        -0.74224E+08
 
   -0.74165E+08         0.21072E+07         0.00000E+00
    0.21072E+07        -0.95279E+08         0.00000E+00
    0.00000E+00         0.00000E+00        -0.73983E+08
 
   -0.73944E+08         0.20647E+07         0.00000E+00
    0.20647E+07        -0.95185E+08         0.00000E+00
    0.00000E+00         0.00000E+00        -0.73749E+08
 
   -0.73729E+08         0.20197E+07         0.00000E+00
    0.20197E+07        -0.95091E+08         0.00000E+00
    0.00000E+00         0.00000E+00        -0.73524E+08
 
   -0.73518E+08         0.19730E+07         0.00000E+00
    0.19730E+07        -0.94998E+08         0.00000E+00
    0.00000E+00         0.00000E+00        -0.73307E+08
 
   -0.73313E+08         0.19251E+07         0.00000E+00
    0.19251E+07        -0.94905E+08         0.00000E+00
    0.00000E+00         0.00000E+00        -0.73097E+08
 
   -0.73113E+08         0.18766E+07         0.00000E+00
    0.18766E+07        -0.94812E+08         0.00000E+00
    0.00000E+00         0.00000E+00        -0.72895E+08
 
   -0.72917E+08         0.18279E+07         0.00000E+00
    0.18279E+07        -0.94720E+08         0.00000E+00
    0.00000E+00         0.00000E+00        -0.72700E+08
 
   -0.72728E+08         0.17794E+07         0.00000E+00
    0.17794E+07        -0.94629E+08         0.00000E+00
    0.00000E+00         0.00000E+00        -0.72512E+08
 
   -0.72543E+08         0.17314E+07         0.00000E+00
    0.17314E+07        -0.94540E+08         0.00000E+00
    0.00000E+00         0.00000E+00        -0.72331E+08
 
   -0.72363E+08         0.16843E+07         0.00000E+00
    0.16843E+07        -0.94451E+08         0.00000E+00
    0.00000E+00         0.00000E+00        -0.72155E+08
 
   -0.72188E+08         0.16382E+07         0.00000E+00
    0.16382E+07        -0.94363E+08         0.00000E+00
    0.00000E+00         0.00000E+00        -0.71986E+08
 
   -0.72018E+08         0.15935E+07         0.00000E+00
    0.15935E+07        -0.94277E+08         0.00000E+00
    0.00000E+00         0.00000E+00        -0.71822E+08
 
   -0.71852E+08         0.15502E+07         0.00000E+00
    0.15502E+07        -0.94192E+08         0.00000E+00
    0.00000E+00         0.00000E+00        -0.71664E+08
 
   -0.71691E+08         0.15085E+07         0.00000E+00
    0.15085E+07        -0.94108E+08         0.00000E+00
    0.00000E+00         0.00000E+00        -0.71510E+08
 
   -0.71534E+08         0.14686E+07         0.00000E+00
    0.14686E+07        -0.94026E+08         0.00000E+00
    0.00000E+00         0.00000E+00        -0.71362E+08
 
   -0.71381E+08         0.14304E+07         0.00000E+00
    0.14304E+07        -0.93945E+08         0.00000E+00
    0.00000E+00         0.00000E+00        -0.71218E+08
 
   -0.71232E+08         0.13942E+07         0.00000E+00
    0.13942E+07        -0.93865E+08         0.00000E+00
    0.00000E+00         0.00000E+00        -0.71078E+08
 
   -0.71087E+08         0.13600E+07         0.00000E+00
    0.13600E+07        -0.93787E+08         0.00000E+00
    0.00000E+00         0.00000E+00        -0.70942E+08
 
   -0.70945E+08         0.13277E+07         0.00000E+00
    0.13277E+07        -0.93710E+08         0.00000E+00
    0.00000E+00         0.00000E+00        -0.70810E+08
 
   -0.70807E+08         0.12974E+07         0.00000E+00
    0.12974E+07        -0.93634E+08         0.00000E+00
    0.00000E+00         0.00000E+00        -0.70681E+08
 
   -0.70671E+08         0.12692E+07         0.00000E+00
    0.12692E+07        -0.93559E+08         0.00000E+00
    0.00000E+00         0.00000E+00        -0.70555E+08
 
   -0.70538E+08         0.12431E+07         0.00000E+00
    0.12431E+07        -0.93485E+08         0.00000E+00
    0.00000E+00         0.00000E+00        -0.70432E+08
 
   -0.70408E+08         0.12190E+07         0.00000E+00
    0.12190E+07        -0.93412E+08         0.00000E+00
    0.00000E+00         0.00000E+00        -0.70312E+08
 
   -0.70280E+08         0.11970E+07         0.00000E+00
    0.11970E+07        -0.93340E+08         0.00000E+00
    0.00000E+00         0.00000E+00        -0.70194E+08
 
   -0.70155E+08         0.11770E+07         0.00000E+00
    0.11770E+07        -0.93269E+08         0.00000E+00
    0.00000E+00         0.00000E+00        -0.70078E+08
 
   -0.70031E+08         0.11591E+07         0.00000E+00
    0.11591E+07        -0.93198E+08         0.00000E+00
    0.00000E+00         0.00000E+00        -0.69964E+08
 
   -0.69909E+08         0.11431E+07         0.00000E+00
    0.11431E+07        -0.93129E+08         0.00000E+00
    0.00000E+00         0.00000E+00        -0.69851E+08
 
   -0.69788E+08         0.11292E+07         0.00000E+00
    0.11292E+07        -0.93059E+08         0.00000E+00
    0.00000E+00         0.00000E+00        -0.69740E+08
 
   -0.69668E+08         0.11172E+07         0.00000E+00
    0.11172E+07        -0.92990E+08         0.00000E+00
    0.00000E+00         0.00000E+00        -0.69630E+08
 
   -0.69550E+08         0.11072E+07         0.00000E+00
    0.11072E+07        -0.92922E+08         0.00000E+00
    0.00000E+00         0.00000E+00        -0.69521E+08
 
   -0.69432E+08         0.10990E+07         0.00000E+00
    0.10990E+07        -0.92854E+08         0.00000E+00
    0.00000E+00         0.00000E+00        -0.69413E+08
 
   -0.69315E+08         0.10928E+07         0.00000E+00
    0.10928E+07        -0.92785E+08         0.00000E+00
    0.00000E+00         0.00000E+00        -0.69305E+08
 
   -0.69199E+08         0.10884E+07         0.00000E+00
    0.10884E+07        -0.92717E+08         0.00000E+00
    0.00000E+00         0.00000E+00        -0.69198E+08
 
   -0.69082E+08         0.10857E+07         0.00000E+00
    0.10857E+07        -0.92649E+08         0.00000E+00
    0.00000E+00         0.00000E+00        -0.69090E+08
 
   -0.68965E+08         0.10849E+07         0.00000E+00
    0.10849E+07        -0.92581E+08         0.00000E+00
    0.00000E+00         0.00000E+00        -0.68983E+08
 
   -0.68848E+08         0.10858E+07         0.00000E+00
    0.10858E+07        -0.92512E+08         0.00000E+00
    0.00000E+00         0.00000E+00        -0.68874E+08
 
   -0.68731E+08         0.10883E+07         0.00000E+00
    0.10883E+07        -0.92444E+08         0.00000E+00
    0.00000E+00         0.00000E+00        -0.68766E+08
 
   -0.68613E+08         0.10924E+07         0.00000E+00
    0.10924E+07        -0.92374E+08         0.00000E+00
    0.00000E+00         0.00000E+00        -0.68656E+08
 
   -0.68494E+08         0.10981E+07         0.00000E+00
    0.10981E+07        -0.92305E+08         0.00000E+00
    0.00000E+00         0.00000E+00        -0.68545E+08
 
   -0.68374E+08         0.11053E+07         0.00000E+00
    0.11053E+07        -0.92234E+08         0.00000E+00
    0.00000E+00         0.00000E+00        -0.68433E+08
 
   -0.68252E+08         0.11139E+07         0.00000E+00
    0.11139E+07        -0.92163E+08         0.00000E+00
    0.00000E+00         0.00000E+00        -0.68319E+08
 
   -0.68130E+08         0.11238E+07         0.00000E+00
    0.11238E+07        -0.92092E+08         0.00000E+00
    0.00000E+00         0.00000E+00        -0.68204E+08
 
   -0.68005E+08         0.11349E+07         0.00000E+00
    0.11349E+07        -0.92019E+08         0.00000E+00
    0.00000E+00         0.00000E+00        -0.68086E+08
 
   -0.67879E+08         0.11472E+07         0.00000E+00
    0.11472E+07        -0.91946E+08         0.00000E+00
    0.00000E+00         0.00000E+00        -0.67966E+08
 
   -0.67750E+08         0.11604E+07         0.00000E+00
    0.11604E+07        -0.91872E+08         0.00000E+00
    0.00000E+00         0.00000E+00        -0.67844E+08
 
   -0.67619E+08         0.11746E+07         0.00000E+00
    0.11746E+07        -0.91797E+08         0.00000E+00
    0.00000E+00         0.00000E+00        -0.67719E+08
 
   -0.67486E+08         0.11894E+07         0.00000E+00
    0.11894E+07        -0.91721E+08         0.00000E+00
    0.00000E+00         0.00000E+00        -0.67591E+08
 
   -0.67350E+08         0.12049E+07         0.00000E+00
    0.12049E+07        -0.91644E+08         0.00000E+00
    0.00000E+00         0.00000E+00        -0.67460E+08
 
   -0.67212E+08         0.12207E+07         0.00000E+00
    0.12207E+07        -0.91567E+08         0.00000E+00
    0.00000E+00         0.00000E+00        -0.67325E+08
 
   -0.67071E+08         0.12366E+07         0.00000E+00
    0.12366E+07        -0.91488E+08         0.00000E+00
    0.00000E+00         0.00000E+00        -0.67186E+08
 
   -0.66926E+08         0.12525E+07         0.00000E+00
    0.12525E+07        -0.91409E+08         0.00000E+00
    0.00000E+00         0.00000E+00        -0.67044E+08
 
   -0.66779E+08         0.12680E+07         0.00000E+00
    0.12680E+07        -0.91330E+08         0.00000E+00
    0.00000E+00         0.00000E+00        -0.66897E+08
 
   -0.66628E+08         0.12829E+07         0.00000E+00
    0.12829E+07        -0.91249E+08         0.00000E+00
    0.00000E+00         0.00000E+00        -0.66746E+08
 
   -0.66473E+08         0.12969E+07         0.00000E+00
    0.12969E+07        -0.91168E+08         0.00000E+00
    0.00000E+00         0.00000E+00        -0.66589E+08
 
   -0.66315E+08         0.13095E+07         0.00000E+00
    0.13095E+07        -0.91088E+08         0.00000E+00
    0.00000E+00         0.00000E+00        -0.66428E+08
 
   -0.66154E+08         0.13204E+07         0.00000E+00
    0.13204E+07        -0.91007E+08         0.00000E+00
    0.00000E+00         0.00000E+00        -0.66262E+08
 
   -0.65988E+08         0.13291E+07         0.00000E+00
    0.13291E+07        -0.90926E+08         0.00000E+00
    0.00000E+00         0.00000E+00        -0.66090E+08
 
   -0.65819E+08         0.13352E+07         0.00000E+00
    0.13352E+07        -0.90846E+08         0.00000E+00
    0.00000E+00         0.00000E+00        -0.65912E+08
 
   -0.65645E+08         0.13383E+07         0.00000E+00
    0.13383E+07        -0.90766E+08         0.00000E+00
    0.00000E+00         0.00000E+00        -0.65727E+08
 
   -0.65468E+08         0.13376E+07         0.00000E+00
    0.13376E+07        -0.90687E+08         0.00000E+00
    0.00000E+00         0.00000E+00        -0.65537E+08
 
   -0.65286E+08         0.13328E+07         0.00000E+00
    0.13328E+07        -0.90610E+08         0.00000E+00
    0.00000E+00         0.00000E+00        -0.65339E+08
 
   -0.65099E+08         0.13232E+07         0.00000E+00
    0.13232E+07        -0.90533E+08         0.00000E+00
    0.00000E+00         0.00000E+00        -0.65135E+08
 
   -0.64907E+08         0.13083E+07         0.00000E+00
    0.13083E+07        -0.90458E+08         0.00000E+00
    0.00000E+00         0.00000E+00        -0.64923E+08
 
   -0.64711E+08         0.12875E+07         0.00000E+00
    0.12875E+07        -0.90384E+08         0.00000E+00
    0.00000E+00         0.00000E+00        -0.64702E+08
 
   -0.64508E+08         0.12603E+07         0.00000E+00
    0.12603E+07        -0.90311E+08         0.00000E+00
    0.00000E+00         0.00000E+00        -0.64474E+08
 
   -0.64299E+08         0.12262E+07         0.00000E+00
    0.12262E+07        -0.90239E+08         0.00000E+00
    0.00000E+00         0.00000E+00        -0.64236E+08
 
   -0.64083E+08         0.11848E+07         0.00000E+00
    0.11848E+07        -0.90166E+08         0.00000E+00
    0.00000E+00         0.00000E+00        -0.63988E+08
 
   -0.63858E+08         0.11357E+07         0.00000E+00
    0.11357E+07        -0.90090E+08         0.00000E+00
    0.00000E+00         0.00000E+00        -0.63728E+08
 
   -0.63624E+08         0.10789E+07         0.00000E+00
    0.10789E+07        -0.90010E+08         0.00000E+00
    0.00000E+00         0.00000E+00        -0.63456E+08
 
   -0.63378E+08         0.10142E+07         0.00000E+00
    0.10142E+07        -0.89923E+08         0.00000E+00
    0.00000E+00         0.00000E+00        -0.63168E+08
 
   -0.63119E+08         0.94171E+06         0.00000E+00
    0.94171E+06        -0.89825E+08         0.00000E+00
    0.00000E+00         0.00000E+00        -0.62863E+08
 
   -0.62845E+08         0.86160E+06         0.00000E+00
    0.86160E+06        -0.89711E+08         0.00000E+00
    0.00000E+00         0.00000E+00        -0.62535E+08
 
   -0.62553E+08         0.77396E+06         0.00000E+00
    0.77396E+06        -0.89574E+08         0.00000E+00
    0.00000E+00         0.00000E+00        -0.62181E+08
 
   -0.62241E+08         0.67867E+06         0.00000E+00
    0.67867E+06        -0.89406E+08         0.00000E+00
    0.00000E+00         0.00000E+00        -0.61794E+08
 
   -0.61908E+08         0.57511E+06         0.00000E+00
    0.57511E+06        -0.89199E+08         0.00000E+00
    0.00000E+00         0.00000E+00        -0.61364E+08
 
   -0.61554E+08         0.46204E+06         0.00000E+00
    0.46204E+06        -0.88944E+08         0.00000E+00
    0.00000E+00         0.00000E+00        -0.60882E+08
 
   -0.61183E+08         0.33848E+06         0.00000E+00
    0.33848E+06        -0.88632E+08         0.00000E+00
    0.00000E+00         0.00000E+00        -0.60335E+08
 
   -0.60805E+08         0.20612E+06         0.00000E+00
    0.20612E+06        -0.88259E+08         0.00000E+00
    0.00000E+00         0.00000E+00        -0.59709E+08
 
   -0.60437E+08         0.69305E+05         0.00000E+00
    0.69305E+05        -0.87830E+08         0.00000E+00
    0.00000E+00         0.00000E+00        -0.58996E+08
 
   -0.80924E+08         0.12890E+06         0.00000E+00
    0.12890E+06        -0.98626E+08         0.00000E+00
    0.00000E+00         0.00000E+00        -0.84188E+08
 
   -0.80760E+08         0.38829E+06         0.00000E+00
    0.38829E+06        -0.97872E+08         0.00000E+00
    0.00000E+00         0.00000E+00        -0.83291E+08
 
   -0.80453E+08         0.64624E+06         0.00000E+00
    0.64624E+06        -0.97306E+08         0.00000E+00
    0.00000E+00         0.00000E+00        -0.82435E+08
 
   -0.80039E+08         0.89324E+06         0.00000E+00
    0.89324E+06        -0.96916E+08         0.00000E+00
    0.00000E+00         0.00000E+00        -0.81616E+08
 
   -0.79557E+08         0.11231E+07         0.00000E+00
    0.11231E+07        -0.96676E+08         0.00000E+00
    0.00000E+00         0.00000E+00        -0.80833E+08
 
   -0.79040E+08         0.13350E+07         0.00000E+00
    0.13350E+07        -0.96551E+08         0.00000E+00
    0.00000E+00         0.00000E+00        -0.80086E+08
 
   -0.78508E+08         0.15295E+07         0.00000E+00
    0.15295E+07        -0.96513E+08         0.00000E+00
    0.00000E+00         0.00000E+00        -0.79371E+08
 
   -0.77976E+08         0.17070E+07         0.00000E+00
    0.17070E+07        -0.96534E+08         0.00000E+00
    0.00000E+00         0.00000E+00        -0.78687E+08
 
   -0.77496E+08         0.18584E+07         0.00000E+00
    0.18584E+07        -0.96552E+08         0.00000E+00
    0.00000E+00         0.00000E+00        -0.78075E+08
 
   -0.77153E+08         0.19658E+07         0.00000E+00
    0.19658E+07        -0.96467E+08         0.00000E+00
    0.00000E+00         0.00000E+00        -0.77611E+08
 
   -0.76873E+08         0.20427E+07         0.00000E+00
    0.20427E+07        -0.96345E+08         0.00000E+00
    0.00000E+00         0.00000E+00        -0.77224E+08
 
   -0.76602E+08         0.21016E+07         0.00000E+00
    0.21016E+07        -0.96235E+08         0.00000E+00
    0.00000E+00         0.00000E+00        -0.76859E+08
 
   -0.76338E+08         0.21443E+07         0.00000E+00
    0.21443E+07        -0.96132E+08         0.00000E+00
    0.00000E+00         0.00000E+00        -0.76513E+08
 
   -0.76079E+08         0.21727E+07         0.00000E+00
    0.21727E+07        -0.96035E+08         0.00000E+00
    0.00000E+00         0.00000E+00        -0.76184E+08
 
   -0.75825E+08         0.21882E+07         0.00000E+00
    0.21882E+07        -0.95941E+08         0.00000E+00
    0.00000E+00         0.00000E+00        -0.75868E+08
 
   -0.75576E+08         0.21925E+07         0.00000E+00
    0.21925E+07        -0.95848E+08         0.00000E+00
    0.00000E+00         0.00000E+00        -0.75565E+08
 
   -0.75331E+08         0.21869E+07         0.00000E+00
    0.21869E+07        -0.95755E+08         0.00000E+00
    0.00000E+00         0.00000E+00        -0.75273E+08
 
   -0.75090E+08         0.21727E+07         0.00000E+00
    0.21727E+07        -0.95663E+08         0.00000E+00
    0.00000E+00         0.00000E+00        -0.74993E+08
 
   -0.74853E+08         0.21512E+07         0.00000E+00
    0.21512E+07        -0.95570E+08         0.00000E+00
    0.00000E+00         0.00000E+00        -0.74723E+08
 
   -0.74620E+08         0.21235E+07         0.00000E+00
    0.21235E+07        -0.95477E+08         0.00000E+00
    0.00000E+00         0.00000E+00        -0.74462E+08
 
   -0.74392E+08         0.20907E+07         0.00000E+00
    0.20907E+07        -0.95383E+08         0.00000E+00
    0.00000E+00         0.00000E+00        -0.74211E+08
 
   -0.74168E+08         0.20536E+07         0.00000E+00
    0.20536E+07        -0.95289E+08         0.00000E+00
    0.00000E+00         0.00000E+00        -0.73968E+08
 
   -0.73948E+08         0.20133E+07         0.00000E+00
    0.20133E+07        -0.95195E+08         0.00000E+00
    0.00000E+00         0.00000E+00        -0.73735E+08
 
   -0.73734E+08         0.19703E+07         0.00000E+00
    0.19703E+07        -0.95100E+08         0.00000E+00
    0.00000E+00         0.00000E+00        -0.73510E+08
 
   -0.73524E+08         0.19254E+07         0.00000E+00
    0.19254E+07        -0.95006E+08         0.00000E+00
    0.00000E+00         0.00000E+00        -0.73293E+08
 
   -0.73319E+08         0.18793E+07         0.00000E+00
    0.18793E+07        -0.94913E+08         0.00000E+00
    0.00000E+00         0.00000E+00        -0.73083E+08
 
   -0.73119E+08         0.18324E+07         0.00000E+00
    0.18324E+07        -0.94819E+08         0.00000E+00
    0.00000E+00         0.00000E+00        -0.72881E+08
 
   -0.72924E+08         0.17852E+07         0.00000E+00
    0.17852E+07        -0.94727E+08         0.00000E+00
    0.00000E+00         0.00000E+00        -0.72687E+08
 
   -0.72734E+08         0.17382E+07         0.00000E+00
    0.17382E+07        -0.94636E+08         0.00000E+00
    0.00000E+00         0.00000E+00        -0.72499E+08
 
   -0.72549E+08         0.16916E+07         0.00000E+00
    0.16916E+07        -0.94545E+08         0.00000E+00
    0.00000E+00         0.00000E+00        -0.72318E+08
 
   -0.72369E+08         0.16457E+07         0.00000E+00
    0.16457E+07        -0.94456E+08         0.00000E+00
    0.00000E+00         0.00000E+00        -0.72143E+08
 
   -0.72194E+08         0.16009E+07         0.00000E+00
    0.16009E+07        -0.94368E+08         0.00000E+00
    0.00000E+00         0.00000E+00        -0.71974E+08
 
   -0.72024E+08         0.15573E+07         0.00000E+00
    0.15573E+07        -0.94282E+08         0.00000E+00
    0.00000E+00         0.00000E+00        -0.71811E+08
 
   -0.71858E+08         0.15151E+07         0.00000E+00
    0.15151E+07        -0.94196E+08         0.00000E+00
    0.00000E+00         0.00000E+00        -0.71653E+08
 
   -0.71697E+08         0.14745E+07         0.00000E+00
    0.14745E+07        -0.94112E+08         0.00000E+00
    0.00000E+00         0.00000E+00        -0.71500E+08
 
   -0.71540E+08         0.14355E+07         0.00000E+00
    0.14355E+07        -0.94030E+08         0.00000E+00
    0.00000E+00         0.00000E+00        -0.71352E+08
 
   -0.71387E+08         0.13983E+07         0.00000E+00
    0.13983E+07        -0.93949E+08         0.00000E+00
    0.00000E+00         0.00000E+00        -0.71208E+08
 
   -0.71237E+08         0.13630E+07         0.00000E+00
    0.13630E+07        -0.93869E+08         0.00000E+00
    0.00000E+00         0.00000E+00        -0.71069E+08
 
   -0.71092E+08         0.13295E+07         0.00000E+00
    0.13295E+07        -0.93790E+08         0.00000E+00
    0.00000E+00         0.00000E+00        -0.70933E+08
 
   -0.70949E+08         0.12980E+07         0.00000E+00
    0.12980E+07        -0.93713E+08         0.00000E+00
    0.00000E+00         0.00000E+00        -0.70802E+08
 
   -0.70811E+08         0.12684E+07         0.00000E+00
    0.12684E+07        -0.93637E+08         0.00000E+00
    0.00000E+00         0.00000E+00        -0.70673E+08
 
   -0.70675E+08         0.12409E+07         0.00000E+00
    0.12409E+07        -0.93561E+08         0.00000E+00
    0.00000E+00         0.00000E+00        -0.70548E+08
 
   -0.70541E+08         0.12153E+07         0.00000E+00
    0.12153E+07        -0.93487E+08         0.00000E+00
    0.00000E+00         0.00000E+00        -0.70425E+08
 
   -0.70411E+08         0.11918E+07         0.00000E+00
    0.11918E+07        -0.93414E+08         0.00000E+00
    0.00000E+00         0.00000E+00        -0.70305E+08
 
   -0.70283E+08         0.11702E+07         0.00000E+00
    0.11702E+07        -0.93342E+08         0.00000E+00
    0.00000E+00         0.00000E+00        -0.70188E+08
 
   -0.70156E+08         0.11507E+07         0.00000E+00
    0.11507E+07        -0.93271E+08         0.00000E+00
    0.00000E+00         0.00000E+00        -0.70073E+08
 
   -0.70032E+08         0.11331E+07         0.00000E+00
    0.11331E+07        -0.93200E+08         0.00000E+00
    0.00000E+00         0.00000E+00        -0.69959E+08
 
   -0.69910E+08         0.11175E+07         0.00000E+00
    0.11175E+07        -0.93130E+08         0.00000E+00
    0.00000E+00         0.00000E+00        -0.69847E+08
 
   -0.69789E+08         0.11038E+07         0.00000E+00
    0.11038E+07        -0.93061E+08         0.00000E+00
    0.00000E+00         0.00000E+00        -0.69736E+08
 
   -0.69669E+08         0.10921E+07         0.00000E+00
    0.10921E+07        -0.92992E+08         0.00000E+00
    0.00000E+00         0.00000E+00        -0.69627E+08
 
   -0.69550E+08         0.10822E+07         0.00000E+00
    0.10822E+07        -0.92923E+08         0.00000E+00
    0.00000E+00         0.00000E+00        -0.69518E+08
 
   -0.69432E+08         0.10742E+07         0.00000E+00
    0.10742E+07        -0.92855E+08         0.00000E+00
    0.00000E+00         0.00000E+00        -0.69411E+08
 
   -0.69314E+08         0.10681E+07         0.00000E+00
    0.10681E+07        -0.92787E+08         0.00000E+00
    0.00000E+00         0.00000E+00        -0.69303E+08
 
   -0.69197E+08         0.10637E+07         0.00000E+00
    0.10637E+07        -0.92719E+08         0.00000E+00
    0.00000E+00         0.00000E+00        -0.69196E+08
 
   -0.69080E+08         0.10611E+07         0.00000E+00
    0.10611E+07        -0.92650E+08         0.00000E+00
    0.00000E+00         0.00000E+00        -0.69089E+08
 
   -0.68963E+08         0.10602E+07         0.00000E+00
    0.10602E+07        -0.92582E+08         0.00000E+00
    0.00000E+00         0.00000E+00        -0.68982E+08
 
   -0.68845E+08         0.10610E+07         0.00000E+00
    0.10610E+07        -0.92513E+08         0.00000E+00
    0.00000E+00         0.00000E+00        -0.68874E+08
 
   -0.68728E+08         0.10634E+07         0.00000E+00
    0.10634E+07        -0.92444E+08         0.00000E+00
    0.00000E+00         0.00000E+00        -0.68765E+08
 
   -0.68609E+08         0.10674E+07         0.00000E+00
    0.10674E+07        -0.92375E+08         0.00000E+00
    0.00000E+00         0.00000E+00        -0.68656E+08
 
   -0.68490E+08         0.10729E+07         0.00000E+00
    0.10729E+07        -0.92305E+08         0.00000E+00
    0.00000E+00         0.00000E+00        -0.68545E+08
 
   -0.68369E+08         0.10798E+07         0.00000E+00
    0.10798E+07        -0.92235E+08         0.00000E+00
    0.00000E+00         0.00000E+00        -0.68434E+08
 
   -0.68247E+08         0.10881E+07         0.00000E+00
    0.10881E+07        -0.92164E+08         0.00000E+00
    0.00000E+00         0.00000E+00        -0.68320E+08
 
   -0.68124E+08         0.10976E+07         0.00000E+00
    0.10976E+07        -0.92092E+08         0.00000E+00
    0.00000E+00         0.00000E+00        -0.68205E+08
 
   -0.67999E+08         0.11084E+07         0.00000E+00
    0.11084E+07        -0.92020E+08         0.00000E+00
    0.00000E+00         0.00000E+00        -0.68088E+08
 
   -0.67872E+08         0.11202E+07         0.00000E+00
    0.11202E+07        -0.91946E+08         0.00000E+00
    0.00000E+00         0.00000E+00        -0.67968E+08
 
   -0.67743E+08         0.11331E+07         0.00000E+00
    0.11331E+07        -0.91872E+08         0.00000E+00
    0.00000E+00         0.00000E+00        -0.67846E+08
 
   -0.67612E+08         0.11467E+07         0.00000E+00
    0.11467E+07        -0.91797E+08         0.00000E+00
    0.00000E+00         0.00000E+00        -0.67721E+08
 
   -0.67479E+08         0.11611E+07         0.00000E+00
    0.11611E+07        -0.91721E+08         0.00000E+00
    0.00000E+00         0.00000E+00        -0.67593E+08
 
   -0.67343E+08         0.11760E+07         0.00000E+00
    0.11760E+07        -0.91645E+08         0.00000E+00
    0.00000E+00         0.00000E+00        -0.67462E+08
 
   -0.67204E+08         0.11912E+07         0.00000E+00
    0.11912E+07        -0.91567E+08         0.00000E+00
    0.00000E+00         0.00000E+00        -0.67327E+08
 
   -0.67062E+08         0.12066E+07         0.00000E+00
    0.12066E+07        -0.91489E+08         0.00000E+00
    0.00000E+00         0.00000E+00        -0.67189E+08
 
   -0.66918E+08         0.12218E+07         0.00000E+00
    0.12218E+07        -0.91409E+08         0.00000E+00
    0.00000E+00         0.00000E+00        -0.67046E+08
 
   -0.66770E+08         0.12367E+07         0.00000E+00
    0.12367E+07        -0.91329E+08         0.00000E+00
    0.00000E+00         0.00000E+00        -0.66899E+08
 
   -0.66619E+08         0.12510E+07         0.00000E+00
    0.12510E+07        -0.91249E+08         0.00000E+00
    0.00000E+00         0.00000E+00        -0.66748E+08
 
   -0.66464E+08         0.12642E+07         0.00000E+00
    0.12642E+07        -0.91168E+08         0.00000E+00
    0.00000E+00         0.00000E+00        -0.66591E+08
 
   -0.66306E+08         0.12761E+07         0.00000E+00
    0.12761E+07        -0.91087E+08         0.00000E+00
    0.00000E+00         0.00000E+00        -0.66430E+08
 
   -0.66145E+08         0.12863E+07         0.00000E+00
    0.12863E+07        -0.91006E+08         0.00000E+00
    0.00000E+00         0.00000E+00        -0.66263E+08
 
   -0.65980E+08         0.12943E+07         0.00000E+00
    0.12943E+07        -0.90925E+08         0.00000E+00
    0.00000E+00         0.00000E+00        -0.66090E+08
 
   -0.65810E+08         0.12997E+07         0.00000E+00
    0.12997E+07        -0.90845E+08         0.00000E+00
    0.00000E+00         0.00000E+00        -0.65912E+08
 
   -0.65637E+08         0.13019E+07         0.00000E+00
    0.13019E+07        -0.90765E+08         0.00000E+00
    0.00000E+00         0.00000E+00        -0.65727E+08
 
   -0.65460E+08         0.13005E+07         0.00000E+00
    0.13005E+07        -0.90686E+08         0.00000E+00
    0.00000E+00         0.00000E+00        -0.65536E+08
 
   -0.65279E+08         0.12949E+07         0.00000E+00
    0.12949E+07        -0.90609E+08         0.00000E+00
    0.00000E+00         0.00000E+00        -0.65337E+08
 
   -0.65093E+08         0.12844E+07         0.00000E+00
    0.12844E+07        -0.90532E+08         0.00000E+00
    0.00000E+00         0.00000E+00        -0.65132E+08
 
   -0.64902E+08         0.12686E+07         0.00000E+00
    0.12686E+07        -0.90457E+08         0.00000E+00
    0.00000E+00         0.00000E+00        -0.64919E+08
 
   -0.64706E+08         0.12469E+07         0.00000E+00
    0.12469E+07        -0.90383E+08         0.00000E+00
    0.00000E+00         0.00000E+00        -0.64697E+08
 
   -0.64505E+08         0.12187E+07         0.00000E+00
    0.12187E+07        -0.90310E+08         0.00000E+00
    0.00000E+00         0.00000E+00        -0.64467E+08
 
   -0.64298E+08         0.11835E+07         0.00000E+00
    0.11835E+07        -0.90238E+08         0.00000E+00
    0.00000E+00         0.00000E+00        -0.64228E+08
 
   -0.64083E+08         0.11410E+07         0.00000E+00
    0.11410E+07        -0.90165E+08         0.00000E+00
    0.00000E+00         0.00000E+00        -0.63978E+08
 
   -0.63861E+08         0.10907E+07         0.00000E+00
    0.10907E+07        -0.90090E+08         0.00000E+00
    0.00000E+00         0.00000E+00        -0.63717E+08
 
   -0.63629E+08         0.10327E+07         0.00000E+00
    0.10327E+07        -0.90011E+08         0.00000E+00
    0.00000E+00         0.00000E+00        -0.63443E+08
 
   -0.63387E+08         0.96683E+06         0.00000E+00
    0.96683E+06        -0.89924E+08         0.00000E+00
    0.00000E+00         0.00000E+00        -0.63154E+08
 
   -0.63131E+08         0.89330E+06         0.00000E+00
    0.89330E+06        -0.89827E+08         0.00000E+00
    0.00000E+00         0.00000E+00        -0.62846E+08
 
   -0.62861E+08         0.81240E+06         0.00000E+00
    0.81240E+06        -0.89714E+08         0.00000E+00
    0.00000E+00         0.00000E+00        -0.62517E+08
 
   -0.62574E+08         0.72449E+06         0.00000E+00
    0.72449E+06        -0.89579E+08         0.00000E+00
    0.00000E+00         0.00000E+00        -0.62161E+08
 
   -0.62267E+08         0.62985E+06         0.00000E+00
    0.62985E+06        -0.89413E+08         0.00000E+00
    0.00000E+00         0.00000E+00        -0.61771E+08
 
   -0.61941E+08         0.52843E+06         0.00000E+00
    0.52843E+06        -0.89209E+08         0.00000E+00
    0.00000E+00         0.00000E+00        -0.61340E+08
 
   -0.61594E+08         0.41982E+06         0.00000E+00
    0.41982E+06        -0.88957E+08         0.00000E+00
    0.00000E+00         0.00000E+00        -0.60855E+08
 
   -0.61232E+08         0.30413E+06         0.00000E+00
    0.30413E+06        -0.88648E+08         0.00000E+00
    0.00000E+00         0.00000E+00        -0.60304E+08
 
   -0.60863E+08         0.18353E+06         0.00000E+00
    0.18353E+06        -0.88279E+08         0.00000E+00
    0.00000E+00         0.00000E+00        -0.59676E+08
 
   -0.60501E+08         0.61403E+05         0.00000E+00
    0.61403E+05        -0.87853E+08         0.00000E+00
    0.00000E+00         0.00000E+00        -0.58962E+08
 
   -0.80734E+08         0.11285E+06         0.00000E+00
    0.11285E+06        -0.98675E+08         0.00000E+00
    0.00000E+00         0.00000E+00        -0.84188E+08
 
   -0.80581E+08         0.34183E+06         0.00000E+00
    0.34183E+06        -0.97922E+08         0.00000E+00
    0.00000E+00         0.00000E+00        -0.83291E+08
 
   -0.80292E+08         0.57466E+06         0.00000E+00
    0.57466E+06        -0.97355E+08         0.00000E+00
    0.00000E+00         0.00000E+00        -0.82435E+08
 
   -0.79899E+08         0.80423E+06         0.00000E+00
    0.80423E+06        -0.96963E+08         0.00000E+00
    0.00000E+00         0.00000E+00        -0.81616E+08
 
   -0.79437E+08         0.10239E+07         0.00000E+00
    0.10239E+07        -0.96719E+08         0.00000E+00
    0.00000E+00         0.00000E+00        -0.80833E+08
 
   -0.78938E+08         0.12309E+07         0.00000E+00
    0.12309E+07        -0.96592E+08         0.00000E+00
    0.00000E+00         0.00000E+00        -0.80086E+08
 
   -0.78422E+08         0.14241E+07         0.00000E+00
    0.14241E+07        -0.96550E+08         0.00000E+00
    0.00000E+00         0.00000E+00        -0.79371E+08
 
   -0.77904E+08         0.16025E+07         0.00000E+00
    0.16025E+07        -0.96568E+08         0.00000E+00
    0.00000E+00         0.00000E+00        -0.78687E+08
 
   -0.77446E+08         0.17549E+07         0.00000E+00
    0.17549E+07        -0.96574E+08         0.00000E+00
    0.00000E+00         0.00000E+00        -0.78082E+08
 
   -0.77118E+08         0.18660E+07         0.00000E+00
    0.18660E+07        -0.96482E+08         0.00000E+00
    0.00000E+00         0.00000E+00        -0.77621E+08
 
   -0.76845E+08         0.19489E+07         0.00000E+00
    0.19489E+07        -0.96361E+08         0.00000E+00
    0.00000E+00         0.00000E+00        -0.77230E+08
 
   -0.76579E+08         0.20134E+07         0.00000E+00
    0.20134E+07        -0.96251E+08         0.00000E+00
    0.00000E+00         0.00000E+00        -0.76861E+08
 
   -0.76319E+08         0.20613E+07         0.00000E+00
    0.20613E+07        -0.96148E+08         0.00000E+00
    0.00000E+00         0.00000E+00        -0.76512E+08
 
   -0.76065E+08         0.20944E+07         0.00000E+00
    0.20944E+07        -0.96051E+08         0.00000E+00
    0.00000E+00         0.00000E+00        -0.76180E+08
 
   -0.75815E+08         0.21142E+07         0.00000E+00
    0.21142E+07        -0.95956E+08         0.00000E+00
    0.00000E+00         0.00000E+00        -0.75862E+08
 
   -0.75569E+08         0.21223E+07         0.00000E+00
    0.21223E+07        -0.95862E+08         0.00000E+00
    0.00000E+00         0.00000E+00        -0.75557E+08
 
   -0.75327E+08         0.21202E+07         0.00000E+00
    0.21202E+07        -0.95769E+08         0.00000E+00
    0.00000E+00         0.00000E+00        -0.75264E+08
 
   -0.75088E+08         0.21091E+07         0.00000E+00
    0.21091E+07        -0.95676E+08         0.00000E+00
    0.00000E+00         0.00000E+00        -0.74982E+08
 
   -0.74853E+08         0.20905E+07         0.00000E+00
    0.20905E+07        -0.95582E+08         0.00000E+00
    0.00000E+00         0.00000E+00        -0.74711E+08
 
   -0.74622E+08         0.20654E+07         0.00000E+00
    0.20654E+07        -0.95488E+08         0.00000E+00
    0.00000E+00         0.00000E+00        -0.74449E+08
 
   -0.74394E+08         0.20350E+07         0.00000E+00
    0.20350E+07        -0.95394E+08         0.00000E+00
    0.00000E+00         0.00000E+00        -0.74197E+08
 
   -0.74171E+08         0.20002E+07         0.00000E+00
    0.20002E+07        -0.95299E+08         0.00000E+00
    0.00000E+00         0.00000E+00        -0.73955E+08
 
   -0.73953E+08         0.19619E+07         0.00000E+00
    0.19619E+07        -0.95204E+08         0.00000E+00
    0.00000E+00         0.00000E+00        -0.73721E+08
 
   -0.73739E+08         0.19208E+07         0.00000E+00
    0.19208E+07        -0.95109E+08         0.00000E+00
    0.00000E+00         0.00000E+00        -0.73496E+08
 
   -0.73530E+08         0.18778E+07         0.00000E+00
    0.18778E+07        -0.95015E+08         0.00000E+00
    0.00000E+00         0.00000E+00        -0.73279E+08
 
   -0.73325E+08         0.18334E+07         0.00000E+00
    0.18334E+07        -0.94920E+08         0.00000E+00
    0.00000E+00         0.00000E+00        -0.73069E+08
 
   -0.73125E+08         0.17881E+07         0.00000E+00
    0.17881E+07        -0.94827E+08         0.00000E+00
    0.00000E+00         0.00000E+00        -0.72868E+08
 
   -0.72931E+08         0.17424E+07         0.00000E+00
    0.17424E+07        -0.94734E+08         0.00000E+00
    0.00000E+00         0.00000E+00        -0.72673E+08
 
   -0.72741E+08         0.16968E+07         0.00000E+00
    0.16968E+07        -0.94642E+08         0.00000E+00
    0.00000E+00         0.00000E+00        -0.72486E+08
 
   -0.72556E+08         0.16515E+07         0.00000E+00
    0.16515E+07        -0.94551E+08         0.00000E+00
    0.00000E+00         0.00000E+00        -0.72305E+08
 
   -0.72376E+08         0.16070E+07         0.00000E+00
    0.16070E+07        -0.94462E+08         0.00000E+00
    0.00000E+00         0.00000E+00        -0.72130E+08
 
   -0.72201E+08         0.15634E+07         0.00000E+00
    0.15634E+07        -0.94374E+08         0.00000E+00
    0.00000E+00         0.00000E+00        -0.71962E+08
 
   -0.72031E+08         0.15210E+07         0.00000E+00
    0.15210E+07        -0.94287E+08         0.00000E+00
    0.00000E+00         0.00000E+00        -0.71799E+08
 
   -0.71864E+08         0.14799E+07         0.00000E+00
    0.14799E+07        -0.94201E+08         0.00000E+00
    0.00000E+00         0.00000E+00        -0.71642E+08
 
   -0.71703E+08         0.14403E+07         0.00000E+00
    0.14403E+07        -0.94117E+08         0.00000E+00
    0.00000E+00         0.00000E+00        -0.71489E+08
 
   -0.71545E+08         0.14023E+07         0.00000E+00
    0.14023E+07        -0.94034E+08         0.00000E+00
    0.00000E+00         0.00000E+00        -0.71342E+08
 
   -0.71392E+08         0.13660E+07         0.00000E+00
    0.13660E+07        -0.93952E+08         0.00000E+00
    0.00000E+00         0.00000E+00        -0.71199E+08
 
   -0.71242E+08         0.13315E+07         0.00000E+00
    0.13315E+07        -0.93872E+08         0.00000E+00
    0.00000E+00         0.00000E+00        -0.71060E+08
 
   -0.71096E+08         0.12988E+07         0.00000E+00
    0.12988E+07        -0.93793E+08         0.00000E+00
    0.00000E+00         0.00000E+00        -0.70925E+08
 
   -0.70954E+08         0.12681E+07         0.00000E+00
    0.12681E+07        -0.93716E+08         0.00000E+00
    0.00000E+00         0.00000E+00        -0.70794E+08
 
   -0.70814E+08         0.12392E+07         0.00000E+00
    0.12392E+07        -0.93639E+08         0.00000E+00
    0.00000E+00         0.00000E+00        -0.70666E+08
 
   -0.70678E+08         0.12123E+07         0.00000E+00
    0.12123E+07        -0.93564E+08         0.00000E+00
    0.00000E+00         0.00000E+00        -0.70541E+08
 
   -0.70545E+08         0.11873E+07         0.00000E+00
    0.11873E+07        -0.93490E+08         0.00000E+00
    0.00000E+00         0.00000E+00        -0.70419E+08
 
   -0.70414E+08         0.11643E+07         0.00000E+00
    0.11643E+07        -0.93417E+08         0.00000E+00
    0.00000E+00         0.00000E+00        -0.70300E+08
 
   -0.70285E+08         0.11432E+07         0.00000E+00
    0.11432E+07        -0.93345E+08         0.00000E+00
    0.00000E+00         0.00000E+00        -0.70183E+08
 
   -0.70158E+08         0.11241E+07         0.00000E+00
    0.11241E+07        -0.93273E+08         0.00000E+00
    0.00000E+00         0.00000E+00        -0.70068E+08
 
   -0.70034E+08         0.11069E+07         0.00000E+00
    0.11069E+07        -0.93202E+08         0.00000E+00
    0.00000E+00         0.00000E+00        -0.69954E+08
 
   -0.69911E+08         0.10917E+07         0.00000E+00
    0.10917E+07        -0.93132E+08         0.00000E+00
    0.00000E+00         0.00000E+00        -0.69843E+08
 
   -0.69789E+08         0.10783E+07         0.00000E+00
    0.10783E+07        -0.93063E+08         0.00000E+00
    0.00000E+00         0.00000E+00        -0.69733E+08
 
   -0.69669E+08         0.10668E+07         0.00000E+00
    0.10668E+07        -0.92994E+08         0.00000E+00
    0.00000E+00         0.00000E+00        -0.69624E+08
 
   -0.69549E+08         0.10571E+07         0.00000E+00
    0.10571E+07        -0.92925E+08         0.00000E+00
    0.00000E+00         0.00000E+00        -0.69516E+08
 
   -0.69431E+08         0.10493E+07         0.00000E+00
    0.10493E+07        -0.92856E+08         0.00000E+00
    0.00000E+00         0.00000E+00        -0.69408E+08
 
   -0.69313E+08         0.10432E+07         0.00000E+00
    0.10432E+07        -0.92788E+08         0.00000E+00
    0.00000E+00         0.00000E+00        -0.69301E+08
 
   -0.69195E+08         0.10389E+07         0.00000E+00
    0.10389E+07        -0.92720E+08         0.00000E+00
    0.00000E+00         0.00000E+00        -0.69194E+08
 
   -0.69078E+08         0.10363E+07         0.00000E+00
    0.10363E+07        -0.92651E+08         0.00000E+00
    0.00000E+00         0.00000E+00        -0.69088E+08
 
   -0.68960E+08         0.10354E+07         0.00000E+00
    0.10354E+07        -0.92583E+08         0.00000E+00
    0.00000E+00         0.00000E+00        -0.68981E+08
 
   -0.68843E+08         0.10361E+07         0.00000E+00
    0.10361E+07        -0.92514E+08         0.00000E+00
    0.00000E+00         0.00000E+00        -0.68873E+08
 
   -0.68724E+08         0.10384E+07         0.00000E+00
    0.10384E+07        -0.92445E+08         0.00000E+00
    0.00000E+00         0.00000E+00        -0.68765E+08
 
   -0.68605E+08         0.10422E+07         0.00000E+00
    0.10422E+07        -0.92376E+08         0.00000E+00
    0.00000E+00         0.00000E+00        -0.68656E+08
 
   -0.68485E+08         0.10474E+07         0.00000E+00
    0.10474E+07        -0.92306E+08         0.00000E+00
    0.00000E+00         0.00000E+00        -0.68546E+08
 
   -0.68364E+08         0.10541E+07         0.00000E+00
    0.10541E+07        -0.92236E+08         0.00000E+00
    0.00000E+00         0.00000E+00        -0.68434E+08
 
   -0.68242E+08         0.10621E+07         0.00000E+00
    0.10621E+07        -0.92165E+08         0.00000E+00
    0.00000E+00         0.00000E+00        -0.68321E+08
 
   -0.68119E+08         0.10714E+07         0.00000E+00
    0.10714E+07        -0.92093E+08         0.00000E+00
    0.00000E+00         0.00000E+00        -0.68206E+08
 
   -0.67993E+08         0.10818E+07         0.00000E+00
    0.10818E+07        -0.92020E+08         0.00000E+00
    0.00000E+00         0.00000E+00        -0.68089E+08
 
   -0.67866E+08         0.10932E+07         0.00000E+00
    0.10932E+07        -0.91947E+08         0.00000E+00
    0.00000E+00         0.00000E+00        -0.67970E+08
 
   -0.67737E+08         0.11056E+07         0.00000E+00
    0.11056E+07        -0.91873E+08         0.00000E+00
    0.00000E+00         0.00000E+00        -0.67848E+08
 
   -0.67605E+08         0.11188E+07         0.00000E+00
    0.11188E+07        -0.91798E+08         0.00000E+00
    0.00000E+00         0.00000E+00        -0.67723E+08
 
   -0.67471E+08         0.11327E+07         0.00000E+00
    0.11327E+07        -0.91722E+08         0.00000E+00
    0.00000E+00         0.00000E+00        -0.67595E+08
 
   -0.67335E+08         0.11471E+07         0.00000E+00
    0.11471E+07        -0.91645E+08         0.00000E+00
    0.00000E+00         0.00000E+00        -0.67464E+08
 
   -0.67196E+08         0.11617E+07         0.00000E+00
    0.11617E+07        -0.91567E+08         0.00000E+00
    0.00000E+00         0.00000E+00        -0.67329E+08
 
   -0.67054E+08         0.11765E+07         0.00000E+00
    0.11765E+07        -0.91489E+08         0.00000E+00
    0.00000E+00         0.00000E+00        -0.67191E+08
 
   -0.66909E+08         0.11912E+07         0.00000E+00
    0.11912E+07        -0.91409E+08         0.00000E+00
    0.00000E+00         0.00000E+00        -0.67048E+08
 
   -0.66761E+08         0.12054E+07         0.00000E+00
    0.12054E+07        -0.91329E+08         0.00000E+00
    0.00000E+00         0.00000E+00        -0.66901E+08
 
   -0.66610E+08         0.12190E+07         0.00000E+00
    0.12190E+07        -0.91249E+08         0.00000E+00
    0.00000E+00         0.00000E+00        -0.66750E+08
 
   -0.66455E+08         0.12316E+07         0.00000E+00
    0.12316E+07        -0.91168E+08         0.00000E+00
    0.00000E+00         0.00000E+00        -0.66593E+08
 
   -0.66297E+08         0.12429E+07         0.00000E+00
    0.12429E+07        -0.91087E+08         0.00000E+00
    0.00000E+00         0.00000E+00        -0.66431E+08
 
   -0.66136E+08         0.12523E+07         0.00000E+00
    0.12523E+07        -0.91006E+08         0.00000E+00
    0.00000E+00         0.00000E+00        -0.66264E+08
 
   -0.65971E+08         0.12596E+07         0.00000E+00
    0.12596E+07        -0.90925E+08         0.00000E+00
    0.00000E+00         0.00000E+00        -0.66091E+08
 
   -0.65802E+08         0.12643E+07         0.00000E+00
    0.12643E+07        -0.90844E+08         0.00000E+00
    0.00000E+00         0.00000E+00        -0.65912E+08
 
   -0.65629E+08         0.12658E+07         0.00000E+00
    0.12658E+07        -0.90764E+08         0.00000E+00
    0.00000E+00         0.00000E+00        -0.65727E+08
 
   -0.65452E+08         0.12636E+07         0.00000E+00
    0.12636E+07        -0.90685E+08         0.00000E+00
    0.00000E+00         0.00000E+00        -0.65535E+08
 
   -0.65271E+08         0.12572E+07         0.00000E+00
    0.12572E+07        -0.90607E+08         0.00000E+00
    0.00000E+00         0.00000E+00        -0.65335E+08
 
   -0.65086E+08         0.12460E+07         0.00000E+00
    0.12460E+07        -0.90531E+08         0.00000E+00
    0.00000E+00         0.00000E+00        -0.65129E+08
 
   -0.64897E+08         0.12293E+07         0.00000E+00
    0.12293E+07        -0.90456E+08         0.00000E+00
    0.00000E+00         0.00000E+00        -0.64915E+08
 
   -0.64702E+08         0.12067E+07         0.00000E+00
    0.12067E+07        -0.90382E+08         0.00000E+00
    0.00000E+00         0.00000E+00        -0.64692E+08
 
   -0.64502E+08         0.11776E+07         0.00000E+00
    0.11776E+07        -0.90309E+08         0.00000E+00
    0.00000E+00         0.00000E+00        -0.64461E+08
 
   -0.64296E+08         0.11414E+07         0.00000E+00
    0.11414E+07        -0.90237E+08         0.00000E+00
    0.00000E+00         0.00000E+00        -0.64220E+08
 
   -0.64084E+08         0.10978E+07         0.00000E+00
    0.10978E+07        -0.90164E+08         0.00000E+00
    0.00000E+00         0.00000E+00        -0.63969E+08
 
   -0.63864E+08         0.10465E+07         0.00000E+00
    0.10465E+07        -0.90089E+08         0.00000E+00
    0.00000E+00         0.00000E+00        -0.63706E+08
 
   -0.63635E+08         0.98737E+06         0.00000E+00
    0.98737E+06        -0.90010E+08         0.00000E+00
    0.00000E+00         0.00000E+00        -0.63430E+08
 
   -0.63395E+08         0.92041E+06         0.00000E+00
    0.92041E+06        -0.89925E+08         0.00000E+00
    0.00000E+00         0.00000E+00        -0.63139E+08
 
   -0.63144E+08         0.84591E+06         0.00000E+00
    0.84591E+06        -0.89829E+08         0.00000E+00
    0.00000E+00         0.00000E+00        -0.62830E+08
 
   -0.62878E+08         0.76433E+06         0.00000E+00
    0.76433E+06        -0.89717E+08         0.00000E+00
    0.00000E+00         0.00000E+00        -0.62499E+08
 
   -0.62595E+08         0.67630E+06         0.00000E+00
    0.67630E+06        -0.89584E+08         0.00000E+00
    0.00000E+00         0.00000E+00        -0.62141E+08
 
   -0.62294E+08         0.58246E+06         0.00000E+00
    0.58246E+06        -0.89421E+08         0.00000E+00
    0.00000E+00         0.00000E+00        -0.61749E+08
 
   -0.61974E+08         0.48337E+06         0.00000E+00
    0.48337E+06        -0.89220E+08         0.00000E+00
    0.00000E+00         0.00000E+00        -0.61315E+08
 
   -0.61635E+08         0.37942E+06         0.00000E+00
    0.37942E+06        -0.88971E+08         0.00000E+00
    0.00000E+00         0.00000E+00        -0.60828E+08
 
   -0.61281E+08         0.27158E+06         0.00000E+00
    0.27158E+06        -0.88666E+08         0.00000E+00
    0.00000E+00         0.00000E+00        -0.60275E+08
 
   -0.60920E+08         0.16231E+06         0.00000E+00
    0.16231E+06        -0.88301E+08         0.00000E+00
    0.00000E+00         0.00000E+00        -0.59645E+08
 
   -0.60563E+08         0.54016E+05         0.00000E+00
    0.54016E+05        -0.87877E+08         0.00000E+00
    0.00000E+00         0.00000E+00        -0.58930E+08
 
   -0.80550E+08         0.97816E+05         0.00000E+00
    0.97816E+05        -0.98717E+08         0.00000E+00
    0.00000E+00         0.00000E+00        -0.84188E+08
 
   -0.80407E+08         0.29815E+06         0.00000E+00
    0.29815E+06        -0.97965E+08         0.00000E+00
    0.00000E+00         0.00000E+00        -0.83291E+08
 
   -0.80134E+08         0.50691E+06         0.00000E+00
    0.50691E+06        -0.97399E+08         0.00000E+00
    0.00000E+00         0.00000E+00        -0.82435E+08
 
   -0.79759E+08         0.71925E+06         0.00000E+00
    0.71925E+06        -0.97006E+08         0.00000E+00
    0.00000E+00         0.00000E+00        -0.81616E+08
 
   -0.79316E+08         0.92852E+06         0.00000E+00
    0.92852E+06        -0.96761E+08         0.00000E+00
    0.00000E+00         0.00000E+00        -0.80833E+08
 
   -0.78834E+08         0.11303E+07         0.00000E+00
    0.11303E+07        -0.96631E+08         0.00000E+00
    0.00000E+00         0.00000E+00        -0.80086E+08
 
   -0.78335E+08         0.13218E+07         0.00000E+00
    0.13218E+07        -0.96587E+08         0.00000E+00
    0.00000E+00         0.00000E+00        -0.79371E+08
 
   -0.77832E+08         0.15006E+07         0.00000E+00
    0.15006E+07        -0.96602E+08         0.00000E+00
    0.00000E+00         0.00000E+00        -0.78687E+08
 
   -0.77396E+08         0.16539E+07         0.00000E+00
    0.16539E+07        -0.96596E+08         0.00000E+00
    0.00000E+00         0.00000E+00        -0.78091E+08
 
   -0.77084E+08         0.17685E+07         0.00000E+00
    0.17685E+07        -0.96496E+08         0.00000E+00
    0.00000E+00         0.00000E+00        -0.77633E+08
 
   -0.76817E+08         0.18569E+07         0.00000E+00
    0.18569E+07        -0.96376E+08         0.00000E+00
    0.00000E+00         0.00000E+00        -0.77237E+08
 
   -0.76557E+08         0.19267E+07         0.00000E+00
    0.19267E+07        -0.96266E+08         0.00000E+00
    0.00000E+00         0.00000E+00        -0.76865E+08
 
   -0.76302E+08         0.19796E+07         0.00000E+00
    0.19796E+07        -0.96164E+08         0.00000E+00
    0.00000E+00         0.00000E+00        -0.76512E+08
 
   -0.76052E+08         0.20171E+07         0.00000E+00
    0.20171E+07        -0.96066E+08         0.00000E+00
    0.00000E+00         0.00000E+00        -0.76177E+08
 
   -0.75805E+08         0.20410E+07         0.00000E+00
    0.20410E+07        -0.95971E+08         0.00000E+00
    0.00000E+00         0.00000E+00        -0.75856E+08
 
   -0.75562E+08         0.20528E+07         0.00000E+00
    0.20528E+07        -0.95877E+08         0.00000E+00
    0.00000E+00         0.00000E+00        -0.75549E+08
 
   -0.75322E+08         0.20540E+07         0.00000E+00
    0.20540E+07        -0.95783E+08         0.00000E+00
    0.00000E+00         0.00000E+00        -0.75255E+08
 
   -0.75086E+08         0.20460E+07         0.00000E+00
    0.20460E+07        -0.95689E+08         0.00000E+00
    0.00000E+00         0.00000E+00        -0.74972E+08
 
   -0.74853E+08         0.20301E+07         0.00000E+00
    0.20301E+07        -0.95595E+08         0.00000E+00
    0.00000E+00         0.00000E+00        -0.74699E+08
 
   -0.74623E+08         0.20076E+07         0.00000E+00
    0.20076E+07        -0.95500E+08         0.00000E+00
    0.00000E+00         0.00000E+00        -0.74437E+08
 
   -0.74397E+08         0.19795E+07         0.00000E+00
    0.19795E+07        -0.95405E+08         0.00000E+00
    0.00000E+00         0.00000E+00        -0.74184E+08
 
   -0.74175E+08         0.19468E+07         0.00000E+00
    0.19468E+07        -0.95309E+08         0.00000E+00
    0.00000E+00         0.00000E+00        -0.73941E+08
 
   -0.73958E+08         0.19105E+07         0.00000E+00
    0.19105E+07        -0.95214E+08         0.00000E+00
    0.00000E+00         0.00000E+00        -0.73707E+08
 
   -0.73744E+08         0.18714E+07         0.00000E+00
    0.18714E+07        -0.95118E+08         0.00000E+00
    0.00000E+00         0.00000E+00        -0.73482E+08
 
   -0.73536E+08         0.18301E+07         0.00000E+00
    0.18301E+07        -0.95023E+08         0.00000E+00
    0.00000E+00         0.00000E+00        -0.73265E+08
 
   -0.73332E+08         0.17873E+07         0.00000E+00
    0.17873E+07        -0.94928E+08         0.00000E+00
    0.00000E+00         0.00000E+00        -0.73056E+08
 
   -0.73132E+08         0.17436E+07         0.00000E+00
    0.17436E+07        -0.94834E+08         0.00000E+00
    0.00000E+00         0.00000E+00        -0.72854E+08
 
   -0.72938E+08         0.16994E+07         0.00000E+00
    0.16994E+07        -0.94741E+08         0.00000E+00
    0.00000E+00         0.00000E+00        -0.72660E+08
 
   -0.72748E+08         0.16552E+07         0.00000E+00
    0.16552E+07        -0.94649E+08         0.00000E+00
    0.00000E+00         0.00000E+00        -0.72473E+08
 
   -0.72563E+08         0.16113E+07         0.00000E+00
    0.16113E+07        -0.94557E+08         0.00000E+00
    0.00000E+00         0.00000E+00        -0.72292E+08
 
   -0.72383E+08         0.15681E+07         0.00000E+00
    0.15681E+07        -0.94468E+08         0.00000E+00
    0.00000E+00         0.00000E+00        -0.72118E+08
 
   -0.72208E+08         0.15257E+07         0.00000E+00
    0.15257E+07        -0.94379E+08         0.00000E+00
    0.00000E+00         0.00000E+00        -0.71950E+08
 
   -0.72037E+08         0.14844E+07         0.00000E+00
    0.14844E+07        -0.94292E+08         0.00000E+00
    0.00000E+00         0.00000E+00        -0.71788E+08
 
   -0.71871E+08         0.14444E+07         0.00000E+00
    0.14444E+07        -0.94206E+08         0.00000E+00
    0.00000E+00         0.00000E+00        -0.71631E+08
 
   -0.71709E+08         0.14058E+07         0.00000E+00
    0.14058E+07        -0.94121E+08         0.00000E+00
    0.00000E+00         0.00000E+00        -0.71479E+08
 
   -0.71551E+08         0.13688E+07         0.00000E+00
    0.13688E+07        -0.94038E+08         0.00000E+00
    0.00000E+00         0.00000E+00        -0.71332E+08
 
   -0.71397E+08         0.13334E+07         0.00000E+00
    0.13334E+07        -0.93956E+08         0.00000E+00
    0.00000E+00         0.00000E+00        -0.71189E+08
 
   -0.71247E+08         0.12998E+07         0.00000E+00
    0.12998E+07        -0.93876E+08         0.00000E+00
    0.00000E+00         0.00000E+00        -0.71051E+08
 
   -0.71101E+08         0.12679E+07         0.00000E+00
    0.12679E+07        -0.93797E+08         0.00000E+00
    0.00000E+00         0.00000E+00        -0.70917E+08
 
   -0.70958E+08         0.12379E+07         0.00000E+00
    0.12379E+07        -0.93719E+08         0.00000E+00
    0.00000E+00         0.00000E+00        -0.70786E+08
 
   -0.70818E+08         0.12097E+07         0.00000E+00
    0.12097E+07        -0.93642E+08         0.00000E+00
    0.00000E+00         0.00000E+00        -0.70658E+08
 
   -0.70682E+08         0.11835E+07         0.00000E+00
    0.11835E+07        -0.93567E+08         0.00000E+00
    0.00000E+00         0.00000E+00        -0.70534E+08
 
   -0.70548E+08         0.11591E+07         0.00000E+00
    0.11591E+07        -0.93493E+08         0.00000E+00
    0.00000E+00         0.00000E+00        -0.70413E+08
 
   -0.70416E+08         0.11366E+07         0.00000E+00
    0.11366E+07        -0.93419E+08         0.00000E+00
    0.00000E+00         0.00000E+00        -0.70294E+08
 
   -0.70287E+08         0.11160E+07         0.00000E+00
    0.11160E+07        -0.93347E+08         0.00000E+00
    0.00000E+00         0.00000E+00        -0.70177E+08
 
   -0.70160E+08         0.10974E+07         0.00000E+00
    0.10974E+07        -0.93275E+08         0.00000E+00
    0.00000E+00         0.00000E+00        -0.70063E+08
 
   -0.70035E+08         0.10806E+07         0.00000E+00
    0.10806E+07        -0.93204E+08         0.00000E+00
    0.00000E+00         0.00000E+00        -0.69950E+08
 
   -0.69912E+08         0.10656E+07         0.00000E+00
    0.10656E+07        -0.93134E+08         0.00000E+00
    0.00000E+00         0.00000E+00        -0.69839E+08
 
   -0.69790E+08         0.10525E+07         0.00000E+00
    0.10525E+07        -0.93064E+08         0.00000E+00
    0.00000E+00         0.00000E+00        -0.69729E+08
 
   -0.69669E+08         0.10413E+07         0.00000E+00
    0.10413E+07        -0.92995E+08         0.00000E+00
    0.00000E+00         0.00000E+00        -0.69621E+08
 
   -0.69549E+08         0.10318E+07         0.00000E+00
    0.10318E+07        -0.92926E+08         0.00000E+00
    0.00000E+00         0.00000E+00        -0.69513E+08
 
   -0.69430E+08         0.10241E+07         0.00000E+00
    0.10241E+07        -0.92858E+08         0.00000E+00
    0.00000E+00         0.00000E+00        -0.69406E+08
 
   -0.69312E+08         0.10182E+07         0.00000E+00
    0.10182E+07        -0.92789E+08         0.00000E+00
    0.00000E+00         0.00000E+00        -0.69299E+08
 
   -0.69194E+08         0.10139E+07         0.00000E+00
    0.10139E+07        -0.92721E+08         0.00000E+00
    0.00000E+00         0.00000E+00        -0.69193E+08
 
   -0.69076E+08         0.10113E+07         0.00000E+00
    0.10113E+07        -0.92653E+08         0.00000E+00
    0.00000E+00         0.00000E+00        -0.69086E+08
 
   -0.68958E+08         0.10104E+07         0.00000E+00
    0.10104E+07        -0.92584E+08         0.00000E+00
    0.00000E+00         0.00000E+00        -0.68980E+08
 
   -0.68840E+08         0.10110E+07         0.00000E+00
    0.10110E+07        -0.92515E+08         0.00000E+00
    0.00000E+00         0.00000E+00        -0.68873E+08
 
   -0.68721E+08         0.10132E+07         0.00000E+00
    0.10132E+07        -0.92446E+08         0.00000E+00
    0.00000E+00         0.00000E+00        -0.68765E+08
 
   -0.68602E+08         0.10168E+07         0.00000E+00
    0.10168E+07        -0.92377E+08         0.00000E+00
    0.00000E+00         0.00000E+00        -0.68656E+08
 
   -0.68481E+08         0.10219E+07         0.00000E+00
    0.10219E+07        -0.92307E+08         0.00000E+00
    0.00000E+00         0.00000E+00        -0.68546E+08
 
   -0.68360E+08         0.10283E+07         0.00000E+00
    0.10283E+07        -0.92236E+08         0.00000E+00
    0.00000E+00         0.00000E+00        -0.68435E+08
 
   -0.68237E+08         0.10361E+07         0.00000E+00
    0.10361E+07        -0.92165E+08         0.00000E+00
    0.00000E+00         0.00000E+00        -0.68322E+08
 
   -0.68113E+08         0.10450E+07         0.00000E+00
    0.10450E+07        -0.92093E+08         0.00000E+00
    0.00000E+00         0.00000E+00        -0.68207E+08
 
   -0.67987E+08         0.10550E+07         0.00000E+00
    0.10550E+07        -0.92021E+08         0.00000E+00
    0.00000E+00         0.00000E+00        -0.68090E+08
 
   -0.67860E+08         0.10661E+07         0.00000E+00
    0.10661E+07        -0.91947E+08         0.00000E+00
    0.00000E+00         0.00000E+00        -0.67971E+08
 
   -0.67730E+08         0.10781E+07         0.00000E+00
    0.10781E+07        -0.91873E+08         0.00000E+00
    0.00000E+00         0.00000E+00        -0.67849E+08
 
   -0.67598E+08         0.10908E+07         0.00000E+00
    0.10908E+07        -0.91798E+08         0.00000E+00
    0.00000E+00         0.00000E+00        -0.67725E+08
 
   -0.67464E+08         0.11042E+07         0.00000E+00
    0.11042E+07        -0.91722E+08         0.00000E+00
    0.00000E+00         0.00000E+00        -0.67597E+08
 
   -0.67327E+08         0.11181E+07         0.00000E+00
    0.11181E+07        -0.91645E+08         0.00000E+00
    0.00000E+00         0.00000E+00        -0.67466E+08
 
   -0.67188E+08         0.11322E+07         0.00000E+00
    0.11322E+07        -0.91567E+08         0.00000E+00
    0.00000E+00         0.00000E+00        -0.67331E+08
 
   -0.67046E+08         0.11464E+07         0.00000E+00
    0.11464E+07        -0.91488E+08         0.00000E+00
    0.00000E+00         0.00000E+00        -0.67193E+08
 
   -0.66901E+08         0.11605E+07         0.00000E+00
    0.11605E+07        -0.91409E+08         0.00000E+00
    0.00000E+00         0.00000E+00        -0.67050E+08
 
   -0.66753E+08         0.11742E+07         0.00000E+00
    0.11742E+07        -0.91329E+08         0.00000E+00
    0.00000E+00         0.00000E+00        -0.66903E+08
 
   -0.66601E+08         0.11871E+07         0.00000E+00
    0.11871E+07        -0.91248E+08         0.00000E+00
    0.00000E+00         0.00000E+00        -0.66752E+08
 
   -0.66447E+08         0.11991E+07         0.00000E+00
    0.11991E+07        -0.91167E+08         0.00000E+00
    0.00000E+00         0.00000E+00        -0.66595E+08
 
   -0.66289E+08         0.12097E+07         0.00000E+00
    0.12097E+07        -0.91086E+08         0.00000E+00
    0.00000E+00         0.00000E+00        -0.66433E+08
 
   -0.66127E+08         0.12185E+07         0.00000E+00
    0.12185E+07        -0.91005E+08         0.00000E+00
    0.00000E+00         0.00000E+00        -0.66265E+08
 
   -0.65962E+08         0.12251E+07         0.00000E+00
    0.12251E+07        -0.90924E+08         0.00000E+00
    0.00000E+00         0.00000E+00        -0.66092E+08
 
   -0.65793E+08         0.12291E+07         0.00000E+00
    0.12291E+07        -0.90843E+08         0.00000E+00
    0.00000E+00         0.00000E+00        -0.65912E+08
 
   -0.65621E+08         0.12299E+07         0.00000E+00
    0.12299E+07        -0.90763E+08         0.00000E+00
    0.00000E+00         0.00000E+00        -0.65726E+08
 
   -0.65444E+08         0.12270E+07         0.00000E+00
    0.12270E+07        -0.90684E+08         0.00000E+00
    0.00000E+00         0.00000E+00        -0.65533E+08
 
   -0.65264E+08         0.12199E+07         0.00000E+00
    0.12199E+07        -0.90606E+08         0.00000E+00
    0.00000E+00         0.00000E+00        -0.65333E+08
 
   -0.65080E+08         0.12079E+07         0.00000E+00
    0.12079E+07        -0.90529E+08         0.00000E+00
    0.00000E+00         0.00000E+00        -0.65126E+08
 
   -0.64891E+08         0.11905E+07         0.00000E+00
    0.11905E+07        -0.90454E+08         0.00000E+00
    0.00000E+00         0.00000E+00        -0.64911E+08
 
   -0.64698E+08         0.11670E+07         0.00000E+00
    0.11670E+07        -0.90380E+08         0.00000E+00
    0.00000E+00         0.00000E+00        -0.64687E+08
 
   -0.64499E+08         0.11370E+07         0.00000E+00
    0.11370E+07        -0.90307E+08         0.00000E+00
    0.00000E+00         0.00000E+00        -0.64454E+08
 
   -0.64295E+08         0.10999E+07         0.00000E+00
    0.10999E+07        -0.90235E+08         0.00000E+00
    0.00000E+00         0.00000E+00        -0.64212E+08
 
   -0.64085E+08         0.10554E+07         0.00000E+00
    0.10554E+07        -0.90162E+08         0.00000E+00
    0.00000E+00         0.00000E+00        -0.63959E+08
 
   -0.63867E+08         0.10031E+07         0.00000E+00
    0.10031E+07        -0.90088E+08         0.00000E+00
    0.00000E+00         0.00000E+00        -0.63695E+08
 
   -0.63641E+08         0.94289E+06         0.00000E+00
    0.94289E+06        -0.90010E+08         0.00000E+00
    0.00000E+00         0.00000E+00        -0.63417E+08
 
   -0.63404E+08         0.87494E+06         0.00000E+00
    0.87494E+06        -0.89925E+08         0.00000E+00
    0.00000E+00         0.00000E+00        -0.63124E+08
 
   -0.63156E+08         0.79957E+06         0.00000E+00
    0.79957E+06        -0.89831E+08         0.00000E+00
    0.00000E+00         0.00000E+00        -0.62813E+08
 
   -0.62895E+08         0.71742E+06         0.00000E+00
    0.71742E+06        -0.89721E+08         0.00000E+00
    0.00000E+00         0.00000E+00        -0.62480E+08
 
   -0.62617E+08         0.62937E+06         0.00000E+00
    0.62937E+06        -0.89589E+08         0.00000E+00
    0.00000E+00         0.00000E+00        -0.62121E+08
 
   -0.62322E+08         0.53648E+06         0.00000E+00
    0.53648E+06        -0.89429E+08         0.00000E+00
    0.00000E+00         0.00000E+00        -0.61727E+08
 
   -0.62008E+08         0.43986E+06         0.00000E+00
    0.43986E+06        -0.89231E+08         0.00000E+00
    0.00000E+00         0.00000E+00        -0.61291E+08
 
   -0.61677E+08         0.34067E+06         0.00000E+00
    0.34067E+06        -0.88985E+08         0.00000E+00
    0.00000E+00         0.00000E+00        -0.60802E+08
 
   -0.61330E+08         0.24064E+06         0.00000E+00
    0.24064E+06        -0.88684E+08         0.00000E+00
    0.00000E+00         0.00000E+00        -0.60248E+08
 
   -0.60976E+08         0.14226E+06         0.00000E+00
    0.14226E+06        -0.88323E+08         0.00000E+00
    0.00000E+00         0.00000E+00        -0.59617E+08
 
   -0.60625E+08         0.47058E+05         0.00000E+00
    0.47058E+05        -0.87902E+08         0.00000E+00
    0.00000E+00         0.00000E+00        -0.58901E+08
 
   -0.80373E+08         0.83630E+05         0.00000E+00
    0.83630E+05        -0.98753E+08         0.00000E+00
    0.00000E+00         0.00000E+00        -0.84188E+08
 
   -0.80237E+08         0.25686E+06         0.00000E+00
    0.25686E+06        -0.98004E+08         0.00000E+00
    0.00000E+00         0.00000E+00        -0.83291E+08
 
   -0.79978E+08         0.44254E+06         0.00000E+00
    0.44254E+06        -0.97439E+08         0.00000E+00
    0.00000E+00         0.00000E+00        -0.82435E+08
 
   -0.79620E+08         0.63798E+06         0.00000E+00
    0.63798E+06        -0.97047E+08         0.00000E+00
    0.00000E+00         0.00000E+00        -0.81616E+08
 
   -0.79195E+08         0.83670E+06         0.00000E+00
    0.83670E+06        -0.96802E+08         0.00000E+00
    0.00000E+00         0.00000E+00        -0.80833E+08
 
   -0.78731E+08         0.10330E+07         0.00000E+00
    0.10330E+07        -0.96670E+08         0.00000E+00
    0.00000E+00         0.00000E+00        -0.80086E+08
 
   -0.78247E+08         0.12226E+07         0.00000E+00
    0.12226E+07        -0.96624E+08         0.00000E+00
    0.00000E+00         0.00000E+00        -0.79371E+08
 
   -0.77759E+08         0.14016E+07         0.00000E+00
    0.14016E+07        -0.96637E+08         0.00000E+00
    0.00000E+00         0.00000E+00        -0.78687E+08
 
   -0.77346E+08         0.15555E+07         0.00000E+00
    0.15555E+07        -0.96617E+08         0.00000E+00
    0.00000E+00         0.00000E+00        -0.78100E+08
 
   -0.77052E+08         0.16731E+07         0.00000E+00
    0.16731E+07        -0.96509E+08         0.00000E+00
    0.00000E+00         0.00000E+00        -0.77646E+08
 
   -0.76790E+08         0.17668E+07         0.00000E+00
    0.17668E+07        -0.96391E+08         0.00000E+00
    0.00000E+00         0.00000E+00        -0.77245E+08
 
   -0.76535E+08         0.18416E+07         0.00000E+00
    0.18416E+07        -0.96282E+08         0.00000E+00
    0.00000E+00         0.00000E+00        -0.76869E+08
 
   -0.76285E+08         0.18991E+07         0.00000E+00
    0.18991E+07        -0.96179E+08         0.00000E+00
    0.00000E+00         0.00000E+00        -0.76513E+08
 
   -0.76039E+08         0.19410E+07         0.00000E+00
    0.19410E+07        -0.96081E+08         0.00000E+00
    0.00000E+00         0.00000E+00        -0.76174E+08
 
   -0.75796E+08         0.19687E+07         0.00000E+00
    0.19687E+07        -0.95986E+08         0.00000E+00
    0.00000E+00         0.00000E+00        -0.75851E+08
 
   -0.75556E+08         0.19840E+07         0.00000E+00
    0.19840E+07        -0.95891E+08         0.00000E+00
    0.00000E+00         0.00000E+00        -0.75542E+08
 
   -0.75319E+08         0.19884E+07         0.00000E+00
    0.19884E+07        -0.95797E+08         0.00000E+00
    0.00000E+00         0.00000E+00        -0.75246E+08
 
   -0.75085E+08         0.19833E+07         0.00000E+00
    0.19833E+07        -0.95702E+08         0.00000E+00
    0.00000E+00         0.00000E+00        -0.74961E+08
 
   -0.74854E+08         0.19701E+07         0.00000E+00
    0.19701E+07        -0.95607E+08         0.00000E+00
    0.00000E+00         0.00000E+00        -0.74688E+08
 
   -0.74625E+08         0.19500E+07         0.00000E+00
    0.19500E+07        -0.95512E+08         0.00000E+00
    0.00000E+00         0.00000E+00        -0.74425E+08
 
   -0.74401E+08         0.19241E+07         0.00000E+00
    0.19241E+07        -0.95416E+08         0.00000E+00
    0.00000E+00         0.00000E+00        -0.74172E+08
 
   -0.74180E+08         0.18936E+07         0.00000E+00
    0.18936E+07        -0.95320E+08         0.00000E+00
    0.00000E+00         0.00000E+00        -0.73928E+08
 
   -0.73963E+08         0.18592E+07         0.00000E+00
    0.18592E+07        -0.95224E+08         0.00000E+00
    0.00000E+00         0.00000E+00        -0.73694E+08
 
   -0.73750E+08         0.18219E+07         0.00000E+00
    0.18219E+07        -0.95127E+08         0.00000E+00
    0.00000E+00         0.00000E+00        -0.73468E+08
 
   -0.73542E+08         0.17823E+07         0.00000E+00
    0.17823E+07        -0.95032E+08         0.00000E+00
    0.00000E+00         0.00000E+00        -0.73251E+08
 
   -0.73338E+08         0.17412E+07         0.00000E+00
    0.17412E+07        -0.94936E+08         0.00000E+00
    0.00000E+00         0.00000E+00        -0.73042E+08
 
   -0.73139E+08         0.16990E+07         0.00000E+00
    0.16990E+07        -0.94842E+08         0.00000E+00
    0.00000E+00         0.00000E+00        -0.72841E+08
 
   -0.72945E+08         0.16563E+07         0.00000E+00
    0.16563E+07        -0.94748E+08         0.00000E+00
    0.00000E+00         0.00000E+00        -0.72647E+08
 
   -0.72755E+08         0.16135E+07         0.00000E+00
    0.16135E+07        -0.94655E+08         0.00000E+00
    0.00000E+00         0.00000E+00        -0.72460E+08
 
   -0.72570E+08         0.15710E+07         0.00000E+00
    0.15710E+07        -0.94564E+08         0.00000E+00
    0.00000E+00         0.00000E+00        -0.72280E+08
 
   -0.72390E+08         0.15290E+07         0.00000E+00
    0.15290E+07        -0.94473E+08         0.00000E+00
    0.00000E+00         0.00000E+00        -0.72106E+08
 
   -0.72215E+08         0.14878E+07         0.00000E+00
    0.14878E+07        -0.94384E+08         0.00000E+00
    0.00000E+00         0.00000E+00        -0.71939E+08
 
   -0.72044E+08         0.14476E+07         0.00000E+00
    0.14476E+07        -0.94297E+08         0.00000E+00
    0.00000E+00         0.00000E+00        -0.71777E+08
 
   -0.71877E+08         0.14087E+07         0.00000E+00
    0.14087E+07        -0.94210E+08         0.00000E+00
    0.00000E+00         0.00000E+00        -0.71620E+08
 
   -0.71715E+08         0.13712E+07         0.00000E+00
    0.13712E+07        -0.94125E+08         0.00000E+00
    0.00000E+00         0.00000E+00        -0.71469E+08
 
   -0.71557E+08         0.13351E+07         0.00000E+00
    0.13351E+07        -0.94042E+08         0.00000E+00
    0.00000E+00         0.00000E+00        -0.71322E+08
 
   -0.71403E+08         0.13007E+07         0.00000E+00
    0.13007E+07        -0.93960E+08         0.00000E+00
    0.00000E+00         0.00000E+00        -0.71180E+08
 
   -0.71253E+08         0.12679E+07         0.00000E+00
    0.12679E+07        -0.93879E+08         0.00000E+00
    0.00000E+00         0.00000E+00        -0.71042E+08
 
   -0.71106E+08         0.12368E+07         0.00000E+00
    0.12368E+07        -0.93800E+08         0.00000E+00
    0.00000E+00         0.00000E+00        -0.70909E+08
 
   -0.70963E+08         0.12075E+07         0.00000E+00
    0.12075E+07        -0.93722E+08         0.00000E+00
    0.00000E+00         0.00000E+00        -0.70778E+08
 
   -0.70822E+08         0.11801E+07         0.00000E+00
    0.11801E+07        -0.93645E+08         0.00000E+00
    0.00000E+00         0.00000E+00        -0.70651E+08
 
   -0.70685E+08         0.11544E+07         0.00000E+00
    0.11544E+07        -0.93570E+08         0.00000E+00
    0.00000E+00         0.00000E+00        -0.70527E+08
 
   -0.70551E+08         0.11307E+07         0.00000E+00
    0.11307E+07        -0.93495E+08         0.00000E+00
    0.00000E+00         0.00000E+00        -0.70406E+08
 
   -0.70419E+08         0.11087E+07         0.00000E+00
    0.11087E+07        -0.93422E+08         0.00000E+00
    0.00000E+00         0.00000E+00        -0.70288E+08
 
   -0.70290E+08         0.10886E+07         0.00000E+00
    0.10886E+07        -0.93349E+08         0.00000E+00
    0.00000E+00         0.00000E+00        -0.70172E+08
 
   -0.70162E+08         0.10704E+07         0.00000E+00
    0.10704E+07        -0.93277E+08         0.00000E+00
    0.00000E+00         0.00000E+00        -0.70058E+08
 
   -0.70037E+08         0.10540E+07         0.00000E+00
    0.10540E+07        -0.93206E+08         0.00000E+00
    0.00000E+00         0.00000E+00        -0.69946E+08
 
   -0.69913E+08         0.10394E+07         0.00000E+00
    0.10394E+07        -0.93136E+08         0.00000E+00
    0.00000E+00         0.00000E+00        -0.69835E+08
 
   -0.69790E+08         0.10266E+07         0.00000E+00
    0.10266E+07        -0.93066E+08         0.00000E+00
    0.00000E+00         0.00000E+00        -0.69726E+08
 
   -0.69669E+08         0.10156E+07         0.00000E+00
    0.10156E+07        -0.92997E+08         0.00000E+00
    0.00000E+00         0.00000E+00        -0.69617E+08
 
   -0.69549E+08         0.10063E+07         0.00000E+00
    0.10063E+07        -0.92928E+08         0.00000E+00
    0.00000E+00         0.00000E+00        -0.69510E+08
 
   -0.69430E+08         0.99880E+06         0.00000E+00
    0.99880E+06        -0.92859E+08         0.00000E+00
    0.00000E+00         0.00000E+00        -0.69403E+08
 
   -0.69311E+08         0.99296E+06         0.00000E+00
    0.99296E+06        -0.92791E+08         0.00000E+00
    0.00000E+00         0.00000E+00        -0.69297E+08
 
   -0.69192E+08         0.98877E+06         0.00000E+00
    0.98877E+06        -0.92722E+08         0.00000E+00
    0.00000E+00         0.00000E+00        -0.69191E+08
 
   -0.69074E+08         0.98620E+06         0.00000E+00
    0.98620E+06        -0.92654E+08         0.00000E+00
    0.00000E+00         0.00000E+00        -0.69085E+08
 
   -0.68955E+08         0.98522E+06         0.00000E+00
    0.98522E+06        -0.92585E+08         0.00000E+00
    0.00000E+00         0.00000E+00        -0.68979E+08
 
   -0.68837E+08         0.98578E+06         0.00000E+00
    0.98578E+06        -0.92516E+08         0.00000E+00
    0.00000E+00         0.00000E+00        -0.68872E+08
 
   -0.68718E+08         0.98783E+06         0.00000E+00
    0.98783E+06        -0.92447E+08         0.00000E+00
    0.00000E+00         0.00000E+00        -0.68765E+08
 
   -0.68598E+08         0.99133E+06         0.00000E+00
    0.99133E+06        -0.92377E+08         0.00000E+00
    0.00000E+00         0.00000E+00        -0.68656E+08
 
   -0.68477E+08         0.99621E+06         0.00000E+00
    0.99621E+06        -0.92307E+08         0.00000E+00
    0.00000E+00         0.00000E+00        -0.68546E+08
 
   -0.68355E+08         0.10024E+07         0.00000E+00
    0.10024E+07        -0.92237E+08         0.00000E+00
    0.00000E+00         0.00000E+00        -0.68435E+08
 
   -0.68232E+08         0.10099E+07         0.00000E+00
    0.10099E+07        -0.92166E+08         0.00000E+00
    0.00000E+00         0.00000E+00        -0.68323E+08
 
   -0.68108E+08         0.10185E+07         0.00000E+00
    0.10185E+07        -0.92094E+08         0.00000E+00
    0.00000E+00         0.00000E+00        -0.68208E+08
 
   -0.67981E+08         0.10282E+07         0.00000E+00
    0.10282E+07        -0.92021E+08         0.00000E+00
    0.00000E+00         0.00000E+00        -0.68092E+08
 
   -0.67853E+08         0.10389E+07         0.00000E+00
    0.10389E+07        -0.91947E+08         0.00000E+00
    0.00000E+00         0.00000E+00        -0.67973E+08
 
   -0.67723E+08         0.10504E+07         0.00000E+00
    0.10504E+07        -0.91873E+08         0.00000E+00
    0.00000E+00         0.00000E+00        -0.67851E+08
 
   -0.67591E+08         0.10627E+07         0.00000E+00
    0.10627E+07        -0.91798E+08         0.00000E+00
    0.00000E+00         0.00000E+00        -0.67727E+08
 
   -0.67457E+08         0.10756E+07         0.00000E+00
    0.10756E+07        -0.91722E+08         0.00000E+00
    0.00000E+00         0.00000E+00        -0.67599E+08
 
   -0.67320E+08         0.10890E+07         0.00000E+00
    0.10890E+07        -0.91645E+08         0.00000E+00
    0.00000E+00         0.00000E+00        -0.67468E+08
 
   -0.67180E+08         0.11026E+07         0.00000E+00
    0.11026E+07        -0.91567E+08         0.00000E+00
    0.00000E+00         0.00000E+00        -0.67334E+08
 
   -0.67038E+08         0.11163E+07         0.00000E+00
    0.11163E+07        -0.91488E+08         0.00000E+00
    0.00000E+00         0.00000E+00        -0.67195E+08
 
   -0.66892E+08         0.11298E+07         0.00000E+00
    0.11298E+07        -0.91409E+08         0.00000E+00
    0.00000E+00         0.00000E+00        -0.67053E+08
 
   -0.66744E+08         0.11428E+07         0.00000E+00
    0.11428E+07        -0.91328E+08         0.00000E+00
    0.00000E+00         0.00000E+00        -0.66905E+08
 
   -0.66592E+08         0.11552E+07         0.00000E+00
    0.11552E+07        -0.91248E+08         0.00000E+00
    0.00000E+00         0.00000E+00        -0.66754E+08
 
   -0.66438E+08         0.11666E+07         0.00000E+00
    0.11666E+07        -0.91166E+08         0.00000E+00
    0.00000E+00         0.00000E+00        -0.66597E+08
 
   -0.66280E+08         0.11765E+07         0.00000E+00
    0.11765E+07        -0.91085E+08         0.00000E+00
    0.00000E+00         0.00000E+00        -0.66434E+08
 
   -0.66118E+08         0.11847E+07         0.00000E+00
    0.11847E+07        -0.91004E+08         0.00000E+00
    0.00000E+00         0.00000E+00        -0.66266E+08
 
   -0.65953E+08         0.11907E+07         0.00000E+00
    0.11907E+07        -0.90922E+08         0.00000E+00
    0.00000E+00         0.00000E+00        -0.66093E+08
 
   -0.65785E+08         0.11940E+07         0.00000E+00
    0.11940E+07        -0.90842E+08         0.00000E+00
    0.00000E+00         0.00000E+00        -0.65913E+08
 
   -0.65612E+08         0.11942E+07         0.00000E+00
    0.11942E+07        -0.90761E+08         0.00000E+00
    0.00000E+00         0.00000E+00        -0.65726E+08
 
   -0.65437E+08         0.11906E+07         0.00000E+00
    0.11906E+07        -0.90682E+08         0.00000E+00
    0.00000E+00         0.00000E+00        -0.65532E+08
 
   -0.65257E+08         0.11828E+07         0.00000E+00
    0.11828E+07        -0.90604E+08         0.00000E+00
    0.00000E+00         0.00000E+00        -0.65332E+08
 
   -0.65073E+08         0.11701E+07         0.00000E+00
    0.11701E+07        -0.90527E+08         0.00000E+00
    0.00000E+00         0.00000E+00        -0.65123E+08
 
   -0.64886E+08         0.11520E+07         0.00000E+00
    0.11520E+07        -0.90452E+08         0.00000E+00
    0.00000E+00         0.00000E+00        -0.64907E+08
 
   -0.64693E+08         0.11278E+07         0.00000E+00
    0.11278E+07        -0.90378E+08         0.00000E+00
    0.00000E+00         0.00000E+00        -0.64682E+08
 
   -0.64496E+08         0.10970E+07         0.00000E+00
    0.10970E+07        -0.90305E+08         0.00000E+00
    0.00000E+00         0.00000E+00        -0.64448E+08
 
   -0.64294E+08         0.10591E+07         0.00000E+00
    0.10591E+07        -0.90233E+08         0.00000E+00
    0.00000E+00         0.00000E+00        -0.64204E+08
 
   -0.64085E+08         0.10137E+07         0.00000E+00
    0.10137E+07        -0.90160E+08         0.00000E+00
    0.00000E+00         0.00000E+00        -0.63950E+08
 
   -0.63870E+08         0.96041E+06         0.00000E+00
    0.96041E+06        -0.90086E+08         0.00000E+00
    0.00000E+00         0.00000E+00        -0.63684E+08
 
   -0.63647E+08         0.89929E+06         0.00000E+00
    0.89929E+06        -0.90009E+08         0.00000E+00
    0.00000E+00         0.00000E+00        -0.63404E+08
 
   -0.63414E+08         0.83043E+06         0.00000E+00
    0.83043E+06        -0.89925E+08         0.00000E+00
    0.00000E+00         0.00000E+00        -0.63110E+08
 
   -0.63169E+08         0.75430E+06         0.00000E+00
    0.75430E+06        -0.89832E+08         0.00000E+00
    0.00000E+00         0.00000E+00        -0.62797E+08
 
   -0.62912E+08         0.67168E+06         0.00000E+00
    0.67168E+06        -0.89724E+08         0.00000E+00
    0.00000E+00         0.00000E+00        -0.62462E+08
 
   -0.62640E+08         0.58372E+06         0.00000E+00
    0.58372E+06        -0.89595E+08         0.00000E+00
    0.00000E+00         0.00000E+00        -0.62100E+08
 
   -0.62351E+08         0.49188E+06         0.00000E+00
    0.49188E+06        -0.89437E+08         0.00000E+00
    0.00000E+00         0.00000E+00        -0.61705E+08
 
   -0.62043E+08         0.39784E+06         0.00000E+00
    0.39784E+06        -0.89242E+08         0.00000E+00
    0.00000E+00         0.00000E+00        -0.61268E+08
 
   -0.61719E+08         0.30347E+06         0.00000E+00
    0.30347E+06        -0.89001E+08         0.00000E+00
    0.00000E+00         0.00000E+00        -0.60777E+08
 
   -0.61380E+08         0.21110E+06         0.00000E+00
    0.21110E+06        -0.88705E+08         0.00000E+00
    0.00000E+00         0.00000E+00        -0.60221E+08
 
   -0.61033E+08         0.12322E+06         0.00000E+00
    0.12322E+06        -0.88347E+08         0.00000E+00
    0.00000E+00         0.00000E+00        -0.59589E+08
 
   -0.60686E+08         0.40461E+05         0.00000E+00
    0.40461E+05        -0.87929E+08         0.00000E+00
    0.00000E+00         0.00000E+00        -0.58873E+08
 
   -0.80201E+08         0.70167E+05         0.00000E+00
    0.70167E+05        -0.98784E+08         0.00000E+00
    0.00000E+00         0.00000E+00        -0.84188E+08
 
   -0.80071E+08         0.21763E+06         0.00000E+00
    0.21763E+06        -0.98037E+08         0.00000E+00
    0.00000E+00         0.00000E+00        -0.83291E+08
 
   -0.79824E+08         0.38119E+06         0.00000E+00
    0.38119E+06        -0.97476E+08         0.00000E+00
    0.00000E+00         0.00000E+00        -0.82435E+08
 
   -0.79482E+08         0.56014E+06         0.00000E+00
    0.56014E+06        -0.97086E+08         0.00000E+00
    0.00000E+00         0.00000E+00        -0.81616E+08
 
   -0.79074E+08         0.74834E+06         0.00000E+00
    0.74834E+06        -0.96840E+08         0.00000E+00
    0.00000E+00         0.00000E+00        -0.80833E+08
 
   -0.78626E+08         0.93904E+06         0.00000E+00
    0.93904E+06        -0.96709E+08         0.00000E+00
    0.00000E+00         0.00000E+00        -0.80086E+08
 
   -0.78158E+08         0.11264E+07         0.00000E+00
    0.11264E+07        -0.96661E+08         0.00000E+00
    0.00000E+00         0.00000E+00        -0.79371E+08
 
   -0.77685E+08         0.13054E+07         0.00000E+00
    0.13054E+07        -0.96672E+08         0.00000E+00
    0.00000E+00         0.00000E+00        -0.78687E+08
 
   -0.77296E+08         0.14596E+07         0.00000E+00
    0.14596E+07        -0.96638E+08         0.00000E+00
    0.00000E+00         0.00000E+00        -0.78109E+08
 
   -0.77020E+08         0.15801E+07         0.00000E+00
    0.15801E+07        -0.96522E+08         0.00000E+00
    0.00000E+00         0.00000E+00        -0.77660E+08
 
   -0.76765E+08         0.16786E+07         0.00000E+00
    0.16786E+07        -0.96404E+08         0.00000E+00
    0.00000E+00         0.00000E+00        -0.77254E+08
 
   -0.76515E+08         0.17581E+07         0.00000E+00
    0.17581E+07        -0.96296E+08         0.00000E+00
    0.00000E+00         0.00000E+00        -0.76874E+08
 
   -0.76270E+08         0.18200E+07         0.00000E+00
    0.18200E+07        -0.96195E+08         0.00000E+00
    0.00000E+00         0.00000E+00        -0.76514E+08
 
   -0.76027E+08         0.18659E+07         0.00000E+00
    0.18659E+07        -0.96096E+08         0.00000E+00
    0.00000E+00         0.00000E+00        -0.76173E+08
 
   -0.75788E+08         0.18974E+07         0.00000E+00
    0.18974E+07        -0.96001E+08         0.00000E+00
    0.00000E+00         0.00000E+00        -0.75847E+08
 
   -0.75551E+08         0.19160E+07         0.00000E+00
    0.19160E+07        -0.95905E+08         0.00000E+00
    0.00000E+00         0.00000E+00        -0.75536E+08
 
   -0.75316E+08         0.19234E+07         0.00000E+00
    0.19234E+07        -0.95811E+08         0.00000E+00
    0.00000E+00         0.00000E+00        -0.75238E+08
 
   -0.75084E+08         0.19211E+07         0.00000E+00
    0.19211E+07        -0.95715E+08         0.00000E+00
    0.00000E+00         0.00000E+00        -0.74952E+08
 
   -0.74855E+08         0.19104E+07         0.00000E+00
    0.19104E+07        -0.95620E+08         0.00000E+00
    0.00000E+00         0.00000E+00        -0.74677E+08
 
   -0.74628E+08         0.18926E+07         0.00000E+00
    0.18926E+07        -0.95524E+08         0.00000E+00
    0.00000E+00         0.00000E+00        -0.74413E+08
 
   -0.74405E+08         0.18689E+07         0.00000E+00
    0.18689E+07        -0.95427E+08         0.00000E+00
    0.00000E+00         0.00000E+00        -0.74160E+08
 
   -0.74185E+08         0.18404E+07         0.00000E+00
    0.18404E+07        -0.95330E+08         0.00000E+00
    0.00000E+00         0.00000E+00        -0.73916E+08
 
   -0.73969E+08         0.18079E+07         0.00000E+00
    0.18079E+07        -0.95233E+08         0.00000E+00
    0.00000E+00         0.00000E+00        -0.73681E+08
 
   -0.73757E+08         0.17724E+07         0.00000E+00
    0.17724E+07        -0.95137E+08         0.00000E+00
    0.00000E+00         0.00000E+00        -0.73455E+08
 
   -0.73549E+08         0.17345E+07         0.00000E+00
    0.17345E+07        -0.95040E+08         0.00000E+00
    0.00000E+00         0.00000E+00        -0.73238E+08
 
   -0.73345E+08         0.16950E+07         0.00000E+00
    0.16950E+07        -0.94944E+08         0.00000E+00
    0.00000E+00         0.00000E+00        -0.73029E+08
 
   -0.73146E+08         0.16543E+07         0.00000E+00
    0.16543E+07        -0.94849E+08         0.00000E+00
    0.00000E+00         0.00000E+00        -0.72828E+08
 
   -0.72952E+08         0.16131E+07         0.00000E+00
    0.16131E+07        -0.94755E+08         0.00000E+00
    0.00000E+00         0.00000E+00        -0.72634E+08
 
   -0.72762E+08         0.15716E+07         0.00000E+00
    0.15716E+07        -0.94662E+08         0.00000E+00
    0.00000E+00         0.00000E+00        -0.72448E+08
 
   -0.72578E+08         0.15304E+07         0.00000E+00
    0.15304E+07        -0.94570E+08         0.00000E+00
    0.00000E+00         0.00000E+00        -0.72268E+08
 
   -0.72397E+08         0.14896E+07         0.00000E+00
    0.14896E+07        -0.94479E+08         0.00000E+00
    0.00000E+00         0.00000E+00        -0.72095E+08
 
   -0.72222E+08         0.14496E+07         0.00000E+00
    0.14496E+07        -0.94390E+08         0.00000E+00
    0.00000E+00         0.00000E+00        -0.71927E+08
 
   -0.72050E+08         0.14106E+07         0.00000E+00
    0.14106E+07        -0.94302E+08         0.00000E+00
    0.00000E+00         0.00000E+00        -0.71766E+08
 
   -0.71884E+08         0.13728E+07         0.00000E+00
    0.13728E+07        -0.94215E+08         0.00000E+00
    0.00000E+00         0.00000E+00        -0.71610E+08
 
   -0.71721E+08         0.13363E+07         0.00000E+00
    0.13363E+07        -0.94130E+08         0.00000E+00
    0.00000E+00         0.00000E+00        -0.71459E+08
 
   -0.71563E+08         0.13012E+07         0.00000E+00
    0.13012E+07        -0.94046E+08         0.00000E+00
    0.00000E+00         0.00000E+00        -0.71313E+08
 
   -0.71408E+08         0.12677E+07         0.00000E+00
    0.12677E+07        -0.93964E+08         0.00000E+00
    0.00000E+00         0.00000E+00        -0.71171E+08
 
   -0.71258E+08         0.12357E+07         0.00000E+00
    0.12357E+07        -0.93883E+08         0.00000E+00
    0.00000E+00         0.00000E+00        -0.71034E+08
 
   -0.71111E+08         0.12055E+07         0.00000E+00
    0.12055E+07        -0.93804E+08         0.00000E+00
    0.00000E+00         0.00000E+00        -0.70901E+08
 
   -0.70967E+08         0.11770E+07         0.00000E+00
    0.11770E+07        -0.93725E+08         0.00000E+00
    0.00000E+00         0.00000E+00        -0.70771E+08
 
   -0.70827E+08         0.11502E+07         0.00000E+00
    0.11502E+07        -0.93648E+08         0.00000E+00
    0.00000E+00         0.00000E+00        -0.70644E+08
 
   -0.70689E+08         0.11252E+07         0.00000E+00
    0.11252E+07        -0.93573E+08         0.00000E+00
    0.00000E+00         0.00000E+00        -0.70521E+08
 
   -0.70554E+08         0.11020E+07         0.00000E+00
    0.11020E+07        -0.93498E+08         0.00000E+00
    0.00000E+00         0.00000E+00        -0.70400E+08
 
   -0.70422E+08         0.10806E+07         0.00000E+00
    0.10806E+07        -0.93424E+08         0.00000E+00
    0.00000E+00         0.00000E+00        -0.70282E+08
 
   -0.70292E+08         0.10611E+07         0.00000E+00
    0.10611E+07        -0.93351E+08         0.00000E+00
    0.00000E+00         0.00000E+00        -0.70167E+08
 
   -0.70164E+08         0.10433E+07         0.00000E+00
    0.10433E+07        -0.93279E+08         0.00000E+00
    0.00000E+00         0.00000E+00        -0.70053E+08
 
   -0.70038E+08         0.10273E+07         0.00000E+00
    0.10273E+07        -0.93208E+08         0.00000E+00
    0.00000E+00         0.00000E+00        -0.69941E+08
 
   -0.69914E+08         0.10130E+07         0.00000E+00
    0.10130E+07        -0.93138E+08         0.00000E+00
    0.00000E+00         0.00000E+00        -0.69831E+08
 
   -0.69791E+08         0.10005E+07         0.00000E+00
    0.10005E+07        -0.93068E+08         0.00000E+00
    0.00000E+00         0.00000E+00        -0.69722E+08
 
   -0.69669E+08         0.98975E+06         0.00000E+00
    0.98975E+06        -0.92998E+08         0.00000E+00
    0.00000E+00         0.00000E+00        -0.69614E+08
 
   -0.69549E+08         0.98069E+06         0.00000E+00
    0.98069E+06        -0.92929E+08         0.00000E+00
    0.00000E+00         0.00000E+00        -0.69507E+08
 
   -0.69429E+08         0.97331E+06         0.00000E+00
    0.97331E+06        -0.92861E+08         0.00000E+00
    0.00000E+00         0.00000E+00        -0.69401E+08
 
   -0.69310E+08         0.96757E+06         0.00000E+00
    0.96757E+06        -0.92792E+08         0.00000E+00
    0.00000E+00         0.00000E+00        -0.69295E+08
 
   -0.69191E+08         0.96345E+06         0.00000E+00
    0.96345E+06        -0.92723E+08         0.00000E+00
    0.00000E+00         0.00000E+00        -0.69190E+08
 
   -0.69072E+08         0.96091E+06         0.00000E+00
    0.96091E+06        -0.92655E+08         0.00000E+00
    0.00000E+00         0.00000E+00        -0.69084E+08
 
   -0.68953E+08         0.95990E+06         0.00000E+00
    0.95990E+06        -0.92586E+08         0.00000E+00
    0.00000E+00         0.00000E+00        -0.68978E+08
 
   -0.68834E+08         0.96040E+06         0.00000E+00
    0.96040E+06        -0.92517E+08         0.00000E+00
    0.00000E+00         0.00000E+00        -0.68871E+08
 
   -0.68714E+08         0.96234E+06         0.00000E+00
    0.96234E+06        -0.92448E+08         0.00000E+00
    0.00000E+00         0.00000E+00        -0.68764E+08
 
   -0.68594E+08         0.96569E+06         0.00000E+00
    0.96569E+06        -0.92378E+08         0.00000E+00
    0.00000E+00         0.00000E+00        -0.68656E+08
 
   -0.68473E+08         0.97037E+06         0.00000E+00
    0.97037E+06        -0.92308E+08         0.00000E+00
    0.00000E+00         0.00000E+00        -0.68547E+08
 
   -0.68351E+08         0.97635E+06         0.00000E+00
    0.97635E+06        -0.92237E+08         0.00000E+00
    0.00000E+00         0.00000E+00        -0.68436E+08
 
   -0.68227E+08         0.98353E+06         0.00000E+00
    0.98353E+06        -0.92166E+08         0.00000E+00
    0.00000E+00         0.00000E+00        -0.68324E+08
 
   -0.68102E+08         0.99184E+06         0.00000E+00
    0.99184E+06        -0.92094E+08         0.00000E+00
    0.00000E+00         0.00000E+00        -0.68209E+08
 
   -0.67976E+08         0.10012E+07         0.00000E+00
    0.10012E+07        -0.92021E+08         0.00000E+00
    0.00000E+00         0.00000E+00        -0.68093E+08
 
   -0.67847E+08         0.10115E+07         0.00000E+00
    0.10115E+07        -0.91948E+08         0.00000E+00
    0.00000E+00         0.00000E+00        -0.67974E+08
 
   -0.67717E+08         0.10227E+07         0.00000E+00
    0.10227E+07        -0.91873E+08         0.00000E+00
    0.00000E+00         0.00000E+00        -0.67853E+08
 
   -0.67584E+08         0.10345E+07         0.00000E+00
    0.10345E+07        -0.91798E+08         0.00000E+00
    0.00000E+00         0.00000E+00        -0.67729E+08
 
   -0.67449E+08         0.10470E+07         0.00000E+00
    0.10470E+07        -0.91722E+08         0.00000E+00
    0.00000E+00         0.00000E+00        -0.67601E+08
 
   -0.67312E+08         0.10598E+07         0.00000E+00
    0.10598E+07        -0.91644E+08         0.00000E+00
    0.00000E+00         0.00000E+00        -0.67470E+08
 
   -0.67172E+08         0.10729E+07         0.00000E+00
    0.10729E+07        -0.91566E+08         0.00000E+00
    0.00000E+00         0.00000E+00        -0.67336E+08
 
   -0.67029E+08         0.10861E+07         0.00000E+00
    0.10861E+07        -0.91488E+08         0.00000E+00
    0.00000E+00         0.00000E+00        -0.67197E+08
 
   -0.66884E+08         0.10990E+07         0.00000E+00
    0.10990E+07        -0.91408E+08         0.00000E+00
    0.00000E+00         0.00000E+00        -0.67055E+08
 
   -0.66735E+08         0.11115E+07         0.00000E+00
    0.11115E+07        -0.91328E+08         0.00000E+00
    0.00000E+00         0.00000E+00        -0.66907E+08
 
   -0.66584E+08         0.11233E+07         0.00000E+00
    0.11233E+07        -0.91247E+08         0.00000E+00
    0.00000E+00         0.00000E+00        -0.66755E+08
 
   -0.66429E+08         0.11341E+07         0.00000E+00
    0.11341E+07        -0.91165E+08         0.00000E+00
    0.00000E+00         0.00000E+00        -0.66598E+08
 
   -0.66271E+08         0.11434E+07         0.00000E+00
    0.11434E+07        -0.91084E+08         0.00000E+00
    0.00000E+00         0.00000E+00        -0.66436E+08
 
   -0.66109E+08         0.11510E+07         0.00000E+00
    0.11510E+07        -0.91002E+08         0.00000E+00
    0.00000E+00         0.00000E+00        -0.66268E+08
 
   -0.65944E+08         0.11564E+07         0.00000E+00
    0.11564E+07        -0.90921E+08         0.00000E+00
    0.00000E+00         0.00000E+00        -0.66093E+08
 
   -0.65776E+08         0.11591E+07         0.00000E+00
    0.11591E+07        -0.90840E+08         0.00000E+00
    0.00000E+00         0.00000E+00        -0.65913E+08
 
   -0.65604E+08         0.11587E+07         0.00000E+00
    0.11587E+07        -0.90760E+08         0.00000E+00
    0.00000E+00         0.00000E+00        -0.65726E+08
 
   -0.65429E+08         0.11545E+07         0.00000E+00
    0.11545E+07        -0.90680E+08         0.00000E+00
    0.00000E+00         0.00000E+00        -0.65531E+08
 
   -0.65250E+08         0.11460E+07         0.00000E+00
    0.11460E+07        -0.90602E+08         0.00000E+00
    0.00000E+00         0.00000E+00        -0.65330E+08
 
   -0.65067E+08         0.11327E+07         0.00000E+00
    0.11327E+07        -0.90525E+08         0.00000E+00
    0.00000E+00         0.00000E+00        -0.65120E+08
 
   -0.64880E+08         0.11139E+07         0.00000E+00
    0.11139E+07        -0.90449E+08         0.00000E+00
    0.00000E+00         0.00000E+00        -0.64903E+08
 
   -0.64689E+08         0.10891E+07         0.00000E+00
    0.10891E+07        -0.90375E+08         0.00000E+00
    0.00000E+00         0.00000E+00        -0.64677E+08
 
   -0.64493E+08         0.10575E+07         0.00000E+00
    0.10575E+07        -0.90302E+08         0.00000E+00
    0.00000E+00         0.00000E+00        -0.64442E+08
 
   -0.64292E+08         0.10189E+07         0.00000E+00
    0.10189E+07        -0.90230E+08         0.00000E+00
    0.00000E+00         0.00000E+00        -0.64196E+08
 
   -0.64086E+08         0.97263E+06         0.00000E+00
    0.97263E+06        -0.90158E+08         0.00000E+00
    0.00000E+00         0.00000E+00        -0.63941E+08
 
   -0.63873E+08         0.91855E+06         0.00000E+00
    0.91855E+06        -0.90085E+08         0.00000E+00
    0.00000E+00         0.00000E+00        -0.63673E+08
 
   -0.63653E+08         0.85658E+06         0.00000E+00
    0.85658E+06        -0.90008E+08         0.00000E+00
    0.00000E+00         0.00000E+00        -0.63392E+08
 
   -0.63423E+08         0.78692E+06         0.00000E+00
    0.78692E+06        -0.89925E+08         0.00000E+00
    0.00000E+00         0.00000E+00        -0.63095E+08
 
   -0.63183E+08         0.71012E+06         0.00000E+00
    0.71012E+06        -0.89833E+08         0.00000E+00
    0.00000E+00         0.00000E+00        -0.62780E+08
 
   -0.62930E+08         0.62712E+06         0.00000E+00
    0.62712E+06        -0.89727E+08         0.00000E+00
    0.00000E+00         0.00000E+00        -0.62444E+08
 
   -0.62663E+08         0.53935E+06         0.00000E+00
    0.53935E+06        -0.89600E+08         0.00000E+00
    0.00000E+00         0.00000E+00        -0.62080E+08
 
   -0.62380E+08         0.44865E+06         0.00000E+00
    0.44865E+06        -0.89446E+08         0.00000E+00
    0.00000E+00         0.00000E+00        -0.61684E+08
 
   -0.62079E+08         0.35725E+06         0.00000E+00
    0.35725E+06        -0.89255E+08         0.00000E+00
    0.00000E+00         0.00000E+00        -0.61245E+08
 
   -0.61762E+08         0.26769E+06         0.00000E+00
    0.26769E+06        -0.89018E+08         0.00000E+00
    0.00000E+00         0.00000E+00        -0.60753E+08
 
   -0.61430E+08         0.18282E+06         0.00000E+00
    0.18282E+06        -0.88726E+08         0.00000E+00
    0.00000E+00         0.00000E+00        -0.60196E+08
 
   -0.61089E+08         0.10504E+06         0.00000E+00
    0.10504E+06        -0.88373E+08         0.00000E+00
    0.00000E+00         0.00000E+00        -0.59564E+08
 
   -0.60747E+08         0.34168E+05         0.00000E+00
    0.34168E+05        -0.87957E+08         0.00000E+00
    0.00000E+00         0.00000E+00        -0.58848E+08
 
   -0.80033E+08         0.57322E+05         0.00000E+00
    0.57322E+05        -0.98810E+08         0.00000E+00
    0.00000E+00         0.00000E+00        -0.84188E+08
 
   -0.79909E+08         0.18019E+06         0.00000E+00
    0.18019E+06        -0.98066E+08         0.00000E+00
    0.00000E+00         0.00000E+00        -0.83291E+08
 
   -0.79673E+08         0.32253E+06         0.00000E+00
    0.32253E+06        -0.97508E+08         0.00000E+00
    0.00000E+00         0.00000E+00        -0.82435E+08
 
   -0.79345E+08         0.48547E+06         0.00000E+00
    0.48547E+06        -0.97121E+08         0.00000E+00
    0.00000E+00         0.00000E+00        -0.81616E+08
 
   -0.78953E+08         0.66328E+06         0.00000E+00
    0.66328E+06        -0.96878E+08         0.00000E+00
    0.00000E+00         0.00000E+00        -0.80833E+08
 
   -0.78521E+08         0.84826E+06         0.00000E+00
    0.84826E+06        -0.96746E+08         0.00000E+00
    0.00000E+00         0.00000E+00        -0.80086E+08
 
   -0.78069E+08         0.10332E+07         0.00000E+00
    0.10332E+07        -0.96698E+08         0.00000E+00
    0.00000E+00         0.00000E+00        -0.79371E+08
 
   -0.77610E+08         0.12120E+07         0.00000E+00
    0.12120E+07        -0.96706E+08         0.00000E+00
    0.00000E+00         0.00000E+00        -0.78687E+08
 
   -0.77246E+08         0.13665E+07         0.00000E+00
    0.13665E+07        -0.96659E+08         0.00000E+00
    0.00000E+00         0.00000E+00        -0.78119E+08
 
   -0.76989E+08         0.14895E+07         0.00000E+00
    0.14895E+07        -0.96533E+08         0.00000E+00
    0.00000E+00         0.00000E+00        -0.77675E+08
 
   -0.76740E+08         0.15925E+07         0.00000E+00
    0.15925E+07        -0.96418E+08         0.00000E+00
    0.00000E+00         0.00000E+00        -0.77264E+08
 
   -0.76495E+08         0.16763E+07         0.00000E+00
    0.16763E+07        -0.96311E+08         0.00000E+00
    0.00000E+00         0.00000E+00        -0.76879E+08
 
   -0.76255E+08         0.17424E+07         0.00000E+00
    0.17424E+07        -0.96209E+08         0.00000E+00
    0.00000E+00         0.00000E+00        -0.76516E+08
 
   -0.76017E+08         0.17920E+07         0.00000E+00
    0.17920E+07        -0.96111E+08         0.00000E+00
    0.00000E+00         0.00000E+00        -0.76172E+08
 
   -0.75781E+08         0.18270E+07         0.00000E+00
    0.18270E+07        -0.96015E+08         0.00000E+00
    0.00000E+00         0.00000E+00        -0.75843E+08
 
   -0.75547E+08         0.18488E+07         0.00000E+00
    0.18488E+07        -0.95920E+08         0.00000E+00
    0.00000E+00         0.00000E+00        -0.75530E+08
 
   -0.75314E+08         0.18591E+07         0.00000E+00
    0.18591E+07        -0.95824E+08         0.00000E+00
    0.00000E+00         0.00000E+00        -0.75230E+08
 
   -0.75084E+08         0.18594E+07         0.00000E+00
    0.18594E+07        -0.95729E+08         0.00000E+00
    0.00000E+00         0.00000E+00        -0.74943E+08
 
   -0.74857E+08         0.18511E+07         0.00000E+00
    0.18511E+07        -0.95632E+08         0.00000E+00
    0.00000E+00         0.00000E+00        -0.74667E+08
 
   -0.74631E+08         0.18355E+07         0.00000E+00
    0.18355E+07        -0.95536E+08         0.00000E+00
    0.00000E+00         0.00000E+00        -0.74402E+08
 
   -0.74409E+08         0.18139E+07         0.00000E+00
    0.18139E+07        -0.95438E+08         0.00000E+00
    0.00000E+00         0.00000E+00        -0.74148E+08
 
   -0.74190E+08         0.17873E+07         0.00000E+00
    0.17873E+07        -0.95341E+08         0.00000E+00
    0.00000E+00         0.00000E+00        -0.73903E+08
 
   -0.73975E+08         0.17567E+07         0.00000E+00
    0.17567E+07        -0.95243E+08         0.00000E+00
    0.00000E+00         0.00000E+00        -0.73668E+08
 
   -0.73763E+08         0.17228E+07         0.00000E+00
    0.17228E+07        -0.95146E+08         0.00000E+00
    0.00000E+00         0.00000E+00        -0.73442E+08
 
   -0.73556E+08         0.16866E+07         0.00000E+00
    0.16866E+07        -0.95049E+08         0.00000E+00
    0.00000E+00         0.00000E+00        -0.73225E+08
 
   -0.73352E+08         0.16486E+07         0.00000E+00
    0.16486E+07        -0.94953E+08         0.00000E+00
    0.00000E+00         0.00000E+00        -0.73016E+08
 
   -0.73154E+08         0.16095E+07         0.00000E+00
    0.16095E+07        -0.94857E+08         0.00000E+00
    0.00000E+00         0.00000E+00        -0.72815E+08
 
   -0.72960E+08         0.15696E+07         0.00000E+00
    0.15696E+07        -0.94762E+08         0.00000E+00
    0.00000E+00         0.00000E+00        -0.72622E+08
 
   -0.72770E+08         0.15296E+07         0.00000E+00
    0.15296E+07        -0.94669E+08         0.00000E+00
    0.00000E+00         0.00000E+00        -0.72436E+08
 
   -0.72585E+08         0.14896E+07         0.00000E+00
    0.14896E+07        -0.94576E+08         0.00000E+00
    0.00000E+00         0.00000E+00        -0.72256E+08
 
   -0.72404E+08         0.14501E+07         0.00000E+00
    0.14501E+07        -0.94485E+08         0.00000E+00
    0.00000E+00         0.00000E+00        -0.72083E+08
 
   -0.72229E+08         0.14113E+07         0.00000E+00
    0.14113E+07        -0.94395E+08         0.00000E+00
    0.00000E+00         0.00000E+00        -0.71916E+08
 
   -0.72057E+08         0.13734E+07         0.00000E+00
    0.13734E+07        -0.94307E+08         0.00000E+00
    0.00000E+00         0.00000E+00        -0.71755E+08
 
   -0.71890E+08         0.13367E+07         0.00000E+00
    0.13367E+07        -0.94220E+08         0.00000E+00
    0.00000E+00         0.00000E+00        -0.71600E+08
 
   -0.71727E+08         0.13012E+07         0.00000E+00
    0.13012E+07        -0.94134E+08         0.00000E+00
    0.00000E+00         0.00000E+00        -0.71449E+08
 
   -0.71569E+08         0.12671E+07         0.00000E+00
    0.12671E+07        -0.94050E+08         0.00000E+00
    0.00000E+00         0.00000E+00        -0.71304E+08
 
   -0.71414E+08         0.12344E+07         0.00000E+00
    0.12344E+07        -0.93968E+08         0.00000E+00
    0.00000E+00         0.00000E+00        -0.71163E+08
 
   -0.71263E+08         0.12034E+07         0.00000E+00
    0.12034E+07        -0.93887E+08         0.00000E+00
    0.00000E+00         0.00000E+00        -0.71026E+08
 
   -0.71116E+08         0.11739E+07         0.00000E+00
    0.11739E+07        -0.93807E+08         0.00000E+00
    0.00000E+00         0.00000E+00        -0.70893E+08
 
   -0.70971E+08         0.11462E+07         0.00000E+00
    0.11462E+07        -0.93729E+08         0.00000E+00
    0.00000E+00         0.00000E+00        -0.70763E+08
 
   -0.70831E+08         0.11201E+07         0.00000E+00
    0.11201E+07        -0.93651E+08         0.00000E+00
    0.00000E+00         0.00000E+00        -0.70637E+08
 
   -0.70693E+08         0.10958E+07         0.00000E+00
    0.10958E+07        -0.93575E+08         0.00000E+00
    0.00000E+00         0.00000E+00        -0.70514E+08
 
   -0.70557E+08         0.10732E+07         0.00000E+00
    0.10732E+07        -0.93500E+08         0.00000E+00
    0.00000E+00         0.00000E+00        -0.70394E+08
 
   -0.70425E+08         0.10523E+07         0.00000E+00
    0.10523E+07        -0.93427E+08         0.00000E+00
    0.00000E+00         0.00000E+00        -0.70277E+08
 
   -0.70294E+08         0.10333E+07         0.00000E+00
    0.10333E+07        -0.93354E+08         0.00000E+00
    0.00000E+00         0.00000E+00        -0.70162E+08
 
   -0.70166E+08         0.10159E+07         0.00000E+00
    0.10159E+07        -0.93282E+08         0.00000E+00
    0.00000E+00         0.00000E+00        -0.70048E+08
 
   -0.70040E+08         0.10003E+07         0.00000E+00
    0.10003E+07        -0.93210E+08         0.00000E+00
    0.00000E+00         0.00000E+00        -0.69937E+08
 
   -0.69915E+08         0.98642E+06         0.00000E+00
    0.98642E+06        -0.93140E+08         0.00000E+00
    0.00000E+00         0.00000E+00        -0.69827E+08
 
   -0.69792E+08         0.97423E+06         0.00000E+00
    0.97423E+06        -0.93070E+08         0.00000E+00
    0.00000E+00         0.00000E+00        -0.69719E+08
 
   -0.69670E+08         0.96372E+06         0.00000E+00
    0.96372E+06        -0.93000E+08         0.00000E+00
    0.00000E+00         0.00000E+00        -0.69611E+08
 
   -0.69549E+08         0.95486E+06         0.00000E+00
    0.95486E+06        -0.92931E+08         0.00000E+00
    0.00000E+00         0.00000E+00        -0.69505E+08
 
   -0.69428E+08         0.94764E+06         0.00000E+00
    0.94764E+06        -0.92862E+08         0.00000E+00
    0.00000E+00         0.00000E+00        -0.69399E+08
 
   -0.69309E+08         0.94202E+06         0.00000E+00
    0.94202E+06        -0.92793E+08         0.00000E+00
    0.00000E+00         0.00000E+00        -0.69293E+08
 
   -0.69189E+08         0.93797E+06         0.00000E+00
    0.93797E+06        -0.92724E+08         0.00000E+00
    0.00000E+00         0.00000E+00        -0.69188E+08
 
   -0.69070E+08         0.93545E+06         0.00000E+00
    0.93545E+06        -0.92656E+08         0.00000E+00
    0.00000E+00         0.00000E+00        -0.69083E+08
 
   -0.68951E+08         0.93442E+06         0.00000E+00
    0.93442E+06        -0.92587E+08         0.00000E+00
    0.00000E+00         0.00000E+00        -0.68977E+08
 
   -0.68831E+08         0.93486E+06         0.00000E+00
    0.93486E+06        -0.92518E+08         0.00000E+00
    0.00000E+00         0.00000E+00        -0.68871E+08
 
   -0.68711E+08         0.93670E+06         0.00000E+00
    0.93670E+06        -0.92449E+08         0.00000E+00
    0.00000E+00         0.00000E+00        -0.68764E+08
 
   -0.68590E+08         0.93990E+06         0.00000E+00
    0.93990E+06        -0.92379E+08         0.00000E+00
    0.00000E+00         0.00000E+00        -0.68656E+08
 
   -0.68469E+08         0.94440E+06         0.00000E+00
    0.94440E+06        -0.92309E+08         0.00000E+00
    0.00000E+00         0.00000E+00        -0.68547E+08
 
   -0.68346E+08         0.95015E+06         0.00000E+00
    0.95015E+06        -0.92238E+08         0.00000E+00
    0.00000E+00         0.00000E+00        -0.68437E+08
 
   -0.68222E+08         0.95707E+06         0.00000E+00
    0.95707E+06        -0.92166E+08         0.00000E+00
    0.00000E+00         0.00000E+00        -0.68325E+08
 
   -0.68097E+08         0.96509E+06         0.00000E+00
    0.96509E+06        -0.92094E+08         0.00000E+00
    0.00000E+00         0.00000E+00        -0.68211E+08
 
   -0.67970E+08         0.97412E+06         0.00000E+00
    0.97412E+06        -0.92021E+08         0.00000E+00
    0.00000E+00         0.00000E+00        -0.68094E+08
 
   -0.67841E+08         0.98406E+06         0.00000E+00
    0.98406E+06        -0.91948E+08         0.00000E+00
    0.00000E+00         0.00000E+00        -0.67976E+08
 
   -0.67710E+08         0.99482E+06         0.00000E+00
    0.99482E+06        -0.91873E+08         0.00000E+00
    0.00000E+00         0.00000E+00        -0.67855E+08
 
   -0.67577E+08         0.10063E+07         0.00000E+00
    0.10063E+07        -0.91798E+08         0.00000E+00
    0.00000E+00         0.00000E+00        -0.67730E+08
 
   -0.67442E+08         0.10182E+07         0.00000E+00
    0.10182E+07        -0.91721E+08         0.00000E+00
    0.00000E+00         0.00000E+00        -0.67603E+08
 
   -0.67305E+08         0.10306E+07         0.00000E+00
    0.10306E+07        -0.91644E+08         0.00000E+00
    0.00000E+00         0.00000E+00        -0.67472E+08
 
   -0.67164E+08         0.10432E+07         0.00000E+00
    0.10432E+07        -0.91566E+08         0.00000E+00
    0.00000E+00         0.00000E+00        -0.67338E+08
 
   -0.67021E+08         0.10558E+07         0.00000E+00
    0.10558E+07        -0.91487E+08         0.00000E+00
    0.00000E+00         0.00000E+00        -0.67199E+08
 
   -0.66875E+08         0.10682E+07         0.00000E+00
    0.10682E+07        -0.91407E+08         0.00000E+00
    0.00000E+00         0.00000E+00        -0.67057E+08
 
   -0.66727E+08         0.10802E+07         0.00000E+00
    0.10802E+07        -0.91327E+08         0.00000E+00
    0.00000E+00         0.00000E+00        -0.66910E+08
 
   -0.66575E+08         0.10914E+07         0.00000E+00
    0.10914E+07        -0.91246E+08         0.00000E+00
    0.00000E+00         0.00000E+00        -0.66757E+08
 
   -0.66420E+08         0.11016E+07         0.00000E+00
    0.11016E+07        -0.91164E+08         0.00000E+00
    0.00000E+00         0.00000E+00        -0.66600E+08
 
   -0.66261E+08         0.11104E+07         0.00000E+00
    0.11104E+07        -0.91083E+08         0.00000E+00
    0.00000E+00         0.00000E+00        -0.66437E+08
 
   -0.66100E+08         0.11174E+07         0.00000E+00
    0.11174E+07        -0.91001E+08         0.00000E+00
    0.00000E+00         0.00000E+00        -0.66269E+08
 
   -0.65935E+08         0.11222E+07         0.00000E+00
    0.11222E+07        -0.90919E+08         0.00000E+00
    0.00000E+00         0.00000E+00        -0.66094E+08
 
   -0.65767E+08         0.11244E+07         0.00000E+00
    0.11244E+07        -0.90838E+08         0.00000E+00
    0.00000E+00         0.00000E+00        -0.65913E+08
 
   -0.65596E+08         0.11233E+07         0.00000E+00
    0.11233E+07        -0.90757E+08         0.00000E+00
    0.00000E+00         0.00000E+00        -0.65725E+08
 
   -0.65421E+08         0.11186E+07         0.00000E+00
    0.11186E+07        -0.90678E+08         0.00000E+00
    0.00000E+00         0.00000E+00        -0.65530E+08
 
   -0.65242E+08         0.11096E+07         0.00000E+00
    0.11096E+07        -0.90599E+08         0.00000E+00
    0.00000E+00         0.00000E+00        -0.65328E+08
 
   -0.65060E+08         0.10957E+07         0.00000E+00
    0.10957E+07        -0.90522E+08         0.00000E+00
    0.00000E+00         0.00000E+00        -0.65118E+08
 
   -0.64874E+08         0.10763E+07         0.00000E+00
    0.10763E+07        -0.90447E+08         0.00000E+00
    0.00000E+00         0.00000E+00        -0.64899E+08
 
   -0.64684E+08         0.10508E+07         0.00000E+00
    0.10508E+07        -0.90372E+08         0.00000E+00
    0.00000E+00         0.00000E+00        -0.64672E+08
 
   -0.64490E+08         0.10186E+07         0.00000E+00
    0.10186E+07        -0.90299E+08         0.00000E+00
    0.00000E+00         0.00000E+00        -0.64435E+08
 
   -0.64291E+08         0.97927E+06         0.00000E+00
    0.97927E+06        -0.90227E+08         0.00000E+00
    0.00000E+00         0.00000E+00        -0.64189E+08
 
   -0.64087E+08         0.93232E+06         0.00000E+00
    0.93232E+06        -0.90156E+08         0.00000E+00
    0.00000E+00         0.00000E+00        -0.63931E+08
 
   -0.63876E+08         0.87751E+06         0.00000E+00
    0.87751E+06        -0.90083E+08         0.00000E+00
    0.00000E+00         0.00000E+00        -0.63662E+08
 
   -0.63659E+08         0.81479E+06         0.00000E+00
    0.81479E+06        -0.90007E+08         0.00000E+00
    0.00000E+00         0.00000E+00        -0.63379E+08
 
   -0.63433E+08         0.74442E+06         0.00000E+00
    0.74442E+06        -0.89925E+08         0.00000E+00
    0.00000E+00         0.00000E+00        -0.63080E+08
 
   -0.63197E+08         0.66704E+06         0.00000E+00
    0.66704E+06        -0.89834E+08         0.00000E+00
    0.00000E+00         0.00000E+00        -0.62764E+08
 
   -0.62949E+08         0.58377E+06         0.00000E+00
    0.58377E+06        -0.89730E+08         0.00000E+00
    0.00000E+00         0.00000E+00        -0.62425E+08
 
   -0.62687E+08         0.49626E+06         0.00000E+00
    0.49626E+06        -0.89606E+08         0.00000E+00
    0.00000E+00         0.00000E+00        -0.62060E+08
 
   -0.62410E+08         0.40676E+06         0.00000E+00
    0.40676E+06        -0.89455E+08         0.00000E+00
    0.00000E+00         0.00000E+00        -0.61662E+08
 
   -0.62116E+08         0.31803E+06         0.00000E+00
    0.31803E+06        -0.89268E+08         0.00000E+00
    0.00000E+00         0.00000E+00        -0.61222E+08
 
   -0.61805E+08         0.23324E+06         0.00000E+00
    0.23324E+06        -0.89035E+08         0.00000E+00
    0.00000E+00         0.00000E+00        -0.60729E+08
 
   -0.61480E+08         0.15566E+06         0.00000E+00
    0.15566E+06        -0.88748E+08         0.00000E+00
    0.00000E+00         0.00000E+00        -0.60172E+08
 
   -0.61146E+08         0.87599E+05         0.00000E+00
    0.87599E+05        -0.88400E+08         0.00000E+00
    0.00000E+00         0.00000E+00        -0.59540E+08
 
   -0.60808E+08         0.28135E+05         0.00000E+00
    0.28135E+05        -0.87986E+08         0.00000E+00
    0.00000E+00         0.00000E+00        -0.58824E+08
 
   -0.79869E+08         0.45007E+05         0.00000E+00
    0.45007E+05        -0.98831E+08         0.00000E+00
    0.00000E+00         0.00000E+00        -0.84188E+08
 
   -0.79751E+08         0.14431E+06         0.00000E+00
    0.14431E+06        -0.98090E+08         0.00000E+00
    0.00000E+00         0.00000E+00        -0.83291E+08
 
   -0.79524E+08         0.26630E+06         0.00000E+00
    0.26630E+06        -0.97537E+08         0.00000E+00
    0.00000E+00         0.00000E+00        -0.82435E+08
 
   -0.79209E+08         0.41377E+06         0.00000E+00
    0.41377E+06        -0.97154E+08         0.00000E+00
    0.00000E+00         0.00000E+00        -0.81616E+08
 
   -0.78832E+08         0.58138E+06         0.00000E+00
    0.58138E+06        -0.96914E+08         0.00000E+00
    0.00000E+00         0.00000E+00        -0.80833E+08
 
   -0.78416E+08         0.76065E+06         0.00000E+00
    0.76065E+06        -0.96783E+08         0.00000E+00
    0.00000E+00         0.00000E+00        -0.80086E+08
 
   -0.77979E+08         0.94311E+06         0.00000E+00
    0.94311E+06        -0.96734E+08         0.00000E+00
    0.00000E+00         0.00000E+00        -0.79371E+08
 
   -0.77548E+08         0.11199E+07         0.00000E+00
    0.11199E+07        -0.96728E+08         0.00000E+00
    0.00000E+00         0.00000E+00        -0.78699E+08
 
   -0.77207E+08         0.12748E+07         0.00000E+00
    0.12748E+07        -0.96670E+08         0.00000E+00
    0.00000E+00         0.00000E+00        -0.78138E+08
 
   -0.76959E+08         0.14014E+07         0.00000E+00
    0.14014E+07        -0.96544E+08         0.00000E+00
    0.00000E+00         0.00000E+00        -0.77691E+08
 
   -0.76716E+08         0.15084E+07         0.00000E+00
    0.15084E+07        -0.96431E+08         0.00000E+00
    0.00000E+00         0.00000E+00        -0.77275E+08
 
   -0.76477E+08         0.15963E+07         0.00000E+00
    0.15963E+07        -0.96325E+08         0.00000E+00
    0.00000E+00         0.00000E+00        -0.76886E+08
 
   -0.76241E+08         0.16662E+07         0.00000E+00
    0.16662E+07        -0.96224E+08         0.00000E+00
    0.00000E+00         0.00000E+00        -0.76519E+08
 
   -0.76007E+08         0.17194E+07         0.00000E+00
    0.17194E+07        -0.96126E+08         0.00000E+00
    0.00000E+00         0.00000E+00        -0.76171E+08
 
   -0.75774E+08         0.17575E+07         0.00000E+00
    0.17575E+07        -0.96030E+08         0.00000E+00
    0.00000E+00         0.00000E+00        -0.75840E+08
 
   -0.75543E+08         0.17823E+07         0.00000E+00
    0.17823E+07        -0.95934E+08         0.00000E+00
    0.00000E+00         0.00000E+00        -0.75525E+08
 
   -0.75313E+08         0.17953E+07         0.00000E+00
    0.17953E+07        -0.95838E+08         0.00000E+00
    0.00000E+00         0.00000E+00        -0.75223E+08
 
   -0.75085E+08         0.17981E+07         0.00000E+00
    0.17981E+07        -0.95742E+08         0.00000E+00
    0.00000E+00         0.00000E+00        -0.74934E+08
 
   -0.74859E+08         0.17921E+07         0.00000E+00
    0.17921E+07        -0.95645E+08         0.00000E+00
    0.00000E+00         0.00000E+00        -0.74657E+08
 
   -0.74635E+08         0.17787E+07         0.00000E+00
    0.17787E+07        -0.95548E+08         0.00000E+00
    0.00000E+00         0.00000E+00        -0.74391E+08
 
   -0.74414E+08         0.17591E+07         0.00000E+00
    0.17591E+07        -0.95450E+08         0.00000E+00
    0.00000E+00         0.00000E+00        -0.74136E+08
 
   -0.74196E+08         0.17343E+07         0.00000E+00
    0.17343E+07        -0.95352E+08         0.00000E+00
    0.00000E+00         0.00000E+00        -0.73891E+08
 
   -0.73981E+08         0.17054E+07         0.00000E+00
    0.17054E+07        -0.95253E+08         0.00000E+00
    0.00000E+00         0.00000E+00        -0.73656E+08
 
   -0.73770E+08         0.16733E+07         0.00000E+00
    0.16733E+07        -0.95155E+08         0.00000E+00
    0.00000E+00         0.00000E+00        -0.73430E+08
 
   -0.73563E+08         0.16386E+07         0.00000E+00
    0.16386E+07        -0.95058E+08         0.00000E+00
    0.00000E+00         0.00000E+00        -0.73212E+08
 
   -0.73360E+08         0.16022E+07         0.00000E+00
    0.16022E+07        -0.94961E+08         0.00000E+00
    0.00000E+00         0.00000E+00        -0.73003E+08
 
   -0.73161E+08         0.15645E+07         0.00000E+00
    0.15645E+07        -0.94865E+08         0.00000E+00
    0.00000E+00         0.00000E+00        -0.72803E+08
 
   -0.72967E+08         0.15261E+07         0.00000E+00
    0.15261E+07        -0.94769E+08         0.00000E+00
    0.00000E+00         0.00000E+00        -0.72609E+08
 
   -0.72778E+08         0.14873E+07         0.00000E+00
    0.14873E+07        -0.94675E+08         0.00000E+00
    0.00000E+00         0.00000E+00        -0.72423E+08
 
   -0.72592E+08         0.14487E+07         0.00000E+00
    0.14487E+07        -0.94582E+08         0.00000E+00
    0.00000E+00         0.00000E+00        -0.72244E+08
 
   -0.72412E+08         0.14104E+07         0.00000E+00
    0.14104E+07        -0.94491E+08         0.00000E+00
    0.00000E+00         0.00000E+00        -0.72072E+08
 
   -0.72236E+08         0.13728E+07         0.00000E+00
    0.13728E+07        -0.94401E+08         0.00000E+00
    0.00000E+00         0.00000E+00        -0.71905E+08
 
   -0.72064E+08         0.13360E+07         0.00000E+00
    0.13360E+07        -0.94312E+08         0.00000E+00
    0.00000E+00         0.00000E+00        -0.71745E+08
 
   -0.71897E+08         0.13003E+07         0.00000E+00
    0.13003E+07        -0.94225E+08         0.00000E+00
    0.00000E+00         0.00000E+00        -0.71590E+08
 
   -0.71734E+08         0.12658E+07         0.00000E+00
    0.12658E+07        -0.94139E+08         0.00000E+00
    0.00000E+00         0.00000E+00        -0.71440E+08
 
   -0.71575E+08         0.12327E+07         0.00000E+00
    0.12327E+07        -0.94055E+08         0.00000E+00
    0.00000E+00         0.00000E+00        -0.71295E+08
 
   -0.71420E+08         0.12010E+07         0.00000E+00
    0.12010E+07        -0.93972E+08         0.00000E+00
    0.00000E+00         0.00000E+00        -0.71154E+08
 
   -0.71268E+08         0.11708E+07         0.00000E+00
    0.11708E+07        -0.93890E+08         0.00000E+00
    0.00000E+00         0.00000E+00        -0.71017E+08
 
   -0.71120E+08         0.11422E+07         0.00000E+00
    0.11422E+07        -0.93810E+08         0.00000E+00
    0.00000E+00         0.00000E+00        -0.70885E+08
 
   -0.70976E+08         0.11151E+07         0.00000E+00
    0.11151E+07        -0.93732E+08         0.00000E+00
    0.00000E+00         0.00000E+00        -0.70756E+08
 
   -0.70835E+08         0.10898E+07         0.00000E+00
    0.10898E+07        -0.93654E+08         0.00000E+00
    0.00000E+00         0.00000E+00        -0.70631E+08
 
   -0.70696E+08         0.10661E+07         0.00000E+00
    0.10661E+07        -0.93578E+08         0.00000E+00
    0.00000E+00         0.00000E+00        -0.70508E+08
 
   -0.70561E+08         0.10441E+07         0.00000E+00
    0.10441E+07        -0.93503E+08         0.00000E+00
    0.00000E+00         0.00000E+00        -0.70388E+08
 
   -0.70428E+08         0.10239E+07         0.00000E+00
    0.10239E+07        -0.93429E+08         0.00000E+00
    0.00000E+00         0.00000E+00        -0.70271E+08
 
   -0.70297E+08         0.10053E+07         0.00000E+00
    0.10053E+07        -0.93356E+08         0.00000E+00
    0.00000E+00         0.00000E+00        -0.70157E+08
 
   -0.70168E+08         0.98838E+06         0.00000E+00
    0.98838E+06        -0.93284E+08         0.00000E+00
    0.00000E+00         0.00000E+00        -0.70044E+08
 
   -0.70041E+08         0.97317E+06         0.00000E+00
    0.97317E+06        -0.93212E+08         0.00000E+00
    0.00000E+00         0.00000E+00        -0.69933E+08
 
   -0.69916E+08         0.95964E+06         0.00000E+00
    0.95964E+06        -0.93142E+08         0.00000E+00
    0.00000E+00         0.00000E+00        -0.69823E+08
 
   -0.69792E+08         0.94775E+06         0.00000E+00
    0.94775E+06        -0.93071E+08         0.00000E+00
    0.00000E+00         0.00000E+00        -0.69715E+08
 
   -0.69670E+08         0.93750E+06         0.00000E+00
    0.93750E+06        -0.93002E+08         0.00000E+00
    0.00000E+00         0.00000E+00        -0.69608E+08
 
   -0.69548E+08         0.92886E+06         0.00000E+00
    0.92886E+06        -0.92932E+08         0.00000E+00
    0.00000E+00         0.00000E+00        -0.69502E+08
 
   -0.69428E+08         0.92180E+06         0.00000E+00
    0.92180E+06        -0.92863E+08         0.00000E+00
    0.00000E+00         0.00000E+00        -0.69397E+08
 
   -0.69307E+08         0.91630E+06         0.00000E+00
    0.91630E+06        -0.92794E+08         0.00000E+00
    0.00000E+00         0.00000E+00        -0.69292E+08
 
   -0.69188E+08         0.91232E+06         0.00000E+00
    0.91232E+06        -0.92726E+08         0.00000E+00
    0.00000E+00         0.00000E+00        -0.69187E+08
 
   -0.69068E+08         0.90983E+06         0.00000E+00
    0.90983E+06        -0.92657E+08         0.00000E+00
    0.00000E+00         0.00000E+00        -0.69082E+08
 
   -0.68948E+08         0.90879E+06         0.00000E+00
    0.90879E+06        -0.92588E+08         0.00000E+00
    0.00000E+00         0.00000E+00        -0.68976E+08
 
   -0.68828E+08         0.90916E+06         0.00000E+00
    0.90916E+06        -0.92519E+08         0.00000E+00
    0.00000E+00         0.00000E+00        -0.68870E+08
 
   -0.68708E+08         0.91090E+06         0.00000E+00
    0.91090E+06        -0.92449E+08         0.00000E+00
    0.00000E+00         0.00000E+00        -0.68764E+08
 
   -0.68587E+08         0.91396E+06         0.00000E+00
    0.91396E+06        -0.92379E+08         0.00000E+00
    0.00000E+00         0.00000E+00        -0.68656E+08
 
   -0.68465E+08         0.91829E+06         0.00000E+00
    0.91829E+06        -0.92309E+08         0.00000E+00
    0.00000E+00         0.00000E+00        -0.68548E+08
 
   -0.68342E+08         0.92381E+06         0.00000E+00
    0.92381E+06        -0.92238E+08         0.00000E+00
    0.00000E+00         0.00000E+00        -0.68437E+08
 
   -0.68217E+08         0.93048E+06         0.00000E+00
    0.93048E+06        -0.92167E+08         0.00000E+00
    0.00000E+00         0.00000E+00        -0.68325E+08
 
   -0.68092E+08         0.93820E+06         0.00000E+00
    0.93820E+06        -0.92094E+08         0.00000E+00
    0.00000E+00         0.00000E+00        -0.68212E+08
 
   -0.67964E+08         0.94691E+06         0.00000E+00
    0.94691E+06        -0.92021E+08         0.00000E+00
    0.00000E+00         0.00000E+00        -0.68096E+08
 
   -0.67835E+08         0.95649E+06         0.00000E+00
    0.95649E+06        -0.91948E+08         0.00000E+00
    0.00000E+00         0.00000E+00        -0.67977E+08
 
   -0.67704E+08         0.96686E+06         0.00000E+00
    0.96686E+06        -0.91873E+08         0.00000E+00
    0.00000E+00         0.00000E+00        -0.67856E+08
 
   -0.67571E+08         0.97788E+06         0.00000E+00
    0.97788E+06        -0.91797E+08         0.00000E+00
    0.00000E+00         0.00000E+00        -0.67732E+08
 
   -0.67435E+08         0.98942E+06         0.00000E+00
    0.98942E+06        -0.91721E+08         0.00000E+00
    0.00000E+00         0.00000E+00        -0.67605E+08
 
   -0.67297E+08         0.10013E+07         0.00000E+00
    0.10013E+07        -0.91644E+08         0.00000E+00
    0.00000E+00         0.00000E+00        -0.67474E+08
 
   -0.67156E+08         0.10134E+07         0.00000E+00
    0.10134E+07        -0.91565E+08         0.00000E+00
    0.00000E+00         0.00000E+00        -0.67340E+08
 
   -0.67013E+08         0.10255E+07         0.00000E+00
    0.10255E+07        -0.91486E+08         0.00000E+00
    0.00000E+00         0.00000E+00        -0.67202E+08
 
   -0.66867E+08         0.10374E+07         0.00000E+00
    0.10374E+07        -0.91406E+08         0.00000E+00
    0.00000E+00         0.00000E+00        -0.67059E+08
 
   -0.66718E+08         0.10489E+07         0.00000E+00
    0.10489E+07        -0.91326E+08         0.00000E+00
    0.00000E+00         0.00000E+00        -0.66912E+08
 
   -0.66566E+08         0.10596E+07         0.00000E+00
    0.10596E+07        -0.91245E+08         0.00000E+00
    0.00000E+00         0.00000E+00        -0.66759E+08
 
   -0.66411E+08         0.10692E+07         0.00000E+00
    0.10692E+07        -0.91163E+08         0.00000E+00
    0.00000E+00         0.00000E+00        -0.66602E+08
 
   -0.66252E+08         0.10774E+07         0.00000E+00
    0.10774E+07        -0.91081E+08         0.00000E+00
    0.00000E+00         0.00000E+00        -0.66439E+08
 
   -0.66091E+08         0.10839E+07         0.00000E+00
    0.10839E+07        -0.90999E+08         0.00000E+00
    0.00000E+00         0.00000E+00        -0.66270E+08
 
   -0.65926E+08         0.10882E+07         0.00000E+00
    0.10882E+07        -0.90917E+08         0.00000E+00
    0.00000E+00         0.00000E+00        -0.66095E+08
 
   -0.65758E+08         0.10898E+07         0.00000E+00
    0.10898E+07        -0.90836E+08         0.00000E+00
    0.00000E+00         0.00000E+00        -0.65913E+08
 
   -0.65587E+08         0.10882E+07         0.00000E+00
    0.10882E+07        -0.90755E+08         0.00000E+00
    0.00000E+00         0.00000E+00        -0.65725E+08
 
   -0.65412E+08         0.10829E+07         0.00000E+00
    0.10829E+07        -0.90675E+08         0.00000E+00
    0.00000E+00         0.00000E+00        -0.65529E+08
 
   -0.65234E+08         0.10734E+07         0.00000E+00
    0.10734E+07        -0.90596E+08         0.00000E+00
    0.00000E+00         0.00000E+00        -0.65326E+08
 
   -0.65053E+08         0.10590E+07         0.00000E+00
    0.10590E+07        -0.90519E+08         0.00000E+00
    0.00000E+00         0.00000E+00        -0.65115E+08
 
   -0.64868E+08         0.10390E+07         0.00000E+00
    0.10390E+07        -0.90443E+08         0.00000E+00
    0.00000E+00         0.00000E+00        -0.64895E+08
 
   -0.64679E+08         0.10130E+07         0.00000E+00
    0.10130E+07        -0.90369E+08         0.00000E+00
    0.00000E+00         0.00000E+00        -0.64667E+08
 
   -0.64487E+08         0.98027E+06         0.00000E+00
    0.98027E+06        -0.90296E+08         0.00000E+00
    0.00000E+00         0.00000E+00        -0.64429E+08
 
   -0.64290E+08         0.94033E+06         0.00000E+00
    0.94033E+06        -0.90224E+08         0.00000E+00
    0.00000E+00         0.00000E+00        -0.64181E+08
 
   -0.64087E+08         0.89275E+06         0.00000E+00
    0.89275E+06        -0.90153E+08         0.00000E+00
    0.00000E+00         0.00000E+00        -0.63922E+08
 
   -0.63880E+08         0.83729E+06         0.00000E+00
    0.83729E+06        -0.90080E+08         0.00000E+00
    0.00000E+00         0.00000E+00        -0.63651E+08
 
   -0.63665E+08         0.77393E+06         0.00000E+00
    0.77393E+06        -0.90005E+08         0.00000E+00
    0.00000E+00         0.00000E+00        -0.63366E+08
 
   -0.63442E+08         0.70295E+06         0.00000E+00
    0.70295E+06        -0.89925E+08         0.00000E+00
    0.00000E+00         0.00000E+00        -0.63066E+08
 
   -0.63211E+08         0.62510E+06         0.00000E+00
    0.62510E+06        -0.89836E+08         0.00000E+00
    0.00000E+00         0.00000E+00        -0.62747E+08
 
   -0.62967E+08         0.54163E+06         0.00000E+00
    0.54163E+06        -0.89733E+08         0.00000E+00
    0.00000E+00         0.00000E+00        -0.62407E+08
 
   -0.62711E+08         0.45446E+06         0.00000E+00
    0.45446E+06        -0.89612E+08         0.00000E+00
    0.00000E+00         0.00000E+00        -0.62041E+08
 
   -0.62440E+08         0.36620E+06         0.00000E+00
    0.36620E+06        -0.89465E+08         0.00000E+00
    0.00000E+00         0.00000E+00        -0.61641E+08
 
   -0.62153E+08         0.28013E+06         0.00000E+00
    0.28013E+06        -0.89282E+08         0.00000E+00
    0.00000E+00         0.00000E+00        -0.61200E+08
 
   -0.61849E+08         0.20001E+06         0.00000E+00
    0.20001E+06        -0.89054E+08         0.00000E+00
    0.00000E+00         0.00000E+00        -0.60707E+08
 
   -0.61531E+08         0.12951E+06         0.00000E+00
    0.12951E+06        -0.88772E+08         0.00000E+00
    0.00000E+00         0.00000E+00        -0.60150E+08
 
   -0.61202E+08         0.70812E+05         0.00000E+00
    0.70812E+05        -0.88428E+08         0.00000E+00
    0.00000E+00         0.00000E+00        -0.59518E+08
 
   -0.60869E+08         0.22323E+05         0.00000E+00
    0.22323E+05        -0.88017E+08         0.00000E+00
    0.00000E+00         0.00000E+00        -0.58802E+08
 
   -0.79712E+08         0.33111E+05         0.00000E+00
    0.33111E+05        -0.98844E+08         0.00000E+00
    0.00000E+00         0.00000E+00        -0.84189E+08
 
   -0.79595E+08         0.10979E+06         0.00000E+00
    0.10979E+06        -0.98109E+08         0.00000E+00
    0.00000E+00         0.00000E+00        -0.83291E+08
 
   -0.79376E+08         0.21224E+06         0.00000E+00
    0.21224E+06        -0.97562E+08         0.00000E+00
    0.00000E+00         0.00000E+00        -0.82435E+08
 
   -0.79074E+08         0.34482E+06         0.00000E+00
    0.34482E+06        -0.97185E+08         0.00000E+00
    0.00000E+00         0.00000E+00        -0.81616E+08
 
   -0.78711E+08         0.50254E+06         0.00000E+00
    0.50254E+06        -0.96948E+08         0.00000E+00
    0.00000E+00         0.00000E+00        -0.80833E+08
 
   -0.78310E+08         0.67617E+06         0.00000E+00
    0.67617E+06        -0.96819E+08         0.00000E+00
    0.00000E+00         0.00000E+00        -0.80086E+08
 
   -0.77889E+08         0.85606E+06         0.00000E+00
    0.85606E+06        -0.96770E+08         0.00000E+00
    0.00000E+00         0.00000E+00        -0.79371E+08
 
   -0.77489E+08         0.10306E+07         0.00000E+00
    0.10306E+07        -0.96747E+08         0.00000E+00
    0.00000E+00         0.00000E+00        -0.78713E+08
 
   -0.77172E+08         0.11858E+07         0.00000E+00
    0.11858E+07        -0.96677E+08         0.00000E+00
    0.00000E+00         0.00000E+00        -0.78161E+08
 
   -0.76930E+08         0.13158E+07         0.00000E+00
    0.13158E+07        -0.96555E+08         0.00000E+00
    0.00000E+00         0.00000E+00        -0.77708E+08
 
   -0.76693E+08         0.14265E+07         0.00000E+00
    0.14265E+07        -0.96443E+08         0.00000E+00
    0.00000E+00         0.00000E+00        -0.77287E+08
 
   -0.76459E+08         0.15181E+07         0.00000E+00
    0.15181E+07        -0.96338E+08         0.00000E+00
    0.00000E+00         0.00000E+00        -0.76893E+08
 
   -0.76228E+08         0.15914E+07         0.00000E+00
    0.15914E+07        -0.96238E+08         0.00000E+00
    0.00000E+00         0.00000E+00        -0.76522E+08
 
   -0.75997E+08         0.16479E+07         0.00000E+00
    0.16479E+07        -0.96141E+08         0.00000E+00
    0.00000E+00         0.00000E+00        -0.76171E+08
 
   -0.75768E+08         0.16891E+07         0.00000E+00
    0.16891E+07        -0.96045E+08         0.00000E+00
    0.00000E+00         0.00000E+00        -0.75837E+08
 
   -0.75540E+08         0.17166E+07         0.00000E+00
    0.17166E+07        -0.95948E+08         0.00000E+00
    0.00000E+00         0.00000E+00        -0.75519E+08
 
   -0.75313E+08         0.17322E+07         0.00000E+00
    0.17322E+07        -0.95852E+08         0.00000E+00
    0.00000E+00         0.00000E+00        -0.75216E+08
 
   -0.75086E+08         0.17373E+07         0.00000E+00
    0.17373E+07        -0.95755E+08         0.00000E+00
    0.00000E+00         0.00000E+00        -0.74925E+08
 
   -0.74862E+08         0.17335E+07         0.00000E+00
    0.17335E+07        -0.95658E+08         0.00000E+00
    0.00000E+00         0.00000E+00        -0.74647E+08
 
   -0.74639E+08         0.17221E+07         0.00000E+00
    0.17221E+07        -0.95560E+08         0.00000E+00
    0.00000E+00         0.00000E+00        -0.74380E+08
 
   -0.74419E+08         0.17044E+07         0.00000E+00
    0.17044E+07        -0.95461E+08         0.00000E+00
    0.00000E+00         0.00000E+00        -0.74124E+08
 
   -0.74202E+08         0.16814E+07         0.00000E+00
    0.16814E+07        -0.95362E+08         0.00000E+00
    0.00000E+00         0.00000E+00        -0.73879E+08
 
   -0.73988E+08         0.16542E+07         0.00000E+00
    0.16542E+07        -0.95263E+08         0.00000E+00
    0.00000E+00         0.00000E+00        -0.73643E+08
 
   -0.73777E+08         0.16237E+07         0.00000E+00
    0.16237E+07        -0.95165E+08         0.00000E+00
    0.00000E+00         0.00000E+00        -0.73417E+08
 
   -0.73571E+08         0.15906E+07         0.00000E+00
    0.15906E+07        -0.95067E+08         0.00000E+00
    0.00000E+00         0.00000E+00        -0.73200E+08
 
   -0.73368E+08         0.15556E+07         0.00000E+00
    0.15556E+07        -0.94969E+08         0.00000E+00
    0.00000E+00         0.00000E+00        -0.72991E+08
 
   -0.73169E+08         0.15194E+07         0.00000E+00
    0.15194E+07        -0.94872E+08         0.00000E+00
    0.00000E+00         0.00000E+00        -0.72790E+08
 
   -0.72975E+08         0.14823E+07         0.00000E+00
    0.14823E+07        -0.94777E+08         0.00000E+00
    0.00000E+00         0.00000E+00        -0.72597E+08
 
   -0.72785E+08         0.14449E+07         0.00000E+00
    0.14449E+07        -0.94682E+08         0.00000E+00
    0.00000E+00         0.00000E+00        -0.72412E+08
 
   -0.72600E+08         0.14075E+07         0.00000E+00
    0.14075E+07        -0.94589E+08         0.00000E+00
    0.00000E+00         0.00000E+00        -0.72233E+08
 
   -0.72419E+08         0.13705E+07         0.00000E+00
    0.13705E+07        -0.94497E+08         0.00000E+00
    0.00000E+00         0.00000E+00        -0.72061E+08
 
   -0.72243E+08         0.13340E+07         0.00000E+00
    0.13340E+07        -0.94406E+08         0.00000E+00
    0.00000E+00         0.00000E+00        -0.71895E+08
 
   -0.72071E+08         0.12984E+07         0.00000E+00
    0.12984E+07        -0.94317E+08         0.00000E+00
    0.00000E+00         0.00000E+00        -0.71734E+08
 
   -0.71904E+08         0.12638E+07         0.00000E+00
    0.12638E+07        -0.94230E+08         0.00000E+00
    0.00000E+00         0.00000E+00        -0.71580E+08
 
   -0.71740E+08         0.12303E+07         0.00000E+00
    0.12303E+07        -0.94144E+08         0.00000E+00
    0.00000E+00         0.00000E+00        -0.71430E+08
 
   -0.71581E+08         0.11981E+07         0.00000E+00
    0.11981E+07        -0.94059E+08         0.00000E+00
    0.00000E+00         0.00000E+00        -0.71286E+08
 
   -0.71425E+08         0.11673E+07         0.00000E+00
    0.11673E+07        -0.93976E+08         0.00000E+00
    0.00000E+00         0.00000E+00        -0.71145E+08
 
   -0.71274E+08         0.11380E+07         0.00000E+00
    0.11380E+07        -0.93894E+08         0.00000E+00
    0.00000E+00         0.00000E+00        -0.71009E+08
 
   -0.71125E+08         0.11102E+07         0.00000E+00
    0.11102E+07        -0.93814E+08         0.00000E+00
    0.00000E+00         0.00000E+00        -0.70877E+08
 
   -0.70980E+08         0.10839E+07         0.00000E+00
    0.10839E+07        -0.93735E+08         0.00000E+00
    0.00000E+00         0.00000E+00        -0.70749E+08
 
   -0.70839E+08         0.10593E+07         0.00000E+00
    0.10593E+07        -0.93657E+08         0.00000E+00
    0.00000E+00         0.00000E+00        -0.70624E+08
 
   -0.70700E+08         0.10363E+07         0.00000E+00
    0.10363E+07        -0.93581E+08         0.00000E+00
    0.00000E+00         0.00000E+00        -0.70502E+08
 
   -0.70564E+08         0.10149E+07         0.00000E+00
    0.10149E+07        -0.93506E+08         0.00000E+00
    0.00000E+00         0.00000E+00        -0.70383E+08
 
   -0.70430E+08         0.99517E+06         0.00000E+00
    0.99517E+06        -0.93432E+08         0.00000E+00
    0.00000E+00         0.00000E+00        -0.70266E+08
 
   -0.70299E+08         0.97709E+06         0.00000E+00
    0.97709E+06        -0.93358E+08         0.00000E+00
    0.00000E+00         0.00000E+00        -0.70152E+08
 
   -0.70170E+08         0.96065E+06         0.00000E+00
    0.96065E+06        -0.93286E+08         0.00000E+00
    0.00000E+00         0.00000E+00        -0.70039E+08
 
   -0.70043E+08         0.94585E+06         0.00000E+00
    0.94585E+06        -0.93214E+08         0.00000E+00
    0.00000E+00         0.00000E+00        -0.69929E+08
 
   -0.69917E+08         0.93267E+06         0.00000E+00
    0.93267E+06        -0.93143E+08         0.00000E+00
    0.00000E+00         0.00000E+00        -0.69820E+08
 
   -0.69793E+08         0.92110E+06         0.00000E+00
    0.92110E+06        -0.93073E+08         0.00000E+00
    0.00000E+00         0.00000E+00        -0.69712E+08
 
   -0.69670E+08         0.91111E+06         0.00000E+00
    0.91111E+06        -0.93003E+08         0.00000E+00
    0.00000E+00         0.00000E+00        -0.69605E+08
 
   -0.69548E+08         0.90268E+06         0.00000E+00
    0.90268E+06        -0.92934E+08         0.00000E+00
    0.00000E+00         0.00000E+00        -0.69500E+08
 
   -0.69427E+08         0.89579E+06         0.00000E+00
    0.89579E+06        -0.92865E+08         0.00000E+00
    0.00000E+00         0.00000E+00        -0.69395E+08
 
   -0.69306E+08         0.89041E+06         0.00000E+00
    0.89041E+06        -0.92796E+08         0.00000E+00
    0.00000E+00         0.00000E+00        -0.69290E+08
 
   -0.69186E+08         0.88651E+06         0.00000E+00
    0.88651E+06        -0.92727E+08         0.00000E+00
    0.00000E+00         0.00000E+00        -0.69185E+08
 
   -0.69066E+08         0.88405E+06         0.00000E+00
    0.88405E+06        -0.92658E+08         0.00000E+00
    0.00000E+00         0.00000E+00        -0.69080E+08
 
   -0.68946E+08         0.88300E+06         0.00000E+00
    0.88300E+06        -0.92589E+08         0.00000E+00
    0.00000E+00         0.00000E+00        -0.68975E+08
 
   -0.68826E+08         0.88332E+06         0.00000E+00
    0.88332E+06        -0.92519E+08         0.00000E+00
    0.00000E+00         0.00000E+00        -0.68870E+08
 
   -0.68705E+08         0.88497E+06         0.00000E+00
    0.88497E+06        -0.92450E+08         0.00000E+00
    0.00000E+00         0.00000E+00        -0.68764E+08
 
   -0.68583E+08         0.88789E+06         0.00000E+00
    0.88789E+06        -0.92380E+08         0.00000E+00
    0.00000E+00         0.00000E+00        -0.68656E+08
 
   -0.68461E+08         0.89204E+06         0.00000E+00
    0.89204E+06        -0.92309E+08         0.00000E+00
    0.00000E+00         0.00000E+00        -0.68548E+08
 
   -0.68337E+08         0.89735E+06         0.00000E+00
    0.89735E+06        -0.92238E+08         0.00000E+00
    0.00000E+00         0.00000E+00        -0.68438E+08
 
   -0.68213E+08         0.90376E+06         0.00000E+00
    0.90376E+06        -0.92167E+08         0.00000E+00
    0.00000E+00         0.00000E+00        -0.68326E+08
 
   -0.68086E+08         0.91120E+06         0.00000E+00
    0.91120E+06        -0.92094E+08         0.00000E+00
    0.00000E+00         0.00000E+00        -0.68213E+08
 
   -0.67959E+08         0.91958E+06         0.00000E+00
    0.91958E+06        -0.92021E+08         0.00000E+00
    0.00000E+00         0.00000E+00        -0.68097E+08
 
   -0.67829E+08         0.92881E+06         0.00000E+00
    0.92881E+06        -0.91947E+08         0.00000E+00
    0.00000E+00         0.00000E+00        -0.67979E+08
 
   -0.67697E+08         0.93879E+06         0.00000E+00
    0.93879E+06        -0.91873E+08         0.00000E+00
    0.00000E+00         0.00000E+00        -0.67858E+08
 
   -0.67564E+08         0.94940E+06         0.00000E+00
    0.94940E+06        -0.91797E+08         0.00000E+00
    0.00000E+00         0.00000E+00        -0.67734E+08
 
   -0.67428E+08         0.96051E+06         0.00000E+00
    0.96051E+06        -0.91720E+08         0.00000E+00
    0.00000E+00         0.00000E+00        -0.67607E+08
 
   -0.67289E+08         0.97196E+06         0.00000E+00
    0.97196E+06        -0.91643E+08         0.00000E+00
    0.00000E+00         0.00000E+00        -0.67476E+08
 
   -0.67149E+08         0.98360E+06         0.00000E+00
    0.98360E+06        -0.91565E+08         0.00000E+00
    0.00000E+00         0.00000E+00        -0.67342E+08
 
   -0.67005E+08         0.99521E+06         0.00000E+00
    0.99521E+06        -0.91485E+08         0.00000E+00
    0.00000E+00         0.00000E+00        -0.67204E+08
 
   -0.66859E+08         0.10066E+07         0.00000E+00
    0.10066E+07        -0.91405E+08         0.00000E+00
    0.00000E+00         0.00000E+00        -0.67061E+08
 
   -0.66709E+08         0.10175E+07         0.00000E+00
    0.10175E+07        -0.91324E+08         0.00000E+00
    0.00000E+00         0.00000E+00        -0.66914E+08
 
   -0.66557E+08         0.10277E+07         0.00000E+00
    0.10277E+07        -0.91243E+08         0.00000E+00
    0.00000E+00         0.00000E+00        -0.66761E+08
 
   -0.66402E+08         0.10368E+07         0.00000E+00
    0.10368E+07        -0.91161E+08         0.00000E+00
    0.00000E+00         0.00000E+00        -0.66604E+08
 
   -0.66243E+08         0.10445E+07         0.00000E+00
    0.10445E+07        -0.91079E+08         0.00000E+00
    0.00000E+00         0.00000E+00        -0.66440E+08
 
   -0.66082E+08         0.10505E+07         0.00000E+00
    0.10505E+07        -0.90997E+08         0.00000E+00
    0.00000E+00         0.00000E+00        -0.66271E+08
 
   -0.65917E+08         0.10542E+07         0.00000E+00
    0.10542E+07        -0.90915E+08         0.00000E+00
    0.00000E+00         0.00000E+00        -0.66096E+08
 
   -0.65749E+08         0.10553E+07         0.00000E+00
    0.10553E+07        -0.90833E+08         0.00000E+00
    0.00000E+00         0.00000E+00        -0.65914E+08
 
   -0.65578E+08         0.10533E+07         0.00000E+00
    0.10533E+07        -0.90752E+08         0.00000E+00
    0.00000E+00         0.00000E+00        -0.65725E+08
 
   -0.65404E+08         0.10475E+07         0.00000E+00
    0.10475E+07        -0.90672E+08         0.00000E+00
    0.00000E+00         0.00000E+00        -0.65528E+08
 
   -0.65227E+08         0.10375E+07         0.00000E+00
    0.10375E+07        -0.90593E+08         0.00000E+00
    0.00000E+00         0.00000E+00        -0.65324E+08
 
   -0.65046E+08         0.10226E+07         0.00000E+00
    0.10226E+07        -0.90516E+08         0.00000E+00
    0.00000E+00         0.00000E+00        -0.65112E+08
 
   -0.64862E+08         0.10022E+07         0.00000E+00
    0.10022E+07        -0.90440E+08         0.00000E+00
    0.00000E+00         0.00000E+00        -0.64892E+08
 
   -0.64675E+08         0.97569E+06         0.00000E+00
    0.97569E+06        -0.90365E+08         0.00000E+00
    0.00000E+00         0.00000E+00        -0.64662E+08
 
   -0.64483E+08         0.94247E+06         0.00000E+00
    0.94247E+06        -0.90293E+08         0.00000E+00
    0.00000E+00         0.00000E+00        -0.64423E+08
 
   -0.64288E+08         0.90203E+06         0.00000E+00
    0.90203E+06        -0.90221E+08         0.00000E+00
    0.00000E+00         0.00000E+00        -0.64173E+08
 
   -0.64088E+08         0.85393E+06         0.00000E+00
    0.85393E+06        -0.90149E+08         0.00000E+00
    0.00000E+00         0.00000E+00        -0.63913E+08
 
   -0.63883E+08         0.79792E+06         0.00000E+00
    0.79792E+06        -0.90077E+08         0.00000E+00
    0.00000E+00         0.00000E+00        -0.63640E+08
 
   -0.63671E+08         0.73401E+06         0.00000E+00
    0.73401E+06        -0.90003E+08         0.00000E+00
    0.00000E+00         0.00000E+00        -0.63353E+08
 
   -0.63452E+08         0.66254E+06         0.00000E+00
    0.66254E+06        -0.89924E+08         0.00000E+00
    0.00000E+00         0.00000E+00        -0.63051E+08
 
   -0.63225E+08         0.58431E+06         0.00000E+00
    0.58431E+06        -0.89836E+08         0.00000E+00
    0.00000E+00         0.00000E+00        -0.62731E+08
 
   -0.62986E+08         0.50073E+06         0.00000E+00
    0.50073E+06        -0.89737E+08         0.00000E+00
    0.00000E+00         0.00000E+00        -0.62389E+08
 
   -0.62736E+08         0.41396E+06         0.00000E+00
    0.41396E+06        -0.89618E+08         0.00000E+00
    0.00000E+00         0.00000E+00        -0.62021E+08
 
   -0.62471E+08         0.32696E+06         0.00000E+00
    0.32696E+06        -0.89474E+08         0.00000E+00
    0.00000E+00         0.00000E+00        -0.61620E+08
 
   -0.62190E+08         0.24352E+06         0.00000E+00
    0.24352E+06        -0.89296E+08         0.00000E+00
    0.00000E+00         0.00000E+00        -0.61178E+08
 
   -0.61894E+08         0.16793E+06         0.00000E+00
    0.16793E+06        -0.89074E+08         0.00000E+00
    0.00000E+00         0.00000E+00        -0.60685E+08
 
   -0.61582E+08         0.10427E+06         0.00000E+00
    0.10427E+06        -0.88797E+08         0.00000E+00
    0.00000E+00         0.00000E+00        -0.60128E+08
 
   -0.61259E+08         0.54593E+05         0.00000E+00
    0.54593E+05        -0.88457E+08         0.00000E+00
    0.00000E+00         0.00000E+00        -0.59497E+08
 
   -0.60930E+08         0.16703E+05         0.00000E+00
    0.16703E+05        -0.88049E+08         0.00000E+00
    0.00000E+00         0.00000E+00        -0.58781E+08
 
   -0.79616E+08         0.21421E+05         0.00000E+00
    0.21421E+05        -0.98805E+08         0.00000E+00
    0.00000E+00         0.00000E+00        -0.84224E+08
 
   -0.79441E+08         0.76478E+05         0.00000E+00
    0.76478E+05        -0.98125E+08         0.00000E+00
    0.00000E+00         0.00000E+00        -0.83291E+08
 
   -0.79230E+08         0.16017E+06         0.00000E+00
    0.16017E+06        -0.97584E+08         0.00000E+00
    0.00000E+00         0.00000E+00        -0.82435E+08
 
   -0.78939E+08         0.27847E+06         0.00000E+00
    0.27847E+06        -0.97213E+08         0.00000E+00
    0.00000E+00         0.00000E+00        -0.81616E+08
 
   -0.78590E+08         0.42666E+06         0.00000E+00
    0.42666E+06        -0.96981E+08         0.00000E+00
    0.00000E+00         0.00000E+00        -0.80833E+08
 
   -0.78204E+08         0.59477E+06         0.00000E+00
    0.59477E+06        -0.96855E+08         0.00000E+00
    0.00000E+00         0.00000E+00        -0.80086E+08
 
   -0.77798E+08         0.77206E+06         0.00000E+00
    0.77206E+06        -0.96806E+08         0.00000E+00
    0.00000E+00         0.00000E+00        -0.79371E+08
 
   -0.77430E+08         0.94449E+06         0.00000E+00
    0.94449E+06        -0.96765E+08         0.00000E+00
    0.00000E+00         0.00000E+00        -0.78727E+08
 
   -0.77137E+08         0.10997E+07         0.00000E+00
    0.10997E+07        -0.96683E+08         0.00000E+00
    0.00000E+00         0.00000E+00        -0.78184E+08
 
   -0.76902E+08         0.12328E+07         0.00000E+00
    0.12328E+07        -0.96564E+08         0.00000E+00
    0.00000E+00         0.00000E+00        -0.77725E+08
 
   -0.76671E+08         0.13468E+07         0.00000E+00
    0.13468E+07        -0.96455E+08         0.00000E+00
    0.00000E+00         0.00000E+00        -0.77299E+08
 
   -0.76442E+08         0.14417E+07         0.00000E+00
    0.14417E+07        -0.96352E+08         0.00000E+00
    0.00000E+00         0.00000E+00        -0.76901E+08
 
   -0.76215E+08         0.15183E+07         0.00000E+00
    0.15183E+07        -0.96253E+08         0.00000E+00
    0.00000E+00         0.00000E+00        -0.76526E+08
 
   -0.75989E+08         0.15777E+07         0.00000E+00
    0.15777E+07        -0.96155E+08         0.00000E+00
    0.00000E+00         0.00000E+00        -0.76172E+08
 
   -0.75763E+08         0.16217E+07         0.00000E+00
    0.16217E+07        -0.96059E+08         0.00000E+00
    0.00000E+00         0.00000E+00        -0.75835E+08
 
   -0.75538E+08         0.16518E+07         0.00000E+00
    0.16518E+07        -0.95963E+08         0.00000E+00
    0.00000E+00         0.00000E+00        -0.75515E+08
 
   -0.75313E+08         0.16697E+07         0.00000E+00
    0.16697E+07        -0.95866E+08         0.00000E+00
    0.00000E+00         0.00000E+00        -0.75209E+08
 
   -0.75089E+08         0.16770E+07         0.00000E+00
    0.16770E+07        -0.95769E+08         0.00000E+00
    0.00000E+00         0.00000E+00        -0.74917E+08
 
   -0.74866E+08         0.16753E+07         0.00000E+00
    0.16753E+07        -0.95670E+08         0.00000E+00
    0.00000E+00         0.00000E+00        -0.74637E+08
 
   -0.74644E+08         0.16658E+07         0.00000E+00
    0.16658E+07        -0.95572E+08         0.00000E+00
    0.00000E+00         0.00000E+00        -0.74370E+08
 
   -0.74425E+08         0.16498E+07         0.00000E+00
    0.16498E+07        -0.95473E+08         0.00000E+00
    0.00000E+00         0.00000E+00        -0.74113E+08
 
   -0.74209E+08         0.16286E+07         0.00000E+00
    0.16286E+07        -0.95373E+08         0.00000E+00
    0.00000E+00         0.00000E+00        -0.73867E+08
 
   -0.73995E+08         0.16031E+07         0.00000E+00
    0.16031E+07        -0.95274E+08         0.00000E+00
    0.00000E+00         0.00000E+00        -0.73631E+08
 
   -0.73785E+08         0.15741E+07         0.00000E+00
    0.15741E+07        -0.95174E+08         0.00000E+00
    0.00000E+00         0.00000E+00        -0.73405E+08
 
   -0.73578E+08         0.15425E+07         0.00000E+00
    0.15425E+07        -0.95076E+08         0.00000E+00
    0.00000E+00         0.00000E+00        -0.73187E+08
 
   -0.73376E+08         0.15090E+07         0.00000E+00
    0.15090E+07        -0.94978E+08         0.00000E+00
    0.00000E+00         0.00000E+00        -0.72979E+08
 
   -0.73177E+08         0.14741E+07         0.00000E+00
    0.14741E+07        -0.94880E+08         0.00000E+00
    0.00000E+00         0.00000E+00        -0.72778E+08
 
   -0.72983E+08         0.14384E+07         0.00000E+00
    0.14384E+07        -0.94784E+08         0.00000E+00
    0.00000E+00         0.00000E+00        -0.72585E+08
 
   -0.72793E+08         0.14023E+07         0.00000E+00
    0.14023E+07        -0.94689E+08         0.00000E+00
    0.00000E+00         0.00000E+00        -0.72400E+08
 
   -0.72608E+08         0.13662E+07         0.00000E+00
    0.13662E+07        -0.94595E+08         0.00000E+00
    0.00000E+00         0.00000E+00        -0.72222E+08
 
   -0.72427E+08         0.13304E+07         0.00000E+00
    0.13304E+07        -0.94503E+08         0.00000E+00
    0.00000E+00         0.00000E+00        -0.72050E+08
 
   -0.72250E+08         0.12951E+07         0.00000E+00
    0.12951E+07        -0.94412E+08         0.00000E+00
    0.00000E+00         0.00000E+00        -0.71884E+08
 
   -0.72078E+08         0.12605E+07         0.00000E+00
    0.12605E+07        -0.94323E+08         0.00000E+00
    0.00000E+00         0.00000E+00        -0.71724E+08
 
   -0.71910E+08         0.12270E+07         0.00000E+00
    0.12270E+07        -0.94235E+08         0.00000E+00
    0.00000E+00         0.00000E+00        -0.71570E+08
 
   -0.71747E+08         0.11945E+07         0.00000E+00
    0.11945E+07        -0.94148E+08         0.00000E+00
    0.00000E+00         0.00000E+00        -0.71421E+08
 
   -0.71587E+08         0.11633E+07         0.00000E+00
    0.11633E+07        -0.94063E+08         0.00000E+00
    0.00000E+00         0.00000E+00        -0.71277E+08
 
   -0.71431E+08         0.11334E+07         0.00000E+00
    0.11334E+07        -0.93980E+08         0.00000E+00
    0.00000E+00         0.00000E+00        -0.71137E+08
 
   -0.71279E+08         0.11050E+07         0.00000E+00
    0.11050E+07        -0.93898E+08         0.00000E+00
    0.00000E+00         0.00000E+00        -0.71002E+08
 
   -0.71130E+08         0.10780E+07         0.00000E+00
    0.10780E+07        -0.93818E+08         0.00000E+00
    0.00000E+00         0.00000E+00        -0.70870E+08
 
   -0.70985E+08         0.10525E+07         0.00000E+00
    0.10525E+07        -0.93738E+08         0.00000E+00
    0.00000E+00         0.00000E+00        -0.70742E+08
 
   -0.70843E+08         0.10286E+07         0.00000E+00
    0.10286E+07        -0.93661E+08         0.00000E+00
    0.00000E+00         0.00000E+00        -0.70617E+08
 
   -0.70704E+08         0.10062E+07         0.00000E+00
    0.10062E+07        -0.93584E+08         0.00000E+00
    0.00000E+00         0.00000E+00        -0.70496E+08
 
   -0.70567E+08         0.98544E+06         0.00000E+00
    0.98544E+06        -0.93508E+08         0.00000E+00
    0.00000E+00         0.00000E+00        -0.70377E+08
 
   -0.70433E+08         0.96628E+06         0.00000E+00
    0.96628E+06        -0.93434E+08         0.00000E+00
    0.00000E+00         0.00000E+00        -0.70261E+08
 
   -0.70302E+08         0.94871E+06         0.00000E+00
    0.94871E+06        -0.93361E+08         0.00000E+00
    0.00000E+00         0.00000E+00        -0.70147E+08
 
   -0.70172E+08         0.93273E+06         0.00000E+00
    0.93273E+06        -0.93288E+08         0.00000E+00
    0.00000E+00         0.00000E+00        -0.70035E+08
 
   -0.70044E+08         0.91834E+06         0.00000E+00
    0.91834E+06        -0.93216E+08         0.00000E+00
    0.00000E+00         0.00000E+00        -0.69925E+08
 
   -0.69918E+08         0.90553E+06         0.00000E+00
    0.90553E+06        -0.93145E+08         0.00000E+00
    0.00000E+00         0.00000E+00        -0.69816E+08
 
   -0.69794E+08         0.89427E+06         0.00000E+00
    0.89427E+06        -0.93075E+08         0.00000E+00
    0.00000E+00         0.00000E+00        -0.69709E+08
 
   -0.69670E+08         0.88454E+06         0.00000E+00
    0.88454E+06        -0.93005E+08         0.00000E+00
    0.00000E+00         0.00000E+00        -0.69603E+08
 
   -0.69548E+08         0.87633E+06         0.00000E+00
    0.87633E+06        -0.92935E+08         0.00000E+00
    0.00000E+00         0.00000E+00        -0.69497E+08
 
   -0.69426E+08         0.86961E+06         0.00000E+00
    0.86961E+06        -0.92866E+08         0.00000E+00
    0.00000E+00         0.00000E+00        -0.69392E+08
 
   -0.69305E+08         0.86436E+06         0.00000E+00
    0.86436E+06        -0.92797E+08         0.00000E+00
    0.00000E+00         0.00000E+00        -0.69288E+08
 
   -0.69185E+08         0.86053E+06         0.00000E+00
    0.86053E+06        -0.92728E+08         0.00000E+00
    0.00000E+00         0.00000E+00        -0.69184E+08
 
   -0.69064E+08         0.85811E+06         0.00000E+00
    0.85811E+06        -0.92659E+08         0.00000E+00
    0.00000E+00         0.00000E+00        -0.69079E+08
 
   -0.68944E+08         0.85706E+06         0.00000E+00
    0.85706E+06        -0.92589E+08         0.00000E+00
    0.00000E+00         0.00000E+00        -0.68975E+08
 
   -0.68823E+08         0.85733E+06         0.00000E+00
    0.85733E+06        -0.92520E+08         0.00000E+00
    0.00000E+00         0.00000E+00        -0.68869E+08
 
   -0.68702E+08         0.85888E+06         0.00000E+00
    0.85888E+06        -0.92450E+08         0.00000E+00
    0.00000E+00         0.00000E+00        -0.68763E+08
 
   -0.68580E+08         0.86167E+06         0.00000E+00
    0.86167E+06        -0.92380E+08         0.00000E+00
    0.00000E+00         0.00000E+00        -0.68656E+08
 
   -0.68457E+08         0.86565E+06         0.00000E+00
    0.86565E+06        -0.92310E+08         0.00000E+00
    0.00000E+00         0.00000E+00        -0.68548E+08
 
   -0.68333E+08         0.87075E+06         0.00000E+00
    0.87075E+06        -0.92239E+08         0.00000E+00
    0.00000E+00         0.00000E+00        -0.68439E+08
 
   -0.68208E+08         0.87691E+06         0.00000E+00
    0.87691E+06        -0.92167E+08         0.00000E+00
    0.00000E+00         0.00000E+00        -0.68327E+08
 
   -0.68081E+08         0.88407E+06         0.00000E+00
    0.88407E+06        -0.92095E+08         0.00000E+00
    0.00000E+00         0.00000E+00        -0.68214E+08
 
   -0.67953E+08         0.89214E+06         0.00000E+00
    0.89214E+06        -0.92021E+08         0.00000E+00
    0.00000E+00         0.00000E+00        -0.68098E+08
 
   -0.67823E+08         0.90102E+06         0.00000E+00
    0.90102E+06        -0.91947E+08         0.00000E+00
    0.00000E+00         0.00000E+00        -0.67980E+08
 
   -0.67691E+08         0.91063E+06         0.00000E+00
    0.91063E+06        -0.91872E+08         0.00000E+00
    0.00000E+00         0.00000E+00        -0.67860E+08
 
   -0.67557E+08         0.92084E+06         0.00000E+00
    0.92084E+06        -0.91797E+08         0.00000E+00
    0.00000E+00         0.00000E+00        -0.67736E+08
 
   -0.67421E+08         0.93152E+06         0.00000E+00
    0.93152E+06        -0.91720E+08         0.00000E+00
    0.00000E+00         0.00000E+00        -0.67609E+08
 
   -0.67282E+08         0.94252E+06         0.00000E+00
    0.94252E+06        -0.91642E+08         0.00000E+00
    0.00000E+00         0.00000E+00        -0.67478E+08
 
   -0.67141E+08         0.95369E+06         0.00000E+00
    0.95369E+06        -0.91564E+08         0.00000E+00
    0.00000E+00         0.00000E+00        -0.67344E+08
 
   -0.66997E+08         0.96482E+06         0.00000E+00
    0.96482E+06        -0.91484E+08         0.00000E+00
    0.00000E+00         0.00000E+00        -0.67206E+08
 
   -0.66850E+08         0.97572E+06         0.00000E+00
    0.97572E+06        -0.91404E+08         0.00000E+00
    0.00000E+00         0.00000E+00        -0.67063E+08
 
   -0.66701E+08         0.98614E+06         0.00000E+00
    0.98614E+06        -0.91323E+08         0.00000E+00
    0.00000E+00         0.00000E+00        -0.66916E+08
 
   -0.66548E+08         0.99580E+06         0.00000E+00
    0.99580E+06        -0.91242E+08         0.00000E+00
    0.00000E+00         0.00000E+00        -0.66763E+08
 
   -0.66393E+08         0.10044E+07         0.00000E+00
    0.10044E+07        -0.91160E+08         0.00000E+00
    0.00000E+00         0.00000E+00        -0.66605E+08
 
   -0.66234E+08         0.10116E+07         0.00000E+00
    0.10116E+07        -0.91077E+08         0.00000E+00
    0.00000E+00         0.00000E+00        -0.66442E+08
 
   -0.66073E+08         0.10171E+07         0.00000E+00
    0.10171E+07        -0.90995E+08         0.00000E+00
    0.00000E+00         0.00000E+00        -0.66272E+08
 
   -0.65908E+08         0.10204E+07         0.00000E+00
    0.10204E+07        -0.90913E+08         0.00000E+00
    0.00000E+00         0.00000E+00        -0.66096E+08
 
   -0.65740E+08         0.10210E+07         0.00000E+00
    0.10210E+07        -0.90831E+08         0.00000E+00
    0.00000E+00         0.00000E+00        -0.65914E+08
 
   -0.65570E+08         0.10185E+07         0.00000E+00
    0.10185E+07        -0.90749E+08         0.00000E+00
    0.00000E+00         0.00000E+00        -0.65724E+08
 
   -0.65396E+08         0.10123E+07         0.00000E+00
    0.10123E+07        -0.90669E+08         0.00000E+00
    0.00000E+00         0.00000E+00        -0.65527E+08
 
   -0.65219E+08         0.10019E+07         0.00000E+00
    0.10019E+07        -0.90590E+08         0.00000E+00
    0.00000E+00         0.00000E+00        -0.65323E+08
 
   -0.65039E+08         0.98657E+06         0.00000E+00
    0.98657E+06        -0.90512E+08         0.00000E+00
    0.00000E+00         0.00000E+00        -0.65110E+08
 
   -0.64856E+08         0.96577E+06         0.00000E+00
    0.96577E+06        -0.90436E+08         0.00000E+00
    0.00000E+00         0.00000E+00        -0.64888E+08
 
   -0.64669E+08         0.93886E+06         0.00000E+00
    0.93886E+06        -0.90362E+08         0.00000E+00
    0.00000E+00         0.00000E+00        -0.64657E+08
 
   -0.64480E+08         0.90524E+06         0.00000E+00
    0.90524E+06        -0.90289E+08         0.00000E+00
    0.00000E+00         0.00000E+00        -0.64417E+08
 
   -0.64286E+08         0.86438E+06         0.00000E+00
    0.86438E+06        -0.90217E+08         0.00000E+00
    0.00000E+00         0.00000E+00        -0.64166E+08
 
   -0.64088E+08         0.81585E+06         0.00000E+00
    0.81585E+06        -0.90146E+08         0.00000E+00
    0.00000E+00         0.00000E+00        -0.63903E+08
 
   -0.63886E+08         0.75940E+06         0.00000E+00
    0.75940E+06        -0.90074E+08         0.00000E+00
    0.00000E+00         0.00000E+00        -0.63629E+08
 
   -0.63677E+08         0.69506E+06         0.00000E+00
    0.69506E+06        -0.90001E+08         0.00000E+00
    0.00000E+00         0.00000E+00        -0.63340E+08
 
   -0.63462E+08         0.62319E+06         0.00000E+00
    0.62319E+06        -0.89923E+08         0.00000E+00
    0.00000E+00         0.00000E+00        -0.63037E+08
 
   -0.63239E+08         0.54468E+06         0.00000E+00
    0.54468E+06        -0.89837E+08         0.00000E+00
    0.00000E+00         0.00000E+00        -0.62714E+08
 
   -0.63006E+08         0.46108E+06         0.00000E+00
    0.46108E+06        -0.89740E+08         0.00000E+00
    0.00000E+00         0.00000E+00        -0.62371E+08
 
   -0.62761E+08         0.37476E+06         0.00000E+00
    0.37476E+06        -0.89625E+08         0.00000E+00
    0.00000E+00         0.00000E+00        -0.62001E+08
 
   -0.62502E+08         0.28903E+06         0.00000E+00
    0.28903E+06        -0.89485E+08         0.00000E+00
    0.00000E+00         0.00000E+00        -0.61599E+08
 
   -0.62229E+08         0.20814E+06         0.00000E+00
    0.20814E+06        -0.89311E+08         0.00000E+00
    0.00000E+00         0.00000E+00        -0.61157E+08
 
   -0.61939E+08         0.13694E+06         0.00000E+00
    0.13694E+06        -0.89094E+08         0.00000E+00
    0.00000E+00         0.00000E+00        -0.60664E+08
 
   -0.61634E+08         0.79846E+05         0.00000E+00
    0.79846E+05        -0.88823E+08         0.00000E+00
    0.00000E+00         0.00000E+00        -0.60108E+08
 
   -0.61317E+08         0.38872E+05         0.00000E+00
    0.38872E+05        -0.88488E+08         0.00000E+00
    0.00000E+00         0.00000E+00        -0.59477E+08
 
   -0.60991E+08         0.11247E+05         0.00000E+00
    0.11247E+05        -0.88082E+08         0.00000E+00
    0.00000E+00         0.00000E+00        -0.58762E+08
 
   -0.79543E+08         0.10292E+05         0.00000E+00
    0.10292E+05        -0.98746E+08         0.00000E+00
    0.00000E+00         0.00000E+00        -0.84269E+08
 
   -0.79289E+08         0.44235E+05         0.00000E+00
    0.44235E+05        -0.98136E+08         0.00000E+00
    0.00000E+00         0.00000E+00        -0.83291E+08
 
   -0.79086E+08         0.10992E+06         0.00000E+00
    0.10992E+06        -0.97603E+08         0.00000E+00
    0.00000E+00         0.00000E+00        -0.82435E+08
 
   -0.78805E+08         0.21457E+06         0.00000E+00
    0.21457E+06        -0.97239E+08         0.00000E+00
    0.00000E+00         0.00000E+00        -0.81616E+08
 
   -0.78469E+08         0.35364E+06         0.00000E+00
    0.35364E+06        -0.97012E+08         0.00000E+00
    0.00000E+00         0.00000E+00        -0.80833E+08
 
   -0.78098E+08         0.51644E+06         0.00000E+00
    0.51644E+06        -0.96889E+08         0.00000E+00
    0.00000E+00         0.00000E+00        -0.80086E+08
 
   -0.77707E+08         0.69112E+06         0.00000E+00
    0.69112E+06        -0.96842E+08         0.00000E+00
    0.00000E+00         0.00000E+00        -0.79371E+08
 
   -0.77372E+08         0.86151E+06         0.00000E+00
    0.86151E+06        -0.96783E+08         0.00000E+00
    0.00000E+00         0.00000E+00        -0.78742E+08
 
   -0.77103E+08         0.10167E+07         0.00000E+00
    0.10167E+07        -0.96689E+08         0.00000E+00
    0.00000E+00         0.00000E+00        -0.78208E+08
 
   -0.76875E+08         0.11524E+07         0.00000E+00
    0.11524E+07        -0.96573E+08         0.00000E+00
    0.00000E+00         0.00000E+00        -0.77743E+08
 
   -0.76650E+08         0.12694E+07         0.00000E+00
    0.12694E+07        -0.96466E+08         0.00000E+00
    0.00000E+00         0.00000E+00        -0.77312E+08
 
   -0.76427E+08         0.13672E+07         0.00000E+00
    0.13672E+07        -0.96365E+08         0.00000E+00
    0.00000E+00         0.00000E+00        -0.76909E+08
 
   -0.76204E+08         0.14466E+07         0.00000E+00
    0.14466E+07        -0.96267E+08         0.00000E+00
    0.00000E+00         0.00000E+00        -0.76530E+08
 
   -0.75982E+08         0.15088E+07         0.00000E+00
    0.15088E+07        -0.96170E+08         0.00000E+00
    0.00000E+00         0.00000E+00        -0.76173E+08
 
   -0.75759E+08         0.15553E+07         0.00000E+00
    0.15553E+07        -0.96074E+08         0.00000E+00
    0.00000E+00         0.00000E+00        -0.75833E+08
 
   -0.75536E+08         0.15878E+07         0.00000E+00
    0.15878E+07        -0.95977E+08         0.00000E+00
    0.00000E+00         0.00000E+00        -0.75510E+08
 
   -0.75314E+08         0.16079E+07         0.00000E+00
    0.16079E+07        -0.95880E+08         0.00000E+00
    0.00000E+00         0.00000E+00        -0.75203E+08
 
   -0.75091E+08         0.16172E+07         0.00000E+00
    0.16172E+07        -0.95782E+08         0.00000E+00
    0.00000E+00         0.00000E+00        -0.74909E+08
 
   -0.74870E+08         0.16174E+07         0.00000E+00
    0.16174E+07        -0.95683E+08         0.00000E+00
    0.00000E+00         0.00000E+00        -0.74628E+08
 
   -0.74650E+08         0.16097E+07         0.00000E+00
    0.16097E+07        -0.95584E+08         0.00000E+00
    0.00000E+00         0.00000E+00        -0.74359E+08
 
   -0.74432E+08         0.15955E+07         0.00000E+00
    0.15955E+07        -0.95484E+08         0.00000E+00
    0.00000E+00         0.00000E+00        -0.74102E+08
 
   -0.74216E+08         0.15759E+07         0.00000E+00
    0.15759E+07        -0.95384E+08         0.00000E+00
    0.00000E+00         0.00000E+00        -0.73856E+08
 
   -0.74003E+08         0.15519E+07         0.00000E+00
    0.15519E+07        -0.95284E+08         0.00000E+00
    0.00000E+00         0.00000E+00        -0.73619E+08
 
   -0.73793E+08         0.15245E+07         0.00000E+00
    0.15245E+07        -0.95184E+08         0.00000E+00
    0.00000E+00         0.00000E+00        -0.73393E+08
 
   -0.73587E+08         0.14944E+07         0.00000E+00
    0.14944E+07        -0.95085E+08         0.00000E+00
    0.00000E+00         0.00000E+00        -0.73175E+08
 
   -0.73384E+08         0.14622E+07         0.00000E+00
    0.14622E+07        -0.94986E+08         0.00000E+00
    0.00000E+00         0.00000E+00        -0.72967E+08
 
   -0.73186E+08         0.14288E+07         0.00000E+00
    0.14288E+07        -0.94888E+08         0.00000E+00
    0.00000E+00         0.00000E+00        -0.72766E+08
 
   -0.72991E+08         0.13944E+07         0.00000E+00
    0.13944E+07        -0.94792E+08         0.00000E+00
    0.00000E+00         0.00000E+00        -0.72574E+08
 
   -0.72802E+08         0.13596E+07         0.00000E+00
    0.13596E+07        -0.94696E+08         0.00000E+00
    0.00000E+00         0.00000E+00        -0.72389E+08
 
   -0.72616E+08         0.13247E+07         0.00000E+00
    0.13247E+07        -0.94602E+08         0.00000E+00
    0.00000E+00         0.00000E+00        -0.72210E+08
 
   -0.72435E+08         0.12900E+07         0.00000E+00
    0.12900E+07        -0.94509E+08         0.00000E+00
    0.00000E+00         0.00000E+00        -0.72039E+08
 
   -0.72258E+08         0.12559E+07         0.00000E+00
    0.12559E+07        -0.94418E+08         0.00000E+00
    0.00000E+00         0.00000E+00        -0.71874E+08
 
   -0.72086E+08         0.12225E+07         0.00000E+00
    0.12225E+07        -0.94328E+08         0.00000E+00
    0.00000E+00         0.00000E+00        -0.71714E+08
 
   -0.71917E+08         0.11900E+07         0.00000E+00
    0.11900E+07        -0.94240E+08         0.00000E+00
    0.00000E+00         0.00000E+00        -0.71561E+08
 
   -0.71753E+08         0.11586E+07         0.00000E+00
    0.11586E+07        -0.94153E+08         0.00000E+00
    0.00000E+00         0.00000E+00        -0.71412E+08
 
   -0.71593E+08         0.11283E+07         0.00000E+00
    0.11283E+07        -0.94068E+08         0.00000E+00
    0.00000E+00         0.00000E+00        -0.71268E+08
 
   -0.71437E+08         0.10994E+07         0.00000E+00
    0.10994E+07        -0.93984E+08         0.00000E+00
    0.00000E+00         0.00000E+00        -0.71129E+08
 
   -0.71284E+08         0.10717E+07         0.00000E+00
    0.10717E+07        -0.93902E+08         0.00000E+00
    0.00000E+00         0.00000E+00        -0.70994E+08
 
   -0.71135E+08         0.10456E+07         0.00000E+00
    0.10456E+07        -0.93821E+08         0.00000E+00
    0.00000E+00         0.00000E+00        -0.70863E+08
 
   -0.70990E+08         0.10209E+07         0.00000E+00
    0.10209E+07        -0.93742E+08         0.00000E+00
    0.00000E+00         0.00000E+00        -0.70735E+08
 
   -0.70847E+08         0.99764E+06         0.00000E+00
    0.99764E+06        -0.93664E+08         0.00000E+00
    0.00000E+00         0.00000E+00        -0.70611E+08
 
   -0.70707E+08         0.97595E+06         0.00000E+00
    0.97595E+06        -0.93587E+08         0.00000E+00
    0.00000E+00         0.00000E+00        -0.70490E+08
 
   -0.70571E+08         0.95580E+06         0.00000E+00
    0.95580E+06        -0.93511E+08         0.00000E+00
    0.00000E+00         0.00000E+00        -0.70372E+08
 
   -0.70436E+08         0.93719E+06         0.00000E+00
    0.93719E+06        -0.93437E+08         0.00000E+00
    0.00000E+00         0.00000E+00        -0.70256E+08
 
   -0.70304E+08         0.92014E+06         0.00000E+00
    0.92014E+06        -0.93363E+08         0.00000E+00
    0.00000E+00         0.00000E+00        -0.70142E+08
 
   -0.70174E+08         0.90463E+06         0.00000E+00
    0.90463E+06        -0.93290E+08         0.00000E+00
    0.00000E+00         0.00000E+00        -0.70031E+08
 
   -0.70046E+08         0.89065E+06         0.00000E+00
    0.89065E+06        -0.93218E+08         0.00000E+00
    0.00000E+00         0.00000E+00        -0.69921E+08
 
   -0.69920E+08         0.87820E+06         0.00000E+00
    0.87820E+06        -0.93147E+08         0.00000E+00
    0.00000E+00         0.00000E+00        -0.69813E+08
 
   -0.69795E+08         0.86726E+06         0.00000E+00
    0.86726E+06        -0.93076E+08         0.00000E+00
    0.00000E+00         0.00000E+00        -0.69706E+08
 
   -0.69671E+08         0.85780E+06         0.00000E+00
    0.85780E+06        -0.93006E+08         0.00000E+00
    0.00000E+00         0.00000E+00        -0.69600E+08
 
   -0.69548E+08         0.84981E+06         0.00000E+00
    0.84981E+06        -0.92937E+08         0.00000E+00
    0.00000E+00         0.00000E+00        -0.69495E+08
 
   -0.69426E+08         0.84327E+06         0.00000E+00
    0.84327E+06        -0.92867E+08         0.00000E+00
    0.00000E+00         0.00000E+00        -0.69390E+08
 
   -0.69304E+08         0.83814E+06         0.00000E+00
    0.83814E+06        -0.92798E+08         0.00000E+00
    0.00000E+00         0.00000E+00        -0.69286E+08
 
   -0.69183E+08         0.83440E+06         0.00000E+00
    0.83440E+06        -0.92729E+08         0.00000E+00
    0.00000E+00         0.00000E+00        -0.69182E+08
 
   -0.69062E+08         0.83202E+06         0.00000E+00
    0.83202E+06        -0.92659E+08         0.00000E+00
    0.00000E+00         0.00000E+00        -0.69078E+08
 
   -0.68941E+08         0.83096E+06         0.00000E+00
    0.83096E+06        -0.92590E+08         0.00000E+00
    0.00000E+00         0.00000E+00        -0.68974E+08
 
   -0.68820E+08         0.83118E+06         0.00000E+00
    0.83118E+06        -0.92521E+08         0.00000E+00
    0.00000E+00         0.00000E+00        -0.68869E+08
 
   -0.68698E+08         0.83265E+06         0.00000E+00
    0.83265E+06        -0.92451E+08         0.00000E+00
    0.00000E+00         0.00000E+00        -0.68763E+08
 
   -0.68576E+08         0.83531E+06         0.00000E+00
    0.83531E+06        -0.92381E+08         0.00000E+00
    0.00000E+00         0.00000E+00        -0.68657E+08
 
   -0.68453E+08         0.83912E+06         0.00000E+00
    0.83912E+06        -0.92310E+08         0.00000E+00
    0.00000E+00         0.00000E+00        -0.68549E+08
 
   -0.68329E+08         0.84402E+06         0.00000E+00
    0.84402E+06        -0.92239E+08         0.00000E+00
    0.00000E+00         0.00000E+00        -0.68439E+08
 
   -0.68203E+08         0.84994E+06         0.00000E+00
    0.84994E+06        -0.92167E+08         0.00000E+00
    0.00000E+00         0.00000E+00        -0.68328E+08
 
   -0.68076E+08         0.85682E+06         0.00000E+00
    0.85682E+06        -0.92094E+08         0.00000E+00
    0.00000E+00         0.00000E+00        -0.68215E+08
 
   -0.67947E+08         0.86458E+06         0.00000E+00
    0.86458E+06        -0.92021E+08         0.00000E+00
    0.00000E+00         0.00000E+00        -0.68100E+08
 
   -0.67817E+08         0.87312E+06         0.00000E+00
    0.87312E+06        -0.91947E+08         0.00000E+00
    0.00000E+00         0.00000E+00        -0.67982E+08
 
   -0.67685E+08         0.88236E+06         0.00000E+00
    0.88236E+06        -0.91872E+08         0.00000E+00
    0.00000E+00         0.00000E+00        -0.67861E+08
 
   -0.67550E+08         0.89217E+06         0.00000E+00
    0.89217E+06        -0.91796E+08         0.00000E+00
    0.00000E+00         0.00000E+00        -0.67738E+08
 
   -0.67414E+08         0.90244E+06         0.00000E+00
    0.90244E+06        -0.91719E+08         0.00000E+00
    0.00000E+00         0.00000E+00        -0.67611E+08
 
   -0.67275E+08         0.91300E+06         0.00000E+00
    0.91300E+06        -0.91641E+08         0.00000E+00
    0.00000E+00         0.00000E+00        -0.67480E+08
 
   -0.67133E+08         0.92372E+06         0.00000E+00
    0.92372E+06        -0.91563E+08         0.00000E+00
    0.00000E+00         0.00000E+00        -0.67346E+08
 
   -0.66989E+08         0.93438E+06         0.00000E+00
    0.93438E+06        -0.91483E+08         0.00000E+00
    0.00000E+00         0.00000E+00        -0.67208E+08
 
   -0.66842E+08         0.94480E+06         0.00000E+00
    0.94480E+06        -0.91403E+08         0.00000E+00
    0.00000E+00         0.00000E+00        -0.67065E+08
 
   -0.66692E+08         0.95474E+06         0.00000E+00
    0.95474E+06        -0.91322E+08         0.00000E+00
    0.00000E+00         0.00000E+00        -0.66918E+08
 
   -0.66539E+08         0.96392E+06         0.00000E+00
    0.96392E+06        -0.91240E+08         0.00000E+00
    0.00000E+00         0.00000E+00        -0.66765E+08
 
   -0.66384E+08         0.97205E+06         0.00000E+00
    0.97205E+06        -0.91158E+08         0.00000E+00
    0.00000E+00         0.00000E+00        -0.66607E+08
 
   -0.66225E+08         0.97880E+06         0.00000E+00
    0.97880E+06        -0.91075E+08         0.00000E+00
    0.00000E+00         0.00000E+00        -0.66443E+08
 
   -0.66063E+08         0.98380E+06         0.00000E+00
    0.98380E+06        -0.90992E+08         0.00000E+00
    0.00000E+00         0.00000E+00        -0.66274E+08
 
   -0.65899E+08         0.98663E+06         0.00000E+00
    0.98663E+06        -0.90910E+08         0.00000E+00
    0.00000E+00         0.00000E+00        -0.66097E+08
 
   -0.65731E+08         0.98684E+06         0.00000E+00
    0.98684E+06        -0.90828E+08         0.00000E+00
    0.00000E+00         0.00000E+00        -0.65914E+08
 
   -0.65561E+08         0.98393E+06         0.00000E+00
    0.98393E+06        -0.90746E+08         0.00000E+00
    0.00000E+00         0.00000E+00        -0.65724E+08
 
   -0.65387E+08         0.97735E+06         0.00000E+00
    0.97735E+06        -0.90666E+08         0.00000E+00
    0.00000E+00         0.00000E+00        -0.65527E+08
 
   -0.65211E+08         0.96654E+06         0.00000E+00
    0.96654E+06        -0.90586E+08         0.00000E+00
    0.00000E+00         0.00000E+00        -0.65321E+08
 
   -0.65032E+08         0.95088E+06         0.00000E+00
    0.95088E+06        -0.90508E+08         0.00000E+00
    0.00000E+00         0.00000E+00        -0.65107E+08
 
   -0.64849E+08         0.92975E+06         0.00000E+00
    0.92975E+06        -0.90432E+08         0.00000E+00
    0.00000E+00         0.00000E+00        -0.64885E+08
 
   -0.64664E+08         0.90251E+06         0.00000E+00
    0.90251E+06        -0.90357E+08         0.00000E+00
    0.00000E+00         0.00000E+00        -0.64653E+08
 
   -0.64476E+08         0.86857E+06         0.00000E+00
    0.86857E+06        -0.90284E+08         0.00000E+00
    0.00000E+00         0.00000E+00        -0.64411E+08
 
   -0.64284E+08         0.82739E+06         0.00000E+00
    0.82739E+06        -0.90213E+08         0.00000E+00
    0.00000E+00         0.00000E+00        -0.64158E+08
 
   -0.64089E+08         0.77853E+06         0.00000E+00
    0.77853E+06        -0.90142E+08         0.00000E+00
    0.00000E+00         0.00000E+00        -0.63894E+08
 
   -0.63889E+08         0.72175E+06         0.00000E+00
    0.72175E+06        -0.90071E+08         0.00000E+00
    0.00000E+00         0.00000E+00        -0.63618E+08
 
   -0.63684E+08         0.65708E+06         0.00000E+00
    0.65708E+06        -0.89998E+08         0.00000E+00
    0.00000E+00         0.00000E+00        -0.63328E+08
 
   -0.63472E+08         0.58493E+06         0.00000E+00
    0.58493E+06        -0.89921E+08         0.00000E+00
    0.00000E+00         0.00000E+00        -0.63022E+08
 
   -0.63253E+08         0.50624E+06         0.00000E+00
    0.50624E+06        -0.89838E+08         0.00000E+00
    0.00000E+00         0.00000E+00        -0.62698E+08
 
   -0.63025E+08         0.42270E+06         0.00000E+00
    0.42270E+06        -0.89743E+08         0.00000E+00
    0.00000E+00         0.00000E+00        -0.62353E+08
 
   -0.62786E+08         0.33687E+06         0.00000E+00
    0.33687E+06        -0.89631E+08         0.00000E+00
    0.00000E+00         0.00000E+00        -0.61982E+08
 
   -0.62534E+08         0.25240E+06         0.00000E+00
    0.25240E+06        -0.89495E+08         0.00000E+00
    0.00000E+00         0.00000E+00        -0.61579E+08
 
   -0.62267E+08         0.17398E+06         0.00000E+00
    0.17398E+06        -0.89327E+08         0.00000E+00
    0.00000E+00         0.00000E+00        -0.61136E+08
 
   -0.61985E+08         0.10698E+06         0.00000E+00
    0.10698E+06        -0.89116E+08         0.00000E+00
    0.00000E+00         0.00000E+00        -0.60643E+08
 
   -0.61687E+08         0.56180E+05         0.00000E+00
    0.56180E+05        -0.88850E+08         0.00000E+00
    0.00000E+00         0.00000E+00        -0.60088E+08
 
   -0.61375E+08         0.23593E+05         0.00000E+00
    0.23593E+05        -0.88520E+08         0.00000E+00
    0.00000E+00         0.00000E+00        -0.59458E+08
 
   -0.61052E+08         0.59327E+04         0.00000E+00
    0.59327E+04        -0.88117E+08         0.00000E+00
    0.00000E+00         0.00000E+00        -0.58744E+08
 
   -0.79470E+08        -0.37760E+03         0.00000E+00
   -0.37760E+03        -0.98685E+08         0.00000E+00
    0.00000E+00         0.00000E+00        -0.84311E+08
 
   -0.79139E+08         0.12945E+05         0.00000E+00
    0.12945E+05        -0.98144E+08         0.00000E+00
    0.00000E+00         0.00000E+00        -0.83291E+08
 
   -0.78942E+08         0.61333E+05         0.00000E+00
    0.61333E+05        -0.97618E+08         0.00000E+00
    0.00000E+00         0.00000E+00        -0.82435E+08
 
   -0.78671E+08         0.15301E+06         0.00000E+00
    0.15301E+06        -0.97263E+08         0.00000E+00
    0.00000E+00         0.00000E+00        -0.81616E+08
 
   -0.78348E+08         0.28344E+06         0.00000E+00
    0.28344E+06        -0.97042E+08         0.00000E+00
    0.00000E+00         0.00000E+00        -0.80833E+08
 
   -0.77991E+08         0.44115E+06         0.00000E+00
    0.44115E+06        -0.96923E+08         0.00000E+00
    0.00000E+00         0.00000E+00        -0.80086E+08
 
   -0.77624E+08         0.61274E+06         0.00000E+00
    0.61274E+06        -0.96870E+08         0.00000E+00
    0.00000E+00         0.00000E+00        -0.79377E+08
 
   -0.77314E+08         0.78173E+06         0.00000E+00
    0.78173E+06        -0.96801E+08         0.00000E+00
    0.00000E+00         0.00000E+00        -0.78757E+08
 
   -0.77071E+08         0.93684E+06         0.00000E+00
    0.93684E+06        -0.96693E+08         0.00000E+00
    0.00000E+00         0.00000E+00        -0.78233E+08
 
   -0.76849E+08         0.10747E+07         0.00000E+00
    0.10747E+07        -0.96582E+08         0.00000E+00
    0.00000E+00         0.00000E+00        -0.77762E+08
 
   -0.76630E+08         0.11942E+07         0.00000E+00
    0.11942E+07        -0.96478E+08         0.00000E+00
    0.00000E+00         0.00000E+00        -0.77326E+08
 
   -0.76412E+08         0.12946E+07         0.00000E+00
    0.12946E+07        -0.96378E+08         0.00000E+00
    0.00000E+00         0.00000E+00        -0.76918E+08
 
   -0.76194E+08         0.13766E+07         0.00000E+00
    0.13766E+07        -0.96281E+08         0.00000E+00
    0.00000E+00         0.00000E+00        -0.76535E+08
 
   -0.75975E+08         0.14412E+07         0.00000E+00
    0.14412E+07        -0.96184E+08         0.00000E+00
    0.00000E+00         0.00000E+00        -0.76174E+08
 
   -0.75756E+08         0.14900E+07         0.00000E+00
    0.14900E+07        -0.96088E+08         0.00000E+00
    0.00000E+00         0.00000E+00        -0.75831E+08
 
   -0.75536E+08         0.15246E+07         0.00000E+00
    0.15246E+07        -0.95991E+08         0.00000E+00
    0.00000E+00         0.00000E+00        -0.75506E+08
 
   -0.75315E+08         0.15467E+07         0.00000E+00
    0.15467E+07        -0.95894E+08         0.00000E+00
    0.00000E+00         0.00000E+00        -0.75197E+08
 
   -0.75095E+08         0.15579E+07         0.00000E+00
    0.15579E+07        -0.95795E+08         0.00000E+00
    0.00000E+00         0.00000E+00        -0.74901E+08
 
   -0.74875E+08         0.15598E+07         0.00000E+00
    0.15598E+07        -0.95696E+08         0.00000E+00
    0.00000E+00         0.00000E+00        -0.74619E+08
 
   -0.74656E+08         0.15539E+07         0.00000E+00
    0.15539E+07        -0.95596E+08         0.00000E+00
    0.00000E+00         0.00000E+00        -0.74349E+08
 
   -0.74438E+08         0.15413E+07         0.00000E+00
    0.15413E+07        -0.95496E+08         0.00000E+00
    0.00000E+00         0.00000E+00        -0.74091E+08
 
   -0.74223E+08         0.15232E+07         0.00000E+00
    0.15232E+07        -0.95395E+08         0.00000E+00
    0.00000E+00         0.00000E+00        -0.73844E+08
 
   -0.74011E+08         0.15008E+07         0.00000E+00
    0.15008E+07        -0.95294E+08         0.00000E+00
    0.00000E+00         0.00000E+00        -0.73608E+08
 
   -0.73801E+08         0.14748E+07         0.00000E+00
    0.14748E+07        -0.95194E+08         0.00000E+00
    0.00000E+00         0.00000E+00        -0.73381E+08
 
   -0.73595E+08         0.14461E+07         0.00000E+00
    0.14461E+07        -0.95094E+08         0.00000E+00
    0.00000E+00         0.00000E+00        -0.73163E+08
 
   -0.73393E+08         0.14154E+07         0.00000E+00
    0.14154E+07        -0.94995E+08         0.00000E+00
    0.00000E+00         0.00000E+00        -0.72955E+08
 
   -0.73194E+08         0.13832E+07         0.00000E+00
    0.13832E+07        -0.94896E+08         0.00000E+00
    0.00000E+00         0.00000E+00        -0.72755E+08
 
   -0.73000E+08         0.13502E+07         0.00000E+00
    0.13502E+07        -0.94799E+08         0.00000E+00
    0.00000E+00         0.00000E+00        -0.72562E+08
 
   -0.72810E+08         0.13166E+07         0.00000E+00
    0.13166E+07        -0.94703E+08         0.00000E+00
    0.00000E+00         0.00000E+00        -0.72377E+08
 
   -0.72624E+08         0.12830E+07         0.00000E+00
    0.12830E+07        -0.94608E+08         0.00000E+00
    0.00000E+00         0.00000E+00        -0.72200E+08
 
   -0.72443E+08         0.12495E+07         0.00000E+00
    0.12495E+07        -0.94515E+08         0.00000E+00
    0.00000E+00         0.00000E+00        -0.72028E+08
 
   -0.72266E+08         0.12165E+07         0.00000E+00
    0.12165E+07        -0.94423E+08         0.00000E+00
    0.00000E+00         0.00000E+00        -0.71864E+08
 
   -0.72093E+08         0.11842E+07         0.00000E+00
    0.11842E+07        -0.94333E+08         0.00000E+00
    0.00000E+00         0.00000E+00        -0.71705E+08
 
   -0.71924E+08         0.11528E+07         0.00000E+00
    0.11528E+07        -0.94245E+08         0.00000E+00
    0.00000E+00         0.00000E+00        -0.71551E+08
 
   -0.71760E+08         0.11224E+07         0.00000E+00
    0.11224E+07        -0.94158E+08         0.00000E+00
    0.00000E+00         0.00000E+00        -0.71403E+08
 
   -0.71599E+08         0.10931E+07         0.00000E+00
    0.10931E+07        -0.94072E+08         0.00000E+00
    0.00000E+00         0.00000E+00        -0.71260E+08
 
   -0.71443E+08         0.10650E+07         0.00000E+00
    0.10650E+07        -0.93988E+08         0.00000E+00
    0.00000E+00         0.00000E+00        -0.71121E+08
 
   -0.71290E+08         0.10383E+07         0.00000E+00
    0.10383E+07        -0.93906E+08         0.00000E+00
    0.00000E+00         0.00000E+00        -0.70986E+08
 
   -0.71140E+08         0.10129E+07         0.00000E+00
    0.10129E+07        -0.93825E+08         0.00000E+00
    0.00000E+00         0.00000E+00        -0.70856E+08
 
   -0.70994E+08         0.98900E+06         0.00000E+00
    0.98900E+06        -0.93745E+08         0.00000E+00
    0.00000E+00         0.00000E+00        -0.70728E+08
 
   -0.70851E+08         0.96650E+06         0.00000E+00
    0.96650E+06        -0.93667E+08         0.00000E+00
    0.00000E+00         0.00000E+00        -0.70605E+08
 
   -0.70711E+08         0.94548E+06         0.00000E+00
    0.94548E+06        -0.93590E+08         0.00000E+00
    0.00000E+00         0.00000E+00        -0.70484E+08
 
   -0.70574E+08         0.92595E+06         0.00000E+00
    0.92595E+06        -0.93514E+08         0.00000E+00
    0.00000E+00         0.00000E+00        -0.70366E+08
 
   -0.70439E+08         0.90791E+06         0.00000E+00
    0.90791E+06        -0.93439E+08         0.00000E+00
    0.00000E+00         0.00000E+00        -0.70251E+08
 
   -0.70307E+08         0.89138E+06         0.00000E+00
    0.89138E+06        -0.93365E+08         0.00000E+00
    0.00000E+00         0.00000E+00        -0.70138E+08
 
   -0.70176E+08         0.87633E+06         0.00000E+00
    0.87633E+06        -0.93292E+08         0.00000E+00
    0.00000E+00         0.00000E+00        -0.70026E+08
 
   -0.70048E+08         0.86278E+06         0.00000E+00
    0.86278E+06        -0.93220E+08         0.00000E+00
    0.00000E+00         0.00000E+00        -0.69917E+08
 
   -0.69921E+08         0.85069E+06         0.00000E+00
    0.85069E+06        -0.93149E+08         0.00000E+00
    0.00000E+00         0.00000E+00        -0.69809E+08
 
   -0.69795E+08         0.84007E+06         0.00000E+00
    0.84007E+06        -0.93078E+08         0.00000E+00
    0.00000E+00         0.00000E+00        -0.69703E+08
 
   -0.69671E+08         0.83089E+06         0.00000E+00
    0.83089E+06        -0.93008E+08         0.00000E+00
    0.00000E+00         0.00000E+00        -0.69597E+08
 
   -0.69548E+08         0.82313E+06         0.00000E+00
    0.82313E+06        -0.92938E+08         0.00000E+00
    0.00000E+00         0.00000E+00        -0.69492E+08
 
   -0.69425E+08         0.81676E+06         0.00000E+00
    0.81676E+06        -0.92868E+08         0.00000E+00
    0.00000E+00         0.00000E+00        -0.69388E+08
 
   -0.69304E+08         0.81177E+06         0.00000E+00
    0.81177E+06        -0.92799E+08         0.00000E+00
    0.00000E+00         0.00000E+00        -0.69285E+08
 
   -0.69182E+08         0.80811E+06         0.00000E+00
    0.80811E+06        -0.92730E+08         0.00000E+00
    0.00000E+00         0.00000E+00        -0.69181E+08
 
   -0.69061E+08         0.80578E+06         0.00000E+00
    0.80578E+06        -0.92660E+08         0.00000E+00
    0.00000E+00         0.00000E+00        -0.69077E+08
 
   -0.68939E+08         0.80471E+06         0.00000E+00
    0.80471E+06        -0.92591E+08         0.00000E+00
    0.00000E+00         0.00000E+00        -0.68973E+08
 
   -0.68818E+08         0.80490E+06         0.00000E+00
    0.80490E+06        -0.92521E+08         0.00000E+00
    0.00000E+00         0.00000E+00        -0.68869E+08
 
   -0.68695E+08         0.80628E+06         0.00000E+00
    0.80628E+06        -0.92451E+08         0.00000E+00
    0.00000E+00         0.00000E+00        -0.68763E+08
 
   -0.68573E+08         0.80881E+06         0.00000E+00
    0.80881E+06        -0.92381E+08         0.00000E+00
    0.00000E+00         0.00000E+00        -0.68657E+08
 
   -0.68449E+08         0.81246E+06         0.00000E+00
    0.81246E+06        -0.92310E+08         0.00000E+00
    0.00000E+00         0.00000E+00        -0.68549E+08
 
   -0.68324E+08         0.81715E+06         0.00000E+00
    0.81715E+06        -0.92239E+08         0.00000E+00
    0.00000E+00         0.00000E+00        -0.68440E+08
 
   -0.68198E+08         0.82284E+06         0.00000E+00
    0.82284E+06        -0.92167E+08         0.00000E+00
    0.00000E+00         0.00000E+00        -0.68329E+08
 
   -0.68071E+08         0.82945E+06         0.00000E+00
    0.82945E+06        -0.92094E+08         0.00000E+00
    0.00000E+00         0.00000E+00        -0.68216E+08
 
   -0.67942E+08         0.83690E+06         0.00000E+00
    0.83690E+06        -0.92021E+08         0.00000E+00
    0.00000E+00         0.00000E+00        -0.68101E+08
 
   -0.67811E+08         0.84511E+06         0.00000E+00
    0.84511E+06        -0.91947E+08         0.00000E+00
    0.00000E+00         0.00000E+00        -0.67983E+08
 
   -0.67678E+08         0.85399E+06         0.00000E+00
    0.85399E+06        -0.91871E+08         0.00000E+00
    0.00000E+00         0.00000E+00        -0.67863E+08
 
   -0.67544E+08         0.86341E+06         0.00000E+00
    0.86341E+06        -0.91795E+08         0.00000E+00
    0.00000E+00         0.00000E+00        -0.67739E+08
 
   -0.67406E+08         0.87327E+06         0.00000E+00
    0.87327E+06        -0.91718E+08         0.00000E+00
    0.00000E+00         0.00000E+00        -0.67613E+08
 
   -0.67267E+08         0.88341E+06         0.00000E+00
    0.88341E+06        -0.91640E+08         0.00000E+00
    0.00000E+00         0.00000E+00        -0.67482E+08
 
   -0.67125E+08         0.89367E+06         0.00000E+00
    0.89367E+06        -0.91561E+08         0.00000E+00
    0.00000E+00         0.00000E+00        -0.67348E+08
 
   -0.66981E+08         0.90389E+06         0.00000E+00
    0.90389E+06        -0.91482E+08         0.00000E+00
    0.00000E+00         0.00000E+00        -0.67210E+08
 
   -0.66833E+08         0.91384E+06         0.00000E+00
    0.91384E+06        -0.91401E+08         0.00000E+00
    0.00000E+00         0.00000E+00        -0.67067E+08
 
   -0.66683E+08         0.92331E+06         0.00000E+00
    0.92331E+06        -0.91320E+08         0.00000E+00
    0.00000E+00         0.00000E+00        -0.66920E+08
 
   -0.66530E+08         0.93203E+06         0.00000E+00
    0.93203E+06        -0.91238E+08         0.00000E+00
    0.00000E+00         0.00000E+00        -0.66767E+08
 
   -0.66375E+08         0.93970E+06         0.00000E+00
    0.93970E+06        -0.91156E+08         0.00000E+00
    0.00000E+00         0.00000E+00        -0.66609E+08
 
   -0.66216E+08         0.94600E+06         0.00000E+00
    0.94600E+06        -0.91073E+08         0.00000E+00
    0.00000E+00         0.00000E+00        -0.66445E+08
 
   -0.66054E+08         0.95056E+06         0.00000E+00
    0.95056E+06        -0.90990E+08         0.00000E+00
    0.00000E+00         0.00000E+00        -0.66275E+08
 
   -0.65890E+08         0.95298E+06         0.00000E+00
    0.95298E+06        -0.90907E+08         0.00000E+00
    0.00000E+00         0.00000E+00        -0.66098E+08
 
   -0.65722E+08         0.95279E+06         0.00000E+00
    0.95279E+06        -0.90825E+08         0.00000E+00
    0.00000E+00         0.00000E+00        -0.65915E+08
 
   -0.65552E+08         0.94951E+06         0.00000E+00
    0.94951E+06        -0.90743E+08         0.00000E+00
    0.00000E+00         0.00000E+00        -0.65724E+08
 
   -0.65379E+08         0.94259E+06         0.00000E+00
    0.94259E+06        -0.90662E+08         0.00000E+00
    0.00000E+00         0.00000E+00        -0.65526E+08
 
   -0.65203E+08         0.93147E+06         0.00000E+00
    0.93147E+06        -0.90582E+08         0.00000E+00
    0.00000E+00         0.00000E+00        -0.65320E+08
 
   -0.65024E+08         0.91552E+06         0.00000E+00
    0.91552E+06        -0.90504E+08         0.00000E+00
    0.00000E+00         0.00000E+00        -0.65105E+08
 
   -0.64843E+08         0.89412E+06         0.00000E+00
    0.89412E+06        -0.90427E+08         0.00000E+00
    0.00000E+00         0.00000E+00        -0.64881E+08
 
   -0.64659E+08         0.86664E+06         0.00000E+00
    0.86664E+06        -0.90353E+08         0.00000E+00
    0.00000E+00         0.00000E+00        -0.64648E+08
 
   -0.64472E+08         0.83247E+06         0.00000E+00
    0.83247E+06        -0.90280E+08         0.00000E+00
    0.00000E+00         0.00000E+00        -0.64405E+08
 
   -0.64282E+08         0.79106E+06         0.00000E+00
    0.79106E+06        -0.90208E+08         0.00000E+00
    0.00000E+00         0.00000E+00        -0.64151E+08
 
   -0.64089E+08         0.74197E+06         0.00000E+00
    0.74197E+06        -0.90137E+08         0.00000E+00
    0.00000E+00         0.00000E+00        -0.63885E+08
 
   -0.63891E+08         0.68497E+06         0.00000E+00
    0.68497E+06        -0.90067E+08         0.00000E+00
    0.00000E+00         0.00000E+00        -0.63607E+08
 
   -0.63690E+08         0.62009E+06         0.00000E+00
    0.62009E+06        -0.89995E+08         0.00000E+00
    0.00000E+00         0.00000E+00        -0.63315E+08
 
   -0.63482E+08         0.54777E+06         0.00000E+00
    0.54777E+06        -0.89920E+08         0.00000E+00
    0.00000E+00         0.00000E+00        -0.63008E+08
 
   -0.63268E+08         0.46902E+06         0.00000E+00
    0.46902E+06        -0.89838E+08         0.00000E+00
    0.00000E+00         0.00000E+00        -0.62682E+08
 
   -0.63045E+08         0.38561E+06         0.00000E+00
    0.38561E+06        -0.89746E+08         0.00000E+00
    0.00000E+00         0.00000E+00        -0.62335E+08
 
   -0.62812E+08         0.30031E+06         0.00000E+00
    0.30031E+06        -0.89637E+08         0.00000E+00
    0.00000E+00         0.00000E+00        -0.61963E+08
 
   -0.62567E+08         0.21707E+06         0.00000E+00
    0.21707E+06        -0.89506E+08         0.00000E+00
    0.00000E+00         0.00000E+00        -0.61559E+08
 
   -0.62307E+08         0.14101E+06         0.00000E+00
    0.14101E+06        -0.89343E+08         0.00000E+00
    0.00000E+00         0.00000E+00        -0.61116E+08
 
   -0.62031E+08         0.77994E+05         0.00000E+00
    0.77994E+05        -0.89138E+08         0.00000E+00
    0.00000E+00         0.00000E+00        -0.60623E+08
 
   -0.61740E+08         0.33210E+05         0.00000E+00
    0.33210E+05        -0.88879E+08         0.00000E+00
    0.00000E+00         0.00000E+00        -0.60069E+08
 
   -0.61433E+08         0.87051E+04         0.00000E+00
    0.87051E+04        -0.88554E+08         0.00000E+00
    0.00000E+00         0.00000E+00        -0.59441E+08
 
   -0.61114E+08         0.74099E+03         0.00000E+00
    0.74099E+03        -0.88154E+08         0.00000E+00
    0.00000E+00         0.00000E+00        -0.58727E+08
 
   -0.79397E+08        -0.10640E+05         0.00000E+00
   -0.10640E+05        -0.98621E+08         0.00000E+00
    0.00000E+00         0.00000E+00        -0.84352E+08
 
   -0.78997E+08        -0.17549E+05         0.00000E+00
   -0.17549E+05        -0.98141E+08         0.00000E+00
    0.00000E+00         0.00000E+00        -0.83296E+08
 
   -0.78799E+08         0.14310E+05         0.00000E+00
    0.14310E+05        -0.97631E+08         0.00000E+00
    0.00000E+00         0.00000E+00        -0.82435E+08
 
   -0.78537E+08         0.93696E+05         0.00000E+00
    0.93696E+05        -0.97284E+08         0.00000E+00
    0.00000E+00         0.00000E+00        -0.81616E+08
 
   -0.78226E+08         0.21600E+06         0.00000E+00
    0.21600E+06        -0.97071E+08         0.00000E+00
    0.00000E+00         0.00000E+00        -0.80833E+08
 
   -0.77885E+08         0.36891E+06         0.00000E+00
    0.36891E+06        -0.96956E+08         0.00000E+00
    0.00000E+00         0.00000E+00        -0.80086E+08
 
   -0.77555E+08         0.53671E+06         0.00000E+00
    0.53671E+06        -0.96883E+08         0.00000E+00
    0.00000E+00         0.00000E+00        -0.79395E+08
 
   -0.77259E+08         0.70500E+06         0.00000E+00
    0.70500E+06        -0.96815E+08         0.00000E+00
    0.00000E+00         0.00000E+00        -0.78774E+08
 
   -0.77039E+08         0.86005E+06         0.00000E+00
    0.86005E+06        -0.96698E+08         0.00000E+00
    0.00000E+00         0.00000E+00        -0.78257E+08
 
   -0.76824E+08         0.99970E+06         0.00000E+00
    0.99970E+06        -0.96590E+08         0.00000E+00
    0.00000E+00         0.00000E+00        -0.77781E+08
 
   -0.76611E+08         0.11213E+07         0.00000E+00
    0.11213E+07        -0.96489E+08         0.00000E+00
    0.00000E+00         0.00000E+00        -0.77339E+08
 
   -0.76398E+08         0.12240E+07         0.00000E+00
    0.12240E+07        -0.96391E+08         0.00000E+00
    0.00000E+00         0.00000E+00        -0.76927E+08
 
   -0.76185E+08         0.13081E+07         0.00000E+00
    0.13081E+07        -0.96294E+08         0.00000E+00
    0.00000E+00         0.00000E+00        -0.76540E+08
 
   -0.75970E+08         0.13749E+07         0.00000E+00
    0.13749E+07        -0.96199E+08         0.00000E+00
    0.00000E+00         0.00000E+00        -0.76175E+08
 
   -0.75754E+08         0.14257E+07         0.00000E+00
    0.14257E+07        -0.96103E+08         0.00000E+00
    0.00000E+00         0.00000E+00        -0.75830E+08
 
   -0.75536E+08         0.14622E+07         0.00000E+00
    0.14622E+07        -0.96006E+08         0.00000E+00
    0.00000E+00         0.00000E+00        -0.75502E+08
 
   -0.75318E+08         0.14861E+07         0.00000E+00
    0.14861E+07        -0.95908E+08         0.00000E+00
    0.00000E+00         0.00000E+00        -0.75191E+08
 
   -0.75099E+08         0.14991E+07         0.00000E+00
    0.14991E+07        -0.95809E+08         0.00000E+00
    0.00000E+00         0.00000E+00        -0.74894E+08
 
   -0.74880E+08         0.15027E+07         0.00000E+00
    0.15027E+07        -0.95709E+08         0.00000E+00
    0.00000E+00         0.00000E+00        -0.74610E+08
 
   -0.74662E+08         0.14983E+07         0.00000E+00
    0.14983E+07        -0.95609E+08         0.00000E+00
    0.00000E+00         0.00000E+00        -0.74339E+08
 
   -0.74446E+08         0.14872E+07         0.00000E+00
    0.14872E+07        -0.95507E+08         0.00000E+00
    0.00000E+00         0.00000E+00        -0.74081E+08
 
   -0.74231E+08         0.14706E+07         0.00000E+00
    0.14706E+07        -0.95406E+08         0.00000E+00
    0.00000E+00         0.00000E+00        -0.73833E+08
 
   -0.74019E+08         0.14496E+07         0.00000E+00
    0.14496E+07        -0.95305E+08         0.00000E+00
    0.00000E+00         0.00000E+00        -0.73596E+08
 
   -0.73810E+08         0.14251E+07         0.00000E+00
    0.14251E+07        -0.95204E+08         0.00000E+00
    0.00000E+00         0.00000E+00        -0.73369E+08
 
   -0.73604E+08         0.13978E+07         0.00000E+00
    0.13978E+07        -0.95103E+08         0.00000E+00
    0.00000E+00         0.00000E+00        -0.73152E+08
 
   -0.73402E+08         0.13684E+07         0.00000E+00
    0.13684E+07        -0.95003E+08         0.00000E+00
    0.00000E+00         0.00000E+00        -0.72943E+08
 
   -0.73203E+08         0.13376E+07         0.00000E+00
    0.13376E+07        -0.94904E+08         0.00000E+00
    0.00000E+00         0.00000E+00        -0.72743E+08
 
   -0.73009E+08         0.13058E+07         0.00000E+00
    0.13058E+07        -0.94807E+08         0.00000E+00
    0.00000E+00         0.00000E+00        -0.72551E+08
 
   -0.72818E+08         0.12735E+07         0.00000E+00
    0.12735E+07        -0.94710E+08         0.00000E+00
    0.00000E+00         0.00000E+00        -0.72366E+08
 
   -0.72632E+08         0.12411E+07         0.00000E+00
    0.12411E+07        -0.94615E+08         0.00000E+00
    0.00000E+00         0.00000E+00        -0.72189E+08
 
   -0.72451E+08         0.12088E+07         0.00000E+00
    0.12088E+07        -0.94521E+08         0.00000E+00
    0.00000E+00         0.00000E+00        -0.72018E+08
 
   -0.72273E+08         0.11769E+07         0.00000E+00
    0.11769E+07        -0.94429E+08         0.00000E+00
    0.00000E+00         0.00000E+00        -0.71854E+08
 
   -0.72100E+08         0.11457E+07         0.00000E+00
    0.11457E+07        -0.94339E+08         0.00000E+00
    0.00000E+00         0.00000E+00        -0.71695E+08
 
   -0.71931E+08         0.11154E+07         0.00000E+00
    0.11154E+07        -0.94250E+08         0.00000E+00
    0.00000E+00         0.00000E+00        -0.71542E+08
 
   -0.71767E+08         0.10860E+07         0.00000E+00
    0.10860E+07        -0.94162E+08         0.00000E+00
    0.00000E+00         0.00000E+00        -0.71394E+08
 
   -0.71606E+08         0.10577E+07         0.00000E+00
    0.10577E+07        -0.94077E+08         0.00000E+00
    0.00000E+00         0.00000E+00        -0.71251E+08
 
   -0.71449E+08         0.10305E+07         0.00000E+00
    0.10305E+07        -0.93992E+08         0.00000E+00
    0.00000E+00         0.00000E+00        -0.71113E+08
 
   -0.71295E+08         0.10047E+07         0.00000E+00
    0.10047E+07        -0.93910E+08         0.00000E+00
    0.00000E+00         0.00000E+00        -0.70979E+08
 
   -0.71145E+08         0.98012E+06         0.00000E+00
    0.98012E+06        -0.93828E+08         0.00000E+00
    0.00000E+00         0.00000E+00        -0.70849E+08
 
   -0.70999E+08         0.95694E+06         0.00000E+00
    0.95694E+06        -0.93748E+08         0.00000E+00
    0.00000E+00         0.00000E+00        -0.70722E+08
 
   -0.70856E+08         0.93517E+06         0.00000E+00
    0.93517E+06        -0.93670E+08         0.00000E+00
    0.00000E+00         0.00000E+00        -0.70599E+08
 
   -0.70715E+08         0.91482E+06         0.00000E+00
    0.91482E+06        -0.93593E+08         0.00000E+00
    0.00000E+00         0.00000E+00        -0.70478E+08
 
   -0.70577E+08         0.89591E+06         0.00000E+00
    0.89591E+06        -0.93517E+08         0.00000E+00
    0.00000E+00         0.00000E+00        -0.70361E+08
 
   -0.70442E+08         0.87844E+06         0.00000E+00
    0.87844E+06        -0.93442E+08         0.00000E+00
    0.00000E+00         0.00000E+00        -0.70246E+08
 
   -0.70309E+08         0.86243E+06         0.00000E+00
    0.86243E+06        -0.93368E+08         0.00000E+00
    0.00000E+00         0.00000E+00        -0.70133E+08
 
   -0.70178E+08         0.84786E+06         0.00000E+00
    0.84786E+06        -0.93295E+08         0.00000E+00
    0.00000E+00         0.00000E+00        -0.70022E+08
 
   -0.70049E+08         0.83472E+06         0.00000E+00
    0.83472E+06        -0.93222E+08         0.00000E+00
    0.00000E+00         0.00000E+00        -0.69913E+08
 
   -0.69922E+08         0.82301E+06         0.00000E+00
    0.82301E+06        -0.93151E+08         0.00000E+00
    0.00000E+00         0.00000E+00        -0.69806E+08
 
   -0.69796E+08         0.81271E+06         0.00000E+00
    0.81271E+06        -0.93080E+08         0.00000E+00
    0.00000E+00         0.00000E+00        -0.69700E+08
 
   -0.69671E+08         0.80380E+06         0.00000E+00
    0.80380E+06        -0.93009E+08         0.00000E+00
    0.00000E+00         0.00000E+00        -0.69595E+08
 
   -0.69548E+08         0.79627E+06         0.00000E+00
    0.79627E+06        -0.92939E+08         0.00000E+00
    0.00000E+00         0.00000E+00        -0.69490E+08
 
   -0.69425E+08         0.79009E+06         0.00000E+00
    0.79009E+06        -0.92870E+08         0.00000E+00
    0.00000E+00         0.00000E+00        -0.69386E+08
 
   -0.69303E+08         0.78523E+06         0.00000E+00
    0.78523E+06        -0.92800E+08         0.00000E+00
    0.00000E+00         0.00000E+00        -0.69283E+08
 
   -0.69181E+08         0.78167E+06         0.00000E+00
    0.78167E+06        -0.92731E+08         0.00000E+00
    0.00000E+00         0.00000E+00        -0.69180E+08
 
   -0.69059E+08         0.77938E+06         0.00000E+00
    0.77938E+06        -0.92661E+08         0.00000E+00
    0.00000E+00         0.00000E+00        -0.69076E+08
 
   -0.68937E+08         0.77832E+06         0.00000E+00
    0.77832E+06        -0.92592E+08         0.00000E+00
    0.00000E+00         0.00000E+00        -0.68972E+08
 
   -0.68815E+08         0.77846E+06         0.00000E+00
    0.77846E+06        -0.92522E+08         0.00000E+00
    0.00000E+00         0.00000E+00        -0.68868E+08
 
   -0.68692E+08         0.77976E+06         0.00000E+00
    0.77976E+06        -0.92452E+08         0.00000E+00
    0.00000E+00         0.00000E+00        -0.68763E+08
 
   -0.68569E+08         0.78218E+06         0.00000E+00
    0.78218E+06        -0.92381E+08         0.00000E+00
    0.00000E+00         0.00000E+00        -0.68657E+08
 
   -0.68445E+08         0.78566E+06         0.00000E+00
    0.78566E+06        -0.92311E+08         0.00000E+00
    0.00000E+00         0.00000E+00        -0.68549E+08
 
   -0.68320E+08         0.79016E+06         0.00000E+00
    0.79016E+06        -0.92239E+08         0.00000E+00
    0.00000E+00         0.00000E+00        -0.68440E+08
 
   -0.68194E+08         0.79561E+06         0.00000E+00
    0.79561E+06        -0.92167E+08         0.00000E+00
    0.00000E+00         0.00000E+00        -0.68330E+08
 
   -0.68066E+08         0.80195E+06         0.00000E+00
    0.80195E+06        -0.92094E+08         0.00000E+00
    0.00000E+00         0.00000E+00        -0.68217E+08
 
   -0.67936E+08         0.80911E+06         0.00000E+00
    0.80911E+06        -0.92020E+08         0.00000E+00
    0.00000E+00         0.00000E+00        -0.68102E+08
 
   -0.67805E+08         0.81699E+06         0.00000E+00
    0.81699E+06        -0.91946E+08         0.00000E+00
    0.00000E+00         0.00000E+00        -0.67985E+08
 
   -0.67672E+08         0.82551E+06         0.00000E+00
    0.82551E+06        -0.91871E+08         0.00000E+00
    0.00000E+00         0.00000E+00        -0.67864E+08
 
   -0.67537E+08         0.83456E+06         0.00000E+00
    0.83456E+06        -0.91794E+08         0.00000E+00
    0.00000E+00         0.00000E+00        -0.67741E+08
 
   -0.67399E+08         0.84401E+06         0.00000E+00
    0.84401E+06        -0.91717E+08         0.00000E+00
    0.00000E+00         0.00000E+00        -0.67615E+08
 
   -0.67260E+08         0.85373E+06         0.00000E+00
    0.85373E+06        -0.91639E+08         0.00000E+00
    0.00000E+00         0.00000E+00        -0.67484E+08
 
   -0.67117E+08         0.86357E+06         0.00000E+00
    0.86357E+06        -0.91560E+08         0.00000E+00
    0.00000E+00         0.00000E+00        -0.67350E+08
 
   -0.66972E+08         0.87333E+06         0.00000E+00
    0.87333E+06        -0.91480E+08         0.00000E+00
    0.00000E+00         0.00000E+00        -0.67212E+08
 
   -0.66825E+08         0.88284E+06         0.00000E+00
    0.88284E+06        -0.91400E+08         0.00000E+00
    0.00000E+00         0.00000E+00        -0.67069E+08
 
   -0.66675E+08         0.89185E+06         0.00000E+00
    0.89185E+06        -0.91318E+08         0.00000E+00
    0.00000E+00         0.00000E+00        -0.66922E+08
 
   -0.66521E+08         0.90012E+06         0.00000E+00
    0.90012E+06        -0.91236E+08         0.00000E+00
    0.00000E+00         0.00000E+00        -0.66769E+08
 
   -0.66365E+08         0.90736E+06         0.00000E+00
    0.90736E+06        -0.91153E+08         0.00000E+00
    0.00000E+00         0.00000E+00        -0.66611E+08
 
   -0.66207E+08         0.91323E+06         0.00000E+00
    0.91323E+06        -0.91070E+08         0.00000E+00
    0.00000E+00         0.00000E+00        -0.66446E+08
 
   -0.66045E+08         0.91738E+06         0.00000E+00
    0.91738E+06        -0.90987E+08         0.00000E+00
    0.00000E+00         0.00000E+00        -0.66276E+08
 
   -0.65880E+08         0.91941E+06         0.00000E+00
    0.91941E+06        -0.90904E+08         0.00000E+00
    0.00000E+00         0.00000E+00        -0.66099E+08
 
   -0.65713E+08         0.91887E+06         0.00000E+00
    0.91887E+06        -0.90821E+08         0.00000E+00
    0.00000E+00         0.00000E+00        -0.65915E+08
 
   -0.65543E+08         0.91526E+06         0.00000E+00
    0.91526E+06        -0.90739E+08         0.00000E+00
    0.00000E+00         0.00000E+00        -0.65724E+08
 
   -0.65370E+08         0.90805E+06         0.00000E+00
    0.90805E+06        -0.90658E+08         0.00000E+00
    0.00000E+00         0.00000E+00        -0.65525E+08
 
   -0.65195E+08         0.89666E+06         0.00000E+00
    0.89666E+06        -0.90578E+08         0.00000E+00
    0.00000E+00         0.00000E+00        -0.65318E+08
 
   -0.65017E+08         0.88048E+06         0.00000E+00
    0.88048E+06        -0.90499E+08         0.00000E+00
    0.00000E+00         0.00000E+00        -0.65103E+08
 
   -0.64836E+08         0.85889E+06         0.00000E+00
    0.85889E+06        -0.90423E+08         0.00000E+00
    0.00000E+00         0.00000E+00        -0.64878E+08
 
   -0.64653E+08         0.83124E+06         0.00000E+00
    0.83124E+06        -0.90348E+08         0.00000E+00
    0.00000E+00         0.00000E+00        -0.64644E+08
 
   -0.64468E+08         0.79692E+06         0.00000E+00
    0.79692E+06        -0.90275E+08         0.00000E+00
    0.00000E+00         0.00000E+00        -0.64399E+08
 
   -0.64280E+08         0.75538E+06         0.00000E+00
    0.75538E+06        -0.90203E+08         0.00000E+00
    0.00000E+00         0.00000E+00        -0.64144E+08
 
   -0.64088E+08         0.70619E+06         0.00000E+00
    0.70619E+06        -0.90133E+08         0.00000E+00
    0.00000E+00         0.00000E+00        -0.63877E+08
 
   -0.63894E+08         0.64908E+06         0.00000E+00
    0.64908E+06        -0.90063E+08         0.00000E+00
    0.00000E+00         0.00000E+00        -0.63597E+08
 
   -0.63696E+08         0.58411E+06         0.00000E+00
    0.58411E+06        -0.89992E+08         0.00000E+00
    0.00000E+00         0.00000E+00        -0.63303E+08
 
   -0.63492E+08         0.51174E+06         0.00000E+00
    0.51174E+06        -0.89918E+08         0.00000E+00
    0.00000E+00         0.00000E+00        -0.62993E+08
 
   -0.63282E+08         0.43302E+06         0.00000E+00
    0.43302E+06        -0.89838E+08         0.00000E+00
    0.00000E+00         0.00000E+00        -0.62666E+08
 
   -0.63065E+08         0.34983E+06         0.00000E+00
    0.34983E+06        -0.89749E+08         0.00000E+00
    0.00000E+00         0.00000E+00        -0.62317E+08
 
   -0.62838E+08         0.26510E+06         0.00000E+00
    0.26510E+06        -0.89644E+08         0.00000E+00
    0.00000E+00         0.00000E+00        -0.61943E+08
 
   -0.62600E+08         0.18306E+06         0.00000E+00
    0.18306E+06        -0.89517E+08         0.00000E+00
    0.00000E+00         0.00000E+00        -0.61539E+08
 
   -0.62347E+08         0.10922E+06         0.00000E+00
    0.10922E+06        -0.89360E+08         0.00000E+00
    0.00000E+00         0.00000E+00        -0.61096E+08
 
   -0.62079E+08         0.49960E+05         0.00000E+00
    0.49960E+05        -0.89161E+08         0.00000E+00
    0.00000E+00         0.00000E+00        -0.60604E+08
 
   -0.61793E+08         0.10888E+05         0.00000E+00
    0.10888E+05        -0.88908E+08         0.00000E+00
    0.00000E+00         0.00000E+00        -0.60051E+08
 
   -0.61492E+08        -0.58327E+04         0.00000E+00
   -0.58327E+04        -0.88589E+08         0.00000E+00
    0.00000E+00         0.00000E+00        -0.59425E+08
 
   -0.61177E+08        -0.43446E+04         0.00000E+00
   -0.43446E+04        -0.88192E+08         0.00000E+00
    0.00000E+00         0.00000E+00        -0.58712E+08
 
   -0.79324E+08        -0.20542E+05         0.00000E+00
   -0.20542E+05        -0.98555E+08         0.00000E+00
    0.00000E+00         0.00000E+00        -0.84390E+08
 
   -0.78891E+08        -0.47316E+05         0.00000E+00
   -0.47316E+05        -0.98106E+08         0.00000E+00
    0.00000E+00         0.00000E+00        -0.83320E+08
 
   -0.78656E+08        -0.31246E+05         0.00000E+00
   -0.31246E+05        -0.97641E+08         0.00000E+00
    0.00000E+00         0.00000E+00        -0.82435E+08
 
   -0.78404E+08         0.36568E+05         0.00000E+00
    0.36568E+05        -0.97304E+08         0.00000E+00
    0.00000E+00         0.00000E+00        -0.81616E+08
 
   -0.78105E+08         0.15131E+06         0.00000E+00
    0.15131E+06        -0.97098E+08         0.00000E+00
    0.00000E+00         0.00000E+00        -0.80833E+08
 
   -0.77778E+08         0.29971E+06         0.00000E+00
    0.29971E+06        -0.96988E+08         0.00000E+00
    0.00000E+00         0.00000E+00        -0.80086E+08
 
   -0.77487E+08         0.46412E+06         0.00000E+00
    0.46412E+06        -0.96896E+08         0.00000E+00
    0.00000E+00         0.00000E+00        -0.79413E+08
 
   -0.77221E+08         0.63063E+06         0.00000E+00
    0.63063E+06        -0.96814E+08         0.00000E+00
    0.00000E+00         0.00000E+00        -0.78805E+08
 
   -0.77009E+08         0.78642E+06         0.00000E+00
    0.78642E+06        -0.96702E+08         0.00000E+00
    0.00000E+00         0.00000E+00        -0.78282E+08
 
   -0.76800E+08         0.92745E+06         0.00000E+00
    0.92745E+06        -0.96598E+08         0.00000E+00
    0.00000E+00         0.00000E+00        -0.77800E+08
 
   -0.76593E+08         0.10507E+07         0.00000E+00
    0.10507E+07        -0.96499E+08         0.00000E+00
    0.00000E+00         0.00000E+00        -0.77354E+08
 
   -0.76386E+08         0.11552E+07         0.00000E+00
    0.11552E+07        -0.96403E+08         0.00000E+00
    0.00000E+00         0.00000E+00        -0.76937E+08
 
   -0.76177E+08         0.12413E+07         0.00000E+00
    0.12413E+07        -0.96308E+08         0.00000E+00
    0.00000E+00         0.00000E+00        -0.76546E+08
 
   -0.75966E+08         0.13099E+07         0.00000E+00
    0.13099E+07        -0.96213E+08         0.00000E+00
    0.00000E+00         0.00000E+00        -0.76177E+08
 
   -0.75752E+08         0.13625E+07         0.00000E+00
    0.13625E+07        -0.96117E+08         0.00000E+00
    0.00000E+00         0.00000E+00        -0.75829E+08
 
   -0.75537E+08         0.14007E+07         0.00000E+00
    0.14007E+07        -0.96020E+08         0.00000E+00
    0.00000E+00         0.00000E+00        -0.75499E+08
 
   -0.75321E+08         0.14262E+07         0.00000E+00
    0.14262E+07        -0.95922E+08         0.00000E+00
    0.00000E+00         0.00000E+00        -0.75185E+08
 
   -0.75104E+08         0.14408E+07         0.00000E+00
    0.14408E+07        -0.95823E+08         0.00000E+00
    0.00000E+00         0.00000E+00        -0.74886E+08
 
   -0.74886E+08         0.14458E+07         0.00000E+00
    0.14458E+07        -0.95722E+08         0.00000E+00
    0.00000E+00         0.00000E+00        -0.74602E+08
 
   -0.74670E+08         0.14429E+07         0.00000E+00
    0.14429E+07        -0.95621E+08         0.00000E+00
    0.00000E+00         0.00000E+00        -0.74330E+08
 
   -0.74454E+08         0.14333E+07         0.00000E+00
    0.14333E+07        -0.95519E+08         0.00000E+00
    0.00000E+00         0.00000E+00        -0.74070E+08
 
   -0.74240E+08         0.14181E+07         0.00000E+00
    0.14181E+07        -0.95417E+08         0.00000E+00
    0.00000E+00         0.00000E+00        -0.73822E+08
 
   -0.74028E+08         0.13985E+07         0.00000E+00
    0.13985E+07        -0.95315E+08         0.00000E+00
    0.00000E+00         0.00000E+00        -0.73585E+08
 
   -0.73819E+08         0.13753E+07         0.00000E+00
    0.13753E+07        -0.95213E+08         0.00000E+00
    0.00000E+00         0.00000E+00        -0.73358E+08
 
   -0.73613E+08         0.13493E+07         0.00000E+00
    0.13493E+07        -0.95112E+08         0.00000E+00
    0.00000E+00         0.00000E+00        -0.73140E+08
 
   -0.73411E+08         0.13213E+07         0.00000E+00
    0.13213E+07        -0.95012E+08         0.00000E+00
    0.00000E+00         0.00000E+00        -0.72932E+08
 
   -0.73212E+08         0.12917E+07         0.00000E+00
    0.12917E+07        -0.94913E+08         0.00000E+00
    0.00000E+00         0.00000E+00        -0.72732E+08
 
   -0.73018E+08         0.12612E+07         0.00000E+00
    0.12612E+07        -0.94814E+08         0.00000E+00
    0.00000E+00         0.00000E+00        -0.72540E+08
 
   -0.72827E+08         0.12302E+07         0.00000E+00
    0.12302E+07        -0.94717E+08         0.00000E+00
    0.00000E+00         0.00000E+00        -0.72355E+08
 
   -0.72641E+08         0.11990E+07         0.00000E+00
    0.11990E+07        -0.94622E+08         0.00000E+00
    0.00000E+00         0.00000E+00        -0.72178E+08
 
   -0.72459E+08         0.11679E+07         0.00000E+00
    0.11679E+07        -0.94528E+08         0.00000E+00
    0.00000E+00         0.00000E+00        -0.72008E+08
 
   -0.72281E+08         0.11372E+07         0.00000E+00
    0.11372E+07        -0.94435E+08         0.00000E+00
    0.00000E+00         0.00000E+00        -0.71844E+08
 
   -0.72108E+08         0.11071E+07         0.00000E+00
    0.11071E+07        -0.94344E+08         0.00000E+00
    0.00000E+00         0.00000E+00        -0.71686E+08
 
   -0.71939E+08         0.10777E+07         0.00000E+00
    0.10777E+07        -0.94255E+08         0.00000E+00
    0.00000E+00         0.00000E+00        -0.71533E+08
 
   -0.71773E+08         0.10493E+07         0.00000E+00
    0.10493E+07        -0.94167E+08         0.00000E+00
    0.00000E+00         0.00000E+00        -0.71386E+08
 
   -0.71612E+08         0.10220E+07         0.00000E+00
    0.10220E+07        -0.94081E+08         0.00000E+00
    0.00000E+00         0.00000E+00        -0.71243E+08
 
   -0.71455E+08         0.99579E+06         0.00000E+00
    0.99579E+06        -0.93996E+08         0.00000E+00
    0.00000E+00         0.00000E+00        -0.71105E+08
 
   -0.71301E+08         0.97079E+06         0.00000E+00
    0.97079E+06        -0.93913E+08         0.00000E+00
    0.00000E+00         0.00000E+00        -0.70972E+08
 
   -0.71151E+08         0.94708E+06         0.00000E+00
    0.94708E+06        -0.93832E+08         0.00000E+00
    0.00000E+00         0.00000E+00        -0.70842E+08
 
   -0.71004E+08         0.92468E+06         0.00000E+00
    0.92468E+06        -0.93752E+08         0.00000E+00
    0.00000E+00         0.00000E+00        -0.70715E+08
 
   -0.70860E+08         0.90363E+06         0.00000E+00
    0.90363E+06        -0.93673E+08         0.00000E+00
    0.00000E+00         0.00000E+00        -0.70593E+08
 
   -0.70719E+08         0.88396E+06         0.00000E+00
    0.88396E+06        -0.93596E+08         0.00000E+00
    0.00000E+00         0.00000E+00        -0.70473E+08
 
   -0.70581E+08         0.86567E+06         0.00000E+00
    0.86567E+06        -0.93519E+08         0.00000E+00
    0.00000E+00         0.00000E+00        -0.70356E+08
 
   -0.70445E+08         0.84878E+06         0.00000E+00
    0.84878E+06        -0.93444E+08         0.00000E+00
    0.00000E+00         0.00000E+00        -0.70241E+08
 
   -0.70312E+08         0.83329E+06         0.00000E+00
    0.83329E+06        -0.93370E+08         0.00000E+00
    0.00000E+00         0.00000E+00        -0.70129E+08
 
   -0.70180E+08         0.81920E+06         0.00000E+00
    0.81920E+06        -0.93297E+08         0.00000E+00
    0.00000E+00         0.00000E+00        -0.70018E+08
 
   -0.70051E+08         0.80649E+06         0.00000E+00
    0.80649E+06        -0.93224E+08         0.00000E+00
    0.00000E+00         0.00000E+00        -0.69910E+08
 
   -0.69923E+08         0.79515E+06         0.00000E+00
    0.79515E+06        -0.93153E+08         0.00000E+00
    0.00000E+00         0.00000E+00        -0.69803E+08
 
   -0.69797E+08         0.78518E+06         0.00000E+00
    0.78518E+06        -0.93081E+08         0.00000E+00
    0.00000E+00         0.00000E+00        -0.69697E+08
 
   -0.69672E+08         0.77655E+06         0.00000E+00
    0.77655E+06        -0.93011E+08         0.00000E+00
    0.00000E+00         0.00000E+00        -0.69592E+08
 
   -0.69548E+08         0.76925E+06         0.00000E+00
    0.76925E+06        -0.92941E+08         0.00000E+00
    0.00000E+00         0.00000E+00        -0.69488E+08
 
   -0.69424E+08         0.76326E+06         0.00000E+00
    0.76326E+06        -0.92871E+08         0.00000E+00
    0.00000E+00         0.00000E+00        -0.69384E+08
 
   -0.69302E+08         0.75854E+06         0.00000E+00
    0.75854E+06        -0.92801E+08         0.00000E+00
    0.00000E+00         0.00000E+00        -0.69281E+08
 
   -0.69179E+08         0.75507E+06         0.00000E+00
    0.75507E+06        -0.92732E+08         0.00000E+00
    0.00000E+00         0.00000E+00        -0.69178E+08
 
   -0.69057E+08         0.75283E+06         0.00000E+00
    0.75283E+06        -0.92662E+08         0.00000E+00
    0.00000E+00         0.00000E+00        -0.69075E+08
 
   -0.68935E+08         0.75178E+06         0.00000E+00
    0.75178E+06        -0.92592E+08         0.00000E+00
    0.00000E+00         0.00000E+00        -0.68972E+08
 
   -0.68812E+08         0.75188E+06         0.00000E+00
    0.75188E+06        -0.92522E+08         0.00000E+00
    0.00000E+00         0.00000E+00        -0.68868E+08
 
   -0.68689E+08         0.75310E+06         0.00000E+00
    0.75310E+06        -0.92452E+08         0.00000E+00
    0.00000E+00         0.00000E+00        -0.68763E+08
 
   -0.68566E+08         0.75540E+06         0.00000E+00
    0.75540E+06        -0.92382E+08         0.00000E+00
    0.00000E+00         0.00000E+00        -0.68657E+08
 
   -0.68441E+08         0.75873E+06         0.00000E+00
    0.75873E+06        -0.92311E+08         0.00000E+00
    0.00000E+00         0.00000E+00        -0.68550E+08
 
   -0.68316E+08         0.76304E+06         0.00000E+00
    0.76304E+06        -0.92239E+08         0.00000E+00
    0.00000E+00         0.00000E+00        -0.68441E+08
 
   -0.68189E+08         0.76826E+06         0.00000E+00
    0.76826E+06        -0.92167E+08         0.00000E+00
    0.00000E+00         0.00000E+00        -0.68331E+08
 
   -0.68061E+08         0.77434E+06         0.00000E+00
    0.77434E+06        -0.92094E+08         0.00000E+00
    0.00000E+00         0.00000E+00        -0.68218E+08
 
   -0.67931E+08         0.78120E+06         0.00000E+00
    0.78120E+06        -0.92020E+08         0.00000E+00
    0.00000E+00         0.00000E+00        -0.68103E+08
 
   -0.67799E+08         0.78876E+06         0.00000E+00
    0.78876E+06        -0.91945E+08         0.00000E+00
    0.00000E+00         0.00000E+00        -0.67986E+08
 
   -0.67666E+08         0.79693E+06         0.00000E+00
    0.79693E+06        -0.91870E+08         0.00000E+00
    0.00000E+00         0.00000E+00        -0.67866E+08
 
   -0.67530E+08         0.80561E+06         0.00000E+00
    0.80561E+06        -0.91794E+08         0.00000E+00
    0.00000E+00         0.00000E+00        -0.67743E+08
 
   -0.67392E+08         0.81466E+06         0.00000E+00
    0.81466E+06        -0.91716E+08         0.00000E+00
    0.00000E+00         0.00000E+00        -0.67617E+08
 
   -0.67252E+08         0.82397E+06         0.00000E+00
    0.82397E+06        -0.91638E+08         0.00000E+00
    0.00000E+00         0.00000E+00        -0.67486E+08
 
   -0.67110E+08         0.83338E+06         0.00000E+00
    0.83338E+06        -0.91559E+08         0.00000E+00
    0.00000E+00         0.00000E+00        -0.67352E+08
 
   -0.66964E+08         0.84272E+06         0.00000E+00
    0.84272E+06        -0.91479E+08         0.00000E+00
    0.00000E+00         0.00000E+00        -0.67214E+08
 
   -0.66817E+08         0.85179E+06         0.00000E+00
    0.85179E+06        -0.91398E+08         0.00000E+00
    0.00000E+00         0.00000E+00        -0.67071E+08
 
   -0.66666E+08         0.86037E+06         0.00000E+00
    0.86037E+06        -0.91316E+08         0.00000E+00
    0.00000E+00         0.00000E+00        -0.66924E+08
 
   -0.66513E+08         0.86820E+06         0.00000E+00
    0.86820E+06        -0.91234E+08         0.00000E+00
    0.00000E+00         0.00000E+00        -0.66771E+08
 
   -0.66356E+08         0.87502E+06         0.00000E+00
    0.87502E+06        -0.91151E+08         0.00000E+00
    0.00000E+00         0.00000E+00        -0.66612E+08
 
   -0.66197E+08         0.88049E+06         0.00000E+00
    0.88049E+06        -0.91067E+08         0.00000E+00
    0.00000E+00         0.00000E+00        -0.66448E+08
 
   -0.66035E+08         0.88426E+06         0.00000E+00
    0.88426E+06        -0.90984E+08         0.00000E+00
    0.00000E+00         0.00000E+00        -0.66277E+08
 
   -0.65871E+08         0.88593E+06         0.00000E+00
    0.88593E+06        -0.90901E+08         0.00000E+00
    0.00000E+00         0.00000E+00        -0.66100E+08
 
   -0.65704E+08         0.88506E+06         0.00000E+00
    0.88506E+06        -0.90818E+08         0.00000E+00
    0.00000E+00         0.00000E+00        -0.65916E+08
 
   -0.65534E+08         0.88116E+06         0.00000E+00
    0.88116E+06        -0.90735E+08         0.00000E+00
    0.00000E+00         0.00000E+00        -0.65724E+08
 
   -0.65361E+08         0.87370E+06         0.00000E+00
    0.87370E+06        -0.90654E+08         0.00000E+00
    0.00000E+00         0.00000E+00        -0.65525E+08
 
   -0.65186E+08         0.86210E+06         0.00000E+00
    0.86210E+06        -0.90573E+08         0.00000E+00
    0.00000E+00         0.00000E+00        -0.65317E+08
 
   -0.65009E+08         0.84576E+06         0.00000E+00
    0.84576E+06        -0.90495E+08         0.00000E+00
    0.00000E+00         0.00000E+00        -0.65100E+08
 
   -0.64829E+08         0.82404E+06         0.00000E+00
    0.82404E+06        -0.90417E+08         0.00000E+00
    0.00000E+00         0.00000E+00        -0.64875E+08
 
   -0.64647E+08         0.79631E+06         0.00000E+00
    0.79631E+06        -0.90342E+08         0.00000E+00
    0.00000E+00         0.00000E+00        -0.64639E+08
 
   -0.64463E+08         0.76194E+06         0.00000E+00
    0.76194E+06        -0.90269E+08         0.00000E+00
    0.00000E+00         0.00000E+00        -0.64393E+08
 
   -0.64277E+08         0.72037E+06         0.00000E+00
    0.72037E+06        -0.90198E+08         0.00000E+00
    0.00000E+00         0.00000E+00        -0.64137E+08
 
   -0.64088E+08         0.67117E+06         0.00000E+00
    0.67117E+06        -0.90128E+08         0.00000E+00
    0.00000E+00         0.00000E+00        -0.63868E+08
 
   -0.63896E+08         0.61408E+06         0.00000E+00
    0.61408E+06        -0.90059E+08         0.00000E+00
    0.00000E+00         0.00000E+00        -0.63586E+08
 
   -0.63701E+08         0.54915E+06         0.00000E+00
    0.54915E+06        -0.89989E+08         0.00000E+00
    0.00000E+00         0.00000E+00        -0.63291E+08
 
   -0.63502E+08         0.47684E+06         0.00000E+00
    0.47684E+06        -0.89916E+08         0.00000E+00
    0.00000E+00         0.00000E+00        -0.62979E+08
 
   -0.63297E+08         0.39827E+06         0.00000E+00
    0.39827E+06        -0.89838E+08         0.00000E+00
    0.00000E+00         0.00000E+00        -0.62650E+08
 
   -0.63085E+08         0.31539E+06         0.00000E+00
    0.31539E+06        -0.89752E+08         0.00000E+00
    0.00000E+00         0.00000E+00        -0.62300E+08
 
   -0.62864E+08         0.23126E+06         0.00000E+00
    0.23126E+06        -0.89651E+08         0.00000E+00
    0.00000E+00         0.00000E+00        -0.61924E+08
 
   -0.62633E+08         0.15037E+06         0.00000E+00
    0.15037E+06        -0.89529E+08         0.00000E+00
    0.00000E+00         0.00000E+00        -0.61519E+08
 
   -0.62388E+08         0.78615E+05         0.00000E+00
    0.78615E+05        -0.89377E+08         0.00000E+00
    0.00000E+00         0.00000E+00        -0.61076E+08
 
   -0.62126E+08         0.22853E+05         0.00000E+00
    0.22853E+05        -0.89185E+08         0.00000E+00
    0.00000E+00         0.00000E+00        -0.60585E+08
 
   -0.61848E+08        -0.10822E+05         0.00000E+00
   -0.10822E+05        -0.88939E+08         0.00000E+00
    0.00000E+00         0.00000E+00        -0.60034E+08
 
   -0.61552E+08        -0.20055E+05         0.00000E+00
   -0.20055E+05        -0.88626E+08         0.00000E+00
    0.00000E+00         0.00000E+00        -0.59410E+08
 
   -0.61240E+08        -0.93386E+04         0.00000E+00
   -0.93386E+04        -0.88232E+08         0.00000E+00
    0.00000E+00         0.00000E+00        -0.58698E+08
 
   -0.79251E+08        -0.30120E+05         0.00000E+00
   -0.30120E+05        -0.98487E+08         0.00000E+00
    0.00000E+00         0.00000E+00        -0.84427E+08
 
   -0.78814E+08        -0.75672E+05         0.00000E+00
   -0.75672E+05        -0.98046E+08         0.00000E+00
    0.00000E+00         0.00000E+00        -0.83360E+08
 
   -0.78517E+08        -0.75406E+05         0.00000E+00
   -0.75406E+05        -0.97644E+08         0.00000E+00
    0.00000E+00         0.00000E+00        -0.82437E+08
 
   -0.78270E+08        -0.18412E+05         0.00000E+00
   -0.18412E+05        -0.97322E+08         0.00000E+00
    0.00000E+00         0.00000E+00        -0.81616E+08
 
   -0.77984E+08         0.89364E+05         0.00000E+00
    0.89364E+05        -0.97125E+08         0.00000E+00
    0.00000E+00         0.00000E+00        -0.80833E+08
 
   -0.77695E+08         0.23291E+06         0.00000E+00
    0.23291E+06        -0.96999E+08         0.00000E+00
    0.00000E+00         0.00000E+00        -0.80104E+08
 
   -0.77419E+08         0.39500E+06         0.00000E+00
    0.39500E+06        -0.96909E+08         0.00000E+00
    0.00000E+00         0.00000E+00        -0.79431E+08
 
   -0.77185E+08         0.55980E+06         0.00000E+00
    0.55980E+06        -0.96811E+08         0.00000E+00
    0.00000E+00         0.00000E+00        -0.78837E+08
 
   -0.76979E+08         0.71597E+06         0.00000E+00
    0.71597E+06        -0.96705E+08         0.00000E+00
    0.00000E+00         0.00000E+00        -0.78308E+08
 
   -0.76778E+08         0.85796E+06         0.00000E+00
    0.85796E+06        -0.96605E+08         0.00000E+00
    0.00000E+00         0.00000E+00        -0.77820E+08
 
   -0.76577E+08         0.98254E+06         0.00000E+00
    0.98254E+06        -0.96510E+08         0.00000E+00
    0.00000E+00         0.00000E+00        -0.77368E+08
 
   -0.76374E+08         0.10885E+07         0.00000E+00
    0.10885E+07        -0.96415E+08         0.00000E+00
    0.00000E+00         0.00000E+00        -0.76946E+08
 
   -0.76169E+08         0.11761E+07         0.00000E+00
    0.11761E+07        -0.96322E+08         0.00000E+00
    0.00000E+00         0.00000E+00        -0.76551E+08
 
   -0.75962E+08         0.12462E+07         0.00000E+00
    0.12462E+07        -0.96227E+08         0.00000E+00
    0.00000E+00         0.00000E+00        -0.76179E+08
 
   -0.75752E+08         0.13003E+07         0.00000E+00
    0.13003E+07        -0.96132E+08         0.00000E+00
    0.00000E+00         0.00000E+00        -0.75828E+08
 
   -0.75539E+08         0.13400E+07         0.00000E+00
    0.13400E+07        -0.96035E+08         0.00000E+00
    0.00000E+00         0.00000E+00        -0.75495E+08
 
   -0.75325E+08         0.13670E+07         0.00000E+00
    0.13670E+07        -0.95936E+08         0.00000E+00
    0.00000E+00         0.00000E+00        -0.75179E+08
 
   -0.75109E+08         0.13829E+07         0.00000E+00
    0.13829E+07        -0.95836E+08         0.00000E+00
    0.00000E+00         0.00000E+00        -0.74879E+08
 
   -0.74893E+08         0.13894E+07         0.00000E+00
    0.13894E+07        -0.95735E+08         0.00000E+00
    0.00000E+00         0.00000E+00        -0.74593E+08
 
   -0.74677E+08         0.13878E+07         0.00000E+00
    0.13878E+07        -0.95633E+08         0.00000E+00
    0.00000E+00         0.00000E+00        -0.74320E+08
 
   -0.74462E+08         0.13795E+07         0.00000E+00
    0.13795E+07        -0.95531E+08         0.00000E+00
    0.00000E+00         0.00000E+00        -0.74060E+08
 
   -0.74249E+08         0.13657E+07         0.00000E+00
    0.13657E+07        -0.95428E+08         0.00000E+00
    0.00000E+00         0.00000E+00        -0.73811E+08
 
   -0.74037E+08         0.13474E+07         0.00000E+00
    0.13474E+07        -0.95326E+08         0.00000E+00
    0.00000E+00         0.00000E+00        -0.73574E+08
 
   -0.73828E+08         0.13255E+07         0.00000E+00
    0.13255E+07        -0.95223E+08         0.00000E+00
    0.00000E+00         0.00000E+00        -0.73346E+08
 
   -0.73623E+08         0.13008E+07         0.00000E+00
    0.13008E+07        -0.95122E+08         0.00000E+00
    0.00000E+00         0.00000E+00        -0.73129E+08
 
   -0.73420E+08         0.12740E+07         0.00000E+00
    0.12740E+07        -0.95021E+08         0.00000E+00
    0.00000E+00         0.00000E+00        -0.72920E+08
 
   -0.73222E+08         0.12458E+07         0.00000E+00
    0.12458E+07        -0.94921E+08         0.00000E+00
    0.00000E+00         0.00000E+00        -0.72721E+08
 
   -0.73027E+08         0.12165E+07         0.00000E+00
    0.12165E+07        -0.94822E+08         0.00000E+00
    0.00000E+00         0.00000E+00        -0.72529E+08
 
   -0.72836E+08         0.11867E+07         0.00000E+00
    0.11867E+07        -0.94724E+08         0.00000E+00
    0.00000E+00         0.00000E+00        -0.72345E+08
 
   -0.72650E+08         0.11566E+07         0.00000E+00
    0.11566E+07        -0.94628E+08         0.00000E+00
    0.00000E+00         0.00000E+00        -0.72168E+08
 
   -0.72467E+08         0.11267E+07         0.00000E+00
    0.11267E+07        -0.94534E+08         0.00000E+00
    0.00000E+00         0.00000E+00        -0.71998E+08
 
   -0.72289E+08         0.10971E+07         0.00000E+00
    0.10971E+07        -0.94441E+08         0.00000E+00
    0.00000E+00         0.00000E+00        -0.71834E+08
 
   -0.72115E+08         0.10681E+07         0.00000E+00
    0.10681E+07        -0.94350E+08         0.00000E+00
    0.00000E+00         0.00000E+00        -0.71676E+08
 
   -0.71946E+08         0.10399E+07         0.00000E+00
    0.10399E+07        -0.94260E+08         0.00000E+00
    0.00000E+00         0.00000E+00        -0.71524E+08
 
   -0.71780E+08         0.10125E+07         0.00000E+00
    0.10125E+07        -0.94172E+08         0.00000E+00
    0.00000E+00         0.00000E+00        -0.71377E+08
 
   -0.71619E+08         0.98612E+06         0.00000E+00
    0.98612E+06        -0.94086E+08         0.00000E+00
    0.00000E+00         0.00000E+00        -0.71235E+08
 
   -0.71461E+08         0.96084E+06         0.00000E+00
    0.96084E+06        -0.94001E+08         0.00000E+00
    0.00000E+00         0.00000E+00        -0.71098E+08
 
   -0.71306E+08         0.93672E+06         0.00000E+00
    0.93672E+06        -0.93917E+08         0.00000E+00
    0.00000E+00         0.00000E+00        -0.70964E+08
 
   -0.71156E+08         0.91383E+06         0.00000E+00
    0.91383E+06        -0.93836E+08         0.00000E+00
    0.00000E+00         0.00000E+00        -0.70835E+08
 
   -0.71008E+08         0.89221E+06         0.00000E+00
    0.89221E+06        -0.93755E+08         0.00000E+00
    0.00000E+00         0.00000E+00        -0.70709E+08
 
   -0.70864E+08         0.87189E+06         0.00000E+00
    0.87189E+06        -0.93676E+08         0.00000E+00
    0.00000E+00         0.00000E+00        -0.70587E+08
 
   -0.70723E+08         0.85290E+06         0.00000E+00
    0.85290E+06        -0.93599E+08         0.00000E+00
    0.00000E+00         0.00000E+00        -0.70467E+08
 
   -0.70584E+08         0.83524E+06         0.00000E+00
    0.83524E+06        -0.93522E+08         0.00000E+00
    0.00000E+00         0.00000E+00        -0.70351E+08
 
   -0.70448E+08         0.81893E+06         0.00000E+00
    0.81893E+06        -0.93447E+08         0.00000E+00
    0.00000E+00         0.00000E+00        -0.70236E+08
 
   -0.70314E+08         0.80397E+06         0.00000E+00
    0.80397E+06        -0.93372E+08         0.00000E+00
    0.00000E+00         0.00000E+00        -0.70124E+08
 
   -0.70183E+08         0.79035E+06         0.00000E+00
    0.79035E+06        -0.93299E+08         0.00000E+00
    0.00000E+00         0.00000E+00        -0.70014E+08
 
   -0.70053E+08         0.77807E+06         0.00000E+00
    0.77807E+06        -0.93226E+08         0.00000E+00
    0.00000E+00         0.00000E+00        -0.69906E+08
 
   -0.69925E+08         0.76712E+06         0.00000E+00
    0.76712E+06        -0.93154E+08         0.00000E+00
    0.00000E+00         0.00000E+00        -0.69799E+08
 
   -0.69798E+08         0.75748E+06         0.00000E+00
    0.75748E+06        -0.93083E+08         0.00000E+00
    0.00000E+00         0.00000E+00        -0.69694E+08
 
   -0.69672E+08         0.74914E+06         0.00000E+00
    0.74914E+06        -0.93012E+08         0.00000E+00
    0.00000E+00         0.00000E+00        -0.69589E+08
 
   -0.69548E+08         0.74207E+06         0.00000E+00
    0.74207E+06        -0.92942E+08         0.00000E+00
    0.00000E+00         0.00000E+00        -0.69486E+08
 
   -0.69424E+08         0.73626E+06         0.00000E+00
    0.73626E+06        -0.92872E+08         0.00000E+00
    0.00000E+00         0.00000E+00        -0.69383E+08
 
   -0.69301E+08         0.73169E+06         0.00000E+00
    0.73169E+06        -0.92802E+08         0.00000E+00
    0.00000E+00         0.00000E+00        -0.69280E+08
 
   -0.69178E+08         0.72832E+06         0.00000E+00
    0.72832E+06        -0.92732E+08         0.00000E+00
    0.00000E+00         0.00000E+00        -0.69177E+08
 
   -0.69055E+08         0.72613E+06         0.00000E+00
    0.72613E+06        -0.92663E+08         0.00000E+00
    0.00000E+00         0.00000E+00        -0.69074E+08
 
   -0.68933E+08         0.72509E+06         0.00000E+00
    0.72509E+06        -0.92593E+08         0.00000E+00
    0.00000E+00         0.00000E+00        -0.68971E+08
 
   -0.68810E+08         0.72516E+06         0.00000E+00
    0.72516E+06        -0.92523E+08         0.00000E+00
    0.00000E+00         0.00000E+00        -0.68867E+08
 
   -0.68686E+08         0.72631E+06         0.00000E+00
    0.72631E+06        -0.92453E+08         0.00000E+00
    0.00000E+00         0.00000E+00        -0.68763E+08
 
   -0.68562E+08         0.72849E+06         0.00000E+00
    0.72849E+06        -0.92382E+08         0.00000E+00
    0.00000E+00         0.00000E+00        -0.68657E+08
 
   -0.68437E+08         0.73167E+06         0.00000E+00
    0.73167E+06        -0.92311E+08         0.00000E+00
    0.00000E+00         0.00000E+00        -0.68550E+08
 
   -0.68311E+08         0.73579E+06         0.00000E+00
    0.73579E+06        -0.92239E+08         0.00000E+00
    0.00000E+00         0.00000E+00        -0.68442E+08
 
   -0.68184E+08         0.74079E+06         0.00000E+00
    0.74079E+06        -0.92167E+08         0.00000E+00
    0.00000E+00         0.00000E+00        -0.68331E+08
 
   -0.68056E+08         0.74661E+06         0.00000E+00
    0.74661E+06        -0.92093E+08         0.00000E+00
    0.00000E+00         0.00000E+00        -0.68219E+08
 
   -0.67925E+08         0.75318E+06         0.00000E+00
    0.75318E+06        -0.92020E+08         0.00000E+00
    0.00000E+00         0.00000E+00        -0.68105E+08
 
   -0.67793E+08         0.76042E+06         0.00000E+00
    0.76042E+06        -0.91945E+08         0.00000E+00
    0.00000E+00         0.00000E+00        -0.67988E+08
 
   -0.67660E+08         0.76825E+06         0.00000E+00
    0.76825E+06        -0.91869E+08         0.00000E+00
    0.00000E+00         0.00000E+00        -0.67868E+08
 
   -0.67524E+08         0.77656E+06         0.00000E+00
    0.77656E+06        -0.91793E+08         0.00000E+00
    0.00000E+00         0.00000E+00        -0.67745E+08
 
   -0.67385E+08         0.78523E+06         0.00000E+00
    0.78523E+06        -0.91715E+08         0.00000E+00
    0.00000E+00         0.00000E+00        -0.67618E+08
 
   -0.67245E+08         0.79414E+06         0.00000E+00
    0.79414E+06        -0.91637E+08         0.00000E+00
    0.00000E+00         0.00000E+00        -0.67488E+08
 
   -0.67102E+08         0.80313E+06         0.00000E+00
    0.80313E+06        -0.91557E+08         0.00000E+00
    0.00000E+00         0.00000E+00        -0.67354E+08
 
   -0.66956E+08         0.81204E+06         0.00000E+00
    0.81204E+06        -0.91477E+08         0.00000E+00
    0.00000E+00         0.00000E+00        -0.67216E+08
 
   -0.66808E+08         0.82069E+06         0.00000E+00
    0.82069E+06        -0.91396E+08         0.00000E+00
    0.00000E+00         0.00000E+00        -0.67073E+08
 
   -0.66657E+08         0.82884E+06         0.00000E+00
    0.82884E+06        -0.91314E+08         0.00000E+00
    0.00000E+00         0.00000E+00        -0.66926E+08
 
   -0.66504E+08         0.83626E+06         0.00000E+00
    0.83626E+06        -0.91231E+08         0.00000E+00
    0.00000E+00         0.00000E+00        -0.66773E+08
 
   -0.66347E+08         0.84268E+06         0.00000E+00
    0.84268E+06        -0.91148E+08         0.00000E+00
    0.00000E+00         0.00000E+00        -0.66614E+08
 
   -0.66188E+08         0.84776E+06         0.00000E+00
    0.84776E+06        -0.91064E+08         0.00000E+00
    0.00000E+00         0.00000E+00        -0.66450E+08
 
   -0.66026E+08         0.85118E+06         0.00000E+00
    0.85118E+06        -0.90981E+08         0.00000E+00
    0.00000E+00         0.00000E+00        -0.66279E+08
 
   -0.65861E+08         0.85252E+06         0.00000E+00
    0.85252E+06        -0.90897E+08         0.00000E+00
    0.00000E+00         0.00000E+00        -0.66101E+08
 
   -0.65694E+08         0.85136E+06         0.00000E+00
    0.85136E+06        -0.90814E+08         0.00000E+00
    0.00000E+00         0.00000E+00        -0.65917E+08
 
   -0.65524E+08         0.84722E+06         0.00000E+00
    0.84722E+06        -0.90731E+08         0.00000E+00
    0.00000E+00         0.00000E+00        -0.65724E+08
 
   -0.65352E+08         0.83955E+06         0.00000E+00
    0.83955E+06        -0.90649E+08         0.00000E+00
    0.00000E+00         0.00000E+00        -0.65524E+08
 
   -0.65177E+08         0.82780E+06         0.00000E+00
    0.82780E+06        -0.90568E+08         0.00000E+00
    0.00000E+00         0.00000E+00        -0.65316E+08
 
   -0.65001E+08         0.81136E+06         0.00000E+00
    0.81136E+06        -0.90489E+08         0.00000E+00
    0.00000E+00         0.00000E+00        -0.65098E+08
 
   -0.64822E+08         0.78959E+06         0.00000E+00
    0.78959E+06        -0.90412E+08         0.00000E+00
    0.00000E+00         0.00000E+00        -0.64872E+08
 
   -0.64641E+08         0.76184E+06         0.00000E+00
    0.76184E+06        -0.90337E+08         0.00000E+00
    0.00000E+00         0.00000E+00        -0.64635E+08
 
   -0.64459E+08         0.72751E+06         0.00000E+00
    0.72751E+06        -0.90263E+08         0.00000E+00
    0.00000E+00         0.00000E+00        -0.64388E+08
 
   -0.64274E+08         0.68603E+06         0.00000E+00
    0.68603E+06        -0.90192E+08         0.00000E+00
    0.00000E+00         0.00000E+00        -0.64130E+08
 
   -0.64087E+08         0.63694E+06         0.00000E+00
    0.63694E+06        -0.90123E+08         0.00000E+00
    0.00000E+00         0.00000E+00        -0.63860E+08
 
   -0.63899E+08         0.57998E+06         0.00000E+00
    0.57998E+06        -0.90054E+08         0.00000E+00
    0.00000E+00         0.00000E+00        -0.63576E+08
 
   -0.63707E+08         0.51521E+06         0.00000E+00
    0.51521E+06        -0.89985E+08         0.00000E+00
    0.00000E+00         0.00000E+00        -0.63279E+08
 
   -0.63511E+08         0.44311E+06         0.00000E+00
    0.44311E+06        -0.89914E+08         0.00000E+00
    0.00000E+00         0.00000E+00        -0.62965E+08
 
   -0.63311E+08         0.36480E+06         0.00000E+00
    0.36480E+06        -0.89838E+08         0.00000E+00
    0.00000E+00         0.00000E+00        -0.62634E+08
 
   -0.63105E+08         0.28230E+06         0.00000E+00
    0.28230E+06        -0.89754E+08         0.00000E+00
    0.00000E+00         0.00000E+00        -0.62282E+08
 
   -0.62891E+08         0.19882E+06         0.00000E+00
    0.19882E+06        -0.89657E+08         0.00000E+00
    0.00000E+00         0.00000E+00        -0.61906E+08
 
   -0.62666E+08         0.11903E+06         0.00000E+00
    0.11903E+06        -0.89540E+08         0.00000E+00
    0.00000E+00         0.00000E+00        -0.61499E+08
 
   -0.62429E+08         0.49195E+05         0.00000E+00
    0.49195E+05        -0.89395E+08         0.00000E+00
    0.00000E+00         0.00000E+00        -0.61056E+08
 
   -0.62175E+08        -0.33369E+04         0.00000E+00
   -0.33369E+04        -0.89210E+08         0.00000E+00
    0.00000E+00         0.00000E+00        -0.60567E+08
 
   -0.61903E+08        -0.31945E+05         0.00000E+00
   -0.31945E+05        -0.88972E+08         0.00000E+00
    0.00000E+00         0.00000E+00        -0.60018E+08
 
   -0.61613E+08        -0.33991E+05         0.00000E+00
   -0.33991E+05        -0.88664E+08         0.00000E+00
    0.00000E+00         0.00000E+00        -0.59395E+08
 
   -0.61304E+08        -0.14253E+05         0.00000E+00
   -0.14253E+05        -0.88274E+08         0.00000E+00
    0.00000E+00         0.00000E+00        -0.58685E+08
 
   -0.79177E+08        -0.39408E+05         0.00000E+00
   -0.39408E+05        -0.98415E+08         0.00000E+00
    0.00000E+00         0.00000E+00        -0.84462E+08
 
   -0.78739E+08        -0.10298E+06         0.00000E+00
   -0.10298E+06        -0.97980E+08         0.00000E+00
    0.00000E+00         0.00000E+00        -0.83399E+08
 
   -0.78407E+08        -0.11814E+06         0.00000E+00
   -0.11814E+06        -0.97621E+08         0.00000E+00
    0.00000E+00         0.00000E+00        -0.82457E+08
 
   -0.78145E+08        -0.71266E+05         0.00000E+00
   -0.71266E+05        -0.97330E+08         0.00000E+00
    0.00000E+00         0.00000E+00        -0.81622E+08
 
   -0.77880E+08         0.29988E+05         0.00000E+00
    0.29988E+05        -0.97134E+08         0.00000E+00
    0.00000E+00         0.00000E+00        -0.80846E+08
 
   -0.77616E+08         0.16942E+06         0.00000E+00
    0.16942E+06        -0.97004E+08         0.00000E+00
    0.00000E+00         0.00000E+00        -0.80124E+08
 
   -0.77354E+08         0.32932E+06         0.00000E+00
    0.32932E+06        -0.96918E+08         0.00000E+00
    0.00000E+00         0.00000E+00        -0.79452E+08
 
   -0.77149E+08         0.49255E+06         0.00000E+00
    0.49255E+06        -0.96809E+08         0.00000E+00
    0.00000E+00         0.00000E+00        -0.78868E+08
 
   -0.76951E+08         0.64872E+06         0.00000E+00
    0.64872E+06        -0.96708E+08         0.00000E+00
    0.00000E+00         0.00000E+00        -0.78333E+08
 
   -0.76756E+08         0.79126E+06         0.00000E+00
    0.79126E+06        -0.96613E+08         0.00000E+00
    0.00000E+00         0.00000E+00        -0.77840E+08
 
   -0.76561E+08         0.91673E+06         0.00000E+00
    0.91673E+06        -0.96520E+08         0.00000E+00
    0.00000E+00         0.00000E+00        -0.77382E+08
 
   -0.76364E+08         0.10238E+07         0.00000E+00
    0.10238E+07        -0.96428E+08         0.00000E+00
    0.00000E+00         0.00000E+00        -0.76956E+08
 
   -0.76163E+08         0.11125E+07         0.00000E+00
    0.11125E+07        -0.96335E+08         0.00000E+00
    0.00000E+00         0.00000E+00        -0.76557E+08
 
   -0.75960E+08         0.11839E+07         0.00000E+00
    0.11839E+07        -0.96241E+08         0.00000E+00
    0.00000E+00         0.00000E+00        -0.76181E+08
 
   -0.75752E+08         0.12392E+07         0.00000E+00
    0.12392E+07        -0.96146E+08         0.00000E+00
    0.00000E+00         0.00000E+00        -0.75827E+08
 
   -0.75542E+08         0.12801E+07         0.00000E+00
    0.12801E+07        -0.96049E+08         0.00000E+00
    0.00000E+00         0.00000E+00        -0.75492E+08
 
   -0.75330E+08         0.13084E+07         0.00000E+00
    0.13084E+07        -0.95950E+08         0.00000E+00
    0.00000E+00         0.00000E+00        -0.75174E+08
 
   -0.75116E+08         0.13255E+07         0.00000E+00
    0.13255E+07        -0.95850E+08         0.00000E+00
    0.00000E+00         0.00000E+00        -0.74872E+08
 
   -0.74901E+08         0.13332E+07         0.00000E+00
    0.13332E+07        -0.95748E+08         0.00000E+00
    0.00000E+00         0.00000E+00        -0.74585E+08
 
   -0.74686E+08         0.13329E+07         0.00000E+00
    0.13329E+07        -0.95646E+08         0.00000E+00
    0.00000E+00         0.00000E+00        -0.74311E+08
 
   -0.74471E+08         0.13259E+07         0.00000E+00
    0.13259E+07        -0.95543E+08         0.00000E+00
    0.00000E+00         0.00000E+00        -0.74050E+08
 
   -0.74258E+08         0.13133E+07         0.00000E+00
    0.13133E+07        -0.95440E+08         0.00000E+00
    0.00000E+00         0.00000E+00        -0.73801E+08
 
   -0.74047E+08         0.12962E+07         0.00000E+00
    0.12962E+07        -0.95336E+08         0.00000E+00
    0.00000E+00         0.00000E+00        -0.73563E+08
 
   -0.73838E+08         0.12756E+07         0.00000E+00
    0.12756E+07        -0.95233E+08         0.00000E+00
    0.00000E+00         0.00000E+00        -0.73335E+08
 
   -0.73632E+08         0.12522E+07         0.00000E+00
    0.12522E+07        -0.95131E+08         0.00000E+00
    0.00000E+00         0.00000E+00        -0.73118E+08
 
   -0.73430E+08         0.12267E+07         0.00000E+00
    0.12267E+07        -0.95030E+08         0.00000E+00
    0.00000E+00         0.00000E+00        -0.72909E+08
 
   -0.73231E+08         0.11996E+07         0.00000E+00
    0.11996E+07        -0.94929E+08         0.00000E+00
    0.00000E+00         0.00000E+00        -0.72710E+08
 
   -0.73036E+08         0.11716E+07         0.00000E+00
    0.11716E+07        -0.94830E+08         0.00000E+00
    0.00000E+00         0.00000E+00        -0.72518E+08
 
   -0.72845E+08         0.11430E+07         0.00000E+00
    0.11430E+07        -0.94732E+08         0.00000E+00
    0.00000E+00         0.00000E+00        -0.72334E+08
 
   -0.72658E+08         0.11141E+07         0.00000E+00
    0.11141E+07        -0.94635E+08         0.00000E+00
    0.00000E+00         0.00000E+00        -0.72158E+08
 
   -0.72476E+08         0.10854E+07         0.00000E+00
    0.10854E+07        -0.94540E+08         0.00000E+00
    0.00000E+00         0.00000E+00        -0.71988E+08
 
   -0.72297E+08         0.10569E+07         0.00000E+00
    0.10569E+07        -0.94447E+08         0.00000E+00
    0.00000E+00         0.00000E+00        -0.71825E+08
 
   -0.72123E+08         0.10290E+07         0.00000E+00
    0.10290E+07        -0.94355E+08         0.00000E+00
    0.00000E+00         0.00000E+00        -0.71667E+08
 
   -0.71953E+08         0.10018E+07         0.00000E+00
    0.10018E+07        -0.94265E+08         0.00000E+00
    0.00000E+00         0.00000E+00        -0.71516E+08
 
   -0.71787E+08         0.97544E+06         0.00000E+00
    0.97544E+06        -0.94177E+08         0.00000E+00
    0.00000E+00         0.00000E+00        -0.71369E+08
 
   -0.71625E+08         0.95003E+06         0.00000E+00
    0.95003E+06        -0.94090E+08         0.00000E+00
    0.00000E+00         0.00000E+00        -0.71227E+08
 
   -0.71467E+08         0.92567E+06         0.00000E+00
    0.92567E+06        -0.94005E+08         0.00000E+00
    0.00000E+00         0.00000E+00        -0.71090E+08
 
   -0.71312E+08         0.90244E+06         0.00000E+00
    0.90244E+06        -0.93921E+08         0.00000E+00
    0.00000E+00         0.00000E+00        -0.70957E+08
 
   -0.71161E+08         0.88038E+06         0.00000E+00
    0.88038E+06        -0.93839E+08         0.00000E+00
    0.00000E+00         0.00000E+00        -0.70828E+08
 
   -0.71013E+08         0.85954E+06         0.00000E+00
    0.85954E+06        -0.93759E+08         0.00000E+00
    0.00000E+00         0.00000E+00        -0.70703E+08
 
   -0.70868E+08         0.83996E+06         0.00000E+00
    0.83996E+06        -0.93679E+08         0.00000E+00
    0.00000E+00         0.00000E+00        -0.70581E+08
 
   -0.70727E+08         0.82165E+06         0.00000E+00
    0.82165E+06        -0.93602E+08         0.00000E+00
    0.00000E+00         0.00000E+00        -0.70462E+08
 
   -0.70588E+08         0.80462E+06         0.00000E+00
    0.80462E+06        -0.93525E+08         0.00000E+00
    0.00000E+00         0.00000E+00        -0.70346E+08
 
   -0.70451E+08         0.78890E+06         0.00000E+00
    0.78890E+06        -0.93449E+08         0.00000E+00
    0.00000E+00         0.00000E+00        -0.70232E+08
 
   -0.70317E+08         0.77447E+06         0.00000E+00
    0.77447E+06        -0.93375E+08         0.00000E+00
    0.00000E+00         0.00000E+00        -0.70120E+08
 
   -0.70185E+08         0.76133E+06         0.00000E+00
    0.76133E+06        -0.93301E+08         0.00000E+00
    0.00000E+00         0.00000E+00        -0.70011E+08
 
   -0.70054E+08         0.74949E+06         0.00000E+00
    0.74949E+06        -0.93228E+08         0.00000E+00
    0.00000E+00         0.00000E+00        -0.69903E+08
 
   -0.69926E+08         0.73892E+06         0.00000E+00
    0.73892E+06        -0.93156E+08         0.00000E+00
    0.00000E+00         0.00000E+00        -0.69796E+08
 
   -0.69799E+08         0.72961E+06         0.00000E+00
    0.72961E+06        -0.93085E+08         0.00000E+00
    0.00000E+00         0.00000E+00        -0.69691E+08
 
   -0.69673E+08         0.72156E+06         0.00000E+00
    0.72156E+06        -0.93014E+08         0.00000E+00
    0.00000E+00         0.00000E+00        -0.69587E+08
 
   -0.69548E+08         0.71473E+06         0.00000E+00
    0.71473E+06        -0.92943E+08         0.00000E+00
    0.00000E+00         0.00000E+00        -0.69484E+08
 
   -0.69424E+08         0.70911E+06         0.00000E+00
    0.70911E+06        -0.92873E+08         0.00000E+00
    0.00000E+00         0.00000E+00        -0.69381E+08
 
   -0.69300E+08         0.70468E+06         0.00000E+00
    0.70468E+06        -0.92803E+08         0.00000E+00
    0.00000E+00         0.00000E+00        -0.69278E+08
 
   -0.69177E+08         0.70142E+06         0.00000E+00
    0.70142E+06        -0.92733E+08         0.00000E+00
    0.00000E+00         0.00000E+00        -0.69176E+08
 
   -0.69054E+08         0.69928E+06         0.00000E+00
    0.69928E+06        -0.92663E+08         0.00000E+00
    0.00000E+00         0.00000E+00        -0.69073E+08
 
   -0.68931E+08         0.69825E+06         0.00000E+00
    0.69825E+06        -0.92593E+08         0.00000E+00
    0.00000E+00         0.00000E+00        -0.68970E+08
 
   -0.68807E+08         0.69830E+06         0.00000E+00
    0.69830E+06        -0.92523E+08         0.00000E+00
    0.00000E+00         0.00000E+00        -0.68867E+08
 
   -0.68683E+08         0.69938E+06         0.00000E+00
    0.69938E+06        -0.92453E+08         0.00000E+00
    0.00000E+00         0.00000E+00        -0.68763E+08
 
   -0.68559E+08         0.70145E+06         0.00000E+00
    0.70145E+06        -0.92382E+08         0.00000E+00
    0.00000E+00         0.00000E+00        -0.68657E+08
 
   -0.68434E+08         0.70448E+06         0.00000E+00
    0.70448E+06        -0.92311E+08         0.00000E+00
    0.00000E+00         0.00000E+00        -0.68551E+08
 
   -0.68307E+08         0.70841E+06         0.00000E+00
    0.70841E+06        -0.92239E+08         0.00000E+00
    0.00000E+00         0.00000E+00        -0.68442E+08
 
   -0.68180E+08         0.71319E+06         0.00000E+00
    0.71319E+06        -0.92166E+08         0.00000E+00
    0.00000E+00         0.00000E+00        -0.68332E+08
 
   -0.68051E+08         0.71875E+06         0.00000E+00
    0.71875E+06        -0.92093E+08         0.00000E+00
    0.00000E+00         0.00000E+00        -0.68220E+08
 
   -0.67920E+08         0.72504E+06         0.00000E+00
    0.72504E+06        -0.92019E+08         0.00000E+00
    0.00000E+00         0.00000E+00        -0.68106E+08
 
   -0.67788E+08         0.73197E+06         0.00000E+00
    0.73197E+06        -0.91944E+08         0.00000E+00
    0.00000E+00         0.00000E+00        -0.67989E+08
 
   -0.67653E+08         0.73946E+06         0.00000E+00
    0.73946E+06        -0.91868E+08         0.00000E+00
    0.00000E+00         0.00000E+00        -0.67869E+08
 
   -0.67517E+08         0.74741E+06         0.00000E+00
    0.74741E+06        -0.91792E+08         0.00000E+00
    0.00000E+00         0.00000E+00        -0.67746E+08
 
   -0.67378E+08         0.75570E+06         0.00000E+00
    0.75570E+06        -0.91714E+08         0.00000E+00
    0.00000E+00         0.00000E+00        -0.67620E+08
 
   -0.67238E+08         0.76421E+06         0.00000E+00
    0.76421E+06        -0.91635E+08         0.00000E+00
    0.00000E+00         0.00000E+00        -0.67490E+08
 
   -0.67094E+08         0.77280E+06         0.00000E+00
    0.77280E+06        -0.91556E+08         0.00000E+00
    0.00000E+00         0.00000E+00        -0.67356E+08
 
   -0.66948E+08         0.78130E+06         0.00000E+00
    0.78130E+06        -0.91475E+08         0.00000E+00
    0.00000E+00         0.00000E+00        -0.67218E+08
 
   -0.66800E+08         0.78953E+06         0.00000E+00
    0.78953E+06        -0.91394E+08         0.00000E+00
    0.00000E+00         0.00000E+00        -0.67075E+08
 
   -0.66649E+08         0.79728E+06         0.00000E+00
    0.79728E+06        -0.91311E+08         0.00000E+00
    0.00000E+00         0.00000E+00        -0.66928E+08
 
   -0.66495E+08         0.80430E+06         0.00000E+00
    0.80430E+06        -0.91229E+08         0.00000E+00
    0.00000E+00         0.00000E+00        -0.66775E+08
 
   -0.66338E+08         0.81033E+06         0.00000E+00
    0.81033E+06        -0.91145E+08         0.00000E+00
    0.00000E+00         0.00000E+00        -0.66616E+08
 
   -0.66179E+08         0.81506E+06         0.00000E+00
    0.81506E+06        -0.91061E+08         0.00000E+00
    0.00000E+00         0.00000E+00        -0.66451E+08
 
   -0.66016E+08         0.81814E+06         0.00000E+00
    0.81814E+06        -0.90977E+08         0.00000E+00
    0.00000E+00         0.00000E+00        -0.66280E+08
 
   -0.65852E+08         0.81918E+06         0.00000E+00
    0.81918E+06        -0.90893E+08         0.00000E+00
    0.00000E+00         0.00000E+00        -0.66102E+08
 
   -0.65684E+08         0.81777E+06         0.00000E+00
    0.81777E+06        -0.90810E+08         0.00000E+00
    0.00000E+00         0.00000E+00        -0.65917E+08
 
   -0.65515E+08         0.81341E+06         0.00000E+00
    0.81341E+06        -0.90726E+08         0.00000E+00
    0.00000E+00         0.00000E+00        -0.65725E+08
 
   -0.65343E+08         0.80559E+06         0.00000E+00
    0.80559E+06        -0.90644E+08         0.00000E+00
    0.00000E+00         0.00000E+00        -0.65524E+08
 
   -0.65169E+08         0.79374E+06         0.00000E+00
    0.79374E+06        -0.90563E+08         0.00000E+00
    0.00000E+00         0.00000E+00        -0.65315E+08
 
   -0.64992E+08         0.77726E+06         0.00000E+00
    0.77726E+06        -0.90484E+08         0.00000E+00
    0.00000E+00         0.00000E+00        -0.65097E+08
 
   -0.64814E+08         0.75550E+06         0.00000E+00
    0.75550E+06        -0.90406E+08         0.00000E+00
    0.00000E+00         0.00000E+00        -0.64869E+08
 
   -0.64635E+08         0.72784E+06         0.00000E+00
    0.72784E+06        -0.90331E+08         0.00000E+00
    0.00000E+00         0.00000E+00        -0.64631E+08
 
   -0.64454E+08         0.69364E+06         0.00000E+00
    0.69364E+06        -0.90257E+08         0.00000E+00
    0.00000E+00         0.00000E+00        -0.64383E+08
 
   -0.64271E+08         0.65234E+06         0.00000E+00
    0.65234E+06        -0.90186E+08         0.00000E+00
    0.00000E+00         0.00000E+00        -0.64123E+08
 
   -0.64087E+08         0.60348E+06         0.00000E+00
    0.60348E+06        -0.90117E+08         0.00000E+00
    0.00000E+00         0.00000E+00        -0.63851E+08
 
   -0.63900E+08         0.54679E+06         0.00000E+00
    0.54679E+06        -0.90049E+08         0.00000E+00
    0.00000E+00         0.00000E+00        -0.63566E+08
 
   -0.63712E+08         0.48232E+06         0.00000E+00
    0.48232E+06        -0.89981E+08         0.00000E+00
    0.00000E+00         0.00000E+00        -0.63267E+08
 
   -0.63521E+08         0.41055E+06         0.00000E+00
    0.41055E+06        -0.89911E+08         0.00000E+00
    0.00000E+00         0.00000E+00        -0.62952E+08
 
   -0.63326E+08         0.33263E+06         0.00000E+00
    0.33263E+06        -0.89838E+08         0.00000E+00
    0.00000E+00         0.00000E+00        -0.62619E+08
 
   -0.63125E+08         0.25061E+06         0.00000E+00
    0.25061E+06        -0.89757E+08         0.00000E+00
    0.00000E+00         0.00000E+00        -0.62265E+08
 
   -0.62918E+08         0.16780E+06         0.00000E+00
    0.16780E+06        -0.89664E+08         0.00000E+00
    0.00000E+00         0.00000E+00        -0.61887E+08
 
   -0.62700E+08         0.89060E+05         0.00000E+00
    0.89060E+05        -0.89552E+08         0.00000E+00
    0.00000E+00         0.00000E+00        -0.61480E+08
 
   -0.62470E+08         0.20981E+05         0.00000E+00
    0.20981E+05        -0.89414E+08         0.00000E+00
    0.00000E+00         0.00000E+00        -0.61037E+08
 
   -0.62224E+08        -0.28608E+05         0.00000E+00
   -0.28608E+05        -0.89236E+08         0.00000E+00
    0.00000E+00         0.00000E+00        -0.60549E+08
 
   -0.61960E+08        -0.52499E+05         0.00000E+00
   -0.52499E+05        -0.89005E+08         0.00000E+00
    0.00000E+00         0.00000E+00        -0.60002E+08
 
   -0.61675E+08        -0.47662E+05         0.00000E+00
   -0.47662E+05        -0.88704E+08         0.00000E+00
    0.00000E+00         0.00000E+00        -0.59382E+08
 
   -0.61370E+08        -0.19100E+05         0.00000E+00
   -0.19100E+05        -0.88318E+08         0.00000E+00
    0.00000E+00         0.00000E+00        -0.58673E+08
 
   -0.79103E+08        -0.48432E+05         0.00000E+00
   -0.48432E+05        -0.98341E+08         0.00000E+00
    0.00000E+00         0.00000E+00        -0.84495E+08
 
   -0.78663E+08        -0.12933E+06         0.00000E+00
   -0.12933E+06        -0.97913E+08         0.00000E+00
    0.00000E+00         0.00000E+00        -0.83438E+08
 
   -0.78305E+08        -0.15912E+06         0.00000E+00
   -0.15912E+06        -0.97588E+08         0.00000E+00
    0.00000E+00         0.00000E+00        -0.82482E+08
 
   -0.78045E+08        -0.12183E+06         0.00000E+00
   -0.12183E+06        -0.97314E+08         0.00000E+00
    0.00000E+00         0.00000E+00        -0.81644E+08
 
   -0.77790E+08        -0.26462E+05         0.00000E+00
   -0.26462E+05        -0.97130E+08         0.00000E+00
    0.00000E+00         0.00000E+00        -0.80868E+08
 
   -0.77537E+08         0.10943E+06         0.00000E+00
    0.10943E+06        -0.97009E+08         0.00000E+00
    0.00000E+00         0.00000E+00        -0.80145E+08
 
   -0.77311E+08         0.26679E+06         0.00000E+00
    0.26679E+06        -0.96909E+08         0.00000E+00
    0.00000E+00         0.00000E+00        -0.79487E+08
 
   -0.77114E+08         0.42888E+06         0.00000E+00
    0.42888E+06        -0.96805E+08         0.00000E+00
    0.00000E+00         0.00000E+00        -0.78899E+08
 
   -0.76924E+08         0.58469E+06         0.00000E+00
    0.58469E+06        -0.96711E+08         0.00000E+00
    0.00000E+00         0.00000E+00        -0.78358E+08
 
   -0.76736E+08         0.72737E+06         0.00000E+00
    0.72737E+06        -0.96620E+08         0.00000E+00
    0.00000E+00         0.00000E+00        -0.77859E+08
 
   -0.76547E+08         0.85331E+06         0.00000E+00
    0.85331E+06        -0.96530E+08         0.00000E+00
    0.00000E+00         0.00000E+00        -0.77397E+08
 
   -0.76354E+08         0.96107E+06         0.00000E+00
    0.96107E+06        -0.96440E+08         0.00000E+00
    0.00000E+00         0.00000E+00        -0.76966E+08
 
   -0.76158E+08         0.10506E+07         0.00000E+00
    0.10506E+07        -0.96349E+08         0.00000E+00
    0.00000E+00         0.00000E+00        -0.76562E+08
 
   -0.75958E+08         0.11229E+07         0.00000E+00
    0.11229E+07        -0.96256E+08         0.00000E+00
    0.00000E+00         0.00000E+00        -0.76183E+08
 
   -0.75754E+08         0.11792E+07         0.00000E+00
    0.11792E+07        -0.96161E+08         0.00000E+00
    0.00000E+00         0.00000E+00        -0.75826E+08
 
   -0.75546E+08         0.12211E+07         0.00000E+00
    0.12211E+07        -0.96063E+08         0.00000E+00
    0.00000E+00         0.00000E+00        -0.75488E+08
 
   -0.75336E+08         0.12504E+07         0.00000E+00
    0.12504E+07        -0.95964E+08         0.00000E+00
    0.00000E+00         0.00000E+00        -0.75169E+08
 
   -0.75123E+08         0.12686E+07         0.00000E+00
    0.12686E+07        -0.95864E+08         0.00000E+00
    0.00000E+00         0.00000E+00        -0.74865E+08
 
   -0.74909E+08         0.12774E+07         0.00000E+00
    0.12774E+07        -0.95762E+08         0.00000E+00
    0.00000E+00         0.00000E+00        -0.74576E+08
 
   -0.74695E+08         0.12782E+07         0.00000E+00
    0.12782E+07        -0.95659E+08         0.00000E+00
    0.00000E+00         0.00000E+00        -0.74302E+08
 
   -0.74481E+08         0.12723E+07         0.00000E+00
    0.12723E+07        -0.95555E+08         0.00000E+00
    0.00000E+00         0.00000E+00        -0.74040E+08
 
   -0.74268E+08         0.12609E+07         0.00000E+00
    0.12609E+07        -0.95451E+08         0.00000E+00
    0.00000E+00         0.00000E+00        -0.73790E+08
 
   -0.74057E+08         0.12451E+07         0.00000E+00
    0.12451E+07        -0.95347E+08         0.00000E+00
    0.00000E+00         0.00000E+00        -0.73552E+08
 
   -0.73848E+08         0.12256E+07         0.00000E+00
    0.12256E+07        -0.95244E+08         0.00000E+00
    0.00000E+00         0.00000E+00        -0.73324E+08
 
   -0.73643E+08         0.12034E+07         0.00000E+00
    0.12034E+07        -0.95141E+08         0.00000E+00
    0.00000E+00         0.00000E+00        -0.73107E+08
 
   -0.73440E+08         0.11791E+07         0.00000E+00
    0.11791E+07        -0.95038E+08         0.00000E+00
    0.00000E+00         0.00000E+00        -0.72898E+08
 
   -0.73241E+08         0.11533E+07         0.00000E+00
    0.11533E+07        -0.94937E+08         0.00000E+00
    0.00000E+00         0.00000E+00        -0.72699E+08
 
   -0.73046E+08         0.11265E+07         0.00000E+00
    0.11265E+07        -0.94838E+08         0.00000E+00
    0.00000E+00         0.00000E+00        -0.72508E+08
 
   -0.72855E+08         0.10991E+07         0.00000E+00
    0.10991E+07        -0.94739E+08         0.00000E+00
    0.00000E+00         0.00000E+00        -0.72324E+08
 
   -0.72667E+08         0.10714E+07         0.00000E+00
    0.10714E+07        -0.94642E+08         0.00000E+00
    0.00000E+00         0.00000E+00        -0.72148E+08
 
   -0.72484E+08         0.10438E+07         0.00000E+00
    0.10438E+07        -0.94547E+08         0.00000E+00
    0.00000E+00         0.00000E+00        -0.71978E+08
 
   -0.72306E+08         0.10165E+07         0.00000E+00
    0.10165E+07        -0.94453E+08         0.00000E+00
    0.00000E+00         0.00000E+00        -0.71815E+08
 
   -0.72131E+08         0.98967E+06         0.00000E+00
    0.98967E+06        -0.94361E+08         0.00000E+00
    0.00000E+00         0.00000E+00        -0.71659E+08
 
   -0.71961E+08         0.96352E+06         0.00000E+00
    0.96352E+06        -0.94270E+08         0.00000E+00
    0.00000E+00         0.00000E+00        -0.71507E+08
 
   -0.71794E+08         0.93817E+06         0.00000E+00
    0.93817E+06        -0.94182E+08         0.00000E+00
    0.00000E+00         0.00000E+00        -0.71361E+08
 
   -0.71632E+08         0.91373E+06         0.00000E+00
    0.91373E+06        -0.94095E+08         0.00000E+00
    0.00000E+00         0.00000E+00        -0.71220E+08
 
   -0.71473E+08         0.89030E+06         0.00000E+00
    0.89030E+06        -0.94009E+08         0.00000E+00
    0.00000E+00         0.00000E+00        -0.71083E+08
 
   -0.71318E+08         0.86795E+06         0.00000E+00
    0.86795E+06        -0.93925E+08         0.00000E+00
    0.00000E+00         0.00000E+00        -0.70951E+08
 
   -0.71166E+08         0.84672E+06         0.00000E+00
    0.84672E+06        -0.93843E+08         0.00000E+00
    0.00000E+00         0.00000E+00        -0.70822E+08
 
   -0.71018E+08         0.82667E+06         0.00000E+00
    0.82667E+06        -0.93762E+08         0.00000E+00
    0.00000E+00         0.00000E+00        -0.70697E+08
 
   -0.70873E+08         0.80782E+06         0.00000E+00
    0.80782E+06        -0.93683E+08         0.00000E+00
    0.00000E+00         0.00000E+00        -0.70575E+08
 
   -0.70731E+08         0.79020E+06         0.00000E+00
    0.79020E+06        -0.93605E+08         0.00000E+00
    0.00000E+00         0.00000E+00        -0.70457E+08
 
   -0.70591E+08         0.77382E+06         0.00000E+00
    0.77382E+06        -0.93528E+08         0.00000E+00
    0.00000E+00         0.00000E+00        -0.70341E+08
 
   -0.70454E+08         0.75868E+06         0.00000E+00
    0.75868E+06        -0.93452E+08         0.00000E+00
    0.00000E+00         0.00000E+00        -0.70227E+08
 
   -0.70319E+08         0.74478E+06         0.00000E+00
    0.74478E+06        -0.93377E+08         0.00000E+00
    0.00000E+00         0.00000E+00        -0.70116E+08
 
   -0.70187E+08         0.73214E+06         0.00000E+00
    0.73214E+06        -0.93303E+08         0.00000E+00
    0.00000E+00         0.00000E+00        -0.70007E+08
 
   -0.70056E+08         0.72073E+06         0.00000E+00
    0.72073E+06        -0.93230E+08         0.00000E+00
    0.00000E+00         0.00000E+00        -0.69899E+08
 
   -0.69927E+08         0.71054E+06         0.00000E+00
    0.71054E+06        -0.93158E+08         0.00000E+00
    0.00000E+00         0.00000E+00        -0.69793E+08
 
   -0.69800E+08         0.70158E+06         0.00000E+00
    0.70158E+06        -0.93086E+08         0.00000E+00
    0.00000E+00         0.00000E+00        -0.69688E+08
 
   -0.69673E+08         0.69381E+06         0.00000E+00
    0.69381E+06        -0.93015E+08         0.00000E+00
    0.00000E+00         0.00000E+00        -0.69585E+08
 
   -0.69548E+08         0.68723E+06         0.00000E+00
    0.68723E+06        -0.92945E+08         0.00000E+00
    0.00000E+00         0.00000E+00        -0.69482E+08
 
   -0.69423E+08         0.68181E+06         0.00000E+00
    0.68181E+06        -0.92874E+08         0.00000E+00
    0.00000E+00         0.00000E+00        -0.69379E+08
 
   -0.69299E+08         0.67753E+06         0.00000E+00
    0.67753E+06        -0.92804E+08         0.00000E+00
    0.00000E+00         0.00000E+00        -0.69277E+08
 
   -0.69176E+08         0.67436E+06         0.00000E+00
    0.67436E+06        -0.92734E+08         0.00000E+00
    0.00000E+00         0.00000E+00        -0.69175E+08
 
   -0.69052E+08         0.67229E+06         0.00000E+00
    0.67229E+06        -0.92664E+08         0.00000E+00
    0.00000E+00         0.00000E+00        -0.69073E+08
 
   -0.68929E+08         0.67128E+06         0.00000E+00
    0.67128E+06        -0.92594E+08         0.00000E+00
    0.00000E+00         0.00000E+00        -0.68970E+08
 
   -0.68805E+08         0.67129E+06         0.00000E+00
    0.67129E+06        -0.92524E+08         0.00000E+00
    0.00000E+00         0.00000E+00        -0.68867E+08
 
   -0.68681E+08         0.67230E+06         0.00000E+00
    0.67230E+06        -0.92453E+08         0.00000E+00
    0.00000E+00         0.00000E+00        -0.68763E+08
 
   -0.68556E+08         0.67427E+06         0.00000E+00
    0.67427E+06        -0.92382E+08         0.00000E+00
    0.00000E+00         0.00000E+00        -0.68657E+08
 
   -0.68430E+08         0.67715E+06         0.00000E+00
    0.67715E+06        -0.92311E+08         0.00000E+00
    0.00000E+00         0.00000E+00        -0.68551E+08
 
   -0.68303E+08         0.68090E+06         0.00000E+00
    0.68090E+06        -0.92239E+08         0.00000E+00
    0.00000E+00         0.00000E+00        -0.68443E+08
 
   -0.68175E+08         0.68546E+06         0.00000E+00
    0.68546E+06        -0.92166E+08         0.00000E+00
    0.00000E+00         0.00000E+00        -0.68333E+08
 
   -0.68046E+08         0.69078E+06         0.00000E+00
    0.69078E+06        -0.92092E+08         0.00000E+00
    0.00000E+00         0.00000E+00        -0.68221E+08
 
   -0.67915E+08         0.69679E+06         0.00000E+00
    0.69679E+06        -0.92018E+08         0.00000E+00
    0.00000E+00         0.00000E+00        -0.68107E+08
 
   -0.67782E+08         0.70341E+06         0.00000E+00
    0.70341E+06        -0.91943E+08         0.00000E+00
    0.00000E+00         0.00000E+00        -0.67990E+08
 
   -0.67647E+08         0.71057E+06         0.00000E+00
    0.71057E+06        -0.91867E+08         0.00000E+00
    0.00000E+00         0.00000E+00        -0.67871E+08
 
   -0.67510E+08         0.71816E+06         0.00000E+00
    0.71816E+06        -0.91790E+08         0.00000E+00
    0.00000E+00         0.00000E+00        -0.67748E+08
 
   -0.67371E+08         0.72608E+06         0.00000E+00
    0.72608E+06        -0.91712E+08         0.00000E+00
    0.00000E+00         0.00000E+00        -0.67622E+08
 
   -0.67230E+08         0.73420E+06         0.00000E+00
    0.73420E+06        -0.91634E+08         0.00000E+00
    0.00000E+00         0.00000E+00        -0.67492E+08
 
   -0.67086E+08         0.74240E+06         0.00000E+00
    0.74240E+06        -0.91554E+08         0.00000E+00
    0.00000E+00         0.00000E+00        -0.67358E+08
 
   -0.66940E+08         0.75050E+06         0.00000E+00
    0.75050E+06        -0.91473E+08         0.00000E+00
    0.00000E+00         0.00000E+00        -0.67220E+08
 
   -0.66791E+08         0.75832E+06         0.00000E+00
    0.75832E+06        -0.91391E+08         0.00000E+00
    0.00000E+00         0.00000E+00        -0.67078E+08
 
   -0.66640E+08         0.76567E+06         0.00000E+00
    0.76567E+06        -0.91309E+08         0.00000E+00
    0.00000E+00         0.00000E+00        -0.66930E+08
 
   -0.66486E+08         0.77231E+06         0.00000E+00
    0.77231E+06        -0.91226E+08         0.00000E+00
    0.00000E+00         0.00000E+00        -0.66777E+08
 
   -0.66329E+08         0.77797E+06         0.00000E+00
    0.77797E+06        -0.91142E+08         0.00000E+00
    0.00000E+00         0.00000E+00        -0.66618E+08
 
   -0.66169E+08         0.78236E+06         0.00000E+00
    0.78236E+06        -0.91058E+08         0.00000E+00
    0.00000E+00         0.00000E+00        -0.66453E+08
 
   -0.66007E+08         0.78513E+06         0.00000E+00
    0.78513E+06        -0.90974E+08         0.00000E+00
    0.00000E+00         0.00000E+00        -0.66282E+08
 
   -0.65842E+08         0.78591E+06         0.00000E+00
    0.78591E+06        -0.90889E+08         0.00000E+00
    0.00000E+00         0.00000E+00        -0.66104E+08
 
   -0.65675E+08         0.78427E+06         0.00000E+00
    0.78427E+06        -0.90805E+08         0.00000E+00
    0.00000E+00         0.00000E+00        -0.65918E+08
 
   -0.65505E+08         0.77974E+06         0.00000E+00
    0.77974E+06        -0.90722E+08         0.00000E+00
    0.00000E+00         0.00000E+00        -0.65725E+08
 
   -0.65333E+08         0.77181E+06         0.00000E+00
    0.77181E+06        -0.90639E+08         0.00000E+00
    0.00000E+00         0.00000E+00        -0.65524E+08
 
   -0.65160E+08         0.75992E+06         0.00000E+00
    0.75992E+06        -0.90558E+08         0.00000E+00
    0.00000E+00         0.00000E+00        -0.65314E+08
 
   -0.64984E+08         0.74345E+06         0.00000E+00
    0.74345E+06        -0.90478E+08         0.00000E+00
    0.00000E+00         0.00000E+00        -0.65095E+08
 
   -0.64807E+08         0.72179E+06         0.00000E+00
    0.72179E+06        -0.90400E+08         0.00000E+00
    0.00000E+00         0.00000E+00        -0.64866E+08
 
   -0.64628E+08         0.69429E+06         0.00000E+00
    0.69429E+06        -0.90325E+08         0.00000E+00
    0.00000E+00         0.00000E+00        -0.64627E+08
 
   -0.64448E+08         0.66032E+06         0.00000E+00
    0.66032E+06        -0.90251E+08         0.00000E+00
    0.00000E+00         0.00000E+00        -0.64378E+08
 
   -0.64267E+08         0.61931E+06         0.00000E+00
    0.61931E+06        -0.90180E+08         0.00000E+00
    0.00000E+00         0.00000E+00        -0.64117E+08
 
   -0.64085E+08         0.57080E+06         0.00000E+00
    0.57080E+06        -0.90111E+08         0.00000E+00
    0.00000E+00         0.00000E+00        -0.63843E+08
 
   -0.63902E+08         0.51451E+06         0.00000E+00
    0.51451E+06        -0.90043E+08         0.00000E+00
    0.00000E+00         0.00000E+00        -0.63557E+08
 
   -0.63717E+08         0.45048E+06         0.00000E+00
    0.45048E+06        -0.89976E+08         0.00000E+00
    0.00000E+00         0.00000E+00        -0.63255E+08
 
   -0.63530E+08         0.37918E+06         0.00000E+00
    0.37918E+06        -0.89909E+08         0.00000E+00
    0.00000E+00         0.00000E+00        -0.62938E+08
 
   -0.63340E+08         0.30177E+06         0.00000E+00
    0.30177E+06        -0.89837E+08         0.00000E+00
    0.00000E+00         0.00000E+00        -0.62603E+08
 
   -0.63145E+08         0.22034E+06         0.00000E+00
    0.22034E+06        -0.89760E+08         0.00000E+00
    0.00000E+00         0.00000E+00        -0.62248E+08
 
   -0.62944E+08         0.13825E+06         0.00000E+00
    0.13825E+06        -0.89671E+08         0.00000E+00
    0.00000E+00         0.00000E+00        -0.61868E+08
 
   -0.62735E+08         0.60507E+05         0.00000E+00
    0.60507E+05        -0.89565E+08         0.00000E+00
    0.00000E+00         0.00000E+00        -0.61461E+08
 
   -0.62513E+08        -0.59963E+04         0.00000E+00
   -0.59963E+04        -0.89432E+08         0.00000E+00
    0.00000E+00         0.00000E+00        -0.61018E+08
 
   -0.62275E+08        -0.52947E+05         0.00000E+00
   -0.52947E+05        -0.89262E+08         0.00000E+00
    0.00000E+00         0.00000E+00        -0.60531E+08
 
   -0.62017E+08        -0.72490E+05         0.00000E+00
   -0.72490E+05        -0.89040E+08         0.00000E+00
    0.00000E+00         0.00000E+00        -0.59987E+08
 
   -0.61738E+08        -0.61087E+05         0.00000E+00
   -0.61087E+05        -0.88746E+08         0.00000E+00
    0.00000E+00         0.00000E+00        -0.59369E+08
 
   -0.61437E+08        -0.23887E+05         0.00000E+00
   -0.23887E+05        -0.88363E+08         0.00000E+00
    0.00000E+00         0.00000E+00        -0.58662E+08
 
   -0.79027E+08        -0.57216E+05         0.00000E+00
   -0.57216E+05        -0.98264E+08         0.00000E+00
    0.00000E+00         0.00000E+00        -0.84527E+08
 
   -0.78587E+08        -0.15478E+06         0.00000E+00
   -0.15478E+06        -0.97842E+08         0.00000E+00
    0.00000E+00         0.00000E+00        -0.83475E+08
 
   -0.78231E+08        -0.19769E+06         0.00000E+00
   -0.19769E+06        -0.97531E+08         0.00000E+00
    0.00000E+00         0.00000E+00        -0.82523E+08
 
   -0.77944E+08        -0.16988E+06         0.00000E+00
   -0.16988E+06        -0.97298E+08         0.00000E+00
    0.00000E+00         0.00000E+00        -0.81667E+08
 
   -0.77700E+08        -0.79702E+05         0.00000E+00
   -0.79702E+05        -0.97125E+08         0.00000E+00
    0.00000E+00         0.00000E+00        -0.80890E+08
 
   -0.77468E+08         0.53033E+05         0.00000E+00
    0.53033E+05        -0.97005E+08         0.00000E+00
    0.00000E+00         0.00000E+00        -0.80172E+08
 
   -0.77269E+08         0.20809E+06         0.00000E+00
    0.20809E+06        -0.96897E+08         0.00000E+00
    0.00000E+00         0.00000E+00        -0.79524E+08
 
   -0.77081E+08         0.36883E+06         0.00000E+00
    0.36883E+06        -0.96802E+08         0.00000E+00
    0.00000E+00         0.00000E+00        -0.78930E+08
 
   -0.76898E+08         0.52390E+06         0.00000E+00
    0.52390E+06        -0.96713E+08         0.00000E+00
    0.00000E+00         0.00000E+00        -0.78383E+08
 
   -0.76717E+08         0.66630E+06         0.00000E+00
    0.66630E+06        -0.96626E+08         0.00000E+00
    0.00000E+00         0.00000E+00        -0.77879E+08
 
   -0.76534E+08         0.79230E+06         0.00000E+00
    0.79230E+06        -0.96540E+08         0.00000E+00
    0.00000E+00         0.00000E+00        -0.77411E+08
 
   -0.76346E+08         0.90035E+06         0.00000E+00
    0.90035E+06        -0.96452E+08         0.00000E+00
    0.00000E+00         0.00000E+00        -0.76976E+08
 
   -0.76155E+08         0.99038E+06         0.00000E+00
    0.99038E+06        -0.96362E+08         0.00000E+00
    0.00000E+00         0.00000E+00        -0.76568E+08
 
   -0.75958E+08         0.10632E+07         0.00000E+00
    0.10632E+07        -0.96270E+08         0.00000E+00
    0.00000E+00         0.00000E+00        -0.76185E+08
 
   -0.75756E+08         0.11202E+07         0.00000E+00
    0.11202E+07        -0.96175E+08         0.00000E+00
    0.00000E+00         0.00000E+00        -0.75825E+08
 
   -0.75551E+08         0.11629E+07         0.00000E+00
    0.11629E+07        -0.96078E+08         0.00000E+00
    0.00000E+00         0.00000E+00        -0.75485E+08
 
   -0.75342E+08         0.11930E+07         0.00000E+00
    0.11930E+07        -0.95979E+08         0.00000E+00
    0.00000E+00         0.00000E+00        -0.75163E+08
 
   -0.75131E+08         0.12121E+07         0.00000E+00
    0.12121E+07        -0.95878E+08         0.00000E+00
    0.00000E+00         0.00000E+00        -0.74858E+08
 
   -0.74918E+08         0.12219E+07         0.00000E+00
    0.12219E+07        -0.95775E+08         0.00000E+00
    0.00000E+00         0.00000E+00        -0.74568E+08
 
   -0.74704E+08         0.12237E+07         0.00000E+00
    0.12237E+07        -0.95671E+08         0.00000E+00
    0.00000E+00         0.00000E+00        -0.74293E+08
 
   -0.74491E+08         0.12189E+07         0.00000E+00
    0.12189E+07        -0.95567E+08         0.00000E+00
    0.00000E+00         0.00000E+00        -0.74030E+08
 
   -0.74279E+08         0.12086E+07         0.00000E+00
    0.12086E+07        -0.95462E+08         0.00000E+00
    0.00000E+00         0.00000E+00        -0.73780E+08
 
   -0.74068E+08         0.11939E+07         0.00000E+00
    0.11939E+07        -0.95358E+08         0.00000E+00
    0.00000E+00         0.00000E+00        -0.73541E+08
 
   -0.73859E+08         0.11756E+07         0.00000E+00
    0.11756E+07        -0.95254E+08         0.00000E+00
    0.00000E+00         0.00000E+00        -0.73314E+08
 
   -0.73653E+08         0.11546E+07         0.00000E+00
    0.11546E+07        -0.95150E+08         0.00000E+00
    0.00000E+00         0.00000E+00        -0.73096E+08
 
   -0.73450E+08         0.11315E+07         0.00000E+00
    0.11315E+07        -0.95047E+08         0.00000E+00
    0.00000E+00         0.00000E+00        -0.72888E+08
 
   -0.73251E+08         0.11069E+07         0.00000E+00
    0.11069E+07        -0.94946E+08         0.00000E+00
    0.00000E+00         0.00000E+00        -0.72688E+08
 
   -0.73056E+08         0.10813E+07         0.00000E+00
    0.10813E+07        -0.94845E+08         0.00000E+00
    0.00000E+00         0.00000E+00        -0.72497E+08
 
   -0.72864E+08         0.10550E+07         0.00000E+00
    0.10550E+07        -0.94746E+08         0.00000E+00
    0.00000E+00         0.00000E+00        -0.72314E+08
 
   -0.72677E+08         0.10285E+07         0.00000E+00
    0.10285E+07        -0.94649E+08         0.00000E+00
    0.00000E+00         0.00000E+00        -0.72138E+08
 
   -0.72493E+08         0.10020E+07         0.00000E+00
    0.10020E+07        -0.94553E+08         0.00000E+00
    0.00000E+00         0.00000E+00        -0.71969E+08
 
   -0.72314E+08         0.97584E+06         0.00000E+00
    0.97584E+06        -0.94459E+08         0.00000E+00
    0.00000E+00         0.00000E+00        -0.71806E+08
 
   -0.72139E+08         0.95011E+06         0.00000E+00
    0.95011E+06        -0.94366E+08         0.00000E+00
    0.00000E+00         0.00000E+00        -0.71650E+08
 
   -0.71968E+08         0.92501E+06         0.00000E+00
    0.92501E+06        -0.94276E+08         0.00000E+00
    0.00000E+00         0.00000E+00        -0.71499E+08
 
   -0.71801E+08         0.90068E+06         0.00000E+00
    0.90068E+06        -0.94187E+08         0.00000E+00
    0.00000E+00         0.00000E+00        -0.71353E+08
 
   -0.71638E+08         0.87722E+06         0.00000E+00
    0.87722E+06        -0.94099E+08         0.00000E+00
    0.00000E+00         0.00000E+00        -0.71212E+08
 
   -0.71479E+08         0.85472E+06         0.00000E+00
    0.85472E+06        -0.94013E+08         0.00000E+00
    0.00000E+00         0.00000E+00        -0.71076E+08
 
   -0.71324E+08         0.83325E+06         0.00000E+00
    0.83325E+06        -0.93929E+08         0.00000E+00
    0.00000E+00         0.00000E+00        -0.70944E+08
 
   -0.71172E+08         0.81286E+06         0.00000E+00
    0.81286E+06        -0.93847E+08         0.00000E+00
    0.00000E+00         0.00000E+00        -0.70816E+08
 
   -0.71023E+08         0.79360E+06         0.00000E+00
    0.79360E+06        -0.93766E+08         0.00000E+00
    0.00000E+00         0.00000E+00        -0.70691E+08
 
   -0.70877E+08         0.77550E+06         0.00000E+00
    0.77550E+06        -0.93686E+08         0.00000E+00
    0.00000E+00         0.00000E+00        -0.70570E+08
 
   -0.70735E+08         0.75856E+06         0.00000E+00
    0.75856E+06        -0.93607E+08         0.00000E+00
    0.00000E+00         0.00000E+00        -0.70452E+08
 
   -0.70595E+08         0.74282E+06         0.00000E+00
    0.74282E+06        -0.93530E+08         0.00000E+00
    0.00000E+00         0.00000E+00        -0.70336E+08
 
   -0.70457E+08         0.72827E+06         0.00000E+00
    0.72827E+06        -0.93454E+08         0.00000E+00
    0.00000E+00         0.00000E+00        -0.70223E+08
 
   -0.70322E+08         0.71492E+06         0.00000E+00
    0.71492E+06        -0.93379E+08         0.00000E+00
    0.00000E+00         0.00000E+00        -0.70112E+08
 
   -0.70189E+08         0.70276E+06         0.00000E+00
    0.70276E+06        -0.93305E+08         0.00000E+00
    0.00000E+00         0.00000E+00        -0.70003E+08
 
   -0.70058E+08         0.69179E+06         0.00000E+00
    0.69179E+06        -0.93232E+08         0.00000E+00
    0.00000E+00         0.00000E+00        -0.69896E+08
 
   -0.69928E+08         0.68200E+06         0.00000E+00
    0.68200E+06        -0.93160E+08         0.00000E+00
    0.00000E+00         0.00000E+00        -0.69790E+08
 
   -0.69800E+08         0.67338E+06         0.00000E+00
    0.67338E+06        -0.93088E+08         0.00000E+00
    0.00000E+00         0.00000E+00        -0.69686E+08
 
   -0.69674E+08         0.66591E+06         0.00000E+00
    0.66591E+06        -0.93017E+08         0.00000E+00
    0.00000E+00         0.00000E+00        -0.69582E+08
 
   -0.69548E+08         0.65957E+06         0.00000E+00
    0.65957E+06        -0.92946E+08         0.00000E+00
    0.00000E+00         0.00000E+00        -0.69480E+08
 
   -0.69423E+08         0.65435E+06         0.00000E+00
    0.65435E+06        -0.92875E+08         0.00000E+00
    0.00000E+00         0.00000E+00        -0.69377E+08
 
   -0.69298E+08         0.65022E+06         0.00000E+00
    0.65022E+06        -0.92805E+08         0.00000E+00
    0.00000E+00         0.00000E+00        -0.69275E+08
 
   -0.69174E+08         0.64716E+06         0.00000E+00
    0.64716E+06        -0.92735E+08         0.00000E+00
    0.00000E+00         0.00000E+00        -0.69174E+08
 
   -0.69051E+08         0.64515E+06         0.00000E+00
    0.64515E+06        -0.92665E+08         0.00000E+00
    0.00000E+00         0.00000E+00        -0.69072E+08
 
   -0.68927E+08         0.64416E+06         0.00000E+00
    0.64416E+06        -0.92594E+08         0.00000E+00
    0.00000E+00         0.00000E+00        -0.68969E+08
 
   -0.68802E+08         0.64415E+06         0.00000E+00
    0.64415E+06        -0.92524E+08         0.00000E+00
    0.00000E+00         0.00000E+00        -0.68866E+08
 
   -0.68678E+08         0.64510E+06         0.00000E+00
    0.64510E+06        -0.92453E+08         0.00000E+00
    0.00000E+00         0.00000E+00        -0.68763E+08
 
   -0.68552E+08         0.64696E+06         0.00000E+00
    0.64696E+06        -0.92382E+08         0.00000E+00
    0.00000E+00         0.00000E+00        -0.68658E+08
 
   -0.68426E+08         0.64970E+06         0.00000E+00
    0.64970E+06        -0.92310E+08         0.00000E+00
    0.00000E+00         0.00000E+00        -0.68551E+08
 
   -0.68299E+08         0.65327E+06         0.00000E+00
    0.65327E+06        -0.92238E+08         0.00000E+00
    0.00000E+00         0.00000E+00        -0.68444E+08
 
   -0.68171E+08         0.65762E+06         0.00000E+00
    0.65762E+06        -0.92165E+08         0.00000E+00
    0.00000E+00         0.00000E+00        -0.68334E+08
 
   -0.68041E+08         0.66269E+06         0.00000E+00
    0.66269E+06        -0.92092E+08         0.00000E+00
    0.00000E+00         0.00000E+00        -0.68222E+08
 
   -0.67909E+08         0.66842E+06         0.00000E+00
    0.66842E+06        -0.92017E+08         0.00000E+00
    0.00000E+00         0.00000E+00        -0.68108E+08
 
   -0.67776E+08         0.67474E+06         0.00000E+00
    0.67474E+06        -0.91942E+08         0.00000E+00
    0.00000E+00         0.00000E+00        -0.67992E+08
 
   -0.67641E+08         0.68157E+06         0.00000E+00
    0.68157E+06        -0.91866E+08         0.00000E+00
    0.00000E+00         0.00000E+00        -0.67872E+08
 
   -0.67504E+08         0.68881E+06         0.00000E+00
    0.68881E+06        -0.91789E+08         0.00000E+00
    0.00000E+00         0.00000E+00        -0.67750E+08
 
   -0.67365E+08         0.69636E+06         0.00000E+00
    0.69636E+06        -0.91711E+08         0.00000E+00
    0.00000E+00         0.00000E+00        -0.67624E+08
 
   -0.67223E+08         0.70411E+06         0.00000E+00
    0.70411E+06        -0.91632E+08         0.00000E+00
    0.00000E+00         0.00000E+00        -0.67494E+08
 
   -0.67079E+08         0.71191E+06         0.00000E+00
    0.71191E+06        -0.91552E+08         0.00000E+00
    0.00000E+00         0.00000E+00        -0.67360E+08
 
   -0.66932E+08         0.71962E+06         0.00000E+00
    0.71962E+06        -0.91471E+08         0.00000E+00
    0.00000E+00         0.00000E+00        -0.67222E+08
 
   -0.66783E+08         0.72705E+06         0.00000E+00
    0.72705E+06        -0.91389E+08         0.00000E+00
    0.00000E+00         0.00000E+00        -0.67080E+08
 
   -0.66631E+08         0.73402E+06         0.00000E+00
    0.73402E+06        -0.91306E+08         0.00000E+00
    0.00000E+00         0.00000E+00        -0.66932E+08
 
   -0.66477E+08         0.74029E+06         0.00000E+00
    0.74029E+06        -0.91223E+08         0.00000E+00
    0.00000E+00         0.00000E+00        -0.66779E+08
 
   -0.66319E+08         0.74560E+06         0.00000E+00
    0.74560E+06        -0.91139E+08         0.00000E+00
    0.00000E+00         0.00000E+00        -0.66620E+08
 
   -0.66160E+08         0.74967E+06         0.00000E+00
    0.74967E+06        -0.91054E+08         0.00000E+00
    0.00000E+00         0.00000E+00        -0.66455E+08
 
   -0.65997E+08         0.75215E+06         0.00000E+00
    0.75215E+06        -0.90970E+08         0.00000E+00
    0.00000E+00         0.00000E+00        -0.66283E+08
 
   -0.65832E+08         0.75269E+06         0.00000E+00
    0.75269E+06        -0.90885E+08         0.00000E+00
    0.00000E+00         0.00000E+00        -0.66105E+08
 
   -0.65665E+08         0.75086E+06         0.00000E+00
    0.75086E+06        -0.90801E+08         0.00000E+00
    0.00000E+00         0.00000E+00        -0.65919E+08
 
   -0.65495E+08         0.74620E+06         0.00000E+00
    0.74620E+06        -0.90717E+08         0.00000E+00
    0.00000E+00         0.00000E+00        -0.65725E+08
 
   -0.65324E+08         0.73820E+06         0.00000E+00
    0.73820E+06        -0.90634E+08         0.00000E+00
    0.00000E+00         0.00000E+00        -0.65524E+08
 
   -0.65150E+08         0.72631E+06         0.00000E+00
    0.72631E+06        -0.90552E+08         0.00000E+00
    0.00000E+00         0.00000E+00        -0.65313E+08
 
   -0.64975E+08         0.70993E+06         0.00000E+00
    0.70993E+06        -0.90472E+08         0.00000E+00
    0.00000E+00         0.00000E+00        -0.65093E+08
 
   -0.64799E+08         0.68844E+06         0.00000E+00
    0.68844E+06        -0.90394E+08         0.00000E+00
    0.00000E+00         0.00000E+00        -0.64864E+08
 
   -0.64621E+08         0.66118E+06         0.00000E+00
    0.66118E+06        -0.90318E+08         0.00000E+00
    0.00000E+00         0.00000E+00        -0.64624E+08
 
   -0.64443E+08         0.62754E+06         0.00000E+00
    0.62754E+06        -0.90244E+08         0.00000E+00
    0.00000E+00         0.00000E+00        -0.64373E+08
 
   -0.64264E+08         0.58694E+06         0.00000E+00
    0.58694E+06        -0.90173E+08         0.00000E+00
    0.00000E+00         0.00000E+00        -0.64111E+08
 
   -0.64084E+08         0.53890E+06         0.00000E+00
    0.53890E+06        -0.90105E+08         0.00000E+00
    0.00000E+00         0.00000E+00        -0.63836E+08
 
   -0.63903E+08         0.48314E+06         0.00000E+00
    0.48314E+06        -0.90038E+08         0.00000E+00
    0.00000E+00         0.00000E+00        -0.63547E+08
 
   -0.63722E+08         0.41969E+06         0.00000E+00
    0.41969E+06        -0.89972E+08         0.00000E+00
    0.00000E+00         0.00000E+00        -0.63244E+08
 
   -0.63539E+08         0.34902E+06         0.00000E+00
    0.34902E+06        -0.89905E+08         0.00000E+00
    0.00000E+00         0.00000E+00        -0.62925E+08
 
   -0.63354E+08         0.27226E+06         0.00000E+00
    0.27226E+06        -0.89837E+08         0.00000E+00
    0.00000E+00         0.00000E+00        -0.62588E+08
 
   -0.63165E+08         0.19152E+06         0.00000E+00
    0.19152E+06        -0.89762E+08         0.00000E+00
    0.00000E+00         0.00000E+00        -0.62231E+08
 
   -0.62971E+08         0.11019E+06         0.00000E+00
    0.11019E+06        -0.89678E+08         0.00000E+00
    0.00000E+00         0.00000E+00        -0.61850E+08
 
   -0.62769E+08         0.33410E+05         0.00000E+00
    0.33410E+05        -0.89577E+08         0.00000E+00
    0.00000E+00         0.00000E+00        -0.61442E+08
 
   -0.62555E+08        -0.31695E+05         0.00000E+00
   -0.31695E+05        -0.89452E+08         0.00000E+00
    0.00000E+00         0.00000E+00        -0.60999E+08
 
   -0.62326E+08        -0.76325E+05         0.00000E+00
   -0.76325E+05        -0.89290E+08         0.00000E+00
    0.00000E+00         0.00000E+00        -0.60514E+08
 
   -0.62076E+08        -0.91913E+05         0.00000E+00
   -0.91913E+05        -0.89076E+08         0.00000E+00
    0.00000E+00         0.00000E+00        -0.59972E+08
 
   -0.61803E+08        -0.74277E+05         0.00000E+00
   -0.74277E+05        -0.88789E+08         0.00000E+00
    0.00000E+00         0.00000E+00        -0.59357E+08
 
   -0.61505E+08        -0.28622E+05         0.00000E+00
   -0.28622E+05        -0.88411E+08         0.00000E+00
    0.00000E+00         0.00000E+00        -0.58652E+08
 
   -0.78951E+08        -0.65776E+05         0.00000E+00
   -0.65776E+05        -0.98184E+08         0.00000E+00
    0.00000E+00         0.00000E+00        -0.84558E+08
 
   -0.78509E+08        -0.17936E+06         0.00000E+00
   -0.17936E+06        -0.97769E+08         0.00000E+00
    0.00000E+00         0.00000E+00        -0.83511E+08
 
   -0.78157E+08        -0.23437E+06         0.00000E+00
   -0.23437E+06        -0.97470E+08         0.00000E+00
    0.00000E+00         0.00000E+00        -0.82564E+08
 
   -0.77870E+08        -0.21455E+06         0.00000E+00
   -0.21455E+06        -0.97257E+08         0.00000E+00
    0.00000E+00         0.00000E+00        -0.81706E+08
 
   -0.77629E+08        -0.12925E+06         0.00000E+00
   -0.12925E+06        -0.97102E+08         0.00000E+00
    0.00000E+00         0.00000E+00        -0.80925E+08
 
   -0.77419E+08         0.47526E+03         0.00000E+00
    0.47526E+03        -0.96984E+08         0.00000E+00
    0.00000E+00         0.00000E+00        -0.80213E+08
 
   -0.77228E+08         0.15327E+06         0.00000E+00
    0.15327E+06        -0.96886E+08         0.00000E+00
    0.00000E+00         0.00000E+00        -0.79560E+08
 
   -0.77048E+08         0.31240E+06         0.00000E+00
    0.31240E+06        -0.96798E+08         0.00000E+00
    0.00000E+00         0.00000E+00        -0.78960E+08
 
   -0.76874E+08         0.46635E+06         0.00000E+00
    0.46635E+06        -0.96715E+08         0.00000E+00
    0.00000E+00         0.00000E+00        -0.78408E+08
 
   -0.76699E+08         0.60806E+06         0.00000E+00
    0.60806E+06        -0.96633E+08         0.00000E+00
    0.00000E+00         0.00000E+00        -0.77899E+08
 
   -0.76522E+08         0.73368E+06         0.00000E+00
    0.73368E+06        -0.96550E+08         0.00000E+00
    0.00000E+00         0.00000E+00        -0.77426E+08
 
   -0.76339E+08         0.84163E+06         0.00000E+00
    0.84163E+06        -0.96464E+08         0.00000E+00
    0.00000E+00         0.00000E+00        -0.76985E+08
 
   -0.76152E+08         0.93176E+06         0.00000E+00
    0.93176E+06        -0.96376E+08         0.00000E+00
    0.00000E+00         0.00000E+00        -0.76574E+08
 
   -0.75959E+08         0.10049E+07         0.00000E+00
    0.10049E+07        -0.96284E+08         0.00000E+00
    0.00000E+00         0.00000E+00        -0.76188E+08
 
   -0.75760E+08         0.10623E+07         0.00000E+00
    0.10623E+07        -0.96190E+08         0.00000E+00
    0.00000E+00         0.00000E+00        -0.75824E+08
 
   -0.75557E+08         0.11055E+07         0.00000E+00
    0.11055E+07        -0.96093E+08         0.00000E+00
    0.00000E+00         0.00000E+00        -0.75482E+08
 
   -0.75350E+08         0.11362E+07         0.00000E+00
    0.11362E+07        -0.95993E+08         0.00000E+00
    0.00000E+00         0.00000E+00        -0.75158E+08
 
   -0.75140E+08         0.11561E+07         0.00000E+00
    0.11561E+07        -0.95891E+08         0.00000E+00
    0.00000E+00         0.00000E+00        -0.74851E+08
 
   -0.74928E+08         0.11667E+07         0.00000E+00
    0.11667E+07        -0.95788E+08         0.00000E+00
    0.00000E+00         0.00000E+00        -0.74560E+08
 
   -0.74715E+08         0.11694E+07         0.00000E+00
    0.11694E+07        -0.95684E+08         0.00000E+00
    0.00000E+00         0.00000E+00        -0.74284E+08
 
   -0.74502E+08         0.11655E+07         0.00000E+00
    0.11655E+07        -0.95579E+08         0.00000E+00
    0.00000E+00         0.00000E+00        -0.74020E+08
 
   -0.74290E+08         0.11563E+07         0.00000E+00
    0.11563E+07        -0.95474E+08         0.00000E+00
    0.00000E+00         0.00000E+00        -0.73770E+08
 
   -0.74079E+08         0.11426E+07         0.00000E+00
    0.11426E+07        -0.95369E+08         0.00000E+00
    0.00000E+00         0.00000E+00        -0.73531E+08
 
   -0.73870E+08         0.11255E+07         0.00000E+00
    0.11255E+07        -0.95264E+08         0.00000E+00
    0.00000E+00         0.00000E+00        -0.73303E+08
 
   -0.73664E+08         0.11056E+07         0.00000E+00
    0.11056E+07        -0.95160E+08         0.00000E+00
    0.00000E+00         0.00000E+00        -0.73085E+08
 
   -0.73461E+08         0.10837E+07         0.00000E+00
    0.10837E+07        -0.95056E+08         0.00000E+00
    0.00000E+00         0.00000E+00        -0.72877E+08
 
   -0.73262E+08         0.10602E+07         0.00000E+00
    0.10602E+07        -0.94954E+08         0.00000E+00
    0.00000E+00         0.00000E+00        -0.72678E+08
 
   -0.73066E+08         0.10358E+07         0.00000E+00
    0.10358E+07        -0.94853E+08         0.00000E+00
    0.00000E+00         0.00000E+00        -0.72487E+08
 
   -0.72874E+08         0.10107E+07         0.00000E+00
    0.10107E+07        -0.94754E+08         0.00000E+00
    0.00000E+00         0.00000E+00        -0.72304E+08
 
   -0.72686E+08         0.98539E+06         0.00000E+00
    0.98539E+06        -0.94656E+08         0.00000E+00
    0.00000E+00         0.00000E+00        -0.72129E+08
 
   -0.72502E+08         0.96006E+06         0.00000E+00
    0.96006E+06        -0.94560E+08         0.00000E+00
    0.00000E+00         0.00000E+00        -0.71960E+08
 
   -0.72323E+08         0.93498E+06         0.00000E+00
    0.93498E+06        -0.94465E+08         0.00000E+00
    0.00000E+00         0.00000E+00        -0.71798E+08
 
   -0.72147E+08         0.91033E+06         0.00000E+00
    0.91033E+06        -0.94372E+08         0.00000E+00
    0.00000E+00         0.00000E+00        -0.71641E+08
 
   -0.71976E+08         0.88629E+06         0.00000E+00
    0.88629E+06        -0.94281E+08         0.00000E+00
    0.00000E+00         0.00000E+00        -0.71491E+08
 
   -0.71808E+08         0.86297E+06         0.00000E+00
    0.86297E+06        -0.94192E+08         0.00000E+00
    0.00000E+00         0.00000E+00        -0.71345E+08
 
   -0.71645E+08         0.84049E+06         0.00000E+00
    0.84049E+06        -0.94104E+08         0.00000E+00
    0.00000E+00         0.00000E+00        -0.71205E+08
 
   -0.71485E+08         0.81892E+06         0.00000E+00
    0.81892E+06        -0.94018E+08         0.00000E+00
    0.00000E+00         0.00000E+00        -0.71069E+08
 
   -0.71329E+08         0.79834E+06         0.00000E+00
    0.79834E+06        -0.93933E+08         0.00000E+00
    0.00000E+00         0.00000E+00        -0.70937E+08
 
   -0.71177E+08         0.77880E+06         0.00000E+00
    0.77880E+06        -0.93850E+08         0.00000E+00
    0.00000E+00         0.00000E+00        -0.70810E+08
 
   -0.71028E+08         0.76033E+06         0.00000E+00
    0.76033E+06        -0.93769E+08         0.00000E+00
    0.00000E+00         0.00000E+00        -0.70685E+08
 
   -0.70882E+08         0.74297E+06         0.00000E+00
    0.74297E+06        -0.93689E+08         0.00000E+00
    0.00000E+00         0.00000E+00        -0.70564E+08
 
   -0.70739E+08         0.72674E+06         0.00000E+00
    0.72674E+06        -0.93610E+08         0.00000E+00
    0.00000E+00         0.00000E+00        -0.70447E+08
 
   -0.70598E+08         0.71164E+06         0.00000E+00
    0.71164E+06        -0.93533E+08         0.00000E+00
    0.00000E+00         0.00000E+00        -0.70331E+08
 
   -0.70460E+08         0.69769E+06         0.00000E+00
    0.69769E+06        -0.93457E+08         0.00000E+00
    0.00000E+00         0.00000E+00        -0.70219E+08
 
   -0.70325E+08         0.68488E+06         0.00000E+00
    0.68488E+06        -0.93382E+08         0.00000E+00
    0.00000E+00         0.00000E+00        -0.70108E+08
 
   -0.70191E+08         0.67322E+06         0.00000E+00
    0.67322E+06        -0.93307E+08         0.00000E+00
    0.00000E+00         0.00000E+00        -0.70000E+08
 
   -0.70060E+08         0.66269E+06         0.00000E+00
    0.66269E+06        -0.93234E+08         0.00000E+00
    0.00000E+00         0.00000E+00        -0.69893E+08
 
   -0.69930E+08         0.65330E+06         0.00000E+00
    0.65330E+06        -0.93161E+08         0.00000E+00
    0.00000E+00         0.00000E+00        -0.69787E+08
 
   -0.69801E+08         0.64502E+06         0.00000E+00
    0.64502E+06        -0.93089E+08         0.00000E+00
    0.00000E+00         0.00000E+00        -0.69683E+08
 
   -0.69674E+08         0.63785E+06         0.00000E+00
    0.63785E+06        -0.93018E+08         0.00000E+00
    0.00000E+00         0.00000E+00        -0.69580E+08
 
   -0.69548E+08         0.63176E+06         0.00000E+00
    0.63176E+06        -0.92947E+08         0.00000E+00
    0.00000E+00         0.00000E+00        -0.69478E+08
 
   -0.69423E+08         0.62674E+06         0.00000E+00
    0.62674E+06        -0.92876E+08         0.00000E+00
    0.00000E+00         0.00000E+00        -0.69376E+08
 
   -0.69298E+08         0.62277E+06         0.00000E+00
    0.62277E+06        -0.92806E+08         0.00000E+00
    0.00000E+00         0.00000E+00        -0.69274E+08
 
   -0.69173E+08         0.61982E+06         0.00000E+00
    0.61982E+06        -0.92736E+08         0.00000E+00
    0.00000E+00         0.00000E+00        -0.69173E+08
 
   -0.69049E+08         0.61787E+06         0.00000E+00
    0.61787E+06        -0.92665E+08         0.00000E+00
    0.00000E+00         0.00000E+00        -0.69071E+08
 
   -0.68925E+08         0.61690E+06         0.00000E+00
    0.61690E+06        -0.92595E+08         0.00000E+00
    0.00000E+00         0.00000E+00        -0.68969E+08
 
   -0.68800E+08         0.61687E+06         0.00000E+00
    0.61687E+06        -0.92524E+08         0.00000E+00
    0.00000E+00         0.00000E+00        -0.68866E+08
 
   -0.68675E+08         0.61776E+06         0.00000E+00
    0.61776E+06        -0.92453E+08         0.00000E+00
    0.00000E+00         0.00000E+00        -0.68762E+08
 
   -0.68549E+08         0.61952E+06         0.00000E+00
    0.61952E+06        -0.92382E+08         0.00000E+00
    0.00000E+00         0.00000E+00        -0.68658E+08
 
   -0.68423E+08         0.62212E+06         0.00000E+00
    0.62212E+06        -0.92310E+08         0.00000E+00
    0.00000E+00         0.00000E+00        -0.68552E+08
 
   -0.68295E+08         0.62551E+06         0.00000E+00
    0.62551E+06        -0.92238E+08         0.00000E+00
    0.00000E+00         0.00000E+00        -0.68444E+08
 
   -0.68166E+08         0.62965E+06         0.00000E+00
    0.62965E+06        -0.92165E+08         0.00000E+00
    0.00000E+00         0.00000E+00        -0.68335E+08
 
   -0.68036E+08         0.63448E+06         0.00000E+00
    0.63448E+06        -0.92091E+08         0.00000E+00
    0.00000E+00         0.00000E+00        -0.68223E+08
 
   -0.67904E+08         0.63994E+06         0.00000E+00
    0.63994E+06        -0.92017E+08         0.00000E+00
    0.00000E+00         0.00000E+00        -0.68110E+08
 
   -0.67770E+08         0.64596E+06         0.00000E+00
    0.64596E+06        -0.91941E+08         0.00000E+00
    0.00000E+00         0.00000E+00        -0.67993E+08
 
   -0.67635E+08         0.65246E+06         0.00000E+00
    0.65246E+06        -0.91865E+08         0.00000E+00
    0.00000E+00         0.00000E+00        -0.67874E+08
 
   -0.67497E+08         0.65936E+06         0.00000E+00
    0.65936E+06        -0.91788E+08         0.00000E+00
    0.00000E+00         0.00000E+00        -0.67752E+08
 
   -0.67358E+08         0.66655E+06         0.00000E+00
    0.66655E+06        -0.91709E+08         0.00000E+00
    0.00000E+00         0.00000E+00        -0.67626E+08
 
   -0.67216E+08         0.67392E+06         0.00000E+00
    0.67392E+06        -0.91630E+08         0.00000E+00
    0.00000E+00         0.00000E+00        -0.67496E+08
 
   -0.67071E+08         0.68135E+06         0.00000E+00
    0.68135E+06        -0.91550E+08         0.00000E+00
    0.00000E+00         0.00000E+00        -0.67362E+08
 
   -0.66924E+08         0.68867E+06         0.00000E+00
    0.68867E+06        -0.91469E+08         0.00000E+00
    0.00000E+00         0.00000E+00        -0.67224E+08
 
   -0.66775E+08         0.69572E+06         0.00000E+00
    0.69572E+06        -0.91386E+08         0.00000E+00
    0.00000E+00         0.00000E+00        -0.67082E+08
 
   -0.66622E+08         0.70232E+06         0.00000E+00
    0.70232E+06        -0.91304E+08         0.00000E+00
    0.00000E+00         0.00000E+00        -0.66934E+08
 
   -0.66468E+08         0.70823E+06         0.00000E+00
    0.70823E+06        -0.91220E+08         0.00000E+00
    0.00000E+00         0.00000E+00        -0.66781E+08
 
   -0.66310E+08         0.71321E+06         0.00000E+00
    0.71321E+06        -0.91135E+08         0.00000E+00
    0.00000E+00         0.00000E+00        -0.66622E+08
 
   -0.66150E+08         0.71697E+06         0.00000E+00
    0.71697E+06        -0.91051E+08         0.00000E+00
    0.00000E+00         0.00000E+00        -0.66457E+08
 
   -0.65987E+08         0.71920E+06         0.00000E+00
    0.71920E+06        -0.90966E+08         0.00000E+00
    0.00000E+00         0.00000E+00        -0.66285E+08
 
   -0.65822E+08         0.71952E+06         0.00000E+00
    0.71952E+06        -0.90881E+08         0.00000E+00
    0.00000E+00         0.00000E+00        -0.66106E+08
 
   -0.65655E+08         0.71753E+06         0.00000E+00
    0.71753E+06        -0.90796E+08         0.00000E+00
    0.00000E+00         0.00000E+00        -0.65920E+08
 
   -0.65485E+08         0.71278E+06         0.00000E+00
    0.71278E+06        -0.90712E+08         0.00000E+00
    0.00000E+00         0.00000E+00        -0.65726E+08
 
   -0.65314E+08         0.70476E+06         0.00000E+00
    0.70476E+06        -0.90628E+08         0.00000E+00
    0.00000E+00         0.00000E+00        -0.65524E+08
 
   -0.65141E+08         0.69293E+06         0.00000E+00
    0.69293E+06        -0.90546E+08         0.00000E+00
    0.00000E+00         0.00000E+00        -0.65312E+08
 
   -0.64966E+08         0.67669E+06         0.00000E+00
    0.67669E+06        -0.90466E+08         0.00000E+00
    0.00000E+00         0.00000E+00        -0.65092E+08
 
   -0.64790E+08         0.65543E+06         0.00000E+00
    0.65543E+06        -0.90387E+08         0.00000E+00
    0.00000E+00         0.00000E+00        -0.64861E+08
 
   -0.64614E+08         0.62851E+06         0.00000E+00
    0.62851E+06        -0.90311E+08         0.00000E+00
    0.00000E+00         0.00000E+00        -0.64621E+08
 
   -0.64437E+08         0.59530E+06         0.00000E+00
    0.59530E+06        -0.90238E+08         0.00000E+00
    0.00000E+00         0.00000E+00        -0.64369E+08
 
   -0.64259E+08         0.55521E+06         0.00000E+00
    0.55521E+06        -0.90166E+08         0.00000E+00
    0.00000E+00         0.00000E+00        -0.64105E+08
 
   -0.64082E+08         0.50777E+06         0.00000E+00
    0.50777E+06        -0.90098E+08         0.00000E+00
    0.00000E+00         0.00000E+00        -0.63828E+08
 
   -0.63904E+08         0.45269E+06         0.00000E+00
    0.45269E+06        -0.90032E+08         0.00000E+00
    0.00000E+00         0.00000E+00        -0.63538E+08
 
   -0.63726E+08         0.38998E+06         0.00000E+00
    0.38998E+06        -0.89967E+08         0.00000E+00
    0.00000E+00         0.00000E+00        -0.63233E+08
 
   -0.63547E+08         0.32007E+06         0.00000E+00
    0.32007E+06        -0.89902E+08         0.00000E+00
    0.00000E+00         0.00000E+00        -0.62912E+08
 
   -0.63368E+08         0.24412E+06         0.00000E+00
    0.24412E+06        -0.89836E+08         0.00000E+00
    0.00000E+00         0.00000E+00        -0.62573E+08
 
   -0.63185E+08         0.16418E+06         0.00000E+00
    0.16418E+06        -0.89764E+08         0.00000E+00
    0.00000E+00         0.00000E+00        -0.62214E+08
 
   -0.62998E+08         0.83683E+05         0.00000E+00
    0.83683E+05        -0.89684E+08         0.00000E+00
    0.00000E+00         0.00000E+00        -0.61832E+08
 
   -0.62804E+08         0.78237E+04         0.00000E+00
    0.78237E+04        -0.89589E+08         0.00000E+00
    0.00000E+00         0.00000E+00        -0.61423E+08
 
   -0.62599E+08        -0.56060E+05         0.00000E+00
   -0.56060E+05        -0.89471E+08         0.00000E+00
    0.00000E+00         0.00000E+00        -0.60980E+08
 
   -0.62378E+08        -0.98702E+05         0.00000E+00
   -0.98702E+05        -0.89318E+08         0.00000E+00
    0.00000E+00         0.00000E+00        -0.60496E+08
 
   -0.62136E+08        -0.11075E+06         0.00000E+00
   -0.11075E+06        -0.89113E+08         0.00000E+00
    0.00000E+00         0.00000E+00        -0.59957E+08
 
   -0.61869E+08        -0.87238E+05         0.00000E+00
   -0.87238E+05        -0.88834E+08         0.00000E+00
    0.00000E+00         0.00000E+00        -0.59346E+08
 
   -0.61575E+08        -0.33314E+05         0.00000E+00
   -0.33314E+05        -0.88460E+08         0.00000E+00
    0.00000E+00         0.00000E+00        -0.58643E+08
 
   -0.78873E+08        -0.74127E+05         0.00000E+00
   -0.74127E+05        -0.98101E+08         0.00000E+00
    0.00000E+00         0.00000E+00        -0.84588E+08
 
   -0.78431E+08        -0.20308E+06         0.00000E+00
   -0.20308E+06        -0.97693E+08         0.00000E+00
    0.00000E+00         0.00000E+00        -0.83547E+08
 
   -0.78084E+08        -0.26917E+06         0.00000E+00
   -0.26917E+06        -0.97406E+08         0.00000E+00
    0.00000E+00         0.00000E+00        -0.82604E+08
 
   -0.77804E+08        -0.25611E+06         0.00000E+00
   -0.25611E+06        -0.97208E+08         0.00000E+00
    0.00000E+00         0.00000E+00        -0.81749E+08
 
   -0.77571E+08        -0.17494E+06         0.00000E+00
   -0.17494E+06        -0.97068E+08         0.00000E+00
    0.00000E+00         0.00000E+00        -0.80968E+08
 
   -0.77370E+08        -0.48119E+05         0.00000E+00
   -0.48119E+05        -0.96962E+08         0.00000E+00
    0.00000E+00         0.00000E+00        -0.80253E+08
 
   -0.77188E+08         0.10237E+06         0.00000E+00
    0.10237E+06        -0.96874E+08         0.00000E+00
    0.00000E+00         0.00000E+00        -0.79595E+08
 
   -0.77017E+08         0.25961E+06         0.00000E+00
    0.25961E+06        -0.96794E+08         0.00000E+00
    0.00000E+00         0.00000E+00        -0.78991E+08
 
   -0.76850E+08         0.41208E+06         0.00000E+00
    0.41208E+06        -0.96717E+08         0.00000E+00
    0.00000E+00         0.00000E+00        -0.78433E+08
 
   -0.76682E+08         0.55265E+06         0.00000E+00
    0.55265E+06        -0.96640E+08         0.00000E+00
    0.00000E+00         0.00000E+00        -0.77918E+08
 
   -0.76511E+08         0.67747E+06         0.00000E+00
    0.67747E+06        -0.96560E+08         0.00000E+00
    0.00000E+00         0.00000E+00        -0.77440E+08
 
   -0.76334E+08         0.78490E+06         0.00000E+00
    0.78490E+06        -0.96476E+08         0.00000E+00
    0.00000E+00         0.00000E+00        -0.76995E+08
 
   -0.76150E+08         0.87477E+06         0.00000E+00
    0.87477E+06        -0.96389E+08         0.00000E+00
    0.00000E+00         0.00000E+00        -0.76579E+08
 
   -0.75960E+08         0.94783E+06         0.00000E+00
    0.94783E+06        -0.96299E+08         0.00000E+00
    0.00000E+00         0.00000E+00        -0.76190E+08
 
   -0.75765E+08         0.10053E+07         0.00000E+00
    0.10053E+07        -0.96204E+08         0.00000E+00
    0.00000E+00         0.00000E+00        -0.75823E+08
 
   -0.75563E+08         0.10489E+07         0.00000E+00
    0.10489E+07        -0.96107E+08         0.00000E+00
    0.00000E+00         0.00000E+00        -0.75478E+08
 
   -0.75358E+08         0.10801E+07         0.00000E+00
    0.10801E+07        -0.96007E+08         0.00000E+00
    0.00000E+00         0.00000E+00        -0.75153E+08
 
   -0.75149E+08         0.11005E+07         0.00000E+00
    0.11005E+07        -0.95905E+08         0.00000E+00
    0.00000E+00         0.00000E+00        -0.74844E+08
 
   -0.74938E+08         0.11118E+07         0.00000E+00
    0.11118E+07        -0.95802E+08         0.00000E+00
    0.00000E+00         0.00000E+00        -0.74552E+08
 
   -0.74726E+08         0.11153E+07         0.00000E+00
    0.11153E+07        -0.95697E+08         0.00000E+00
    0.00000E+00         0.00000E+00        -0.74275E+08
 
   -0.74513E+08         0.11123E+07         0.00000E+00
    0.11123E+07        -0.95591E+08         0.00000E+00
    0.00000E+00         0.00000E+00        -0.74011E+08
 
   -0.74301E+08         0.11040E+07         0.00000E+00
    0.11040E+07        -0.95485E+08         0.00000E+00
    0.00000E+00         0.00000E+00        -0.73760E+08
 
   -0.74090E+08         0.10913E+07         0.00000E+00
    0.10913E+07        -0.95380E+08         0.00000E+00
    0.00000E+00         0.00000E+00        -0.73521E+08
 
   -0.73882E+08         0.10752E+07         0.00000E+00
    0.10752E+07        -0.95274E+08         0.00000E+00
    0.00000E+00         0.00000E+00        -0.73293E+08
 
   -0.73675E+08         0.10565E+07         0.00000E+00
    0.10565E+07        -0.95169E+08         0.00000E+00
    0.00000E+00         0.00000E+00        -0.73075E+08
 
   -0.73472E+08         0.10357E+07         0.00000E+00
    0.10357E+07        -0.95065E+08         0.00000E+00
    0.00000E+00         0.00000E+00        -0.72867E+08
 
   -0.73272E+08         0.10134E+07         0.00000E+00
    0.10134E+07        -0.94963E+08         0.00000E+00
    0.00000E+00         0.00000E+00        -0.72668E+08
 
   -0.73076E+08         0.99013E+06         0.00000E+00
    0.99013E+06        -0.94861E+08         0.00000E+00
    0.00000E+00         0.00000E+00        -0.72477E+08
 
   -0.72884E+08         0.96623E+06         0.00000E+00
    0.96623E+06        -0.94761E+08         0.00000E+00
    0.00000E+00         0.00000E+00        -0.72294E+08
 
   -0.72695E+08         0.94205E+06         0.00000E+00
    0.94205E+06        -0.94663E+08         0.00000E+00
    0.00000E+00         0.00000E+00        -0.72119E+08
 
   -0.72511E+08         0.91786E+06         0.00000E+00
    0.91786E+06        -0.94566E+08         0.00000E+00
    0.00000E+00         0.00000E+00        -0.71951E+08
 
   -0.72331E+08         0.89389E+06         0.00000E+00
    0.89389E+06        -0.94471E+08         0.00000E+00
    0.00000E+00         0.00000E+00        -0.71789E+08
 
   -0.72155E+08         0.87034E+06         0.00000E+00
    0.87034E+06        -0.94378E+08         0.00000E+00
    0.00000E+00         0.00000E+00        -0.71633E+08
 
   -0.71983E+08         0.84735E+06         0.00000E+00
    0.84735E+06        -0.94286E+08         0.00000E+00
    0.00000E+00         0.00000E+00        -0.71483E+08
 
   -0.71816E+08         0.82505E+06         0.00000E+00
    0.82505E+06        -0.94197E+08         0.00000E+00
    0.00000E+00         0.00000E+00        -0.71338E+08
 
   -0.71652E+08         0.80355E+06         0.00000E+00
    0.80355E+06        -0.94108E+08         0.00000E+00
    0.00000E+00         0.00000E+00        -0.71198E+08
 
   -0.71492E+08         0.78292E+06         0.00000E+00
    0.78292E+06        -0.94022E+08         0.00000E+00
    0.00000E+00         0.00000E+00        -0.71062E+08
 
   -0.71335E+08         0.76323E+06         0.00000E+00
    0.76323E+06        -0.93937E+08         0.00000E+00
    0.00000E+00         0.00000E+00        -0.70931E+08
 
   -0.71182E+08         0.74454E+06         0.00000E+00
    0.74454E+06        -0.93854E+08         0.00000E+00
    0.00000E+00         0.00000E+00        -0.70804E+08
 
   -0.71033E+08         0.72687E+06         0.00000E+00
    0.72687E+06        -0.93773E+08         0.00000E+00
    0.00000E+00         0.00000E+00        -0.70680E+08
 
   -0.70886E+08         0.71026E+06         0.00000E+00
    0.71026E+06        -0.93692E+08         0.00000E+00
    0.00000E+00         0.00000E+00        -0.70559E+08
 
   -0.70743E+08         0.69472E+06         0.00000E+00
    0.69472E+06        -0.93613E+08         0.00000E+00
    0.00000E+00         0.00000E+00        -0.70442E+08
 
   -0.70602E+08         0.68027E+06         0.00000E+00
    0.68027E+06        -0.93536E+08         0.00000E+00
    0.00000E+00         0.00000E+00        -0.70327E+08
 
   -0.70464E+08         0.66692E+06         0.00000E+00
    0.66692E+06        -0.93459E+08         0.00000E+00
    0.00000E+00         0.00000E+00        -0.70215E+08
 
   -0.70328E+08         0.65466E+06         0.00000E+00
    0.65466E+06        -0.93384E+08         0.00000E+00
    0.00000E+00         0.00000E+00        -0.70104E+08
 
   -0.70194E+08         0.64350E+06         0.00000E+00
    0.64350E+06        -0.93310E+08         0.00000E+00
    0.00000E+00         0.00000E+00        -0.69996E+08
 
   -0.70062E+08         0.63343E+06         0.00000E+00
    0.63343E+06        -0.93236E+08         0.00000E+00
    0.00000E+00         0.00000E+00        -0.69890E+08
 
   -0.69931E+08         0.62443E+06         0.00000E+00
    0.62443E+06        -0.93163E+08         0.00000E+00
    0.00000E+00         0.00000E+00        -0.69785E+08
 
   -0.69802E+08         0.61650E+06         0.00000E+00
    0.61650E+06        -0.93091E+08         0.00000E+00
    0.00000E+00         0.00000E+00        -0.69681E+08
 
   -0.69675E+08         0.60963E+06         0.00000E+00
    0.60963E+06        -0.93019E+08         0.00000E+00
    0.00000E+00         0.00000E+00        -0.69578E+08
 
   -0.69548E+08         0.60379E+06         0.00000E+00
    0.60379E+06        -0.92948E+08         0.00000E+00
    0.00000E+00         0.00000E+00        -0.69476E+08
 
   -0.69422E+08         0.59898E+06         0.00000E+00
    0.59898E+06        -0.92877E+08         0.00000E+00
    0.00000E+00         0.00000E+00        -0.69374E+08
 
   -0.69297E+08         0.59516E+06         0.00000E+00
    0.59516E+06        -0.92807E+08         0.00000E+00
    0.00000E+00         0.00000E+00        -0.69273E+08
 
   -0.69172E+08         0.59233E+06         0.00000E+00
    0.59233E+06        -0.92736E+08         0.00000E+00
    0.00000E+00         0.00000E+00        -0.69172E+08
 
   -0.69047E+08         0.59045E+06         0.00000E+00
    0.59045E+06        -0.92666E+08         0.00000E+00
    0.00000E+00         0.00000E+00        -0.69070E+08
 
   -0.68923E+08         0.58950E+06         0.00000E+00
    0.58950E+06        -0.92595E+08         0.00000E+00
    0.00000E+00         0.00000E+00        -0.68968E+08
 
   -0.68798E+08         0.58946E+06         0.00000E+00
    0.58946E+06        -0.92525E+08         0.00000E+00
    0.00000E+00         0.00000E+00        -0.68866E+08
 
   -0.68672E+08         0.59028E+06         0.00000E+00
    0.59028E+06        -0.92453E+08         0.00000E+00
    0.00000E+00         0.00000E+00        -0.68762E+08
 
   -0.68546E+08         0.59195E+06         0.00000E+00
    0.59195E+06        -0.92382E+08         0.00000E+00
    0.00000E+00         0.00000E+00        -0.68658E+08
 
   -0.68419E+08         0.59441E+06         0.00000E+00
    0.59441E+06        -0.92310E+08         0.00000E+00
    0.00000E+00         0.00000E+00        -0.68552E+08
 
   -0.68291E+08         0.59763E+06         0.00000E+00
    0.59763E+06        -0.92238E+08         0.00000E+00
    0.00000E+00         0.00000E+00        -0.68445E+08
 
   -0.68162E+08         0.60156E+06         0.00000E+00
    0.60156E+06        -0.92164E+08         0.00000E+00
    0.00000E+00         0.00000E+00        -0.68336E+08
 
   -0.68031E+08         0.60615E+06         0.00000E+00
    0.60615E+06        -0.92090E+08         0.00000E+00
    0.00000E+00         0.00000E+00        -0.68225E+08
 
   -0.67899E+08         0.61134E+06         0.00000E+00
    0.61134E+06        -0.92016E+08         0.00000E+00
    0.00000E+00         0.00000E+00        -0.68111E+08
 
   -0.67765E+08         0.61706E+06         0.00000E+00
    0.61706E+06        -0.91940E+08         0.00000E+00
    0.00000E+00         0.00000E+00        -0.67995E+08
 
   -0.67629E+08         0.62325E+06         0.00000E+00
    0.62325E+06        -0.91864E+08         0.00000E+00
    0.00000E+00         0.00000E+00        -0.67876E+08
 
   -0.67491E+08         0.62981E+06         0.00000E+00
    0.62981E+06        -0.91786E+08         0.00000E+00
    0.00000E+00         0.00000E+00        -0.67753E+08
 
   -0.67351E+08         0.63664E+06         0.00000E+00
    0.63664E+06        -0.91708E+08         0.00000E+00
    0.00000E+00         0.00000E+00        -0.67628E+08
 
   -0.67208E+08         0.64365E+06         0.00000E+00
    0.64365E+06        -0.91628E+08         0.00000E+00
    0.00000E+00         0.00000E+00        -0.67498E+08
 
   -0.67063E+08         0.65070E+06         0.00000E+00
    0.65070E+06        -0.91548E+08         0.00000E+00
    0.00000E+00         0.00000E+00        -0.67364E+08
 
   -0.66916E+08         0.65764E+06         0.00000E+00
    0.65764E+06        -0.91466E+08         0.00000E+00
    0.00000E+00         0.00000E+00        -0.67227E+08
 
   -0.66766E+08         0.66433E+06         0.00000E+00
    0.66433E+06        -0.91384E+08         0.00000E+00
    0.00000E+00         0.00000E+00        -0.67084E+08
 
   -0.66614E+08         0.67056E+06         0.00000E+00
    0.67056E+06        -0.91301E+08         0.00000E+00
    0.00000E+00         0.00000E+00        -0.66936E+08
 
   -0.66459E+08         0.67613E+06         0.00000E+00
    0.67613E+06        -0.91217E+08         0.00000E+00
    0.00000E+00         0.00000E+00        -0.66783E+08
 
   -0.66301E+08         0.68079E+06         0.00000E+00
    0.68079E+06        -0.91132E+08         0.00000E+00
    0.00000E+00         0.00000E+00        -0.66624E+08
 
   -0.66140E+08         0.68427E+06         0.00000E+00
    0.68427E+06        -0.91047E+08         0.00000E+00
    0.00000E+00         0.00000E+00        -0.66458E+08
 
   -0.65978E+08         0.68625E+06         0.00000E+00
    0.68625E+06        -0.90961E+08         0.00000E+00
    0.00000E+00         0.00000E+00        -0.66286E+08
 
   -0.65812E+08         0.68638E+06         0.00000E+00
    0.68638E+06        -0.90876E+08         0.00000E+00
    0.00000E+00         0.00000E+00        -0.66107E+08
 
   -0.65645E+08         0.68427E+06         0.00000E+00
    0.68427E+06        -0.90791E+08         0.00000E+00
    0.00000E+00         0.00000E+00        -0.65921E+08
 
   -0.65475E+08         0.67946E+06         0.00000E+00
    0.67946E+06        -0.90706E+08         0.00000E+00
    0.00000E+00         0.00000E+00        -0.65727E+08
 
   -0.65304E+08         0.67146E+06         0.00000E+00
    0.67146E+06        -0.90622E+08         0.00000E+00
    0.00000E+00         0.00000E+00        -0.65524E+08
 
   -0.65131E+08         0.65974E+06         0.00000E+00
    0.65974E+06        -0.90540E+08         0.00000E+00
    0.00000E+00         0.00000E+00        -0.65312E+08
 
   -0.64957E+08         0.64372E+06         0.00000E+00
    0.64372E+06        -0.90459E+08         0.00000E+00
    0.00000E+00         0.00000E+00        -0.65091E+08
 
   -0.64782E+08         0.62277E+06         0.00000E+00
    0.62277E+06        -0.90380E+08         0.00000E+00
    0.00000E+00         0.00000E+00        -0.64859E+08
 
   -0.64606E+08         0.59627E+06         0.00000E+00
    0.59627E+06        -0.90304E+08         0.00000E+00
    0.00000E+00         0.00000E+00        -0.64617E+08
 
   -0.64430E+08         0.56358E+06         0.00000E+00
    0.56358E+06        -0.90230E+08         0.00000E+00
    0.00000E+00         0.00000E+00        -0.64364E+08
 
   -0.64255E+08         0.52413E+06         0.00000E+00
    0.52413E+06        -0.90159E+08         0.00000E+00
    0.00000E+00         0.00000E+00        -0.64099E+08
 
   -0.64079E+08         0.47742E+06         0.00000E+00
    0.47742E+06        -0.90091E+08         0.00000E+00
    0.00000E+00         0.00000E+00        -0.63821E+08
 
   -0.63904E+08         0.42316E+06         0.00000E+00
    0.42316E+06        -0.90025E+08         0.00000E+00
    0.00000E+00         0.00000E+00        -0.63529E+08
 
   -0.63730E+08         0.36133E+06         0.00000E+00
    0.36133E+06        -0.89962E+08         0.00000E+00
    0.00000E+00         0.00000E+00        -0.63222E+08
 
   -0.63556E+08         0.29237E+06         0.00000E+00
    0.29237E+06        -0.89899E+08         0.00000E+00
    0.00000E+00         0.00000E+00        -0.62899E+08
 
   -0.63381E+08         0.21736E+06         0.00000E+00
    0.21736E+06        -0.89834E+08         0.00000E+00
    0.00000E+00         0.00000E+00        -0.62558E+08
 
   -0.63205E+08         0.13836E+06         0.00000E+00
    0.13836E+06        -0.89767E+08         0.00000E+00
    0.00000E+00         0.00000E+00        -0.62198E+08
 
   -0.63025E+08         0.58770E+05         0.00000E+00
    0.58770E+05        -0.89691E+08         0.00000E+00
    0.00000E+00         0.00000E+00        -0.61814E+08
 
   -0.62839E+08        -0.16191E+05         0.00000E+00
   -0.16191E+05        -0.89602E+08         0.00000E+00
    0.00000E+00         0.00000E+00        -0.61404E+08
 
   -0.62642E+08        -0.79025E+05         0.00000E+00
   -0.79025E+05        -0.89491E+08         0.00000E+00
    0.00000E+00         0.00000E+00        -0.60962E+08
 
   -0.62430E+08        -0.12002E+06         0.00000E+00
   -0.12002E+06        -0.89347E+08         0.00000E+00
    0.00000E+00         0.00000E+00        -0.60479E+08
 
   -0.62197E+08        -0.12898E+06         0.00000E+00
   -0.12898E+06        -0.89151E+08         0.00000E+00
    0.00000E+00         0.00000E+00        -0.59943E+08
 
   -0.61936E+08        -0.99970E+05         0.00000E+00
   -0.99970E+05        -0.88881E+08         0.00000E+00
    0.00000E+00         0.00000E+00        -0.59335E+08
 
   -0.61647E+08        -0.37966E+05         0.00000E+00
   -0.37966E+05        -0.88512E+08         0.00000E+00
    0.00000E+00         0.00000E+00        -0.58635E+08
 
   -0.78793E+08        -0.82278E+05         0.00000E+00
   -0.82278E+05        -0.98014E+08         0.00000E+00
    0.00000E+00         0.00000E+00        -0.84617E+08
 
   -0.78352E+08        -0.22593E+06         0.00000E+00
   -0.22593E+06        -0.97615E+08         0.00000E+00
    0.00000E+00         0.00000E+00        -0.83581E+08
 
   -0.78009E+08        -0.30203E+06         0.00000E+00
   -0.30203E+06        -0.97341E+08         0.00000E+00
    0.00000E+00         0.00000E+00        -0.82644E+08
 
   -0.77738E+08        -0.29465E+06         0.00000E+00
   -0.29465E+06        -0.97158E+08         0.00000E+00
    0.00000E+00         0.00000E+00        -0.81791E+08
 
   -0.77514E+08        -0.21688E+06         0.00000E+00
   -0.21688E+06        -0.97033E+08         0.00000E+00
    0.00000E+00         0.00000E+00        -0.81010E+08
 
   -0.77322E+08        -0.92686E+05         0.00000E+00
   -0.92686E+05        -0.96939E+08         0.00000E+00
    0.00000E+00         0.00000E+00        -0.80292E+08
 
   -0.77150E+08         0.55428E+05         0.00000E+00
    0.55428E+05        -0.96862E+08         0.00000E+00
    0.00000E+00         0.00000E+00        -0.79631E+08
 
   -0.76987E+08         0.21050E+06         0.00000E+00
    0.21050E+06        -0.96790E+08         0.00000E+00
    0.00000E+00         0.00000E+00        -0.79021E+08
 
   -0.76828E+08         0.36107E+06         0.00000E+00
    0.36107E+06        -0.96720E+08         0.00000E+00
    0.00000E+00         0.00000E+00        -0.78457E+08
 
   -0.76667E+08         0.50007E+06         0.00000E+00
    0.50007E+06        -0.96647E+08         0.00000E+00
    0.00000E+00         0.00000E+00        -0.77936E+08
 
   -0.76501E+08         0.62366E+06         0.00000E+00
    0.62366E+06        -0.96570E+08         0.00000E+00
    0.00000E+00         0.00000E+00        -0.77453E+08
 
   -0.76329E+08         0.73016E+06         0.00000E+00
    0.73016E+06        -0.96489E+08         0.00000E+00
    0.00000E+00         0.00000E+00        -0.77004E+08
 
   -0.76150E+08         0.81939E+06         0.00000E+00
    0.81939E+06        -0.96403E+08         0.00000E+00
    0.00000E+00         0.00000E+00        -0.76584E+08
 
   -0.75964E+08         0.89207E+06         0.00000E+00
    0.89207E+06        -0.96313E+08         0.00000E+00
    0.00000E+00         0.00000E+00        -0.76191E+08
 
   -0.75770E+08         0.94944E+06         0.00000E+00
    0.94944E+06        -0.96219E+08         0.00000E+00
    0.00000E+00         0.00000E+00        -0.75822E+08
 
   -0.75571E+08         0.99302E+06         0.00000E+00
    0.99302E+06        -0.96122E+08         0.00000E+00
    0.00000E+00         0.00000E+00        -0.75475E+08
 
   -0.75367E+08         0.10244E+07         0.00000E+00
    0.10244E+07        -0.96022E+08         0.00000E+00
    0.00000E+00         0.00000E+00        -0.75147E+08
 
   -0.75159E+08         0.10453E+07         0.00000E+00
    0.10453E+07        -0.95919E+08         0.00000E+00
    0.00000E+00         0.00000E+00        -0.74837E+08
 
   -0.74949E+08         0.10571E+07         0.00000E+00
    0.10571E+07        -0.95815E+08         0.00000E+00
    0.00000E+00         0.00000E+00        -0.74544E+08
 
   -0.74737E+08         0.10613E+07         0.00000E+00
    0.10613E+07        -0.95710E+08         0.00000E+00
    0.00000E+00         0.00000E+00        -0.74266E+08
 
   -0.74525E+08         0.10591E+07         0.00000E+00
    0.10591E+07        -0.95604E+08         0.00000E+00
    0.00000E+00         0.00000E+00        -0.74001E+08
 
   -0.74313E+08         0.10516E+07         0.00000E+00
    0.10516E+07        -0.95497E+08         0.00000E+00
    0.00000E+00         0.00000E+00        -0.73750E+08
 
   -0.74102E+08         0.10400E+07         0.00000E+00
    0.10400E+07        -0.95391E+08         0.00000E+00
    0.00000E+00         0.00000E+00        -0.73510E+08
 
   -0.73893E+08         0.10249E+07         0.00000E+00
    0.10249E+07        -0.95284E+08         0.00000E+00
    0.00000E+00         0.00000E+00        -0.73282E+08
 
   -0.73687E+08         0.10072E+07         0.00000E+00
    0.10072E+07        -0.95179E+08         0.00000E+00
    0.00000E+00         0.00000E+00        -0.73065E+08
 
   -0.73483E+08         0.98754E+06         0.00000E+00
    0.98754E+06        -0.95074E+08         0.00000E+00
    0.00000E+00         0.00000E+00        -0.72857E+08
 
   -0.73283E+08         0.96640E+06         0.00000E+00
    0.96640E+06        -0.94971E+08         0.00000E+00
    0.00000E+00         0.00000E+00        -0.72658E+08
 
   -0.73087E+08         0.94427E+06         0.00000E+00
    0.94427E+06        -0.94869E+08         0.00000E+00
    0.00000E+00         0.00000E+00        -0.72467E+08
 
   -0.72894E+08         0.92152E+06         0.00000E+00
    0.92152E+06        -0.94769E+08         0.00000E+00
    0.00000E+00         0.00000E+00        -0.72285E+08
 
   -0.72705E+08         0.89849E+06         0.00000E+00
    0.89849E+06        -0.94670E+08         0.00000E+00
    0.00000E+00         0.00000E+00        -0.72110E+08
 
   -0.72520E+08         0.87544E+06         0.00000E+00
    0.87544E+06        -0.94573E+08         0.00000E+00
    0.00000E+00         0.00000E+00        -0.71942E+08
 
   -0.72340E+08         0.85259E+06         0.00000E+00
    0.85259E+06        -0.94477E+08         0.00000E+00
    0.00000E+00         0.00000E+00        -0.71780E+08
 
   -0.72164E+08         0.83012E+06         0.00000E+00
    0.83012E+06        -0.94384E+08         0.00000E+00
    0.00000E+00         0.00000E+00        -0.71625E+08
 
   -0.71991E+08         0.80819E+06         0.00000E+00
    0.80819E+06        -0.94292E+08         0.00000E+00
    0.00000E+00         0.00000E+00        -0.71475E+08
 
   -0.71823E+08         0.78691E+06         0.00000E+00
    0.78691E+06        -0.94202E+08         0.00000E+00
    0.00000E+00         0.00000E+00        -0.71331E+08
 
   -0.71659E+08         0.76639E+06         0.00000E+00
    0.76639E+06        -0.94113E+08         0.00000E+00
    0.00000E+00         0.00000E+00        -0.71191E+08
 
   -0.71498E+08         0.74671E+06         0.00000E+00
    0.74671E+06        -0.94026E+08         0.00000E+00
    0.00000E+00         0.00000E+00        -0.71056E+08
 
   -0.71341E+08         0.72792E+06         0.00000E+00
    0.72792E+06        -0.93941E+08         0.00000E+00
    0.00000E+00         0.00000E+00        -0.70925E+08
 
   -0.71188E+08         0.71007E+06         0.00000E+00
    0.71007E+06        -0.93858E+08         0.00000E+00
    0.00000E+00         0.00000E+00        -0.70798E+08
 
   -0.71038E+08         0.69321E+06         0.00000E+00
    0.69321E+06        -0.93776E+08         0.00000E+00
    0.00000E+00         0.00000E+00        -0.70674E+08
 
   -0.70891E+08         0.67735E+06         0.00000E+00
    0.67735E+06        -0.93696E+08         0.00000E+00
    0.00000E+00         0.00000E+00        -0.70554E+08
 
   -0.70747E+08         0.66252E+06         0.00000E+00
    0.66252E+06        -0.93616E+08         0.00000E+00
    0.00000E+00         0.00000E+00        -0.70437E+08
 
   -0.70605E+08         0.64873E+06         0.00000E+00
    0.64873E+06        -0.93539E+08         0.00000E+00
    0.00000E+00         0.00000E+00        -0.70323E+08
 
   -0.70467E+08         0.63598E+06         0.00000E+00
    0.63598E+06        -0.93462E+08         0.00000E+00
    0.00000E+00         0.00000E+00        -0.70211E+08
 
   -0.70330E+08         0.62428E+06         0.00000E+00
    0.62428E+06        -0.93386E+08         0.00000E+00
    0.00000E+00         0.00000E+00        -0.70101E+08
 
   -0.70196E+08         0.61361E+06         0.00000E+00
    0.61361E+06        -0.93312E+08         0.00000E+00
    0.00000E+00         0.00000E+00        -0.69993E+08
 
   -0.70064E+08         0.60399E+06         0.00000E+00
    0.60399E+06        -0.93238E+08         0.00000E+00
    0.00000E+00         0.00000E+00        -0.69887E+08
 
   -0.69933E+08         0.59540E+06         0.00000E+00
    0.59540E+06        -0.93165E+08         0.00000E+00
    0.00000E+00         0.00000E+00        -0.69782E+08
 
   -0.69803E+08         0.58782E+06         0.00000E+00
    0.58782E+06        -0.93093E+08         0.00000E+00
    0.00000E+00         0.00000E+00        -0.69678E+08
 
   -0.69675E+08         0.58125E+06         0.00000E+00
    0.58125E+06        -0.93021E+08         0.00000E+00
    0.00000E+00         0.00000E+00        -0.69576E+08
 
   -0.69548E+08         0.57567E+06         0.00000E+00
    0.57567E+06        -0.92949E+08         0.00000E+00
    0.00000E+00         0.00000E+00        -0.69474E+08
 
   -0.69422E+08         0.57107E+06         0.00000E+00
    0.57107E+06        -0.92878E+08         0.00000E+00
    0.00000E+00         0.00000E+00        -0.69373E+08
 
   -0.69296E+08         0.56742E+06         0.00000E+00
    0.56742E+06        -0.92808E+08         0.00000E+00
    0.00000E+00         0.00000E+00        -0.69272E+08
 
   -0.69171E+08         0.56470E+06         0.00000E+00
    0.56470E+06        -0.92737E+08         0.00000E+00
    0.00000E+00         0.00000E+00        -0.69171E+08
 
   -0.69046E+08         0.56289E+06         0.00000E+00
    0.56289E+06        -0.92666E+08         0.00000E+00
    0.00000E+00         0.00000E+00        -0.69069E+08
 
   -0.68921E+08         0.56197E+06         0.00000E+00
    0.56197E+06        -0.92596E+08         0.00000E+00
    0.00000E+00         0.00000E+00        -0.68968E+08
 
   -0.68795E+08         0.56191E+06         0.00000E+00
    0.56191E+06        -0.92525E+08         0.00000E+00
    0.00000E+00         0.00000E+00        -0.68866E+08
 
   -0.68669E+08         0.56268E+06         0.00000E+00
    0.56268E+06        -0.92453E+08         0.00000E+00
    0.00000E+00         0.00000E+00        -0.68762E+08
 
   -0.68543E+08         0.56424E+06         0.00000E+00
    0.56424E+06        -0.92382E+08         0.00000E+00
    0.00000E+00         0.00000E+00        -0.68658E+08
 
   -0.68415E+08         0.56657E+06         0.00000E+00
    0.56657E+06        -0.92310E+08         0.00000E+00
    0.00000E+00         0.00000E+00        -0.68553E+08
 
   -0.68287E+08         0.56962E+06         0.00000E+00
    0.56962E+06        -0.92237E+08         0.00000E+00
    0.00000E+00         0.00000E+00        -0.68446E+08
 
   -0.68157E+08         0.57335E+06         0.00000E+00
    0.57335E+06        -0.92164E+08         0.00000E+00
    0.00000E+00         0.00000E+00        -0.68337E+08
 
   -0.68026E+08         0.57770E+06         0.00000E+00
    0.57770E+06        -0.92090E+08         0.00000E+00
    0.00000E+00         0.00000E+00        -0.68226E+08
 
   -0.67894E+08         0.58263E+06         0.00000E+00
    0.58263E+06        -0.92015E+08         0.00000E+00
    0.00000E+00         0.00000E+00        -0.68112E+08
 
   -0.67759E+08         0.58806E+06         0.00000E+00
    0.58806E+06        -0.91939E+08         0.00000E+00
    0.00000E+00         0.00000E+00        -0.67996E+08
 
   -0.67623E+08         0.59393E+06         0.00000E+00
    0.59393E+06        -0.91862E+08         0.00000E+00
    0.00000E+00         0.00000E+00        -0.67877E+08
 
   -0.67484E+08         0.60015E+06         0.00000E+00
    0.60015E+06        -0.91784E+08         0.00000E+00
    0.00000E+00         0.00000E+00        -0.67755E+08
 
   -0.67344E+08         0.60664E+06         0.00000E+00
    0.60664E+06        -0.91706E+08         0.00000E+00
    0.00000E+00         0.00000E+00        -0.67629E+08
 
   -0.67201E+08         0.61328E+06         0.00000E+00
    0.61328E+06        -0.91626E+08         0.00000E+00
    0.00000E+00         0.00000E+00        -0.67500E+08
 
   -0.67056E+08         0.61996E+06         0.00000E+00
    0.61996E+06        -0.91545E+08         0.00000E+00
    0.00000E+00         0.00000E+00        -0.67367E+08
 
   -0.66908E+08         0.62654E+06         0.00000E+00
    0.62654E+06        -0.91464E+08         0.00000E+00
    0.00000E+00         0.00000E+00        -0.67229E+08
 
   -0.66758E+08         0.63286E+06         0.00000E+00
    0.63286E+06        -0.91381E+08         0.00000E+00
    0.00000E+00         0.00000E+00        -0.67086E+08
 
   -0.66605E+08         0.63874E+06         0.00000E+00
    0.63874E+06        -0.91297E+08         0.00000E+00
    0.00000E+00         0.00000E+00        -0.66938E+08
 
   -0.66449E+08         0.64398E+06         0.00000E+00
    0.64398E+06        -0.91213E+08         0.00000E+00
    0.00000E+00         0.00000E+00        -0.66785E+08
 
   -0.66291E+08         0.64834E+06         0.00000E+00
    0.64834E+06        -0.91128E+08         0.00000E+00
    0.00000E+00         0.00000E+00        -0.66626E+08
 
   -0.66131E+08         0.65155E+06         0.00000E+00
    0.65155E+06        -0.91043E+08         0.00000E+00
    0.00000E+00         0.00000E+00        -0.66460E+08
 
   -0.65968E+08         0.65332E+06         0.00000E+00
    0.65332E+06        -0.90957E+08         0.00000E+00
    0.00000E+00         0.00000E+00        -0.66288E+08
 
   -0.65802E+08         0.65328E+06         0.00000E+00
    0.65328E+06        -0.90871E+08         0.00000E+00
    0.00000E+00         0.00000E+00        -0.66109E+08
 
   -0.65635E+08         0.65107E+06         0.00000E+00
    0.65107E+06        -0.90786E+08         0.00000E+00
    0.00000E+00         0.00000E+00        -0.65922E+08
 
   -0.65465E+08         0.64624E+06         0.00000E+00
    0.64624E+06        -0.90701E+08         0.00000E+00
    0.00000E+00         0.00000E+00        -0.65727E+08
 
   -0.65294E+08         0.63831E+06         0.00000E+00
    0.63831E+06        -0.90616E+08         0.00000E+00
    0.00000E+00         0.00000E+00        -0.65524E+08
 
   -0.65121E+08         0.62676E+06         0.00000E+00
    0.62676E+06        -0.90534E+08         0.00000E+00
    0.00000E+00         0.00000E+00        -0.65312E+08
 
   -0.64947E+08         0.61100E+06         0.00000E+00
    0.61100E+06        -0.90452E+08         0.00000E+00
    0.00000E+00         0.00000E+00        -0.65090E+08
 
   -0.64773E+08         0.59044E+06         0.00000E+00
    0.59044E+06        -0.90373E+08         0.00000E+00
    0.00000E+00         0.00000E+00        -0.64858E+08
 
   -0.64598E+08         0.56444E+06         0.00000E+00
    0.56444E+06        -0.90297E+08         0.00000E+00
    0.00000E+00         0.00000E+00        -0.64615E+08
 
   -0.64424E+08         0.53238E+06         0.00000E+00
    0.53238E+06        -0.90223E+08         0.00000E+00
    0.00000E+00         0.00000E+00        -0.64360E+08
 
   -0.64250E+08         0.49368E+06         0.00000E+00
    0.49368E+06        -0.90152E+08         0.00000E+00
    0.00000E+00         0.00000E+00        -0.64094E+08
 
   -0.64076E+08         0.44784E+06         0.00000E+00
    0.44784E+06        -0.90084E+08         0.00000E+00
    0.00000E+00         0.00000E+00        -0.63814E+08
 
   -0.63904E+08         0.39455E+06         0.00000E+00
    0.39455E+06        -0.90019E+08         0.00000E+00
    0.00000E+00         0.00000E+00        -0.63520E+08
 
   -0.63733E+08         0.33377E+06         0.00000E+00
    0.33377E+06        -0.89956E+08         0.00000E+00
    0.00000E+00         0.00000E+00        -0.63212E+08
 
   -0.63563E+08         0.26591E+06         0.00000E+00
    0.26591E+06        -0.89895E+08         0.00000E+00
    0.00000E+00         0.00000E+00        -0.62887E+08
 
   -0.63394E+08         0.19202E+06         0.00000E+00
    0.19202E+06        -0.89833E+08         0.00000E+00
    0.00000E+00         0.00000E+00        -0.62544E+08
 
   -0.63224E+08         0.11410E+06         0.00000E+00
    0.11410E+06        -0.89769E+08         0.00000E+00
    0.00000E+00         0.00000E+00        -0.62181E+08
 
   -0.63052E+08         0.35506E+05         0.00000E+00
    0.35506E+05        -0.89698E+08         0.00000E+00
    0.00000E+00         0.00000E+00        -0.61796E+08
 
   -0.62874E+08        -0.38564E+05         0.00000E+00
   -0.38564E+05        -0.89614E+08         0.00000E+00
    0.00000E+00         0.00000E+00        -0.61385E+08
 
   -0.62687E+08        -0.10051E+06         0.00000E+00
   -0.10051E+06        -0.89511E+08         0.00000E+00
    0.00000E+00         0.00000E+00        -0.60943E+08
 
   -0.62484E+08        -0.14020E+06         0.00000E+00
   -0.14020E+06        -0.89376E+08         0.00000E+00
    0.00000E+00         0.00000E+00        -0.60462E+08
 
   -0.62259E+08        -0.14655E+06         0.00000E+00
   -0.14655E+06        -0.89191E+08         0.00000E+00
    0.00000E+00         0.00000E+00        -0.59929E+08
 
   -0.62006E+08        -0.11247E+06         0.00000E+00
   -0.11247E+06        -0.88930E+08         0.00000E+00
    0.00000E+00         0.00000E+00        -0.59325E+08
 
   -0.61721E+08        -0.42582E+05         0.00000E+00
   -0.42582E+05        -0.88567E+08         0.00000E+00
    0.00000E+00         0.00000E+00        -0.58627E+08
 
   -0.78712E+08        -0.90234E+05         0.00000E+00
   -0.90234E+05        -0.97923E+08         0.00000E+00
    0.00000E+00         0.00000E+00        -0.84645E+08
 
   -0.78272E+08        -0.24789E+06         0.00000E+00
   -0.24789E+06        -0.97533E+08         0.00000E+00
    0.00000E+00         0.00000E+00        -0.83615E+08
 
   -0.77935E+08        -0.33287E+06         0.00000E+00
   -0.33287E+06        -0.97274E+08         0.00000E+00
    0.00000E+00         0.00000E+00        -0.82683E+08
 
   -0.77671E+08        -0.33003E+06         0.00000E+00
   -0.33003E+06        -0.97108E+08         0.00000E+00
    0.00000E+00         0.00000E+00        -0.81833E+08
 
   -0.77457E+08        -0.25495E+06         0.00000E+00
   -0.25495E+06        -0.96997E+08         0.00000E+00
    0.00000E+00         0.00000E+00        -0.81052E+08
 
   -0.77275E+08        -0.13315E+06         0.00000E+00
   -0.13315E+06        -0.96916E+08         0.00000E+00
    0.00000E+00         0.00000E+00        -0.80331E+08
 
   -0.77112E+08         0.12478E+05         0.00000E+00
    0.12478E+05        -0.96849E+08         0.00000E+00
    0.00000E+00         0.00000E+00        -0.79665E+08
 
   -0.76958E+08         0.16506E+06         0.00000E+00
    0.16506E+06        -0.96786E+08         0.00000E+00
    0.00000E+00         0.00000E+00        -0.79050E+08
 
   -0.76807E+08         0.31333E+06         0.00000E+00
    0.31333E+06        -0.96722E+08         0.00000E+00
    0.00000E+00         0.00000E+00        -0.78481E+08
 
   -0.76653E+08         0.45032E+06         0.00000E+00
    0.45032E+06        -0.96653E+08         0.00000E+00
    0.00000E+00         0.00000E+00        -0.77955E+08
 
   -0.76493E+08         0.57222E+06         0.00000E+00
    0.57222E+06        -0.96580E+08         0.00000E+00
    0.00000E+00         0.00000E+00        -0.77467E+08
 
   -0.76326E+08         0.67739E+06         0.00000E+00
    0.67739E+06        -0.96501E+08         0.00000E+00
    0.00000E+00         0.00000E+00        -0.77013E+08
 
   -0.76151E+08         0.76561E+06         0.00000E+00
    0.76561E+06        -0.96417E+08         0.00000E+00
    0.00000E+00         0.00000E+00        -0.76589E+08
 
   -0.75968E+08         0.83758E+06         0.00000E+00
    0.83758E+06        -0.96327E+08         0.00000E+00
    0.00000E+00         0.00000E+00        -0.76193E+08
 
   -0.75777E+08         0.89451E+06         0.00000E+00
    0.89451E+06        -0.96234E+08         0.00000E+00
    0.00000E+00         0.00000E+00        -0.75821E+08
 
   -0.75580E+08         0.93791E+06         0.00000E+00
    0.93791E+06        -0.96137E+08         0.00000E+00
    0.00000E+00         0.00000E+00        -0.75471E+08
 
   -0.75377E+08         0.96936E+06         0.00000E+00
    0.96936E+06        -0.96036E+08         0.00000E+00
    0.00000E+00         0.00000E+00        -0.75142E+08
 
   -0.75171E+08         0.99045E+06         0.00000E+00
    0.99045E+06        -0.95934E+08         0.00000E+00
    0.00000E+00         0.00000E+00        -0.74831E+08
 
   -0.74961E+08         0.10027E+07         0.00000E+00
    0.10027E+07        -0.95829E+08         0.00000E+00
    0.00000E+00         0.00000E+00        -0.74536E+08
 
   -0.74750E+08         0.10074E+07         0.00000E+00
    0.10074E+07        -0.95723E+08         0.00000E+00
    0.00000E+00         0.00000E+00        -0.74257E+08
 
   -0.74538E+08         0.10059E+07         0.00000E+00
    0.10059E+07        -0.95616E+08         0.00000E+00
    0.00000E+00         0.00000E+00        -0.73992E+08
 
   -0.74326E+08         0.99928E+06         0.00000E+00
    0.99928E+06        -0.95509E+08         0.00000E+00
    0.00000E+00         0.00000E+00        -0.73740E+08
 
   -0.74115E+08         0.98851E+06         0.00000E+00
    0.98851E+06        -0.95402E+08         0.00000E+00
    0.00000E+00         0.00000E+00        -0.73500E+08
 
   -0.73906E+08         0.97444E+06         0.00000E+00
    0.97444E+06        -0.95295E+08         0.00000E+00
    0.00000E+00         0.00000E+00        -0.73272E+08
 
   -0.73699E+08         0.95780E+06         0.00000E+00
    0.95780E+06        -0.95189E+08         0.00000E+00
    0.00000E+00         0.00000E+00        -0.73054E+08
 
   -0.73495E+08         0.93921E+06         0.00000E+00
    0.93921E+06        -0.95084E+08         0.00000E+00
    0.00000E+00         0.00000E+00        -0.72846E+08
 
   -0.73294E+08         0.91919E+06         0.00000E+00
    0.91919E+06        -0.94980E+08         0.00000E+00
    0.00000E+00         0.00000E+00        -0.72648E+08
 
   -0.73097E+08         0.89820E+06         0.00000E+00
    0.89820E+06        -0.94877E+08         0.00000E+00
    0.00000E+00         0.00000E+00        -0.72458E+08
 
   -0.72904E+08         0.87660E+06         0.00000E+00
    0.87660E+06        -0.94776E+08         0.00000E+00
    0.00000E+00         0.00000E+00        -0.72276E+08
 
   -0.72715E+08         0.85471E+06         0.00000E+00
    0.85471E+06        -0.94677E+08         0.00000E+00
    0.00000E+00         0.00000E+00        -0.72101E+08
 
   -0.72530E+08         0.83279E+06         0.00000E+00
    0.83279E+06        -0.94579E+08         0.00000E+00
    0.00000E+00         0.00000E+00        -0.71933E+08
 
   -0.72349E+08         0.81106E+06         0.00000E+00
    0.81106E+06        -0.94483E+08         0.00000E+00
    0.00000E+00         0.00000E+00        -0.71772E+08
 
   -0.72172E+08         0.78968E+06         0.00000E+00
    0.78968E+06        -0.94389E+08         0.00000E+00
    0.00000E+00         0.00000E+00        -0.71617E+08
 
   -0.71999E+08         0.76881E+06         0.00000E+00
    0.76881E+06        -0.94297E+08         0.00000E+00
    0.00000E+00         0.00000E+00        -0.71468E+08
 
   -0.71830E+08         0.74856E+06         0.00000E+00
    0.74856E+06        -0.94207E+08         0.00000E+00
    0.00000E+00         0.00000E+00        -0.71323E+08
 
   -0.71666E+08         0.72903E+06         0.00000E+00
    0.72903E+06        -0.94118E+08         0.00000E+00
    0.00000E+00         0.00000E+00        -0.71184E+08
 
   -0.71505E+08         0.71029E+06         0.00000E+00
    0.71029E+06        -0.94031E+08         0.00000E+00
    0.00000E+00         0.00000E+00        -0.71049E+08
 
   -0.71347E+08         0.69240E+06         0.00000E+00
    0.69240E+06        -0.93945E+08         0.00000E+00
    0.00000E+00         0.00000E+00        -0.70919E+08
 
   -0.71193E+08         0.67541E+06         0.00000E+00
    0.67541E+06        -0.93862E+08         0.00000E+00
    0.00000E+00         0.00000E+00        -0.70792E+08
 
   -0.71043E+08         0.65936E+06         0.00000E+00
    0.65936E+06        -0.93780E+08         0.00000E+00
    0.00000E+00         0.00000E+00        -0.70669E+08
 
   -0.70895E+08         0.64426E+06         0.00000E+00
    0.64426E+06        -0.93699E+08         0.00000E+00
    0.00000E+00         0.00000E+00        -0.70549E+08
 
   -0.70751E+08         0.63014E+06         0.00000E+00
    0.63014E+06        -0.93619E+08         0.00000E+00
    0.00000E+00         0.00000E+00        -0.70432E+08
 
   -0.70609E+08         0.61700E+06         0.00000E+00
    0.61700E+06        -0.93541E+08         0.00000E+00
    0.00000E+00         0.00000E+00        -0.70318E+08
 
   -0.70470E+08         0.60486E+06         0.00000E+00
    0.60486E+06        -0.93464E+08         0.00000E+00
    0.00000E+00         0.00000E+00        -0.70207E+08
 
   -0.70333E+08         0.59372E+06         0.00000E+00
    0.59372E+06        -0.93389E+08         0.00000E+00
    0.00000E+00         0.00000E+00        -0.70097E+08
 
   -0.70198E+08         0.58356E+06         0.00000E+00
    0.58356E+06        -0.93314E+08         0.00000E+00
    0.00000E+00         0.00000E+00        -0.69990E+08
 
   -0.70065E+08         0.57440E+06         0.00000E+00
    0.57440E+06        -0.93240E+08         0.00000E+00
    0.00000E+00         0.00000E+00        -0.69884E+08
 
   -0.69934E+08         0.56621E+06         0.00000E+00
    0.56621E+06        -0.93167E+08         0.00000E+00
    0.00000E+00         0.00000E+00        -0.69779E+08
 
   -0.69804E+08         0.55899E+06         0.00000E+00
    0.55899E+06        -0.93094E+08         0.00000E+00
    0.00000E+00         0.00000E+00        -0.69676E+08
 
   -0.69676E+08         0.55273E+06         0.00000E+00
    0.55273E+06        -0.93022E+08         0.00000E+00
    0.00000E+00         0.00000E+00        -0.69574E+08
 
   -0.69548E+08         0.54741E+06         0.00000E+00
    0.54741E+06        -0.92951E+08         0.00000E+00
    0.00000E+00         0.00000E+00        -0.69472E+08
 
   -0.69422E+08         0.54301E+06         0.00000E+00
    0.54301E+06        -0.92879E+08         0.00000E+00
    0.00000E+00         0.00000E+00        -0.69371E+08
 
   -0.69296E+08         0.53952E+06         0.00000E+00
    0.53952E+06        -0.92809E+08         0.00000E+00
    0.00000E+00         0.00000E+00        -0.69270E+08
 
   -0.69170E+08         0.53692E+06         0.00000E+00
    0.53692E+06        -0.92738E+08         0.00000E+00
    0.00000E+00         0.00000E+00        -0.69170E+08
 
   -0.69044E+08         0.53519E+06         0.00000E+00
    0.53519E+06        -0.92667E+08         0.00000E+00
    0.00000E+00         0.00000E+00        -0.69069E+08
 
   -0.68919E+08         0.53430E+06         0.00000E+00
    0.53430E+06        -0.92596E+08         0.00000E+00
    0.00000E+00         0.00000E+00        -0.68967E+08
 
   -0.68793E+08         0.53423E+06         0.00000E+00
    0.53423E+06        -0.92525E+08         0.00000E+00
    0.00000E+00         0.00000E+00        -0.68865E+08
 
   -0.68667E+08         0.53494E+06         0.00000E+00
    0.53494E+06        -0.92453E+08         0.00000E+00
    0.00000E+00         0.00000E+00        -0.68763E+08
 
   -0.68540E+08         0.53642E+06         0.00000E+00
    0.53642E+06        -0.92382E+08         0.00000E+00
    0.00000E+00         0.00000E+00        -0.68659E+08
 
   -0.68412E+08         0.53861E+06         0.00000E+00
    0.53861E+06        -0.92309E+08         0.00000E+00
    0.00000E+00         0.00000E+00        -0.68553E+08
 
   -0.68283E+08         0.54149E+06         0.00000E+00
    0.54149E+06        -0.92236E+08         0.00000E+00
    0.00000E+00         0.00000E+00        -0.68446E+08
 
   -0.68153E+08         0.54502E+06         0.00000E+00
    0.54502E+06        -0.92163E+08         0.00000E+00
    0.00000E+00         0.00000E+00        -0.68338E+08
 
   -0.68022E+08         0.54914E+06         0.00000E+00
    0.54914E+06        -0.92089E+08         0.00000E+00
    0.00000E+00         0.00000E+00        -0.68227E+08
 
   -0.67888E+08         0.55380E+06         0.00000E+00
    0.55380E+06        -0.92014E+08         0.00000E+00
    0.00000E+00         0.00000E+00        -0.68113E+08
 
   -0.67754E+08         0.55895E+06         0.00000E+00
    0.55895E+06        -0.91938E+08         0.00000E+00
    0.00000E+00         0.00000E+00        -0.67997E+08
 
   -0.67617E+08         0.56450E+06         0.00000E+00
    0.56450E+06        -0.91861E+08         0.00000E+00
    0.00000E+00         0.00000E+00        -0.67879E+08
 
   -0.67478E+08         0.57040E+06         0.00000E+00
    0.57040E+06        -0.91783E+08         0.00000E+00
    0.00000E+00         0.00000E+00        -0.67757E+08
 
   -0.67337E+08         0.57654E+06         0.00000E+00
    0.57654E+06        -0.91704E+08         0.00000E+00
    0.00000E+00         0.00000E+00        -0.67631E+08
 
   -0.67194E+08         0.58282E+06         0.00000E+00
    0.58282E+06        -0.91624E+08         0.00000E+00
    0.00000E+00         0.00000E+00        -0.67502E+08
 
   -0.67048E+08         0.58914E+06         0.00000E+00
    0.58914E+06        -0.91543E+08         0.00000E+00
    0.00000E+00         0.00000E+00        -0.67369E+08
 
   -0.66900E+08         0.59536E+06         0.00000E+00
    0.59536E+06        -0.91461E+08         0.00000E+00
    0.00000E+00         0.00000E+00        -0.67231E+08
 
   -0.66749E+08         0.60132E+06         0.00000E+00
    0.60132E+06        -0.91378E+08         0.00000E+00
    0.00000E+00         0.00000E+00        -0.67088E+08
 
   -0.66596E+08         0.60686E+06         0.00000E+00
    0.60686E+06        -0.91294E+08         0.00000E+00
    0.00000E+00         0.00000E+00        -0.66940E+08
 
   -0.66440E+08         0.61178E+06         0.00000E+00
    0.61178E+06        -0.91210E+08         0.00000E+00
    0.00000E+00         0.00000E+00        -0.66787E+08
 
   -0.66282E+08         0.61585E+06         0.00000E+00
    0.61585E+06        -0.91124E+08         0.00000E+00
    0.00000E+00         0.00000E+00        -0.66628E+08
 
   -0.66121E+08         0.61881E+06         0.00000E+00
    0.61881E+06        -0.91038E+08         0.00000E+00
    0.00000E+00         0.00000E+00        -0.66462E+08
 
   -0.65958E+08         0.62038E+06         0.00000E+00
    0.62038E+06        -0.90952E+08         0.00000E+00
    0.00000E+00         0.00000E+00        -0.66290E+08
 
   -0.65792E+08         0.62021E+06         0.00000E+00
    0.62021E+06        -0.90866E+08         0.00000E+00
    0.00000E+00         0.00000E+00        -0.66111E+08
 
   -0.65624E+08         0.61792E+06         0.00000E+00
    0.61792E+06        -0.90780E+08         0.00000E+00
    0.00000E+00         0.00000E+00        -0.65923E+08
 
   -0.65455E+08         0.61311E+06         0.00000E+00
    0.61311E+06        -0.90695E+08         0.00000E+00
    0.00000E+00         0.00000E+00        -0.65728E+08
 
   -0.65283E+08         0.60529E+06         0.00000E+00
    0.60529E+06        -0.90610E+08         0.00000E+00
    0.00000E+00         0.00000E+00        -0.65525E+08
 
   -0.65111E+08         0.59395E+06         0.00000E+00
    0.59395E+06        -0.90527E+08         0.00000E+00
    0.00000E+00         0.00000E+00        -0.65312E+08
 
   -0.64938E+08         0.57853E+06         0.00000E+00
    0.57853E+06        -0.90445E+08         0.00000E+00
    0.00000E+00         0.00000E+00        -0.65089E+08
 
   -0.64764E+08         0.55842E+06         0.00000E+00
    0.55842E+06        -0.90366E+08         0.00000E+00
    0.00000E+00         0.00000E+00        -0.64856E+08
 
   -0.64590E+08         0.53301E+06         0.00000E+00
    0.53301E+06        -0.90289E+08         0.00000E+00
    0.00000E+00         0.00000E+00        -0.64612E+08
 
   -0.64416E+08         0.50168E+06         0.00000E+00
    0.50168E+06        -0.90215E+08         0.00000E+00
    0.00000E+00         0.00000E+00        -0.64356E+08
 
   -0.64244E+08         0.46385E+06         0.00000E+00
    0.46385E+06        -0.90144E+08         0.00000E+00
    0.00000E+00         0.00000E+00        -0.64089E+08
 
   -0.64073E+08         0.41901E+06         0.00000E+00
    0.41901E+06        -0.90076E+08         0.00000E+00
    0.00000E+00         0.00000E+00        -0.63807E+08
 
   -0.63903E+08         0.36684E+06         0.00000E+00
    0.36684E+06        -0.90012E+08         0.00000E+00
    0.00000E+00         0.00000E+00        -0.63512E+08
 
   -0.63736E+08         0.30729E+06         0.00000E+00
    0.30729E+06        -0.89950E+08         0.00000E+00
    0.00000E+00         0.00000E+00        -0.63202E+08
 
   -0.63570E+08         0.24071E+06         0.00000E+00
    0.24071E+06        -0.89891E+08         0.00000E+00
    0.00000E+00         0.00000E+00        -0.62875E+08
 
   -0.63406E+08         0.16811E+06         0.00000E+00
    0.16811E+06        -0.89831E+08         0.00000E+00
    0.00000E+00         0.00000E+00        -0.62530E+08
 
   -0.63243E+08         0.91437E+05         0.00000E+00
    0.91437E+05        -0.89770E+08         0.00000E+00
    0.00000E+00         0.00000E+00        -0.62165E+08
 
   -0.63078E+08         0.13947E+05         0.00000E+00
    0.13947E+05        -0.89704E+08         0.00000E+00
    0.00000E+00         0.00000E+00        -0.61779E+08
 
   -0.62909E+08        -0.59216E+05         0.00000E+00
   -0.59216E+05        -0.89627E+08         0.00000E+00
    0.00000E+00         0.00000E+00        -0.61367E+08
 
   -0.62731E+08        -0.12041E+06         0.00000E+00
   -0.12041E+06        -0.89532E+08         0.00000E+00
    0.00000E+00         0.00000E+00        -0.60925E+08
 
   -0.62539E+08        -0.15916E+06         0.00000E+00
   -0.15916E+06        -0.89406E+08         0.00000E+00
    0.00000E+00         0.00000E+00        -0.60445E+08
 
   -0.62323E+08        -0.16340E+06         0.00000E+00
   -0.16340E+06        -0.89231E+08         0.00000E+00
    0.00000E+00         0.00000E+00        -0.59916E+08
 
   -0.62077E+08        -0.12471E+06         0.00000E+00
   -0.12471E+06        -0.88980E+08         0.00000E+00
    0.00000E+00         0.00000E+00        -0.59315E+08
 
   -0.61797E+08        -0.47167E+05         0.00000E+00
   -0.47167E+05        -0.88623E+08         0.00000E+00
    0.00000E+00         0.00000E+00        -0.58620E+08
 
   -0.78629E+08        -0.97995E+05         0.00000E+00
   -0.97995E+05        -0.97829E+08         0.00000E+00
    0.00000E+00         0.00000E+00        -0.84673E+08
 
   -0.78190E+08        -0.26891E+06         0.00000E+00
   -0.26891E+06        -0.97448E+08         0.00000E+00
    0.00000E+00         0.00000E+00        -0.83649E+08
 
   -0.77859E+08        -0.36154E+06         0.00000E+00
   -0.36154E+06        -0.97205E+08         0.00000E+00
    0.00000E+00         0.00000E+00        -0.82722E+08
 
   -0.77604E+08        -0.36208E+06         0.00000E+00
   -0.36208E+06        -0.97056E+08         0.00000E+00
    0.00000E+00         0.00000E+00        -0.81875E+08
 
   -0.77400E+08        -0.28901E+06         0.00000E+00
   -0.28901E+06        -0.96961E+08         0.00000E+00
    0.00000E+00         0.00000E+00        -0.81094E+08
 
   -0.77228E+08        -0.16941E+06         0.00000E+00
   -0.16941E+06        -0.96894E+08         0.00000E+00
    0.00000E+00         0.00000E+00        -0.80370E+08
 
   -0.77075E+08        -0.26427E+05         0.00000E+00
   -0.26427E+05        -0.96837E+08         0.00000E+00
    0.00000E+00         0.00000E+00        -0.79699E+08
 
   -0.76931E+08         0.12334E+06         0.00000E+00
    0.12334E+06        -0.96782E+08         0.00000E+00
    0.00000E+00         0.00000E+00        -0.79078E+08
 
   -0.76787E+08         0.26887E+06         0.00000E+00
    0.26887E+06        -0.96724E+08         0.00000E+00
    0.00000E+00         0.00000E+00        -0.78504E+08
 
   -0.76640E+08         0.40338E+06         0.00000E+00
    0.40338E+06        -0.96660E+08         0.00000E+00
    0.00000E+00         0.00000E+00        -0.77973E+08
 
   -0.76487E+08         0.52315E+06         0.00000E+00
    0.52315E+06        -0.96590E+08         0.00000E+00
    0.00000E+00         0.00000E+00        -0.77479E+08
 
   -0.76325E+08         0.62656E+06         0.00000E+00
    0.62656E+06        -0.96513E+08         0.00000E+00
    0.00000E+00         0.00000E+00        -0.77021E+08
 
   -0.76153E+08         0.71340E+06         0.00000E+00
    0.71340E+06        -0.96430E+08         0.00000E+00
    0.00000E+00         0.00000E+00        -0.76594E+08
 
   -0.75973E+08         0.78433E+06         0.00000E+00
    0.78433E+06        -0.96342E+08         0.00000E+00
    0.00000E+00         0.00000E+00        -0.76194E+08
 
   -0.75785E+08         0.84054E+06         0.00000E+00
    0.84054E+06        -0.96249E+08         0.00000E+00
    0.00000E+00         0.00000E+00        -0.75820E+08
 
   -0.75590E+08         0.88352E+06         0.00000E+00
    0.88352E+06        -0.96152E+08         0.00000E+00
    0.00000E+00         0.00000E+00        -0.75468E+08
 
   -0.75388E+08         0.91481E+06         0.00000E+00
    0.91481E+06        -0.96051E+08         0.00000E+00
    0.00000E+00         0.00000E+00        -0.75136E+08
 
   -0.75183E+08         0.93596E+06         0.00000E+00
    0.93596E+06        -0.95948E+08         0.00000E+00
    0.00000E+00         0.00000E+00        -0.74824E+08
 
   -0.74974E+08         0.94845E+06         0.00000E+00
    0.94845E+06        -0.95843E+08         0.00000E+00
    0.00000E+00         0.00000E+00        -0.74528E+08
 
   -0.74763E+08         0.95365E+06         0.00000E+00
    0.95365E+06        -0.95736E+08         0.00000E+00
    0.00000E+00         0.00000E+00        -0.74248E+08
 
   -0.74551E+08         0.95276E+06         0.00000E+00
    0.95276E+06        -0.95628E+08         0.00000E+00
    0.00000E+00         0.00000E+00        -0.73982E+08
 
   -0.74339E+08         0.94689E+06         0.00000E+00
    0.94689E+06        -0.95521E+08         0.00000E+00
    0.00000E+00         0.00000E+00        -0.73730E+08
 
   -0.74128E+08         0.93697E+06         0.00000E+00
    0.93697E+06        -0.95413E+08         0.00000E+00
    0.00000E+00         0.00000E+00        -0.73490E+08
 
   -0.73918E+08         0.92385E+06         0.00000E+00
    0.92385E+06        -0.95305E+08         0.00000E+00
    0.00000E+00         0.00000E+00        -0.73262E+08
 
   -0.73711E+08         0.90822E+06         0.00000E+00
    0.90822E+06        -0.95199E+08         0.00000E+00
    0.00000E+00         0.00000E+00        -0.73044E+08
 
   -0.73507E+08         0.89070E+06         0.00000E+00
    0.89070E+06        -0.95093E+08         0.00000E+00
    0.00000E+00         0.00000E+00        -0.72837E+08
 
   -0.73306E+08         0.87178E+06         0.00000E+00
    0.87178E+06        -0.94988E+08         0.00000E+00
    0.00000E+00         0.00000E+00        -0.72638E+08
 
   -0.73108E+08         0.85192E+06         0.00000E+00
    0.85192E+06        -0.94885E+08         0.00000E+00
    0.00000E+00         0.00000E+00        -0.72448E+08
 
   -0.72915E+08         0.83146E+06         0.00000E+00
    0.83146E+06        -0.94784E+08         0.00000E+00
    0.00000E+00         0.00000E+00        -0.72266E+08
 
   -0.72725E+08         0.81071E+06         0.00000E+00
    0.81071E+06        -0.94684E+08         0.00000E+00
    0.00000E+00         0.00000E+00        -0.72092E+08
 
   -0.72539E+08         0.78992E+06         0.00000E+00
    0.78992E+06        -0.94586E+08         0.00000E+00
    0.00000E+00         0.00000E+00        -0.71925E+08
 
   -0.72358E+08         0.76930E+06         0.00000E+00
    0.76930E+06        -0.94490E+08         0.00000E+00
    0.00000E+00         0.00000E+00        -0.71764E+08
 
   -0.72180E+08         0.74902E+06         0.00000E+00
    0.74902E+06        -0.94395E+08         0.00000E+00
    0.00000E+00         0.00000E+00        -0.71609E+08
 
   -0.72007E+08         0.72921E+06         0.00000E+00
    0.72921E+06        -0.94302E+08         0.00000E+00
    0.00000E+00         0.00000E+00        -0.71460E+08
 
   -0.71838E+08         0.70999E+06         0.00000E+00
    0.70999E+06        -0.94212E+08         0.00000E+00
    0.00000E+00         0.00000E+00        -0.71317E+08
 
   -0.71673E+08         0.69145E+06         0.00000E+00
    0.69145E+06        -0.94123E+08         0.00000E+00
    0.00000E+00         0.00000E+00        -0.71178E+08
 
   -0.71511E+08         0.67366E+06         0.00000E+00
    0.67366E+06        -0.94035E+08         0.00000E+00
    0.00000E+00         0.00000E+00        -0.71043E+08
 
   -0.71353E+08         0.65668E+06         0.00000E+00
    0.65668E+06        -0.93950E+08         0.00000E+00
    0.00000E+00         0.00000E+00        -0.70913E+08
 
   -0.71199E+08         0.64055E+06         0.00000E+00
    0.64055E+06        -0.93866E+08         0.00000E+00
    0.00000E+00         0.00000E+00        -0.70787E+08
 
   -0.71048E+08         0.62531E+06         0.00000E+00
    0.62531E+06        -0.93783E+08         0.00000E+00
    0.00000E+00         0.00000E+00        -0.70664E+08
 
   -0.70900E+08         0.61098E+06         0.00000E+00
    0.61098E+06        -0.93702E+08         0.00000E+00
    0.00000E+00         0.00000E+00        -0.70545E+08
 
   -0.70755E+08         0.59757E+06         0.00000E+00
    0.59757E+06        -0.93622E+08         0.00000E+00
    0.00000E+00         0.00000E+00        -0.70428E+08
 
   -0.70613E+08         0.58510E+06         0.00000E+00
    0.58510E+06        -0.93544E+08         0.00000E+00
    0.00000E+00         0.00000E+00        -0.70314E+08
 
   -0.70473E+08         0.57357E+06         0.00000E+00
    0.57357E+06        -0.93467E+08         0.00000E+00
    0.00000E+00         0.00000E+00        -0.70203E+08
 
   -0.70336E+08         0.56299E+06         0.00000E+00
    0.56299E+06        -0.93391E+08         0.00000E+00
    0.00000E+00         0.00000E+00        -0.70094E+08
 
   -0.70201E+08         0.55334E+06         0.00000E+00
    0.55334E+06        -0.93316E+08         0.00000E+00
    0.00000E+00         0.00000E+00        -0.69986E+08
 
   -0.70067E+08         0.54464E+06         0.00000E+00
    0.54464E+06        -0.93242E+08         0.00000E+00
    0.00000E+00         0.00000E+00        -0.69881E+08
 
   -0.69936E+08         0.53686E+06         0.00000E+00
    0.53686E+06        -0.93168E+08         0.00000E+00
    0.00000E+00         0.00000E+00        -0.69777E+08
 
   -0.69806E+08         0.53000E+06         0.00000E+00
    0.53000E+06        -0.93096E+08         0.00000E+00
    0.00000E+00         0.00000E+00        -0.69674E+08
 
   -0.69677E+08         0.52405E+06         0.00000E+00
    0.52405E+06        -0.93024E+08         0.00000E+00
    0.00000E+00         0.00000E+00        -0.69572E+08
 
   -0.69549E+08         0.51899E+06         0.00000E+00
    0.51899E+06        -0.92952E+08         0.00000E+00
    0.00000E+00         0.00000E+00        -0.69470E+08
 
   -0.69422E+08         0.51481E+06         0.00000E+00
    0.51481E+06        -0.92880E+08         0.00000E+00
    0.00000E+00         0.00000E+00        -0.69370E+08
 
   -0.69295E+08         0.51149E+06         0.00000E+00
    0.51149E+06        -0.92809E+08         0.00000E+00
    0.00000E+00         0.00000E+00        -0.69269E+08
 
   -0.69169E+08         0.50901E+06         0.00000E+00
    0.50901E+06        -0.92738E+08         0.00000E+00
    0.00000E+00         0.00000E+00        -0.69169E+08
 
   -0.69043E+08         0.50736E+06         0.00000E+00
    0.50736E+06        -0.92667E+08         0.00000E+00
    0.00000E+00         0.00000E+00        -0.69068E+08
 
   -0.68917E+08         0.50650E+06         0.00000E+00
    0.50650E+06        -0.92596E+08         0.00000E+00
    0.00000E+00         0.00000E+00        -0.68967E+08
 
   -0.68791E+08         0.50641E+06         0.00000E+00
    0.50641E+06        -0.92525E+08         0.00000E+00
    0.00000E+00         0.00000E+00        -0.68865E+08
 
   -0.68664E+08         0.50708E+06         0.00000E+00
    0.50708E+06        -0.92453E+08         0.00000E+00
    0.00000E+00         0.00000E+00        -0.68763E+08
 
   -0.68537E+08         0.50846E+06         0.00000E+00
    0.50846E+06        -0.92381E+08         0.00000E+00
    0.00000E+00         0.00000E+00        -0.68659E+08
 
   -0.68408E+08         0.51053E+06         0.00000E+00
    0.51053E+06        -0.92309E+08         0.00000E+00
    0.00000E+00         0.00000E+00        -0.68554E+08
 
   -0.68279E+08         0.51324E+06         0.00000E+00
    0.51324E+06        -0.92236E+08         0.00000E+00
    0.00000E+00         0.00000E+00        -0.68447E+08
 
   -0.68149E+08         0.51657E+06         0.00000E+00
    0.51657E+06        -0.92162E+08         0.00000E+00
    0.00000E+00         0.00000E+00        -0.68338E+08
 
   -0.68017E+08         0.52046E+06         0.00000E+00
    0.52046E+06        -0.92088E+08         0.00000E+00
    0.00000E+00         0.00000E+00        -0.68228E+08
 
   -0.67883E+08         0.52486E+06         0.00000E+00
    0.52486E+06        -0.92012E+08         0.00000E+00
    0.00000E+00         0.00000E+00        -0.68115E+08
 
   -0.67748E+08         0.52972E+06         0.00000E+00
    0.52972E+06        -0.91936E+08         0.00000E+00
    0.00000E+00         0.00000E+00        -0.67999E+08
 
   -0.67611E+08         0.53497E+06         0.00000E+00
    0.53497E+06        -0.91859E+08         0.00000E+00
    0.00000E+00         0.00000E+00        -0.67880E+08
 
   -0.67472E+08         0.54053E+06         0.00000E+00
    0.54053E+06        -0.91781E+08         0.00000E+00
    0.00000E+00         0.00000E+00        -0.67758E+08
 
   -0.67330E+08         0.54633E+06         0.00000E+00
    0.54633E+06        -0.91702E+08         0.00000E+00
    0.00000E+00         0.00000E+00        -0.67633E+08
 
   -0.67187E+08         0.55227E+06         0.00000E+00
    0.55227E+06        -0.91622E+08         0.00000E+00
    0.00000E+00         0.00000E+00        -0.67504E+08
 
   -0.67041E+08         0.55823E+06         0.00000E+00
    0.55823E+06        -0.91540E+08         0.00000E+00
    0.00000E+00         0.00000E+00        -0.67371E+08
 
   -0.66892E+08         0.56409E+06         0.00000E+00
    0.56409E+06        -0.91458E+08         0.00000E+00
    0.00000E+00         0.00000E+00        -0.67233E+08
 
   -0.66741E+08         0.56971E+06         0.00000E+00
    0.56971E+06        -0.91375E+08         0.00000E+00
    0.00000E+00         0.00000E+00        -0.67090E+08
 
   -0.66587E+08         0.57491E+06         0.00000E+00
    0.57491E+06        -0.91291E+08         0.00000E+00
    0.00000E+00         0.00000E+00        -0.66942E+08
 
   -0.66431E+08         0.57953E+06         0.00000E+00
    0.57953E+06        -0.91206E+08         0.00000E+00
    0.00000E+00         0.00000E+00        -0.66789E+08
 
   -0.66272E+08         0.58332E+06         0.00000E+00
    0.58332E+06        -0.91120E+08         0.00000E+00
    0.00000E+00         0.00000E+00        -0.66630E+08
 
   -0.66111E+08         0.58605E+06         0.00000E+00
    0.58605E+06        -0.91034E+08         0.00000E+00
    0.00000E+00         0.00000E+00        -0.66464E+08
 
   -0.65947E+08         0.58743E+06         0.00000E+00
    0.58743E+06        -0.90947E+08         0.00000E+00
    0.00000E+00         0.00000E+00        -0.66292E+08
 
   -0.65782E+08         0.58714E+06         0.00000E+00
    0.58714E+06        -0.90861E+08         0.00000E+00
    0.00000E+00         0.00000E+00        -0.66112E+08
 
   -0.65614E+08         0.58482E+06         0.00000E+00
    0.58482E+06        -0.90774E+08         0.00000E+00
    0.00000E+00         0.00000E+00        -0.65925E+08
 
   -0.65444E+08         0.58005E+06         0.00000E+00
    0.58005E+06        -0.90689E+08         0.00000E+00
    0.00000E+00         0.00000E+00        -0.65729E+08
 
   -0.65273E+08         0.57239E+06         0.00000E+00
    0.57239E+06        -0.90603E+08         0.00000E+00
    0.00000E+00         0.00000E+00        -0.65525E+08
 
   -0.65100E+08         0.56131E+06         0.00000E+00
    0.56131E+06        -0.90520E+08         0.00000E+00
    0.00000E+00         0.00000E+00        -0.65312E+08
 
   -0.64927E+08         0.54628E+06         0.00000E+00
    0.54628E+06        -0.90438E+08         0.00000E+00
    0.00000E+00         0.00000E+00        -0.65088E+08
 
   -0.64754E+08         0.52671E+06         0.00000E+00
    0.52671E+06        -0.90358E+08         0.00000E+00
    0.00000E+00         0.00000E+00        -0.64855E+08
 
   -0.64581E+08         0.50198E+06         0.00000E+00
    0.50198E+06        -0.90281E+08         0.00000E+00
    0.00000E+00         0.00000E+00        -0.64610E+08
 
   -0.64409E+08         0.47148E+06         0.00000E+00
    0.47148E+06        -0.90207E+08         0.00000E+00
    0.00000E+00         0.00000E+00        -0.64353E+08
 
   -0.64238E+08         0.43464E+06         0.00000E+00
    0.43464E+06        -0.90136E+08         0.00000E+00
    0.00000E+00         0.00000E+00        -0.64084E+08
 
   -0.64069E+08         0.39094E+06         0.00000E+00
    0.39094E+06        -0.90068E+08         0.00000E+00
    0.00000E+00         0.00000E+00        -0.63801E+08
 
   -0.63902E+08         0.34005E+06         0.00000E+00
    0.34005E+06        -0.90005E+08         0.00000E+00
    0.00000E+00         0.00000E+00        -0.63504E+08
 
   -0.63738E+08         0.28189E+06         0.00000E+00
    0.28189E+06        -0.89944E+08         0.00000E+00
    0.00000E+00         0.00000E+00        -0.63192E+08
 
   -0.63577E+08         0.21678E+06         0.00000E+00
    0.21678E+06        -0.89886E+08         0.00000E+00
    0.00000E+00         0.00000E+00        -0.62863E+08
 
   -0.63418E+08         0.14567E+06         0.00000E+00
    0.14567E+06        -0.89830E+08         0.00000E+00
    0.00000E+00         0.00000E+00        -0.62516E+08
 
   -0.63261E+08         0.70407E+05         0.00000E+00
    0.70407E+05        -0.89772E+08         0.00000E+00
    0.00000E+00         0.00000E+00        -0.62150E+08
 
   -0.63104E+08        -0.58452E+04         0.00000E+00
   -0.58452E+04        -0.89710E+08         0.00000E+00
    0.00000E+00         0.00000E+00        -0.61761E+08
 
   -0.62944E+08        -0.78059E+05         0.00000E+00
   -0.78059E+05        -0.89640E+08         0.00000E+00
    0.00000E+00         0.00000E+00        -0.61348E+08
 
   -0.62777E+08        -0.13863E+06         0.00000E+00
   -0.13863E+06        -0.89553E+08         0.00000E+00
    0.00000E+00         0.00000E+00        -0.60906E+08
 
   -0.62594E+08        -0.17677E+06         0.00000E+00
   -0.17677E+06        -0.89437E+08         0.00000E+00
    0.00000E+00         0.00000E+00        -0.60428E+08
 
   -0.62389E+08        -0.17946E+06         0.00000E+00
   -0.17946E+06        -0.89273E+08         0.00000E+00
    0.00000E+00         0.00000E+00        -0.59902E+08
 
   -0.62151E+08        -0.13668E+06         0.00000E+00
   -0.13668E+06        -0.89033E+08         0.00000E+00
    0.00000E+00         0.00000E+00        -0.59306E+08
 
   -0.61876E+08        -0.51720E+05         0.00000E+00
   -0.51720E+05        -0.88682E+08         0.00000E+00
    0.00000E+00         0.00000E+00        -0.58614E+08
 
   -0.78544E+08        -0.10556E+06         0.00000E+00
   -0.10556E+06        -0.97730E+08         0.00000E+00
    0.00000E+00         0.00000E+00        -0.84700E+08
 
   -0.78107E+08        -0.28894E+06         0.00000E+00
   -0.28894E+06        -0.97360E+08         0.00000E+00
    0.00000E+00         0.00000E+00        -0.83683E+08
 
   -0.77783E+08        -0.38787E+06         0.00000E+00
   -0.38787E+06        -0.97134E+08         0.00000E+00
    0.00000E+00         0.00000E+00        -0.82761E+08
 
   -0.77538E+08        -0.39059E+06         0.00000E+00
   -0.39059E+06        -0.97003E+08         0.00000E+00
    0.00000E+00         0.00000E+00        -0.81917E+08
 
   -0.77344E+08        -0.31889E+06         0.00000E+00
   -0.31889E+06        -0.96924E+08         0.00000E+00
    0.00000E+00         0.00000E+00        -0.81135E+08
 
   -0.77183E+08        -0.20138E+06         0.00000E+00
   -0.20138E+06        -0.96871E+08         0.00000E+00
    0.00000E+00         0.00000E+00        -0.80408E+08
 
   -0.77040E+08        -0.61237E+05         0.00000E+00
   -0.61237E+05        -0.96825E+08         0.00000E+00
    0.00000E+00         0.00000E+00        -0.79732E+08
 
   -0.76904E+08         0.85332E+05         0.00000E+00
    0.85332E+05        -0.96778E+08         0.00000E+00
    0.00000E+00         0.00000E+00        -0.79106E+08
 
   -0.76769E+08         0.22768E+06         0.00000E+00
    0.22768E+06        -0.96726E+08         0.00000E+00
    0.00000E+00         0.00000E+00        -0.78527E+08
 
   -0.76629E+08         0.35924E+06         0.00000E+00
    0.35924E+06        -0.96667E+08         0.00000E+00
    0.00000E+00         0.00000E+00        -0.77990E+08
 
   -0.76481E+08         0.47643E+06         0.00000E+00
    0.47643E+06        -0.96600E+08         0.00000E+00
    0.00000E+00         0.00000E+00        -0.77492E+08
 
   -0.76324E+08         0.57766E+06         0.00000E+00
    0.57766E+06        -0.96526E+08         0.00000E+00
    0.00000E+00         0.00000E+00        -0.77029E+08
 
   -0.76157E+08         0.66273E+06         0.00000E+00
    0.66273E+06        -0.96444E+08         0.00000E+00
    0.00000E+00         0.00000E+00        -0.76598E+08
 
   -0.75980E+08         0.73228E+06         0.00000E+00
    0.73228E+06        -0.96357E+08         0.00000E+00
    0.00000E+00         0.00000E+00        -0.76195E+08
 
   -0.75794E+08         0.78750E+06         0.00000E+00
    0.78750E+06        -0.96264E+08         0.00000E+00
    0.00000E+00         0.00000E+00        -0.75818E+08
 
   -0.75600E+08         0.82981E+06         0.00000E+00
    0.82981E+06        -0.96167E+08         0.00000E+00
    0.00000E+00         0.00000E+00        -0.75464E+08
 
   -0.75400E+08         0.86074E+06         0.00000E+00
    0.86074E+06        -0.96066E+08         0.00000E+00
    0.00000E+00         0.00000E+00        -0.75130E+08
 
   -0.75196E+08         0.88180E+06         0.00000E+00
    0.88180E+06        -0.95962E+08         0.00000E+00
    0.00000E+00         0.00000E+00        -0.74816E+08
 
   -0.74987E+08         0.89444E+06         0.00000E+00
    0.89444E+06        -0.95856E+08         0.00000E+00
    0.00000E+00         0.00000E+00        -0.74520E+08
 
   -0.74776E+08         0.89999E+06         0.00000E+00
    0.89999E+06        -0.95749E+08         0.00000E+00
    0.00000E+00         0.00000E+00        -0.74239E+08
 
   -0.74564E+08         0.89963E+06         0.00000E+00
    0.89963E+06        -0.95641E+08         0.00000E+00
    0.00000E+00         0.00000E+00        -0.73973E+08
 
   -0.74352E+08         0.89444E+06         0.00000E+00
    0.89444E+06        -0.95532E+08         0.00000E+00
    0.00000E+00         0.00000E+00        -0.73720E+08
 
   -0.74141E+08         0.88533E+06         0.00000E+00
    0.88533E+06        -0.95424E+08         0.00000E+00
    0.00000E+00         0.00000E+00        -0.73480E+08
 
   -0.73931E+08         0.87311E+06         0.00000E+00
    0.87311E+06        -0.95316E+08         0.00000E+00
    0.00000E+00         0.00000E+00        -0.73252E+08
 
   -0.73724E+08         0.85847E+06         0.00000E+00
    0.85847E+06        -0.95208E+08         0.00000E+00
    0.00000E+00         0.00000E+00        -0.73034E+08
 
   -0.73519E+08         0.84199E+06         0.00000E+00
    0.84199E+06        -0.95102E+08         0.00000E+00
    0.00000E+00         0.00000E+00        -0.72827E+08
 
   -0.73318E+08         0.82416E+06         0.00000E+00
    0.82416E+06        -0.94997E+08         0.00000E+00
    0.00000E+00         0.00000E+00        -0.72629E+08
 
   -0.73120E+08         0.80542E+06         0.00000E+00
    0.80542E+06        -0.94893E+08         0.00000E+00
    0.00000E+00         0.00000E+00        -0.72439E+08
 
   -0.72925E+08         0.78609E+06         0.00000E+00
    0.78609E+06        -0.94791E+08         0.00000E+00
    0.00000E+00         0.00000E+00        -0.72258E+08
 
   -0.72735E+08         0.76648E+06         0.00000E+00
    0.76648E+06        -0.94691E+08         0.00000E+00
    0.00000E+00         0.00000E+00        -0.72084E+08
 
   -0.72549E+08         0.74683E+06         0.00000E+00
    0.74683E+06        -0.94593E+08         0.00000E+00
    0.00000E+00         0.00000E+00        -0.71917E+08
 
   -0.72367E+08         0.72732E+06         0.00000E+00
    0.72732E+06        -0.94496E+08         0.00000E+00
    0.00000E+00         0.00000E+00        -0.71756E+08
 
   -0.72189E+08         0.70813E+06         0.00000E+00
    0.70813E+06        -0.94401E+08         0.00000E+00
    0.00000E+00         0.00000E+00        -0.71602E+08
 
   -0.72015E+08         0.68939E+06         0.00000E+00
    0.68939E+06        -0.94308E+08         0.00000E+00
    0.00000E+00         0.00000E+00        -0.71453E+08
 
   -0.71846E+08         0.67121E+06         0.00000E+00
    0.67121E+06        -0.94217E+08         0.00000E+00
    0.00000E+00         0.00000E+00        -0.71310E+08
 
   -0.71680E+08         0.65366E+06         0.00000E+00
    0.65366E+06        -0.94127E+08         0.00000E+00
    0.00000E+00         0.00000E+00        -0.71171E+08
 
   -0.71518E+08         0.63683E+06         0.00000E+00
    0.63683E+06        -0.94040E+08         0.00000E+00
    0.00000E+00         0.00000E+00        -0.71037E+08
 
   -0.71359E+08         0.62076E+06         0.00000E+00
    0.62076E+06        -0.93954E+08         0.00000E+00
    0.00000E+00         0.00000E+00        -0.70907E+08
 
   -0.71205E+08         0.60550E+06         0.00000E+00
    0.60550E+06        -0.93869E+08         0.00000E+00
    0.00000E+00         0.00000E+00        -0.70781E+08
 
   -0.71053E+08         0.59107E+06         0.00000E+00
    0.59107E+06        -0.93787E+08         0.00000E+00
    0.00000E+00         0.00000E+00        -0.70659E+08
 
   -0.70905E+08         0.57751E+06         0.00000E+00
    0.57751E+06        -0.93705E+08         0.00000E+00
    0.00000E+00         0.00000E+00        -0.70540E+08
 
   -0.70759E+08         0.56482E+06         0.00000E+00
    0.56482E+06        -0.93625E+08         0.00000E+00
    0.00000E+00         0.00000E+00        -0.70424E+08
 
   -0.70617E+08         0.55302E+06         0.00000E+00
    0.55302E+06        -0.93547E+08         0.00000E+00
    0.00000E+00         0.00000E+00        -0.70310E+08
 
   -0.70476E+08         0.54211E+06         0.00000E+00
    0.54211E+06        -0.93470E+08         0.00000E+00
    0.00000E+00         0.00000E+00        -0.70199E+08
 
   -0.70339E+08         0.53209E+06         0.00000E+00
    0.53209E+06        -0.93393E+08         0.00000E+00
    0.00000E+00         0.00000E+00        -0.70090E+08
 
   -0.70203E+08         0.52296E+06         0.00000E+00
    0.52296E+06        -0.93318E+08         0.00000E+00
    0.00000E+00         0.00000E+00        -0.69983E+08
 
   -0.70069E+08         0.51472E+06         0.00000E+00
    0.51472E+06        -0.93244E+08         0.00000E+00
    0.00000E+00         0.00000E+00        -0.69878E+08
 
   -0.69937E+08         0.50736E+06         0.00000E+00
    0.50736E+06        -0.93170E+08         0.00000E+00
    0.00000E+00         0.00000E+00        -0.69774E+08
 
   -0.69807E+08         0.50086E+06         0.00000E+00
    0.50086E+06        -0.93097E+08         0.00000E+00
    0.00000E+00         0.00000E+00        -0.69672E+08
 
   -0.69677E+08         0.49523E+06         0.00000E+00
    0.49523E+06        -0.93025E+08         0.00000E+00
    0.00000E+00         0.00000E+00        -0.69570E+08
 
   -0.69549E+08         0.49043E+06         0.00000E+00
    0.49043E+06        -0.92953E+08         0.00000E+00
    0.00000E+00         0.00000E+00        -0.69469E+08
 
   -0.69421E+08         0.48647E+06         0.00000E+00
    0.48647E+06        -0.92881E+08         0.00000E+00
    0.00000E+00         0.00000E+00        -0.69368E+08
 
   -0.69295E+08         0.48332E+06         0.00000E+00
    0.48332E+06        -0.92810E+08         0.00000E+00
    0.00000E+00         0.00000E+00        -0.69268E+08
 
   -0.69168E+08         0.48096E+06         0.00000E+00
    0.48096E+06        -0.92739E+08         0.00000E+00
    0.00000E+00         0.00000E+00        -0.69168E+08
 
   -0.69042E+08         0.47939E+06         0.00000E+00
    0.47939E+06        -0.92668E+08         0.00000E+00
    0.00000E+00         0.00000E+00        -0.69067E+08
 
   -0.68915E+08         0.47856E+06         0.00000E+00
    0.47856E+06        -0.92596E+08         0.00000E+00
    0.00000E+00         0.00000E+00        -0.68967E+08
 
   -0.68789E+08         0.47847E+06         0.00000E+00
    0.47847E+06        -0.92525E+08         0.00000E+00
    0.00000E+00         0.00000E+00        -0.68865E+08
 
   -0.68661E+08         0.47909E+06         0.00000E+00
    0.47909E+06        -0.92453E+08         0.00000E+00
    0.00000E+00         0.00000E+00        -0.68763E+08
 
   -0.68534E+08         0.48038E+06         0.00000E+00
    0.48038E+06        -0.92381E+08         0.00000E+00
    0.00000E+00         0.00000E+00        -0.68659E+08
 
   -0.68405E+08         0.48232E+06         0.00000E+00
    0.48232E+06        -0.92308E+08         0.00000E+00
    0.00000E+00         0.00000E+00        -0.68554E+08
 
   -0.68275E+08         0.48487E+06         0.00000E+00
    0.48487E+06        -0.92235E+08         0.00000E+00
    0.00000E+00         0.00000E+00        -0.68448E+08
 
   -0.68144E+08         0.48800E+06         0.00000E+00
    0.48800E+06        -0.92161E+08         0.00000E+00
    0.00000E+00         0.00000E+00        -0.68339E+08
 
   -0.68012E+08         0.49166E+06         0.00000E+00
    0.49166E+06        -0.92087E+08         0.00000E+00
    0.00000E+00         0.00000E+00        -0.68229E+08
 
   -0.67878E+08         0.49581E+06         0.00000E+00
    0.49581E+06        -0.92011E+08         0.00000E+00
    0.00000E+00         0.00000E+00        -0.68116E+08
 
   -0.67743E+08         0.50038E+06         0.00000E+00
    0.50038E+06        -0.91935E+08         0.00000E+00
    0.00000E+00         0.00000E+00        -0.68000E+08
 
   -0.67605E+08         0.50532E+06         0.00000E+00
    0.50532E+06        -0.91857E+08         0.00000E+00
    0.00000E+00         0.00000E+00        -0.67882E+08
 
   -0.67465E+08         0.51057E+06         0.00000E+00
    0.51057E+06        -0.91779E+08         0.00000E+00
    0.00000E+00         0.00000E+00        -0.67760E+08
 
   -0.67324E+08         0.51603E+06         0.00000E+00
    0.51603E+06        -0.91700E+08         0.00000E+00
    0.00000E+00         0.00000E+00        -0.67635E+08
 
   -0.67180E+08         0.52161E+06         0.00000E+00
    0.52161E+06        -0.91619E+08         0.00000E+00
    0.00000E+00         0.00000E+00        -0.67506E+08
 
   -0.67033E+08         0.52722E+06         0.00000E+00
    0.52722E+06        -0.91538E+08         0.00000E+00
    0.00000E+00         0.00000E+00        -0.67373E+08
 
   -0.66884E+08         0.53273E+06         0.00000E+00
    0.53273E+06        -0.91455E+08         0.00000E+00
    0.00000E+00         0.00000E+00        -0.67235E+08
 
   -0.66733E+08         0.53801E+06         0.00000E+00
    0.53801E+06        -0.91372E+08         0.00000E+00
    0.00000E+00         0.00000E+00        -0.67092E+08
 
   -0.66579E+08         0.54290E+06         0.00000E+00
    0.54290E+06        -0.91287E+08         0.00000E+00
    0.00000E+00         0.00000E+00        -0.66945E+08
 
   -0.66422E+08         0.54721E+06         0.00000E+00
    0.54721E+06        -0.91202E+08         0.00000E+00
    0.00000E+00         0.00000E+00        -0.66791E+08
 
   -0.66263E+08         0.55074E+06         0.00000E+00
    0.55074E+06        -0.91116E+08         0.00000E+00
    0.00000E+00         0.00000E+00        -0.66632E+08
 
   -0.66101E+08         0.55325E+06         0.00000E+00
    0.55325E+06        -0.91029E+08         0.00000E+00
    0.00000E+00         0.00000E+00        -0.66466E+08
 
   -0.65937E+08         0.55447E+06         0.00000E+00
    0.55447E+06        -0.90942E+08         0.00000E+00
    0.00000E+00         0.00000E+00        -0.66294E+08
 
   -0.65771E+08         0.55409E+06         0.00000E+00
    0.55409E+06        -0.90855E+08         0.00000E+00
    0.00000E+00         0.00000E+00        -0.66114E+08
 
   -0.65603E+08         0.55175E+06         0.00000E+00
    0.55175E+06        -0.90769E+08         0.00000E+00
    0.00000E+00         0.00000E+00        -0.65926E+08
 
   -0.65433E+08         0.54707E+06         0.00000E+00
    0.54707E+06        -0.90682E+08         0.00000E+00
    0.00000E+00         0.00000E+00        -0.65731E+08
 
   -0.65262E+08         0.53959E+06         0.00000E+00
    0.53959E+06        -0.90597E+08         0.00000E+00
    0.00000E+00         0.00000E+00        -0.65526E+08
 
   -0.65090E+08         0.52883E+06         0.00000E+00
    0.52883E+06        -0.90513E+08         0.00000E+00
    0.00000E+00         0.00000E+00        -0.65312E+08
 
   -0.64917E+08         0.51425E+06         0.00000E+00
    0.51425E+06        -0.90430E+08         0.00000E+00
    0.00000E+00         0.00000E+00        -0.65088E+08
 
   -0.64744E+08         0.49528E+06         0.00000E+00
    0.49528E+06        -0.90350E+08         0.00000E+00
    0.00000E+00         0.00000E+00        -0.64853E+08
 
   -0.64572E+08         0.47132E+06         0.00000E+00
    0.47132E+06        -0.90272E+08         0.00000E+00
    0.00000E+00         0.00000E+00        -0.64608E+08
 
   -0.64401E+08         0.44176E+06         0.00000E+00
    0.44176E+06        -0.90198E+08         0.00000E+00
    0.00000E+00         0.00000E+00        -0.64350E+08
 
   -0.64231E+08         0.40602E+06         0.00000E+00
    0.40602E+06        -0.90127E+08         0.00000E+00
    0.00000E+00         0.00000E+00        -0.64080E+08
 
   -0.64064E+08         0.36361E+06         0.00000E+00
    0.36361E+06        -0.90060E+08         0.00000E+00
    0.00000E+00         0.00000E+00        -0.63796E+08
 
   -0.63900E+08         0.31416E+06         0.00000E+00
    0.31416E+06        -0.89997E+08         0.00000E+00
    0.00000E+00         0.00000E+00        -0.63497E+08
 
   -0.63740E+08         0.25757E+06         0.00000E+00
    0.25757E+06        -0.89938E+08         0.00000E+00
    0.00000E+00         0.00000E+00        -0.63183E+08
 
   -0.63583E+08         0.19413E+06         0.00000E+00
    0.19413E+06        -0.89882E+08         0.00000E+00
    0.00000E+00         0.00000E+00        -0.62852E+08
 
   -0.63430E+08         0.12470E+06         0.00000E+00
    0.12470E+06        -0.89827E+08         0.00000E+00
    0.00000E+00         0.00000E+00        -0.62503E+08
 
   -0.63279E+08         0.51051E+05         0.00000E+00
    0.51051E+05        -0.89773E+08         0.00000E+00
    0.00000E+00         0.00000E+00        -0.62135E+08
 
   -0.63130E+08        -0.23806E+05         0.00000E+00
   -0.23806E+05        -0.89717E+08         0.00000E+00
    0.00000E+00         0.00000E+00        -0.61744E+08
 
   -0.62979E+08        -0.94998E+05         0.00000E+00
   -0.94998E+05        -0.89652E+08         0.00000E+00
    0.00000E+00         0.00000E+00        -0.61330E+08
 
   -0.62822E+08        -0.15502E+06         0.00000E+00
   -0.15502E+06        -0.89574E+08         0.00000E+00
    0.00000E+00         0.00000E+00        -0.60888E+08
 
   -0.62651E+08        -0.19291E+06         0.00000E+00
   -0.19291E+06        -0.89468E+08         0.00000E+00
    0.00000E+00         0.00000E+00        -0.60411E+08
 
   -0.62456E+08        -0.19462E+06         0.00000E+00
   -0.19462E+06        -0.89316E+08         0.00000E+00
    0.00000E+00         0.00000E+00        -0.59888E+08
 
   -0.62227E+08        -0.14834E+06         0.00000E+00
   -0.14834E+06        -0.89088E+08         0.00000E+00
    0.00000E+00         0.00000E+00        -0.59296E+08
 
   -0.61957E+08        -0.56241E+05         0.00000E+00
   -0.56241E+05        -0.88744E+08         0.00000E+00
    0.00000E+00         0.00000E+00        -0.58608E+08
 
   -0.78457E+08        -0.11291E+06         0.00000E+00
   -0.11291E+06        -0.97627E+08         0.00000E+00
    0.00000E+00         0.00000E+00        -0.84727E+08
 
   -0.78022E+08        -0.30785E+06         0.00000E+00
   -0.30785E+06        -0.97268E+08         0.00000E+00
    0.00000E+00         0.00000E+00        -0.83716E+08
 
   -0.77706E+08        -0.41165E+06         0.00000E+00
   -0.41165E+06        -0.97061E+08         0.00000E+00
    0.00000E+00         0.00000E+00        -0.82801E+08
 
   -0.77471E+08        -0.41531E+06         0.00000E+00
   -0.41531E+06        -0.96949E+08         0.00000E+00
    0.00000E+00         0.00000E+00        -0.81959E+08
 
   -0.77289E+08        -0.34441E+06         0.00000E+00
   -0.34441E+06        -0.96888E+08         0.00000E+00
    0.00000E+00         0.00000E+00        -0.81175E+08
 
   -0.77138E+08        -0.22894E+06         0.00000E+00
   -0.22894E+06        -0.96848E+08         0.00000E+00
    0.00000E+00         0.00000E+00        -0.80445E+08
 
   -0.77005E+08        -0.91897E+05         0.00000E+00
   -0.91897E+05        -0.96813E+08         0.00000E+00
    0.00000E+00         0.00000E+00        -0.79765E+08
 
   -0.76879E+08         0.51068E+05         0.00000E+00
    0.51068E+05        -0.96775E+08         0.00000E+00
    0.00000E+00         0.00000E+00        -0.79133E+08
 
   -0.76752E+08         0.18975E+06         0.00000E+00
    0.18975E+06        -0.96729E+08         0.00000E+00
    0.00000E+00         0.00000E+00        -0.78548E+08
 
   -0.76619E+08         0.31789E+06         0.00000E+00
    0.31789E+06        -0.96675E+08         0.00000E+00
    0.00000E+00         0.00000E+00        -0.78006E+08
 
   -0.76478E+08         0.43202E+06         0.00000E+00
    0.43202E+06        -0.96611E+08         0.00000E+00
    0.00000E+00         0.00000E+00        -0.77503E+08
 
   -0.76325E+08         0.53064E+06         0.00000E+00
    0.53064E+06        -0.96538E+08         0.00000E+00
    0.00000E+00         0.00000E+00        -0.77036E+08
 
   -0.76162E+08         0.61356E+06         0.00000E+00
    0.61356E+06        -0.96458E+08         0.00000E+00
    0.00000E+00         0.00000E+00        -0.76601E+08
 
   -0.75988E+08         0.68142E+06         0.00000E+00
    0.68142E+06        -0.96372E+08         0.00000E+00
    0.00000E+00         0.00000E+00        -0.76195E+08
 
   -0.75804E+08         0.73535E+06         0.00000E+00
    0.73535E+06        -0.96279E+08         0.00000E+00
    0.00000E+00         0.00000E+00        -0.75815E+08
 
   -0.75612E+08         0.77676E+06         0.00000E+00
    0.77676E+06        -0.96182E+08         0.00000E+00
    0.00000E+00         0.00000E+00        -0.75459E+08
 
   -0.75413E+08         0.80713E+06         0.00000E+00
    0.80713E+06        -0.96081E+08         0.00000E+00
    0.00000E+00         0.00000E+00        -0.75125E+08
 
   -0.75209E+08         0.82794E+06         0.00000E+00
    0.82794E+06        -0.95976E+08         0.00000E+00
    0.00000E+00         0.00000E+00        -0.74809E+08
 
   -0.75001E+08         0.84060E+06         0.00000E+00
    0.84060E+06        -0.95870E+08         0.00000E+00
    0.00000E+00         0.00000E+00        -0.74511E+08
 
   -0.74791E+08         0.84639E+06         0.00000E+00
    0.84639E+06        -0.95762E+08         0.00000E+00
    0.00000E+00         0.00000E+00        -0.74230E+08
 
   -0.74579E+08         0.84648E+06         0.00000E+00
    0.84648E+06        -0.95653E+08         0.00000E+00
    0.00000E+00         0.00000E+00        -0.73964E+08
 
   -0.74367E+08         0.84191E+06         0.00000E+00
    0.84191E+06        -0.95544E+08         0.00000E+00
    0.00000E+00         0.00000E+00        -0.73711E+08
 
   -0.74155E+08         0.83356E+06         0.00000E+00
    0.83356E+06        -0.95435E+08         0.00000E+00
    0.00000E+00         0.00000E+00        -0.73471E+08
 
   -0.73945E+08         0.82221E+06         0.00000E+00
    0.82221E+06        -0.95326E+08         0.00000E+00
    0.00000E+00         0.00000E+00        -0.73242E+08
 
   -0.73737E+08         0.80852E+06         0.00000E+00
    0.80852E+06        -0.95218E+08         0.00000E+00
    0.00000E+00         0.00000E+00        -0.73025E+08
 
   -0.73532E+08         0.79307E+06         0.00000E+00
    0.79307E+06        -0.95111E+08         0.00000E+00
    0.00000E+00         0.00000E+00        -0.72817E+08
 
   -0.73330E+08         0.77633E+06         0.00000E+00
    0.77633E+06        -0.95006E+08         0.00000E+00
    0.00000E+00         0.00000E+00        -0.72619E+08
 
   -0.73131E+08         0.75869E+06         0.00000E+00
    0.75869E+06        -0.94902E+08         0.00000E+00
    0.00000E+00         0.00000E+00        -0.72430E+08
 
   -0.72936E+08         0.74050E+06         0.00000E+00
    0.74050E+06        -0.94799E+08         0.00000E+00
    0.00000E+00         0.00000E+00        -0.72249E+08
 
   -0.72746E+08         0.72202E+06         0.00000E+00
    0.72202E+06        -0.94698E+08         0.00000E+00
    0.00000E+00         0.00000E+00        -0.72075E+08
 
   -0.72559E+08         0.70350E+06         0.00000E+00
    0.70350E+06        -0.94599E+08         0.00000E+00
    0.00000E+00         0.00000E+00        -0.71909E+08
 
   -0.72376E+08         0.68511E+06         0.00000E+00
    0.68511E+06        -0.94502E+08         0.00000E+00
    0.00000E+00         0.00000E+00        -0.71748E+08
 
   -0.72198E+08         0.66702E+06         0.00000E+00
    0.66702E+06        -0.94407E+08         0.00000E+00
    0.00000E+00         0.00000E+00        -0.71594E+08
 
   -0.72024E+08         0.64935E+06         0.00000E+00
    0.64935E+06        -0.94313E+08         0.00000E+00
    0.00000E+00         0.00000E+00        -0.71446E+08
 
   -0.71853E+08         0.63221E+06         0.00000E+00
    0.63221E+06        -0.94222E+08         0.00000E+00
    0.00000E+00         0.00000E+00        -0.71303E+08
 
   -0.71687E+08         0.61567E+06         0.00000E+00
    0.61567E+06        -0.94132E+08         0.00000E+00
    0.00000E+00         0.00000E+00        -0.71165E+08
 
   -0.71524E+08         0.59979E+06         0.00000E+00
    0.59979E+06        -0.94044E+08         0.00000E+00
    0.00000E+00         0.00000E+00        -0.71031E+08
 
   -0.71366E+08         0.58464E+06         0.00000E+00
    0.58464E+06        -0.93958E+08         0.00000E+00
    0.00000E+00         0.00000E+00        -0.70902E+08
 
   -0.71210E+08         0.57025E+06         0.00000E+00
    0.57025E+06        -0.93873E+08         0.00000E+00
    0.00000E+00         0.00000E+00        -0.70776E+08
 
   -0.71058E+08         0.55665E+06         0.00000E+00
    0.55665E+06        -0.93790E+08         0.00000E+00
    0.00000E+00         0.00000E+00        -0.70654E+08
 
   -0.70909E+08         0.54386E+06         0.00000E+00
    0.54386E+06        -0.93709E+08         0.00000E+00
    0.00000E+00         0.00000E+00        -0.70535E+08
 
   -0.70763E+08         0.53189E+06         0.00000E+00
    0.53189E+06        -0.93628E+08         0.00000E+00
    0.00000E+00         0.00000E+00        -0.70420E+08
 
   -0.70620E+08         0.52076E+06         0.00000E+00
    0.52076E+06        -0.93550E+08         0.00000E+00
    0.00000E+00         0.00000E+00        -0.70306E+08
 
   -0.70480E+08         0.51047E+06         0.00000E+00
    0.51047E+06        -0.93472E+08         0.00000E+00
    0.00000E+00         0.00000E+00        -0.70196E+08
 
   -0.70342E+08         0.50103E+06         0.00000E+00
    0.50103E+06        -0.93396E+08         0.00000E+00
    0.00000E+00         0.00000E+00        -0.70087E+08
 
   -0.70205E+08         0.49242E+06         0.00000E+00
    0.49242E+06        -0.93320E+08         0.00000E+00
    0.00000E+00         0.00000E+00        -0.69981E+08
 
   -0.70071E+08         0.48465E+06         0.00000E+00
    0.48465E+06        -0.93246E+08         0.00000E+00
    0.00000E+00         0.00000E+00        -0.69876E+08
 
   -0.69939E+08         0.47770E+06         0.00000E+00
    0.47770E+06        -0.93172E+08         0.00000E+00
    0.00000E+00         0.00000E+00        -0.69772E+08
 
   -0.69808E+08         0.47157E+06         0.00000E+00
    0.47157E+06        -0.93099E+08         0.00000E+00
    0.00000E+00         0.00000E+00        -0.69670E+08
 
   -0.69678E+08         0.46625E+06         0.00000E+00
    0.46625E+06        -0.93026E+08         0.00000E+00
    0.00000E+00         0.00000E+00        -0.69568E+08
 
   -0.69549E+08         0.46173E+06         0.00000E+00
    0.46173E+06        -0.92954E+08         0.00000E+00
    0.00000E+00         0.00000E+00        -0.69467E+08
 
   -0.69421E+08         0.45799E+06         0.00000E+00
    0.45799E+06        -0.92882E+08         0.00000E+00
    0.00000E+00         0.00000E+00        -0.69367E+08
 
   -0.69294E+08         0.45501E+06         0.00000E+00
    0.45501E+06        -0.92811E+08         0.00000E+00
    0.00000E+00         0.00000E+00        -0.69267E+08
 
   -0.69167E+08         0.45278E+06         0.00000E+00
    0.45278E+06        -0.92739E+08         0.00000E+00
    0.00000E+00         0.00000E+00        -0.69167E+08
 
   -0.69040E+08         0.45128E+06         0.00000E+00
    0.45128E+06        -0.92668E+08         0.00000E+00
    0.00000E+00         0.00000E+00        -0.69067E+08
 
   -0.68913E+08         0.45050E+06         0.00000E+00
    0.45050E+06        -0.92597E+08         0.00000E+00
    0.00000E+00         0.00000E+00        -0.68966E+08
 
   -0.68786E+08         0.45040E+06         0.00000E+00
    0.45040E+06        -0.92525E+08         0.00000E+00
    0.00000E+00         0.00000E+00        -0.68865E+08
 
   -0.68659E+08         0.45097E+06         0.00000E+00
    0.45097E+06        -0.92453E+08         0.00000E+00
    0.00000E+00         0.00000E+00        -0.68763E+08
 
   -0.68531E+08         0.45217E+06         0.00000E+00
    0.45217E+06        -0.92381E+08         0.00000E+00
    0.00000E+00         0.00000E+00        -0.68659E+08
 
   -0.68402E+08         0.45399E+06         0.00000E+00
    0.45399E+06        -0.92308E+08         0.00000E+00
    0.00000E+00         0.00000E+00        -0.68555E+08
 
   -0.68272E+08         0.45638E+06         0.00000E+00
    0.45638E+06        -0.92234E+08         0.00000E+00
    0.00000E+00         0.00000E+00        -0.68448E+08
 
   -0.68140E+08         0.45931E+06         0.00000E+00
    0.45931E+06        -0.92160E+08         0.00000E+00
    0.00000E+00         0.00000E+00        -0.68340E+08
 
   -0.68008E+08         0.46275E+06         0.00000E+00
    0.46275E+06        -0.92085E+08         0.00000E+00
    0.00000E+00         0.00000E+00        -0.68230E+08
 
   -0.67873E+08         0.46664E+06         0.00000E+00
    0.46664E+06        -0.92010E+08         0.00000E+00
    0.00000E+00         0.00000E+00        -0.68117E+08
 
   -0.67737E+08         0.47093E+06         0.00000E+00
    0.47093E+06        -0.91933E+08         0.00000E+00
    0.00000E+00         0.00000E+00        -0.68002E+08
 
   -0.67599E+08         0.47557E+06         0.00000E+00
    0.47557E+06        -0.91856E+08         0.00000E+00
    0.00000E+00         0.00000E+00        -0.67883E+08
 
   -0.67459E+08         0.48049E+06         0.00000E+00
    0.48049E+06        -0.91777E+08         0.00000E+00
    0.00000E+00         0.00000E+00        -0.67762E+08
 
   -0.67317E+08         0.48562E+06         0.00000E+00
    0.48562E+06        -0.91697E+08         0.00000E+00
    0.00000E+00         0.00000E+00        -0.67637E+08
 
   -0.67172E+08         0.49086E+06         0.00000E+00
    0.49086E+06        -0.91617E+08         0.00000E+00
    0.00000E+00         0.00000E+00        -0.67508E+08
 
   -0.67025E+08         0.49612E+06         0.00000E+00
    0.49612E+06        -0.91535E+08         0.00000E+00
    0.00000E+00         0.00000E+00        -0.67375E+08
 
   -0.66876E+08         0.50129E+06         0.00000E+00
    0.50129E+06        -0.91452E+08         0.00000E+00
    0.00000E+00         0.00000E+00        -0.67237E+08
 
   -0.66724E+08         0.50623E+06         0.00000E+00
    0.50623E+06        -0.91368E+08         0.00000E+00
    0.00000E+00         0.00000E+00        -0.67095E+08
 
   -0.66570E+08         0.51080E+06         0.00000E+00
    0.51080E+06        -0.91283E+08         0.00000E+00
    0.00000E+00         0.00000E+00        -0.66947E+08
 
   -0.66413E+08         0.51483E+06         0.00000E+00
    0.51483E+06        -0.91198E+08         0.00000E+00
    0.00000E+00         0.00000E+00        -0.66793E+08
 
   -0.66253E+08         0.51810E+06         0.00000E+00
    0.51810E+06        -0.91111E+08         0.00000E+00
    0.00000E+00         0.00000E+00        -0.66634E+08
 
   -0.66091E+08         0.52041E+06         0.00000E+00
    0.52041E+06        -0.91024E+08         0.00000E+00
    0.00000E+00         0.00000E+00        -0.66468E+08
 
   -0.65927E+08         0.52148E+06         0.00000E+00
    0.52148E+06        -0.90937E+08         0.00000E+00
    0.00000E+00         0.00000E+00        -0.66296E+08
 
   -0.65760E+08         0.52103E+06         0.00000E+00
    0.52103E+06        -0.90850E+08         0.00000E+00
    0.00000E+00         0.00000E+00        -0.66116E+08
 
   -0.65592E+08         0.51870E+06         0.00000E+00
    0.51870E+06        -0.90762E+08         0.00000E+00
    0.00000E+00         0.00000E+00        -0.65928E+08
 
   -0.65422E+08         0.51413E+06         0.00000E+00
    0.51413E+06        -0.90676E+08         0.00000E+00
    0.00000E+00         0.00000E+00        -0.65732E+08
 
   -0.65251E+08         0.50689E+06         0.00000E+00
    0.50689E+06        -0.90590E+08         0.00000E+00
    0.00000E+00         0.00000E+00        -0.65527E+08
 
   -0.65079E+08         0.49649E+06         0.00000E+00
    0.49649E+06        -0.90505E+08         0.00000E+00
    0.00000E+00         0.00000E+00        -0.65312E+08
 
   -0.64906E+08         0.48242E+06         0.00000E+00
    0.48242E+06        -0.90422E+08         0.00000E+00
    0.00000E+00         0.00000E+00        -0.65088E+08
 
   -0.64734E+08         0.46413E+06         0.00000E+00
    0.46413E+06        -0.90342E+08         0.00000E+00
    0.00000E+00         0.00000E+00        -0.64853E+08
 
   -0.64562E+08         0.44102E+06         0.00000E+00
    0.44102E+06        -0.90264E+08         0.00000E+00
    0.00000E+00         0.00000E+00        -0.64606E+08
 
   -0.64392E+08         0.41250E+06         0.00000E+00
    0.41250E+06        -0.90189E+08         0.00000E+00
    0.00000E+00         0.00000E+00        -0.64347E+08
 
   -0.64224E+08         0.37799E+06         0.00000E+00
    0.37799E+06        -0.90118E+08         0.00000E+00
    0.00000E+00         0.00000E+00        -0.64076E+08
 
   -0.64059E+08         0.33700E+06         0.00000E+00
    0.33700E+06        -0.90052E+08         0.00000E+00
    0.00000E+00         0.00000E+00        -0.63790E+08
 
   -0.63898E+08         0.28916E+06         0.00000E+00
    0.28916E+06        -0.89989E+08         0.00000E+00
    0.00000E+00         0.00000E+00        -0.63490E+08
 
   -0.63741E+08         0.23434E+06         0.00000E+00
    0.23434E+06        -0.89931E+08         0.00000E+00
    0.00000E+00         0.00000E+00        -0.63174E+08
 
   -0.63588E+08         0.17276E+06         0.00000E+00
    0.17276E+06        -0.89877E+08         0.00000E+00
    0.00000E+00         0.00000E+00        -0.62841E+08
 
   -0.63440E+08         0.10524E+06         0.00000E+00
    0.10524E+06        -0.89825E+08         0.00000E+00
    0.00000E+00         0.00000E+00        -0.62490E+08
 
   -0.63297E+08         0.33408E+05         0.00000E+00
    0.33408E+05        -0.89775E+08         0.00000E+00
    0.00000E+00         0.00000E+00        -0.62120E+08
 
   -0.63155E+08        -0.39870E+05         0.00000E+00
   -0.39870E+05        -0.89723E+08         0.00000E+00
    0.00000E+00         0.00000E+00        -0.61728E+08
 
   -0.63014E+08        -0.10993E+06         0.00000E+00
   -0.10993E+06        -0.89665E+08         0.00000E+00
    0.00000E+00         0.00000E+00        -0.61312E+08
 
   -0.62868E+08        -0.16946E+06         0.00000E+00
   -0.16946E+06        -0.89595E+08         0.00000E+00
    0.00000E+00         0.00000E+00        -0.60869E+08
 
   -0.62709E+08        -0.20740E+06         0.00000E+00
   -0.20740E+06        -0.89500E+08         0.00000E+00
    0.00000E+00         0.00000E+00        -0.60393E+08
 
   -0.62525E+08        -0.20875E+06         0.00000E+00
   -0.20875E+06        -0.89360E+08         0.00000E+00
    0.00000E+00         0.00000E+00        -0.59874E+08
 
   -0.62306E+08        -0.15964E+06         0.00000E+00
   -0.15964E+06        -0.89144E+08         0.00000E+00
    0.00000E+00         0.00000E+00        -0.59287E+08
 
   -0.62042E+08        -0.60726E+05         0.00000E+00
   -0.60726E+05        -0.88809E+08         0.00000E+00
    0.00000E+00         0.00000E+00        -0.58602E+08
 
   -0.78367E+08        -0.12004E+06         0.00000E+00
   -0.12004E+06        -0.97519E+08         0.00000E+00
    0.00000E+00         0.00000E+00        -0.84753E+08
 
   -0.77935E+08        -0.32553E+06         0.00000E+00
   -0.32553E+06        -0.97173E+08         0.00000E+00
    0.00000E+00         0.00000E+00        -0.83749E+08
 
   -0.77628E+08        -0.43259E+06         0.00000E+00
   -0.43259E+06        -0.96986E+08         0.00000E+00
    0.00000E+00         0.00000E+00        -0.82840E+08
 
   -0.77404E+08        -0.43595E+06         0.00000E+00
   -0.43595E+06        -0.96895E+08         0.00000E+00
    0.00000E+00         0.00000E+00        -0.82000E+08
 
   -0.77234E+08        -0.36535E+06         0.00000E+00
   -0.36535E+06        -0.96851E+08         0.00000E+00
    0.00000E+00         0.00000E+00        -0.81215E+08
 
   -0.77095E+08        -0.25197E+06         0.00000E+00
   -0.25197E+06        -0.96825E+08         0.00000E+00
    0.00000E+00         0.00000E+00        -0.80481E+08
 
   -0.76972E+08        -0.11835E+06         0.00000E+00
   -0.11835E+06        -0.96801E+08         0.00000E+00
    0.00000E+00         0.00000E+00        -0.79796E+08
 
   -0.76856E+08         0.20559E+05         0.00000E+00
    0.20559E+05        -0.96771E+08         0.00000E+00
    0.00000E+00         0.00000E+00        -0.79159E+08
 
   -0.76737E+08         0.15509E+06         0.00000E+00
    0.15509E+06        -0.96732E+08         0.00000E+00
    0.00000E+00         0.00000E+00        -0.78569E+08
 
   -0.76611E+08         0.27929E+06         0.00000E+00
    0.27929E+06        -0.96682E+08         0.00000E+00
    0.00000E+00         0.00000E+00        -0.78021E+08
 
   -0.76475E+08         0.38990E+06         0.00000E+00
    0.38990E+06        -0.96622E+08         0.00000E+00
    0.00000E+00         0.00000E+00        -0.77514E+08
 
   -0.76328E+08         0.48548E+06         0.00000E+00
    0.48548E+06        -0.96551E+08         0.00000E+00
    0.00000E+00         0.00000E+00        -0.77043E+08
 
   -0.76168E+08         0.56587E+06         0.00000E+00
    0.56587E+06        -0.96473E+08         0.00000E+00
    0.00000E+00         0.00000E+00        -0.76604E+08
 
   -0.75997E+08         0.63169E+06         0.00000E+00
    0.63169E+06        -0.96387E+08         0.00000E+00
    0.00000E+00         0.00000E+00        -0.76195E+08
 
   -0.75816E+08         0.68405E+06         0.00000E+00
    0.68405E+06        -0.96294E+08         0.00000E+00
    0.00000E+00         0.00000E+00        -0.75813E+08
 
   -0.75625E+08         0.72432E+06         0.00000E+00
    0.72432E+06        -0.96197E+08         0.00000E+00
    0.00000E+00         0.00000E+00        -0.75455E+08
 
   -0.75428E+08         0.75394E+06         0.00000E+00
    0.75394E+06        -0.96096E+08         0.00000E+00
    0.00000E+00         0.00000E+00        -0.75118E+08
 
   -0.75224E+08         0.77434E+06         0.00000E+00
    0.77434E+06        -0.95991E+08         0.00000E+00
    0.00000E+00         0.00000E+00        -0.74802E+08
 
   -0.75016E+08         0.78689E+06         0.00000E+00
    0.78689E+06        -0.95884E+08         0.00000E+00
    0.00000E+00         0.00000E+00        -0.74503E+08
 
   -0.74806E+08         0.79283E+06         0.00000E+00
    0.79283E+06        -0.95775E+08         0.00000E+00
    0.00000E+00         0.00000E+00        -0.74221E+08
 
   -0.74594E+08         0.79330E+06         0.00000E+00
    0.79330E+06        -0.95666E+08         0.00000E+00
    0.00000E+00         0.00000E+00        -0.73954E+08
 
   -0.74381E+08         0.78928E+06         0.00000E+00
    0.78928E+06        -0.95556E+08         0.00000E+00
    0.00000E+00         0.00000E+00        -0.73701E+08
 
   -0.74169E+08         0.78164E+06         0.00000E+00
    0.78164E+06        -0.95446E+08         0.00000E+00
    0.00000E+00         0.00000E+00        -0.73461E+08
 
   -0.73959E+08         0.77113E+06         0.00000E+00
    0.77113E+06        -0.95337E+08         0.00000E+00
    0.00000E+00         0.00000E+00        -0.73233E+08
 
   -0.73750E+08         0.75838E+06         0.00000E+00
    0.75838E+06        -0.95228E+08         0.00000E+00
    0.00000E+00         0.00000E+00        -0.73015E+08
 
   -0.73545E+08         0.74394E+06         0.00000E+00
    0.74394E+06        -0.95121E+08         0.00000E+00
    0.00000E+00         0.00000E+00        -0.72808E+08
 
   -0.73342E+08         0.72826E+06         0.00000E+00
    0.72826E+06        -0.95014E+08         0.00000E+00
    0.00000E+00         0.00000E+00        -0.72610E+08
 
   -0.73143E+08         0.71173E+06         0.00000E+00
    0.71173E+06        -0.94910E+08         0.00000E+00
    0.00000E+00         0.00000E+00        -0.72421E+08
 
   -0.72948E+08         0.69466E+06         0.00000E+00
    0.69466E+06        -0.94807E+08         0.00000E+00
    0.00000E+00         0.00000E+00        -0.72240E+08
 
   -0.72756E+08         0.67732E+06         0.00000E+00
    0.67732E+06        -0.94705E+08         0.00000E+00
    0.00000E+00         0.00000E+00        -0.72067E+08
 
   -0.72569E+08         0.65994E+06         0.00000E+00
    0.65994E+06        -0.94606E+08         0.00000E+00
    0.00000E+00         0.00000E+00        -0.71901E+08
 
   -0.72386E+08         0.64267E+06         0.00000E+00
    0.64267E+06        -0.94508E+08         0.00000E+00
    0.00000E+00         0.00000E+00        -0.71741E+08
 
   -0.72207E+08         0.62569E+06         0.00000E+00
    0.62569E+06        -0.94413E+08         0.00000E+00
    0.00000E+00         0.00000E+00        -0.71587E+08
 
   -0.72032E+08         0.60909E+06         0.00000E+00
    0.60909E+06        -0.94319E+08         0.00000E+00
    0.00000E+00         0.00000E+00        -0.71439E+08
 
   -0.71861E+08         0.59299E+06         0.00000E+00
    0.59299E+06        -0.94227E+08         0.00000E+00
    0.00000E+00         0.00000E+00        -0.71297E+08
 
   -0.71694E+08         0.57746E+06         0.00000E+00
    0.57746E+06        -0.94137E+08         0.00000E+00
    0.00000E+00         0.00000E+00        -0.71159E+08
 
   -0.71531E+08         0.56255E+06         0.00000E+00
    0.56255E+06        -0.94048E+08         0.00000E+00
    0.00000E+00         0.00000E+00        -0.71026E+08
 
   -0.71372E+08         0.54832E+06         0.00000E+00
    0.54832E+06        -0.93962E+08         0.00000E+00
    0.00000E+00         0.00000E+00        -0.70897E+08
 
   -0.71216E+08         0.53481E+06         0.00000E+00
    0.53481E+06        -0.93877E+08         0.00000E+00
    0.00000E+00         0.00000E+00        -0.70771E+08
 
   -0.71063E+08         0.52203E+06         0.00000E+00
    0.52203E+06        -0.93794E+08         0.00000E+00
    0.00000E+00         0.00000E+00        -0.70650E+08
 
   -0.70914E+08         0.51002E+06         0.00000E+00
    0.51002E+06        -0.93712E+08         0.00000E+00
    0.00000E+00         0.00000E+00        -0.70531E+08
 
   -0.70768E+08         0.49879E+06         0.00000E+00
    0.49879E+06        -0.93631E+08         0.00000E+00
    0.00000E+00         0.00000E+00        -0.70416E+08
 
   -0.70624E+08         0.48834E+06         0.00000E+00
    0.48834E+06        -0.93552E+08         0.00000E+00
    0.00000E+00         0.00000E+00        -0.70303E+08
 
   -0.70483E+08         0.47867E+06         0.00000E+00
    0.47867E+06        -0.93475E+08         0.00000E+00
    0.00000E+00         0.00000E+00        -0.70192E+08
 
   -0.70344E+08         0.46980E+06         0.00000E+00
    0.46980E+06        -0.93398E+08         0.00000E+00
    0.00000E+00         0.00000E+00        -0.70084E+08
 
   -0.70208E+08         0.46172E+06         0.00000E+00
    0.46172E+06        -0.93322E+08         0.00000E+00
    0.00000E+00         0.00000E+00        -0.69978E+08
 
   -0.70073E+08         0.45442E+06         0.00000E+00
    0.45442E+06        -0.93247E+08         0.00000E+00
    0.00000E+00         0.00000E+00        -0.69873E+08
 
   -0.69940E+08         0.44789E+06         0.00000E+00
    0.44789E+06        -0.93173E+08         0.00000E+00
    0.00000E+00         0.00000E+00        -0.69770E+08
 
   -0.69809E+08         0.44214E+06         0.00000E+00
    0.44214E+06        -0.93100E+08         0.00000E+00
    0.00000E+00         0.00000E+00        -0.69668E+08
 
   -0.69679E+08         0.43714E+06         0.00000E+00
    0.43714E+06        -0.93027E+08         0.00000E+00
    0.00000E+00         0.00000E+00        -0.69566E+08
 
   -0.69550E+08         0.43289E+06         0.00000E+00
    0.43289E+06        -0.92955E+08         0.00000E+00
    0.00000E+00         0.00000E+00        -0.69466E+08
 
   -0.69421E+08         0.42937E+06         0.00000E+00
    0.42937E+06        -0.92883E+08         0.00000E+00
    0.00000E+00         0.00000E+00        -0.69366E+08
 
   -0.69294E+08         0.42656E+06         0.00000E+00
    0.42656E+06        -0.92811E+08         0.00000E+00
    0.00000E+00         0.00000E+00        -0.69266E+08
 
   -0.69166E+08         0.42446E+06         0.00000E+00
    0.42446E+06        -0.92740E+08         0.00000E+00
    0.00000E+00         0.00000E+00        -0.69166E+08
 
   -0.69039E+08         0.42305E+06         0.00000E+00
    0.42305E+06        -0.92668E+08         0.00000E+00
    0.00000E+00         0.00000E+00        -0.69066E+08
 
   -0.68912E+08         0.42230E+06         0.00000E+00
    0.42230E+06        -0.92597E+08         0.00000E+00
    0.00000E+00         0.00000E+00        -0.68966E+08
 
   -0.68784E+08         0.42220E+06         0.00000E+00
    0.42220E+06        -0.92525E+08         0.00000E+00
    0.00000E+00         0.00000E+00        -0.68865E+08
 
   -0.68656E+08         0.42272E+06         0.00000E+00
    0.42272E+06        -0.92453E+08         0.00000E+00
    0.00000E+00         0.00000E+00        -0.68763E+08
 
   -0.68528E+08         0.42384E+06         0.00000E+00
    0.42384E+06        -0.92380E+08         0.00000E+00
    0.00000E+00         0.00000E+00        -0.68660E+08
 
   -0.68398E+08         0.42554E+06         0.00000E+00
    0.42554E+06        -0.92307E+08         0.00000E+00
    0.00000E+00         0.00000E+00        -0.68555E+08
 
   -0.68268E+08         0.42777E+06         0.00000E+00
    0.42777E+06        -0.92234E+08         0.00000E+00
    0.00000E+00         0.00000E+00        -0.68449E+08
 
   -0.68136E+08         0.43051E+06         0.00000E+00
    0.43051E+06        -0.92159E+08         0.00000E+00
    0.00000E+00         0.00000E+00        -0.68341E+08
 
   -0.68003E+08         0.43372E+06         0.00000E+00
    0.43372E+06        -0.92084E+08         0.00000E+00
    0.00000E+00         0.00000E+00        -0.68231E+08
 
   -0.67868E+08         0.43736E+06         0.00000E+00
    0.43736E+06        -0.92008E+08         0.00000E+00
    0.00000E+00         0.00000E+00        -0.68118E+08
 
   -0.67732E+08         0.44137E+06         0.00000E+00
    0.44137E+06        -0.91931E+08         0.00000E+00
    0.00000E+00         0.00000E+00        -0.68003E+08
 
   -0.67593E+08         0.44571E+06         0.00000E+00
    0.44571E+06        -0.91854E+08         0.00000E+00
    0.00000E+00         0.00000E+00        -0.67885E+08
 
   -0.67453E+08         0.45031E+06         0.00000E+00
    0.45031E+06        -0.91775E+08         0.00000E+00
    0.00000E+00         0.00000E+00        -0.67764E+08
 
   -0.67310E+08         0.45510E+06         0.00000E+00
    0.45510E+06        -0.91695E+08         0.00000E+00
    0.00000E+00         0.00000E+00        -0.67639E+08
 
   -0.67165E+08         0.46001E+06         0.00000E+00
    0.46001E+06        -0.91614E+08         0.00000E+00
    0.00000E+00         0.00000E+00        -0.67510E+08
 
   -0.67018E+08         0.46493E+06         0.00000E+00
    0.46493E+06        -0.91532E+08         0.00000E+00
    0.00000E+00         0.00000E+00        -0.67377E+08
 
   -0.66868E+08         0.46975E+06         0.00000E+00
    0.46975E+06        -0.91449E+08         0.00000E+00
    0.00000E+00         0.00000E+00        -0.67239E+08
 
   -0.66716E+08         0.47437E+06         0.00000E+00
    0.47437E+06        -0.91365E+08         0.00000E+00
    0.00000E+00         0.00000E+00        -0.67097E+08
 
   -0.66561E+08         0.47863E+06         0.00000E+00
    0.47863E+06        -0.91280E+08         0.00000E+00
    0.00000E+00         0.00000E+00        -0.66949E+08
 
   -0.66403E+08         0.48237E+06         0.00000E+00
    0.48237E+06        -0.91194E+08         0.00000E+00
    0.00000E+00         0.00000E+00        -0.66796E+08
 
   -0.66244E+08         0.48541E+06         0.00000E+00
    0.48541E+06        -0.91107E+08         0.00000E+00
    0.00000E+00         0.00000E+00        -0.66636E+08
 
   -0.66081E+08         0.48752E+06         0.00000E+00
    0.48752E+06        -0.91019E+08         0.00000E+00
    0.00000E+00         0.00000E+00        -0.66471E+08
 
   -0.65917E+08         0.48846E+06         0.00000E+00
    0.48846E+06        -0.90932E+08         0.00000E+00
    0.00000E+00         0.00000E+00        -0.66298E+08
 
   -0.65750E+08         0.48795E+06         0.00000E+00
    0.48795E+06        -0.90844E+08         0.00000E+00
    0.00000E+00         0.00000E+00        -0.66118E+08
 
   -0.65581E+08         0.48567E+06         0.00000E+00
    0.48567E+06        -0.90756E+08         0.00000E+00
    0.00000E+00         0.00000E+00        -0.65930E+08
 
   -0.65411E+08         0.48124E+06         0.00000E+00
    0.48124E+06        -0.90669E+08         0.00000E+00
    0.00000E+00         0.00000E+00        -0.65733E+08
 
   -0.65240E+08         0.47426E+06         0.00000E+00
    0.47426E+06        -0.90582E+08         0.00000E+00
    0.00000E+00         0.00000E+00        -0.65528E+08
 
   -0.65067E+08         0.46427E+06         0.00000E+00
    0.46427E+06        -0.90497E+08         0.00000E+00
    0.00000E+00         0.00000E+00        -0.65313E+08
 
   -0.64895E+08         0.45078E+06         0.00000E+00
    0.45078E+06        -0.90414E+08         0.00000E+00
    0.00000E+00         0.00000E+00        -0.65088E+08
 
   -0.64723E+08         0.43323E+06         0.00000E+00
    0.43323E+06        -0.90333E+08         0.00000E+00
    0.00000E+00         0.00000E+00        -0.64852E+08
 
   -0.64552E+08         0.41106E+06         0.00000E+00
    0.41106E+06        -0.90255E+08         0.00000E+00
    0.00000E+00         0.00000E+00        -0.64605E+08
 
   -0.64383E+08         0.38368E+06         0.00000E+00
    0.38368E+06        -0.90180E+08         0.00000E+00
    0.00000E+00         0.00000E+00        -0.64345E+08
 
   -0.64217E+08         0.35053E+06         0.00000E+00
    0.35053E+06        -0.90109E+08         0.00000E+00
    0.00000E+00         0.00000E+00        -0.64072E+08
 
   -0.64053E+08         0.31111E+06         0.00000E+00
    0.31111E+06        -0.90043E+08         0.00000E+00
    0.00000E+00         0.00000E+00        -0.63785E+08
 
   -0.63895E+08         0.26505E+06         0.00000E+00
    0.26505E+06        -0.89981E+08         0.00000E+00
    0.00000E+00         0.00000E+00        -0.63484E+08
 
   -0.63741E+08         0.21217E+06         0.00000E+00
    0.21217E+06        -0.89924E+08         0.00000E+00
    0.00000E+00         0.00000E+00        -0.63166E+08
 
   -0.63593E+08         0.15268E+06         0.00000E+00
    0.15268E+06        -0.89871E+08         0.00000E+00
    0.00000E+00         0.00000E+00        -0.62831E+08
 
   -0.63450E+08         0.87294E+05         0.00000E+00
    0.87294E+05        -0.89822E+08         0.00000E+00
    0.00000E+00         0.00000E+00        -0.62478E+08
 
   -0.63313E+08         0.17518E+05         0.00000E+00
    0.17518E+05        -0.89776E+08         0.00000E+00
    0.00000E+00         0.00000E+00        -0.62105E+08
 
   -0.63180E+08        -0.53967E+05         0.00000E+00
   -0.53967E+05        -0.89729E+08         0.00000E+00
    0.00000E+00         0.00000E+00        -0.61711E+08
 
   -0.63049E+08        -0.12275E+06         0.00000E+00
   -0.12275E+06        -0.89678E+08         0.00000E+00
    0.00000E+00         0.00000E+00        -0.61294E+08
 
   -0.62914E+08        -0.18178E+06         0.00000E+00
   -0.18178E+06        -0.89616E+08         0.00000E+00
    0.00000E+00         0.00000E+00        -0.60850E+08
 
   -0.62767E+08        -0.22006E+06         0.00000E+00
   -0.22006E+06        -0.89532E+08         0.00000E+00
    0.00000E+00         0.00000E+00        -0.60376E+08
 
   -0.62597E+08        -0.22170E+06         0.00000E+00
   -0.22170E+06        -0.89406E+08         0.00000E+00
    0.00000E+00         0.00000E+00        -0.59859E+08
 
   -0.62388E+08        -0.17051E+06         0.00000E+00
   -0.17051E+06        -0.89203E+08         0.00000E+00
    0.00000E+00         0.00000E+00        -0.59278E+08
 
   -0.62130E+08        -0.65171E+05         0.00000E+00
   -0.65171E+05        -0.88876E+08         0.00000E+00
    0.00000E+00         0.00000E+00        -0.58597E+08
 
   -0.78274E+08        -0.12691E+06         0.00000E+00
   -0.12691E+06        -0.97406E+08         0.00000E+00
    0.00000E+00         0.00000E+00        -0.84779E+08
 
   -0.77846E+08        -0.34180E+06         0.00000E+00
   -0.34180E+06        -0.97075E+08         0.00000E+00
    0.00000E+00         0.00000E+00        -0.83783E+08
 
   -0.77549E+08        -0.45035E+06         0.00000E+00
   -0.45035E+06        -0.96909E+08         0.00000E+00
    0.00000E+00         0.00000E+00        -0.82879E+08
 
   -0.77338E+08        -0.45217E+06         0.00000E+00
   -0.45217E+06        -0.96840E+08         0.00000E+00
    0.00000E+00         0.00000E+00        -0.82041E+08
 
   -0.77179E+08        -0.38148E+06         0.00000E+00
   -0.38148E+06        -0.96814E+08         0.00000E+00
    0.00000E+00         0.00000E+00        -0.81255E+08
 
   -0.77052E+08        -0.27035E+06         0.00000E+00
   -0.27035E+06        -0.96803E+08         0.00000E+00
    0.00000E+00         0.00000E+00        -0.80517E+08
 
   -0.76940E+08        -0.14055E+06         0.00000E+00
   -0.14055E+06        -0.96790E+08         0.00000E+00
    0.00000E+00         0.00000E+00        -0.79827E+08
 
   -0.76833E+08        -0.61830E+04         0.00000E+00
   -0.61830E+04        -0.96768E+08         0.00000E+00
    0.00000E+00         0.00000E+00        -0.79184E+08
 
   -0.76723E+08         0.12366E+06         0.00000E+00
    0.12366E+06        -0.96735E+08         0.00000E+00
    0.00000E+00         0.00000E+00        -0.78588E+08
 
   -0.76605E+08         0.24342E+06         0.00000E+00
    0.24342E+06        -0.96690E+08         0.00000E+00
    0.00000E+00         0.00000E+00        -0.78036E+08
 
   -0.76475E+08         0.35002E+06         0.00000E+00
    0.35002E+06        -0.96632E+08         0.00000E+00
    0.00000E+00         0.00000E+00        -0.77524E+08
 
   -0.76332E+08         0.44212E+06         0.00000E+00
    0.44212E+06        -0.96564E+08         0.00000E+00
    0.00000E+00         0.00000E+00        -0.77048E+08
 
   -0.76176E+08         0.51959E+06         0.00000E+00
    0.51959E+06        -0.96487E+08         0.00000E+00
    0.00000E+00         0.00000E+00        -0.76606E+08
 
   -0.76007E+08         0.58305E+06         0.00000E+00
    0.58305E+06        -0.96402E+08         0.00000E+00
    0.00000E+00         0.00000E+00        -0.76194E+08
 
   -0.75828E+08         0.63357E+06         0.00000E+00
    0.63357E+06        -0.96310E+08         0.00000E+00
    0.00000E+00         0.00000E+00        -0.75810E+08
 
   -0.75639E+08         0.67246E+06         0.00000E+00
    0.67246E+06        -0.96212E+08         0.00000E+00
    0.00000E+00         0.00000E+00        -0.75450E+08
 
   -0.75443E+08         0.70114E+06         0.00000E+00
    0.70114E+06        -0.96111E+08         0.00000E+00
    0.00000E+00         0.00000E+00        -0.75112E+08
 
   -0.75240E+08         0.72098E+06         0.00000E+00
    0.72098E+06        -0.96005E+08         0.00000E+00
    0.00000E+00         0.00000E+00        -0.74794E+08
 
   -0.75032E+08         0.73329E+06         0.00000E+00
    0.73329E+06        -0.95898E+08         0.00000E+00
    0.00000E+00         0.00000E+00        -0.74495E+08
 
   -0.74822E+08         0.73929E+06         0.00000E+00
    0.73929E+06        -0.95789E+08         0.00000E+00
    0.00000E+00         0.00000E+00        -0.74212E+08
 
   -0.74609E+08         0.74005E+06         0.00000E+00
    0.74005E+06        -0.95679E+08         0.00000E+00
    0.00000E+00         0.00000E+00        -0.73945E+08
 
   -0.74397E+08         0.73653E+06         0.00000E+00
    0.73653E+06        -0.95568E+08         0.00000E+00
    0.00000E+00         0.00000E+00        -0.73692E+08
 
   -0.74184E+08         0.72956E+06         0.00000E+00
    0.72956E+06        -0.95457E+08         0.00000E+00
    0.00000E+00         0.00000E+00        -0.73451E+08
 
   -0.73973E+08         0.71986E+06         0.00000E+00
    0.71986E+06        -0.95347E+08         0.00000E+00
    0.00000E+00         0.00000E+00        -0.73223E+08
 
   -0.73764E+08         0.70802E+06         0.00000E+00
    0.70802E+06        -0.95238E+08         0.00000E+00
    0.00000E+00         0.00000E+00        -0.73006E+08
 
   -0.73558E+08         0.69458E+06         0.00000E+00
    0.69458E+06        -0.95130E+08         0.00000E+00
    0.00000E+00         0.00000E+00        -0.72799E+08
 
   -0.73355E+08         0.67996E+06         0.00000E+00
    0.67996E+06        -0.95023E+08         0.00000E+00
    0.00000E+00         0.00000E+00        -0.72601E+08
 
   -0.73155E+08         0.66453E+06         0.00000E+00
    0.66453E+06        -0.94918E+08         0.00000E+00
    0.00000E+00         0.00000E+00        -0.72412E+08
 
   -0.72959E+08         0.64859E+06         0.00000E+00
    0.64859E+06        -0.94814E+08         0.00000E+00
    0.00000E+00         0.00000E+00        -0.72232E+08
 
   -0.72767E+08         0.63239E+06         0.00000E+00
    0.63239E+06        -0.94713E+08         0.00000E+00
    0.00000E+00         0.00000E+00        -0.72059E+08
 
   -0.72579E+08         0.61614E+06         0.00000E+00
    0.61614E+06        -0.94613E+08         0.00000E+00
    0.00000E+00         0.00000E+00        -0.71893E+08
 
   -0.72395E+08         0.60000E+06         0.00000E+00
    0.60000E+06        -0.94515E+08         0.00000E+00
    0.00000E+00         0.00000E+00        -0.71734E+08
 
   -0.72216E+08         0.58412E+06         0.00000E+00
    0.58412E+06        -0.94418E+08         0.00000E+00
    0.00000E+00         0.00000E+00        -0.71580E+08
 
   -0.72040E+08         0.56861E+06         0.00000E+00
    0.56861E+06        -0.94324E+08         0.00000E+00
    0.00000E+00         0.00000E+00        -0.71433E+08
 
   -0.71869E+08         0.55356E+06         0.00000E+00
    0.55356E+06        -0.94232E+08         0.00000E+00
    0.00000E+00         0.00000E+00        -0.71291E+08
 
   -0.71701E+08         0.53904E+06         0.00000E+00
    0.53904E+06        -0.94141E+08         0.00000E+00
    0.00000E+00         0.00000E+00        -0.71153E+08
 
   -0.71538E+08         0.52510E+06         0.00000E+00
    0.52510E+06        -0.94053E+08         0.00000E+00
    0.00000E+00         0.00000E+00        -0.71020E+08
 
   -0.71378E+08         0.51180E+06         0.00000E+00
    0.51180E+06        -0.93966E+08         0.00000E+00
    0.00000E+00         0.00000E+00        -0.70891E+08
 
   -0.71222E+08         0.49917E+06         0.00000E+00
    0.49917E+06        -0.93881E+08         0.00000E+00
    0.00000E+00         0.00000E+00        -0.70766E+08
 
   -0.71069E+08         0.48723E+06         0.00000E+00
    0.48723E+06        -0.93797E+08         0.00000E+00
    0.00000E+00         0.00000E+00        -0.70645E+08
 
   -0.70919E+08         0.47601E+06         0.00000E+00
    0.47601E+06        -0.93715E+08         0.00000E+00
    0.00000E+00         0.00000E+00        -0.70527E+08
 
   -0.70772E+08         0.46551E+06         0.00000E+00
    0.46551E+06        -0.93635E+08         0.00000E+00
    0.00000E+00         0.00000E+00        -0.70412E+08
 
   -0.70628E+08         0.45574E+06         0.00000E+00
    0.45574E+06        -0.93555E+08         0.00000E+00
    0.00000E+00         0.00000E+00        -0.70299E+08
 
   -0.70487E+08         0.44671E+06         0.00000E+00
    0.44671E+06        -0.93477E+08         0.00000E+00
    0.00000E+00         0.00000E+00        -0.70189E+08
 
   -0.70347E+08         0.43842E+06         0.00000E+00
    0.43842E+06        -0.93400E+08         0.00000E+00
    0.00000E+00         0.00000E+00        -0.70081E+08
 
   -0.70210E+08         0.43086E+06         0.00000E+00
    0.43086E+06        -0.93324E+08         0.00000E+00
    0.00000E+00         0.00000E+00        -0.69975E+08
 
   -0.70075E+08         0.42404E+06         0.00000E+00
    0.42404E+06        -0.93249E+08         0.00000E+00
    0.00000E+00         0.00000E+00        -0.69871E+08
 
   -0.69942E+08         0.41794E+06         0.00000E+00
    0.41794E+06        -0.93175E+08         0.00000E+00
    0.00000E+00         0.00000E+00        -0.69768E+08
 
   -0.69810E+08         0.41255E+06         0.00000E+00
    0.41255E+06        -0.93102E+08         0.00000E+00
    0.00000E+00         0.00000E+00        -0.69666E+08
 
   -0.69680E+08         0.40788E+06         0.00000E+00
    0.40788E+06        -0.93029E+08         0.00000E+00
    0.00000E+00         0.00000E+00        -0.69565E+08
 
   -0.69550E+08         0.40390E+06         0.00000E+00
    0.40390E+06        -0.92956E+08         0.00000E+00
    0.00000E+00         0.00000E+00        -0.69464E+08
 
   -0.69421E+08         0.40061E+06         0.00000E+00
    0.40061E+06        -0.92884E+08         0.00000E+00
    0.00000E+00         0.00000E+00        -0.69365E+08
 
   -0.69293E+08         0.39798E+06         0.00000E+00
    0.39798E+06        -0.92812E+08         0.00000E+00
    0.00000E+00         0.00000E+00        -0.69265E+08
 
   -0.69165E+08         0.39602E+06         0.00000E+00
    0.39602E+06        -0.92740E+08         0.00000E+00
    0.00000E+00         0.00000E+00        -0.69166E+08
 
   -0.69038E+08         0.39469E+06         0.00000E+00
    0.39469E+06        -0.92669E+08         0.00000E+00
    0.00000E+00         0.00000E+00        -0.69066E+08
 
   -0.68910E+08         0.39398E+06         0.00000E+00
    0.39398E+06        -0.92597E+08         0.00000E+00
    0.00000E+00         0.00000E+00        -0.68966E+08
 
   -0.68782E+08         0.39388E+06         0.00000E+00
    0.39388E+06        -0.92525E+08         0.00000E+00
    0.00000E+00         0.00000E+00        -0.68865E+08
 
   -0.68654E+08         0.39436E+06         0.00000E+00
    0.39436E+06        -0.92452E+08         0.00000E+00
    0.00000E+00         0.00000E+00        -0.68763E+08
 
   -0.68525E+08         0.39540E+06         0.00000E+00
    0.39540E+06        -0.92380E+08         0.00000E+00
    0.00000E+00         0.00000E+00        -0.68660E+08
 
   -0.68395E+08         0.39697E+06         0.00000E+00
    0.39697E+06        -0.92306E+08         0.00000E+00
    0.00000E+00         0.00000E+00        -0.68556E+08
 
   -0.68264E+08         0.39904E+06         0.00000E+00
    0.39904E+06        -0.92233E+08         0.00000E+00
    0.00000E+00         0.00000E+00        -0.68450E+08
 
   -0.68132E+08         0.40159E+06         0.00000E+00
    0.40159E+06        -0.92158E+08         0.00000E+00
    0.00000E+00         0.00000E+00        -0.68342E+08
 
   -0.67998E+08         0.40458E+06         0.00000E+00
    0.40458E+06        -0.92083E+08         0.00000E+00
    0.00000E+00         0.00000E+00        -0.68232E+08
 
   -0.67863E+08         0.40796E+06         0.00000E+00
    0.40796E+06        -0.92007E+08         0.00000E+00
    0.00000E+00         0.00000E+00        -0.68120E+08
 
   -0.67726E+08         0.41170E+06         0.00000E+00
    0.41170E+06        -0.91930E+08         0.00000E+00
    0.00000E+00         0.00000E+00        -0.68005E+08
 
   -0.67588E+08         0.41574E+06         0.00000E+00
    0.41574E+06        -0.91852E+08         0.00000E+00
    0.00000E+00         0.00000E+00        -0.67887E+08
 
   -0.67447E+08         0.42002E+06         0.00000E+00
    0.42002E+06        -0.91773E+08         0.00000E+00
    0.00000E+00         0.00000E+00        -0.67765E+08
 
   -0.67304E+08         0.42449E+06         0.00000E+00
    0.42449E+06        -0.91692E+08         0.00000E+00
    0.00000E+00         0.00000E+00        -0.67640E+08
 
   -0.67158E+08         0.42905E+06         0.00000E+00
    0.42905E+06        -0.91611E+08         0.00000E+00
    0.00000E+00         0.00000E+00        -0.67512E+08
 
   -0.67010E+08         0.43363E+06         0.00000E+00
    0.43363E+06        -0.91529E+08         0.00000E+00
    0.00000E+00         0.00000E+00        -0.67379E+08
 
   -0.66860E+08         0.43812E+06         0.00000E+00
    0.43812E+06        -0.91445E+08         0.00000E+00
    0.00000E+00         0.00000E+00        -0.67241E+08
 
   -0.66707E+08         0.44241E+06         0.00000E+00
    0.44241E+06        -0.91361E+08         0.00000E+00
    0.00000E+00         0.00000E+00        -0.67099E+08
 
   -0.66552E+08         0.44637E+06         0.00000E+00
    0.44637E+06        -0.91276E+08         0.00000E+00
    0.00000E+00         0.00000E+00        -0.66951E+08
 
   -0.66394E+08         0.44984E+06         0.00000E+00
    0.44984E+06        -0.91189E+08         0.00000E+00
    0.00000E+00         0.00000E+00        -0.66798E+08
 
   -0.66234E+08         0.45264E+06         0.00000E+00
    0.45264E+06        -0.91102E+08         0.00000E+00
    0.00000E+00         0.00000E+00        -0.66639E+08
 
   -0.66071E+08         0.45457E+06         0.00000E+00
    0.45457E+06        -0.91014E+08         0.00000E+00
    0.00000E+00         0.00000E+00        -0.66473E+08
 
   -0.65906E+08         0.45540E+06         0.00000E+00
    0.45540E+06        -0.90926E+08         0.00000E+00
    0.00000E+00         0.00000E+00        -0.66300E+08
 
   -0.65739E+08         0.45486E+06         0.00000E+00
    0.45486E+06        -0.90838E+08         0.00000E+00
    0.00000E+00         0.00000E+00        -0.66120E+08
 
   -0.65570E+08         0.45263E+06         0.00000E+00
    0.45263E+06        -0.90750E+08         0.00000E+00
    0.00000E+00         0.00000E+00        -0.65932E+08
 
   -0.65400E+08         0.44838E+06         0.00000E+00
    0.44838E+06        -0.90662E+08         0.00000E+00
    0.00000E+00         0.00000E+00        -0.65735E+08
 
   -0.65228E+08         0.44170E+06         0.00000E+00
    0.44170E+06        -0.90575E+08         0.00000E+00
    0.00000E+00         0.00000E+00        -0.65529E+08
 
   -0.65056E+08         0.43217E+06         0.00000E+00
    0.43217E+06        -0.90489E+08         0.00000E+00
    0.00000E+00         0.00000E+00        -0.65314E+08
 
   -0.64884E+08         0.41930E+06         0.00000E+00
    0.41930E+06        -0.90405E+08         0.00000E+00
    0.00000E+00         0.00000E+00        -0.65088E+08
 
   -0.64712E+08         0.40257E+06         0.00000E+00
    0.40257E+06        -0.90324E+08         0.00000E+00
    0.00000E+00         0.00000E+00        -0.64852E+08
 
   -0.64542E+08         0.38142E+06         0.00000E+00
    0.38142E+06        -0.90246E+08         0.00000E+00
    0.00000E+00         0.00000E+00        -0.64604E+08
 
   -0.64373E+08         0.35529E+06         0.00000E+00
    0.35529E+06        -0.90171E+08         0.00000E+00
    0.00000E+00         0.00000E+00        -0.64343E+08
 
   -0.64208E+08         0.32362E+06         0.00000E+00
    0.32362E+06        -0.90100E+08         0.00000E+00
    0.00000E+00         0.00000E+00        -0.64069E+08
 
   -0.64047E+08         0.28592E+06         0.00000E+00
    0.28592E+06        -0.90034E+08         0.00000E+00
    0.00000E+00         0.00000E+00        -0.63781E+08
 
   -0.63891E+08         0.24180E+06         0.00000E+00
    0.24180E+06        -0.89973E+08         0.00000E+00
    0.00000E+00         0.00000E+00        -0.63478E+08
 
   -0.63740E+08         0.19108E+06         0.00000E+00
    0.19108E+06        -0.89917E+08         0.00000E+00
    0.00000E+00         0.00000E+00        -0.63158E+08
 
   -0.63596E+08         0.13389E+06         0.00000E+00
    0.13389E+06        -0.89866E+08         0.00000E+00
    0.00000E+00         0.00000E+00        -0.62822E+08
 
   -0.63459E+08         0.70883E+05         0.00000E+00
    0.70883E+05        -0.89819E+08         0.00000E+00
    0.00000E+00         0.00000E+00        -0.62467E+08
 
   -0.63329E+08         0.34166E+04         0.00000E+00
    0.34166E+04        -0.89776E+08         0.00000E+00
    0.00000E+00         0.00000E+00        -0.62092E+08
 
   -0.63205E+08        -0.66030E+05         0.00000E+00
   -0.66030E+05        -0.89734E+08         0.00000E+00
    0.00000E+00         0.00000E+00        -0.61695E+08
 
   -0.63083E+08        -0.13333E+06         0.00000E+00
   -0.13333E+06        -0.89690E+08         0.00000E+00
    0.00000E+00         0.00000E+00        -0.61276E+08
 
   -0.62960E+08        -0.19181E+06         0.00000E+00
   -0.19181E+06        -0.89637E+08         0.00000E+00
    0.00000E+00         0.00000E+00        -0.60832E+08
 
   -0.62827E+08        -0.23065E+06         0.00000E+00
   -0.23065E+06        -0.89564E+08         0.00000E+00
    0.00000E+00         0.00000E+00        -0.60358E+08
 
   -0.62670E+08        -0.23326E+06         0.00000E+00
   -0.23326E+06        -0.89452E+08         0.00000E+00
    0.00000E+00         0.00000E+00        -0.59844E+08
 
   -0.62473E+08        -0.18086E+06         0.00000E+00
   -0.18086E+06        -0.89264E+08         0.00000E+00
    0.00000E+00         0.00000E+00        -0.59268E+08
 
   -0.62223E+08        -0.69565E+05         0.00000E+00
   -0.69565E+05        -0.88947E+08         0.00000E+00
    0.00000E+00         0.00000E+00        -0.58592E+08
 
   -0.78179E+08        -0.13349E+06         0.00000E+00
   -0.13349E+06        -0.97287E+08         0.00000E+00
    0.00000E+00         0.00000E+00        -0.84805E+08
 
   -0.77756E+08        -0.35641E+06         0.00000E+00
   -0.35641E+06        -0.96972E+08         0.00000E+00
    0.00000E+00         0.00000E+00        -0.83817E+08
 
   -0.77470E+08        -0.46450E+06         0.00000E+00
   -0.46450E+06        -0.96831E+08         0.00000E+00
    0.00000E+00         0.00000E+00        -0.82919E+08
 
   -0.77271E+08        -0.46357E+06         0.00000E+00
   -0.46357E+06        -0.96785E+08         0.00000E+00
    0.00000E+00         0.00000E+00        -0.82082E+08
 
   -0.77125E+08        -0.39256E+06         0.00000E+00
   -0.39256E+06        -0.96778E+08         0.00000E+00
    0.00000E+00         0.00000E+00        -0.81293E+08
 
   -0.77010E+08        -0.28395E+06         0.00000E+00
   -0.28395E+06        -0.96780E+08         0.00000E+00
    0.00000E+00         0.00000E+00        -0.80551E+08
 
   -0.76910E+08        -0.15843E+06         0.00000E+00
   -0.15843E+06        -0.96779E+08         0.00000E+00
    0.00000E+00         0.00000E+00        -0.79856E+08
 
   -0.76813E+08        -0.29149E+05         0.00000E+00
   -0.29149E+05        -0.96766E+08         0.00000E+00
    0.00000E+00         0.00000E+00        -0.79208E+08
 
   -0.76711E+08         0.95466E+05         0.00000E+00
    0.95466E+05        -0.96739E+08         0.00000E+00
    0.00000E+00         0.00000E+00        -0.78607E+08
 
   -0.76600E+08         0.21025E+06         0.00000E+00
    0.21025E+06        -0.96698E+08         0.00000E+00
    0.00000E+00         0.00000E+00        -0.78049E+08
 
   -0.76475E+08         0.31234E+06         0.00000E+00
    0.31234E+06        -0.96644E+08         0.00000E+00
    0.00000E+00         0.00000E+00        -0.77533E+08
 
   -0.76337E+08         0.40053E+06         0.00000E+00
    0.40053E+06        -0.96578E+08         0.00000E+00
    0.00000E+00         0.00000E+00        -0.77053E+08
 
   -0.76185E+08         0.47469E+06         0.00000E+00
    0.47469E+06        -0.96502E+08         0.00000E+00
    0.00000E+00         0.00000E+00        -0.76608E+08
 
   -0.76019E+08         0.53545E+06         0.00000E+00
    0.53545E+06        -0.96417E+08         0.00000E+00
    0.00000E+00         0.00000E+00        -0.76193E+08
 
   -0.75842E+08         0.58384E+06         0.00000E+00
    0.58384E+06        -0.96325E+08         0.00000E+00
    0.00000E+00         0.00000E+00        -0.75806E+08
 
   -0.75655E+08         0.62114E+06         0.00000E+00
    0.62114E+06        -0.96228E+08         0.00000E+00
    0.00000E+00         0.00000E+00        -0.75444E+08
 
   -0.75459E+08         0.64868E+06         0.00000E+00
    0.64868E+06        -0.96126E+08         0.00000E+00
    0.00000E+00         0.00000E+00        -0.75105E+08
 
   -0.75256E+08         0.66780E+06         0.00000E+00
    0.66780E+06        -0.96020E+08         0.00000E+00
    0.00000E+00         0.00000E+00        -0.74786E+08
 
   -0.75049E+08         0.67977E+06         0.00000E+00
    0.67977E+06        -0.95912E+08         0.00000E+00
    0.00000E+00         0.00000E+00        -0.74486E+08
 
   -0.74838E+08         0.68573E+06         0.00000E+00
    0.68573E+06        -0.95802E+08         0.00000E+00
    0.00000E+00         0.00000E+00        -0.74203E+08
 
   -0.74626E+08         0.68672E+06         0.00000E+00
    0.68672E+06        -0.95691E+08         0.00000E+00
    0.00000E+00         0.00000E+00        -0.73935E+08
 
   -0.74412E+08         0.68365E+06         0.00000E+00
    0.68365E+06        -0.95580E+08         0.00000E+00
    0.00000E+00         0.00000E+00        -0.73682E+08
 
   -0.74200E+08         0.67731E+06         0.00000E+00
    0.67731E+06        -0.95469E+08         0.00000E+00
    0.00000E+00         0.00000E+00        -0.73442E+08
 
   -0.73988E+08         0.66838E+06         0.00000E+00
    0.66838E+06        -0.95358E+08         0.00000E+00
    0.00000E+00         0.00000E+00        -0.73214E+08
 
   -0.73778E+08         0.65745E+06         0.00000E+00
    0.65745E+06        -0.95248E+08         0.00000E+00
    0.00000E+00         0.00000E+00        -0.72996E+08
 
   -0.73571E+08         0.64499E+06         0.00000E+00
    0.64499E+06        -0.95139E+08         0.00000E+00
    0.00000E+00         0.00000E+00        -0.72790E+08
 
   -0.73368E+08         0.63142E+06         0.00000E+00
    0.63142E+06        -0.95032E+08         0.00000E+00
    0.00000E+00         0.00000E+00        -0.72592E+08
 
   -0.73167E+08         0.61709E+06         0.00000E+00
    0.61709E+06        -0.94926E+08         0.00000E+00
    0.00000E+00         0.00000E+00        -0.72404E+08
 
   -0.72971E+08         0.60227E+06         0.00000E+00
    0.60227E+06        -0.94822E+08         0.00000E+00
    0.00000E+00         0.00000E+00        -0.72224E+08
 
   -0.72778E+08         0.58721E+06         0.00000E+00
    0.58721E+06        -0.94720E+08         0.00000E+00
    0.00000E+00         0.00000E+00        -0.72051E+08
 
   -0.72589E+08         0.57210E+06         0.00000E+00
    0.57210E+06        -0.94619E+08         0.00000E+00
    0.00000E+00         0.00000E+00        -0.71886E+08
 
   -0.72405E+08         0.55710E+06         0.00000E+00
    0.55710E+06        -0.94521E+08         0.00000E+00
    0.00000E+00         0.00000E+00        -0.71727E+08
 
   -0.72225E+08         0.54233E+06         0.00000E+00
    0.54233E+06        -0.94424E+08         0.00000E+00
    0.00000E+00         0.00000E+00        -0.71574E+08
 
   -0.72049E+08         0.52791E+06         0.00000E+00
    0.52791E+06        -0.94330E+08         0.00000E+00
    0.00000E+00         0.00000E+00        -0.71426E+08
 
   -0.71877E+08         0.51391E+06         0.00000E+00
    0.51391E+06        -0.94237E+08         0.00000E+00
    0.00000E+00         0.00000E+00        -0.71284E+08
 
   -0.71709E+08         0.50041E+06         0.00000E+00
    0.50041E+06        -0.94146E+08         0.00000E+00
    0.00000E+00         0.00000E+00        -0.71147E+08
 
   -0.71545E+08         0.48746E+06         0.00000E+00
    0.48746E+06        -0.94057E+08         0.00000E+00
    0.00000E+00         0.00000E+00        -0.71015E+08
 
   -0.71384E+08         0.47509E+06         0.00000E+00
    0.47509E+06        -0.93970E+08         0.00000E+00
    0.00000E+00         0.00000E+00        -0.70886E+08
 
   -0.71227E+08         0.46335E+06         0.00000E+00
    0.46335E+06        -0.93885E+08         0.00000E+00
    0.00000E+00         0.00000E+00        -0.70762E+08
 
   -0.71074E+08         0.45225E+06         0.00000E+00
    0.45225E+06        -0.93801E+08         0.00000E+00
    0.00000E+00         0.00000E+00        -0.70641E+08
 
   -0.70924E+08         0.44181E+06         0.00000E+00
    0.44181E+06        -0.93718E+08         0.00000E+00
    0.00000E+00         0.00000E+00        -0.70523E+08
 
   -0.70776E+08         0.43205E+06         0.00000E+00
    0.43205E+06        -0.93638E+08         0.00000E+00
    0.00000E+00         0.00000E+00        -0.70408E+08
 
   -0.70632E+08         0.42297E+06         0.00000E+00
    0.42297E+06        -0.93558E+08         0.00000E+00
    0.00000E+00         0.00000E+00        -0.70296E+08
 
   -0.70490E+08         0.41458E+06         0.00000E+00
    0.41458E+06        -0.93480E+08         0.00000E+00
    0.00000E+00         0.00000E+00        -0.70186E+08
 
   -0.70350E+08         0.40687E+06         0.00000E+00
    0.40687E+06        -0.93402E+08         0.00000E+00
    0.00000E+00         0.00000E+00        -0.70078E+08
 
   -0.70213E+08         0.39985E+06         0.00000E+00
    0.39985E+06        -0.93326E+08         0.00000E+00
    0.00000E+00         0.00000E+00        -0.69972E+08
 
   -0.70077E+08         0.39350E+06         0.00000E+00
    0.39350E+06        -0.93251E+08         0.00000E+00
    0.00000E+00         0.00000E+00        -0.69868E+08
 
   -0.69944E+08         0.38783E+06         0.00000E+00
    0.38783E+06        -0.93177E+08         0.00000E+00
    0.00000E+00         0.00000E+00        -0.69765E+08
 
   -0.69811E+08         0.38283E+06         0.00000E+00
    0.38283E+06        -0.93103E+08         0.00000E+00
    0.00000E+00         0.00000E+00        -0.69664E+08
 
   -0.69680E+08         0.37848E+06         0.00000E+00
    0.37848E+06        -0.93030E+08         0.00000E+00
    0.00000E+00         0.00000E+00        -0.69563E+08
 
   -0.69550E+08         0.37478E+06         0.00000E+00
    0.37478E+06        -0.92957E+08         0.00000E+00
    0.00000E+00         0.00000E+00        -0.69463E+08
 
   -0.69421E+08         0.37172E+06         0.00000E+00
    0.37172E+06        -0.92885E+08         0.00000E+00
    0.00000E+00         0.00000E+00        -0.69364E+08
 
   -0.69293E+08         0.36927E+06         0.00000E+00
    0.36927E+06        -0.92813E+08         0.00000E+00
    0.00000E+00         0.00000E+00        -0.69264E+08
 
   -0.69165E+08         0.36744E+06         0.00000E+00
    0.36744E+06        -0.92741E+08         0.00000E+00
    0.00000E+00         0.00000E+00        -0.69165E+08
 
   -0.69037E+08         0.36620E+06         0.00000E+00
    0.36620E+06        -0.92669E+08         0.00000E+00
    0.00000E+00         0.00000E+00        -0.69065E+08
 
   -0.68908E+08         0.36554E+06         0.00000E+00
    0.36554E+06        -0.92597E+08         0.00000E+00
    0.00000E+00         0.00000E+00        -0.68965E+08
 
   -0.68780E+08         0.36543E+06         0.00000E+00
    0.36543E+06        -0.92525E+08         0.00000E+00
    0.00000E+00         0.00000E+00        -0.68865E+08
 
   -0.68651E+08         0.36587E+06         0.00000E+00
    0.36587E+06        -0.92452E+08         0.00000E+00
    0.00000E+00         0.00000E+00        -0.68763E+08
 
   -0.68522E+08         0.36683E+06         0.00000E+00
    0.36683E+06        -0.92379E+08         0.00000E+00
    0.00000E+00         0.00000E+00        -0.68660E+08
 
   -0.68392E+08         0.36828E+06         0.00000E+00
    0.36828E+06        -0.92306E+08         0.00000E+00
    0.00000E+00         0.00000E+00        -0.68556E+08
 
   -0.68260E+08         0.37019E+06         0.00000E+00
    0.37019E+06        -0.92232E+08         0.00000E+00
    0.00000E+00         0.00000E+00        -0.68451E+08
 
   -0.68128E+08         0.37255E+06         0.00000E+00
    0.37255E+06        -0.92157E+08         0.00000E+00
    0.00000E+00         0.00000E+00        -0.68343E+08
 
   -0.67994E+08         0.37532E+06         0.00000E+00
    0.37532E+06        -0.92081E+08         0.00000E+00
    0.00000E+00         0.00000E+00        -0.68233E+08
 
   -0.67858E+08         0.37845E+06         0.00000E+00
    0.37845E+06        -0.92005E+08         0.00000E+00
    0.00000E+00         0.00000E+00        -0.68121E+08
 
   -0.67721E+08         0.38191E+06         0.00000E+00
    0.38191E+06        -0.91928E+08         0.00000E+00
    0.00000E+00         0.00000E+00        -0.68006E+08
 
   -0.67582E+08         0.38566E+06         0.00000E+00
    0.38566E+06        -0.91850E+08         0.00000E+00
    0.00000E+00         0.00000E+00        -0.67888E+08
 
   -0.67440E+08         0.38963E+06         0.00000E+00
    0.38963E+06        -0.91770E+08         0.00000E+00
    0.00000E+00         0.00000E+00        -0.67767E+08
 
   -0.67297E+08         0.39376E+06         0.00000E+00
    0.39376E+06        -0.91690E+08         0.00000E+00
    0.00000E+00         0.00000E+00        -0.67642E+08
 
   -0.67151E+08         0.39799E+06         0.00000E+00
    0.39799E+06        -0.91608E+08         0.00000E+00
    0.00000E+00         0.00000E+00        -0.67514E+08
 
   -0.67003E+08         0.40223E+06         0.00000E+00
    0.40223E+06        -0.91526E+08         0.00000E+00
    0.00000E+00         0.00000E+00        -0.67381E+08
 
   -0.66852E+08         0.40639E+06         0.00000E+00
    0.40639E+06        -0.91442E+08         0.00000E+00
    0.00000E+00         0.00000E+00        -0.67243E+08
 
   -0.66699E+08         0.41036E+06         0.00000E+00
    0.41036E+06        -0.91357E+08         0.00000E+00
    0.00000E+00         0.00000E+00        -0.67101E+08
 
   -0.66543E+08         0.41402E+06         0.00000E+00
    0.41402E+06        -0.91271E+08         0.00000E+00
    0.00000E+00         0.00000E+00        -0.66954E+08
 
   -0.66385E+08         0.41722E+06         0.00000E+00
    0.41722E+06        -0.91185E+08         0.00000E+00
    0.00000E+00         0.00000E+00        -0.66800E+08
 
   -0.66224E+08         0.41980E+06         0.00000E+00
    0.41980E+06        -0.91097E+08         0.00000E+00
    0.00000E+00         0.00000E+00        -0.66641E+08
 
   -0.66061E+08         0.42156E+06         0.00000E+00
    0.42156E+06        -0.91009E+08         0.00000E+00
    0.00000E+00         0.00000E+00        -0.66475E+08
 
   -0.65895E+08         0.42229E+06         0.00000E+00
    0.42229E+06        -0.90920E+08         0.00000E+00
    0.00000E+00         0.00000E+00        -0.66302E+08
 
   -0.65728E+08         0.42173E+06         0.00000E+00
    0.42173E+06        -0.90831E+08         0.00000E+00
    0.00000E+00         0.00000E+00        -0.66122E+08
 
   -0.65559E+08         0.41958E+06         0.00000E+00
    0.41958E+06        -0.90743E+08         0.00000E+00
    0.00000E+00         0.00000E+00        -0.65934E+08
 
   -0.65388E+08         0.41553E+06         0.00000E+00
    0.41553E+06        -0.90654E+08         0.00000E+00
    0.00000E+00         0.00000E+00        -0.65737E+08
 
   -0.65216E+08         0.40920E+06         0.00000E+00
    0.40920E+06        -0.90567E+08         0.00000E+00
    0.00000E+00         0.00000E+00        -0.65531E+08
 
   -0.65044E+08         0.40017E+06         0.00000E+00
    0.40017E+06        -0.90481E+08         0.00000E+00
    0.00000E+00         0.00000E+00        -0.65315E+08
 
   -0.64872E+08         0.38797E+06         0.00000E+00
    0.38797E+06        -0.90397E+08         0.00000E+00
    0.00000E+00         0.00000E+00        -0.65089E+08
 
   -0.64700E+08         0.37212E+06         0.00000E+00
    0.37212E+06        -0.90315E+08         0.00000E+00
    0.00000E+00         0.00000E+00        -0.64852E+08
 
   -0.64531E+08         0.35208E+06         0.00000E+00
    0.35208E+06        -0.90236E+08         0.00000E+00
    0.00000E+00         0.00000E+00        -0.64603E+08
 
   -0.64363E+08         0.32730E+06         0.00000E+00
    0.32730E+06        -0.90161E+08         0.00000E+00
    0.00000E+00         0.00000E+00        -0.64341E+08
 
   -0.64199E+08         0.29723E+06         0.00000E+00
    0.29723E+06        -0.90090E+08         0.00000E+00
    0.00000E+00         0.00000E+00        -0.64066E+08
 
   -0.64040E+08         0.26140E+06         0.00000E+00
    0.26140E+06        -0.90024E+08         0.00000E+00
    0.00000E+00         0.00000E+00        -0.63777E+08
 
   -0.63886E+08         0.21940E+06         0.00000E+00
    0.21940E+06        -0.89964E+08         0.00000E+00
    0.00000E+00         0.00000E+00        -0.63472E+08
 
   -0.63739E+08         0.17104E+06         0.00000E+00
    0.17104E+06        -0.89909E+08         0.00000E+00
    0.00000E+00         0.00000E+00        -0.63151E+08
 
   -0.63599E+08         0.11640E+06         0.00000E+00
    0.11640E+06        -0.89860E+08         0.00000E+00
    0.00000E+00         0.00000E+00        -0.62813E+08
 
   -0.63468E+08         0.56019E+05         0.00000E+00
    0.56019E+05        -0.89816E+08         0.00000E+00
    0.00000E+00         0.00000E+00        -0.62455E+08
 
   -0.63344E+08        -0.88598E+04         0.00000E+00
   -0.88598E+04        -0.89777E+08         0.00000E+00
    0.00000E+00         0.00000E+00        -0.62078E+08
 
   -0.63228E+08        -0.75989E+05         0.00000E+00
   -0.75989E+05        -0.89740E+08         0.00000E+00
    0.00000E+00         0.00000E+00        -0.61680E+08
 
   -0.63118E+08        -0.14157E+06         0.00000E+00
   -0.14157E+06        -0.89702E+08         0.00000E+00
    0.00000E+00         0.00000E+00        -0.61259E+08
 
   -0.63007E+08        -0.19936E+06         0.00000E+00
   -0.19936E+06        -0.89658E+08         0.00000E+00
    0.00000E+00         0.00000E+00        -0.60813E+08
 
   -0.62888E+08        -0.23893E+06         0.00000E+00
   -0.23893E+06        -0.89597E+08         0.00000E+00
    0.00000E+00         0.00000E+00        -0.60339E+08
 
   -0.62746E+08        -0.24318E+06         0.00000E+00
   -0.24318E+06        -0.89499E+08         0.00000E+00
    0.00000E+00         0.00000E+00        -0.59828E+08
 
   -0.62562E+08        -0.19056E+06         0.00000E+00
   -0.19056E+06        -0.89327E+08         0.00000E+00
    0.00000E+00         0.00000E+00        -0.59258E+08
 
   -0.62320E+08        -0.73894E+05         0.00000E+00
   -0.73894E+05        -0.89022E+08         0.00000E+00
    0.00000E+00         0.00000E+00        -0.58587E+08
 
   -0.78080E+08        -0.13974E+06         0.00000E+00
   -0.13974E+06        -0.97163E+08         0.00000E+00
    0.00000E+00         0.00000E+00        -0.84831E+08
 
   -0.77663E+08        -0.36907E+06         0.00000E+00
   -0.36907E+06        -0.96866E+08         0.00000E+00
    0.00000E+00         0.00000E+00        -0.83851E+08
 
   -0.77389E+08        -0.47454E+06         0.00000E+00
   -0.47454E+06        -0.96751E+08         0.00000E+00
    0.00000E+00         0.00000E+00        -0.82959E+08
 
   -0.77204E+08        -0.46972E+06         0.00000E+00
   -0.46972E+06        -0.96729E+08         0.00000E+00
    0.00000E+00         0.00000E+00        -0.82123E+08
 
   -0.77072E+08        -0.39832E+06         0.00000E+00
   -0.39832E+06        -0.96741E+08         0.00000E+00
    0.00000E+00         0.00000E+00        -0.81331E+08
 
   -0.76970E+08        -0.29263E+06         0.00000E+00
   -0.29263E+06        -0.96759E+08         0.00000E+00
    0.00000E+00         0.00000E+00        -0.80584E+08
 
   -0.76880E+08        -0.17194E+06         0.00000E+00
   -0.17194E+06        -0.96768E+08         0.00000E+00
    0.00000E+00         0.00000E+00        -0.79884E+08
 
   -0.76793E+08        -0.48334E+05         0.00000E+00
   -0.48334E+05        -0.96763E+08         0.00000E+00
    0.00000E+00         0.00000E+00        -0.79231E+08
 
   -0.76700E+08         0.70470E+05         0.00000E+00
    0.70470E+05        -0.96743E+08         0.00000E+00
    0.00000E+00         0.00000E+00        -0.78624E+08
 
   -0.76596E+08         0.17973E+06         0.00000E+00
    0.17973E+06        -0.96706E+08         0.00000E+00
    0.00000E+00         0.00000E+00        -0.78061E+08
 
   -0.76478E+08         0.27682E+06         0.00000E+00
    0.27682E+06        -0.96655E+08         0.00000E+00
    0.00000E+00         0.00000E+00        -0.77540E+08
 
   -0.76344E+08         0.36064E+06         0.00000E+00
    0.36064E+06        -0.96591E+08         0.00000E+00
    0.00000E+00         0.00000E+00        -0.77057E+08
 
   -0.76196E+08         0.43111E+06         0.00000E+00
    0.43111E+06        -0.96517E+08         0.00000E+00
    0.00000E+00         0.00000E+00        -0.76609E+08
 
   -0.76033E+08         0.48884E+06         0.00000E+00
    0.48884E+06        -0.96432E+08         0.00000E+00
    0.00000E+00         0.00000E+00        -0.76191E+08
 
   -0.75857E+08         0.53483E+06         0.00000E+00
    0.53483E+06        -0.96341E+08         0.00000E+00
    0.00000E+00         0.00000E+00        -0.75802E+08
 
   -0.75671E+08         0.57029E+06         0.00000E+00
    0.57029E+06        -0.96243E+08         0.00000E+00
    0.00000E+00         0.00000E+00        -0.75439E+08
 
   -0.75476E+08         0.59652E+06         0.00000E+00
    0.59652E+06        -0.96141E+08         0.00000E+00
    0.00000E+00         0.00000E+00        -0.75098E+08
 
   -0.75274E+08         0.61479E+06         0.00000E+00
    0.61479E+06        -0.96035E+08         0.00000E+00
    0.00000E+00         0.00000E+00        -0.74778E+08
 
   -0.75067E+08         0.62629E+06         0.00000E+00
    0.62629E+06        -0.95926E+08         0.00000E+00
    0.00000E+00         0.00000E+00        -0.74477E+08
 
   -0.74856E+08         0.63212E+06         0.00000E+00
    0.63212E+06        -0.95816E+08         0.00000E+00
    0.00000E+00         0.00000E+00        -0.74194E+08
 
   -0.74643E+08         0.63327E+06         0.00000E+00
    0.63327E+06        -0.95704E+08         0.00000E+00
    0.00000E+00         0.00000E+00        -0.73926E+08
 
   -0.74429E+08         0.63060E+06         0.00000E+00
    0.63060E+06        -0.95592E+08         0.00000E+00
    0.00000E+00         0.00000E+00        -0.73673E+08
 
   -0.74215E+08         0.62486E+06         0.00000E+00
    0.62486E+06        -0.95480E+08         0.00000E+00
    0.00000E+00         0.00000E+00        -0.73432E+08
 
   -0.74003E+08         0.61669E+06         0.00000E+00
    0.61669E+06        -0.95369E+08         0.00000E+00
    0.00000E+00         0.00000E+00        -0.73204E+08
 
   -0.73793E+08         0.60663E+06         0.00000E+00
    0.60663E+06        -0.95258E+08         0.00000E+00
    0.00000E+00         0.00000E+00        -0.72987E+08
 
   -0.73585E+08         0.59514E+06         0.00000E+00
    0.59514E+06        -0.95149E+08         0.00000E+00
    0.00000E+00         0.00000E+00        -0.72781E+08
 
   -0.73381E+08         0.58262E+06         0.00000E+00
    0.58262E+06        -0.95041E+08         0.00000E+00
    0.00000E+00         0.00000E+00        -0.72584E+08
 
   -0.73180E+08         0.56939E+06         0.00000E+00
    0.56939E+06        -0.94934E+08         0.00000E+00
    0.00000E+00         0.00000E+00        -0.72396E+08
 
   -0.72982E+08         0.55570E+06         0.00000E+00
    0.55570E+06        -0.94830E+08         0.00000E+00
    0.00000E+00         0.00000E+00        -0.72216E+08
 
   -0.72789E+08         0.54178E+06         0.00000E+00
    0.54178E+06        -0.94727E+08         0.00000E+00
    0.00000E+00         0.00000E+00        -0.72044E+08
 
   -0.72600E+08         0.52782E+06         0.00000E+00
    0.52782E+06        -0.94626E+08         0.00000E+00
    0.00000E+00         0.00000E+00        -0.71878E+08
 
   -0.72415E+08         0.51395E+06         0.00000E+00
    0.51395E+06        -0.94527E+08         0.00000E+00
    0.00000E+00         0.00000E+00        -0.71720E+08
 
   -0.72234E+08         0.50031E+06         0.00000E+00
    0.50031E+06        -0.94430E+08         0.00000E+00
    0.00000E+00         0.00000E+00        -0.71567E+08
 
   -0.72057E+08         0.48698E+06         0.00000E+00
    0.48698E+06        -0.94335E+08         0.00000E+00
    0.00000E+00         0.00000E+00        -0.71420E+08
 
   -0.71885E+08         0.47405E+06         0.00000E+00
    0.47405E+06        -0.94242E+08         0.00000E+00
    0.00000E+00         0.00000E+00        -0.71279E+08
 
   -0.71716E+08         0.46157E+06         0.00000E+00
    0.46157E+06        -0.94151E+08         0.00000E+00
    0.00000E+00         0.00000E+00        -0.71142E+08
 
   -0.71552E+08         0.44961E+06         0.00000E+00
    0.44961E+06        -0.94062E+08         0.00000E+00
    0.00000E+00         0.00000E+00        -0.71010E+08
 
   -0.71391E+08         0.43818E+06         0.00000E+00
    0.43818E+06        -0.93974E+08         0.00000E+00
    0.00000E+00         0.00000E+00        -0.70882E+08
 
   -0.71233E+08         0.42733E+06         0.00000E+00
    0.42733E+06        -0.93888E+08         0.00000E+00
    0.00000E+00         0.00000E+00        -0.70757E+08
 
   -0.71079E+08         0.41708E+06         0.00000E+00
    0.41708E+06        -0.93804E+08         0.00000E+00
    0.00000E+00         0.00000E+00        -0.70637E+08
 
   -0.70929E+08         0.40744E+06         0.00000E+00
    0.40744E+06        -0.93722E+08         0.00000E+00
    0.00000E+00         0.00000E+00        -0.70519E+08
 
   -0.70781E+08         0.39843E+06         0.00000E+00
    0.39843E+06        -0.93641E+08         0.00000E+00
    0.00000E+00         0.00000E+00        -0.70404E+08
 
   -0.70636E+08         0.39004E+06         0.00000E+00
    0.39004E+06        -0.93561E+08         0.00000E+00
    0.00000E+00         0.00000E+00        -0.70293E+08
 
   -0.70493E+08         0.38229E+06         0.00000E+00
    0.38229E+06        -0.93482E+08         0.00000E+00
    0.00000E+00         0.00000E+00        -0.70183E+08
 
   -0.70353E+08         0.37517E+06         0.00000E+00
    0.37517E+06        -0.93405E+08         0.00000E+00
    0.00000E+00         0.00000E+00        -0.70076E+08
 
   -0.70216E+08         0.36868E+06         0.00000E+00
    0.36868E+06        -0.93328E+08         0.00000E+00
    0.00000E+00         0.00000E+00        -0.69970E+08
 
   -0.70080E+08         0.36282E+06         0.00000E+00
    0.36282E+06        -0.93253E+08         0.00000E+00
    0.00000E+00         0.00000E+00        -0.69866E+08
 
   -0.69945E+08         0.35759E+06         0.00000E+00
    0.35759E+06        -0.93178E+08         0.00000E+00
    0.00000E+00         0.00000E+00        -0.69764E+08
 
   -0.69813E+08         0.35296E+06         0.00000E+00
    0.35296E+06        -0.93104E+08         0.00000E+00
    0.00000E+00         0.00000E+00        -0.69662E+08
 
   -0.69681E+08         0.34894E+06         0.00000E+00
    0.34894E+06        -0.93031E+08         0.00000E+00
    0.00000E+00         0.00000E+00        -0.69562E+08
 
   -0.69551E+08         0.34552E+06         0.00000E+00
    0.34552E+06        -0.92958E+08         0.00000E+00
    0.00000E+00         0.00000E+00        -0.69462E+08
 
   -0.69421E+08         0.34269E+06         0.00000E+00
    0.34269E+06        -0.92886E+08         0.00000E+00
    0.00000E+00         0.00000E+00        -0.69363E+08
 
   -0.69292E+08         0.34043E+06         0.00000E+00
    0.34043E+06        -0.92813E+08         0.00000E+00
    0.00000E+00         0.00000E+00        -0.69263E+08
 
   -0.69164E+08         0.33873E+06         0.00000E+00
    0.33873E+06        -0.92741E+08         0.00000E+00
    0.00000E+00         0.00000E+00        -0.69164E+08
 
   -0.69035E+08         0.33758E+06         0.00000E+00
    0.33758E+06        -0.92669E+08         0.00000E+00
    0.00000E+00         0.00000E+00        -0.69065E+08
 
   -0.68907E+08         0.33697E+06         0.00000E+00
    0.33697E+06        -0.92597E+08         0.00000E+00
    0.00000E+00         0.00000E+00        -0.68965E+08
 
   -0.68778E+08         0.33686E+06         0.00000E+00
    0.33686E+06        -0.92524E+08         0.00000E+00
    0.00000E+00         0.00000E+00        -0.68865E+08
 
   -0.68649E+08         0.33726E+06         0.00000E+00
    0.33726E+06        -0.92452E+08         0.00000E+00
    0.00000E+00         0.00000E+00        -0.68763E+08
 
   -0.68519E+08         0.33814E+06         0.00000E+00
    0.33814E+06        -0.92379E+08         0.00000E+00
    0.00000E+00         0.00000E+00        -0.68661E+08
 
   -0.68389E+08         0.33947E+06         0.00000E+00
    0.33947E+06        -0.92305E+08         0.00000E+00
    0.00000E+00         0.00000E+00        -0.68557E+08
 
   -0.68257E+08         0.34123E+06         0.00000E+00
    0.34123E+06        -0.92231E+08         0.00000E+00
    0.00000E+00         0.00000E+00        -0.68451E+08
 
   -0.68124E+08         0.34340E+06         0.00000E+00
    0.34340E+06        -0.92156E+08         0.00000E+00
    0.00000E+00         0.00000E+00        -0.68344E+08
 
   -0.67990E+08         0.34594E+06         0.00000E+00
    0.34594E+06        -0.92080E+08         0.00000E+00
    0.00000E+00         0.00000E+00        -0.68234E+08
 
   -0.67854E+08         0.34883E+06         0.00000E+00
    0.34883E+06        -0.92003E+08         0.00000E+00
    0.00000E+00         0.00000E+00        -0.68122E+08
 
   -0.67716E+08         0.35202E+06         0.00000E+00
    0.35202E+06        -0.91926E+08         0.00000E+00
    0.00000E+00         0.00000E+00        -0.68007E+08
 
   -0.67576E+08         0.35546E+06         0.00000E+00
    0.35546E+06        -0.91847E+08         0.00000E+00
    0.00000E+00         0.00000E+00        -0.67890E+08
 
   -0.67434E+08         0.35912E+06         0.00000E+00
    0.35912E+06        -0.91768E+08         0.00000E+00
    0.00000E+00         0.00000E+00        -0.67769E+08
 
   -0.67290E+08         0.36293E+06         0.00000E+00
    0.36293E+06        -0.91687E+08         0.00000E+00
    0.00000E+00         0.00000E+00        -0.67644E+08
 
   -0.67144E+08         0.36682E+06         0.00000E+00
    0.36682E+06        -0.91605E+08         0.00000E+00
    0.00000E+00         0.00000E+00        -0.67516E+08
 
   -0.66995E+08         0.37073E+06         0.00000E+00
    0.37073E+06        -0.91522E+08         0.00000E+00
    0.00000E+00         0.00000E+00        -0.67383E+08
 
   -0.66844E+08         0.37456E+06         0.00000E+00
    0.37456E+06        -0.91438E+08         0.00000E+00
    0.00000E+00         0.00000E+00        -0.67246E+08
 
   -0.66691E+08         0.37821E+06         0.00000E+00
    0.37821E+06        -0.91353E+08         0.00000E+00
    0.00000E+00         0.00000E+00        -0.67103E+08
 
   -0.66534E+08         0.38158E+06         0.00000E+00
    0.38158E+06        -0.91267E+08         0.00000E+00
    0.00000E+00         0.00000E+00        -0.66956E+08
 
   -0.66376E+08         0.38452E+06         0.00000E+00
    0.38452E+06        -0.91180E+08         0.00000E+00
    0.00000E+00         0.00000E+00        -0.66803E+08
 
   -0.66214E+08         0.38688E+06         0.00000E+00
    0.38688E+06        -0.91092E+08         0.00000E+00
    0.00000E+00         0.00000E+00        -0.66643E+08
 
   -0.66051E+08         0.38848E+06         0.00000E+00
    0.38848E+06        -0.91003E+08         0.00000E+00
    0.00000E+00         0.00000E+00        -0.66478E+08
 
   -0.65885E+08         0.38912E+06         0.00000E+00
    0.38912E+06        -0.90914E+08         0.00000E+00
    0.00000E+00         0.00000E+00        -0.66305E+08
 
   -0.65717E+08         0.38855E+06         0.00000E+00
    0.38855E+06        -0.90825E+08         0.00000E+00
    0.00000E+00         0.00000E+00        -0.66124E+08
 
   -0.65547E+08         0.38651E+06         0.00000E+00
    0.38651E+06        -0.90736E+08         0.00000E+00
    0.00000E+00         0.00000E+00        -0.65936E+08
 
   -0.65376E+08         0.38269E+06         0.00000E+00
    0.38269E+06        -0.90647E+08         0.00000E+00
    0.00000E+00         0.00000E+00        -0.65739E+08
 
   -0.65204E+08         0.37673E+06         0.00000E+00
    0.37673E+06        -0.90559E+08         0.00000E+00
    0.00000E+00         0.00000E+00        -0.65532E+08
 
   -0.65032E+08         0.36824E+06         0.00000E+00
    0.36824E+06        -0.90472E+08         0.00000E+00
    0.00000E+00         0.00000E+00        -0.65316E+08
 
   -0.64860E+08         0.35678E+06         0.00000E+00
    0.35678E+06        -0.90388E+08         0.00000E+00
    0.00000E+00         0.00000E+00        -0.65090E+08
 
   -0.64688E+08         0.34188E+06         0.00000E+00
    0.34188E+06        -0.90305E+08         0.00000E+00
    0.00000E+00         0.00000E+00        -0.64852E+08
 
   -0.64519E+08         0.32302E+06         0.00000E+00
    0.32302E+06        -0.90226E+08         0.00000E+00
    0.00000E+00         0.00000E+00        -0.64603E+08
 
   -0.64352E+08         0.29969E+06         0.00000E+00
    0.29969E+06        -0.90151E+08         0.00000E+00
    0.00000E+00         0.00000E+00        -0.64340E+08
 
   -0.64190E+08         0.27136E+06         0.00000E+00
    0.27136E+06        -0.90080E+08         0.00000E+00
    0.00000E+00         0.00000E+00        -0.64064E+08
 
   -0.64032E+08         0.23754E+06         0.00000E+00
    0.23754E+06        -0.90015E+08         0.00000E+00
    0.00000E+00         0.00000E+00        -0.63774E+08
 
   -0.63880E+08         0.19784E+06         0.00000E+00
    0.19784E+06        -0.89955E+08         0.00000E+00
    0.00000E+00         0.00000E+00        -0.63468E+08
 
   -0.63736E+08         0.15204E+06         0.00000E+00
    0.15204E+06        -0.89901E+08         0.00000E+00
    0.00000E+00         0.00000E+00        -0.63145E+08
 
   -0.63601E+08         0.10018E+06         0.00000E+00
    0.10018E+06        -0.89854E+08         0.00000E+00
    0.00000E+00         0.00000E+00        -0.62804E+08
 
   -0.63475E+08         0.42711E+05         0.00000E+00
    0.42711E+05        -0.89813E+08         0.00000E+00
    0.00000E+00         0.00000E+00        -0.62445E+08
 
   -0.63358E+08        -0.19279E+05         0.00000E+00
   -0.19279E+05        -0.89777E+08         0.00000E+00
    0.00000E+00         0.00000E+00        -0.62066E+08
 
   -0.63251E+08        -0.83778E+05         0.00000E+00
   -0.83778E+05        -0.89745E+08         0.00000E+00
    0.00000E+00         0.00000E+00        -0.61665E+08
 
   -0.63151E+08        -0.14734E+06         0.00000E+00
   -0.14734E+06        -0.89714E+08         0.00000E+00
    0.00000E+00         0.00000E+00        -0.61242E+08
 
   -0.63053E+08        -0.20423E+06         0.00000E+00
   -0.20423E+06        -0.89679E+08         0.00000E+00
    0.00000E+00         0.00000E+00        -0.60794E+08
 
   -0.62949E+08        -0.24461E+06         0.00000E+00
   -0.24461E+06        -0.89629E+08         0.00000E+00
    0.00000E+00         0.00000E+00        -0.60320E+08
 
   -0.62823E+08        -0.25116E+06         0.00000E+00
   -0.25116E+06        -0.89547E+08         0.00000E+00
    0.00000E+00         0.00000E+00        -0.59811E+08
 
   -0.62654E+08        -0.19946E+06         0.00000E+00
   -0.19946E+06        -0.89392E+08         0.00000E+00
    0.00000E+00         0.00000E+00        -0.59247E+08
 
   -0.62422E+08        -0.78137E+05         0.00000E+00
   -0.78137E+05        -0.89100E+08         0.00000E+00
    0.00000E+00         0.00000E+00        -0.58582E+08
 
   -0.77977E+08        -0.14558E+06         0.00000E+00
   -0.14558E+06        -0.97032E+08         0.00000E+00
    0.00000E+00         0.00000E+00        -0.84858E+08
 
   -0.77568E+08        -0.37938E+06         0.00000E+00
   -0.37938E+06        -0.96757E+08         0.00000E+00
    0.00000E+00         0.00000E+00        -0.83886E+08
 
   -0.77308E+08        -0.47986E+06         0.00000E+00
   -0.47986E+06        -0.96670E+08         0.00000E+00
    0.00000E+00         0.00000E+00        -0.82999E+08
 
   -0.77138E+08        -0.47015E+06         0.00000E+00
   -0.47015E+06        -0.96673E+08         0.00000E+00
    0.00000E+00         0.00000E+00        -0.82163E+08
 
   -0.77020E+08        -0.39851E+06         0.00000E+00
   -0.39851E+06        -0.96705E+08         0.00000E+00
    0.00000E+00         0.00000E+00        -0.81369E+08
 
   -0.76930E+08        -0.29627E+06         0.00000E+00
   -0.29627E+06        -0.96737E+08         0.00000E+00
    0.00000E+00         0.00000E+00        -0.80616E+08
 
   -0.76853E+08        -0.18104E+06         0.00000E+00
   -0.18104E+06        -0.96758E+08         0.00000E+00
    0.00000E+00         0.00000E+00        -0.79910E+08
 
   -0.76776E+08        -0.63737E+05         0.00000E+00
   -0.63737E+05        -0.96762E+08         0.00000E+00
    0.00000E+00         0.00000E+00        -0.79252E+08
 
   -0.76692E+08         0.48647E+05         0.00000E+00
    0.48647E+05        -0.96747E+08         0.00000E+00
    0.00000E+00         0.00000E+00        -0.78640E+08
 
   -0.76595E+08         0.15182E+06         0.00000E+00
    0.15182E+06        -0.96715E+08         0.00000E+00
    0.00000E+00         0.00000E+00        -0.78072E+08
 
   -0.76482E+08         0.24340E+06         0.00000E+00
    0.24340E+06        -0.96667E+08         0.00000E+00
    0.00000E+00         0.00000E+00        -0.77547E+08
 
   -0.76353E+08         0.32240E+06         0.00000E+00
    0.32240E+06        -0.96605E+08         0.00000E+00
    0.00000E+00         0.00000E+00        -0.77060E+08
 
   -0.76208E+08         0.38879E+06         0.00000E+00
    0.38879E+06        -0.96532E+08         0.00000E+00
    0.00000E+00         0.00000E+00        -0.76608E+08
 
   -0.76048E+08         0.44316E+06         0.00000E+00
    0.44316E+06        -0.96448E+08         0.00000E+00
    0.00000E+00         0.00000E+00        -0.76189E+08
 
   -0.75874E+08         0.48647E+06         0.00000E+00
    0.48647E+06        -0.96357E+08         0.00000E+00
    0.00000E+00         0.00000E+00        -0.75797E+08
 
   -0.75689E+08         0.51989E+06         0.00000E+00
    0.51989E+06        -0.96259E+08         0.00000E+00
    0.00000E+00         0.00000E+00        -0.75432E+08
 
   -0.75494E+08         0.54462E+06         0.00000E+00
    0.54462E+06        -0.96156E+08         0.00000E+00
    0.00000E+00         0.00000E+00        -0.75090E+08
 
   -0.75292E+08         0.56189E+06         0.00000E+00
    0.56189E+06        -0.96050E+08         0.00000E+00
    0.00000E+00         0.00000E+00        -0.74770E+08
 
   -0.75085E+08         0.57281E+06         0.00000E+00
    0.57281E+06        -0.95940E+08         0.00000E+00
    0.00000E+00         0.00000E+00        -0.74469E+08
 
   -0.74874E+08         0.57844E+06         0.00000E+00
    0.57844E+06        -0.95829E+08         0.00000E+00
    0.00000E+00         0.00000E+00        -0.74185E+08
 
   -0.74660E+08         0.57969E+06         0.00000E+00
    0.57969E+06        -0.95717E+08         0.00000E+00
    0.00000E+00         0.00000E+00        -0.73917E+08
 
   -0.74446E+08         0.57737E+06         0.00000E+00
    0.57737E+06        -0.95604E+08         0.00000E+00
    0.00000E+00         0.00000E+00        -0.73663E+08
 
   -0.74232E+08         0.57219E+06         0.00000E+00
    0.57219E+06        -0.95491E+08         0.00000E+00
    0.00000E+00         0.00000E+00        -0.73423E+08
 
   -0.74019E+08         0.56475E+06         0.00000E+00
    0.56475E+06        -0.95379E+08         0.00000E+00
    0.00000E+00         0.00000E+00        -0.73195E+08
 
   -0.73808E+08         0.55556E+06         0.00000E+00
    0.55556E+06        -0.95268E+08         0.00000E+00
    0.00000E+00         0.00000E+00        -0.72978E+08
 
   -0.73600E+08         0.54504E+06         0.00000E+00
    0.54504E+06        -0.95158E+08         0.00000E+00
    0.00000E+00         0.00000E+00        -0.72772E+08
 
   -0.73394E+08         0.53357E+06         0.00000E+00
    0.53357E+06        -0.95050E+08         0.00000E+00
    0.00000E+00         0.00000E+00        -0.72575E+08
 
   -0.73192E+08         0.52143E+06         0.00000E+00
    0.52143E+06        -0.94943E+08         0.00000E+00
    0.00000E+00         0.00000E+00        -0.72388E+08
 
   -0.72994E+08         0.50887E+06         0.00000E+00
    0.50887E+06        -0.94837E+08         0.00000E+00
    0.00000E+00         0.00000E+00        -0.72208E+08
 
   -0.72800E+08         0.49611E+06         0.00000E+00
    0.49611E+06        -0.94734E+08         0.00000E+00
    0.00000E+00         0.00000E+00        -0.72036E+08
 
   -0.72611E+08         0.48329E+06         0.00000E+00
    0.48329E+06        -0.94633E+08         0.00000E+00
    0.00000E+00         0.00000E+00        -0.71871E+08
 
   -0.72425E+08         0.47057E+06         0.00000E+00
    0.47057E+06        -0.94533E+08         0.00000E+00
    0.00000E+00         0.00000E+00        -0.71713E+08
 
   -0.72243E+08         0.45806E+06         0.00000E+00
    0.45806E+06        -0.94436E+08         0.00000E+00
    0.00000E+00         0.00000E+00        -0.71561E+08
 
   -0.72066E+08         0.44583E+06         0.00000E+00
    0.44583E+06        -0.94341E+08         0.00000E+00
    0.00000E+00         0.00000E+00        -0.71414E+08
 
   -0.71893E+08         0.43397E+06         0.00000E+00
    0.43397E+06        -0.94247E+08         0.00000E+00
    0.00000E+00         0.00000E+00        -0.71273E+08
 
   -0.71724E+08         0.42253E+06         0.00000E+00
    0.42253E+06        -0.94156E+08         0.00000E+00
    0.00000E+00         0.00000E+00        -0.71137E+08
 
   -0.71559E+08         0.41155E+06         0.00000E+00
    0.41155E+06        -0.94066E+08         0.00000E+00
    0.00000E+00         0.00000E+00        -0.71005E+08
 
   -0.71397E+08         0.40108E+06         0.00000E+00
    0.40108E+06        -0.93978E+08         0.00000E+00
    0.00000E+00         0.00000E+00        -0.70877E+08
 
   -0.71239E+08         0.39113E+06         0.00000E+00
    0.39113E+06        -0.93892E+08         0.00000E+00
    0.00000E+00         0.00000E+00        -0.70753E+08
 
   -0.71085E+08         0.38173E+06         0.00000E+00
    0.38173E+06        -0.93808E+08         0.00000E+00
    0.00000E+00         0.00000E+00        -0.70633E+08
 
   -0.70933E+08         0.37290E+06         0.00000E+00
    0.37290E+06        -0.93725E+08         0.00000E+00
    0.00000E+00         0.00000E+00        -0.70515E+08
 
   -0.70785E+08         0.36463E+06         0.00000E+00
    0.36463E+06        -0.93643E+08         0.00000E+00
    0.00000E+00         0.00000E+00        -0.70401E+08
 
   -0.70640E+08         0.35695E+06         0.00000E+00
    0.35695E+06        -0.93563E+08         0.00000E+00
    0.00000E+00         0.00000E+00        -0.70289E+08
 
   -0.70497E+08         0.34984E+06         0.00000E+00
    0.34984E+06        -0.93485E+08         0.00000E+00
    0.00000E+00         0.00000E+00        -0.70180E+08
 
   -0.70356E+08         0.34332E+06         0.00000E+00
    0.34332E+06        -0.93407E+08         0.00000E+00
    0.00000E+00         0.00000E+00        -0.70073E+08
 
   -0.70218E+08         0.33737E+06         0.00000E+00
    0.33737E+06        -0.93330E+08         0.00000E+00
    0.00000E+00         0.00000E+00        -0.69968E+08
 
   -0.70082E+08         0.33200E+06         0.00000E+00
    0.33200E+06        -0.93255E+08         0.00000E+00
    0.00000E+00         0.00000E+00        -0.69864E+08
 
   -0.69947E+08         0.32719E+06         0.00000E+00
    0.32719E+06        -0.93180E+08         0.00000E+00
    0.00000E+00         0.00000E+00        -0.69762E+08
 
   -0.69814E+08         0.32296E+06         0.00000E+00
    0.32296E+06        -0.93106E+08         0.00000E+00
    0.00000E+00         0.00000E+00        -0.69661E+08
 
   -0.69682E+08         0.31927E+06         0.00000E+00
    0.31927E+06        -0.93032E+08         0.00000E+00
    0.00000E+00         0.00000E+00        -0.69560E+08
 
   -0.69551E+08         0.31614E+06         0.00000E+00
    0.31614E+06        -0.92959E+08         0.00000E+00
    0.00000E+00         0.00000E+00        -0.69461E+08
 
   -0.69421E+08         0.31354E+06         0.00000E+00
    0.31354E+06        -0.92886E+08         0.00000E+00
    0.00000E+00         0.00000E+00        -0.69362E+08
 
   -0.69292E+08         0.31146E+06         0.00000E+00
    0.31146E+06        -0.92814E+08         0.00000E+00
    0.00000E+00         0.00000E+00        -0.69263E+08
 
   -0.69163E+08         0.30990E+06         0.00000E+00
    0.30990E+06        -0.92741E+08         0.00000E+00
    0.00000E+00         0.00000E+00        -0.69164E+08
 
   -0.69034E+08         0.30884E+06         0.00000E+00
    0.30884E+06        -0.92669E+08         0.00000E+00
    0.00000E+00         0.00000E+00        -0.69065E+08
 
   -0.68905E+08         0.30827E+06         0.00000E+00
    0.30827E+06        -0.92597E+08         0.00000E+00
    0.00000E+00         0.00000E+00        -0.68965E+08
 
   -0.68776E+08         0.30818E+06         0.00000E+00
    0.30818E+06        -0.92524E+08         0.00000E+00
    0.00000E+00         0.00000E+00        -0.68865E+08
 
   -0.68647E+08         0.30853E+06         0.00000E+00
    0.30853E+06        -0.92451E+08         0.00000E+00
    0.00000E+00         0.00000E+00        -0.68764E+08
 
   -0.68517E+08         0.30933E+06         0.00000E+00
    0.30933E+06        -0.92378E+08         0.00000E+00
    0.00000E+00         0.00000E+00        -0.68661E+08
 
   -0.68385E+08         0.31054E+06         0.00000E+00
    0.31054E+06        -0.92304E+08         0.00000E+00
    0.00000E+00         0.00000E+00        -0.68558E+08
 
   -0.68253E+08         0.31215E+06         0.00000E+00
    0.31215E+06        -0.92230E+08         0.00000E+00
    0.00000E+00         0.00000E+00        -0.68452E+08
 
   -0.68120E+08         0.31413E+06         0.00000E+00
    0.31413E+06        -0.92154E+08         0.00000E+00
    0.00000E+00         0.00000E+00        -0.68345E+08
 
   -0.67985E+08         0.31646E+06         0.00000E+00
    0.31646E+06        -0.92078E+08         0.00000E+00
    0.00000E+00         0.00000E+00        -0.68235E+08
 
   -0.67849E+08         0.31909E+06         0.00000E+00
    0.31909E+06        -0.92002E+08         0.00000E+00
    0.00000E+00         0.00000E+00        -0.68123E+08
 
   -0.67711E+08         0.32201E+06         0.00000E+00
    0.32201E+06        -0.91924E+08         0.00000E+00
    0.00000E+00         0.00000E+00        -0.68009E+08
 
   -0.67570E+08         0.32516E+06         0.00000E+00
    0.32516E+06        -0.91845E+08         0.00000E+00
    0.00000E+00         0.00000E+00        -0.67891E+08
 
   -0.67428E+08         0.32850E+06         0.00000E+00
    0.32850E+06        -0.91765E+08         0.00000E+00
    0.00000E+00         0.00000E+00        -0.67770E+08
 
   -0.67284E+08         0.33198E+06         0.00000E+00
    0.33198E+06        -0.91684E+08         0.00000E+00
    0.00000E+00         0.00000E+00        -0.67646E+08
 
   -0.67137E+08         0.33555E+06         0.00000E+00
    0.33555E+06        -0.91602E+08         0.00000E+00
    0.00000E+00         0.00000E+00        -0.67518E+08
 
   -0.66988E+08         0.33912E+06         0.00000E+00
    0.33912E+06        -0.91519E+08         0.00000E+00
    0.00000E+00         0.00000E+00        -0.67385E+08
 
   -0.66836E+08         0.34262E+06         0.00000E+00
    0.34262E+06        -0.91435E+08         0.00000E+00
    0.00000E+00         0.00000E+00        -0.67248E+08
 
   -0.66682E+08         0.34596E+06         0.00000E+00
    0.34596E+06        -0.91349E+08         0.00000E+00
    0.00000E+00         0.00000E+00        -0.67106E+08
 
   -0.66525E+08         0.34904E+06         0.00000E+00
    0.34904E+06        -0.91263E+08         0.00000E+00
    0.00000E+00         0.00000E+00        -0.66958E+08
 
   -0.66366E+08         0.35172E+06         0.00000E+00
    0.35172E+06        -0.91175E+08         0.00000E+00
    0.00000E+00         0.00000E+00        -0.66805E+08
 
   -0.66204E+08         0.35387E+06         0.00000E+00
    0.35387E+06        -0.91087E+08         0.00000E+00
    0.00000E+00         0.00000E+00        -0.66646E+08
 
   -0.66040E+08         0.35532E+06         0.00000E+00
    0.35532E+06        -0.90998E+08         0.00000E+00
    0.00000E+00         0.00000E+00        -0.66480E+08
 
   -0.65874E+08         0.35588E+06         0.00000E+00
    0.35588E+06        -0.90908E+08         0.00000E+00
    0.00000E+00         0.00000E+00        -0.66307E+08
 
   -0.65706E+08         0.35532E+06         0.00000E+00
    0.35532E+06        -0.90818E+08         0.00000E+00
    0.00000E+00         0.00000E+00        -0.66127E+08
 
   -0.65535E+08         0.35341E+06         0.00000E+00
    0.35341E+06        -0.90729E+08         0.00000E+00
    0.00000E+00         0.00000E+00        -0.65938E+08
 
   -0.65364E+08         0.34983E+06         0.00000E+00
    0.34983E+06        -0.90639E+08         0.00000E+00
    0.00000E+00         0.00000E+00        -0.65741E+08
 
   -0.65192E+08         0.34428E+06         0.00000E+00
    0.34428E+06        -0.90551E+08         0.00000E+00
    0.00000E+00         0.00000E+00        -0.65534E+08
 
   -0.65019E+08         0.33637E+06         0.00000E+00
    0.33637E+06        -0.90464E+08         0.00000E+00
    0.00000E+00         0.00000E+00        -0.65318E+08
 
   -0.64847E+08         0.32569E+06         0.00000E+00
    0.32569E+06        -0.90378E+08         0.00000E+00
    0.00000E+00         0.00000E+00        -0.65091E+08
 
   -0.64676E+08         0.31180E+06         0.00000E+00
    0.31180E+06        -0.90296E+08         0.00000E+00
    0.00000E+00         0.00000E+00        -0.64853E+08
 
   -0.64507E+08         0.29422E+06         0.00000E+00
    0.29422E+06        -0.90216E+08         0.00000E+00
    0.00000E+00         0.00000E+00        -0.64603E+08
 
   -0.64341E+08         0.27244E+06         0.00000E+00
    0.27244E+06        -0.90141E+08         0.00000E+00
    0.00000E+00         0.00000E+00        -0.64340E+08
 
   -0.64179E+08         0.24596E+06         0.00000E+00
    0.24596E+06        -0.90070E+08         0.00000E+00
    0.00000E+00         0.00000E+00        -0.64063E+08
 
   -0.64023E+08         0.21430E+06         0.00000E+00
    0.21430E+06        -0.90005E+08         0.00000E+00
    0.00000E+00         0.00000E+00        -0.63771E+08
 
   -0.63874E+08         0.17709E+06         0.00000E+00
    0.17709E+06        -0.89945E+08         0.00000E+00
    0.00000E+00         0.00000E+00        -0.63463E+08
 
   -0.63733E+08         0.13407E+06         0.00000E+00
    0.13407E+06        -0.89893E+08         0.00000E+00
    0.00000E+00         0.00000E+00        -0.63139E+08
 
   -0.63602E+08         0.85237E+05         0.00000E+00
    0.85237E+05        -0.89847E+08         0.00000E+00
    0.00000E+00         0.00000E+00        -0.62797E+08
 
   -0.63481E+08         0.30966E+05         0.00000E+00
    0.30966E+05        -0.89809E+08         0.00000E+00
    0.00000E+00         0.00000E+00        -0.62435E+08
 
   -0.63372E+08        -0.27813E+05         0.00000E+00
   -0.27813E+05        -0.89777E+08         0.00000E+00
    0.00000E+00         0.00000E+00        -0.62054E+08
 
   -0.63273E+08        -0.89331E+05         0.00000E+00
   -0.89331E+05        -0.89750E+08         0.00000E+00
    0.00000E+00         0.00000E+00        -0.61651E+08
 
   -0.63184E+08        -0.15052E+06         0.00000E+00
   -0.15052E+06        -0.89726E+08         0.00000E+00
    0.00000E+00         0.00000E+00        -0.61225E+08
 
   -0.63100E+08        -0.20621E+06         0.00000E+00
   -0.20621E+06        -0.89699E+08         0.00000E+00
    0.00000E+00         0.00000E+00        -0.60775E+08
 
   -0.63011E+08        -0.24734E+06         0.00000E+00
   -0.24734E+06        -0.89662E+08         0.00000E+00
    0.00000E+00         0.00000E+00        -0.60300E+08
 
   -0.62904E+08        -0.25681E+06         0.00000E+00
   -0.25681E+06        -0.89596E+08         0.00000E+00
    0.00000E+00         0.00000E+00        -0.59794E+08
 
   -0.62751E+08        -0.20732E+06         0.00000E+00
   -0.20732E+06        -0.89460E+08         0.00000E+00
    0.00000E+00         0.00000E+00        -0.59235E+08
 
   -0.62529E+08        -0.82265E+05         0.00000E+00
   -0.82265E+05        -0.89181E+08         0.00000E+00
    0.00000E+00         0.00000E+00        -0.58577E+08
 
   -0.77871E+08        -0.15093E+06         0.00000E+00
   -0.15093E+06        -0.96894E+08         0.00000E+00
    0.00000E+00         0.00000E+00        -0.84885E+08
 
   -0.77471E+08        -0.38682E+06         0.00000E+00
   -0.38682E+06        -0.96643E+08         0.00000E+00
    0.00000E+00         0.00000E+00        -0.83922E+08
 
   -0.77226E+08        -0.47973E+06         0.00000E+00
   -0.47973E+06        -0.96588E+08         0.00000E+00
    0.00000E+00         0.00000E+00        -0.83040E+08
 
   -0.77072E+08        -0.46434E+06         0.00000E+00
   -0.46434E+06        -0.96618E+08         0.00000E+00
    0.00000E+00         0.00000E+00        -0.82204E+08
 
   -0.76968E+08        -0.39286E+06         0.00000E+00
   -0.39286E+06        -0.96669E+08         0.00000E+00
    0.00000E+00         0.00000E+00        -0.81405E+08
 
   -0.76892E+08        -0.29475E+06         0.00000E+00
   -0.29475E+06        -0.96717E+08         0.00000E+00
    0.00000E+00         0.00000E+00        -0.80647E+08
 
   -0.76827E+08        -0.18568E+06         0.00000E+00
   -0.18568E+06        -0.96748E+08         0.00000E+00
    0.00000E+00         0.00000E+00        -0.79936E+08
 
   -0.76760E+08        -0.75365E+05         0.00000E+00
   -0.75365E+05        -0.96760E+08         0.00000E+00
    0.00000E+00         0.00000E+00        -0.79271E+08
 
   -0.76685E+08         0.29962E+05         0.00000E+00
    0.29962E+05        -0.96752E+08         0.00000E+00
    0.00000E+00         0.00000E+00        -0.78654E+08
 
   -0.76595E+08         0.12646E+06         0.00000E+00
    0.12646E+06        -0.96724E+08         0.00000E+00
    0.00000E+00         0.00000E+00        -0.78082E+08
 
   -0.76488E+08         0.21201E+06         0.00000E+00
    0.21201E+06        -0.96679E+08         0.00000E+00
    0.00000E+00         0.00000E+00        -0.77552E+08
 
   -0.76364E+08         0.28574E+06         0.00000E+00
    0.28574E+06        -0.96619E+08         0.00000E+00
    0.00000E+00         0.00000E+00        -0.77062E+08
 
   -0.76222E+08         0.34766E+06         0.00000E+00
    0.34766E+06        -0.96547E+08         0.00000E+00
    0.00000E+00         0.00000E+00        -0.76607E+08
 
   -0.76064E+08         0.39834E+06         0.00000E+00
    0.39834E+06        -0.96464E+08         0.00000E+00
    0.00000E+00         0.00000E+00        -0.76185E+08
 
   -0.75892E+08         0.43871E+06         0.00000E+00
    0.43871E+06        -0.96373E+08         0.00000E+00
    0.00000E+00         0.00000E+00        -0.75792E+08
 
   -0.75708E+08         0.46985E+06         0.00000E+00
    0.46985E+06        -0.96275E+08         0.00000E+00
    0.00000E+00         0.00000E+00        -0.75425E+08
 
   -0.75514E+08         0.49292E+06         0.00000E+00
    0.49292E+06        -0.96172E+08         0.00000E+00
    0.00000E+00         0.00000E+00        -0.75083E+08
 
   -0.75312E+08         0.50905E+06         0.00000E+00
    0.50905E+06        -0.96064E+08         0.00000E+00
    0.00000E+00         0.00000E+00        -0.74761E+08
 
   -0.75104E+08         0.51930E+06         0.00000E+00
    0.51930E+06        -0.95954E+08         0.00000E+00
    0.00000E+00         0.00000E+00        -0.74459E+08
 
   -0.74893E+08         0.52464E+06         0.00000E+00
    0.52464E+06        -0.95843E+08         0.00000E+00
    0.00000E+00         0.00000E+00        -0.74175E+08
 
   -0.74679E+08         0.52593E+06         0.00000E+00
    0.52593E+06        -0.95730E+08         0.00000E+00
    0.00000E+00         0.00000E+00        -0.73907E+08
 
   -0.74464E+08         0.52393E+06         0.00000E+00
    0.52393E+06        -0.95616E+08         0.00000E+00
    0.00000E+00         0.00000E+00        -0.73654E+08
 
   -0.74249E+08         0.51928E+06         0.00000E+00
    0.51928E+06        -0.95503E+08         0.00000E+00
    0.00000E+00         0.00000E+00        -0.73414E+08
 
   -0.74035E+08         0.51256E+06         0.00000E+00
    0.51256E+06        -0.95390E+08         0.00000E+00
    0.00000E+00         0.00000E+00        -0.73186E+08
 
   -0.73823E+08         0.50422E+06         0.00000E+00
    0.50422E+06        -0.95278E+08         0.00000E+00
    0.00000E+00         0.00000E+00        -0.72969E+08
 
   -0.73614E+08         0.49467E+06         0.00000E+00
    0.49467E+06        -0.95168E+08         0.00000E+00
    0.00000E+00         0.00000E+00        -0.72763E+08
 
   -0.73408E+08         0.48424E+06         0.00000E+00
    0.48424E+06        -0.95058E+08         0.00000E+00
    0.00000E+00         0.00000E+00        -0.72567E+08
 
   -0.73205E+08         0.47320E+06         0.00000E+00
    0.47320E+06        -0.94951E+08         0.00000E+00
    0.00000E+00         0.00000E+00        -0.72380E+08
 
   -0.73007E+08         0.46178E+06         0.00000E+00
    0.46178E+06        -0.94845E+08         0.00000E+00
    0.00000E+00         0.00000E+00        -0.72200E+08
 
   -0.72812E+08         0.45017E+06         0.00000E+00
    0.45017E+06        -0.94741E+08         0.00000E+00
    0.00000E+00         0.00000E+00        -0.72029E+08
 
   -0.72621E+08         0.43852E+06         0.00000E+00
    0.43852E+06        -0.94640E+08         0.00000E+00
    0.00000E+00         0.00000E+00        -0.71864E+08
 
   -0.72435E+08         0.42695E+06         0.00000E+00
    0.42695E+06        -0.94540E+08         0.00000E+00
    0.00000E+00         0.00000E+00        -0.71707E+08
 
   -0.72253E+08         0.41557E+06         0.00000E+00
    0.41557E+06        -0.94442E+08         0.00000E+00
    0.00000E+00         0.00000E+00        -0.71555E+08
 
   -0.72075E+08         0.40446E+06         0.00000E+00
    0.40446E+06        -0.94346E+08         0.00000E+00
    0.00000E+00         0.00000E+00        -0.71409E+08
 
   -0.71901E+08         0.39367E+06         0.00000E+00
    0.39367E+06        -0.94252E+08         0.00000E+00
    0.00000E+00         0.00000E+00        -0.71268E+08
 
   -0.71732E+08         0.38328E+06         0.00000E+00
    0.38328E+06        -0.94161E+08         0.00000E+00
    0.00000E+00         0.00000E+00        -0.71132E+08
 
   -0.71566E+08         0.37330E+06         0.00000E+00
    0.37330E+06        -0.94071E+08         0.00000E+00
    0.00000E+00         0.00000E+00        -0.71000E+08
 
   -0.71404E+08         0.36378E+06         0.00000E+00
    0.36378E+06        -0.93982E+08         0.00000E+00
    0.00000E+00         0.00000E+00        -0.70873E+08
 
   -0.71245E+08         0.35475E+06         0.00000E+00
    0.35475E+06        -0.93896E+08         0.00000E+00
    0.00000E+00         0.00000E+00        -0.70749E+08
 
   -0.71090E+08         0.34621E+06         0.00000E+00
    0.34621E+06        -0.93811E+08         0.00000E+00
    0.00000E+00         0.00000E+00        -0.70629E+08
 
   -0.70938E+08         0.33818E+06         0.00000E+00
    0.33818E+06        -0.93728E+08         0.00000E+00
    0.00000E+00         0.00000E+00        -0.70512E+08
 
   -0.70790E+08         0.33067E+06         0.00000E+00
    0.33067E+06        -0.93646E+08         0.00000E+00
    0.00000E+00         0.00000E+00        -0.70398E+08
 
   -0.70644E+08         0.32369E+06         0.00000E+00
    0.32369E+06        -0.93566E+08         0.00000E+00
    0.00000E+00         0.00000E+00        -0.70286E+08
 
   -0.70500E+08         0.31724E+06         0.00000E+00
    0.31724E+06        -0.93487E+08         0.00000E+00
    0.00000E+00         0.00000E+00        -0.70177E+08
 
   -0.70359E+08         0.31131E+06         0.00000E+00
    0.31131E+06        -0.93409E+08         0.00000E+00
    0.00000E+00         0.00000E+00        -0.70070E+08
 
   -0.70221E+08         0.30591E+06         0.00000E+00
    0.30591E+06        -0.93332E+08         0.00000E+00
    0.00000E+00         0.00000E+00        -0.69965E+08
 
   -0.70084E+08         0.30103E+06         0.00000E+00
    0.30103E+06        -0.93256E+08         0.00000E+00
    0.00000E+00         0.00000E+00        -0.69862E+08
 
   -0.69949E+08         0.29666E+06         0.00000E+00
    0.29666E+06        -0.93181E+08         0.00000E+00
    0.00000E+00         0.00000E+00        -0.69760E+08
 
   -0.69815E+08         0.29281E+06         0.00000E+00
    0.29281E+06        -0.93107E+08         0.00000E+00
    0.00000E+00         0.00000E+00        -0.69659E+08
 
   -0.69683E+08         0.28947E+06         0.00000E+00
    0.28947E+06        -0.93033E+08         0.00000E+00
    0.00000E+00         0.00000E+00        -0.69559E+08
 
   -0.69552E+08         0.28662E+06         0.00000E+00
    0.28662E+06        -0.92960E+08         0.00000E+00
    0.00000E+00         0.00000E+00        -0.69460E+08
 
   -0.69421E+08         0.28425E+06         0.00000E+00
    0.28425E+06        -0.92887E+08         0.00000E+00
    0.00000E+00         0.00000E+00        -0.69361E+08
 
   -0.69292E+08         0.28237E+06         0.00000E+00
    0.28237E+06        -0.92814E+08         0.00000E+00
    0.00000E+00         0.00000E+00        -0.69262E+08
 
   -0.69162E+08         0.28095E+06         0.00000E+00
    0.28095E+06        -0.92742E+08         0.00000E+00
    0.00000E+00         0.00000E+00        -0.69163E+08
 
   -0.69033E+08         0.27998E+06         0.00000E+00
    0.27998E+06        -0.92669E+08         0.00000E+00
    0.00000E+00         0.00000E+00        -0.69064E+08
 
   -0.68904E+08         0.27946E+06         0.00000E+00
    0.27946E+06        -0.92597E+08         0.00000E+00
    0.00000E+00         0.00000E+00        -0.68965E+08
 
   -0.68774E+08         0.27937E+06         0.00000E+00
    0.27937E+06        -0.92524E+08         0.00000E+00
    0.00000E+00         0.00000E+00        -0.68865E+08
 
   -0.68644E+08         0.27969E+06         0.00000E+00
    0.27969E+06        -0.92451E+08         0.00000E+00
    0.00000E+00         0.00000E+00        -0.68764E+08
 
   -0.68514E+08         0.28041E+06         0.00000E+00
    0.28041E+06        -0.92377E+08         0.00000E+00
    0.00000E+00         0.00000E+00        -0.68662E+08
 
   -0.68382E+08         0.28150E+06         0.00000E+00
    0.28150E+06        -0.92303E+08         0.00000E+00
    0.00000E+00         0.00000E+00        -0.68558E+08
 
   -0.68250E+08         0.28296E+06         0.00000E+00
    0.28296E+06        -0.92228E+08         0.00000E+00
    0.00000E+00         0.00000E+00        -0.68453E+08
 
   -0.68116E+08         0.28475E+06         0.00000E+00
    0.28475E+06        -0.92153E+08         0.00000E+00
    0.00000E+00         0.00000E+00        -0.68346E+08
 
   -0.67981E+08         0.28686E+06         0.00000E+00
    0.28686E+06        -0.92077E+08         0.00000E+00
    0.00000E+00         0.00000E+00        -0.68236E+08
 
   -0.67844E+08         0.28925E+06         0.00000E+00
    0.28925E+06        -0.92000E+08         0.00000E+00
    0.00000E+00         0.00000E+00        -0.68125E+08
 
   -0.67705E+08         0.29189E+06         0.00000E+00
    0.29189E+06        -0.91922E+08         0.00000E+00
    0.00000E+00         0.00000E+00        -0.68010E+08
 
   -0.67565E+08         0.29474E+06         0.00000E+00
    0.29474E+06        -0.91843E+08         0.00000E+00
    0.00000E+00         0.00000E+00        -0.67893E+08
 
   -0.67422E+08         0.29777E+06         0.00000E+00
    0.29777E+06        -0.91763E+08         0.00000E+00
    0.00000E+00         0.00000E+00        -0.67772E+08
 
   -0.67277E+08         0.30093E+06         0.00000E+00
    0.30093E+06        -0.91681E+08         0.00000E+00
    0.00000E+00         0.00000E+00        -0.67648E+08
 
   -0.67130E+08         0.30416E+06         0.00000E+00
    0.30416E+06        -0.91599E+08         0.00000E+00
    0.00000E+00         0.00000E+00        -0.67520E+08
 
   -0.66980E+08         0.30740E+06         0.00000E+00
    0.30740E+06        -0.91515E+08         0.00000E+00
    0.00000E+00         0.00000E+00        -0.67387E+08
 
   -0.66828E+08         0.31058E+06         0.00000E+00
    0.31058E+06        -0.91431E+08         0.00000E+00
    0.00000E+00         0.00000E+00        -0.67250E+08
 
   -0.66674E+08         0.31361E+06         0.00000E+00
    0.31361E+06        -0.91345E+08         0.00000E+00
    0.00000E+00         0.00000E+00        -0.67108E+08
 
   -0.66517E+08         0.31639E+06         0.00000E+00
    0.31639E+06        -0.91258E+08         0.00000E+00
    0.00000E+00         0.00000E+00        -0.66961E+08
 
   -0.66357E+08         0.31882E+06         0.00000E+00
    0.31882E+06        -0.91170E+08         0.00000E+00
    0.00000E+00         0.00000E+00        -0.66808E+08
 
   -0.66194E+08         0.32077E+06         0.00000E+00
    0.32077E+06        -0.91081E+08         0.00000E+00
    0.00000E+00         0.00000E+00        -0.66648E+08
 
   -0.66030E+08         0.32207E+06         0.00000E+00
    0.32207E+06        -0.90992E+08         0.00000E+00
    0.00000E+00         0.00000E+00        -0.66483E+08
 
   -0.65863E+08         0.32256E+06         0.00000E+00
    0.32256E+06        -0.90902E+08         0.00000E+00
    0.00000E+00         0.00000E+00        -0.66310E+08
 
   -0.65694E+08         0.32203E+06         0.00000E+00
    0.32203E+06        -0.90811E+08         0.00000E+00
    0.00000E+00         0.00000E+00        -0.66129E+08
 
   -0.65524E+08         0.32025E+06         0.00000E+00
    0.32025E+06        -0.90721E+08         0.00000E+00
    0.00000E+00         0.00000E+00        -0.65940E+08
 
   -0.65352E+08         0.31695E+06         0.00000E+00
    0.31695E+06        -0.90631E+08         0.00000E+00
    0.00000E+00         0.00000E+00        -0.65743E+08
 
   -0.65179E+08         0.31183E+06         0.00000E+00
    0.31183E+06        -0.90542E+08         0.00000E+00
    0.00000E+00         0.00000E+00        -0.65537E+08
 
   -0.65006E+08         0.30454E+06         0.00000E+00
    0.30454E+06        -0.90455E+08         0.00000E+00
    0.00000E+00         0.00000E+00        -0.65320E+08
 
   -0.64834E+08         0.29470E+06         0.00000E+00
    0.29470E+06        -0.90369E+08         0.00000E+00
    0.00000E+00         0.00000E+00        -0.65093E+08
 
   -0.64663E+08         0.28189E+06         0.00000E+00
    0.28189E+06        -0.90286E+08         0.00000E+00
    0.00000E+00         0.00000E+00        -0.64854E+08
 
   -0.64494E+08         0.26565E+06         0.00000E+00
    0.26565E+06        -0.90206E+08         0.00000E+00
    0.00000E+00         0.00000E+00        -0.64603E+08
 
   -0.64329E+08         0.24552E+06         0.00000E+00
    0.24552E+06        -0.90130E+08         0.00000E+00
    0.00000E+00         0.00000E+00        -0.64339E+08
 
   -0.64168E+08         0.22101E+06         0.00000E+00
    0.22101E+06        -0.90059E+08         0.00000E+00
    0.00000E+00         0.00000E+00        -0.64061E+08
 
   -0.64014E+08         0.19167E+06         0.00000E+00
    0.19167E+06        -0.89994E+08         0.00000E+00
    0.00000E+00         0.00000E+00        -0.63769E+08
 
   -0.63867E+08         0.15712E+06         0.00000E+00
    0.15712E+06        -0.89936E+08         0.00000E+00
    0.00000E+00         0.00000E+00        -0.63460E+08
 
   -0.63729E+08         0.11710E+06         0.00000E+00
    0.11710E+06        -0.89884E+08         0.00000E+00
    0.00000E+00         0.00000E+00        -0.63134E+08
 
   -0.63602E+08         0.71558E+05         0.00000E+00
    0.71558E+05        -0.89841E+08         0.00000E+00
    0.00000E+00         0.00000E+00        -0.62790E+08
 
   -0.63486E+08         0.20785E+05         0.00000E+00
    0.20785E+05        -0.89805E+08         0.00000E+00
    0.00000E+00         0.00000E+00        -0.62427E+08
 
   -0.63384E+08        -0.34438E+05         0.00000E+00
   -0.34438E+05        -0.89777E+08         0.00000E+00
    0.00000E+00         0.00000E+00        -0.62043E+08
 
   -0.63294E+08        -0.92588E+05         0.00000E+00
   -0.92588E+05        -0.89755E+08         0.00000E+00
    0.00000E+00         0.00000E+00        -0.61637E+08
 
   -0.63216E+08        -0.15099E+06         0.00000E+00
   -0.15099E+06        -0.89737E+08         0.00000E+00
    0.00000E+00         0.00000E+00        -0.61209E+08
 
   -0.63145E+08        -0.20509E+06         0.00000E+00
   -0.20509E+06        -0.89720E+08         0.00000E+00
    0.00000E+00         0.00000E+00        -0.60757E+08
 
   -0.63074E+08        -0.24677E+06         0.00000E+00
   -0.24677E+06        -0.89695E+08         0.00000E+00
    0.00000E+00         0.00000E+00        -0.60280E+08
 
   -0.62986E+08        -0.25967E+06         0.00000E+00
   -0.25967E+06        -0.89645E+08         0.00000E+00
    0.00000E+00         0.00000E+00        -0.59775E+08
 
   -0.62853E+08        -0.21387E+06         0.00000E+00
   -0.21387E+06        -0.89529E+08         0.00000E+00
    0.00000E+00         0.00000E+00        -0.59222E+08
 
   -0.62644E+08        -0.86235E+05         0.00000E+00
   -0.86235E+05        -0.89268E+08         0.00000E+00
    0.00000E+00         0.00000E+00        -0.58571E+08
 
   -0.77760E+08        -0.15566E+06         0.00000E+00
   -0.15566E+06        -0.96748E+08         0.00000E+00
    0.00000E+00         0.00000E+00        -0.84912E+08
 
   -0.77371E+08        -0.39074E+06         0.00000E+00
   -0.39074E+06        -0.96525E+08         0.00000E+00
    0.00000E+00         0.00000E+00        -0.83959E+08
 
   -0.77144E+08        -0.47330E+06         0.00000E+00
   -0.47330E+06        -0.96506E+08         0.00000E+00
    0.00000E+00         0.00000E+00        -0.83082E+08
 
   -0.77006E+08        -0.45176E+06         0.00000E+00
   -0.45176E+06        -0.96563E+08         0.00000E+00
    0.00000E+00         0.00000E+00        -0.82243E+08
 
   -0.76918E+08        -0.38112E+06         0.00000E+00
   -0.38112E+06        -0.96634E+08         0.00000E+00
    0.00000E+00         0.00000E+00        -0.81440E+08
 
   -0.76856E+08        -0.28796E+06         0.00000E+00
   -0.28796E+06        -0.96697E+08         0.00000E+00
    0.00000E+00         0.00000E+00        -0.80677E+08
 
   -0.76802E+08        -0.18583E+06         0.00000E+00
   -0.18583E+06        -0.96740E+08         0.00000E+00
    0.00000E+00         0.00000E+00        -0.79959E+08
 
   -0.76746E+08        -0.83230E+05         0.00000E+00
   -0.83230E+05        -0.96760E+08         0.00000E+00
    0.00000E+00         0.00000E+00        -0.79289E+08
 
   -0.76679E+08         0.14373E+05         0.00000E+00
    0.14373E+05        -0.96757E+08         0.00000E+00
    0.00000E+00         0.00000E+00        -0.78666E+08
 
   -0.76597E+08         0.10360E+06         0.00000E+00
    0.10360E+06        -0.96734E+08         0.00000E+00
    0.00000E+00         0.00000E+00        -0.78090E+08
 
   -0.76496E+08         0.18258E+06         0.00000E+00
    0.18258E+06        -0.96692E+08         0.00000E+00
    0.00000E+00         0.00000E+00        -0.77556E+08
 
   -0.76376E+08         0.25058E+06         0.00000E+00
    0.25058E+06        -0.96634E+08         0.00000E+00
    0.00000E+00         0.00000E+00        -0.77062E+08
 
   -0.76237E+08         0.30765E+06         0.00000E+00
    0.30765E+06        -0.96562E+08         0.00000E+00
    0.00000E+00         0.00000E+00        -0.76605E+08
 
   -0.76082E+08         0.35432E+06         0.00000E+00
    0.35432E+06        -0.96480E+08         0.00000E+00
    0.00000E+00         0.00000E+00        -0.76181E+08
 
   -0.75911E+08         0.39148E+06         0.00000E+00
    0.39148E+06        -0.96389E+08         0.00000E+00
    0.00000E+00         0.00000E+00        -0.75786E+08
 
   -0.75728E+08         0.42014E+06         0.00000E+00
    0.42014E+06        -0.96291E+08         0.00000E+00
    0.00000E+00         0.00000E+00        -0.75418E+08
 
   -0.75534E+08         0.44138E+06         0.00000E+00
    0.44138E+06        -0.96187E+08         0.00000E+00
    0.00000E+00         0.00000E+00        -0.75074E+08
 
   -0.75333E+08         0.45624E+06         0.00000E+00
    0.45624E+06        -0.96079E+08         0.00000E+00
    0.00000E+00         0.00000E+00        -0.74752E+08
 
   -0.75125E+08         0.46571E+06         0.00000E+00
    0.46571E+06        -0.95969E+08         0.00000E+00
    0.00000E+00         0.00000E+00        -0.74450E+08
 
   -0.74912E+08         0.47069E+06         0.00000E+00
    0.47069E+06        -0.95856E+08         0.00000E+00
    0.00000E+00         0.00000E+00        -0.74166E+08
 
   -0.74698E+08         0.47197E+06         0.00000E+00
    0.47197E+06        -0.95742E+08         0.00000E+00
    0.00000E+00         0.00000E+00        -0.73898E+08
 
   -0.74482E+08         0.47025E+06         0.00000E+00
    0.47025E+06        -0.95628E+08         0.00000E+00
    0.00000E+00         0.00000E+00        -0.73644E+08
 
   -0.74266E+08         0.46612E+06         0.00000E+00
    0.46612E+06        -0.95514E+08         0.00000E+00
    0.00000E+00         0.00000E+00        -0.73404E+08
 
   -0.74052E+08         0.46009E+06         0.00000E+00
    0.46009E+06        -0.95401E+08         0.00000E+00
    0.00000E+00         0.00000E+00        -0.73177E+08
 
   -0.73839E+08         0.45261E+06         0.00000E+00
    0.45261E+06        -0.95288E+08         0.00000E+00
    0.00000E+00         0.00000E+00        -0.72961E+08
 
   -0.73629E+08         0.44402E+06         0.00000E+00
    0.44402E+06        -0.95177E+08         0.00000E+00
    0.00000E+00         0.00000E+00        -0.72755E+08
 
   -0.73422E+08         0.43463E+06         0.00000E+00
    0.43463E+06        -0.95067E+08         0.00000E+00
    0.00000E+00         0.00000E+00        -0.72559E+08
 
   -0.73219E+08         0.42470E+06         0.00000E+00
    0.42470E+06        -0.94959E+08         0.00000E+00
    0.00000E+00         0.00000E+00        -0.72372E+08
 
   -0.73019E+08         0.41443E+06         0.00000E+00
    0.41443E+06        -0.94853E+08         0.00000E+00
    0.00000E+00         0.00000E+00        -0.72193E+08
 
   -0.72824E+08         0.40398E+06         0.00000E+00
    0.40398E+06        -0.94749E+08         0.00000E+00
    0.00000E+00         0.00000E+00        -0.72022E+08
 
   -0.72632E+08         0.39350E+06         0.00000E+00
    0.39350E+06        -0.94646E+08         0.00000E+00
    0.00000E+00         0.00000E+00        -0.71858E+08
 
   -0.72445E+08         0.38309E+06         0.00000E+00
    0.38309E+06        -0.94546E+08         0.00000E+00
    0.00000E+00         0.00000E+00        -0.71700E+08
 
   -0.72262E+08         0.37285E+06         0.00000E+00
    0.37285E+06        -0.94448E+08         0.00000E+00
    0.00000E+00         0.00000E+00        -0.71549E+08
 
   -0.72084E+08         0.36286E+06         0.00000E+00
    0.36286E+06        -0.94352E+08         0.00000E+00
    0.00000E+00         0.00000E+00        -0.71403E+08
 
   -0.71910E+08         0.35316E+06         0.00000E+00
    0.35316E+06        -0.94258E+08         0.00000E+00
    0.00000E+00         0.00000E+00        -0.71262E+08
 
   -0.71739E+08         0.34382E+06         0.00000E+00
    0.34382E+06        -0.94165E+08         0.00000E+00
    0.00000E+00         0.00000E+00        -0.71127E+08
 
   -0.71573E+08         0.33485E+06         0.00000E+00
    0.33485E+06        -0.94075E+08         0.00000E+00
    0.00000E+00         0.00000E+00        -0.70995E+08
 
   -0.71410E+08         0.32630E+06         0.00000E+00
    0.32630E+06        -0.93987E+08         0.00000E+00
    0.00000E+00         0.00000E+00        -0.70868E+08
 
   -0.71251E+08         0.31818E+06         0.00000E+00
    0.31818E+06        -0.93900E+08         0.00000E+00
    0.00000E+00         0.00000E+00        -0.70745E+08
 
   -0.71096E+08         0.31050E+06         0.00000E+00
    0.31050E+06        -0.93815E+08         0.00000E+00
    0.00000E+00         0.00000E+00        -0.70625E+08
 
   -0.70943E+08         0.30329E+06         0.00000E+00
    0.30329E+06        -0.93731E+08         0.00000E+00
    0.00000E+00         0.00000E+00        -0.70508E+08
 
   -0.70794E+08         0.29655E+06         0.00000E+00
    0.29655E+06        -0.93649E+08         0.00000E+00
    0.00000E+00         0.00000E+00        -0.70395E+08
 
   -0.70648E+08         0.29027E+06         0.00000E+00
    0.29027E+06        -0.93569E+08         0.00000E+00
    0.00000E+00         0.00000E+00        -0.70284E+08
 
   -0.70504E+08         0.28448E+06         0.00000E+00
    0.28448E+06        -0.93490E+08         0.00000E+00
    0.00000E+00         0.00000E+00        -0.70175E+08
 
   -0.70363E+08         0.27915E+06         0.00000E+00
    0.27915E+06        -0.93411E+08         0.00000E+00
    0.00000E+00         0.00000E+00        -0.70068E+08
 
   -0.70223E+08         0.27430E+06         0.00000E+00
    0.27430E+06        -0.93334E+08         0.00000E+00
    0.00000E+00         0.00000E+00        -0.69963E+08
 
   -0.70086E+08         0.26992E+06         0.00000E+00
    0.26992E+06        -0.93258E+08         0.00000E+00
    0.00000E+00         0.00000E+00        -0.69860E+08
 
   -0.69951E+08         0.26600E+06         0.00000E+00
    0.26600E+06        -0.93183E+08         0.00000E+00
    0.00000E+00         0.00000E+00        -0.69758E+08
 
   -0.69817E+08         0.26254E+06         0.00000E+00
    0.26254E+06        -0.93108E+08         0.00000E+00
    0.00000E+00         0.00000E+00        -0.69658E+08
 
   -0.69684E+08         0.25953E+06         0.00000E+00
    0.25953E+06        -0.93034E+08         0.00000E+00
    0.00000E+00         0.00000E+00        -0.69558E+08
 
   -0.69552E+08         0.25697E+06         0.00000E+00
    0.25697E+06        -0.92961E+08         0.00000E+00
    0.00000E+00         0.00000E+00        -0.69459E+08
 
   -0.69422E+08         0.25484E+06         0.00000E+00
    0.25484E+06        -0.92888E+08         0.00000E+00
    0.00000E+00         0.00000E+00        -0.69360E+08
 
   -0.69291E+08         0.25315E+06         0.00000E+00
    0.25315E+06        -0.92815E+08         0.00000E+00
    0.00000E+00         0.00000E+00        -0.69261E+08
 
   -0.69162E+08         0.25187E+06         0.00000E+00
    0.25187E+06        -0.92742E+08         0.00000E+00
    0.00000E+00         0.00000E+00        -0.69163E+08
 
   -0.69032E+08         0.25100E+06         0.00000E+00
    0.25100E+06        -0.92669E+08         0.00000E+00
    0.00000E+00         0.00000E+00        -0.69064E+08
 
   -0.68902E+08         0.25053E+06         0.00000E+00
    0.25053E+06        -0.92596E+08         0.00000E+00
    0.00000E+00         0.00000E+00        -0.68965E+08
 
   -0.68773E+08         0.25044E+06         0.00000E+00
    0.25044E+06        -0.92523E+08         0.00000E+00
    0.00000E+00         0.00000E+00        -0.68865E+08
 
   -0.68642E+08         0.25073E+06         0.00000E+00
    0.25073E+06        -0.92450E+08         0.00000E+00
    0.00000E+00         0.00000E+00        -0.68764E+08
 
   -0.68511E+08         0.25137E+06         0.00000E+00
    0.25137E+06        -0.92376E+08         0.00000E+00
    0.00000E+00         0.00000E+00        -0.68662E+08
 
   -0.68379E+08         0.25235E+06         0.00000E+00
    0.25235E+06        -0.92302E+08         0.00000E+00
    0.00000E+00         0.00000E+00        -0.68559E+08
 
   -0.68246E+08         0.25365E+06         0.00000E+00
    0.25365E+06        -0.92227E+08         0.00000E+00
    0.00000E+00         0.00000E+00        -0.68454E+08
 
   -0.68112E+08         0.25526E+06         0.00000E+00
    0.25526E+06        -0.92151E+08         0.00000E+00
    0.00000E+00         0.00000E+00        -0.68347E+08
 
   -0.67977E+08         0.25714E+06         0.00000E+00
    0.25714E+06        -0.92075E+08         0.00000E+00
    0.00000E+00         0.00000E+00        -0.68238E+08
 
   -0.67839E+08         0.25929E+06         0.00000E+00
    0.25929E+06        -0.91998E+08         0.00000E+00
    0.00000E+00         0.00000E+00        -0.68126E+08
 
   -0.67700E+08         0.26165E+06         0.00000E+00
    0.26165E+06        -0.91919E+08         0.00000E+00
    0.00000E+00         0.00000E+00        -0.68012E+08
 
   -0.67559E+08         0.26421E+06         0.00000E+00
    0.26421E+06        -0.91840E+08         0.00000E+00
    0.00000E+00         0.00000E+00        -0.67894E+08
 
   -0.67416E+08         0.26693E+06         0.00000E+00
    0.26693E+06        -0.91760E+08         0.00000E+00
    0.00000E+00         0.00000E+00        -0.67774E+08
 
   -0.67271E+08         0.26976E+06         0.00000E+00
    0.26976E+06        -0.91678E+08         0.00000E+00
    0.00000E+00         0.00000E+00        -0.67650E+08
 
   -0.67123E+08         0.27266E+06         0.00000E+00
    0.27266E+06        -0.91596E+08         0.00000E+00
    0.00000E+00         0.00000E+00        -0.67521E+08
 
   -0.66973E+08         0.27557E+06         0.00000E+00
    0.27557E+06        -0.91512E+08         0.00000E+00
    0.00000E+00         0.00000E+00        -0.67389E+08
 
   -0.66820E+08         0.27842E+06         0.00000E+00
    0.27842E+06        -0.91427E+08         0.00000E+00
    0.00000E+00         0.00000E+00        -0.67252E+08
 
   -0.66665E+08         0.28114E+06         0.00000E+00
    0.28114E+06        -0.91340E+08         0.00000E+00
    0.00000E+00         0.00000E+00        -0.67110E+08
 
   -0.66508E+08         0.28364E+06         0.00000E+00
    0.28364E+06        -0.91253E+08         0.00000E+00
    0.00000E+00         0.00000E+00        -0.66963E+08
 
   -0.66347E+08         0.28582E+06         0.00000E+00
    0.28582E+06        -0.91165E+08         0.00000E+00
    0.00000E+00         0.00000E+00        -0.66810E+08
 
   -0.66185E+08         0.28756E+06         0.00000E+00
    0.28756E+06        -0.91076E+08         0.00000E+00
    0.00000E+00         0.00000E+00        -0.66651E+08
 
   -0.66019E+08         0.28872E+06         0.00000E+00
    0.28872E+06        -0.90986E+08         0.00000E+00
    0.00000E+00         0.00000E+00        -0.66485E+08
 
   -0.65852E+08         0.28915E+06         0.00000E+00
    0.28915E+06        -0.90895E+08         0.00000E+00
    0.00000E+00         0.00000E+00        -0.66312E+08
 
   -0.65683E+08         0.28866E+06         0.00000E+00
    0.28866E+06        -0.90804E+08         0.00000E+00
    0.00000E+00         0.00000E+00        -0.66132E+08
 
   -0.65512E+08         0.28703E+06         0.00000E+00
    0.28703E+06        -0.90714E+08         0.00000E+00
    0.00000E+00         0.00000E+00        -0.65943E+08
 
   -0.65339E+08         0.28403E+06         0.00000E+00
    0.28403E+06        -0.90623E+08         0.00000E+00
    0.00000E+00         0.00000E+00        -0.65746E+08
 
   -0.65166E+08         0.27937E+06         0.00000E+00
    0.27937E+06        -0.90534E+08         0.00000E+00
    0.00000E+00         0.00000E+00        -0.65539E+08
 
   -0.64993E+08         0.27273E+06         0.00000E+00
    0.27273E+06        -0.90446E+08         0.00000E+00
    0.00000E+00         0.00000E+00        -0.65322E+08
 
   -0.64821E+08         0.26377E+06         0.00000E+00
    0.26377E+06        -0.90359E+08         0.00000E+00
    0.00000E+00         0.00000E+00        -0.65095E+08
 
   -0.64650E+08         0.25210E+06         0.00000E+00
    0.25210E+06        -0.90276E+08         0.00000E+00
    0.00000E+00         0.00000E+00        -0.64855E+08
 
   -0.64481E+08         0.23729E+06         0.00000E+00
    0.23729E+06        -0.90195E+08         0.00000E+00
    0.00000E+00         0.00000E+00        -0.64604E+08
 
   -0.64316E+08         0.21890E+06         0.00000E+00
    0.21890E+06        -0.90119E+08         0.00000E+00
    0.00000E+00         0.00000E+00        -0.64340E+08
 
   -0.64156E+08         0.19649E+06         0.00000E+00
    0.19649E+06        -0.90049E+08         0.00000E+00
    0.00000E+00         0.00000E+00        -0.64061E+08
 
   -0.64003E+08         0.16962E+06         0.00000E+00
    0.16962E+06        -0.89984E+08         0.00000E+00
    0.00000E+00         0.00000E+00        -0.63767E+08
 
   -0.63858E+08         0.13791E+06         0.00000E+00
    0.13791E+06        -0.89926E+08         0.00000E+00
    0.00000E+00         0.00000E+00        -0.63457E+08
 
   -0.63723E+08         0.10111E+06         0.00000E+00
    0.10111E+06        -0.89875E+08         0.00000E+00
    0.00000E+00         0.00000E+00        -0.63130E+08
 
   -0.63600E+08         0.59124E+05         0.00000E+00
    0.59124E+05        -0.89834E+08         0.00000E+00
    0.00000E+00         0.00000E+00        -0.62784E+08
 
   -0.63490E+08         0.12165E+05         0.00000E+00
    0.12165E+05        -0.89800E+08         0.00000E+00
    0.00000E+00         0.00000E+00        -0.62418E+08
 
   -0.63394E+08        -0.39134E+05         0.00000E+00
   -0.39134E+05        -0.89776E+08         0.00000E+00
    0.00000E+00         0.00000E+00        -0.62032E+08
 
   -0.63314E+08        -0.93494E+05         0.00000E+00
   -0.93494E+05        -0.89759E+08         0.00000E+00
    0.00000E+00         0.00000E+00        -0.61624E+08
 
   -0.63247E+08        -0.14865E+06         0.00000E+00
   -0.14865E+06        -0.89749E+08         0.00000E+00
    0.00000E+00         0.00000E+00        -0.61193E+08
 
   -0.63191E+08        -0.20066E+06         0.00000E+00
   -0.20066E+06        -0.89740E+08         0.00000E+00
    0.00000E+00         0.00000E+00        -0.60739E+08
 
   -0.63138E+08        -0.24252E+06         0.00000E+00
   -0.24252E+06        -0.89727E+08         0.00000E+00
    0.00000E+00         0.00000E+00        -0.60260E+08
 
   -0.63071E+08        -0.25919E+06         0.00000E+00
   -0.25919E+06        -0.89694E+08         0.00000E+00
    0.00000E+00         0.00000E+00        -0.59755E+08
 
   -0.62959E+08        -0.21869E+06         0.00000E+00
   -0.21869E+06        -0.89601E+08         0.00000E+00
    0.00000E+00         0.00000E+00        -0.59207E+08
 
   -0.62765E+08        -0.89985E+05         0.00000E+00
   -0.89985E+05        -0.89358E+08         0.00000E+00
    0.00000E+00         0.00000E+00        -0.58564E+08
 
   -0.77645E+08        -0.15961E+06         0.00000E+00
   -0.15961E+06        -0.96594E+08         0.00000E+00
    0.00000E+00         0.00000E+00        -0.84941E+08
 
   -0.77269E+08        -0.39022E+06         0.00000E+00
   -0.39022E+06        -0.96404E+08         0.00000E+00
    0.00000E+00         0.00000E+00        -0.83997E+08
 
   -0.77061E+08        -0.45956E+06         0.00000E+00
   -0.45956E+06        -0.96423E+08         0.00000E+00
    0.00000E+00         0.00000E+00        -0.83124E+08
 
   -0.76942E+08        -0.43187E+06         0.00000E+00
   -0.43187E+06        -0.96508E+08         0.00000E+00
    0.00000E+00         0.00000E+00        -0.82282E+08
 
   -0.76869E+08        -0.36305E+06         0.00000E+00
   -0.36305E+06        -0.96600E+08         0.00000E+00
    0.00000E+00         0.00000E+00        -0.81473E+08
 
   -0.76820E+08        -0.27578E+06         0.00000E+00
   -0.27578E+06        -0.96677E+08         0.00000E+00
    0.00000E+00         0.00000E+00        -0.80704E+08
 
   -0.76779E+08        -0.18145E+06         0.00000E+00
   -0.18145E+06        -0.96731E+08         0.00000E+00
    0.00000E+00         0.00000E+00        -0.79981E+08
 
   -0.76734E+08        -0.87350E+05         0.00000E+00
   -0.87350E+05        -0.96760E+08         0.00000E+00
    0.00000E+00         0.00000E+00        -0.79305E+08
 
   -0.76676E+08         0.18321E+04         0.00000E+00
    0.18321E+04        -0.96763E+08         0.00000E+00
    0.00000E+00         0.00000E+00        -0.78677E+08
 
   -0.76601E+08         0.83167E+05         0.00000E+00
    0.83167E+05        -0.96744E+08         0.00000E+00
    0.00000E+00         0.00000E+00        -0.78096E+08
 
   -0.76506E+08         0.15505E+06         0.00000E+00
    0.15505E+06        -0.96705E+08         0.00000E+00
    0.00000E+00         0.00000E+00        -0.77559E+08
 
   -0.76390E+08         0.21686E+06         0.00000E+00
    0.21686E+06        -0.96648E+08         0.00000E+00
    0.00000E+00         0.00000E+00        -0.77062E+08
 
   -0.76255E+08         0.26867E+06         0.00000E+00
    0.26867E+06        -0.96578E+08         0.00000E+00
    0.00000E+00         0.00000E+00        -0.76602E+08
 
   -0.76101E+08         0.31102E+06         0.00000E+00
    0.31102E+06        -0.96496E+08         0.00000E+00
    0.00000E+00         0.00000E+00        -0.76175E+08
 
   -0.75932E+08         0.34471E+06         0.00000E+00
    0.34471E+06        -0.96405E+08         0.00000E+00
    0.00000E+00         0.00000E+00        -0.75779E+08
 
   -0.75750E+08         0.37068E+06         0.00000E+00
    0.37068E+06        -0.96307E+08         0.00000E+00
    0.00000E+00         0.00000E+00        -0.75410E+08
 
   -0.75556E+08         0.38993E+06         0.00000E+00
    0.38993E+06        -0.96203E+08         0.00000E+00
    0.00000E+00         0.00000E+00        -0.75066E+08
 
   -0.75354E+08         0.40340E+06         0.00000E+00
    0.40340E+06        -0.96094E+08         0.00000E+00
    0.00000E+00         0.00000E+00        -0.74743E+08
 
   -0.75146E+08         0.41201E+06         0.00000E+00
    0.41201E+06        -0.95983E+08         0.00000E+00
    0.00000E+00         0.00000E+00        -0.74441E+08
 
   -0.74933E+08         0.41656E+06         0.00000E+00
    0.41656E+06        -0.95870E+08         0.00000E+00
    0.00000E+00         0.00000E+00        -0.74156E+08
 
   -0.74718E+08         0.41778E+06         0.00000E+00
    0.41778E+06        -0.95755E+08         0.00000E+00
    0.00000E+00         0.00000E+00        -0.73888E+08
 
   -0.74501E+08         0.41630E+06         0.00000E+00
    0.41630E+06        -0.95640E+08         0.00000E+00
    0.00000E+00         0.00000E+00        -0.73635E+08
 
   -0.74284E+08         0.41267E+06         0.00000E+00
    0.41267E+06        -0.95526E+08         0.00000E+00
    0.00000E+00         0.00000E+00        -0.73395E+08
 
   -0.74069E+08         0.40733E+06         0.00000E+00
    0.40733E+06        -0.95411E+08         0.00000E+00
    0.00000E+00         0.00000E+00        -0.73168E+08
 
   -0.73855E+08         0.40069E+06         0.00000E+00
    0.40069E+06        -0.95298E+08         0.00000E+00
    0.00000E+00         0.00000E+00        -0.72952E+08
 
   -0.73644E+08         0.39307E+06         0.00000E+00
    0.39307E+06        -0.95186E+08         0.00000E+00
    0.00000E+00         0.00000E+00        -0.72747E+08
 
   -0.73436E+08         0.38474E+06         0.00000E+00
    0.38474E+06        -0.95076E+08         0.00000E+00
    0.00000E+00         0.00000E+00        -0.72551E+08
 
   -0.73232E+08         0.37592E+06         0.00000E+00
    0.37592E+06        -0.94967E+08         0.00000E+00
    0.00000E+00         0.00000E+00        -0.72364E+08
 
   -0.73032E+08         0.36680E+06         0.00000E+00
    0.36680E+06        -0.94861E+08         0.00000E+00
    0.00000E+00         0.00000E+00        -0.72186E+08
 
   -0.72836E+08         0.35752E+06         0.00000E+00
    0.35752E+06        -0.94756E+08         0.00000E+00
    0.00000E+00         0.00000E+00        -0.72015E+08
 
   -0.72643E+08         0.34822E+06         0.00000E+00
    0.34822E+06        -0.94653E+08         0.00000E+00
    0.00000E+00         0.00000E+00        -0.71851E+08
 
   -0.72456E+08         0.33898E+06         0.00000E+00
    0.33898E+06        -0.94552E+08         0.00000E+00
    0.00000E+00         0.00000E+00        -0.71694E+08
 
   -0.72272E+08         0.32990E+06         0.00000E+00
    0.32990E+06        -0.94454E+08         0.00000E+00
    0.00000E+00         0.00000E+00        -0.71543E+08
 
   -0.72093E+08         0.32104E+06         0.00000E+00
    0.32104E+06        -0.94357E+08         0.00000E+00
    0.00000E+00         0.00000E+00        -0.71398E+08
 
   -0.71918E+08         0.31244E+06         0.00000E+00
    0.31244E+06        -0.94263E+08         0.00000E+00
    0.00000E+00         0.00000E+00        -0.71257E+08
 
   -0.71747E+08         0.30415E+06         0.00000E+00
    0.30415E+06        -0.94170E+08         0.00000E+00
    0.00000E+00         0.00000E+00        -0.71122E+08
 
   -0.71580E+08         0.29620E+06         0.00000E+00
    0.29620E+06        -0.94080E+08         0.00000E+00
    0.00000E+00         0.00000E+00        -0.70991E+08
 
   -0.71417E+08         0.28862E+06         0.00000E+00
    0.28862E+06        -0.93991E+08         0.00000E+00
    0.00000E+00         0.00000E+00        -0.70864E+08
 
   -0.71257E+08         0.28142E+06         0.00000E+00
    0.28142E+06        -0.93904E+08         0.00000E+00
    0.00000E+00         0.00000E+00        -0.70741E+08
 
   -0.71101E+08         0.27462E+06         0.00000E+00
    0.27462E+06        -0.93818E+08         0.00000E+00
    0.00000E+00         0.00000E+00        -0.70622E+08
 
   -0.70948E+08         0.26823E+06         0.00000E+00
    0.26823E+06        -0.93735E+08         0.00000E+00
    0.00000E+00         0.00000E+00        -0.70505E+08
 
   -0.70799E+08         0.26226E+06         0.00000E+00
    0.26226E+06        -0.93652E+08         0.00000E+00
    0.00000E+00         0.00000E+00        -0.70392E+08
 
   -0.70652E+08         0.25670E+06         0.00000E+00
    0.25670E+06        -0.93572E+08         0.00000E+00
    0.00000E+00         0.00000E+00        -0.70281E+08
 
   -0.70508E+08         0.25156E+06         0.00000E+00
    0.25156E+06        -0.93492E+08         0.00000E+00
    0.00000E+00         0.00000E+00        -0.70172E+08
 
   -0.70366E+08         0.24685E+06         0.00000E+00
    0.24685E+06        -0.93414E+08         0.00000E+00
    0.00000E+00         0.00000E+00        -0.70066E+08
 
   -0.70226E+08         0.24255E+06         0.00000E+00
    0.24255E+06        -0.93336E+08         0.00000E+00
    0.00000E+00         0.00000E+00        -0.69961E+08
 
   -0.70088E+08         0.23867E+06         0.00000E+00
    0.23867E+06        -0.93260E+08         0.00000E+00
    0.00000E+00         0.00000E+00        -0.69858E+08
 
   -0.69953E+08         0.23519E+06         0.00000E+00
    0.23519E+06        -0.93184E+08         0.00000E+00
    0.00000E+00         0.00000E+00        -0.69757E+08
 
   -0.69818E+08         0.23213E+06         0.00000E+00
    0.23213E+06        -0.93110E+08         0.00000E+00
    0.00000E+00         0.00000E+00        -0.69656E+08
 
   -0.69685E+08         0.22946E+06         0.00000E+00
    0.22946E+06        -0.93035E+08         0.00000E+00
    0.00000E+00         0.00000E+00        -0.69557E+08
 
   -0.69553E+08         0.22719E+06         0.00000E+00
    0.22719E+06        -0.92962E+08         0.00000E+00
    0.00000E+00         0.00000E+00        -0.69458E+08
 
   -0.69422E+08         0.22531E+06         0.00000E+00
    0.22531E+06        -0.92888E+08         0.00000E+00
    0.00000E+00         0.00000E+00        -0.69359E+08
 
   -0.69291E+08         0.22381E+06         0.00000E+00
    0.22381E+06        -0.92815E+08         0.00000E+00
    0.00000E+00         0.00000E+00        -0.69261E+08
 
   -0.69161E+08         0.22267E+06         0.00000E+00
    0.22267E+06        -0.92742E+08         0.00000E+00
    0.00000E+00         0.00000E+00        -0.69163E+08
 
   -0.69031E+08         0.22190E+06         0.00000E+00
    0.22190E+06        -0.92669E+08         0.00000E+00
    0.00000E+00         0.00000E+00        -0.69064E+08
 
   -0.68901E+08         0.22148E+06         0.00000E+00
    0.22148E+06        -0.92596E+08         0.00000E+00
    0.00000E+00         0.00000E+00        -0.68965E+08
 
   -0.68771E+08         0.22140E+06         0.00000E+00
    0.22140E+06        -0.92523E+08         0.00000E+00
    0.00000E+00         0.00000E+00        -0.68865E+08
 
   -0.68640E+08         0.22165E+06         0.00000E+00
    0.22165E+06        -0.92449E+08         0.00000E+00
    0.00000E+00         0.00000E+00        -0.68765E+08
 
   -0.68509E+08         0.22222E+06         0.00000E+00
    0.22222E+06        -0.92375E+08         0.00000E+00
    0.00000E+00         0.00000E+00        -0.68663E+08
 
   -0.68376E+08         0.22308E+06         0.00000E+00
    0.22308E+06        -0.92301E+08         0.00000E+00
    0.00000E+00         0.00000E+00        -0.68559E+08
 
   -0.68243E+08         0.22423E+06         0.00000E+00
    0.22423E+06        -0.92226E+08         0.00000E+00
    0.00000E+00         0.00000E+00        -0.68455E+08
 
   -0.68108E+08         0.22565E+06         0.00000E+00
    0.22565E+06        -0.92150E+08         0.00000E+00
    0.00000E+00         0.00000E+00        -0.68348E+08
 
   -0.67972E+08         0.22732E+06         0.00000E+00
    0.22732E+06        -0.92073E+08         0.00000E+00
    0.00000E+00         0.00000E+00        -0.68239E+08
 
   -0.67835E+08         0.22921E+06         0.00000E+00
    0.22921E+06        -0.91996E+08         0.00000E+00
    0.00000E+00         0.00000E+00        -0.68127E+08
 
   -0.67695E+08         0.23131E+06         0.00000E+00
    0.23131E+06        -0.91917E+08         0.00000E+00
    0.00000E+00         0.00000E+00        -0.68013E+08
 
   -0.67554E+08         0.23357E+06         0.00000E+00
    0.23357E+06        -0.91838E+08         0.00000E+00
    0.00000E+00         0.00000E+00        -0.67896E+08
 
   -0.67410E+08         0.23598E+06         0.00000E+00
    0.23598E+06        -0.91757E+08         0.00000E+00
    0.00000E+00         0.00000E+00        -0.67775E+08
 
   -0.67264E+08         0.23848E+06         0.00000E+00
    0.23848E+06        -0.91675E+08         0.00000E+00
    0.00000E+00         0.00000E+00        -0.67651E+08
 
   -0.67116E+08         0.24105E+06         0.00000E+00
    0.24105E+06        -0.91592E+08         0.00000E+00
    0.00000E+00         0.00000E+00        -0.67523E+08
 
   -0.66966E+08         0.24362E+06         0.00000E+00
    0.24362E+06        -0.91508E+08         0.00000E+00
    0.00000E+00         0.00000E+00        -0.67391E+08
 
   -0.66813E+08         0.24615E+06         0.00000E+00
    0.24615E+06        -0.91422E+08         0.00000E+00
    0.00000E+00         0.00000E+00        -0.67254E+08
 
   -0.66657E+08         0.24856E+06         0.00000E+00
    0.24856E+06        -0.91336E+08         0.00000E+00
    0.00000E+00         0.00000E+00        -0.67113E+08
 
   -0.66499E+08         0.25077E+06         0.00000E+00
    0.25077E+06        -0.91248E+08         0.00000E+00
    0.00000E+00         0.00000E+00        -0.66966E+08
 
   -0.66338E+08         0.25270E+06         0.00000E+00
    0.25270E+06        -0.91160E+08         0.00000E+00
    0.00000E+00         0.00000E+00        -0.66813E+08
 
   -0.66175E+08         0.25424E+06         0.00000E+00
    0.25424E+06        -0.91070E+08         0.00000E+00
    0.00000E+00         0.00000E+00        -0.66654E+08
 
   -0.66009E+08         0.25527E+06         0.00000E+00
    0.25527E+06        -0.90979E+08         0.00000E+00
    0.00000E+00         0.00000E+00        -0.66488E+08
 
   -0.65841E+08         0.25565E+06         0.00000E+00
    0.25565E+06        -0.90888E+08         0.00000E+00
    0.00000E+00         0.00000E+00        -0.66315E+08
 
   -0.65671E+08         0.25520E+06         0.00000E+00
    0.25520E+06        -0.90797E+08         0.00000E+00
    0.00000E+00         0.00000E+00        -0.66134E+08
 
   -0.65499E+08         0.25374E+06         0.00000E+00
    0.25374E+06        -0.90706E+08         0.00000E+00
    0.00000E+00         0.00000E+00        -0.65946E+08
 
   -0.65327E+08         0.25105E+06         0.00000E+00
    0.25105E+06        -0.90615E+08         0.00000E+00
    0.00000E+00         0.00000E+00        -0.65748E+08
 
   -0.65153E+08         0.24687E+06         0.00000E+00
    0.24687E+06        -0.90525E+08         0.00000E+00
    0.00000E+00         0.00000E+00        -0.65541E+08
 
   -0.64980E+08         0.24092E+06         0.00000E+00
    0.24092E+06        -0.90436E+08         0.00000E+00
    0.00000E+00         0.00000E+00        -0.65324E+08
 
   -0.64807E+08         0.23289E+06         0.00000E+00
    0.23289E+06        -0.90349E+08         0.00000E+00
    0.00000E+00         0.00000E+00        -0.65097E+08
 
   -0.64636E+08         0.22241E+06         0.00000E+00
    0.22241E+06        -0.90265E+08         0.00000E+00
    0.00000E+00         0.00000E+00        -0.64857E+08
 
   -0.64467E+08         0.20910E+06         0.00000E+00
    0.20910E+06        -0.90185E+08         0.00000E+00
    0.00000E+00         0.00000E+00        -0.64605E+08
 
   -0.64303E+08         0.19255E+06         0.00000E+00
    0.19255E+06        -0.90108E+08         0.00000E+00
    0.00000E+00         0.00000E+00        -0.64340E+08
 
   -0.64144E+08         0.17235E+06         0.00000E+00
    0.17235E+06        -0.90037E+08         0.00000E+00
    0.00000E+00         0.00000E+00        -0.64061E+08
 
   -0.63992E+08         0.14810E+06         0.00000E+00
    0.14810E+06        -0.89973E+08         0.00000E+00
    0.00000E+00         0.00000E+00        -0.63766E+08
 
   -0.63849E+08         0.11943E+06         0.00000E+00
    0.11943E+06        -0.89915E+08         0.00000E+00
    0.00000E+00         0.00000E+00        -0.63455E+08
 
   -0.63717E+08         0.86068E+05         0.00000E+00
    0.86068E+05        -0.89866E+08         0.00000E+00
    0.00000E+00         0.00000E+00        -0.63126E+08
 
   -0.63597E+08         0.47914E+05         0.00000E+00
    0.47914E+05        -0.89826E+08         0.00000E+00
    0.00000E+00         0.00000E+00        -0.62779E+08
 
   -0.63493E+08         0.50956E+04         0.00000E+00
    0.50956E+04        -0.89796E+08         0.00000E+00
    0.00000E+00         0.00000E+00        -0.62411E+08
 
   -0.63404E+08        -0.41889E+05         0.00000E+00
   -0.41889E+05        -0.89775E+08         0.00000E+00
    0.00000E+00         0.00000E+00        -0.62023E+08
 
   -0.63332E+08        -0.92000E+05         0.00000E+00
   -0.92000E+05        -0.89763E+08         0.00000E+00
    0.00000E+00         0.00000E+00        -0.61612E+08
 
   -0.63277E+08        -0.14337E+06         0.00000E+00
   -0.14337E+06        -0.89760E+08         0.00000E+00
    0.00000E+00         0.00000E+00        -0.61178E+08
 
   -0.63236E+08        -0.19271E+06         0.00000E+00
   -0.19271E+06        -0.89761E+08         0.00000E+00
    0.00000E+00         0.00000E+00        -0.60720E+08
 
   -0.63201E+08        -0.23416E+06         0.00000E+00
   -0.23416E+06        -0.89760E+08         0.00000E+00
    0.00000E+00         0.00000E+00        -0.60239E+08
 
   -0.63158E+08        -0.25469E+06         0.00000E+00
   -0.25469E+06        -0.89744E+08         0.00000E+00
    0.00000E+00         0.00000E+00        -0.59733E+08
 
   -0.63072E+08        -0.22125E+06         0.00000E+00
   -0.22125E+06        -0.89675E+08         0.00000E+00
    0.00000E+00         0.00000E+00        -0.59191E+08
 
   -0.62895E+08        -0.93427E+05         0.00000E+00
   -0.93427E+05        -0.89454E+08         0.00000E+00
    0.00000E+00         0.00000E+00        -0.58556E+08
 
   -0.77525E+08        -0.16254E+06         0.00000E+00
   -0.16254E+06        -0.96431E+08         0.00000E+00
    0.00000E+00         0.00000E+00        -0.84970E+08
 
   -0.77165E+08        -0.38409E+06         0.00000E+00
   -0.38409E+06        -0.96280E+08         0.00000E+00
    0.00000E+00         0.00000E+00        -0.84037E+08
 
   -0.76979E+08        -0.43737E+06         0.00000E+00
   -0.43737E+06        -0.96339E+08         0.00000E+00
    0.00000E+00         0.00000E+00        -0.83166E+08
 
   -0.76878E+08        -0.40417E+06         0.00000E+00
   -0.40417E+06        -0.96454E+08         0.00000E+00
    0.00000E+00         0.00000E+00        -0.82320E+08
 
   -0.76821E+08        -0.33844E+06         0.00000E+00
   -0.33844E+06        -0.96566E+08         0.00000E+00
    0.00000E+00         0.00000E+00        -0.81505E+08
 
   -0.76787E+08        -0.25812E+06         0.00000E+00
   -0.25812E+06        -0.96659E+08         0.00000E+00
    0.00000E+00         0.00000E+00        -0.80730E+08
 
   -0.76759E+08        -0.17253E+06         0.00000E+00
   -0.17253E+06        -0.96724E+08         0.00000E+00
    0.00000E+00         0.00000E+00        -0.80000E+08
 
   -0.76724E+08        -0.87751E+05         0.00000E+00
   -0.87751E+05        -0.96760E+08         0.00000E+00
    0.00000E+00         0.00000E+00        -0.79319E+08
 
   -0.76675E+08        -0.77165E+04         0.00000E+00
   -0.77165E+04        -0.96770E+08         0.00000E+00
    0.00000E+00         0.00000E+00        -0.78686E+08
 
   -0.76607E+08         0.65094E+05         0.00000E+00
    0.65094E+05        -0.96754E+08         0.00000E+00
    0.00000E+00         0.00000E+00        -0.78101E+08
 
   -0.76518E+08         0.12933E+06         0.00000E+00
    0.12933E+06        -0.96718E+08         0.00000E+00
    0.00000E+00         0.00000E+00        -0.77559E+08
 
   -0.76406E+08         0.18448E+06         0.00000E+00
    0.18448E+06        -0.96664E+08         0.00000E+00
    0.00000E+00         0.00000E+00        -0.77060E+08
 
   -0.76274E+08         0.23066E+06         0.00000E+00
    0.23066E+06        -0.96594E+08         0.00000E+00
    0.00000E+00         0.00000E+00        -0.76597E+08
 
   -0.76123E+08         0.26836E+06         0.00000E+00
    0.26836E+06        -0.96513E+08         0.00000E+00
    0.00000E+00         0.00000E+00        -0.76169E+08
 
   -0.75954E+08         0.29833E+06         0.00000E+00
    0.29833E+06        -0.96422E+08         0.00000E+00
    0.00000E+00         0.00000E+00        -0.75771E+08
 
   -0.75772E+08         0.32141E+06         0.00000E+00
    0.32141E+06        -0.96323E+08         0.00000E+00
    0.00000E+00         0.00000E+00        -0.75401E+08
 
   -0.75579E+08         0.33851E+06         0.00000E+00
    0.33851E+06        -0.96218E+08         0.00000E+00
    0.00000E+00         0.00000E+00        -0.75056E+08
 
   -0.75377E+08         0.35048E+06         0.00000E+00
    0.35048E+06        -0.96109E+08         0.00000E+00
    0.00000E+00         0.00000E+00        -0.74734E+08
 
   -0.75168E+08         0.35814E+06         0.00000E+00
    0.35814E+06        -0.95997E+08         0.00000E+00
    0.00000E+00         0.00000E+00        -0.74431E+08
 
   -0.74954E+08         0.36220E+06         0.00000E+00
    0.36220E+06        -0.95883E+08         0.00000E+00
    0.00000E+00         0.00000E+00        -0.74146E+08
 
   -0.74738E+08         0.36333E+06         0.00000E+00
    0.36333E+06        -0.95768E+08         0.00000E+00
    0.00000E+00         0.00000E+00        -0.73878E+08
 
   -0.74520E+08         0.36207E+06         0.00000E+00
    0.36207E+06        -0.95653E+08         0.00000E+00
    0.00000E+00         0.00000E+00        -0.73625E+08
 
   -0.74303E+08         0.35891E+06         0.00000E+00
    0.35891E+06        -0.95537E+08         0.00000E+00
    0.00000E+00         0.00000E+00        -0.73386E+08
 
   -0.74086E+08         0.35427E+06         0.00000E+00
    0.35427E+06        -0.95422E+08         0.00000E+00
    0.00000E+00         0.00000E+00        -0.73159E+08
 
   -0.73872E+08         0.34847E+06         0.00000E+00
    0.34847E+06        -0.95308E+08         0.00000E+00
    0.00000E+00         0.00000E+00        -0.72944E+08
 
   -0.73660E+08         0.34182E+06         0.00000E+00
    0.34182E+06        -0.95196E+08         0.00000E+00
    0.00000E+00         0.00000E+00        -0.72739E+08
 
   -0.73451E+08         0.33455E+06         0.00000E+00
    0.33455E+06        -0.95085E+08         0.00000E+00
    0.00000E+00         0.00000E+00        -0.72543E+08
 
   -0.73246E+08         0.32685E+06         0.00000E+00
    0.32685E+06        -0.94976E+08         0.00000E+00
    0.00000E+00         0.00000E+00        -0.72357E+08
 
   -0.73045E+08         0.31889E+06         0.00000E+00
    0.31889E+06        -0.94868E+08         0.00000E+00
    0.00000E+00         0.00000E+00        -0.72179E+08
 
   -0.72848E+08         0.31080E+06         0.00000E+00
    0.31080E+06        -0.94763E+08         0.00000E+00
    0.00000E+00         0.00000E+00        -0.72009E+08
 
   -0.72655E+08         0.30268E+06         0.00000E+00
    0.30268E+06        -0.94660E+08         0.00000E+00
    0.00000E+00         0.00000E+00        -0.71845E+08
 
   -0.72466E+08         0.29463E+06         0.00000E+00
    0.29463E+06        -0.94559E+08         0.00000E+00
    0.00000E+00         0.00000E+00        -0.71688E+08
 
   -0.72282E+08         0.28671E+06         0.00000E+00
    0.28671E+06        -0.94460E+08         0.00000E+00
    0.00000E+00         0.00000E+00        -0.71538E+08
 
   -0.72102E+08         0.27899E+06         0.00000E+00
    0.27899E+06        -0.94363E+08         0.00000E+00
    0.00000E+00         0.00000E+00        -0.71393E+08
 
   -0.71926E+08         0.27150E+06         0.00000E+00
    0.27150E+06        -0.94268E+08         0.00000E+00
    0.00000E+00         0.00000E+00        -0.71253E+08
 
   -0.71755E+08         0.26428E+06         0.00000E+00
    0.26428E+06        -0.94175E+08         0.00000E+00
    0.00000E+00         0.00000E+00        -0.71117E+08
 
   -0.71587E+08         0.25736E+06         0.00000E+00
    0.25736E+06        -0.94084E+08         0.00000E+00
    0.00000E+00         0.00000E+00        -0.70987E+08
 
   -0.71424E+08         0.25075E+06         0.00000E+00
    0.25075E+06        -0.93995E+08         0.00000E+00
    0.00000E+00         0.00000E+00        -0.70860E+08
 
   -0.71263E+08         0.24449E+06         0.00000E+00
    0.24449E+06        -0.93908E+08         0.00000E+00
    0.00000E+00         0.00000E+00        -0.70738E+08
 
   -0.71107E+08         0.23857E+06         0.00000E+00
    0.23857E+06        -0.93822E+08         0.00000E+00
    0.00000E+00         0.00000E+00        -0.70618E+08
 
   -0.70954E+08         0.23301E+06         0.00000E+00
    0.23301E+06        -0.93738E+08         0.00000E+00
    0.00000E+00         0.00000E+00        -0.70502E+08
 
   -0.70803E+08         0.22781E+06         0.00000E+00
    0.22781E+06        -0.93655E+08         0.00000E+00
    0.00000E+00         0.00000E+00        -0.70389E+08
 
   -0.70656E+08         0.22297E+06         0.00000E+00
    0.22297E+06        -0.93574E+08         0.00000E+00
    0.00000E+00         0.00000E+00        -0.70278E+08
 
   -0.70511E+08         0.21850E+06         0.00000E+00
    0.21850E+06        -0.93494E+08         0.00000E+00
    0.00000E+00         0.00000E+00        -0.70170E+08
 
   -0.70369E+08         0.21440E+06         0.00000E+00
    0.21440E+06        -0.93416E+08         0.00000E+00
    0.00000E+00         0.00000E+00        -0.70064E+08
 
   -0.70229E+08         0.21066E+06         0.00000E+00
    0.21066E+06        -0.93338E+08         0.00000E+00
    0.00000E+00         0.00000E+00        -0.69959E+08
 
   -0.70091E+08         0.20728E+06         0.00000E+00
    0.20728E+06        -0.93262E+08         0.00000E+00
    0.00000E+00         0.00000E+00        -0.69857E+08
 
   -0.69954E+08         0.20426E+06         0.00000E+00
    0.20426E+06        -0.93186E+08         0.00000E+00
    0.00000E+00         0.00000E+00        -0.69755E+08
 
   -0.69820E+08         0.20159E+06         0.00000E+00
    0.20159E+06        -0.93111E+08         0.00000E+00
    0.00000E+00         0.00000E+00        -0.69655E+08
 
   -0.69686E+08         0.19927E+06         0.00000E+00
    0.19927E+06        -0.93036E+08         0.00000E+00
    0.00000E+00         0.00000E+00        -0.69556E+08
 
   -0.69554E+08         0.19730E+06         0.00000E+00
    0.19730E+06        -0.92963E+08         0.00000E+00
    0.00000E+00         0.00000E+00        -0.69457E+08
 
   -0.69422E+08         0.19566E+06         0.00000E+00
    0.19566E+06        -0.92889E+08         0.00000E+00
    0.00000E+00         0.00000E+00        -0.69358E+08
 
   -0.69291E+08         0.19435E+06         0.00000E+00
    0.19435E+06        -0.92816E+08         0.00000E+00
    0.00000E+00         0.00000E+00        -0.69260E+08
 
   -0.69160E+08         0.19336E+06         0.00000E+00
    0.19336E+06        -0.92742E+08         0.00000E+00
    0.00000E+00         0.00000E+00        -0.69162E+08
 
   -0.69030E+08         0.19269E+06         0.00000E+00
    0.19269E+06        -0.92669E+08         0.00000E+00
    0.00000E+00         0.00000E+00        -0.69064E+08
 
   -0.68900E+08         0.19232E+06         0.00000E+00
    0.19232E+06        -0.92596E+08         0.00000E+00
    0.00000E+00         0.00000E+00        -0.68965E+08
 
   -0.68769E+08         0.19225E+06         0.00000E+00
    0.19225E+06        -0.92523E+08         0.00000E+00
    0.00000E+00         0.00000E+00        -0.68865E+08
 
   -0.68638E+08         0.19246E+06         0.00000E+00
    0.19246E+06        -0.92449E+08         0.00000E+00
    0.00000E+00         0.00000E+00        -0.68765E+08
 
   -0.68506E+08         0.19295E+06         0.00000E+00
    0.19295E+06        -0.92374E+08         0.00000E+00
    0.00000E+00         0.00000E+00        -0.68663E+08
 
   -0.68373E+08         0.19370E+06         0.00000E+00
    0.19370E+06        -0.92300E+08         0.00000E+00
    0.00000E+00         0.00000E+00        -0.68560E+08
 
   -0.68240E+08         0.19470E+06         0.00000E+00
    0.19470E+06        -0.92224E+08         0.00000E+00
    0.00000E+00         0.00000E+00        -0.68455E+08
 
   -0.68105E+08         0.19593E+06         0.00000E+00
    0.19593E+06        -0.92148E+08         0.00000E+00
    0.00000E+00         0.00000E+00        -0.68349E+08
 
   -0.67968E+08         0.19738E+06         0.00000E+00
    0.19738E+06        -0.92071E+08         0.00000E+00
    0.00000E+00         0.00000E+00        -0.68240E+08
 
   -0.67830E+08         0.19903E+06         0.00000E+00
    0.19903E+06        -0.91994E+08         0.00000E+00
    0.00000E+00         0.00000E+00        -0.68129E+08
 
   -0.67690E+08         0.20085E+06         0.00000E+00
    0.20085E+06        -0.91915E+08         0.00000E+00
    0.00000E+00         0.00000E+00        -0.68015E+08
 
   -0.67548E+08         0.20282E+06         0.00000E+00
    0.20282E+06        -0.91835E+08         0.00000E+00
    0.00000E+00         0.00000E+00        -0.67898E+08
 
   -0.67404E+08         0.20491E+06         0.00000E+00
    0.20491E+06        -0.91754E+08         0.00000E+00
    0.00000E+00         0.00000E+00        -0.67777E+08
 
   -0.67258E+08         0.20709E+06         0.00000E+00
    0.20709E+06        -0.91672E+08         0.00000E+00
    0.00000E+00         0.00000E+00        -0.67653E+08
 
   -0.67109E+08         0.20932E+06         0.00000E+00
    0.20932E+06        -0.91588E+08         0.00000E+00
    0.00000E+00         0.00000E+00        -0.67525E+08
 
   -0.66958E+08         0.21156E+06         0.00000E+00
    0.21156E+06        -0.91504E+08         0.00000E+00
    0.00000E+00         0.00000E+00        -0.67393E+08
 
   -0.66805E+08         0.21376E+06         0.00000E+00
    0.21376E+06        -0.91418E+08         0.00000E+00
    0.00000E+00         0.00000E+00        -0.67257E+08
 
   -0.66649E+08         0.21586E+06         0.00000E+00
    0.21586E+06        -0.91331E+08         0.00000E+00
    0.00000E+00         0.00000E+00        -0.67115E+08
 
   -0.66490E+08         0.21779E+06         0.00000E+00
    0.21779E+06        -0.91243E+08         0.00000E+00
    0.00000E+00         0.00000E+00        -0.66968E+08
 
   -0.66328E+08         0.21947E+06         0.00000E+00
    0.21947E+06        -0.91154E+08         0.00000E+00
    0.00000E+00         0.00000E+00        -0.66815E+08
 
   -0.66164E+08         0.22081E+06         0.00000E+00
    0.22081E+06        -0.91064E+08         0.00000E+00
    0.00000E+00         0.00000E+00        -0.66656E+08
 
   -0.65998E+08         0.22171E+06         0.00000E+00
    0.22171E+06        -0.90973E+08         0.00000E+00
    0.00000E+00         0.00000E+00        -0.66491E+08
 
   -0.65830E+08         0.22203E+06         0.00000E+00
    0.22203E+06        -0.90882E+08         0.00000E+00
    0.00000E+00         0.00000E+00        -0.66318E+08
 
   -0.65659E+08         0.22164E+06         0.00000E+00
    0.22164E+06        -0.90790E+08         0.00000E+00
    0.00000E+00         0.00000E+00        -0.66137E+08
 
   -0.65487E+08         0.22036E+06         0.00000E+00
    0.22036E+06        -0.90698E+08         0.00000E+00
    0.00000E+00         0.00000E+00        -0.65949E+08
 
   -0.65314E+08         0.21799E+06         0.00000E+00
    0.21799E+06        -0.90606E+08         0.00000E+00
    0.00000E+00         0.00000E+00        -0.65751E+08
 
   -0.65140E+08         0.21433E+06         0.00000E+00
    0.21433E+06        -0.90516E+08         0.00000E+00
    0.00000E+00         0.00000E+00        -0.65544E+08
 
   -0.64966E+08         0.20910E+06         0.00000E+00
    0.20910E+06        -0.90426E+08         0.00000E+00
    0.00000E+00         0.00000E+00        -0.65327E+08
 
   -0.64793E+08         0.20203E+06         0.00000E+00
    0.20203E+06        -0.90339E+08         0.00000E+00
    0.00000E+00         0.00000E+00        -0.65099E+08
 
   -0.64621E+08         0.19280E+06         0.00000E+00
    0.19280E+06        -0.90254E+08         0.00000E+00
    0.00000E+00         0.00000E+00        -0.64859E+08
 
   -0.64453E+08         0.18106E+06         0.00000E+00
    0.18106E+06        -0.90173E+08         0.00000E+00
    0.00000E+00         0.00000E+00        -0.64607E+08
 
   -0.64289E+08         0.16645E+06         0.00000E+00
    0.16645E+06        -0.90097E+08         0.00000E+00
    0.00000E+00         0.00000E+00        -0.64342E+08
 
   -0.64131E+08         0.14858E+06         0.00000E+00
    0.14858E+06        -0.90026E+08         0.00000E+00
    0.00000E+00         0.00000E+00        -0.64062E+08
 
   -0.63980E+08         0.12709E+06         0.00000E+00
    0.12709E+06        -0.89962E+08         0.00000E+00
    0.00000E+00         0.00000E+00        -0.63766E+08
 
   -0.63839E+08         0.10163E+06         0.00000E+00
    0.10163E+06        -0.89905E+08         0.00000E+00
    0.00000E+00         0.00000E+00        -0.63454E+08
 
   -0.63709E+08         0.71945E+05         0.00000E+00
    0.71945E+05        -0.89857E+08         0.00000E+00
    0.00000E+00         0.00000E+00        -0.63124E+08
 
   -0.63593E+08         0.37900E+05         0.00000E+00
    0.37900E+05        -0.89818E+08         0.00000E+00
    0.00000E+00         0.00000E+00        -0.62775E+08
 
   -0.63494E+08        -0.43747E+03         0.00000E+00
   -0.43747E+03        -0.89791E+08         0.00000E+00
    0.00000E+00         0.00000E+00        -0.62405E+08
 
   -0.63412E+08        -0.42699E+05         0.00000E+00
   -0.42699E+05        -0.89774E+08         0.00000E+00
    0.00000E+00         0.00000E+00        -0.62014E+08
 
   -0.63349E+08        -0.88068E+05         0.00000E+00
   -0.88068E+05        -0.89767E+08         0.00000E+00
    0.00000E+00         0.00000E+00        -0.61601E+08
 
   -0.63306E+08        -0.13507E+06         0.00000E+00
   -0.13507E+06        -0.89770E+08         0.00000E+00
    0.00000E+00         0.00000E+00        -0.61164E+08
 
   -0.63280E+08        -0.18105E+06         0.00000E+00
   -0.18105E+06        -0.89780E+08         0.00000E+00
    0.00000E+00         0.00000E+00        -0.60703E+08
 
   -0.63265E+08        -0.22129E+06         0.00000E+00
   -0.22129E+06        -0.89792E+08         0.00000E+00
    0.00000E+00         0.00000E+00        -0.60218E+08
 
   -0.63247E+08        -0.24537E+06         0.00000E+00
   -0.24537E+06        -0.89793E+08         0.00000E+00
    0.00000E+00         0.00000E+00        -0.59710E+08
 
   -0.63190E+08        -0.22078E+06         0.00000E+00
   -0.22078E+06        -0.89750E+08         0.00000E+00
    0.00000E+00         0.00000E+00        -0.59172E+08
 
   -0.63035E+08        -0.96426E+05         0.00000E+00
   -0.96426E+05        -0.89555E+08         0.00000E+00
    0.00000E+00         0.00000E+00        -0.58546E+08
 
   -0.77399E+08        -0.16410E+06         0.00000E+00
   -0.16410E+06        -0.96258E+08         0.00000E+00
    0.00000E+00         0.00000E+00        -0.85001E+08
 
   -0.77060E+08        -0.37074E+06         0.00000E+00
   -0.37074E+06        -0.96152E+08         0.00000E+00
    0.00000E+00         0.00000E+00        -0.84078E+08
 
   -0.76897E+08        -0.40548E+06         0.00000E+00
   -0.40548E+06        -0.96257E+08         0.00000E+00
    0.00000E+00         0.00000E+00        -0.83208E+08
 
   -0.76815E+08        -0.36820E+06         0.00000E+00
   -0.36820E+06        -0.96400E+08         0.00000E+00
    0.00000E+00         0.00000E+00        -0.82357E+08
 
   -0.76775E+08        -0.30709E+06         0.00000E+00
   -0.30709E+06        -0.96533E+08         0.00000E+00
    0.00000E+00         0.00000E+00        -0.81536E+08
 
   -0.76756E+08        -0.23489E+06         0.00000E+00
   -0.23489E+06        -0.96641E+08         0.00000E+00
    0.00000E+00         0.00000E+00        -0.80754E+08
 
   -0.76740E+08        -0.15906E+06         0.00000E+00
   -0.15906E+06        -0.96717E+08         0.00000E+00
    0.00000E+00         0.00000E+00        -0.80018E+08
 
   -0.76716E+08        -0.84470E+05         0.00000E+00
   -0.84470E+05        -0.96762E+08         0.00000E+00
    0.00000E+00         0.00000E+00        -0.79331E+08
 
   -0.76676E+08        -0.14336E+05         0.00000E+00
   -0.14336E+05        -0.96777E+08         0.00000E+00
    0.00000E+00         0.00000E+00        -0.78693E+08
 
   -0.76616E+08         0.49297E+05         0.00000E+00
    0.49297E+05        -0.96766E+08         0.00000E+00
    0.00000E+00         0.00000E+00        -0.78103E+08
 
   -0.76532E+08         0.10533E+06         0.00000E+00
    0.10533E+06        -0.96732E+08         0.00000E+00
    0.00000E+00         0.00000E+00        -0.77559E+08
 
   -0.76424E+08         0.15336E+06         0.00000E+00
    0.15336E+06        -0.96679E+08         0.00000E+00
    0.00000E+00         0.00000E+00        -0.77056E+08
 
   -0.76295E+08         0.19351E+06         0.00000E+00
    0.19351E+06        -0.96610E+08         0.00000E+00
    0.00000E+00         0.00000E+00        -0.76591E+08
 
   -0.76145E+08         0.22626E+06         0.00000E+00
    0.22626E+06        -0.96529E+08         0.00000E+00
    0.00000E+00         0.00000E+00        -0.76162E+08
 
   -0.75978E+08         0.25225E+06         0.00000E+00
    0.25225E+06        -0.96438E+08         0.00000E+00
    0.00000E+00         0.00000E+00        -0.75763E+08
 
   -0.75797E+08         0.27226E+06         0.00000E+00
    0.27226E+06        -0.96339E+08         0.00000E+00
    0.00000E+00         0.00000E+00        -0.75392E+08
 
   -0.75603E+08         0.28706E+06         0.00000E+00
    0.28706E+06        -0.96234E+08         0.00000E+00
    0.00000E+00         0.00000E+00        -0.75047E+08
 
   -0.75400E+08         0.29743E+06         0.00000E+00
    0.29743E+06        -0.96125E+08         0.00000E+00
    0.00000E+00         0.00000E+00        -0.74724E+08
 
   -0.75191E+08         0.30405E+06         0.00000E+00
    0.30405E+06        -0.96012E+08         0.00000E+00
    0.00000E+00         0.00000E+00        -0.74421E+08
 
   -0.74976E+08         0.30758E+06         0.00000E+00
    0.30758E+06        -0.95897E+08         0.00000E+00
    0.00000E+00         0.00000E+00        -0.74136E+08
 
   -0.74759E+08         0.30857E+06         0.00000E+00
    0.30857E+06        -0.95781E+08         0.00000E+00
    0.00000E+00         0.00000E+00        -0.73869E+08
 
   -0.74540E+08         0.30752E+06         0.00000E+00
    0.30752E+06        -0.95665E+08         0.00000E+00
    0.00000E+00         0.00000E+00        -0.73616E+08
 
   -0.74322E+08         0.30483E+06         0.00000E+00
    0.30483E+06        -0.95549E+08         0.00000E+00
    0.00000E+00         0.00000E+00        -0.73377E+08
 
   -0.74104E+08         0.30087E+06         0.00000E+00
    0.30087E+06        -0.95433E+08         0.00000E+00
    0.00000E+00         0.00000E+00        -0.73150E+08
 
   -0.73889E+08         0.29592E+06         0.00000E+00
    0.29592E+06        -0.95319E+08         0.00000E+00
    0.00000E+00         0.00000E+00        -0.72935E+08
 
   -0.73676E+08         0.29025E+06         0.00000E+00
    0.29025E+06        -0.95205E+08         0.00000E+00
    0.00000E+00         0.00000E+00        -0.72731E+08
 
   -0.73466E+08         0.28404E+06         0.00000E+00
    0.28404E+06        -0.95094E+08         0.00000E+00
    0.00000E+00         0.00000E+00        -0.72536E+08
 
   -0.73260E+08         0.27748E+06         0.00000E+00
    0.27748E+06        -0.94984E+08         0.00000E+00
    0.00000E+00         0.00000E+00        -0.72350E+08
 
   -0.73058E+08         0.27069E+06         0.00000E+00
    0.27069E+06        -0.94876E+08         0.00000E+00
    0.00000E+00         0.00000E+00        -0.72172E+08
 
   -0.72860E+08         0.26380E+06         0.00000E+00
    0.26380E+06        -0.94770E+08         0.00000E+00
    0.00000E+00         0.00000E+00        -0.72002E+08
 
   -0.72666E+08         0.25688E+06         0.00000E+00
    0.25688E+06        -0.94667E+08         0.00000E+00
    0.00000E+00         0.00000E+00        -0.71839E+08
 
   -0.72477E+08         0.25003E+06         0.00000E+00
    0.25003E+06        -0.94565E+08         0.00000E+00
    0.00000E+00         0.00000E+00        -0.71683E+08
 
   -0.72292E+08         0.24329E+06         0.00000E+00
    0.24329E+06        -0.94466E+08         0.00000E+00
    0.00000E+00         0.00000E+00        -0.71532E+08
 
   -0.72111E+08         0.23672E+06         0.00000E+00
    0.23672E+06        -0.94368E+08         0.00000E+00
    0.00000E+00         0.00000E+00        -0.71388E+08
 
   -0.71935E+08         0.23034E+06         0.00000E+00
    0.23034E+06        -0.94273E+08         0.00000E+00
    0.00000E+00         0.00000E+00        -0.71248E+08
 
   -0.71763E+08         0.22420E+06         0.00000E+00
    0.22420E+06        -0.94180E+08         0.00000E+00
    0.00000E+00         0.00000E+00        -0.71113E+08
 
   -0.71595E+08         0.21832E+06         0.00000E+00
    0.21832E+06        -0.94088E+08         0.00000E+00
    0.00000E+00         0.00000E+00        -0.70983E+08
 
   -0.71430E+08         0.21270E+06         0.00000E+00
    0.21270E+06        -0.93999E+08         0.00000E+00
    0.00000E+00         0.00000E+00        -0.70857E+08
 
   -0.71270E+08         0.20738E+06         0.00000E+00
    0.20738E+06        -0.93911E+08         0.00000E+00
    0.00000E+00         0.00000E+00        -0.70734E+08
 
   -0.71113E+08         0.20235E+06         0.00000E+00
    0.20235E+06        -0.93825E+08         0.00000E+00
    0.00000E+00         0.00000E+00        -0.70615E+08
 
   -0.70959E+08         0.19762E+06         0.00000E+00
    0.19762E+06        -0.93741E+08         0.00000E+00
    0.00000E+00         0.00000E+00        -0.70499E+08
 
   -0.70808E+08         0.19320E+06         0.00000E+00
    0.19320E+06        -0.93658E+08         0.00000E+00
    0.00000E+00         0.00000E+00        -0.70386E+08
 
   -0.70660E+08         0.18909E+06         0.00000E+00
    0.18909E+06        -0.93577E+08         0.00000E+00
    0.00000E+00         0.00000E+00        -0.70276E+08
 
   -0.70515E+08         0.18529E+06         0.00000E+00
    0.18529E+06        -0.93497E+08         0.00000E+00
    0.00000E+00         0.00000E+00        -0.70168E+08
 
   -0.70372E+08         0.18180E+06         0.00000E+00
    0.18180E+06        -0.93418E+08         0.00000E+00
    0.00000E+00         0.00000E+00        -0.70062E+08
 
   -0.70232E+08         0.17863E+06         0.00000E+00
    0.17863E+06        -0.93340E+08         0.00000E+00
    0.00000E+00         0.00000E+00        -0.69958E+08
 
   -0.70093E+08         0.17576E+06         0.00000E+00
    0.17576E+06        -0.93263E+08         0.00000E+00
    0.00000E+00         0.00000E+00        -0.69855E+08
 
   -0.69956E+08         0.17319E+06         0.00000E+00
    0.17319E+06        -0.93187E+08         0.00000E+00
    0.00000E+00         0.00000E+00        -0.69754E+08
 
   -0.69821E+08         0.17093E+06         0.00000E+00
    0.17093E+06        -0.93112E+08         0.00000E+00
    0.00000E+00         0.00000E+00        -0.69654E+08
 
   -0.69687E+08         0.16896E+06         0.00000E+00
    0.16896E+06        -0.93037E+08         0.00000E+00
    0.00000E+00         0.00000E+00        -0.69555E+08
 
   -0.69554E+08         0.16728E+06         0.00000E+00
    0.16728E+06        -0.92963E+08         0.00000E+00
    0.00000E+00         0.00000E+00        -0.69456E+08
 
   -0.69422E+08         0.16588E+06         0.00000E+00
    0.16588E+06        -0.92890E+08         0.00000E+00
    0.00000E+00         0.00000E+00        -0.69358E+08
 
   -0.69291E+08         0.16477E+06         0.00000E+00
    0.16477E+06        -0.92816E+08         0.00000E+00
    0.00000E+00         0.00000E+00        -0.69260E+08
 
   -0.69160E+08         0.16393E+06         0.00000E+00
    0.16393E+06        -0.92743E+08         0.00000E+00
    0.00000E+00         0.00000E+00        -0.69162E+08
 
   -0.69029E+08         0.16336E+06         0.00000E+00
    0.16336E+06        -0.92669E+08         0.00000E+00
    0.00000E+00         0.00000E+00        -0.69064E+08
 
   -0.68898E+08         0.16304E+06         0.00000E+00
    0.16304E+06        -0.92596E+08         0.00000E+00
    0.00000E+00         0.00000E+00        -0.68965E+08
 
   -0.68767E+08         0.16298E+06         0.00000E+00
    0.16298E+06        -0.92522E+08         0.00000E+00
    0.00000E+00         0.00000E+00        -0.68866E+08
 
   -0.68636E+08         0.16316E+06         0.00000E+00
    0.16316E+06        -0.92448E+08         0.00000E+00
    0.00000E+00         0.00000E+00        -0.68765E+08
 
   -0.68504E+08         0.16358E+06         0.00000E+00
    0.16358E+06        -0.92373E+08         0.00000E+00
    0.00000E+00         0.00000E+00        -0.68664E+08
 
   -0.68371E+08         0.16421E+06         0.00000E+00
    0.16421E+06        -0.92299E+08         0.00000E+00
    0.00000E+00         0.00000E+00        -0.68561E+08
 
   -0.68236E+08         0.16506E+06         0.00000E+00
    0.16506E+06        -0.92223E+08         0.00000E+00
    0.00000E+00         0.00000E+00        -0.68456E+08
 
   -0.68101E+08         0.16611E+06         0.00000E+00
    0.16611E+06        -0.92147E+08         0.00000E+00
    0.00000E+00         0.00000E+00        -0.68350E+08
 
   -0.67964E+08         0.16733E+06         0.00000E+00
    0.16733E+06        -0.92069E+08         0.00000E+00
    0.00000E+00         0.00000E+00        -0.68241E+08
 
   -0.67825E+08         0.16873E+06         0.00000E+00
    0.16873E+06        -0.91991E+08         0.00000E+00
    0.00000E+00         0.00000E+00        -0.68130E+08
 
   -0.67685E+08         0.17027E+06         0.00000E+00
    0.17027E+06        -0.91912E+08         0.00000E+00
    0.00000E+00         0.00000E+00        -0.68016E+08
 
   -0.67543E+08         0.17195E+06         0.00000E+00
    0.17195E+06        -0.91832E+08         0.00000E+00
    0.00000E+00         0.00000E+00        -0.67899E+08
 
   -0.67398E+08         0.17372E+06         0.00000E+00
    0.17372E+06        -0.91751E+08         0.00000E+00
    0.00000E+00         0.00000E+00        -0.67779E+08
 
   -0.67252E+08         0.17558E+06         0.00000E+00
    0.17558E+06        -0.91668E+08         0.00000E+00
    0.00000E+00         0.00000E+00        -0.67655E+08
 
   -0.67103E+08         0.17747E+06         0.00000E+00
    0.17747E+06        -0.91585E+08         0.00000E+00
    0.00000E+00         0.00000E+00        -0.67527E+08
 
   -0.66951E+08         0.17938E+06         0.00000E+00
    0.17938E+06        -0.91500E+08         0.00000E+00
    0.00000E+00         0.00000E+00        -0.67396E+08
 
   -0.66797E+08         0.18125E+06         0.00000E+00
    0.18125E+06        -0.91414E+08         0.00000E+00
    0.00000E+00         0.00000E+00        -0.67259E+08
 
   -0.66640E+08         0.18304E+06         0.00000E+00
    0.18304E+06        -0.91326E+08         0.00000E+00
    0.00000E+00         0.00000E+00        -0.67117E+08
 
   -0.66481E+08         0.18468E+06         0.00000E+00
    0.18468E+06        -0.91238E+08         0.00000E+00
    0.00000E+00         0.00000E+00        -0.66971E+08
 
   -0.66319E+08         0.18611E+06         0.00000E+00
    0.18611E+06        -0.91148E+08         0.00000E+00
    0.00000E+00         0.00000E+00        -0.66818E+08
 
   -0.66154E+08         0.18726E+06         0.00000E+00
    0.18726E+06        -0.91058E+08         0.00000E+00
    0.00000E+00         0.00000E+00        -0.66659E+08
 
   -0.65988E+08         0.18802E+06         0.00000E+00
    0.18802E+06        -0.90966E+08         0.00000E+00
    0.00000E+00         0.00000E+00        -0.66493E+08
 
   -0.65818E+08         0.18830E+06         0.00000E+00
    0.18830E+06        -0.90874E+08         0.00000E+00
    0.00000E+00         0.00000E+00        -0.66321E+08
 
   -0.65647E+08         0.18797E+06         0.00000E+00
    0.18797E+06        -0.90782E+08         0.00000E+00
    0.00000E+00         0.00000E+00        -0.66140E+08
 
   -0.65475E+08         0.18687E+06         0.00000E+00
    0.18687E+06        -0.90690E+08         0.00000E+00
    0.00000E+00         0.00000E+00        -0.65952E+08
 
   -0.65301E+08         0.18485E+06         0.00000E+00
    0.18485E+06        -0.90598E+08         0.00000E+00
    0.00000E+00         0.00000E+00        -0.65754E+08
 
   -0.65126E+08         0.18171E+06         0.00000E+00
    0.18171E+06        -0.90506E+08         0.00000E+00
    0.00000E+00         0.00000E+00        -0.65547E+08
 
   -0.64952E+08         0.17723E+06         0.00000E+00
    0.17723E+06        -0.90416E+08         0.00000E+00
    0.00000E+00         0.00000E+00        -0.65330E+08
 
   -0.64778E+08         0.17117E+06         0.00000E+00
    0.17117E+06        -0.90329E+08         0.00000E+00
    0.00000E+00         0.00000E+00        -0.65102E+08
 
   -0.64606E+08         0.16324E+06         0.00000E+00
    0.16324E+06        -0.90244E+08         0.00000E+00
    0.00000E+00         0.00000E+00        -0.64862E+08
 
   -0.64438E+08         0.15314E+06         0.00000E+00
    0.15314E+06        -0.90162E+08         0.00000E+00
    0.00000E+00         0.00000E+00        -0.64610E+08
 
   -0.64274E+08         0.14055E+06         0.00000E+00
    0.14055E+06        -0.90085E+08         0.00000E+00
    0.00000E+00         0.00000E+00        -0.64343E+08
 
   -0.64116E+08         0.12513E+06         0.00000E+00
    0.12513E+06        -0.90014E+08         0.00000E+00
    0.00000E+00         0.00000E+00        -0.64063E+08
 
   -0.63967E+08         0.10654E+06         0.00000E+00
    0.10654E+06        -0.89950E+08         0.00000E+00
    0.00000E+00         0.00000E+00        -0.63766E+08
 
   -0.63827E+08         0.84483E+05         0.00000E+00
    0.84483E+05        -0.89894E+08         0.00000E+00
    0.00000E+00         0.00000E+00        -0.63453E+08
 
   -0.63700E+08         0.58703E+05         0.00000E+00
    0.58703E+05        -0.89847E+08         0.00000E+00
    0.00000E+00         0.00000E+00        -0.63122E+08
 
   -0.63588E+08         0.29052E+05         0.00000E+00
    0.29052E+05        -0.89810E+08         0.00000E+00
    0.00000E+00         0.00000E+00        -0.62771E+08
 
   -0.63493E+08        -0.44562E+04         0.00000E+00
   -0.44562E+04        -0.89785E+08         0.00000E+00
    0.00000E+00         0.00000E+00        -0.62400E+08
 
   -0.63418E+08        -0.41565E+05         0.00000E+00
   -0.41565E+05        -0.89772E+08         0.00000E+00
    0.00000E+00         0.00000E+00        -0.62007E+08
 
   -0.63364E+08        -0.81668E+05         0.00000E+00
   -0.81668E+05        -0.89771E+08         0.00000E+00
    0.00000E+00         0.00000E+00        -0.61591E+08
 
   -0.63333E+08        -0.12365E+06         0.00000E+00
   -0.12365E+06        -0.89781E+08         0.00000E+00
    0.00000E+00         0.00000E+00        -0.61151E+08
 
   -0.63322E+08        -0.16549E+06         0.00000E+00
   -0.16549E+06        -0.89800E+08         0.00000E+00
    0.00000E+00         0.00000E+00        -0.60686E+08
 
   -0.63329E+08        -0.20353E+06         0.00000E+00
   -0.20353E+06        -0.89823E+08         0.00000E+00
    0.00000E+00         0.00000E+00        -0.60197E+08
 
   -0.63338E+08        -0.23032E+06         0.00000E+00
   -0.23032E+06        -0.89842E+08         0.00000E+00
    0.00000E+00         0.00000E+00        -0.59686E+08
 
   -0.63315E+08        -0.21623E+06         0.00000E+00
   -0.21623E+06        -0.89827E+08         0.00000E+00
    0.00000E+00         0.00000E+00        -0.59149E+08
 
   -0.63187E+08        -0.98777E+05         0.00000E+00
   -0.98777E+05        -0.89662E+08         0.00000E+00
    0.00000E+00         0.00000E+00        -0.58533E+08
 
   -0.77268E+08        -0.16378E+06         0.00000E+00
   -0.16378E+06        -0.96074E+08         0.00000E+00
    0.00000E+00         0.00000E+00        -0.85033E+08
 
   -0.76953E+08        -0.34799E+06         0.00000E+00
   -0.34799E+06        -0.96023E+08         0.00000E+00
    0.00000E+00         0.00000E+00        -0.84121E+08
 
   -0.76816E+08        -0.36256E+06         0.00000E+00
   -0.36256E+06        -0.96175E+08         0.00000E+00
    0.00000E+00         0.00000E+00        -0.83250E+08
 
   -0.76754E+08        -0.32362E+06         0.00000E+00
   -0.32362E+06        -0.96348E+08         0.00000E+00
    0.00000E+00         0.00000E+00        -0.82393E+08
 
   -0.76731E+08        -0.26884E+06         0.00000E+00
   -0.26884E+06        -0.96501E+08         0.00000E+00
    0.00000E+00         0.00000E+00        -0.81565E+08
 
   -0.76726E+08        -0.20603E+06         0.00000E+00
   -0.20603E+06        -0.96624E+08         0.00000E+00
    0.00000E+00         0.00000E+00        -0.80776E+08
 
   -0.76724E+08        -0.14104E+06         0.00000E+00
   -0.14104E+06        -0.96711E+08         0.00000E+00
    0.00000E+00         0.00000E+00        -0.80033E+08
 
   -0.76711E+08        -0.77548E+05         0.00000E+00
   -0.77548E+05        -0.96764E+08         0.00000E+00
    0.00000E+00         0.00000E+00        -0.79341E+08
 
   -0.76680E+08        -0.18098E+05         0.00000E+00
   -0.18098E+05        -0.96784E+08         0.00000E+00
    0.00000E+00         0.00000E+00        -0.78698E+08
 
   -0.76626E+08         0.35689E+05         0.00000E+00
    0.35689E+05        -0.96777E+08         0.00000E+00
    0.00000E+00         0.00000E+00        -0.78104E+08
 
   -0.76548E+08         0.82946E+05         0.00000E+00
    0.82946E+05        -0.96746E+08         0.00000E+00
    0.00000E+00         0.00000E+00        -0.77556E+08
 
   -0.76445E+08         0.12338E+06         0.00000E+00
    0.12338E+06        -0.96695E+08         0.00000E+00
    0.00000E+00         0.00000E+00        -0.77051E+08
 
   -0.76318E+08         0.15714E+06         0.00000E+00
    0.15714E+06        -0.96627E+08         0.00000E+00
    0.00000E+00         0.00000E+00        -0.76584E+08
 
   -0.76170E+08         0.18462E+06         0.00000E+00
    0.18462E+06        -0.96546E+08         0.00000E+00
    0.00000E+00         0.00000E+00        -0.76153E+08
 
   -0.76004E+08         0.20640E+06         0.00000E+00
    0.20640E+06        -0.96455E+08         0.00000E+00
    0.00000E+00         0.00000E+00        -0.75754E+08
 
   -0.75822E+08         0.22315E+06         0.00000E+00
    0.22315E+06        -0.96356E+08         0.00000E+00
    0.00000E+00         0.00000E+00        -0.75382E+08
 
   -0.75629E+08         0.23553E+06         0.00000E+00
    0.23553E+06        -0.96250E+08         0.00000E+00
    0.00000E+00         0.00000E+00        -0.75036E+08
 
   -0.75425E+08         0.24418E+06         0.00000E+00
    0.24418E+06        -0.96140E+08         0.00000E+00
    0.00000E+00         0.00000E+00        -0.74713E+08
 
   -0.75215E+08         0.24971E+06         0.00000E+00
    0.24971E+06        -0.96026E+08         0.00000E+00
    0.00000E+00         0.00000E+00        -0.74411E+08
 
   -0.74999E+08         0.25265E+06         0.00000E+00
    0.25265E+06        -0.95911E+08         0.00000E+00
    0.00000E+00         0.00000E+00        -0.74126E+08
 
   -0.74781E+08         0.25349E+06         0.00000E+00
    0.25349E+06        -0.95794E+08         0.00000E+00
    0.00000E+00         0.00000E+00        -0.73859E+08
 
   -0.74561E+08         0.25262E+06         0.00000E+00
    0.25262E+06        -0.95677E+08         0.00000E+00
    0.00000E+00         0.00000E+00        -0.73607E+08
 
   -0.74341E+08         0.25040E+06         0.00000E+00
    0.25040E+06        -0.95560E+08         0.00000E+00
    0.00000E+00         0.00000E+00        -0.73368E+08
 
   -0.74123E+08         0.24712E+06         0.00000E+00
    0.24712E+06        -0.95444E+08         0.00000E+00
    0.00000E+00         0.00000E+00        -0.73142E+08
 
   -0.73906E+08         0.24304E+06         0.00000E+00
    0.24304E+06        -0.95329E+08         0.00000E+00
    0.00000E+00         0.00000E+00        -0.72927E+08
 
   -0.73692E+08         0.23835E+06         0.00000E+00
    0.23835E+06        -0.95215E+08         0.00000E+00
    0.00000E+00         0.00000E+00        -0.72723E+08
 
   -0.73481E+08         0.23322E+06         0.00000E+00
    0.23322E+06        -0.95103E+08         0.00000E+00
    0.00000E+00         0.00000E+00        -0.72529E+08
 
   -0.73274E+08         0.22780E+06         0.00000E+00
    0.22780E+06        -0.94992E+08         0.00000E+00
    0.00000E+00         0.00000E+00        -0.72343E+08
 
   -0.73071E+08         0.22221E+06         0.00000E+00
    0.22221E+06        -0.94884E+08         0.00000E+00
    0.00000E+00         0.00000E+00        -0.72166E+08
 
   -0.72872E+08         0.21652E+06         0.00000E+00
    0.21652E+06        -0.94778E+08         0.00000E+00
    0.00000E+00         0.00000E+00        -0.71996E+08
 
   -0.72678E+08         0.21083E+06         0.00000E+00
    0.21083E+06        -0.94674E+08         0.00000E+00
    0.00000E+00         0.00000E+00        -0.71834E+08
 
   -0.72488E+08         0.20518E+06         0.00000E+00
    0.20518E+06        -0.94571E+08         0.00000E+00
    0.00000E+00         0.00000E+00        -0.71677E+08
 
   -0.72302E+08         0.19963E+06         0.00000E+00
    0.19963E+06        -0.94472E+08         0.00000E+00
    0.00000E+00         0.00000E+00        -0.71527E+08
 
   -0.72121E+08         0.19422E+06         0.00000E+00
    0.19422E+06        -0.94374E+08         0.00000E+00
    0.00000E+00         0.00000E+00        -0.71383E+08
 
   -0.71944E+08         0.18898E+06         0.00000E+00
    0.18898E+06        -0.94278E+08         0.00000E+00
    0.00000E+00         0.00000E+00        -0.71244E+08
 
   -0.71771E+08         0.18392E+06         0.00000E+00
    0.18392E+06        -0.94185E+08         0.00000E+00
    0.00000E+00         0.00000E+00        -0.71109E+08
 
   -0.71602E+08         0.17908E+06         0.00000E+00
    0.17908E+06        -0.94093E+08         0.00000E+00
    0.00000E+00         0.00000E+00        -0.70979E+08
 
   -0.71437E+08         0.17447E+06         0.00000E+00
    0.17447E+06        -0.94003E+08         0.00000E+00
    0.00000E+00         0.00000E+00        -0.70853E+08
 
   -0.71276E+08         0.17009E+06         0.00000E+00
    0.17009E+06        -0.93915E+08         0.00000E+00
    0.00000E+00         0.00000E+00        -0.70731E+08
 
   -0.71118E+08         0.16595E+06         0.00000E+00
    0.16595E+06        -0.93829E+08         0.00000E+00
    0.00000E+00         0.00000E+00        -0.70612E+08
 
   -0.70964E+08         0.16207E+06         0.00000E+00
    0.16207E+06        -0.93744E+08         0.00000E+00
    0.00000E+00         0.00000E+00        -0.70496E+08
 
   -0.70813E+08         0.15843E+06         0.00000E+00
    0.15843E+06        -0.93661E+08         0.00000E+00
    0.00000E+00         0.00000E+00        -0.70384E+08
 
   -0.70664E+08         0.15506E+06         0.00000E+00
    0.15506E+06        -0.93580E+08         0.00000E+00
    0.00000E+00         0.00000E+00        -0.70274E+08
 
   -0.70519E+08         0.15194E+06         0.00000E+00
    0.15194E+06        -0.93499E+08         0.00000E+00
    0.00000E+00         0.00000E+00        -0.70166E+08
 
   -0.70375E+08         0.14907E+06         0.00000E+00
    0.14907E+06        -0.93420E+08         0.00000E+00
    0.00000E+00         0.00000E+00        -0.70060E+08
 
   -0.70234E+08         0.14646E+06         0.00000E+00
    0.14646E+06        -0.93342E+08         0.00000E+00
    0.00000E+00         0.00000E+00        -0.69956E+08
 
   -0.70095E+08         0.14411E+06         0.00000E+00
    0.14411E+06        -0.93265E+08         0.00000E+00
    0.00000E+00         0.00000E+00        -0.69854E+08
 
   -0.69958E+08         0.14200E+06         0.00000E+00
    0.14200E+06        -0.93189E+08         0.00000E+00
    0.00000E+00         0.00000E+00        -0.69753E+08
 
   -0.69823E+08         0.14014E+06         0.00000E+00
    0.14014E+06        -0.93113E+08         0.00000E+00
    0.00000E+00         0.00000E+00        -0.69653E+08
 
   -0.69688E+08         0.13852E+06         0.00000E+00
    0.13852E+06        -0.93038E+08         0.00000E+00
    0.00000E+00         0.00000E+00        -0.69554E+08
 
   -0.69555E+08         0.13714E+06         0.00000E+00
    0.13714E+06        -0.92964E+08         0.00000E+00
    0.00000E+00         0.00000E+00        -0.69455E+08
 
   -0.69423E+08         0.13599E+06         0.00000E+00
    0.13599E+06        -0.92890E+08         0.00000E+00
    0.00000E+00         0.00000E+00        -0.69357E+08
 
   -0.69291E+08         0.13508E+06         0.00000E+00
    0.13508E+06        -0.92816E+08         0.00000E+00
    0.00000E+00         0.00000E+00        -0.69260E+08
 
   -0.69160E+08         0.13439E+06         0.00000E+00
    0.13439E+06        -0.92743E+08         0.00000E+00
    0.00000E+00         0.00000E+00        -0.69162E+08
 
   -0.69028E+08         0.13392E+06         0.00000E+00
    0.13392E+06        -0.92669E+08         0.00000E+00
    0.00000E+00         0.00000E+00        -0.69064E+08
 
   -0.68897E+08         0.13366E+06         0.00000E+00
    0.13366E+06        -0.92595E+08         0.00000E+00
    0.00000E+00         0.00000E+00        -0.68965E+08
 
   -0.68766E+08         0.13361E+06         0.00000E+00
    0.13361E+06        -0.92521E+08         0.00000E+00
    0.00000E+00         0.00000E+00        -0.68866E+08
 
   -0.68634E+08         0.13375E+06         0.00000E+00
    0.13375E+06        -0.92447E+08         0.00000E+00
    0.00000E+00         0.00000E+00        -0.68766E+08
 
   -0.68501E+08         0.13409E+06         0.00000E+00
    0.13409E+06        -0.92372E+08         0.00000E+00
    0.00000E+00         0.00000E+00        -0.68664E+08
 
   -0.68368E+08         0.13461E+06         0.00000E+00
    0.13461E+06        -0.92297E+08         0.00000E+00
    0.00000E+00         0.00000E+00        -0.68562E+08
 
   -0.68233E+08         0.13531E+06         0.00000E+00
    0.13531E+06        -0.92221E+08         0.00000E+00
    0.00000E+00         0.00000E+00        -0.68457E+08
 
   -0.68097E+08         0.13617E+06         0.00000E+00
    0.13617E+06        -0.92145E+08         0.00000E+00
    0.00000E+00         0.00000E+00        -0.68351E+08
 
   -0.67960E+08         0.13718E+06         0.00000E+00
    0.13718E+06        -0.92067E+08         0.00000E+00
    0.00000E+00         0.00000E+00        -0.68242E+08
 
   -0.67821E+08         0.13832E+06         0.00000E+00
    0.13832E+06        -0.91989E+08         0.00000E+00
    0.00000E+00         0.00000E+00        -0.68131E+08
 
   -0.67680E+08         0.13959E+06         0.00000E+00
    0.13959E+06        -0.91910E+08         0.00000E+00
    0.00000E+00         0.00000E+00        -0.68017E+08
 
   -0.67537E+08         0.14096E+06         0.00000E+00
    0.14096E+06        -0.91829E+08         0.00000E+00
    0.00000E+00         0.00000E+00        -0.67901E+08
 
   -0.67393E+08         0.14242E+06         0.00000E+00
    0.14242E+06        -0.91748E+08         0.00000E+00
    0.00000E+00         0.00000E+00        -0.67781E+08
 
   -0.67245E+08         0.14395E+06         0.00000E+00
    0.14395E+06        -0.91665E+08         0.00000E+00
    0.00000E+00         0.00000E+00        -0.67657E+08
 
   -0.67096E+08         0.14551E+06         0.00000E+00
    0.14551E+06        -0.91581E+08         0.00000E+00
    0.00000E+00         0.00000E+00        -0.67529E+08
 
   -0.66944E+08         0.14708E+06         0.00000E+00
    0.14708E+06        -0.91496E+08         0.00000E+00
    0.00000E+00         0.00000E+00        -0.67398E+08
 
   -0.66789E+08         0.14862E+06         0.00000E+00
    0.14862E+06        -0.91409E+08         0.00000E+00
    0.00000E+00         0.00000E+00        -0.67261E+08
 
   -0.66632E+08         0.15009E+06         0.00000E+00
    0.15009E+06        -0.91321E+08         0.00000E+00
    0.00000E+00         0.00000E+00        -0.67120E+08
 
   -0.66472E+08         0.15144E+06         0.00000E+00
    0.15144E+06        -0.91233E+08         0.00000E+00
    0.00000E+00         0.00000E+00        -0.66973E+08
 
   -0.66309E+08         0.15263E+06         0.00000E+00
    0.15263E+06        -0.91143E+08         0.00000E+00
    0.00000E+00         0.00000E+00        -0.66821E+08
 
   -0.66144E+08         0.15357E+06         0.00000E+00
    0.15357E+06        -0.91052E+08         0.00000E+00
    0.00000E+00         0.00000E+00        -0.66662E+08
 
   -0.65977E+08         0.15421E+06         0.00000E+00
    0.15421E+06        -0.90960E+08         0.00000E+00
    0.00000E+00         0.00000E+00        -0.66496E+08
 
   -0.65807E+08         0.15444E+06         0.00000E+00
    0.15444E+06        -0.90867E+08         0.00000E+00
    0.00000E+00         0.00000E+00        -0.66324E+08
 
   -0.65635E+08         0.15417E+06         0.00000E+00
    0.15417E+06        -0.90774E+08         0.00000E+00
    0.00000E+00         0.00000E+00        -0.66143E+08
 
   -0.65462E+08         0.15327E+06         0.00000E+00
    0.15327E+06        -0.90681E+08         0.00000E+00
    0.00000E+00         0.00000E+00        -0.65955E+08
 
   -0.65287E+08         0.15160E+06         0.00000E+00
    0.15160E+06        -0.90589E+08         0.00000E+00
    0.00000E+00         0.00000E+00        -0.65757E+08
 
   -0.65112E+08         0.14901E+06         0.00000E+00
    0.14901E+06        -0.90497E+08         0.00000E+00
    0.00000E+00         0.00000E+00        -0.65550E+08
 
   -0.64937E+08         0.14530E+06         0.00000E+00
    0.14530E+06        -0.90406E+08         0.00000E+00
    0.00000E+00         0.00000E+00        -0.65333E+08
 
   -0.64763E+08         0.14028E+06         0.00000E+00
    0.14028E+06        -0.90318E+08         0.00000E+00
    0.00000E+00         0.00000E+00        -0.65105E+08
 
   -0.64591E+08         0.13369E+06         0.00000E+00
    0.13369E+06        -0.90232E+08         0.00000E+00
    0.00000E+00         0.00000E+00        -0.64865E+08
 
   -0.64422E+08         0.12530E+06         0.00000E+00
    0.12530E+06        -0.90150E+08         0.00000E+00
    0.00000E+00         0.00000E+00        -0.64612E+08
 
   -0.64259E+08         0.11482E+06         0.00000E+00
    0.11482E+06        -0.90073E+08         0.00000E+00
    0.00000E+00         0.00000E+00        -0.64346E+08
 
   -0.64101E+08         0.10195E+06         0.00000E+00
    0.10195E+06        -0.90002E+08         0.00000E+00
    0.00000E+00         0.00000E+00        -0.64065E+08
 
   -0.63953E+08         0.86419E+05         0.00000E+00
    0.86419E+05        -0.89938E+08         0.00000E+00
    0.00000E+00         0.00000E+00        -0.63768E+08
 
   -0.63815E+08         0.67945E+05         0.00000E+00
    0.67945E+05        -0.89883E+08         0.00000E+00
    0.00000E+00         0.00000E+00        -0.63454E+08
 
   -0.63690E+08         0.46299E+05         0.00000E+00
    0.46299E+05        -0.89837E+08         0.00000E+00
    0.00000E+00         0.00000E+00        -0.63121E+08
 
   -0.63581E+08         0.21329E+05         0.00000E+00
    0.21329E+05        -0.89802E+08         0.00000E+00
    0.00000E+00         0.00000E+00        -0.62769E+08
 
   -0.63491E+08        -0.69893E+04         0.00000E+00
   -0.69893E+04        -0.89780E+08         0.00000E+00
    0.00000E+00         0.00000E+00        -0.62396E+08
 
   -0.63423E+08        -0.38500E+05         0.00000E+00
   -0.38500E+05        -0.89770E+08         0.00000E+00
    0.00000E+00         0.00000E+00        -0.62001E+08
 
   -0.63378E+08        -0.72783E+05         0.00000E+00
   -0.72783E+05        -0.89774E+08         0.00000E+00
    0.00000E+00         0.00000E+00        -0.61582E+08
 
   -0.63358E+08        -0.10904E+06         0.00000E+00
   -0.10904E+06        -0.89791E+08         0.00000E+00
    0.00000E+00         0.00000E+00        -0.61139E+08
 
   -0.63364E+08        -0.14587E+06         0.00000E+00
   -0.14587E+06        -0.89819E+08         0.00000E+00
    0.00000E+00         0.00000E+00        -0.60670E+08
 
   -0.63391E+08        -0.18054E+06         0.00000E+00
   -0.18054E+06        -0.89855E+08         0.00000E+00
    0.00000E+00         0.00000E+00        -0.60177E+08
 
   -0.63430E+08        -0.20851E+06         0.00000E+00
   -0.20851E+06        -0.89891E+08         0.00000E+00
    0.00000E+00         0.00000E+00        -0.59660E+08
 
   -0.63446E+08        -0.20612E+06         0.00000E+00
   -0.20612E+06        -0.89905E+08         0.00000E+00
    0.00000E+00         0.00000E+00        -0.59124E+08
 
   -0.63353E+08        -0.10015E+06         0.00000E+00
   -0.10015E+06        -0.89775E+08         0.00000E+00
    0.00000E+00         0.00000E+00        -0.58518E+08
 
   -0.77129E+08        -0.16072E+06         0.00000E+00
   -0.16072E+06        -0.95876E+08         0.00000E+00
    0.00000E+00         0.00000E+00        -0.85067E+08
 
   -0.76846E+08        -0.31284E+06         0.00000E+00
   -0.31284E+06        -0.95893E+08         0.00000E+00
    0.00000E+00         0.00000E+00        -0.84166E+08
 
   -0.76737E+08        -0.30738E+06         0.00000E+00
   -0.30738E+06        -0.96094E+08         0.00000E+00
    0.00000E+00         0.00000E+00        -0.83291E+08
 
   -0.76695E+08        -0.27021E+06         0.00000E+00
   -0.27021E+06        -0.96296E+08         0.00000E+00
    0.00000E+00         0.00000E+00        -0.82427E+08
 
   -0.76689E+08        -0.22352E+06         0.00000E+00
   -0.22352E+06        -0.96470E+08         0.00000E+00
    0.00000E+00         0.00000E+00        -0.81591E+08
 
   -0.76699E+08        -0.17150E+06         0.00000E+00
   -0.17150E+06        -0.96607E+08         0.00000E+00
    0.00000E+00         0.00000E+00        -0.80795E+08
 
   -0.76709E+08        -0.11848E+06         0.00000E+00
   -0.11848E+06        -0.96706E+08         0.00000E+00
    0.00000E+00         0.00000E+00        -0.80046E+08
 
   -0.76708E+08        -0.67038E+05         0.00000E+00
   -0.67038E+05        -0.96766E+08         0.00000E+00
    0.00000E+00         0.00000E+00        -0.79348E+08
 
   -0.76686E+08        -0.19084E+05         0.00000E+00
   -0.19084E+05        -0.96793E+08         0.00000E+00
    0.00000E+00         0.00000E+00        -0.78700E+08
 
   -0.76639E+08         0.24171E+05         0.00000E+00
    0.24171E+05        -0.96789E+08         0.00000E+00
    0.00000E+00         0.00000E+00        -0.78102E+08
 
   -0.76566E+08         0.62083E+05         0.00000E+00
    0.62083E+05        -0.96761E+08         0.00000E+00
    0.00000E+00         0.00000E+00        -0.77552E+08
 
   -0.76467E+08         0.94456E+05         0.00000E+00
    0.94456E+05        -0.96711E+08         0.00000E+00
    0.00000E+00         0.00000E+00        -0.77044E+08
 
   -0.76343E+08         0.12143E+06         0.00000E+00
    0.12143E+06        -0.96644E+08         0.00000E+00
    0.00000E+00         0.00000E+00        -0.76576E+08
 
   -0.76196E+08         0.14334E+06         0.00000E+00
    0.14334E+06        -0.96563E+08         0.00000E+00
    0.00000E+00         0.00000E+00        -0.76144E+08
 
   -0.76031E+08         0.16069E+06         0.00000E+00
    0.16069E+06        -0.96472E+08         0.00000E+00
    0.00000E+00         0.00000E+00        -0.75743E+08
 
   -0.75850E+08         0.17400E+06         0.00000E+00
    0.17400E+06        -0.96372E+08         0.00000E+00
    0.00000E+00         0.00000E+00        -0.75372E+08
 
   -0.75655E+08         0.18382E+06         0.00000E+00
    0.18382E+06        -0.96266E+08         0.00000E+00
    0.00000E+00         0.00000E+00        -0.75026E+08
 
   -0.75451E+08         0.19068E+06         0.00000E+00
    0.19068E+06        -0.96155E+08         0.00000E+00
    0.00000E+00         0.00000E+00        -0.74702E+08
 
   -0.75240E+08         0.19506E+06         0.00000E+00
    0.19506E+06        -0.96041E+08         0.00000E+00
    0.00000E+00         0.00000E+00        -0.74400E+08
 
   -0.75023E+08         0.19738E+06         0.00000E+00
    0.19738E+06        -0.95925E+08         0.00000E+00
    0.00000E+00         0.00000E+00        -0.74116E+08
 
   -0.74804E+08         0.19803E+06         0.00000E+00
    0.19803E+06        -0.95807E+08         0.00000E+00
    0.00000E+00         0.00000E+00        -0.73849E+08
 
   -0.74583E+08         0.19734E+06         0.00000E+00
    0.19734E+06        -0.95689E+08         0.00000E+00
    0.00000E+00         0.00000E+00        -0.73597E+08
 
   -0.74362E+08         0.19559E+06         0.00000E+00
    0.19559E+06        -0.95572E+08         0.00000E+00
    0.00000E+00         0.00000E+00        -0.73359E+08
 
   -0.74142E+08         0.19301E+06         0.00000E+00
    0.19301E+06        -0.95455E+08         0.00000E+00
    0.00000E+00         0.00000E+00        -0.73133E+08
 
   -0.73924E+08         0.18979E+06         0.00000E+00
    0.18979E+06        -0.95339E+08         0.00000E+00
    0.00000E+00         0.00000E+00        -0.72919E+08
 
   -0.73709E+08         0.18610E+06         0.00000E+00
    0.18610E+06        -0.95224E+08         0.00000E+00
    0.00000E+00         0.00000E+00        -0.72715E+08
 
   -0.73497E+08         0.18207E+06         0.00000E+00
    0.18207E+06        -0.95112E+08         0.00000E+00
    0.00000E+00         0.00000E+00        -0.72521E+08
 
   -0.73289E+08         0.17782E+06         0.00000E+00
    0.17782E+06        -0.95001E+08         0.00000E+00
    0.00000E+00         0.00000E+00        -0.72336E+08
 
   -0.73085E+08         0.17343E+06         0.00000E+00
    0.17343E+06        -0.94892E+08         0.00000E+00
    0.00000E+00         0.00000E+00        -0.72160E+08
 
   -0.72885E+08         0.16897E+06         0.00000E+00
    0.16897E+06        -0.94785E+08         0.00000E+00
    0.00000E+00         0.00000E+00        -0.71990E+08
 
   -0.72690E+08         0.16450E+06         0.00000E+00
    0.16450E+06        -0.94680E+08         0.00000E+00
    0.00000E+00         0.00000E+00        -0.71828E+08
 
   -0.72499E+08         0.16008E+06         0.00000E+00
    0.16008E+06        -0.94578E+08         0.00000E+00
    0.00000E+00         0.00000E+00        -0.71672E+08
 
   -0.72312E+08         0.15573E+06         0.00000E+00
    0.15573E+06        -0.94478E+08         0.00000E+00
    0.00000E+00         0.00000E+00        -0.71523E+08
 
   -0.72130E+08         0.15150E+06         0.00000E+00
    0.15150E+06        -0.94379E+08         0.00000E+00
    0.00000E+00         0.00000E+00        -0.71378E+08
 
   -0.71952E+08         0.14739E+06         0.00000E+00
    0.14739E+06        -0.94283E+08         0.00000E+00
    0.00000E+00         0.00000E+00        -0.71239E+08
 
   -0.71779E+08         0.14344E+06         0.00000E+00
    0.14344E+06        -0.94189E+08         0.00000E+00
    0.00000E+00         0.00000E+00        -0.71105E+08
 
   -0.71609E+08         0.13966E+06         0.00000E+00
    0.13966E+06        -0.94097E+08         0.00000E+00
    0.00000E+00         0.00000E+00        -0.70975E+08
 
   -0.71444E+08         0.13605E+06         0.00000E+00
    0.13605E+06        -0.94007E+08         0.00000E+00
    0.00000E+00         0.00000E+00        -0.70850E+08
 
   -0.71282E+08         0.13262E+06         0.00000E+00
    0.13262E+06        -0.93919E+08         0.00000E+00
    0.00000E+00         0.00000E+00        -0.70728E+08
 
   -0.71124E+08         0.12939E+06         0.00000E+00
    0.12939E+06        -0.93832E+08         0.00000E+00
    0.00000E+00         0.00000E+00        -0.70609E+08
 
   -0.70969E+08         0.12635E+06         0.00000E+00
    0.12635E+06        -0.93748E+08         0.00000E+00
    0.00000E+00         0.00000E+00        -0.70494E+08
 
   -0.70817E+08         0.12352E+06         0.00000E+00
    0.12352E+06        -0.93664E+08         0.00000E+00
    0.00000E+00         0.00000E+00        -0.70381E+08
 
   -0.70668E+08         0.12088E+06         0.00000E+00
    0.12088E+06        -0.93582E+08         0.00000E+00
    0.00000E+00         0.00000E+00        -0.70271E+08
 
   -0.70522E+08         0.11844E+06         0.00000E+00
    0.11844E+06        -0.93502E+08         0.00000E+00
    0.00000E+00         0.00000E+00        -0.70164E+08
 
   -0.70379E+08         0.11620E+06         0.00000E+00
    0.11620E+06        -0.93422E+08         0.00000E+00
    0.00000E+00         0.00000E+00        -0.70058E+08
 
   -0.70237E+08         0.11417E+06         0.00000E+00
    0.11417E+06        -0.93344E+08         0.00000E+00
    0.00000E+00         0.00000E+00        -0.69954E+08
 
   -0.70098E+08         0.11232E+06         0.00000E+00
    0.11232E+06        -0.93267E+08         0.00000E+00
    0.00000E+00         0.00000E+00        -0.69852E+08
 
   -0.69960E+08         0.11068E+06         0.00000E+00
    0.11068E+06        -0.93190E+08         0.00000E+00
    0.00000E+00         0.00000E+00        -0.69751E+08
 
   -0.69824E+08         0.10922E+06         0.00000E+00
    0.10922E+06        -0.93115E+08         0.00000E+00
    0.00000E+00         0.00000E+00        -0.69652E+08
 
   -0.69689E+08         0.10796E+06         0.00000E+00
    0.10796E+06        -0.93039E+08         0.00000E+00
    0.00000E+00         0.00000E+00        -0.69553E+08
 
   -0.69556E+08         0.10688E+06         0.00000E+00
    0.10688E+06        -0.92965E+08         0.00000E+00
    0.00000E+00         0.00000E+00        -0.69455E+08
 
   -0.69423E+08         0.10599E+06         0.00000E+00
    0.10599E+06        -0.92891E+08         0.00000E+00
    0.00000E+00         0.00000E+00        -0.69357E+08
 
   -0.69291E+08         0.10527E+06         0.00000E+00
    0.10527E+06        -0.92817E+08         0.00000E+00
    0.00000E+00         0.00000E+00        -0.69259E+08
 
   -0.69159E+08         0.10473E+06         0.00000E+00
    0.10473E+06        -0.92743E+08         0.00000E+00
    0.00000E+00         0.00000E+00        -0.69162E+08
 
   -0.69028E+08         0.10437E+06         0.00000E+00
    0.10437E+06        -0.92669E+08         0.00000E+00
    0.00000E+00         0.00000E+00        -0.69064E+08
 
   -0.68896E+08         0.10416E+06         0.00000E+00
    0.10416E+06        -0.92595E+08         0.00000E+00
    0.00000E+00         0.00000E+00        -0.68965E+08
 
   -0.68764E+08         0.10412E+06         0.00000E+00
    0.10412E+06        -0.92521E+08         0.00000E+00
    0.00000E+00         0.00000E+00        -0.68866E+08
 
   -0.68632E+08         0.10424E+06         0.00000E+00
    0.10424E+06        -0.92446E+08         0.00000E+00
    0.00000E+00         0.00000E+00        -0.68766E+08
 
   -0.68499E+08         0.10450E+06         0.00000E+00
    0.10450E+06        -0.92371E+08         0.00000E+00
    0.00000E+00         0.00000E+00        -0.68665E+08
 
   -0.68365E+08         0.10491E+06         0.00000E+00
    0.10491E+06        -0.92296E+08         0.00000E+00
    0.00000E+00         0.00000E+00        -0.68562E+08
 
   -0.68230E+08         0.10545E+06         0.00000E+00
    0.10545E+06        -0.92220E+08         0.00000E+00
    0.00000E+00         0.00000E+00        -0.68458E+08
 
   -0.68094E+08         0.10612E+06         0.00000E+00
    0.10612E+06        -0.92143E+08         0.00000E+00
    0.00000E+00         0.00000E+00        -0.68352E+08
 
   -0.67956E+08         0.10691E+06         0.00000E+00
    0.10691E+06        -0.92065E+08         0.00000E+00
    0.00000E+00         0.00000E+00        -0.68243E+08
 
   -0.67817E+08         0.10780E+06         0.00000E+00
    0.10780E+06        -0.91987E+08         0.00000E+00
    0.00000E+00         0.00000E+00        -0.68132E+08
 
   -0.67675E+08         0.10879E+06         0.00000E+00
    0.10879E+06        -0.91907E+08         0.00000E+00
    0.00000E+00         0.00000E+00        -0.68019E+08
 
   -0.67532E+08         0.10987E+06         0.00000E+00
    0.10987E+06        -0.91826E+08         0.00000E+00
    0.00000E+00         0.00000E+00        -0.67902E+08
 
   -0.67387E+08         0.11101E+06         0.00000E+00
    0.11101E+06        -0.91744E+08         0.00000E+00
    0.00000E+00         0.00000E+00        -0.67782E+08
 
   -0.67239E+08         0.11220E+06         0.00000E+00
    0.11220E+06        -0.91661E+08         0.00000E+00
    0.00000E+00         0.00000E+00        -0.67659E+08
 
   -0.67089E+08         0.11342E+06         0.00000E+00
    0.11342E+06        -0.91577E+08         0.00000E+00
    0.00000E+00         0.00000E+00        -0.67532E+08
 
   -0.66936E+08         0.11465E+06         0.00000E+00
    0.11465E+06        -0.91491E+08         0.00000E+00
    0.00000E+00         0.00000E+00        -0.67400E+08
 
   -0.66781E+08         0.11585E+06         0.00000E+00
    0.11585E+06        -0.91404E+08         0.00000E+00
    0.00000E+00         0.00000E+00        -0.67264E+08
 
   -0.66623E+08         0.11701E+06         0.00000E+00
    0.11701E+06        -0.91316E+08         0.00000E+00
    0.00000E+00         0.00000E+00        -0.67122E+08
 
   -0.66463E+08         0.11807E+06         0.00000E+00
    0.11807E+06        -0.91227E+08         0.00000E+00
    0.00000E+00         0.00000E+00        -0.66976E+08
 
   -0.66300E+08         0.11900E+06         0.00000E+00
    0.11900E+06        -0.91137E+08         0.00000E+00
    0.00000E+00         0.00000E+00        -0.66823E+08
 
   -0.66134E+08         0.11975E+06         0.00000E+00
    0.11975E+06        -0.91045E+08         0.00000E+00
    0.00000E+00         0.00000E+00        -0.66665E+08
 
   -0.65966E+08         0.12025E+06         0.00000E+00
    0.12025E+06        -0.90953E+08         0.00000E+00
    0.00000E+00         0.00000E+00        -0.66499E+08
 
   -0.65796E+08         0.12044E+06         0.00000E+00
    0.12044E+06        -0.90860E+08         0.00000E+00
    0.00000E+00         0.00000E+00        -0.66327E+08
 
   -0.65623E+08         0.12023E+06         0.00000E+00
    0.12023E+06        -0.90766E+08         0.00000E+00
    0.00000E+00         0.00000E+00        -0.66147E+08
 
   -0.65449E+08         0.11953E+06         0.00000E+00
    0.11953E+06        -0.90673E+08         0.00000E+00
    0.00000E+00         0.00000E+00        -0.65958E+08
 
   -0.65274E+08         0.11823E+06         0.00000E+00
    0.11823E+06        -0.90579E+08         0.00000E+00
    0.00000E+00         0.00000E+00        -0.65761E+08
 
   -0.65098E+08         0.11620E+06         0.00000E+00
    0.11620E+06        -0.90487E+08         0.00000E+00
    0.00000E+00         0.00000E+00        -0.65554E+08
 
   -0.64922E+08         0.11329E+06         0.00000E+00
    0.11329E+06        -0.90396E+08         0.00000E+00
    0.00000E+00         0.00000E+00        -0.65337E+08
 
   -0.64748E+08         0.10933E+06         0.00000E+00
    0.10933E+06        -0.90307E+08         0.00000E+00
    0.00000E+00         0.00000E+00        -0.65108E+08
 
   -0.64575E+08         0.10414E+06         0.00000E+00
    0.10414E+06        -0.90221E+08         0.00000E+00
    0.00000E+00         0.00000E+00        -0.64868E+08
 
   -0.64406E+08         0.97512E+05         0.00000E+00
    0.97512E+05        -0.90139E+08         0.00000E+00
    0.00000E+00         0.00000E+00        -0.64615E+08
 
   -0.64242E+08         0.89216E+05         0.00000E+00
    0.89216E+05        -0.90061E+08         0.00000E+00
    0.00000E+00         0.00000E+00        -0.64349E+08
 
   -0.64085E+08         0.79018E+05         0.00000E+00
    0.79018E+05        -0.89990E+08         0.00000E+00
    0.00000E+00         0.00000E+00        -0.64067E+08
 
   -0.63937E+08         0.66678E+05         0.00000E+00
    0.66678E+05        -0.89926E+08         0.00000E+00
    0.00000E+00         0.00000E+00        -0.63770E+08
 
   -0.63801E+08         0.51967E+05         0.00000E+00
    0.51967E+05        -0.89871E+08         0.00000E+00
    0.00000E+00         0.00000E+00        -0.63455E+08
 
   -0.63678E+08         0.34685E+05         0.00000E+00
    0.34685E+05        -0.89826E+08         0.00000E+00
    0.00000E+00         0.00000E+00        -0.63122E+08
 
   -0.63573E+08         0.14690E+05         0.00000E+00
    0.14690E+05        -0.89794E+08         0.00000E+00
    0.00000E+00         0.00000E+00        -0.62768E+08
 
   -0.63488E+08        -0.80734E+04         0.00000E+00
   -0.80734E+04        -0.89774E+08         0.00000E+00
    0.00000E+00         0.00000E+00        -0.62394E+08
 
   -0.63426E+08        -0.33525E+05         0.00000E+00
   -0.33525E+05        -0.89768E+08         0.00000E+00
    0.00000E+00         0.00000E+00        -0.61996E+08
 
   -0.63390E+08        -0.61408E+05         0.00000E+00
   -0.61408E+05        -0.89777E+08         0.00000E+00
    0.00000E+00         0.00000E+00        -0.61575E+08
 
   -0.63382E+08        -0.91194E+05         0.00000E+00
   -0.91194E+05        -0.89800E+08         0.00000E+00
    0.00000E+00         0.00000E+00        -0.61128E+08
 
   -0.63404E+08        -0.12204E+06         0.00000E+00
   -0.12204E+06        -0.89838E+08         0.00000E+00
    0.00000E+00         0.00000E+00        -0.60655E+08
 
   -0.63453E+08        -0.15205E+06         0.00000E+00
   -0.15205E+06        -0.89886E+08         0.00000E+00
    0.00000E+00         0.00000E+00        -0.60157E+08
 
   -0.63522E+08        -0.17894E+06         0.00000E+00
   -0.17894E+06        -0.89938E+08         0.00000E+00
    0.00000E+00         0.00000E+00        -0.59633E+08
 
   -0.63583E+08        -0.18833E+06         0.00000E+00
   -0.18833E+06        -0.89982E+08         0.00000E+00
    0.00000E+00         0.00000E+00        -0.59094E+08
 
   -0.63536E+08        -0.99972E+05         0.00000E+00
   -0.99972E+05        -0.89896E+08         0.00000E+00
    0.00000E+00         0.00000E+00        -0.58498E+08
 
   -0.76983E+08        -0.15351E+06         0.00000E+00
   -0.15351E+06        -0.95664E+08         0.00000E+00
    0.00000E+00         0.00000E+00        -0.85104E+08
 
   -0.76740E+08        -0.26113E+06         0.00000E+00
   -0.26113E+06        -0.95763E+08         0.00000E+00
    0.00000E+00         0.00000E+00        -0.84211E+08
 
   -0.76661E+08        -0.23909E+06         0.00000E+00
   -0.23909E+06        -0.96015E+08         0.00000E+00
    0.00000E+00         0.00000E+00        -0.83331E+08
 
   -0.76638E+08        -0.20787E+06         0.00000E+00
   -0.20787E+06        -0.96244E+08         0.00000E+00
    0.00000E+00         0.00000E+00        -0.82458E+08
 
   -0.76649E+08        -0.17098E+06         0.00000E+00
   -0.17098E+06        -0.96439E+08         0.00000E+00
    0.00000E+00         0.00000E+00        -0.81615E+08
 
   -0.76675E+08        -0.13128E+06         0.00000E+00
   -0.13128E+06        -0.96592E+08         0.00000E+00
    0.00000E+00         0.00000E+00        -0.80812E+08
 
   -0.76698E+08        -0.91408E+05         0.00000E+00
   -0.91408E+05        -0.96701E+08         0.00000E+00
    0.00000E+00         0.00000E+00        -0.80057E+08
 
   -0.76707E+08        -0.53005E+05         0.00000E+00
   -0.53005E+05        -0.96770E+08         0.00000E+00
    0.00000E+00         0.00000E+00        -0.79352E+08
 
   -0.76695E+08        -0.17382E+05         0.00000E+00
   -0.17382E+05        -0.96802E+08         0.00000E+00
    0.00000E+00         0.00000E+00        -0.78700E+08
 
   -0.76655E+08         0.14638E+05         0.00000E+00
    0.14638E+05        -0.96802E+08         0.00000E+00
    0.00000E+00         0.00000E+00        -0.78099E+08
 
   -0.76587E+08         0.42622E+05         0.00000E+00
    0.42622E+05        -0.96776E+08         0.00000E+00
    0.00000E+00         0.00000E+00        -0.77545E+08
 
   -0.76491E+08         0.66458E+05         0.00000E+00
    0.66458E+05        -0.96727E+08         0.00000E+00
    0.00000E+00         0.00000E+00        -0.77035E+08
 
   -0.76370E+08         0.86269E+05         0.00000E+00
    0.86269E+05        -0.96661E+08         0.00000E+00
    0.00000E+00         0.00000E+00        -0.76566E+08
 
   -0.76225E+08         0.10233E+06         0.00000E+00
    0.10233E+06        -0.96581E+08         0.00000E+00
    0.00000E+00         0.00000E+00        -0.76133E+08
 
   -0.76060E+08         0.11502E+06         0.00000E+00
    0.11502E+06        -0.96489E+08         0.00000E+00
    0.00000E+00         0.00000E+00        -0.75732E+08
 
   -0.75878E+08         0.12474E+06         0.00000E+00
    0.12474E+06        -0.96389E+08         0.00000E+00
    0.00000E+00         0.00000E+00        -0.75360E+08
 
   -0.75683E+08         0.13189E+06         0.00000E+00
    0.13189E+06        -0.96282E+08         0.00000E+00
    0.00000E+00         0.00000E+00        -0.75014E+08
 
   -0.75478E+08         0.13687E+06         0.00000E+00
    0.13687E+06        -0.96170E+08         0.00000E+00
    0.00000E+00         0.00000E+00        -0.74691E+08
 
   -0.75266E+08         0.14004E+06         0.00000E+00
    0.14004E+06        -0.96055E+08         0.00000E+00
    0.00000E+00         0.00000E+00        -0.74389E+08
 
   -0.75048E+08         0.14171E+06         0.00000E+00
    0.14171E+06        -0.95938E+08         0.00000E+00
    0.00000E+00         0.00000E+00        -0.74106E+08
 
   -0.74827E+08         0.14217E+06         0.00000E+00
    0.14217E+06        -0.95820E+08         0.00000E+00
    0.00000E+00         0.00000E+00        -0.73839E+08
 
   -0.74605E+08         0.14166E+06         0.00000E+00
    0.14166E+06        -0.95701E+08         0.00000E+00
    0.00000E+00         0.00000E+00        -0.73588E+08
 
   -0.74382E+08         0.14038E+06         0.00000E+00
    0.14038E+06        -0.95583E+08         0.00000E+00
    0.00000E+00         0.00000E+00        -0.73350E+08
 
   -0.74161E+08         0.13850E+06         0.00000E+00
    0.13850E+06        -0.95465E+08         0.00000E+00
    0.00000E+00         0.00000E+00        -0.73125E+08
 
   -0.73942E+08         0.13617E+06         0.00000E+00
    0.13617E+06        -0.95349E+08         0.00000E+00
    0.00000E+00         0.00000E+00        -0.72911E+08
 
   -0.73726E+08         0.13350E+06         0.00000E+00
    0.13350E+06        -0.95234E+08         0.00000E+00
    0.00000E+00         0.00000E+00        -0.72708E+08
 
   -0.73513E+08         0.13059E+06         0.00000E+00
    0.13059E+06        -0.95120E+08         0.00000E+00
    0.00000E+00         0.00000E+00        -0.72515E+08
 
   -0.73303E+08         0.12751E+06         0.00000E+00
    0.12751E+06        -0.95009E+08         0.00000E+00
    0.00000E+00         0.00000E+00        -0.72330E+08
 
   -0.73098E+08         0.12434E+06         0.00000E+00
    0.12434E+06        -0.94900E+08         0.00000E+00
    0.00000E+00         0.00000E+00        -0.72154E+08
 
   -0.72898E+08         0.12113E+06         0.00000E+00
    0.12113E+06        -0.94792E+08         0.00000E+00
    0.00000E+00         0.00000E+00        -0.71985E+08
 
   -0.72701E+08         0.11791E+06         0.00000E+00
    0.11791E+06        -0.94687E+08         0.00000E+00
    0.00000E+00         0.00000E+00        -0.71823E+08
 
   -0.72510E+08         0.11473E+06         0.00000E+00
    0.11473E+06        -0.94584E+08         0.00000E+00
    0.00000E+00         0.00000E+00        -0.71667E+08
 
   -0.72322E+08         0.11160E+06         0.00000E+00
    0.11160E+06        -0.94483E+08         0.00000E+00
    0.00000E+00         0.00000E+00        -0.71518E+08
 
   -0.72140E+08         0.10855E+06         0.00000E+00
    0.10855E+06        -0.94385E+08         0.00000E+00
    0.00000E+00         0.00000E+00        -0.71374E+08
 
   -0.71961E+08         0.10560E+06         0.00000E+00
    0.10560E+06        -0.94288E+08         0.00000E+00
    0.00000E+00         0.00000E+00        -0.71236E+08
 
   -0.71787E+08         0.10276E+06         0.00000E+00
    0.10276E+06        -0.94194E+08         0.00000E+00
    0.00000E+00         0.00000E+00        -0.71102E+08
 
   -0.71617E+08         0.10004E+06         0.00000E+00
    0.10004E+06        -0.94102E+08         0.00000E+00
    0.00000E+00         0.00000E+00        -0.70972E+08
 
   -0.71451E+08         0.97445E+05         0.00000E+00
    0.97445E+05        -0.94011E+08         0.00000E+00
    0.00000E+00         0.00000E+00        -0.70847E+08
 
   -0.71289E+08         0.94986E+05         0.00000E+00
    0.94986E+05        -0.93923E+08         0.00000E+00
    0.00000E+00         0.00000E+00        -0.70725E+08
 
   -0.71130E+08         0.92665E+05         0.00000E+00
    0.92665E+05        -0.93836E+08         0.00000E+00
    0.00000E+00         0.00000E+00        -0.70607E+08
 
   -0.70974E+08         0.90485E+05         0.00000E+00
    0.90485E+05        -0.93751E+08         0.00000E+00
    0.00000E+00         0.00000E+00        -0.70491E+08
 
   -0.70822E+08         0.88448E+05         0.00000E+00
    0.88448E+05        -0.93667E+08         0.00000E+00
    0.00000E+00         0.00000E+00        -0.70379E+08
 
   -0.70673E+08         0.86555E+05         0.00000E+00
    0.86555E+05        -0.93585E+08         0.00000E+00
    0.00000E+00         0.00000E+00        -0.70269E+08
 
   -0.70526E+08         0.84805E+05         0.00000E+00
    0.84805E+05        -0.93504E+08         0.00000E+00
    0.00000E+00         0.00000E+00        -0.70162E+08
 
   -0.70382E+08         0.83200E+05         0.00000E+00
    0.83200E+05        -0.93424E+08         0.00000E+00
    0.00000E+00         0.00000E+00        -0.70057E+08
 
   -0.70240E+08         0.81737E+05         0.00000E+00
    0.81737E+05        -0.93346E+08         0.00000E+00
    0.00000E+00         0.00000E+00        -0.69953E+08
 
   -0.70100E+08         0.80416E+05         0.00000E+00
    0.80416E+05        -0.93268E+08         0.00000E+00
    0.00000E+00         0.00000E+00        -0.69851E+08
 
   -0.69962E+08         0.79235E+05         0.00000E+00
    0.79235E+05        -0.93192E+08         0.00000E+00
    0.00000E+00         0.00000E+00        -0.69750E+08
 
   -0.69826E+08         0.78192E+05         0.00000E+00
    0.78192E+05        -0.93116E+08         0.00000E+00
    0.00000E+00         0.00000E+00        -0.69651E+08
 
   -0.69691E+08         0.77285E+05         0.00000E+00
    0.77285E+05        -0.93040E+08         0.00000E+00
    0.00000E+00         0.00000E+00        -0.69552E+08
 
   -0.69557E+08         0.76512E+05         0.00000E+00
    0.76512E+05        -0.92965E+08         0.00000E+00
    0.00000E+00         0.00000E+00        -0.69454E+08
 
   -0.69423E+08         0.75871E+05         0.00000E+00
    0.75871E+05        -0.92891E+08         0.00000E+00
    0.00000E+00         0.00000E+00        -0.69356E+08
 
   -0.69291E+08         0.75358E+05         0.00000E+00
    0.75358E+05        -0.92817E+08         0.00000E+00
    0.00000E+00         0.00000E+00        -0.69259E+08
 
   -0.69159E+08         0.74971E+05         0.00000E+00
    0.74971E+05        -0.92743E+08         0.00000E+00
    0.00000E+00         0.00000E+00        -0.69161E+08
 
   -0.69027E+08         0.74706E+05         0.00000E+00
    0.74706E+05        -0.92669E+08         0.00000E+00
    0.00000E+00         0.00000E+00        -0.69064E+08
 
   -0.68895E+08         0.74561E+05         0.00000E+00
    0.74561E+05        -0.92594E+08         0.00000E+00
    0.00000E+00         0.00000E+00        -0.68965E+08
 
   -0.68763E+08         0.74531E+05         0.00000E+00
    0.74531E+05        -0.92520E+08         0.00000E+00
    0.00000E+00         0.00000E+00        -0.68867E+08
 
   -0.68630E+08         0.74613E+05         0.00000E+00
    0.74613E+05        -0.92445E+08         0.00000E+00
    0.00000E+00         0.00000E+00        -0.68767E+08
 
   -0.68496E+08         0.74802E+05         0.00000E+00
    0.74802E+05        -0.92370E+08         0.00000E+00
    0.00000E+00         0.00000E+00        -0.68666E+08
 
   -0.68362E+08         0.75094E+05         0.00000E+00
    0.75094E+05        -0.92294E+08         0.00000E+00
    0.00000E+00         0.00000E+00        -0.68563E+08
 
   -0.68227E+08         0.75483E+05         0.00000E+00
    0.75483E+05        -0.92218E+08         0.00000E+00
    0.00000E+00         0.00000E+00        -0.68459E+08
 
   -0.68090E+08         0.75963E+05         0.00000E+00
    0.75963E+05        -0.92141E+08         0.00000E+00
    0.00000E+00         0.00000E+00        -0.68353E+08
 
   -0.67952E+08         0.76528E+05         0.00000E+00
    0.76528E+05        -0.92063E+08         0.00000E+00
    0.00000E+00         0.00000E+00        -0.68244E+08
 
   -0.67812E+08         0.77171E+05         0.00000E+00
    0.77171E+05        -0.91984E+08         0.00000E+00
    0.00000E+00         0.00000E+00        -0.68134E+08
 
   -0.67671E+08         0.77883E+05         0.00000E+00
    0.77883E+05        -0.91904E+08         0.00000E+00
    0.00000E+00         0.00000E+00        -0.68020E+08
 
   -0.67527E+08         0.78654E+05         0.00000E+00
    0.78654E+05        -0.91823E+08         0.00000E+00
    0.00000E+00         0.00000E+00        -0.67904E+08
 
   -0.67381E+08         0.79475E+05         0.00000E+00
    0.79475E+05        -0.91741E+08         0.00000E+00
    0.00000E+00         0.00000E+00        -0.67784E+08
 
   -0.67233E+08         0.80331E+05         0.00000E+00
    0.80331E+05        -0.91658E+08         0.00000E+00
    0.00000E+00         0.00000E+00        -0.67661E+08
 
   -0.67082E+08         0.81210E+05         0.00000E+00
    0.81210E+05        -0.91573E+08         0.00000E+00
    0.00000E+00         0.00000E+00        -0.67534E+08
 
   -0.66929E+08         0.82094E+05         0.00000E+00
    0.82094E+05        -0.91487E+08         0.00000E+00
    0.00000E+00         0.00000E+00        -0.67402E+08
 
   -0.66773E+08         0.82964E+05         0.00000E+00
    0.82964E+05        -0.91400E+08         0.00000E+00
    0.00000E+00         0.00000E+00        -0.67266E+08
 
   -0.66615E+08         0.83797E+05         0.00000E+00
    0.83797E+05        -0.91311E+08         0.00000E+00
    0.00000E+00         0.00000E+00        -0.67125E+08
 
   -0.66454E+08         0.84566E+05         0.00000E+00
    0.84566E+05        -0.91221E+08         0.00000E+00
    0.00000E+00         0.00000E+00        -0.66978E+08
 
   -0.66290E+08         0.85240E+05         0.00000E+00
    0.85240E+05        -0.91130E+08         0.00000E+00
    0.00000E+00         0.00000E+00        -0.66826E+08
 
   -0.66124E+08         0.85783E+05         0.00000E+00
    0.85783E+05        -0.91039E+08         0.00000E+00
    0.00000E+00         0.00000E+00        -0.66668E+08
 
   -0.65955E+08         0.86150E+05         0.00000E+00
    0.86150E+05        -0.90946E+08         0.00000E+00
    0.00000E+00         0.00000E+00        -0.66502E+08
 
   -0.65784E+08         0.86293E+05         0.00000E+00
    0.86293E+05        -0.90852E+08         0.00000E+00
    0.00000E+00         0.00000E+00        -0.66330E+08
 
   -0.65611E+08         0.86150E+05         0.00000E+00
    0.86150E+05        -0.90758E+08         0.00000E+00
    0.00000E+00         0.00000E+00        -0.66150E+08
 
   -0.65436E+08         0.85653E+05         0.00000E+00
    0.85653E+05        -0.90664E+08         0.00000E+00
    0.00000E+00         0.00000E+00        -0.65962E+08
 
   -0.65260E+08         0.84721E+05         0.00000E+00
    0.84721E+05        -0.90570E+08         0.00000E+00
    0.00000E+00         0.00000E+00        -0.65764E+08
 
   -0.65083E+08         0.83260E+05         0.00000E+00
    0.83260E+05        -0.90477E+08         0.00000E+00
    0.00000E+00         0.00000E+00        -0.65558E+08
 
   -0.64907E+08         0.81162E+05         0.00000E+00
    0.81162E+05        -0.90385E+08         0.00000E+00
    0.00000E+00         0.00000E+00        -0.65341E+08
 
   -0.64732E+08         0.78305E+05         0.00000E+00
    0.78305E+05        -0.90296E+08         0.00000E+00
    0.00000E+00         0.00000E+00        -0.65112E+08
 
   -0.64559E+08         0.74548E+05         0.00000E+00
    0.74548E+05        -0.90209E+08         0.00000E+00
    0.00000E+00         0.00000E+00        -0.64872E+08
 
   -0.64389E+08         0.69738E+05         0.00000E+00
    0.69738E+05        -0.90126E+08         0.00000E+00
    0.00000E+00         0.00000E+00        -0.64619E+08
 
   -0.64225E+08         0.63708E+05         0.00000E+00
    0.63708E+05        -0.90049E+08         0.00000E+00
    0.00000E+00         0.00000E+00        -0.64352E+08
 
   -0.64069E+08         0.56279E+05         0.00000E+00
    0.56279E+05        -0.89977E+08         0.00000E+00
    0.00000E+00         0.00000E+00        -0.64071E+08
 
   -0.63921E+08         0.47268E+05         0.00000E+00
    0.47268E+05        -0.89914E+08         0.00000E+00
    0.00000E+00         0.00000E+00        -0.63773E+08
 
   -0.63786E+08         0.36499E+05         0.00000E+00
    0.36499E+05        -0.89859E+08         0.00000E+00
    0.00000E+00         0.00000E+00        -0.63457E+08
 
   -0.63665E+08         0.23811E+05         0.00000E+00
    0.23811E+05        -0.89816E+08         0.00000E+00
    0.00000E+00         0.00000E+00        -0.63123E+08
 
   -0.63563E+08         0.90823E+04         0.00000E+00
    0.90823E+04        -0.89785E+08         0.00000E+00
    0.00000E+00         0.00000E+00        -0.62768E+08
 
   -0.63482E+08        -0.77527E+04         0.00000E+00
   -0.77527E+04        -0.89767E+08         0.00000E+00
    0.00000E+00         0.00000E+00        -0.62392E+08
 
   -0.63426E+08        -0.26673E+05         0.00000E+00
   -0.26673E+05        -0.89765E+08         0.00000E+00
    0.00000E+00         0.00000E+00        -0.61993E+08
 
   -0.63399E+08        -0.47549E+05         0.00000E+00
   -0.47549E+05        -0.89779E+08         0.00000E+00
    0.00000E+00         0.00000E+00        -0.61569E+08
 
   -0.63404E+08        -0.70086E+05         0.00000E+00
   -0.70086E+05        -0.89810E+08         0.00000E+00
    0.00000E+00         0.00000E+00        -0.61119E+08
 
   -0.63442E+08        -0.93862E+05         0.00000E+00
   -0.93862E+05        -0.89856E+08         0.00000E+00
    0.00000E+00         0.00000E+00        -0.60642E+08
 
   -0.63513E+08        -0.11788E+06         0.00000E+00
   -0.11788E+06        -0.89917E+08         0.00000E+00
    0.00000E+00         0.00000E+00        -0.60138E+08
 
   -0.63614E+08        -0.14079E+06         0.00000E+00
   -0.14079E+06        -0.89985E+08         0.00000E+00
    0.00000E+00         0.00000E+00        -0.59607E+08
 
   -0.63726E+08        -0.15983E+06         0.00000E+00
   -0.15983E+06        -0.90058E+08         0.00000E+00
    0.00000E+00         0.00000E+00        -0.59060E+08
 
   -0.63740E+08        -0.97253E+05         0.00000E+00
   -0.97253E+05        -0.90025E+08         0.00000E+00
    0.00000E+00         0.00000E+00        -0.58472E+08
 
   -0.76828E+08        -0.13960E+06         0.00000E+00
   -0.13960E+06        -0.95435E+08         0.00000E+00
    0.00000E+00         0.00000E+00        -0.85144E+08
 
   -0.76638E+08        -0.18708E+06         0.00000E+00
   -0.18708E+06        -0.95639E+08         0.00000E+00
    0.00000E+00         0.00000E+00        -0.84258E+08
 
   -0.76586E+08        -0.15784E+06         0.00000E+00
   -0.15784E+06        -0.95936E+08         0.00000E+00
    0.00000E+00         0.00000E+00        -0.83368E+08
 
   -0.76583E+08        -0.13641E+06         0.00000E+00
   -0.13641E+06        -0.96193E+08         0.00000E+00
    0.00000E+00         0.00000E+00        -0.82488E+08
 
   -0.76612E+08        -0.11110E+06         0.00000E+00
   -0.11110E+06        -0.96410E+08         0.00000E+00
    0.00000E+00         0.00000E+00        -0.81637E+08
 
   -0.76652E+08        -0.85385E+05         0.00000E+00
   -0.85385E+05        -0.96577E+08         0.00000E+00
    0.00000E+00         0.00000E+00        -0.80827E+08
 
   -0.76689E+08        -0.59847E+05         0.00000E+00
   -0.59847E+05        -0.96698E+08         0.00000E+00
    0.00000E+00         0.00000E+00        -0.80064E+08
 
   -0.76709E+08        -0.35523E+05         0.00000E+00
   -0.35523E+05        -0.96774E+08         0.00000E+00
    0.00000E+00         0.00000E+00        -0.79354E+08
 
   -0.76706E+08        -0.13091E+05         0.00000E+00
   -0.13091E+05        -0.96811E+08         0.00000E+00
    0.00000E+00         0.00000E+00        -0.78698E+08
 
   -0.76673E+08         0.69737E+04         0.00000E+00
    0.69737E+04        -0.96815E+08         0.00000E+00
    0.00000E+00         0.00000E+00        -0.78093E+08
 
   -0.76611E+08         0.24441E+05         0.00000E+00
    0.24441E+05        -0.96791E+08         0.00000E+00
    0.00000E+00         0.00000E+00        -0.77536E+08
 
   -0.76518E+08         0.39266E+05         0.00000E+00
    0.39266E+05        -0.96744E+08         0.00000E+00
    0.00000E+00         0.00000E+00        -0.77025E+08
 
   -0.76399E+08         0.51548E+05         0.00000E+00
    0.51548E+05        -0.96679E+08         0.00000E+00
    0.00000E+00         0.00000E+00        -0.76555E+08
 
   -0.76255E+08         0.61477E+05         0.00000E+00
    0.61477E+05        -0.96598E+08         0.00000E+00
    0.00000E+00         0.00000E+00        -0.76121E+08
 
   -0.76090E+08         0.69294E+05         0.00000E+00
    0.69294E+05        -0.96506E+08         0.00000E+00
    0.00000E+00         0.00000E+00        -0.75720E+08
 
   -0.75908E+08         0.75261E+05         0.00000E+00
    0.75261E+05        -0.96405E+08         0.00000E+00
    0.00000E+00         0.00000E+00        -0.75348E+08
 
   -0.75713E+08         0.79640E+05         0.00000E+00
    0.79640E+05        -0.96298E+08         0.00000E+00
    0.00000E+00         0.00000E+00        -0.75002E+08
 
   -0.75506E+08         0.82678E+05         0.00000E+00
    0.82678E+05        -0.96186E+08         0.00000E+00
    0.00000E+00         0.00000E+00        -0.74680E+08
 
   -0.75293E+08         0.84600E+05         0.00000E+00
    0.84600E+05        -0.96070E+08         0.00000E+00
    0.00000E+00         0.00000E+00        -0.74378E+08
 
   -0.75073E+08         0.85607E+05         0.00000E+00
    0.85607E+05        -0.95952E+08         0.00000E+00
    0.00000E+00         0.00000E+00        -0.74095E+08
 
   -0.74851E+08         0.85872E+05         0.00000E+00
    0.85872E+05        -0.95833E+08         0.00000E+00
    0.00000E+00         0.00000E+00        -0.73829E+08
 
   -0.74627E+08         0.85545E+05         0.00000E+00
    0.85545E+05        -0.95714E+08         0.00000E+00
    0.00000E+00         0.00000E+00        -0.73578E+08
 
   -0.74403E+08         0.84750E+05         0.00000E+00
    0.84750E+05        -0.95595E+08         0.00000E+00
    0.00000E+00         0.00000E+00        -0.73341E+08
 
   -0.74181E+08         0.83594E+05         0.00000E+00
    0.83594E+05        -0.95476E+08         0.00000E+00
    0.00000E+00         0.00000E+00        -0.73117E+08
 
   -0.73960E+08         0.82164E+05         0.00000E+00
    0.82164E+05        -0.95359E+08         0.00000E+00
    0.00000E+00         0.00000E+00        -0.72904E+08
 
   -0.73743E+08         0.80531E+05         0.00000E+00
    0.80531E+05        -0.95243E+08         0.00000E+00
    0.00000E+00         0.00000E+00        -0.72701E+08
 
   -0.73529E+08         0.78755E+05         0.00000E+00
    0.78755E+05        -0.95129E+08         0.00000E+00
    0.00000E+00         0.00000E+00        -0.72508E+08
 
   -0.73318E+08         0.76884E+05         0.00000E+00
    0.76884E+05        -0.95017E+08         0.00000E+00
    0.00000E+00         0.00000E+00        -0.72324E+08
 
   -0.73112E+08         0.74956E+05         0.00000E+00
    0.74956E+05        -0.94907E+08         0.00000E+00
    0.00000E+00         0.00000E+00        -0.72148E+08
 
   -0.72911E+08         0.73003E+05         0.00000E+00
    0.73003E+05        -0.94799E+08         0.00000E+00
    0.00000E+00         0.00000E+00        -0.71979E+08
 
   -0.72714E+08         0.71051E+05         0.00000E+00
    0.71051E+05        -0.94694E+08         0.00000E+00
    0.00000E+00         0.00000E+00        -0.71818E+08
 
   -0.72521E+08         0.69119E+05         0.00000E+00
    0.69119E+05        -0.94591E+08         0.00000E+00
    0.00000E+00         0.00000E+00        -0.71663E+08
 
   -0.72333E+08         0.67225E+05         0.00000E+00
    0.67225E+05        -0.94489E+08         0.00000E+00
    0.00000E+00         0.00000E+00        -0.71514E+08
 
   -0.72149E+08         0.65379E+05         0.00000E+00
    0.65379E+05        -0.94390E+08         0.00000E+00
    0.00000E+00         0.00000E+00        -0.71370E+08
 
   -0.71970E+08         0.63593E+05         0.00000E+00
    0.63593E+05        -0.94294E+08         0.00000E+00
    0.00000E+00         0.00000E+00        -0.71232E+08
 
   -0.71795E+08         0.61875E+05         0.00000E+00
    0.61875E+05        -0.94199E+08         0.00000E+00
    0.00000E+00         0.00000E+00        -0.71098E+08
 
   -0.71625E+08         0.60230E+05         0.00000E+00
    0.60230E+05        -0.94106E+08         0.00000E+00
    0.00000E+00         0.00000E+00        -0.70969E+08
 
   -0.71458E+08         0.58663E+05         0.00000E+00
    0.58663E+05        -0.94015E+08         0.00000E+00
    0.00000E+00         0.00000E+00        -0.70844E+08
 
   -0.71295E+08         0.57178E+05         0.00000E+00
    0.57178E+05        -0.93927E+08         0.00000E+00
    0.00000E+00         0.00000E+00        -0.70722E+08
 
   -0.71136E+08         0.55776E+05         0.00000E+00
    0.55776E+05        -0.93839E+08         0.00000E+00
    0.00000E+00         0.00000E+00        -0.70604E+08
 
   -0.70980E+08         0.54460E+05         0.00000E+00
    0.54460E+05        -0.93754E+08         0.00000E+00
    0.00000E+00         0.00000E+00        -0.70489E+08
 
   -0.70827E+08         0.53231E+05         0.00000E+00
    0.53231E+05        -0.93670E+08         0.00000E+00
    0.00000E+00         0.00000E+00        -0.70377E+08
 
   -0.70677E+08         0.52088E+05         0.00000E+00
    0.52088E+05        -0.93588E+08         0.00000E+00
    0.00000E+00         0.00000E+00        -0.70268E+08
 
   -0.70530E+08         0.51032E+05         0.00000E+00
    0.51032E+05        -0.93507E+08         0.00000E+00
    0.00000E+00         0.00000E+00        -0.70160E+08
 
   -0.70385E+08         0.50064E+05         0.00000E+00
    0.50064E+05        -0.93427E+08         0.00000E+00
    0.00000E+00         0.00000E+00        -0.70055E+08
 
   -0.70243E+08         0.49181E+05         0.00000E+00
    0.49181E+05        -0.93348E+08         0.00000E+00
    0.00000E+00         0.00000E+00        -0.69952E+08
 
   -0.70103E+08         0.48384E+05         0.00000E+00
    0.48384E+05        -0.93270E+08         0.00000E+00
    0.00000E+00         0.00000E+00        -0.69850E+08
 
   -0.69964E+08         0.47672E+05         0.00000E+00
    0.47672E+05        -0.93193E+08         0.00000E+00
    0.00000E+00         0.00000E+00        -0.69749E+08
 
   -0.69827E+08         0.47043E+05         0.00000E+00
    0.47043E+05        -0.93117E+08         0.00000E+00
    0.00000E+00         0.00000E+00        -0.69650E+08
 
   -0.69692E+08         0.46496E+05         0.00000E+00
    0.46496E+05        -0.93041E+08         0.00000E+00
    0.00000E+00         0.00000E+00        -0.69551E+08
 
   -0.69557E+08         0.46030E+05         0.00000E+00
    0.46030E+05        -0.92966E+08         0.00000E+00
    0.00000E+00         0.00000E+00        -0.69454E+08
 
   -0.69424E+08         0.45643E+05         0.00000E+00
    0.45643E+05        -0.92891E+08         0.00000E+00
    0.00000E+00         0.00000E+00        -0.69356E+08
 
   -0.69291E+08         0.45334E+05         0.00000E+00
    0.45334E+05        -0.92817E+08         0.00000E+00
    0.00000E+00         0.00000E+00        -0.69259E+08
 
   -0.69158E+08         0.45100E+05         0.00000E+00
    0.45100E+05        -0.92743E+08         0.00000E+00
    0.00000E+00         0.00000E+00        -0.69161E+08
 
   -0.69026E+08         0.44941E+05         0.00000E+00
    0.44941E+05        -0.92668E+08         0.00000E+00
    0.00000E+00         0.00000E+00        -0.69064E+08
 
   -0.68894E+08         0.44853E+05         0.00000E+00
    0.44853E+05        -0.92594E+08         0.00000E+00
    0.00000E+00         0.00000E+00        -0.68966E+08
 
   -0.68761E+08         0.44835E+05         0.00000E+00
    0.44835E+05        -0.92519E+08         0.00000E+00
    0.00000E+00         0.00000E+00        -0.68867E+08
 
   -0.68628E+08         0.44885E+05         0.00000E+00
    0.44885E+05        -0.92444E+08         0.00000E+00
    0.00000E+00         0.00000E+00        -0.68767E+08
 
   -0.68494E+08         0.44999E+05         0.00000E+00
    0.44999E+05        -0.92369E+08         0.00000E+00
    0.00000E+00         0.00000E+00        -0.68666E+08
 
   -0.68360E+08         0.45175E+05         0.00000E+00
    0.45175E+05        -0.92293E+08         0.00000E+00
    0.00000E+00         0.00000E+00        -0.68564E+08
 
   -0.68224E+08         0.45410E+05         0.00000E+00
    0.45410E+05        -0.92216E+08         0.00000E+00
    0.00000E+00         0.00000E+00        -0.68460E+08
 
   -0.68087E+08         0.45700E+05         0.00000E+00
    0.45700E+05        -0.92139E+08         0.00000E+00
    0.00000E+00         0.00000E+00        -0.68354E+08
 
   -0.67948E+08         0.46041E+05         0.00000E+00
    0.46041E+05        -0.92061E+08         0.00000E+00
    0.00000E+00         0.00000E+00        -0.68246E+08
 
   -0.67808E+08         0.46429E+05         0.00000E+00
    0.46429E+05        -0.91981E+08         0.00000E+00
    0.00000E+00         0.00000E+00        -0.68135E+08
 
   -0.67666E+08         0.46860E+05         0.00000E+00
    0.46860E+05        -0.91901E+08         0.00000E+00
    0.00000E+00         0.00000E+00        -0.68022E+08
 
   -0.67522E+08         0.47327E+05         0.00000E+00
    0.47327E+05        -0.91820E+08         0.00000E+00
    0.00000E+00         0.00000E+00        -0.67905E+08
 
   -0.67375E+08         0.47823E+05         0.00000E+00
    0.47823E+05        -0.91737E+08         0.00000E+00
    0.00000E+00         0.00000E+00        -0.67786E+08
 
   -0.67227E+08         0.48342E+05         0.00000E+00
    0.48342E+05        -0.91654E+08         0.00000E+00
    0.00000E+00         0.00000E+00        -0.67663E+08
 
   -0.67076E+08         0.48875E+05         0.00000E+00
    0.48875E+05        -0.91569E+08         0.00000E+00
    0.00000E+00         0.00000E+00        -0.67536E+08
 
   -0.66922E+08         0.49411E+05         0.00000E+00
    0.49411E+05        -0.91482E+08         0.00000E+00
    0.00000E+00         0.00000E+00        -0.67404E+08
 
   -0.66766E+08         0.49940E+05         0.00000E+00
    0.49940E+05        -0.91395E+08         0.00000E+00
    0.00000E+00         0.00000E+00        -0.67268E+08
 
   -0.66607E+08         0.50446E+05         0.00000E+00
    0.50446E+05        -0.91306E+08         0.00000E+00
    0.00000E+00         0.00000E+00        -0.67127E+08
 
   -0.66445E+08         0.50916E+05         0.00000E+00
    0.50916E+05        -0.91216E+08         0.00000E+00
    0.00000E+00         0.00000E+00        -0.66981E+08
 
   -0.66281E+08         0.51328E+05         0.00000E+00
    0.51328E+05        -0.91124E+08         0.00000E+00
    0.00000E+00         0.00000E+00        -0.66829E+08
 
   -0.66114E+08         0.51662E+05         0.00000E+00
    0.51662E+05        -0.91032E+08         0.00000E+00
    0.00000E+00         0.00000E+00        -0.66671E+08
 
   -0.65944E+08         0.51891E+05         0.00000E+00
    0.51891E+05        -0.90938E+08         0.00000E+00
    0.00000E+00         0.00000E+00        -0.66506E+08
 
   -0.65772E+08         0.51983E+05         0.00000E+00
    0.51983E+05        -0.90844E+08         0.00000E+00
    0.00000E+00         0.00000E+00        -0.66333E+08
 
   -0.65598E+08         0.51904E+05         0.00000E+00
    0.51904E+05        -0.90750E+08         0.00000E+00
    0.00000E+00         0.00000E+00        -0.66154E+08
 
   -0.65423E+08         0.51610E+05         0.00000E+00
    0.51610E+05        -0.90655E+08         0.00000E+00
    0.00000E+00         0.00000E+00        -0.65965E+08
 
   -0.65246E+08         0.51052E+05         0.00000E+00
    0.51052E+05        -0.90560E+08         0.00000E+00
    0.00000E+00         0.00000E+00        -0.65768E+08
 
   -0.65069E+08         0.50171E+05         0.00000E+00
    0.50171E+05        -0.90467E+08         0.00000E+00
    0.00000E+00         0.00000E+00        -0.65562E+08
 
   -0.64892E+08         0.48902E+05         0.00000E+00
    0.48902E+05        -0.90374E+08         0.00000E+00
    0.00000E+00         0.00000E+00        -0.65345E+08
 
   -0.64716E+08         0.47167E+05         0.00000E+00
    0.47167E+05        -0.90284E+08         0.00000E+00
    0.00000E+00         0.00000E+00        -0.65116E+08
 
   -0.64542E+08         0.44879E+05         0.00000E+00
    0.44879E+05        -0.90197E+08         0.00000E+00
    0.00000E+00         0.00000E+00        -0.64876E+08
 
   -0.64372E+08         0.41942E+05         0.00000E+00
    0.41942E+05        -0.90114E+08         0.00000E+00
    0.00000E+00         0.00000E+00        -0.64623E+08
 
   -0.64208E+08         0.38250E+05         0.00000E+00
    0.38250E+05        -0.90036E+08         0.00000E+00
    0.00000E+00         0.00000E+00        -0.64356E+08
 
   -0.64051E+08         0.33688E+05         0.00000E+00
    0.33688E+05        -0.89964E+08         0.00000E+00
    0.00000E+00         0.00000E+00        -0.64074E+08
 
   -0.63904E+08         0.28139E+05         0.00000E+00
    0.28139E+05        -0.89901E+08         0.00000E+00
    0.00000E+00         0.00000E+00        -0.63776E+08
 
   -0.63769E+08         0.21485E+05         0.00000E+00
    0.21485E+05        -0.89847E+08         0.00000E+00
    0.00000E+00         0.00000E+00        -0.63460E+08
 
   -0.63651E+08         0.13619E+05         0.00000E+00
    0.13619E+05        -0.89805E+08         0.00000E+00
    0.00000E+00         0.00000E+00        -0.63125E+08
 
   -0.63551E+08         0.44504E+04         0.00000E+00
    0.44504E+04        -0.89775E+08         0.00000E+00
    0.00000E+00         0.00000E+00        -0.62770E+08
 
   -0.63475E+08        -0.60794E+04         0.00000E+00
   -0.60794E+04        -0.89761E+08         0.00000E+00
    0.00000E+00         0.00000E+00        -0.62392E+08
 
   -0.63425E+08        -0.17987E+05         0.00000E+00
   -0.17987E+05        -0.89762E+08         0.00000E+00
    0.00000E+00         0.00000E+00        -0.61991E+08
 
   -0.63407E+08        -0.31228E+05         0.00000E+00
   -0.31228E+05        -0.89781E+08         0.00000E+00
    0.00000E+00         0.00000E+00        -0.61564E+08
 
   -0.63423E+08        -0.45717E+05         0.00000E+00
   -0.45717E+05        -0.89819E+08         0.00000E+00
    0.00000E+00         0.00000E+00        -0.61111E+08
 
   -0.63477E+08        -0.61232E+05         0.00000E+00
   -0.61232E+05        -0.89874E+08         0.00000E+00
    0.00000E+00         0.00000E+00        -0.60630E+08
 
   -0.63572E+08        -0.77819E+05         0.00000E+00
   -0.77819E+05        -0.89947E+08         0.00000E+00
    0.00000E+00         0.00000E+00        -0.60120E+08
 
   -0.63705E+08        -0.93816E+05         0.00000E+00
   -0.93816E+05        -0.90032E+08         0.00000E+00
    0.00000E+00         0.00000E+00        -0.59581E+08
 
   -0.63872E+08        -0.11631E+06         0.00000E+00
   -0.11631E+06        -0.90132E+08         0.00000E+00
    0.00000E+00         0.00000E+00        -0.59021E+08
 
   -0.63972E+08        -0.90120E+05         0.00000E+00
   -0.90120E+05        -0.90163E+08         0.00000E+00
    0.00000E+00         0.00000E+00        -0.58437E+08
 
   -0.76664E+08        -0.11427E+06         0.00000E+00
   -0.11427E+06        -0.95186E+08         0.00000E+00
    0.00000E+00         0.00000E+00        -0.85188E+08
 
   -0.76544E+08        -0.82668E+05         0.00000E+00
   -0.82668E+05        -0.95523E+08         0.00000E+00
    0.00000E+00         0.00000E+00        -0.84303E+08
 
   -0.76514E+08        -0.65915E+05         0.00000E+00
   -0.65915E+05        -0.95856E+08         0.00000E+00
    0.00000E+00         0.00000E+00        -0.83401E+08
 
   -0.76532E+08        -0.54959E+05         0.00000E+00
   -0.54959E+05        -0.96144E+08         0.00000E+00
    0.00000E+00         0.00000E+00        -0.82515E+08
 
   -0.76578E+08        -0.44088E+05         0.00000E+00
   -0.44088E+05        -0.96380E+08         0.00000E+00
    0.00000E+00         0.00000E+00        -0.81656E+08
 
   -0.76633E+08        -0.33746E+05         0.00000E+00
   -0.33746E+05        -0.96564E+08         0.00000E+00
    0.00000E+00         0.00000E+00        -0.80838E+08
 
   -0.76683E+08        -0.23870E+05         0.00000E+00
   -0.23870E+05        -0.96695E+08         0.00000E+00
    0.00000E+00         0.00000E+00        -0.80069E+08
 
   -0.76715E+08        -0.14668E+05         0.00000E+00
   -0.14668E+05        -0.96779E+08         0.00000E+00
    0.00000E+00         0.00000E+00        -0.79354E+08
 
   -0.76720E+08        -0.63218E+04         0.00000E+00
   -0.63218E+04        -0.96822E+08         0.00000E+00
    0.00000E+00         0.00000E+00        -0.78692E+08
 
   -0.76694E+08         0.10532E+04         0.00000E+00
    0.10532E+04        -0.96829E+08         0.00000E+00
    0.00000E+00         0.00000E+00        -0.78084E+08
 
   -0.76637E+08         0.74065E+04         0.00000E+00
    0.74065E+04        -0.96807E+08         0.00000E+00
    0.00000E+00         0.00000E+00        -0.77526E+08
 
   -0.76548E+08         0.12750E+05         0.00000E+00
    0.12750E+05        -0.96761E+08         0.00000E+00
    0.00000E+00         0.00000E+00        -0.77013E+08
 
   -0.76430E+08         0.17139E+05         0.00000E+00
    0.17139E+05        -0.96696E+08         0.00000E+00
    0.00000E+00         0.00000E+00        -0.76541E+08
 
   -0.76287E+08         0.20659E+05         0.00000E+00
    0.20659E+05        -0.96616E+08         0.00000E+00
    0.00000E+00         0.00000E+00        -0.76107E+08
 
   -0.76122E+08         0.23408E+05         0.00000E+00
    0.23408E+05        -0.96524E+08         0.00000E+00
    0.00000E+00         0.00000E+00        -0.75706E+08
 
   -0.75940E+08         0.25490E+05         0.00000E+00
    0.25490E+05        -0.96422E+08         0.00000E+00
    0.00000E+00         0.00000E+00        -0.75335E+08
 
   -0.75743E+08         0.27003E+05         0.00000E+00
    0.27003E+05        -0.96314E+08         0.00000E+00
    0.00000E+00         0.00000E+00        -0.74990E+08
 
   -0.75536E+08         0.28042E+05         0.00000E+00
    0.28042E+05        -0.96201E+08         0.00000E+00
    0.00000E+00         0.00000E+00        -0.74668E+08
 
   -0.75321E+08         0.28689E+05         0.00000E+00
    0.28689E+05        -0.96085E+08         0.00000E+00
    0.00000E+00         0.00000E+00        -0.74367E+08
 
   -0.75100E+08         0.29017E+05         0.00000E+00
    0.29017E+05        -0.95966E+08         0.00000E+00
    0.00000E+00         0.00000E+00        -0.74085E+08
 
   -0.74876E+08         0.29089E+05         0.00000E+00
    0.29089E+05        -0.95846E+08         0.00000E+00
    0.00000E+00         0.00000E+00        -0.73819E+08
 
   -0.74651E+08         0.28958E+05         0.00000E+00
    0.28958E+05        -0.95726E+08         0.00000E+00
    0.00000E+00         0.00000E+00        -0.73569E+08
 
   -0.74425E+08         0.28668E+05         0.00000E+00
    0.28668E+05        -0.95606E+08         0.00000E+00
    0.00000E+00         0.00000E+00        -0.73333E+08
 
   -0.74201E+08         0.28256E+05         0.00000E+00
    0.28256E+05        -0.95487E+08         0.00000E+00
    0.00000E+00         0.00000E+00        -0.73109E+08
 
   -0.73979E+08         0.27753E+05         0.00000E+00
    0.27753E+05        -0.95369E+08         0.00000E+00
    0.00000E+00         0.00000E+00        -0.72896E+08
 
   -0.73760E+08         0.27183E+05         0.00000E+00
    0.27183E+05        -0.95253E+08         0.00000E+00
    0.00000E+00         0.00000E+00        -0.72694E+08
 
   -0.73545E+08         0.26567E+05         0.00000E+00
    0.26567E+05        -0.95138E+08         0.00000E+00
    0.00000E+00         0.00000E+00        -0.72501E+08
 
   -0.73334E+08         0.25920E+05         0.00000E+00
    0.25920E+05        -0.95026E+08         0.00000E+00
    0.00000E+00         0.00000E+00        -0.72318E+08
 
   -0.73127E+08         0.25257E+05         0.00000E+00
    0.25257E+05        -0.94915E+08         0.00000E+00
    0.00000E+00         0.00000E+00        -0.72142E+08
 
   -0.72924E+08         0.24586E+05         0.00000E+00
    0.24586E+05        -0.94807E+08         0.00000E+00
    0.00000E+00         0.00000E+00        -0.71974E+08
 
   -0.72726E+08         0.23918E+05         0.00000E+00
    0.23918E+05        -0.94701E+08         0.00000E+00
    0.00000E+00         0.00000E+00        -0.71813E+08
 
   -0.72532E+08         0.23258E+05         0.00000E+00
    0.23258E+05        -0.94597E+08         0.00000E+00
    0.00000E+00         0.00000E+00        -0.71658E+08
 
   -0.72343E+08         0.22612E+05         0.00000E+00
    0.22612E+05        -0.94495E+08         0.00000E+00
    0.00000E+00         0.00000E+00        -0.71510E+08
 
   -0.72159E+08         0.21984E+05         0.00000E+00
    0.21984E+05        -0.94396E+08         0.00000E+00
    0.00000E+00         0.00000E+00        -0.71366E+08
 
   -0.71979E+08         0.21377E+05         0.00000E+00
    0.21377E+05        -0.94299E+08         0.00000E+00
    0.00000E+00         0.00000E+00        -0.71228E+08
 
   -0.71804E+08         0.20793E+05         0.00000E+00
    0.20793E+05        -0.94204E+08         0.00000E+00
    0.00000E+00         0.00000E+00        -0.71095E+08
 
   -0.71632E+08         0.20236E+05         0.00000E+00
    0.20236E+05        -0.94111E+08         0.00000E+00
    0.00000E+00         0.00000E+00        -0.70966E+08
 
   -0.71465E+08         0.19705E+05         0.00000E+00
    0.19705E+05        -0.94020E+08         0.00000E+00
    0.00000E+00         0.00000E+00        -0.70841E+08
 
   -0.71301E+08         0.19202E+05         0.00000E+00
    0.19202E+05        -0.93930E+08         0.00000E+00
    0.00000E+00         0.00000E+00        -0.70720E+08
 
   -0.71141E+08         0.18728E+05         0.00000E+00
    0.18728E+05        -0.93843E+08         0.00000E+00
    0.00000E+00         0.00000E+00        -0.70602E+08
 
   -0.70985E+08         0.18283E+05         0.00000E+00
    0.18283E+05        -0.93757E+08         0.00000E+00
    0.00000E+00         0.00000E+00        -0.70487E+08
 
   -0.70832E+08         0.17867E+05         0.00000E+00
    0.17867E+05        -0.93673E+08         0.00000E+00
    0.00000E+00         0.00000E+00        -0.70375E+08
 
   -0.70681E+08         0.17481E+05         0.00000E+00
    0.17481E+05        -0.93590E+08         0.00000E+00
    0.00000E+00         0.00000E+00        -0.70266E+08
 
   -0.70534E+08         0.17125E+05         0.00000E+00
    0.17125E+05        -0.93509E+08         0.00000E+00
    0.00000E+00         0.00000E+00        -0.70159E+08
 
   -0.70389E+08         0.16798E+05         0.00000E+00
    0.16798E+05        -0.93429E+08         0.00000E+00
    0.00000E+00         0.00000E+00        -0.70054E+08
 
   -0.70246E+08         0.16500E+05         0.00000E+00
    0.16500E+05        -0.93350E+08         0.00000E+00
    0.00000E+00         0.00000E+00        -0.69951E+08
 
   -0.70105E+08         0.16231E+05         0.00000E+00
    0.16231E+05        -0.93272E+08         0.00000E+00
    0.00000E+00         0.00000E+00        -0.69849E+08
 
   -0.69966E+08         0.15991E+05         0.00000E+00
    0.15991E+05        -0.93194E+08         0.00000E+00
    0.00000E+00         0.00000E+00        -0.69749E+08
 
   -0.69829E+08         0.15779E+05         0.00000E+00
    0.15779E+05        -0.93118E+08         0.00000E+00
    0.00000E+00         0.00000E+00        -0.69649E+08
 
   -0.69693E+08         0.15595E+05         0.00000E+00
    0.15595E+05        -0.93042E+08         0.00000E+00
    0.00000E+00         0.00000E+00        -0.69551E+08
 
   -0.69558E+08         0.15438E+05         0.00000E+00
    0.15438E+05        -0.92967E+08         0.00000E+00
    0.00000E+00         0.00000E+00        -0.69453E+08
 
   -0.69424E+08         0.15308E+05         0.00000E+00
    0.15308E+05        -0.92892E+08         0.00000E+00
    0.00000E+00         0.00000E+00        -0.69356E+08
 
   -0.69291E+08         0.15204E+05         0.00000E+00
    0.15204E+05        -0.92817E+08         0.00000E+00
    0.00000E+00         0.00000E+00        -0.69259E+08
 
   -0.69158E+08         0.15125E+05         0.00000E+00
    0.15125E+05        -0.92743E+08         0.00000E+00
    0.00000E+00         0.00000E+00        -0.69161E+08
 
   -0.69025E+08         0.15071E+05         0.00000E+00
    0.15071E+05        -0.92668E+08         0.00000E+00
    0.00000E+00         0.00000E+00        -0.69064E+08
 
   -0.68893E+08         0.15042E+05         0.00000E+00
    0.15042E+05        -0.92593E+08         0.00000E+00
    0.00000E+00         0.00000E+00        -0.68966E+08
 
   -0.68760E+08         0.15036E+05         0.00000E+00
    0.15036E+05        -0.92518E+08         0.00000E+00
    0.00000E+00         0.00000E+00        -0.68867E+08
 
   -0.68626E+08         0.15053E+05         0.00000E+00
    0.15053E+05        -0.92443E+08         0.00000E+00
    0.00000E+00         0.00000E+00        -0.68768E+08
 
   -0.68492E+08         0.15092E+05         0.00000E+00
    0.15092E+05        -0.92368E+08         0.00000E+00
    0.00000E+00         0.00000E+00        -0.68667E+08
 
   -0.68357E+08         0.15152E+05         0.00000E+00
    0.15152E+05        -0.92291E+08         0.00000E+00
    0.00000E+00         0.00000E+00        -0.68565E+08
 
   -0.68221E+08         0.15232E+05         0.00000E+00
    0.15232E+05        -0.92214E+08         0.00000E+00
    0.00000E+00         0.00000E+00        -0.68461E+08
 
   -0.68083E+08         0.15330E+05         0.00000E+00
    0.15330E+05        -0.92137E+08         0.00000E+00
    0.00000E+00         0.00000E+00        -0.68355E+08
 
   -0.67944E+08         0.15446E+05         0.00000E+00
    0.15446E+05        -0.92058E+08         0.00000E+00
    0.00000E+00         0.00000E+00        -0.68247E+08
 
   -0.67804E+08         0.15578E+05         0.00000E+00
    0.15578E+05        -0.91979E+08         0.00000E+00
    0.00000E+00         0.00000E+00        -0.68136E+08
 
   -0.67661E+08         0.15725E+05         0.00000E+00
    0.15725E+05        -0.91898E+08         0.00000E+00
    0.00000E+00         0.00000E+00        -0.68023E+08
 
   -0.67516E+08         0.15884E+05         0.00000E+00
    0.15884E+05        -0.91817E+08         0.00000E+00
    0.00000E+00         0.00000E+00        -0.67907E+08
 
   -0.67370E+08         0.16053E+05         0.00000E+00
    0.16053E+05        -0.91734E+08         0.00000E+00
    0.00000E+00         0.00000E+00        -0.67788E+08
 
   -0.67221E+08         0.16230E+05         0.00000E+00
    0.16230E+05        -0.91650E+08         0.00000E+00
    0.00000E+00         0.00000E+00        -0.67665E+08
 
   -0.67069E+08         0.16413E+05         0.00000E+00
    0.16413E+05        -0.91564E+08         0.00000E+00
    0.00000E+00         0.00000E+00        -0.67538E+08
 
   -0.66915E+08         0.16597E+05         0.00000E+00
    0.16597E+05        -0.91478E+08         0.00000E+00
    0.00000E+00         0.00000E+00        -0.67406E+08
 
   -0.66758E+08         0.16779E+05         0.00000E+00
    0.16779E+05        -0.91390E+08         0.00000E+00
    0.00000E+00         0.00000E+00        -0.67271E+08
 
   -0.66598E+08         0.16954E+05         0.00000E+00
    0.16954E+05        -0.91300E+08         0.00000E+00
    0.00000E+00         0.00000E+00        -0.67130E+08
 
   -0.66436E+08         0.17118E+05         0.00000E+00
    0.17118E+05        -0.91210E+08         0.00000E+00
    0.00000E+00         0.00000E+00        -0.66984E+08
 
   -0.66271E+08         0.17262E+05         0.00000E+00
    0.17262E+05        -0.91118E+08         0.00000E+00
    0.00000E+00         0.00000E+00        -0.66832E+08
 
   -0.66103E+08         0.17381E+05         0.00000E+00
    0.17381E+05        -0.91025E+08         0.00000E+00
    0.00000E+00         0.00000E+00        -0.66674E+08
 
   -0.65933E+08         0.17465E+05         0.00000E+00
    0.17465E+05        -0.90931E+08         0.00000E+00
    0.00000E+00         0.00000E+00        -0.66509E+08
 
   -0.65761E+08         0.17503E+05         0.00000E+00
    0.17503E+05        -0.90836E+08         0.00000E+00
    0.00000E+00         0.00000E+00        -0.66337E+08
 
   -0.65586E+08         0.17483E+05         0.00000E+00
    0.17483E+05        -0.90741E+08         0.00000E+00
    0.00000E+00         0.00000E+00        -0.66157E+08
 
   -0.65409E+08         0.17390E+05         0.00000E+00
    0.17390E+05        -0.90646E+08         0.00000E+00
    0.00000E+00         0.00000E+00        -0.65969E+08
 
   -0.65232E+08         0.17206E+05         0.00000E+00
    0.17206E+05        -0.90551E+08         0.00000E+00
    0.00000E+00         0.00000E+00        -0.65772E+08
 
   -0.65054E+08         0.16911E+05         0.00000E+00
    0.16911E+05        -0.90456E+08         0.00000E+00
    0.00000E+00         0.00000E+00        -0.65566E+08
 
   -0.64876E+08         0.16482E+05         0.00000E+00
    0.16482E+05        -0.90363E+08         0.00000E+00
    0.00000E+00         0.00000E+00        -0.65349E+08
 
   -0.64699E+08         0.15889E+05         0.00000E+00
    0.15889E+05        -0.90273E+08         0.00000E+00
    0.00000E+00         0.00000E+00        -0.65121E+08
 
   -0.64524E+08         0.15102E+05         0.00000E+00
    0.15102E+05        -0.90185E+08         0.00000E+00
    0.00000E+00         0.00000E+00        -0.64881E+08
 
   -0.64354E+08         0.14085E+05         0.00000E+00
    0.14085E+05        -0.90101E+08         0.00000E+00
    0.00000E+00         0.00000E+00        -0.64628E+08
 
   -0.64189E+08         0.12798E+05         0.00000E+00
    0.12798E+05        -0.90023E+08         0.00000E+00
    0.00000E+00         0.00000E+00        -0.64361E+08
 
   -0.64032E+08         0.11197E+05         0.00000E+00
    0.11197E+05        -0.89951E+08         0.00000E+00
    0.00000E+00         0.00000E+00        -0.64079E+08
 
   -0.63885E+08         0.92359E+04         0.00000E+00
    0.92359E+04        -0.89888E+08         0.00000E+00
    0.00000E+00         0.00000E+00        -0.63781E+08
 
   -0.63752E+08         0.68681E+04         0.00000E+00
    0.68681E+04        -0.89835E+08         0.00000E+00
    0.00000E+00         0.00000E+00        -0.63464E+08
 
   -0.63635E+08         0.40470E+04         0.00000E+00
    0.40470E+04        -0.89793E+08         0.00000E+00
    0.00000E+00         0.00000E+00        -0.63129E+08
 
   -0.63538E+08         0.73055E+03         0.00000E+00
    0.73055E+03        -0.89766E+08         0.00000E+00
    0.00000E+00         0.00000E+00        -0.62772E+08
 
   -0.63466E+08        -0.31165E+04         0.00000E+00
   -0.31165E+04        -0.89754E+08         0.00000E+00
    0.00000E+00         0.00000E+00        -0.62394E+08
 
   -0.63422E+08        -0.75190E+04         0.00000E+00
   -0.75190E+04        -0.89759E+08         0.00000E+00
    0.00000E+00         0.00000E+00        -0.61990E+08
 
   -0.63412E+08        -0.12495E+05         0.00000E+00
   -0.12495E+05        -0.89783E+08         0.00000E+00
    0.00000E+00         0.00000E+00        -0.61561E+08
 
   -0.63440E+08        -0.18061E+05         0.00000E+00
   -0.18061E+05        -0.89827E+08         0.00000E+00
    0.00000E+00         0.00000E+00        -0.61105E+08
 
   -0.63510E+08        -0.24250E+05         0.00000E+00
   -0.24250E+05        -0.89892E+08         0.00000E+00
    0.00000E+00         0.00000E+00        -0.60620E+08
 
   -0.63628E+08        -0.31287E+05         0.00000E+00
   -0.31287E+05        -0.89976E+08         0.00000E+00
    0.00000E+00         0.00000E+00        -0.60104E+08
 
   -0.63795E+08        -0.39116E+05         0.00000E+00
   -0.39116E+05        -0.90080E+08         0.00000E+00
    0.00000E+00         0.00000E+00        -0.59558E+08
 
   -0.64015E+08        -0.51659E+05         0.00000E+00
   -0.51659E+05        -0.90198E+08         0.00000E+00
    0.00000E+00         0.00000E+00        -0.58980E+08
 
   -0.64240E+08        -0.74897E+05         0.00000E+00
   -0.74897E+05        -0.90312E+08         0.00000E+00
    0.00000E+00         0.00000E+00        -0.58389E+08
 
SCALARS stresss double 
LOOKUP_TABLE default
  -88529786.1235671     
  -87780916.7423420     
  -87100590.4319221     
  -86481934.2547444     
  -85921404.6656081     
  -85411439.8201663     
  -84945249.8328174     
  -84516134.5649356     
  -84124040.5138459     
  -83809105.8755439     
  -83538560.9686975     
  -83283165.8601160     
  -83039844.7883553     
  -82806266.9328881     
  -82580711.9547330     
  -82361944.6091585     
  -82149105.0699080     
  -81941616.3131537     
  -81739108.2653636     
  -81541357.1633271     
  -81348238.1660256     
  -81159689.1377281     
  -80975683.6217068     
  -80796211.2139860     
  -80621263.7795539     
  -80450826.1924189     
  -80284870.5083355     
  -80123352.6847908     
  -79966211.1428152     
  -79813366.6184509     
  -79664722.8793813     
  -79520167.9865699     
  -79379575.8644846     
  -79242808.0096135     
  -79109715.2182683     
  -78980139.2538304     
  -78853914.4029509     
  -78730868.8917325     
  -78610826.1484083     
  -78493605.9097959     
  -78379025.1760616     
  -78266899.0229496     
  -78157041.2833515     
  -78049265.1114519     
  -77943383.4431347     
  -77839209.3661593     
  -77736556.4130685     
  -77635238.7890396     
  -77535071.5460590     
  -77435870.7139554     
  -77337453.3980552     
  -77239637.8525479     
  -77142243.5380460     
  -77045091.1714077     
  -76948002.7755539     
  -76850801.7368053     
  -76753312.8771790     
  -76655362.5490649     
  -76556778.7597713     
  -76457391.3334690     
  -76357032.1181128     
  -76255535.2448179     
  -76152737.4468220     
  -76048478.4444832     
  -75942601.4014686     
  -75834953.4551656     
  -75725386.3210416     
  -75613756.9657595     
  -75499928.3366881     
  -75383770.1253943     
  -75265159.5287686     
  -75143981.9525186     
  -75020131.5764800     
  -74893511.6678406     
  -74764034.4850052     
  -74631620.5591212     
  -74496197.0696875     
  -74357694.9424277     
  -74216044.1888574     
  -74071166.8751429     
  -73922966.9512096     
  -73771315.9891641     
  -73616033.6760624     
  -73456861.6871106     
  -73293429.3515821     
  -73125209.3412373     
  -72951461.5454016     
  -72771163.3883801     
  -72582925.4963257     
  -72384892.5060752     
  -72174632.3689584     
  -71949018.4731826     
  -71704126.2794754     
  -71435144.1635061     
  -71136410.1722938     
  -70801383.8166265     
  -70423361.0663844     
  -69994509.8077919     
  -69511428.8792745     
  -68958632.8685834     
  -88455458.5995235     
  -87742828.2064341     
  -87071407.7836689     
  -86460789.2507461     
  -85904757.4564370     
  -85398243.9124484     
  -84934533.3888104     
  -84507402.7642526     
  -84115897.4938929     
  -83800614.8847244     
  -83530698.6205385     
  -83275903.8388491     
  -83033149.9136981     
  -82800104.5582263     
  -82575047.0061772     
  -82356742.5276990     
  -82144332.2757297     
  -81937240.5284021     
  -81735098.6985993     
  -81537684.6201205     
  -81344875.1023425     
  -81156609.6742471     
  -80972863.5287270     
  -80793627.8748993     
  -80618896.1386206     
  -80448654.6914458     
  -80282877.0158522     
  -80121520.4205613     
  -79964524.5998977     
  -79811811.4845113     
  -79663285.9585526     
  -79518837.1228132     
  -79378339.8671523     
  -79241656.5817011     
  -79108638.8876806     
  -78979129.3078712     
  -78852962.8261363     
  -78729968.3069668     
  -78609969.7614999     
  -78492787.4572526     
  -78378238.8760703     
  -78266139.5294307     
  -78156303.6429574     
  -78048544.7233726     
  -77942676.0215737     
  -77838510.9053366     
  -77735863.1546168     
  -77634547.1916638     
  -77534378.2573408     
  -77435172.5441971     
  -77336747.2960726     
  -77238920.8833362     
  -77141512.8622706     
  -77044344.0266894     
  -76947236.4595454     
  -76850013.5920886     
  -76752500.2780422     
  -76654522.8902592     
  -76555909.4473844     
  -76456489.7781030     
  -76356095.7305995     
  -76254561.4347588     
  -76151723.6243044     
  -76047422.0253781     
  -75941499.8167853     
  -75833804.1649963     
  -75724186.8337036     
  -75612504.8627854     
  -75498621.3043739     
  -75382405.9936444     
  -75263736.3179896     
  -75142497.9293013     
  -75018585.3187556     
  -74891902.1401099     
  -74762361.1241029     
  -74629883.3707904     
  -74494396.7360333     
  -74355832.9400784     
  -74214122.9174369     
  -74069189.7955585     
  -73920938.7332554     
  -73769242.6684303     
  -73613922.8207341     
  -73454722.5778614     
  -73291273.1780209     
  -73123049.4309860     
  -72949313.6252999     
  -72769045.9583779     
  -72580860.2004801     
  -72382905.0385508     
  -72172752.5828336     
  -71947284.1306695     
  -71702577.6384384     
  -71433849.3273115     
  -71135400.9708405     
  -70800874.7750216     
  -70423106.6523734     
  -69995873.1761147     
  -69511017.9139626     
  -68967832.5469157     
  -88388125.0229103     
  -87701136.2816288     
  -87041620.7073725     
  -86438119.8148251     
  -85887142.9012643     
  -85384183.5084842     
  -84923207.7892510     
  -84498239.5099487     
  -84107867.5162092     
  -83792652.2512288     
  -83523375.7448800     
  -83269180.9349655     
  -83026984.9374525     
  -82794455.4000253     
  -82569873.1544321     
  -82352005.6640179     
  -82139996.5575467     
  -81933272.6140364     
  -81731467.6739764     
  -81534361.8691511     
  -81341834.1588481     
  -81153826.0699229     
  -80970314.6461878     
  -80791292.8093530     
  -80616755.5696206     
  -80446690.7647738     
  -80281073.2349706     
  -80119861.5467780     
  -79962996.5603048     
  -79810401.2867826     
  -79661981.6117734     
  -79517627.5636243     
  -79377214.8906051     
  -79240606.7763273     
  -79107655.5743792     
  -78978204.4822934     
  -78852089.1043094     
  -78729138.8739541     
  -78609178.3229233     
  -78492028.1935335     
  -78377506.3992631     
  -78265428.8425309     
  -78155610.1015737     
  -78047863.9996638     
  -77942004.0703451     
  -77837843.9322006     
  -77735197.5861232     
  -77633879.6473126     
  -77533705.5233946     
  -77434491.5492208     
  -77336055.0881396     
  -77238214.6088499     
  -77140789.7463726     
  -77043601.3552400     
  -76946471.5626869     
  -76849223.8294283     
  -76751683.0255213     
  -76653675.5288106     
  -76555029.3535195     
  -76455574.3166158     
  -76355142.2496250     
  -76253567.2634814     
  -76150686.0736747     
  -76046338.3922710     
  -75940367.3921084     
  -75832620.2463427     
  -75722948.7432411     
  -75611209.9711669     
  -75497267.0615636     
  -75380989.9676620     
  -75262256.2426844     
  -75140951.7623879     
  -75016971.3114518     
  -74890218.9198406     
  -74760607.7918576     
  -74628059.6148648     
  -74492502.9640595     
  -74353870.4314812     
  -74212093.9987880     
  -74067098.0417781     
  -73918789.1983745     
  -73767042.1506007     
  -73611680.1679961     
  -73452449.0425652     
  -73288982.8330047     
  -73120759.6577713     
  -72947045.7079770     
  -72766825.7664841     
  -72578719.1047321     
  -72380880.7507597     
  -72170890.8958243     
  -71945638.8544206     
  -71701216.3881469     
  -71432844.0924540     
  -71134861.5821121     
  -70800876.4283301     
  -70423881.0188163     
  -69997544.3965663     
  -69513499.5674673     
  -68977865.1128157     
  -88325885.1283164     
  -87657812.3715980     
  -87010688.1130557     
  -86414277.4638654     
  -85868514.3642897     
  -85369327.0204568     
  -84911281.4678563     
  -84488663.1527454     
  -84099950.7036619     
  -83785213.2680985     
  -83516587.6024686     
  -83262993.0375633     
  -83021345.7262372     
  -82789315.4170586     
  -82565186.4366002     
  -82347730.2159570     
  -82136094.3294517     
  -81929709.2517132     
  -81728212.1727975     
  -81531386.2089385     
  -81339112.9552254     
  -81151336.2592469     
  -80968035.2093258     
  -80789204.5340561     
  -80614840.8482562     
  -80444933.4230173     
  -80279458.3867496     
  -80118375.4709781     
  -79961626.5951999     
  -79809135.7387161     
  -79660809.6751907     
  -79516539.2501018     
  -79376200.9650106     
  -79239658.6986555     
  -79106765.4461640     
  -78977364.9967659     
  -78851293.4996976     
  -78728380.8894857     
  -78608452.1572158     
  -78491328.4651512     
  -78376828.1092776     
  -78264767.3389695     
  -78154961.0456667     
  -78047223.3338181     
  -77941367.9877823     
  -77837208.8482048     
  -77734560.1108465     
  -77633236.5600881     
  -77533053.7485133     
  -77433828.1331297     
  -77335377.1780303     
  -77237519.4326097     
  -77140074.5938882     
  -77042863.5610558     
  -76945708.4900392     
  -76848432.8557008     
  -76750861.5291940     
  -76652820.8780069     
  -76554138.8962943     
  -76454645.3731712     
  -76354172.1066964     
  -76252553.1711908     
  -76149625.2452235     
  -76045228.0069236     
  -75939204.6020088     
  -75831402.1878196     
  -75721672.5533734     
  -75609872.8105252     
  -75495866.1442061     
  -75379522.5996469     
  -75260719.8705693     
  -75139344.0334375     
  -75015290.1475501     
  -74888462.6074425     
  -74758775.0906952     
  -74626149.8886077     
  -74490516.3366906     
  -74351807.9738615     
  -74209957.9507859     
  -74064892.0764567     
  -73916518.7361580     
  -73764714.7331844     
  -73609305.9039235     
  -73450041.1393429     
  -73286558.2330277     
  -73118339.8000410     
  -72944657.4352432     
  -72764502.4063651     
  -72576501.7225479     
  -72378819.5917395     
  -72169046.9436729     
  -71944085.2708080     
  -71700040.6028124     
  -71432145.8352303     
  -71134766.8458170     
  -70801494.0499896     
  -70425483.6913672     
  -70000080.6338555     
  -69518182.3490175     
  -68988739.1555545     
  -88267470.2284873     
  -87613851.5548222     
  -86978570.5906133     
  -86389382.6057488     
  -85848917.2044619     
  -85353706.7588870     
  -84898777.4234301     
  -84478688.0976060     
  -84092148.7696422     
  -83778291.4120954     
  -83510329.0193610     
  -83257335.4215871     
  -83016227.8230036     
  -82784680.2948352     
  -82560982.7039304     
  -82343912.2359149     
  -82132621.8943704     
  -81926547.0331154     
  -81725329.1021470     
  -81528754.8748810     
  -81336709.0564985     
  -81149138.1286544     
  -80966023.4107387     
  -80787361.5276644     
  -80613150.7161667     
  -80443381.6462601     
  -80278031.6648768     
  -80117061.5761641     
  -79960414.2537633     
  -79808014.5340727     
  -79659769.9673155     
  -79515572.1075466     
  -79375298.1063785     
  -79238812.4411527     
  -79105968.6594382     
  -78976611.0607160     
  -78850576.2653130     
  -78727694.6420496     
  -78607791.5814252     
  -78490688.6118529     
  -78376204.3636327     
  -78264155.3899284     
  -78154356.8566858     
  -78046623.1147795     
  -77940768.1680929     
  -77836606.0510609     
  -77733951.1286513     
  -77632618.3310153     
  -77532423.3342014     
  -77433182.6975031     
  -77334713.9672376     
  -77236835.7560784     
  -77139367.8065023     
  -77042131.0464728     
  -76944947.6451806     
  -76847641.0764672     
  -76750036.1974816     
  -76651959.3501330     
  -76553238.4929734     
  -76453703.3712316     
  -76353185.7327759     
  -76251519.5977157     
  -76148541.5890519     
  -76044091.3311205     
  -75938011.9213298     
  -75830150.4786130     
  -75720358.7687530     
  -75608493.9018564     
  -75494419.0901664     
  -75378004.4443752     
  -75259127.7727367     
  -75137675.3284442     
  -75013542.4255027     
  -74886633.8101150     
  -74756863.6313297     
  -74624154.7992188     
  -74488437.4485196     
  -74349646.1378151     
  -74207715.3061660     
  -74062572.3780736     
  -73914127.7520799     
  -73762260.7279591     
  -73606800.2251142     
  -73447498.9285644     
  -73283999.2858216     
  -73115789.6019038     
  -72942148.3989662     
  -72762075.3355403     
  -72574207.4863754     
  -72376721.0171987     
  -72167220.6596449     
  -71942623.6852401     
  -71699052.5287908     
  -71431758.2215694     
  -71135122.9393062     
  -70802752.4029811     
  -70427884.3449226     
  -70003713.5504676     
  -69524655.5743320     
  -69000443.7556495     
  -88211988.5246850     
  -87569748.1102597     
  -86945393.4558779     
  -86363496.8601147     
  -85828409.6122918     
  -85337351.9289832     
  -84885719.6620220     
  -84468329.9456854     
  -84084463.3278488     
  -83771879.2986090     
  -83504594.1253912     
  -83252202.8946249     
  -83011626.4129546     
  -82780545.4640264     
  -82557257.6143252     
  -82340547.6303819     
  -82129575.4407972     
  -81923782.4584526     
  -81722815.2938753     
  -81526465.0392112     
  -81334619.9736472     
  -81147229.5177086     
  -80964277.4019579     
  -80785762.2326087     
  -80611683.8828927     
  -80442034.3860620     
  -80276792.2376444     
  -80115919.2227000     
  -79959359.0649730     
  -79807037.3485666     
  -79658862.2905195     
  -79514726.0468069     
  -79374506.3177585     
  -79238068.0846437     
  -79105265.3601279     
  -78975942.8741257     
  -78849937.6456360     
  -78727080.4124142     
  -78607196.9056008     
  -78490108.9670308     
  -78375635.5140687     
  -78263593.3613268     
  -78153797.9112826     
  -78046063.7271147     
  -77940205.0014883     
  -77836035.9348298     
  -77733371.0360676     
  -77632025.3580725     
  -77531814.6791819     
  -77432555.6413818     
  -77334065.8549397     
  -77236163.9786108     
  -77138669.7839820     
  -77041404.2120866     
  -76944189.4301148     
  -76846848.8958696     
  -76749207.4375348     
  -76651091.3563459     
  -76552328.5598355     
  -76452748.7334160     
  -76352183.5581318     
  -76250466.9823532     
  -76147435.5549105     
  -76042928.8265052     
  -75936789.8250225     
  -75828865.6083169     
  -75719007.8948065     
  -75607073.7673822     
  -75492926.4390900     
  -75376436.0590840     
  -75257480.5235683     
  -75135946.2376883     
  -75011728.7492305     
  -74884733.1419048     
  -74754874.0328874     
  -74622074.9640363     
  -74486266.9061002     
  -74347385.5076925     
  -74205366.6129872     
  -74060139.4414788     
  -73911616.6680349     
  -73759680.4615769     
  -73604163.3388300     
  -73444822.4735046     
  -73281305.8879474     
  -73113108.7762929     
  -72939518.1239878     
  -72759543.9060296     
  -72571835.6362885     
  -72374584.2431345     
  -72165411.5288559     
  -71941253.9214482     
  -71698253.7270336     
  -71431682.9892865     
  -71135939.2123982     
  -70804656.9105491     
  -70431103.4907868     
  -70008524.2502096     
  -69532658.6035425     
  -69012966.6737950     
  -88158784.5356991     
  -87525732.4499114     
  -86911313.8180464     
  -86336673.9987246     
  -85807044.7574617     
  -85320293.5948206     
  -84872131.7351998     
  -84457605.6585011     
  -84076895.9271940     
  -83765968.8111132     
  -83499376.4270990     
  -83247589.8207472     
  -83007536.3421863     
  -82776906.1034289     
  -82554006.6340978     
  -82337632.1586703     
  -82126951.0418112     
  -81921411.9356126     
  -81720667.5044574     
  -81524513.8114615     
  -81332843.1646532     
  -81145608.2205868     
  -80962795.2952514     
  -80784405.0570922     
  -80610439.0279651     
  -80440890.5675564     
  -80275739.2499946     
  -80114947.7502580     
  -79958460.5394216     
  -79806203.8415352     
  -79658086.4325502     
  -79514000.9656364     
  -79373825.5904435     
  -79237425.6993705     
  -79104655.6846066     
  -78975360.6283303     
  -78849377.8773011     
  -78726538.4742104     
  -78606668.4332841     
  -78489589.8581321     
  -78375121.9068841     
  -78263081.6140958     
  -78153284.5815306     
  -78045545.5511841     
  -77939678.8743124     
  -77835498.8900144     
  -77732820.2263508     
  -77631458.0362242     
  -77531228.1794032     
  -77431947.3612536     
  -77333433.2379664     
  -77235504.4974019     
  -77137980.9241115     
  -77040683.4566734     
  -76943434.2451793     
  -76846056.7165293     
  -76748375.6551207     
  -76650217.3065525     
  -76551409.5120412     
  -76451781.8813613     
  -76351166.0121922     
  -76249395.7637149     
  -76146307.5920402     
  -76041740.9544180     
  -75935538.7879809     
  -75827548.0667677     
  -75717620.4375743     
  -75605612.9303965     
  -75491388.7322614     
  -75374818.0033484     
  -75255778.7006365     
  -75134157.3556708     
  -75009849.7281008     
  -74882761.2237341     
  -74752806.9230005     
  -74619911.0107018     
  -74484005.3281895     
  -74345026.6819278     
  -74202912.4350457     
  -74057593.7783711     
  -73908985.9228675     
  -73756974.2760409     
  -73601395.4634288     
  -73442011.8402909     
  -73278477.9246949     
  -73110297.0026961     
  -72936766.0671099     
  -72756907.3546437     
  -72569385.2188285     
  -72372408.2188303     
  -72163618.5678134     
  -71939975.3613160     
  -71697644.5916996     
  -71431921.5839194     
  -71137222.2545708     
  -70807210.6188933     
  -70435168.7646797     
  -70014524.1749810     
  -69542017.0840176     
  -69026300.3276120     
  -88107357.7690097     
  -87481892.7437930     
  -86876472.3733240     
  -86308970.0430119     
  -85784869.4717570     
  -85302563.8080316     
  -84858037.1748373     
  -84446533.1943479     
  -84069448.2215628     
  -83760551.1749946     
  -83494668.8952904     
  -83243490.1486174     
  -83003952.1378673     
  -82773757.1468780     
  -82551225.0412197     
  -82335161.4336312     
  -82124744.6552396     
  -81919431.7803497     
  -81718882.4155677     
  -81522898.2394994     
  -81331376.0359633     
  -81144271.9878837     
  -80961575.1656647     
  -80783288.3772650     
  -80609414.8031261     
  -80439949.0916464     
  -80274871.8256342     
  -80114146.4798144     
  -79957718.1711706     
  -79805513.6576350     
  -79657442.1680620     
  -79513396.7500644     
  -79373255.9051844     
  -79236885.3460560     
  -79104139.7606207     
  -78974864.5068184     
  -78848897.1897810     
  -78726069.0945126     
  -78606206.4619983     
  -78489131.6070660     
  -78374663.8832718     
  -78262620.5044513     
  -78152817.2351428     
  -78045068.9633115     
  -77939190.1691684     
  -77834995.3036502     
  -77732299.0895405     
  -77630916.7574524     
  -77530664.2280473     
  -77431358.2510390     
  -77332816.5107659     
  -77234857.7074394     
  -77137301.6226278     
  -77039969.1771131     
  -76942682.4889570     
  -76845264.9394450     
  -76747541.2545121     
  -76649337.6092902     
  -76550481.7635050     
  -76450803.2355844     
  -76350133.5234008     
  -76248306.3795766     
  -76145158.1490170     
  -76040528.1757348     
  -75934259.2848776     
  -75826198.3438818     
  -75716196.9035489     
  -75604111.9151098     
  -75489806.5124594     
  -75373150.8389507     
  -75254022.8845958     
  -75132309.2810338     
  -75007905.9768820     
  -74880718.6834029     
  -74750662.9378634     
  -74617663.5772843     
  -74481653.3459456     
  -74342570.2733129     
  -74200353.3522295     
  -74054935.9177251     
  -73906235.9728453     
  -73754142.5291826     
  -73598496.8287676     
  -73439067.0980572     
  -73275515.2698895     
  -73107353.9258695     
  -72933891.6154702     
  -72754164.7962816     
  -72566855.0855986     
  -72370191.5966711     
  -72161840.3488043     
  -71938786.8090433     
  -71697224.5143472     
  -71432474.7965777     
  -71138975.6532613     
  -70810417.0782257     
  -70440100.8804791     
  -70021693.5087240     
  -69552610.0001812     
  -69040443.0209433     
  -88057313.4495086     
  -87438239.1663066     
  -86840979.6021575     
  -86280441.6279966     
  -85761925.9291158     
  -85284194.4157566     
  -84843459.7933332     
  -84435131.3049408     
  -84062122.0774869     
  -83755617.0645558     
  -83490464.0398621     
  -83239897.4490270     
  -83000868.0286452     
  -82771093.2935106     
  -82548907.9301957     
  -82333130.9240609     
  -82122952.1250119     
  -81917838.2174411     
  -81717456.6353843     
  -81521615.3111243     
  -81330215.9443797     
  -81143218.5287394     
  -80960615.0533031     
  -80782410.5395811     
  -80608609.8346861     
  -80439208.8373007     
  -80274189.0692256     
  -80113514.7157013     
  -79957131.4396410     
  -79804966.4285639     
  -79656929.2601671     
  -79512913.2757764     
  -79372797.2334079     
  -79236447.0769719     
  -79103717.7082170     
  -78974454.6860304     
  -78848495.8060694     
  -78725672.5344182     
  -78605811.2837352     
  -78488734.5306095     
  -78374261.7796526     
  -78262210.3841648     
  -78152396.2356874     
  -78044634.3359510     
  -77938739.2650457     
  -77834525.5593952     
  -77731808.0125185     
  -77630401.9107859     
  -77530123.2155343     
  -77430788.7020772     
  -77332216.0653727     
  -77234224.0014524     
  -77136632.2731565     
  -77039261.7683117     
  -76941934.5581855     
  -76844473.9638942     
  -76746704.6383783     
  -76648452.6716067     
  -76549545.7267679     
  -76449813.2153473     
  -76349086.5190734     
  -76247199.2667296     
  -76143987.6735964     
  -76039290.9507086     
  -75932951.7900035     
  -75824816.9294912     
  -75714737.7995113     
  -75602571.2464888     
  -75488180.3238037     
  -75371435.1297405     
  -75252213.6590600     
  -75130402.6164611     
  -75005898.1156798     
  -74878606.1555634     
  -74748442.7222566     
  -74615333.3123607     
  -74479211.6030766     
  -74340016.9092226     
  -74197689.9608202     
  -74052166.4061640     
  -73903367.2920903     
  -73751185.5951176     
  -73595467.6766120     
  -73435988.3192253     
  -73272417.7858140     
  -73104279.1552221     
  -72930894.0847613     
  -72751315.2204814     
  -72564243.8877093     
  -72367932.7182897     
  -72160074.9966274     
  -71937686.4179865     
  -71696991.9846787     
  -71433342.3406622     
  -71141200.6562382     
  -70814279.5449923     
  -70445910.7931889     
  -70029999.8221976     
  -69564351.5146354     
  -69055398.5379636     
  -88008331.3412686     
  -87394738.7264312     
  -86804915.2075292     
  -86251142.4116136     
  -85738252.9648643     
  -85265216.4254691     
  -84828423.7223613     
  -84423419.4593773     
  -84054919.6464604     
  -83751156.7257329     
  -83486753.9801034     
  -83236804.9561937     
  -82998277.9668874     
  -82768909.0201968     
  -82547050.2187265     
  -82331535.9585675     
  -82121569.1837004     
  -81916627.3827666     
  -81716386.7006186     
  -81520661.9562208     
  -81329360.1993773     
  -81142445.5132916     
  -80959912.9658627     
  -80781769.8633420     
  -80608022.7260191     
  -80438668.6639522     
  -80273690.0686499     
  -80113051.7477102     
  -79956699.8115433     
  -79804561.7748091     
  -79656547.4620028     
  -79512550.4095069     
  -79372449.5384423     
  -79236110.9370098     
  -79103389.6406702     
  -78974131.3361557     
  -78848173.9433625     
  -78725349.0496238     
  -78605483.1854397     
  -78488398.9408098     
  -78373915.9280067     
  -78261851.6008313     
  -78152021.9428007     
  -78044242.0378534     
  -77938326.5374431     
  -77834090.0376172     
  -77731347.3790660     
  -77629913.8823309     
  -77529605.5295301     
  -77430239.1031105     
  -77331632.2913735     
  -77233603.7698635     
  -77135973.2671488     
  -77038561.6231251     
  -76941190.8476712     
  -76843684.1873350     
  -76745866.2076771     
  -76647562.8989455     
  -76548601.8128721     
  -76448812.2385249     
  -76348025.4252588     
  -76246074.8608332     
  -76142796.6125609     
  -76038029.7388100     
  -75931616.7771033     
  -75823404.3131785     
  -75713243.6323674     
  -75600991.4500943     
  -75486510.7115986     
  -75369671.4414872     
  -75250351.6104687     
  -75128437.9685647     
  -75003826.7698470     
  -74876424.2816656     
  -74746146.9295359     
  -74612920.8750569     
  -74476680.7559416     
  -74337367.2317849     
  -74194922.8737370     
  -74049285.8082825     
  -73900380.3729711     
  -73748103.8646859     
  -73592308.2610835     
  -73432775.5798844     
  -73269185.3233648     
  -73101072.2646030     
  -72927772.7180938     
  -72748357.4893628     
  -72561550.0705824     
  -72365629.6077910     
  -72158320.1741642     
  -71936671.6636278     
  -71696944.5966590     
  -71434522.6409826     
  -71143896.6390632     
  -70818799.7819638     
  -70452600.7223086     
  -70039407.2416019     
  -69577180.2843755     
  -69071175.3289069     
  -87960145.2111669     
  -87351334.5653240     
  -86768332.0165853     
  -86221120.3090749     
  -85713886.6473677     
  -85245659.7834784     
  -84812953.3404872     
  -84411417.8150196     
  -84047843.4289947     
  -83747160.0984860     
  -83483530.5145847     
  -83234205.6101184     
  -82996175.6528607     
  -82767198.5956645     
  -82545646.6560163     
  -82330371.7307864     
  -82120591.4561824     
  -81915795.3262831     
  -81715669.0792536     
  -81520035.0494677     
  -81328806.0658517     
  -81141950.5754604     
  -80959466.8814129     
  -80781364.6434297     
  -80607652.0602014     
  -80438327.4140024     
  -80273373.8973486     
  -80112756.8532521     
  -79956422.7428461     
  -79804299.3074215     
  -79656296.5183155     
  -79512308.0104406     
  -79372212.7767486     
  -79235876.9647516     
  -79103155.6654087     
  -78973894.6219296     
  -78847931.8137367     
  -78725098.8909995     
  -78605222.4494892     
  -78488125.1453833     
  -78373626.6561992     
  -78261544.4981335     
  -78151694.7123975     
  -78043892.4342286     
  -77937952.3584908     
  -77833689.1154807     
  -77730917.5699179     
  -77629453.0552989     
  -77529111.5549502     
  -77429709.8402688     
  -77331065.5758742     
  -77232997.4007390     
  -77135324.9938180     
  -77037869.1322842     
  -76940451.7502012     
  -76842896.0053080     
  -76745026.3615474     
  -76646668.6950282     
  -76547650.4312371     
  -76447800.7214725     
  -76346950.6665999     
  -76244933.5962692     
  -76141585.4115681     
  -76036744.9985717     
  -75930254.7192163     
  -75821960.9841131     
  -75711714.9089807     
  -75599373.0519160     
  -75484798.2221690     
  -75367860.3417214     
  -75248437.3279395     
  -75126415.9477528     
  -75001692.5698741     
  -74874173.7098745     
  -74743776.2215849     
  -74610426.9350466     
  -74474061.4736032     
  -74334621.8979959     
  -74192052.7207273     
  -74046294.7069167     
  -73897275.7264518     
  -73744897.7458783     
  -73589018.8491376     
  -73429428.9602725     
  -73265817.7224534     
  -73097732.7924742     
  -72924526.6856458     
  -72745290.3365167     
  -72558771.8707387     
  -72363279.9674504     
  -72156573.0694396     
  -71935739.3331651     
  -71697079.0177633     
  -71436012.7669330     
  -71147061.2965630     
  -70823977.2754180     
  -70460166.1837004     
  -70049880.9321407     
  -69591052.7809704     
  -69087785.7287212     
  -87912528.8018162     
  -87307956.8163884     
  -86731260.8286645     
  -86190415.9768041     
  -85688860.3768345     
  -85225553.3470948     
  -84797073.1918300     
  -84399147.1993293     
  -84040896.3389077     
  -83743616.9325348     
  -83480785.1905240     
  -83232092.0991004     
  -82994554.5603392     
  -82765956.0960702     
  -82544691.8325260     
  -82329633.3058522     
  -82120014.4643634     
  -81915338.0158657     
  -81715300.1739758     
  -81519731.4135945     
  -81328550.7672959     
  -81141731.3160634     
  -80959274.7514344     
  -80781193.1532344     
  -80607496.4027952     
  -80438183.9154336     
  -80273239.6167433     
  -80112629.2995732     
  -79956299.6807810     
  -79804178.6298166     
  -79656176.1670622     
  -79512185.9316238     
  -79372086.8991557     
  -79235745.1935439     
  -79103015.8849426     
  -78973744.7034259     
  -78847769.6248229     
  -78724922.3051568     
  -78605029.3541713     
  -78487913.4481096     
  -78373394.2883047     
  -78261289.4161033     
  -78151414.8968778     
  -78043585.8869048     
  -77937617.0970692     
  -77833323.1670296     
  -77730518.9628166     
  -77629019.8100331     
  -77528641.6739634     
  -77429201.2970538     
  -77330516.3034658     
  -77232405.2797403     
  -77134687.8400773     
  -77037184.6843189     
  -76939717.6564579     
  -76842109.8113417     
  -76744185.4972056     
  -76645770.4617420     
  -76546691.9895380     
  -76446779.0788974     
  -76345862.6661967     
  -76243775.9059990     
  -76140354.5150017     
  -76035437.1874316     
  -75928866.0885132     
  -75820487.4308851     
  -75710152.1360019     
  -75597716.5781998     
  -75483043.4026907     
  -75366002.3995696     
  -75246471.4031084     
  -75124337.1680794     
  -74999496.1512548     
  -74871855.0949600     
  -74741331.2687330     
  -74607852.1725067     
  -74471354.4378342     
  -74331781.5797862     
  -74189080.1485014     
  -74043193.7033611     
  -73894053.8824063     
  -73741567.6642489     
  -73585599.7210761     
  -73425948.5453728     
  -73262314.8126506     
  -73094260.2425085     
  -72921155.0850779     
  -72742112.3669228     
  -72555907.3146694     
  -72360881.1751902     
  -72154830.3878125     
  -71934885.5193620     
  -71697390.9573722     
  -71437808.4276891     
  -71150690.6763981     
  -70829808.9187807     
  -70468597.9901821     
  -70061389.2024620     
  -69605938.8919799     
  -69105245.3372017     
  -87865285.9323494     
  -87264528.7594143     
  -86693714.9101728     
  -86159062.3014190     
  -85663204.7999700     
  -85204924.9235613     
  -84780807.9344225     
  -84386629.0953504     
  -84034081.7675613     
  -83740516.8946899     
  -83478509.3712661     
  -83230456.9019439     
  -82993407.9630999     
  -82765175.4217833     
  -82544180.1909830     
  -82329315.6280286     
  -82119833.6328992     
  -81915251.3419804     
  -81715276.3262857     
  -81519747.8231807     
  -81328591.4894039     
  -81141785.3062640     
  -80959334.5041116     
  -80781253.6477755     
  -80607554.3047776     
  -80438236.9845271     
  -80273286.2787334     
  -80112668.3460249     
  -79956330.0658903     
  -79804199.3395989     
  -79656186.1410250     
  -79512184.0213852     
  -79372071.8520983     
  -79235715.6525700     
  -79102970.3977848     
  -78973681.7368446     
  -78847687.5804756     
  -78724819.5350130     
  -78604904.1741524     
  -78487764.1492203     
  -78373219.1449242     
  -78261086.6913769     
  -78151182.8453286     
  -78043322.7544849     
  -77937321.1189250     
  -77832992.5632688     
  -77730151.9325621     
  -77628614.5240333     
  -77528196.2659940     
  -77428713.8543210     
  -77329984.8561902     
  -77231827.7900733     
  -77134062.1904758     
  -77036508.6654840     
  -76938988.9549336     
  -76841325.9968557     
  -76743344.0098401     
  -76644868.5990268     
  -76545726.8935859     
  -76445747.7237300     
  -76344761.8454713     
  -76242602.2214205     
  -76139104.3658209     
  -76034106.7615787     
  -75927451.3561367     
  -75818984.1413384     
  -75708555.8197004     
  -75596022.5552748     
  -75481246.8010139     
  -75364098.1855763     
  -75244454.4299555     
  -75122202.2470788     
  -74997238.1543303     
  -74869469.0981549     
  -74738812.7496397     
  -74605197.2780324     
  -74468560.3430707     
  -74328846.9640305     
  -74186005.8208137     
  -74039983.4175356     
  -73890715.3898905     
  -73738114.0633140     
  -73582051.1710947     
  -73422334.4256278     
  -73258676.4140685     
  -73090654.0846231     
  -72917656.9426768     
  -72738822.0580029     
  -72552954.2195926     
  -72358430.2842358     
  -72153088.3492183     
  -71934105.6165410     
  -71697875.1467851     
  -71439903.9854520     
  -71154779.1585274     
  -70836289.0242161     
  -70477883.8993265     
  -70073904.3775505     
  -69621818.9030844     
  -69123572.5734165     
  -87818243.3029670     
  -87220970.2868735     
  -86655693.7507059     
  -86127084.5495231     
  -85636947.7183484     
  -85183801.3266501     
  -84764182.3241580     
  -84373885.6333415     
  -84027403.6457929     
  -83737849.6672297     
  -83476694.3005844     
  -83229292.3293844     
  -82992728.9618601     
  -82764850.3151370     
  -82544106.0384879     
  -82329413.5293968     
  -82120044.2958560     
  -81915531.1231565     
  -81715593.8212648     
  -81520081.0089855     
  -81328925.3840975     
  -81142110.0913517     
  -80959644.0478829     
  -80781544.3670198     
  -80607824.3056169     
  -80438485.4286919     
  -80273512.9282717     
  -80112873.2463899     
  -79956513.3341067     
  -79804361.0304114     
  -79656326.1694420     
  -79512302.1247613     
  -79372167.5788577     
  -79235788.3679222     
  -79103019.2993708     
  -78973705.8752962     
  -78847685.8814365     
  -78724790.8203470     
  -78604847.1809429     
  -78487677.5457834     
  -78373101.5434984     
  -78260936.6574466     
  -78150998.9037221     
  -78043103.3924984     
  -77937064.7867829     
  -77832697.6722412     
  -77729816.8510607     
  -77628237.5719787     
  -77527775.7077227     
  -77428247.8902608     
  -77329471.6135038     
  -77231265.3124389     
  -77133448.4271356     
  -77035841.4596837     
  -76938266.0318446     
  -76840544.9510676     
  -76742502.2925083     
  -76643963.5047636     
  -76544755.5472074     
  -76444707.0669979     
  -76343648.6240341     
  -76241412.9722292     
  -76137835.4054135     
  -76032754.1757964     
  -75926010.9920388     
  -75817451.6024036     
  -75706926.4657900     
  -75594291.5093755     
  -75479408.9654803     
  -75362148.2715200     
  -75242387.0046193     
  -75120011.8055783     
  -74994919.2241086     
  -74867016.3869865     
  -74736221.3511400     
  -74602462.9525089     
  -74465679.8963227     
  -74325818.7525051     
  -74182830.4184867     
  -74036664.4881022     
  -73887260.8173758     
  -73734537.4049409     
  -73578373.5078648     
  -73418586.6977621     
  -73254902.3384875     
  -73086913.7564569     
  -72914031.2152276     
  -72735417.7618486     
  -72549910.1959891     
  -72355924.0253111     
  -72151342.6897296     
  -71933394.3198441     
  -71698525.3319792     
  -71442292.4710232     
  -71159319.4375203     
  -70843409.5178047     
  -70488009.8598216     
  -70087403.0295220     
  -69638681.3628753     
  -69142788.3807564     
  -87771245.1212682     
  -87177199.8027767     
  -86617186.0525144     
  -86094500.8970995     
  -85610114.0727609     
  -85162208.4420280     
  -84747221.2293792     
  -84360939.5920239     
  -84020866.5017411     
  -83735605.0368471     
  -83475331.1628667     
  -83228590.5642469     
  -82992510.5112949     
  -82764974.3789069     
  -82544463.5595642     
  -82329921.7395061     
  -82120641.7042546     
  -81916173.1122218     
  -81716248.8929848     
  -81520727.6628022     
  -81329549.5739730     
  -81142703.1948527     
  -80960201.2752470     
  -80782063.5393932     
  -80608304.9364957     
  -80438928.0494011     
  -80273918.6060185     
  -80113243.2512623     
  -79956848.9188730     
  -79804663.2938076     
  -79656595.9796506     
  -79512540.0849297     
  -79372374.0208027     
  -79235963.3636687     
  -79103162.6829725     
  -78973817.2695793     
  -78847764.7259903     
  -78724836.3983511     
  -78604858.6433548     
  -78487653.9320775     
  -78373041.7986126     
  -78260839.6449061     
  -78150863.4151086     
  -78042928.1535484     
  -77936848.4604530     
  -77832438.8591027     
  -77729514.0873698     
  -77627889.3257479     
  -77527380.3730846     
  -77427803.7803783     
  -77328976.9522424     
  -77230718.2249814     
  -77132846.9296889     
  -77035183.4483980     
  -76937549.2710474     
  -76839767.0608983     
  -76741660.7360346     
  -76643055.5746651     
  -76543778.3521276     
  -76443657.5177004     
  -76342523.4195514     
  -76240208.5862755     
  -76136548.0734509     
  -76031379.8833113     
  -75924545.4648208     
  -75815890.2999299     
  -75705264.5792528     
  -75592523.9664564     
  -75477530.4447334     
  -75360153.2302167     
  -75240269.7251961     
  -75117766.4674976     
  -74992540.0100626     
  -74864497.6350770     
  -74733557.7680563     
  -74599649.9069407     
  -74462713.8170314     
  -74322697.6617928     
  -74179554.6393816     
  -74033237.5725276     
  -73883690.7529435     
  -73730838.1697195     
  -73574567.0551490     
  -73414705.4657208     
  -73250992.3907164     
  -73083038.6652776     
  -72910276.7926005     
  -72731897.7086159     
  -72546772.6518785     
  -72353358.8115146     
  -72149588.6669687     
  -71932745.6290600     
  -71699334.2768827     
  -71444965.5994945     
  -71164302.5292737     
  -70851160.2120612     
  -70498960.9011412     
  -70101865.8773830     
  -69656521.5386588     
  -69162916.0525138     
  -87724148.9859303     
  -87133135.1911683     
  -86578172.0490380     
  -86061323.1451864     
  -85582726.0273964     
  -85140171.3072484     
  -84729949.6701480     
  -84347814.4114209     
  -84014475.5135597     
  -83733772.9736269     
  -83474411.1385438     
  -83228343.6998794     
  -82992745.4468315     
  -82765541.0953051     
  -82545246.8300159     
  -82330834.8958968     
  -82121621.0344379     
  -81917173.0032720     
  -81717237.7305364     
  -81521684.4428251     
  -81330461.1571594     
  -81143562.1229677     
  -80961004.0668233     
  -80782809.3854897     
  -80608994.7236811     
  -80439563.6452346     
  -80274502.3510725     
  -80113777.6104811     
  -79957336.2532956     
  -79805105.7211461     
  -79656995.2987415     
  -79512897.7446458     
  -79372691.1186299     
  -79236240.6629191     
  -79103400.6406072     
  -78974016.0689500     
  -78847924.3106135     
  -78724956.5041720     
  -78604938.8279507     
  -78487693.5999630     
  -78373040.2222971     
  -78260795.9816886     
  -78150776.7198032     
  -78042797.3874536     
  -77936672.4969361     
  -77832216.4861932     
  -77729244.0077409     
  -77627570.1544361     
  -77527010.6332653     
  -77427381.8974711     
  -77328501.2465810     
  -77230186.9032373     
  -77132258.0752129     
  -77034535.0106064     
  -76936839.0539532     
  -76838992.7108783     
  -76740819.7289084     
  -76642145.2021649     
  -76542795.7078533     
  -76442599.4826852     
  -76341386.6476150     
  -76238989.4894301     
  -76135242.8077399     
  -76029984.3356384     
  -75923055.2415714     
  -75814300.7185144     
  -75703570.6641609     
  -75590720.4520068     
  -75475611.7875225     
  -75358113.6353145     
  -75238103.1915261     
  -75115466.8596269     
  -74990101.1659036     
  -74861913.5219160     
  -74730822.7029745     
  -74596758.8622398     
  -74459662.8368804     
  -74319484.4231322     
  -74176179.1983122     
  -74029703.3470933     
  -73880005.8044372     
  -73727016.8573178     
  -73570632.1524447     
  -73410690.8417150     
  -73246946.3701812     
  -73079028.1903096     
  -72906392.5010496     
  -72728260.0110595     
  -72543538.7988262     
  -72350730.7458717     
  -72147821.0691869     
  -71932152.8577127     
  -71700293.7749071     
  -71447913.7882169     
  -71169717.8040079     
  -70859529.0884096     
  -70510721.7341619     
  -70117277.5229507     
  -69675340.2830793     
  -69183981.1515199     
  -87676822.6553221     
  -87088694.2241604     
  -86538625.2767354     
  -86027557.5014954     
  -85554803.1485978     
  -85117714.2144602     
  -84712392.8780877     
  -84334534.2177844     
  -84008236.5565889     
  -83732343.6995830     
  -83473925.4543263     
  -83228543.7764899     
  -82993426.5109572     
  -82766543.8452994     
  -82546449.8314632     
  -82332147.5554131     
  -82122977.3972146     
  -81918526.4393338     
  -81718556.4846597     
  -81522947.9795142     
  -81331657.2125861     
  -81144684.3693336     
  -80962050.2956658     
  -80783780.1219713     
  -80609892.1920386     
  -80440391.0150282     
  -80275263.2037757     
  -80114475.5756141     
  -79957974.7723313     
  -79805687.9055018     
  -79657523.8552228     
  -79513374.9476823     
  -79373118.8136008     
  -79236620.2888825     
  -79103733.2639363     
  -78974302.4218820     
  -78848164.8306128     
  -78725151.3714432     
  -78605087.9994834     
  -78487796.8392401     
  -78373097.1243166     
  -78260805.9932982     
  -78150739.1555657     
  -78042711.4413843     
  -77936537.2505198     
  -77832030.9131012     
  -77729006.9756562     
  -77627280.4243690     
  -77526666.8566943     
  -77426982.6116058     
  -77328044.8679954     
  -77229671.7200809     
  -77131682.2381659     
  -77033896.5227134     
  -76936135.7594432     
  -76838222.2830547     
  -76739979.6571827     
  -76641232.7783100     
  -76541808.0115573     
  -76441533.3665245     
  -76340238.7216109     
  -76237756.1054440     
  -76133920.0440787     
  -76028567.9824276     
  -75921540.7877046     
  -75812683.3413327     
  -75701845.2234956     
  -75588881.4908590     
  -75473653.5425002     
  -75356030.0610789     
  -75235888.0049667     
  -75113113.6113885     
  -74987603.3493329     
  -74859264.7326055     
  -74728016.8659853     
  -74593790.5489708     
  -74456527.6995582     
  -74316179.7822150     
  -74172704.8269022     
  -74026062.5068527     
  -73876206.5995714     
  -73723073.9868208     
  -73566569.1556526     
  -73406542.9473629     
  -73242764.0727363     
  -73074881.6854661     
  -72902377.1071948     
  -72724502.6701707     
  -72540205.6596568     
  -72348035.6314968     
  -72146034.2279864     
  -71931608.6476099     
  -71701394.6672914     
  -71451126.1794423     
  -71175553.0388990     
  -70868502.5514202     
  -70523277.1274358     
  -70133626.1133853     
  -69695143.1948724     
  -69206011.5034706     
  -87629141.4481811     
  -87043794.6280261     
  -86498513.9171955     
  -85993205.3593669     
  -85526362.6617149     
  -85094860.8415397     
  -84694576.3745598     
  -84325089.8298467     
  -84005137.2467634     
  -83731307.7464718     
  -83473865.4279733     
  -83229182.8151014     
  -82994546.3788321     
  -82767975.9280987     
  -82548066.4664515     
  -82333854.2062289     
  -82124705.8477254     
  -81920229.0207018     
  -81720201.2749581     
  -81524514.8819550     
  -81333134.8056493     
  -81146067.4201053     
  -80963337.8318271     
  -80784973.9656622     
  -80610995.8686891     
  -80441408.9611294     
  -80276200.2085945     
  -80115336.4024935     
  -79958763.9150057     
  -79806409.4435999     
  -79658181.3806930     
  -79513971.5402690     
  -79373657.0487783     
  -79237102.2659203     
  -79104160.6451588     
  -78974676.4768194     
  -78848486.4807548     
  -78725421.2328089     
  -78605306.4213282     
  -78487963.9380028     
  -78373212.8124562     
  -78260870.0030368     
  -78150751.0577762     
  -78042670.6599950     
  -77936443.0728753     
  -77831882.4967267     
  -77728803.3518644     
  -77627020.4991149     
  -77526349.4090372     
  -77426606.2900908     
  -77327608.1852219     
  -77229173.0456724     
  -77131119.7903211     
  -77033268.3584731     
  -76935439.7637857     
  -76837456.1568995     
  -76739140.9043757     
  -76640318.6916536     
  -76540815.6579638     
  -76440459.5713942     
  -76339080.0525924     
  -76236508.8558142     
  -76132580.2161137     
  -76027131.2713131     
  -75920002.5667994     
  -75811038.6499648     
  -75700088.7589636     
  -75587007.6069912     
  -75471656.2580118     
  -75353903.0821694     
  -75233624.7681533     
  -75110707.3545802     
  -74985047.2217709     
  -74856551.9575739     
  -74725140.9743880     
  -74590745.7070539     
  -74453309.1604715     
  -74312784.4989296     
  -74169132.2733870     
  -74022315.7655334     
  -73872293.7859965     
  -73719010.0970437     
  -73562378.4377637     
  -73402261.9149212     
  -73238445.2926777     
  -73070598.4824637     
  -72898229.3226613     
  -72720623.5818775     
  -72536770.0778246     
  -72345268.9842777     
  -72144222.0346587     
  -71931104.9887486     
  -71702626.8675592     
  -71454590.6690094     
  -71181794.4814934     
  -70878065.6360093     
  -70536612.1129520     
  -70150902.9785836     
  -69715939.9951442     
  -69229037.2493610     
  -87581662.7960875     
  -86998353.9381096     
  -86457801.8083717     
  -85958264.0393810     
  -85497419.7678151     
  -85071634.4141463     
  -84676526.0660630     
  -84316321.9073089     
  -84003106.6168427     
  -83730656.0028336     
  -83474222.5074468     
  -83230252.8489339     
  -82996097.6830357     
  -82769830.5806736     
  -82550090.5740270     
  -82335949.2805220     
  -82126801.3959888     
  -81922276.3139065     
  -81722168.1976726     
  -81526381.7446896     
  -81334890.9942706     
  -81147708.7593500     
  -80964864.5471674     
  -80786389.1378274     
  -80612304.2868072     
  -80442616.2927491     
  -80277312.4170678     
  -80116359.3537956     
  -79959703.1266604     
  -79807269.9377602     
  -79658967.6115178     
  -79514687.3725321     
  -79374305.7702520     
  -79237686.6205876     
  -79104682.8778900     
  -78975138.3829152     
  -78848889.4558820     
  -78725766.3204345     
  -78605594.3559022     
  -78488195.1829781     
  -78373387.5927931     
  -78260988.3322176     
  -78150812.7595995     
  -78042675.3855467     
  -77936390.3131434     
  -77831771.5913384     
  -77728633.4944112     
  -77626790.7394929     
  -77526058.6531833     
  -77426253.2974489     
  -77327191.5642126     
  -77228691.2474007     
  -77130571.1007004     
  -77032650.8889128     
  -76934751.4405490     
  -76836694.7092151     
  -76738303.8513675     
  -76639403.3281474     
  -76539819.0392356     
  -76439378.4969549     
  -76337911.0491518     
  -76235248.1596479     
  -76131223.7551959     
  -76025674.6477599     
  -75918441.0404371     
  -75809367.1242243     
  -75698301.7708137     
  -75585099.3233291     
  -75469620.4818791     
  -75351733.2734055     
  -75231314.0847459     
  -75108248.7231054     
  -74982433.4480629     
  -74853775.8922632     
  -74722195.7523647     
  -74587625.0854286     
  -74450007.9864117     
  -74309299.3470500     
  -74165462.3023571     
  -74018463.8553828     
  -73868268.0313150     
  -73714825.7468187     
  -73558060.3895585     
  -73397847.8885960     
  -73233989.8249412     
  -73066177.8942930     
  -72893947.8093371     
  -72716620.5447545     
  -72533228.7283833     
  -72342426.0479859     
  -72142377.9600989     
  -71930633.2443851     
  -71703979.3918220     
  -71458293.9413672     
  -71188426.9159045     
  -70888202.1607248     
  -70550712.0633119     
  -70169102.2679568     
  -69737744.0645199     
  -69253090.9472645     
  -87548388.7808333     
  -86952289.2213737     
  -86416449.2046066     
  -85922727.4801356     
  -85467988.0045213     
  -85048057.8986706     
  -84658268.3561741     
  -84307628.9302159     
  -84001392.0462173     
  -83730379.7504586     
  -83474988.3044402     
  -83231745.9521102     
  -82998073.0373299     
  -82772100.9972098     
  -82552515.9457095     
  -82338427.1677355     
  -82129259.0180856     
  -81924663.8612983     
  -81724453.3340047     
  -81528545.1550184     
  -81336922.8353410     
  -81149605.8747529     
  -80966628.3204040     
  -80788023.8686365     
  -80613815.9895531     
  -80444011.8294157     
  -80278598.8908253     
  -80117543.7016673     
  -79960791.8612257     
  -79808268.9978575     
  -79659882.2905120     
  -79515522.2999305     
  -79375064.9283598     
  -79238373.3826669     
  -79105300.0580316     
  -78975688.2907578     
  -78849373.9515191     
  -78726186.8665054     
  -78605952.0650718     
  -78488490.8598585     
  -78373621.7699615     
  -78261161.3003734     
  -78150924.5921455     
  -78042725.9580246     
  -77936379.3180158     
  -77831698.5486238     
  -77728497.7586636     
  -77626591.5035743     
  -77525794.9492301     
  -77425923.9953845     
  -77326795.3680914     
  -77228226.6898262     
  -77130036.5355064     
  -77032044.4822553     
  -76934071.1605173     
  -76835938.3140430     
  -76737468.8763035     
  -76638487.0710349     
  -76538818.5448581     
  -76438290.5402288     
  -76336732.1172925     
  -76233974.4335274     
  -76129851.0902382     
  -76024198.5549119     
  -75916856.6680380     
  -75807669.2419823     
  -75696484.7576442     
  -75583157.1615407     
  -75467546.7611803     
  -75349521.2095231     
  -75228956.5591632     
  -75105738.3526784     
  -74979762.6961632     
  -74850937.2367874     
  -74719181.9306134     
  -74584429.4416732     
  -74446624.9551709     
  -74305725.1138702     
  -74161695.6944442     
  -74014507.5269531     
  -73864130.0230457     
  -73710521.5152477     
  -73553615.4203062     
  -73393301.0259174     
  -73229397.4674692     
  -73061619.2190191     
  -72889531.1852043     
  -72712491.2686781     
  -72529578.1304590     
  -72339501.8117066     
  -72140495.0781989     
  -71930184.1810485     
  -71705440.3948466     
  -71462221.5105842     
  -71195433.7258553     
  -70898894.8271371     
  -70565562.6716994     
  -70188220.5974672     
  -69760572.1021632     
  -69278207.7174649     
  -87519242.5535175     
  -86905516.7140867     
  -86374413.3484091     
  -85886586.8774485     
  -85438079.6392200     
  -85024154.2244315     
  -84639830.2733189     
  -84299021.0921755     
  -83999985.5094520     
  -83730470.6906865     
  -83476154.6223835     
  -83233654.2656564     
  -83000465.0593652     
  -82774780.3484149     
  -82555336.3417875     
  -82341282.2283781     
  -82132073.6679450     
  -81927387.1912147     
  -81727052.7589647     
  -81531001.7007511     
  -81339227.3915388     
  -81151756.2636215     
  -80968627.0423986     
  -80789876.4018077     
  -80615529.5341388     
  -80445594.4045230     
  -80280058.7046699     
  -80118888.7303913     
  -79962029.5835182     
  -79809406.2432904     
  -79660925.1686210     
  -79516476.1846841     
  -79375934.4788987     
  -79239162.5861864     
  -79106012.2846259     
  -78976326.3530854     
  -78849940.1644615     
  -78726683.1037140     
  -78606379.8105508     
  -78488851.2536200     
  -78373915.6474066     
  -78261389.2254548     
  -78151086.8846185     
  -78042822.7152476     
  -77936410.4318112     
  -77831663.7177373     
  -77728396.4973333     
  -77626423.1466840     
  -77525558.6544649     
  -77425618.7427505     
  -77326419.9571062     
  -77227779.7346226     
  -77129516.4580540     
  -77031449.5038427     
  -76933399.2916056     
  -76835187.3425703     
  -76736636.3544927     
  -76637570.3007461     
  -76537814.5615312     
  -76437196.0954841     
  -76335543.6603056     
  -76232688.0913792     
  -76128462.6475737     
  -76022703.4334412     
  -75915249.9066996     
  -75805945.4789920     
  -75694638.2162156     
  -75581181.6418276     
  -75465435.6420187     
  -75347267.4649236     
  -75226552.7963063     
  -75103176.8805216     
  -74977035.6367981     
  -74848036.6955659     
  -74716100.2459534     
  -74581159.5415840     
  -74443160.8551118     
  -74302062.5997845     
  -74157833.2459488     
  -74010447.5488342     
  -73859880.4685351     
  -73706098.0019173     
  -73549043.9584611     
  -73388621.4991616     
  -73224668.0237190     
  -73056921.7438688     
  -72884978.0306908     
  -72708233.3843598     
  -72525814.6611390     
  -72336491.0294618     
  -72138566.0925728     
  -71929748.0032955     
  -71706997.2118742     
  -71466357.7667361     
  -71202796.9508733     
  -70910125.2690454     
  -70581149.8574354     
  -70208256.7098566     
  -69784443.8781670     
  -69304425.4279245     
  -87488690.2682272     
  -86857951.4029753     
  -86331648.9035928     
  -85849831.2786973     
  -85407706.0869461     
  -84999946.5327204     
  -84623480.8576273     
  -84290509.6966638     
  -83998879.7920379     
  -83730920.9611477     
  -83477713.4791509     
  -83235970.0208497     
  -83003266.3923057     
  -82777861.8006361     
  -82558545.5078954     
  -82344508.8083231     
  -82135240.2897038     
  -81930441.8287110     
  -81729962.5507336     
  -81533747.9784023     
  -81341801.7385156     
  -81154157.4391855     
  -80970858.6216727     
  -80791944.9994257     
  -80617443.4960226     
  -80447362.8689650     
  -80281690.9497182     
  -80120393.7390891     
  -79963415.7715554     
  -79810681.3049597     
  -79662096.0066012     
  -79517548.8971985     
  -79376914.3843226     
  -79240054.2704269     
  -79106819.6606961     
  -78977052.7254824     
  -78850588.2933525     
  -78727255.2657297     
  -78606877.8542808     
  -78489276.6488300     
  -78374269.5276279     
  -78261672.4240174     
  -78151299.9644601     
  -78042965.9929720     
  -77936483.9965450     
  -77831667.4453381     
  -77728330.0604898     
  -77626286.0213961     
  -77525350.1233436     
  -77425337.8955129     
  -77326065.6885793     
  -77227350.7405162     
  -77129011.2287004     
  -77030866.3160567     
  -76932736.1987724     
  -76834442.1630372     
  -76735806.6583107     
  -76636653.3947930     
  -76536807.4730549     
  -76436095.5541148     
  -76334346.0786431     
  -76231389.5443393     
  -76127058.8508148     
  -76021189.7213975     
  -75913621.2110351     
  -75804196.3087133     
  -75692762.6412572     
  -75579173.2827152     
  -75463287.6692912     
  -75344972.6134138     
  -75224103.4012677     
  -75100564.9450414     
  -74974252.9431090     
  -74845074.9769279     
  -74712951.4408937     
  -74577816.1587189     
  -74439616.4846923     
  -74298312.6178165     
  -74153875.7684064     
  -74006284.7073151     
  -73855520.0948104     
  -73701555.8270673     
  -73544346.4523357     
  -73383809.4968103     
  -73219801.3052899     
  -73052084.7495756     
  -72880286.8954937     
  -72703844.4536697     
  -72521934.5706461     
  -72333388.2418770     
  -72136583.3664343     
  -71929314.3929947     
  -71708636.4061576     
  -71470686.0271584     
  -71210497.3340335     
  -70921874.0570042     
  -70597459.6131944     
  -70229211.1462000     
  -69809382.0580646     
  -69331784.9194587     
  -87456685.1975183     
  -86811403.1503234     
  -86288108.2892551     
  -85812448.1432558     
  -85376878.3487937     
  -84975458.4500504     
  -84611113.6406296     
  -84282930.5505261     
  -83998068.4764478     
  -83731723.1436996     
  -83479657.1247992     
  -83238685.5600244     
  -83006469.7253838     
  -82781338.5347598     
  -82562137.1918337     
  -82348101.2535772     
  -82138753.8306134     
  -81933823.3068362     
  -81733178.8005215     
  -81536780.6018152     
  -81344642.9724372     
  -81156806.9371838     
  -80973320.9901458     
  -80794227.9469246     
  -80619556.4732231     
  -80449316.0948586     
  -80283494.7365983     
  -80122058.0444578     
  -79964949.9188899     
  -79812093.8272460     
  -79663394.5766945     
  -79518740.3174733     
  -79378004.6149270     
  -79241048.4809102     
  -79107722.2940681     
  -78977867.5670593     
  -78851318.5392417     
  -78727903.5876555     
  -78607446.4588012     
  -78489767.3299403     
  -78374683.7124073     
  -78262011.2113997     
  -78151564.1574794     
  -78043156.1249836     
  -77936600.3519885     
  -77831710.0756261     
  -77728298.7955742     
  -77626180.4775250     
  -77525169.7074651     
  -77425081.8067080     
  -77325732.9168551     
  -77226940.0632228     
  -77128521.2047726     
  -77030295.2782388     
  -76932082.2439339     
  -76833703.1406438     
  -76734980.1570975     
  -76635736.7276624     
  -76535797.6602187     
  -76434989.3045249     
  -76333139.7697949     
  -76230079.2006221     
  -76125640.1207123     
  -76019657.8540552     
  -75911971.0330082     
  -75802422.2021336     
  -75690858.5252704     
  -75577132.6008351     
  -75461103.3864461     
  -75342637.2279373     
  -75221608.9790304     
  -75097903.1854893     
  -74971415.2902718     
  -74842052.7926899     
  -74709736.2631707     
  -74574400.0738925     
  -74435992.6519356     
  -74294475.9930882     
  -74149824.0880939     
  -74002019.8059871     
  -73851049.6483683     
  -73696895.6317083     
  -73539523.3707501     
  -73378865.2250203     
  -73214797.1346377     
  -73047107.5149317     
  -72875456.3057970     
  -72699321.9806672     
  -72517933.9986885     
  -72330187.7997312     
  -72134538.9554234     
  -71928872.5529446     
  -71710343.8221655     
  -71475188.5923095     
  -71218514.3613639     
  -70934120.6644019     
  -70614477.8048226     
  -70251085.9239645     
  -69835412.0832008     
  -69360330.2719570     
  -87423177.5343135     
  -86772633.6953749     
  -86243741.9467817     
  -85774423.8824416     
  -85345607.4695780     
  -84950805.9034106     
  -84598740.2535810     
  -84280115.8170533     
  -83997545.9155250     
  -83732870.2644480     
  -83481978.0547526     
  -83241793.3550161     
  -83010067.8134471     
  -82785203.7649001     
  -82566105.1606225     
  -82352053.9254932     
  -82142609.2544714     
  -81937527.1784344     
  -81736697.6229093     
  -81540096.2112065     
  -81347748.2178760     
  -81159702.3227304     
  -80976012.1090911     
  -80796723.5582353     
  -80621867.0907509     
  -80451452.9793445     
  -80285469.1986960     
  -80123880.9835319     
  -79966631.5369497     
  -79813643.4699910     
  -79664820.6642943     
  -79520050.3365013     
  -79379205.1500159     
  -79242145.2703706     
  -79108720.2981742     
  -78978771.0411146     
  -78852131.1061246     
  -78728628.3064659     
  -78608085.8875998     
  -78490323.5815669     
  -78375158.5030301     
  -78262405.9018890     
  -78151879.7879765     
  -78043393.4431823     
  -77936759.8357241     
  -77831791.9503679     
  -77728303.0474010     
  -77626106.8621103     
  -77525017.7555393     
  -77424850.8263995     
  -77325421.9932453     
  -77226548.0553825     
  -77128046.7404935     
  -77029736.7466109     
  -76931437.7858759     
  -76832970.6374554     
  -76734157.2170606     
  -76634820.6707122     
  -76534785.5006920     
  -76433877.7320109     
  -76331925.1281654     
  -76228757.4653907     
  -76124206.8750165     
  -76018108.2637663     
  -75910299.8217707     
  -75800623.6275916     
  -75688926.3583353     
  -75575060.1107062     
  -75458883.3352384     
  -75340261.8802979     
  -75219070.1341562     
  -75095192.2416118     
  -74968523.3551010     
  -74838970.8577113     
  -74706455.4652535     
  -74570912.0746412     
  -74432290.1738634     
  -74290553.5622391     
  -74145679.0454784     
  -73997653.6652830     
  -73846469.8949013     
  -73692118.0776811     
  -73534575.2036361     
  -73373788.9090883     
  -73209655.3478492     
  -73041989.3215079     
  -72870484.7718278     
  -72694663.4232265     
  -72513808.9918265     
  -72326883.8891909     
  -72132424.6431277     
  -71928411.2545851     
  -71712104.6443911     
  -71479846.8063768     
  -71226826.2944232     
  -70946843.4015376     
  -70632189.9308771     
  -70273884.2147348     
  -69862562.0941085     
  -69390109.1148391     
  -87388114.0247373     
  -86739728.0284076     
  -86199506.8079537     
  -85735744.3938550     
  -85313905.0156402     
  -84932294.5765354     
  -84586377.0830011     
  -84277499.3729582     
  -83997307.1949535     
  -83734355.7868436     
  -83484669.0189384     
  -83245286.0234676     
  -83014053.4955810     
  -82789450.7568983     
  -82570443.2177773     
  -82356361.2164200     
  -82146801.5555690     
  -81941549.0284603     
  -81740515.1666616     
  -81543691.4826155     
  -81351114.6360360     
  -81162841.1974475     
  -80978929.9752956     
  -80799430.1810848     
  -80624374.0051479     
  -80453772.4484590     
  -80287613.4954476     
  -80125861.9164720     
  -79968460.1573926     
  -79815329.9104749     
  -79666374.0696016     
  -79521478.8576484     
  -79380515.9790481     
  -79243344.6997038     
  -79109813.7928361     
  -78979763.3157743     
  -78853026.2014663     
  -78729429.6614293     
  -78608796.4054510     
  -78490945.6887557     
  -78375694.2004882     
  -78262856.8088756     
  -78152247.1788530     
  -78043678.2776599     
  -77936962.7831907     
  -77831913.4089178     
  -77728343.1581591     
  -77626065.5193977     
  -77524894.6133545     
  -77424645.3016331     
  -77325133.2659703     
  -77226175.0664932     
  -77127588.1869076     
  -77029191.0741896     
  -76930803.1801657     
  -76832245.0123100     
  -76733338.2011749     
  -76633905.5920671     
  -76533771.3689124     
  -76432761.2186464     
  -76330702.5449507     
  -76227424.7406248     
  -76122759.5283374     
  -76016541.3798068     
  -75908608.0235007     
  -75798801.0505957     
  -75686966.6279077     
  -75572956.3245132     
  -75456628.0554797     
  -75337847.1408757     
  -75216487.4704617     
  -75092432.7532785     
  -74965577.8156297     
  -74835829.8894233     
  -74703109.8038178     
  -74567352.9546441     
  -74428509.8758738     
  -74286546.1727883     
  -74141441.4945972     
  -73993187.1219419     
  -73841781.6189483     
  -73687223.8476420     
  -73529502.4625902     
  -73368580.7948916     
  -73204375.7974398     
  -73036729.4584830     
  -72865370.7956730     
  -72689866.2051660     
  -72509555.5217157     
  -72323470.5585242     
  -72130231.9790360     
  -71927918.8895405     
  -71713903.4616723     
  -71484641.1230771     
  -71235410.1986567     
  -70960019.3241868     
  -70650580.8461835     
  -70297610.0132363     
  -69890862.8862859     
  -69421172.9866752     
  -87351437.5690164     
  -86706117.7229287     
  -86161712.5817339     
  -85698773.9633075     
  -85286697.0217887     
  -84914724.0056523     
  -84574743.0227876     
  -84275080.3297063     
  -83997348.0866645     
  -83736173.5989179     
  -83487723.0274297     
  -83249156.3432772     
  -83018419.7129350     
  -82794072.8466851     
  -82575145.2208277     
  -82361017.5657823     
  -82151325.7731414     
  -81945884.4868008     
  -81744627.6260009     
  -81547563.1377547     
  -81354739.4333109     
  -81166221.2068603     
  -80982072.6274203     
  -80802346.2024412     
  -80627075.9091272     
  -80456273.4610733     
  -80289926.8156680     
  -80128000.2293684     
  -79970435.3344565     
  -79817152.8453793     
  -79668054.6092623     
  -79523025.7980148     
  -79381937.1027644     
  -79244646.8388928     
  -79111002.9050227     
  -78980844.5646139     
  -78854004.0367003     
  -78730307.8945084     
  -78609578.2787331     
  -78491633.9372297     
  -78376291.1056712     
  -78263364.2449944     
  -78152666.6517144     
  -78044010.9567650     
  -77937209.5277203     
  -77832074.7882301     
  -77728419.4674060     
  -77626056.7908175     
  -77524800.6237396     
  -77424465.5763852     
  -77324867.0800994     
  -77225821.4428408     
  -77127145.8918044     
  -77028658.6107074     
  -76930178.7790622     
  -76831526.6207226     
  -76732523.4690818     
  -76632991.8565130     
  -76532755.6359776     
  -76431640.1431663     
  -76329472.4080166     
  -76226081.4249929     
  -76121298.4920062     
  -76014957.6282302     
  -75906896.0812379     
  -75796954.9336466     
  -75684979.8186234     
  -75570821.7518832     
  -75454338.0847842     
  -75335393.5783377     
  -75213861.5906877     
  -75089625.3601064     
  -74962579.3506771     
  -74832630.6073344     
  -74699700.0391902     
  -74563723.5131085     
  -74424652.5910818     
  -74282454.6824462     
  -74137112.3023824     
  -73988621.0284094     
  -73836985.6234750     
  -73682213.6449818     
  -73524305.6813535     
  -73363241.1502814     
  -73198958.3551496     
  -73031327.2275454     
  -72860112.8792817     
  -72684927.7287524     
  -72505169.5040549     
  -72319941.7460589     
  -72127952.3186265     
  -71927383.5246861     
  -71715724.3369247     
  -71489551.1774710     
  -71244241.9710006     
  -70973624.1232561     
  -70669634.4517632     
  -70322267.7878637     
  -69920347.8890544     
  -69453577.7507380     
  -87313086.7814071     
  -86671088.0520953     
  -86125261.5276945     
  -85667813.5988978     
  -85262693.9925562     
  -84897030.7444346     
  -84568814.8717462     
  -84272858.7761842     
  -83997664.9950683     
  -83738317.9957855     
  -83491133.3532136     
  -83253397.2654987     
  -83023159.5259012     
  -82799063.4585674     
  -82580205.0990974     
  -82366017.4765989     
  -82156177.0063177     
  -81950529.2415867     
  -81749031.2523313     
  -81551707.9542456     
  -81358619.8701563     
  -81169840.0480422     
  -80985438.1525499     
  -80805470.0540943     
  -80629971.5363082     
  -80458955.0128912     
  -80292408.3809144     
  -80130295.3370562     
  -79972556.6473116     
  -79819111.9927481     
  -79669862.1179898     
  -79524691.0897731     
  -79383468.5342890     
  -79246051.7679146     
  -79112287.7695884     
  -78982014.9672516     
  -78855064.8277104     
  -78731263.2507426     
  -78610431.7757290     
  -78492388.6136241     
  -78376949.5195426     
  -78263928.5222538     
  -78153138.5269578     
  -78044391.8071598     
  -77937500.4005690     
  -77832276.4228664     
  -77728532.3120492     
  -77626081.0149512     
  -77524736.1265183     
  -77424311.9915063     
  -77324623.7774856     
  -77225487.5274259     
  -77126720.1996370     
  -77028139.7025230     
  -76929564.9314256     
  -76830815.8147901     
  -76731713.3769920     
  -76632079.8253924     
  -76531738.6695351     
  -76430514.8808522     
  -76328235.1017779     
  -76224727.9137241     
  -76119824.1739384     
  -76013357.4317176     
  -75905164.4347228     
  -75795085.7360550     
  -75682966.4120940     
  -75568656.8996555     
  -75452013.9583083     
  -75332901.7593394     
  -75211193.0961561     
  -75086770.7010636     
  -74959528.6393952     
  -74829373.7325126     
  -74696226.9347651     
  -74560024.5541199     
  -74420719.1596073     
  -74278279.9583666     
  -74132692.3479158     
  -73983956.2521639     
  -73832082.7293709     
  -73677088.1936539     
  -73518985.4162180     
  -73357770.2664052     
  -73193402.9146940     
  -73025781.9477995     
  -72854709.5325670     
  -72679845.3874693     
  -72500646.8180650     
  -72316291.3091415     
  -72125576.8652565     
  -71926792.9603817     
  -71717550.8821305     
  -71494555.8647664     
  -71253296.3709042     
  -70987632.0023813     
  -70689333.3522054     
  -70347862.1015066     
  -69951053.1586758     
  -69487384.0753481     
  -87272995.4991226     
  -86634603.2674477     
  -86094658.1085785     
  -85636210.5655790     
  -85238356.8755043     
  -84881865.4528782     
  -84563265.5744533     
  -84270835.6601563     
  -83998254.8980367     
  -83740783.6585657     
  -83494893.5327247     
  -83258001.9260370     
  -83028266.1308204     
  -82804416.1235267     
  -82585616.8717901     
  -82371355.5324529     
  -82161350.4295759     
  -81955479.0530003     
  -81753722.3664072     
  -81556122.7762320     
  -81362753.2702715     
  -81173695.4774986     
  -80989024.6929189     
  -80808800.2183640     
  -80633059.6660341     
  -80461816.1404968     
  -80295057.4488713     
  -80132746.6859383     
  -79974823.7024007     
  -79821207.0939189     
  -79671796.4501601     
  -79526474.6814797     
  -79385110.3001999     
  -79247559.5776069     
  -79113668.5299777     
  -78983274.7099186     
  -78856208.7952831     
  -78732295.9786095     
  -78611357.1669086     
  -78493210.0057000     
  -78377669.7433001     
  -78264549.9521518     
  -78153663.1238510     
  -78044821.1538660     
  -77937835.7309338     
  -77832518.6449929     
  -77728682.0263328     
  -77626138.5274987     
  -77524701.4584643     
  -77424184.8846647     
  -77324403.6966982     
  -77225173.6598911     
  -77126311.4514442     
  -77027634.6925383     
  -76928961.9826269     
  -76830112.9430950     
  -76730908.2775819     
  -76631169.8565025     
  -76530720.8336734     
  -76429385.8034186     
  -76326991.0070792     
  -76223364.5984794     
  -76118336.9784972     
  -76011741.2094295     
  -75903413.5202332     
  -75793193.9137649     
  -75680926.8867068     
  -75566462.2716550     
  -75449656.2084886     
  -75330372.2482250     
  -75208482.5864201     
  -75083869.4140614     
  -74956426.3607994     
  -74826059.9870480     
  -74692691.2563902     
  -74556256.8859550     
  -74416710.4278253     
  -74274022.8763522     
  -74128182.5216248     
  -73979193.6749669     
  -73827073.7748633     
  -73671848.2379122     
  -73513542.2463283     
  -73352168.4589349     
  -73187709.3944370     
  -73020092.9606305     
  -72849159.2815311     
  -72674616.5789205     
  -72495983.3263098     
  -72312513.0538267     
  -72123096.7134998     
  -71926134.7914577     
  -71719366.3383712     
  -71499633.4272329     
  -71262547.0594482     
  -71002015.5509439     
  -70709658.4810239     
  -70374397.1897217     
  -69983017.3765297     
  -69522657.9902811     
  -87231092.2287586     
  -86596626.4758542     
  -86063512.7041326     
  -85610900.9114199     
  -85218851.2897507     
  -84871649.0867156     
  -84557812.7661215     
  -84269012.6652001     
  -83999115.2845563     
  -83743565.6308928     
  -83498997.3648191     
  -83262963.6565033     
  -83033732.8764085     
  -82810124.4976305     
  -82591374.6664236     
  -82377026.4149314     
  -82166841.3087043     
  -81960729.7675688     
  -81758697.3709369     
  -81560804.5253630     
  -81367137.0300761     
  -81177785.3192772     
  -80992830.4528057     
  -80812335.2339228     
  -80636339.1282619     
  -80464855.9254413     
  -80297873.3167501     
  -80135353.7568011     
  -79977236.1357673     
  -79823437.9154414     
  -79673857.4813813     
  -79528376.5393549     
  -79386862.4415719     
  -79249170.3705176     
  -79115145.3389055     
  -78984623.9860027     
  -78857436.1655399     
  -78733406.3303597     
  -78612354.7251891     
  -78494098.4025425     
  -78378452.0785216     
  -78265228.8457754     
  -78154240.7605954     
  -78045299.3203005     
  -77938215.8459653     
  -77832801.7843688     
  -77728868.9418040     
  -77626229.6612355     
  -77524696.9532457     
  -77424084.5902848     
  -77324207.1729528     
  -77224880.1764406     
  -77125919.9847628     
  -77027143.9201059     
  -76928370.2744524     
  -76829418.3506097     
  -76730108.5198951     
  -76630262.3039848     
  -76529702.4888123     
  -76428253.2788977     
  -76325740.5010715     
  -76221991.8672236     
  -76116837.3063549     
  -76010109.3768576     
  -75901643.7704201     
  -75791279.9191679     
  -75678861.7174192     
  -75564238.3684584     
  -75447265.3647767     
  -75327805.6067147     
  -75205730.6589066     
  -75080922.1355430     
  -74953273.1932844     
  -74822690.0934935     
  -74689093.7717265     
  -74552421.3203603     
  -74412627.2475690     
  -74269684.3199988     
  -74123583.7244116     
  -73974334.1920373     
  -73821959.6148424     
  -73666494.5419513     
  -73507976.7738787     
  -73346436.0691860     
  -73181877.7399534     
  -73014259.6344713     
  -72843460.6763268     
  -72669238.7177476     
  -72491174.8946848     
  -72308600.7650190     
  -72120502.8935450     
  -71925396.4704866     
  -71721153.6605859     
  -71504761.5502792     
  -71271966.6516500     
  -71016745.6208643     
  -70730588.6945794     
  -70401876.4813465     
  -70016281.8419895     
  -69559471.5334656     
  -87187299.5166875     
  -86557119.8524510     
  -86031346.8201145     
  -85586907.8737316     
  -85202363.2112310     
  -84861396.4632335     
  -84552465.4855152     
  -84267392.0858719     
  -84000244.0909501     
  -83746659.2941835     
  -83503438.9088639     
  -83268275.9946153     
  -83039553.2801131     
  -82816182.3806665     
  -82597472.7376767     
  -82383024.9215729     
  -82172645.0172858     
  -81966277.3329495     
  -81763952.7636180     
  -81565750.2121343     
  -81371768.6284721     
  -81182107.4732990     
  -80996853.7055841     
  -80816073.7017232     
  -80639808.8085189     
  -80468073.4983648     
  -80300855.3247022     
  -80138116.0676302     
  -79979793.6153626     
  -79825804.2509614     
  -79676045.1100289     
  -79530396.6485316     
  -79388725.0149852     
  -79250884.2617099     
  -79116718.3590067     
  -78986062.9965632     
  -78858747.1703421     
  -78734594.5623341     
  -78613424.7261724     
  -78495054.0947390     
  -78379296.8272917     
  -78265965.5138880     
  -78154871.7543805     
  -78045826.6282989     
  -77938641.0707687     
  -77833126.1683315     
  -77729093.3872838     
  -77626354.7459672     
  -77524722.9413685     
  -77424011.4394756     
  -77324034.5380357     
  -77224607.4097615     
  -77125546.1335460     
  -77026667.7209435     
  -76927790.1450136     
  -76828732.3785982     
  -76729314.4492411     
  -76629357.5182272     
  -76528683.9915956     
  -76427117.6715273     
  -76324483.9570987     
  -76220610.1041020     
  -76115325.5543619     
  -76008462.3456806     
  -75899855.6141506     
  -75789344.2009315     
  -75676771.3755585     
  -75561985.6871627     
  -75444841.9533694     
  -75325202.3935980     
  -75202937.9085519     
  -75077929.5000533     
  -74950069.8141300     
  -74819264.7742886     
  -74685435.2495894     
  -74548518.6718011     
  -74408470.4752952     
  -74265265.1797960     
  -74118896.8667171     
  -73969378.7111521     
  -73816741.1200966     
  -73661027.8894359     
  -73502289.6241866     
  -73340573.4650918     
  -73175907.9264384     
  -73008281.3694126     
  -72837612.2991687     
  -72663709.2484173     
  -72486217.4123514     
  -72304548.2367766     
  -72117786.4162356     
  -71924565.3728186     
  -71722895.6066030     
  -71509917.4685389     
  -71281526.7872497     
  -71031791.2168982     
  -70752100.3361198     
  -70430302.0442043     
  -70050890.4473612     
  -69597903.5059125     
  -87141533.2271972     
  -86516044.9445834     
  -85998170.6145716     
  -85562376.7288018     
  -85185656.0511519     
  -84851126.9430706     
  -84547233.4606947     
  -84265976.7038338     
  -84001639.6374965     
  -83750060.3427993     
  -83508212.4826180     
  -83273932.6945242     
  -83045721.0446231     
  -82822583.7351287     
  -82603905.4867157     
  -82389345.9843465     
  -82178757.0537151     
  -81972117.8132067     
  -81769485.1505983     
  -81570956.9475810     
  -81376645.6368817     
  -81186659.9238887     
  -81001092.8009161     
  -80820014.2910203     
  -80643467.6529103     
  -80471468.0431373     
  -80304002.8592264     
  -80141033.1763973     
  -79982495.8433242     
  -79828305.9230735     
  -79678359.2587472     
  -79532535.0142630     
  -79390698.0934937     
  -79252701.3795409     
  -79118387.7634468     
  -78987591.9508116     
  -78860142.0476643     
  -78735860.9352485     
  -78614567.4483652     
  -78496077.3745358     
  -78380204.2923110     
  -78266760.2670023     
  -78155556.4214212     
  -78046403.3981272     
  -77939111.7283920     
  -77833492.1217642     
  -77729355.6888216     
  -77626514.1084737     
  -77524779.7501110     
  -77423965.7599630     
  -77323886.1202270     
  -77224355.6889392     
  -77125190.2280713     
  -77026206.4270372     
  -76927221.9286469     
  -76828055.3645154     
  -76728526.4070936     
  -76628455.8457545     
  -76527665.6947806     
  -76425979.3416379     
  -76323221.7445740     
  -76219219.6893128     
  -76113802.1154083     
  -76006800.5236141     
  -75898049.4763441     
  -75787387.2038112     
  -75674656.3286166     
  -75559704.7211543     
  -75442386.4969404     
  -75322563.1644133     
  -75200104.9274299     
  -75074892.1398039     
  -74946816.8989843     
  -74815784.7511601     
  -74681716.4592515     
  -74544549.7566745     
  -74404240.9712033     
  -74260766.3521684     
  -74114122.8675226     
  -73964328.1516597     
  -73811419.1764451     
  -73655449.0829113     
  -73496481.4456246     
  -73334581.0420198     
  -73169799.9609336     
  -73002157.6015995     
  -72831612.7720041     
  -72658025.6577661     
  -72481106.8114417     
  -72300349.3024677     
  -72114938.3183216     
  -71923628.8627860     
  -71724574.8298292     
  -71515078.0824305     
  -71291198.2252113     
  -71047119.4118542     
  -70774166.7733119     
  -70459673.9356592     
  -70086889.6186703     
  -69638040.3574993     
  -87093701.7086362     
  -86473363.0978886     
  -85963999.1490329     
  -85537343.3742296     
  -85168761.5596950     
  -84840860.8240243     
  -84542126.9041135     
  -84264769.6676595     
  -84003300.5672175     
  -83753764.7602099     
  -83513312.6605658     
  -83279927.7374631     
  -83052230.0747613     
  -82829322.7056850     
  -82610667.4810802     
  -82395984.6887145     
  -82185173.0587729     
  -81978247.4045873     
  -81775291.2603623     
  -81576421.9553089     
  -81381765.7295467     
  -81191440.7484982     
  -81005546.1720729     
  -80824155.7454708     
  -80647314.6731659     
  -80475038.8010126     
  -80307315.3565684     
  -80144104.6838329     
  -79985342.5582210     
  -79830942.7851356     
  -79680799.8759081     
  -79534791.6630909     
  -79392781.7675575     
  -79254621.8663969     
  -79120153.7365054     
  -78989211.0665675     
  -78861621.0419458     
  -78737205.7144619     
  -78615783.1733718     
  -78497168.5359801     
  -78381174.7769943     
  -78267613.4154330     
  -78156295.0769845     
  -78047029.9484856     
  -77939628.1398098     
  -77833899.9670666     
  -77729656.1696497     
  -77626708.0724505     
  -77524867.7034581     
  -77423947.8760132     
  -77323762.2442176     
  -77224125.3393721     
  -77124852.5948533     
  -77025760.3665517     
  -76926665.9558208     
  -76827387.6419109     
  -76727744.7309851     
  -76627557.6291237     
  -76526647.9471314     
  -76424838.6455386     
  -76321954.2288651     
  -76217820.9989840     
  -76112267.3782941     
  -76005124.3142723     
  -75896225.7778158     
  -75785409.3684767     
  -75672517.0400465     
  -75557395.9598708     
  -75439899.5143655     
  -75319888.4711332     
  -75197232.3043769     
  -75071810.6842307     
  -74943515.1213473     
  -74812250.7445140     
  -74677938.1697413     
  -74540515.3924968     
  -74399939.5983224     
  -74256188.7384721     
  -74109262.6532871     
  -73959183.4434206     
  -73805994.6837748     
  -73649758.9430999     
  -73490552.9094068     
  -73328459.2234049     
  -73163553.8843318     
  -72995887.8073700     
  -72825460.7638723     
  -72652185.4871557     
  -72475839.0863165     
  -72295997.8644840     
  -72111949.7074587     
  -71922574.3604593     
  -71726173.9748262     
  -71520220.0851087     
  -71300950.9668326     
  -71062695.3002980     
  -70796757.9158191     
  -70489989.4344344     
  -70124328.2006525     
  -69679977.2323286     
  -87043704.8232586     
  -86429036.0467342     
  -85928853.4529520     
  -85511848.5395528     
  -85151713.5432314     
  -84830619.0420033     
  -84537156.3124859     
  -84263774.3789497     
  -84005225.7884795     
  -83757768.7972099     
  -83518734.2733417     
  -83286255.3431016     
  -83059074.4949922     
  -82836393.6392774     
  -82617753.4752058     
  -82402936.2933221     
  -82191888.8337798     
  -81984662.4518037     
  -81781367.9580331     
  -81582142.5838611     
  -81387126.6940742     
  -81196448.1266040     
  -81010212.3433740     
  -80828496.8892969     
  -80651348.9517159     
  -80478785.0747785     
  -80310792.3060984     
  -80147330.2361592     
  -79988333.5372560     
  -79833714.7230349     
  -79683366.9370185     
  -79537166.6439670     
  -79394976.1459271     
  -79256645.8793890     
  -79122016.4741150     
  -78990920.5706705     
  -78863184.4044036     
  -78738629.1702055     
  -78617072.1860646     
  -78498327.8750341     
  -78382208.5855371     
  -78268525.2693377     
  -78157088.0354009     
  -78047706.5964937     
  -77940190.6238921     
  -77834350.0241052     
  -77729995.1501228     
  -77626936.9584427     
  -77524987.1220234     
  -77423958.1083495     
  -77323663.2310229     
  -77223916.6826770     
  -77124533.5565476     
  -77025329.8637303     
  -76926122.5530347     
  -76826729.5403263     
  -76726969.7544104     
  -76626663.2068218     
  -76525631.0933094     
  -76423695.9354064     
  -76320681.7711758     
  -76216414.4050488     
  -76110721.7275955     
  -76003434.1170166     
  -75894384.9351138     
  -75783411.1313337     
  -75670353.9690626     
  -75555059.8885715     
  -75437381.5204523     
  -75317178.8618376     
  -75194320.6246105     
  -75068685.7595431     
  -74940165.1520348     
  -74808663.4728058     
  -74674101.1491051     
  -74536416.3970594     
  -74395567.2215536     
  -74251533.2439379     
  -74104317.1568168     
  -73953945.5256567     
  -73800468.5549702     
  -73643958.3080572     
  -73484504.7092083     
  -73322208.4611798     
  -73157169.7731241     
  -72989471.5070566     
  -72819154.9978493     
  -72646186.3441188     
  -72470410.3121844     
  -72291487.9231860     
  -72108811.8064513     
  -71921389.4082474     
  -71727675.7748228     
  -71525320.0989818     
  -71310754.4114564     
  -71078482.0066753     
  -70819839.7243835     
  -70521242.1263611     
  -70163257.2563910     
  -69723819.2103742     
  -86991432.8105341     
  -86383026.7265161     
  -85892761.7810480     
  -85485938.0791420     
  -85134547.5574690     
  -84820422.8556193     
  -84532332.2759234     
  -84262994.3872397     
  -84007414.4229621     
  -83762068.9531756     
  -83524472.4088424     
  -83292909.9819839     
  -83066248.6677865     
  -82843791.1059927     
  -82625158.4316857     
  -82410196.2503627     
  -82198900.3593546     
  -81991359.4648278     
  -81787712.2600960     
  -81588116.3194035     
  -81392726.4422208     
  -81201680.3487684     
  -81015089.9377209     
  -80833036.6335046     
  -80655569.6467810     
  -80482706.2328979     
  -80314433.2536567     
  -80150709.5277828     
  -79991468.5984244     
  -79836621.6569035     
  -79686060.4460848     
  -79539660.0293217     
  -79397281.3564826     
  -79258773.5910041     
  -79123976.1843624     
  -78992720.6993645     
  -78864832.3933181     
  -78740131.5777952     
  -78618434.7747266     
  -78499555.6896695     
  -78383306.0229769     
  -78269496.1387398     
  -78157935.6100588     
  -78048433.6576672     
  -77940799.4973622     
  -77834842.6101605     
  -77730372.9476553     
  -77627201.0837699     
  -77525138.3229727     
  -77423996.7740692     
  -77323589.3978930     
  -77223730.0366036     
  -77124233.4318568     
  -77024915.2387998     
  -76925592.0427205     
  -76826081.3851934     
  -76726201.8067167     
  -76625772.9131560     
  -76524615.4737671     
  -76422551.5591765     
  -76319404.7284330     
  -76215000.2751253     
  -76109165.5435339     
  -76001730.3268206     
  -75892527.3603673     
  -75781392.9243451     
  -75668167.5704350     
  -75552696.9881009     
  -75434833.0256641     
  -75314434.8803960     
  -75191370.4693498     
  -75065517.9882677     
  -74936767.6586374     
  -74805023.6519037     
  -74670206.1636608     
  -74532253.5875613     
  -74391124.7066819     
  -74246800.7765709     
  -74099287.3160782     
  -73948615.3457302     
  -73794841.7147406     
  -73638048.0321882     
  -73478337.5606060     
  -73315829.2359764     
  -73150647.7408620     
  -72982908.2684362     
  -72812694.2575128     
  -72640025.9133638     
  -72464816.6628913     
  -72286813.6047897     
  -72105515.9962754     
  -71920061.7366305     
  -71729063.1500935     
  -71530354.8201682     
  -71320577.5472263     
  -71094440.7662181     
  -70843373.7300607     
  -70553420.8127547     
  -70203729.7404195     
  -69769682.7927349     
  -86936764.9459523     
  -86335300.3866722     
  -85855761.0886145     
  -85459663.1864240     
  -85117300.5070058     
  -84810293.5197755     
  -84527665.3014855     
  -84262433.2959393     
  -84009865.7604148     
  -83766661.9612717     
  -83530522.4155925     
  -83299886.3894147     
  -83073747.2130823     
  -82851509.9208656     
  -82632877.5433599     
  -82417760.2266879     
  -82206203.8148061     
  -81998335.1362160     
  -81794321.3495372     
  -81594340.7987274     
  -81398563.0208984     
  -81207135.8258422     
  -81020177.6842173     
  -80837773.9821313     
  -80659975.9974578     
  -80486801.7136195     
  -80318237.8048597     
  -80154242.3039326     
  -79994747.6026037     
  -79839663.5427749     
  -79688880.4369087     
  -79542271.9160824     
  -79399697.5470177     
  -79261005.1897093     
  -79126033.0879479     
  -78994611.6986388     
  -78866565.2742848     
  -78741713.2178043     
  -78619871.2311716     
  -78500852.2799403     
  -78384467.3952217     
  -78270526.3335318     
  -78158838.1133896     
  -78049211.4458832     
  -77941455.0747469     
  -77835378.0398640     
  -77730789.8766478     
  -77627500.7624452     
  -77525321.6199325     
  -77424064.1865520     
  -77323541.0582197     
  -77223565.7149285     
  -77123952.5354284     
  -77024516.8078663     
  -76925074.7431377     
  -76825443.4977308     
  -76725441.2130015     
  -76624887.0781489     
  -76523601.4246356     
  -76421405.8604251     
  -76318123.4531645     
  -76213578.9723915     
  -76107599.2018464     
  -76000013.3341260     
  -75890653.4611273     
  -75779355.1748611     
  -75665958.2942951     
  -75550307.7346562     
  -75432254.5358504     
  -75311657.0661429     
  -75188382.4154244     
  -75062307.9887891     
  -74933323.3049734     
  -74801331.9944330     
  -74666253.9772278     
  -74528027.7797129     
  -74386612.9193503     
  -74241992.2459958     
  -74094174.0729392     
  -73943193.8578278     
  -73789115.0983336     
  -73632028.9851369     
  -73472052.2003403     
  -73309322.0570884     
  -73143987.9392985     
  -72976197.7097394     
  -72806077.3928431     
  -72633701.9670284     
  -72459054.4276756     
  -72281969.1878781     
  -72102053.8573401     
  -71918579.3282012     
  -71730319.3060423     
  -71535301.1683698     
  -71330389.1768645     
  -71110531.0990600     
  -70867316.5927065     
  -70586508.2065657     
  -70245799.9872329     
  -69817697.6921360     
  -86879567.9472389     
  -86285826.1133243     
  -85817898.7468971     
  -85433080.4726317     
  -85100010.1348123     
  -84800251.9582722     
  -84523165.6565843     
  -84262094.6811834     
  -84012579.2215326     
  -83771544.7784071     
  -83536879.9088679     
  -83307179.5811474     
  -83081565.0290707     
  -82859545.1667735     
  -82640906.2563368     
  -82425624.1257090     
  -82213795.5981966     
  -82005586.3589642     
  -81801192.5913931     
  -81600813.8225504     
  -81404634.6233826     
  -81212813.0982933     
  -81025474.4258509     
  -80842708.0385160     
  -80664567.3287928     
  -80491071.0290546     
  -80322205.6283512     
  -80157928.3632388     
  -79998170.4555903     
  -79842840.3741765     
  -79691826.9743291     
  -79545002.4266302     
  -79402224.8859809     
  -79263340.8805082     
  -79128187.4186006     
  -78996593.8245323     
  -78868383.3204259     
  -78743374.3762121     
  -78621381.8508367     
  -78502217.9480324     
  -78385693.0090725     
  -78271616.1634675     
  -78159795.8568313     
  -78050040.2733274     
  -77942157.6683140     
  -77835956.6251244     
  -77731246.2484070     
  -77627836.3050918     
  -77525537.3229041     
  -77424160.6553649     
  -77323518.5214382     
  -77223424.0273632     
  -77123691.1777584     
  -77024134.8828175     
  -76924570.9682756     
  -76824816.1948423     
  -76724688.2940093     
  -76624006.0274345     
  -76522589.2776231     
  -76420259.1782655     
  -76316838.2933927     
  -76212150.8554696     
  -76106023.0736579     
  -75998283.5247040     
  -75888763.6402153     
  -75777298.3054402     
  -75663726.5859329     
  -75547892.5995631     
  -75429646.5519733     
  -75308845.9535536     
  -75185357.0348949     
  -75059056.3748855     
  -74929832.7505320     
  -74797589.2091216     
  -74662245.3503471     
  -74523739.7868258     
  -74382032.7240065     
  -74237108.5622690     
  -74088978.3718601     
  -73937682.0215683     
  -73783289.6501393     
  -73625902.0505107     
  -73465649.3853732     
  -73302687.4621644     
  -73137190.5591765     
  -72969339.5021995     
  -72799303.3254887     
  -72627212.3740515     
  -72453120.0267231     
  -72276949.1282585     
  -72098417.2085113     
  -71916930.4791897     
  -71731427.8298260     
  -71540136.4389763     
  -71340158.1749357     
  -71126711.0988766     
  -70891619.7423758     
  -70620479.3791438     
  -70289522.9323474     
  -69868009.0098536     
  -86819694.0665627     
  -86234578.9132453     
  -85779234.5116442     
  -85406251.8321299     
  -85082714.3906555     
  -84790318.4511737     
  -84518843.2373404     
  -84261982.0251145     
  -84015554.3301893     
  -83776714.5806390     
  -83543540.7800450     
  -83314784.8712100     
  -83089697.3145507     
  -82867892.2185763     
  -82649240.2940521     
  -82433784.1101606     
  -82221672.3470975     
  -82013110.2449175     
  -81808323.5487117     
  -81607533.3691055     
  -81410939.6007159     
  -81218710.8456497     
  -81030979.1272229     
  -80847838.0115647     
  -80669343.0568187     
  -80495513.7691937     
  -80326336.4589843     
  -80161767.5602382     
  -80001737.1100547     
  -79846152.1836457     
  -79694900.1553918     
  -79547851.7096906     
  -79404863.5631400     
  -79265780.8854418     
  -79130439.4234444     
  -78998667.3433939     
  -78870286.8125736     
  -78745115.3445183     
  -78622966.9328445     
  -78503652.9982865     
  -78386983.1722107     
  -78272765.9381269     
  -78160809.1507832     
  -78050920.4504333     
  -77942907.5879946     
  -77836578.6750465     
  -77731742.3710540     
  -77628208.0188455     
  -77525785.7381623     
  -77424286.4861597     
  -77323522.0929241     
  -77223305.2794459     
  -77123449.6650810     
  -77023769.7712149     
  -76924081.0277423     
  -76824199.7890079     
  -76723943.3660241     
  -76623130.0821495     
  -76521579.3598995     
  -76419111.8472346     
  -76315549.5925147     
  -76210716.2783011     
  -76104437.5253553     
  -75996541.2795191     
  -75886858.2955714     
  -75775222.7336842     
  -75661472.8856027     
  -75545452.0490403     
  -75427009.5698376     
  -75306002.0719225     
  -75182294.8946606     
  -75055763.7552657     
  -74926296.6499184     
  -74793796.0001242     
  -74658181.0394870     
  -74519390.4188704     
  -74377384.9828179     
  -74232150.6346412     
  -74083701.1585186     
  -73932080.8005303     
  -73777366.3221845     
  -73619668.1244599     
  -73459129.8917437     
  -73295926.0166326     
  -73130255.8306431     
  -72962333.3720915     
  -72792371.0533252     
  -72620555.1085732     
  -72447010.0253346     
  -72271748.0818921     
  -72094598.1434163     
  -71915103.8574991     
  -71732372.7843558     
  -71544838.4538516     
  -71349853.7682751     
  -71142937.8558163     
  -70916229.1674753     
  -70655299.9214451     
  -70334952.9463930     
  -69920779.9073827     
  -86756978.7895806     
  -86181542.5724276     
  -85739842.7380562     
  -85379243.9890981     
  -85065450.6789088     
  -84780512.3590194     
  -84514707.4655767     
  -84262098.6648050     
  -84018790.6961870     
  -83782168.7645399     
  -83550501.2095868     
  -83322697.8921791     
  -83098139.5930746     
  -82876546.7686757     
  -82657875.6824810     
  -82442236.6257990     
  -82229830.9600866     
  -82020904.1437352     
  -81815711.9989220     
  -81614497.6080131     
  -81417476.4732710     
  -81224827.8960204     
  -81036690.8823028     
  -80853163.2220005     
  -80674302.6935462     
  -80500129.6058608     
  -80330630.1009268     
  -80165759.8077925     
  -80005447.5674179     
  -79849599.0441736     
  -79698100.1104420     
  -79550819.9411607     
  -79407613.7902012     
  -79268325.4440367     
  -79132789.3633184     
  -79000832.5321038     
  -78872276.0394098     
  -78746936.4198225     
  -78624626.7800383     
  -78505157.7371988     
  -78388338.1931717     
  -78273975.9668707     
  -78161878.3045375     
  -78051852.2858033     
  -77943705.1413022     
  -77837244.4958345     
  -77732278.5494288     
  -77628616.2072522     
  -77526067.1681490     
  -77424441.9805704     
  -77323552.0738848     
  -77223209.7724351     
  -77123228.2992670     
  -77023421.7761850     
  -76923605.2266616     
  -76823594.5881785     
  -76723206.7407605     
  -76622259.5588248     
  -76520571.9939926     
  -76417964.1971805     
  -76314257.6891907     
  -76209275.5900343     
  -76102842.9184610     
  -75994786.9745927     
  -75884937.8201035     
  -75773128.8720657     
  -75659197.6283312     
  -75542986.5439773     
  -75424344.0798262     
  -75303125.9450456     
  -75179196.5560776     
  -75052430.7331038     
  -74922715.6522902     
  -74789953.0663524     
  -74654061.7962350     
  -74514980.4815300     
  -74372670.5545553     
  -74227119.3702783     
  -74078343.3783789     
  -73926391.1606938     
  -73771346.0725099     
  -73613328.1141002     
  -73452494.5132056     
  -73289038.3128235     
  -73123184.0232641     
  -72955179.1022081     
  -72785279.6542496     
  -72613728.2572563     
  -72440721.1465583     
  -72266360.9256444     
  -72090589.0636175     
  -71913088.5562485     
  -71733138.7984483     
  -71549385.7076740     
  -71359445.8255308     
  -71159168.0274373     
  -70941085.4405225     
  -70690923.7913462     
  -70382142.1077513     
  -69976194.9194611     
  -86691238.0383933     
  -86126713.5923570     
  -85699814.7960850     
  -85352127.5869082     
  -85048255.0072386     
  -84770851.9115729     
  -84510767.2153702     
  -84262447.7581162     
  -84022288.0095385     
  -83787904.9548780     
  -83557757.6840764     
  -83330914.6182034     
  -83106887.7391119     
  -82885504.8541547     
  -82666808.7766022     
  -82450978.4260954     
  -82238268.6190117     
  -82028965.6624293     
  -81823355.9506004     
  -81621704.9144074     
  -81424243.9424780     
  -81231163.2356891     
  -81042608.9221804     
  -80858683.1085650     
  -80679445.8518819     
  -80504918.2965768     
  -80335086.4306727     
  -80169905.0794192     
  -80009301.8796296     
  -79853181.0705504     
  -79701427.0041415     
  -79553907.3248593     
  -79410475.8013531     
  -79270974.8136946     
  -79135237.5130429     
  -79003089.6782451     
  -78874351.2975671     
  -78748837.9048743     
  -78626361.6989907     
  -78506732.4733949     
  -78389758.3812989     
  -78275246.5587708     
  -78163003.6262018     
  -78052836.0861192     
  -77944550.6332284     
  -77837954.3906932     
  -77732855.0849803     
  -77629061.1701613     
  -77526381.9113692     
  -77424627.4360985     
  -77323608.7612516     
  -77223137.8031981     
  -77123027.3777079     
  -77023091.1963129     
  -76923143.8655619     
  -76823000.8956691     
  -76722478.7252606     
  -76621394.7692830     
  -76519567.4976803     
  -76416816.5531567     
  -76312962.9172318     
  -76207829.1349054     
  -76101239.6095089     
  -75993020.9808686     
  -75883002.6015425     
  -75771017.1277672     
  -75656901.2437268     
  -75540496.5397115     
  -75421650.5666325     
  -75300218.0909004     
  -75176062.5745774     
  -75049057.9055734     
  -74919090.4007931     
  -74786061.1007935     
  -74649888.3664834     
  -74510510.7752288     
  -74367890.2934607     
  -74222015.6729532     
  -74072905.9752054     
  -73920614.0688002     
  -73765229.8634382     
  -73606882.9357817     
  -73445744.0596525     
  -73282024.9687942     
  -73115975.4456135     
  -72947876.5327575     
  -72778028.2891478     
  -72606730.0254438     
  -72434250.2821414     
  -72260782.7755840     
  -72086382.7083144     
  -71910874.1417636     
  -71733711.1516109     
  -71553757.5080788     
  -71368905.1357941     
  -71175358.5575273     
  -70966124.1073542     
  -70727290.8400132     
  -70431137.6557986     
  -70034464.1101492     
  -86622264.7430969     
  -86070106.6403282     
  -85659261.5663109     
  -85324975.6438989     
  -85031161.0933416     
  -84761354.0910495     
  -84507030.7659470     
  -84263032.2684902     
  -84026046.0469336     
  -83793921.0188125     
  -83565307.0176565     
  -83339431.3910333     
  -83115938.0064626     
  -82894762.8856741     
  -82676036.2882499     
  -82460006.5979993     
  -82246982.8120659     
  -82037292.6854857     
  -81831253.6606392     
  -81629153.8833085     
  -81431240.9026660     
  -81237716.0187459     
  -81048732.6228053     
  -80864397.2341731     
  -80684772.2504612     
  -80509879.6883222     
  -80339705.3999489     
  -80174203.4115082     
  -80013300.1508497     
  -79856898.4206286     
  -79704881.0363948     
  -79557114.0931985     
  -79413449.8537453     
  -79273729.2700169     
  -79137784.1616306     
  -79005439.0802298     
  -78876512.8916915     
  -78750820.1080842     
  -78628171.9999751     
  -78508377.5175774     
  -78391244.0466650     
  -78276578.0225250     
  -78164185.4226005     
  -78053872.1560383     
  -77945444.3661381     
  -77838708.6597100     
  -77733472.2756549     
  -77629543.2036085     
  -77526730.2622676     
  -77424843.1460000     
  -77323692.4475611     
  -77223089.6640995     
  -77122847.1932082     
  -77022778.3255292     
  -76922697.2402660     
  -76822419.0100468     
  -76721759.6217830     
  -76620536.0205239     
  -76518566.1838815     
  -76415669.2353129     
  -76311665.6054911     
  -76206377.2521224     
  -76099627.9499266     
  -75991243.6640890     
  -75881053.0222989     
  -75768887.9025157     
  -75654584.1557930     
  -75537982.4858098     
  -75418929.5090048     
  -75297279.0213383     
  -75172893.4992854     
  -75045645.8633907     
  -74915421.5320047     
  -74782120.7898322     
  -74645661.4896140     
  -74505982.0941540     
  -74363045.0480887     
  -74216840.4416933     
  -74067389.8895251     
  -73914750.4906529     
  -73759018.6597295     
  -73600333.5131845     
  -73438879.3553074     
  -73274886.6268326     
  -73108630.4444239     
  -72940425.5616403     
  -72770616.2039962     
  -72599558.7420900     
  -72427594.5016921     
  -72255009.0025793     
  -72081972.1803328     
  -71908450.6951061     
  -71734075.8511912     
  -71557934.1104402     
  -71378203.6520125     
  -71191467.5164131     
  -70991276.6084064     
  -70764324.0574487     
  -70481978.2375764     
  -70095828.3547122     
  -86549824.6017748     
  -86011762.1517160     
  -85618315.7611012     
  -85297861.1649026     
  -85014199.5435830     
  -84752034.6334079     
  -84503505.7732255     
  -84263854.9723237     
  -84030064.6902320     
  -83800215.0867419     
  -83573146.3782478     
  -83348244.9492819     
  -83125287.0591561     
  -82904317.6782875     
  -82685555.3154538     
  -82469318.5888492     
  -82255971.3576998     
  -82045883.3955744     
  -81839403.6517939     
  -81636843.3442301     
  -81438466.4530181     
  -81244485.5767333     
  -81055061.5126764     
  -80870305.2919623     
  -80690281.7183740     
  -80515013.7211872     
  -80344487.0384961     
  -80178654.9054275     
  -80017442.5390218     
  -79860751.2964751     
  -79708462.4431860     
  -79560440.5077779     
  -79416536.2278917     
  -79276589.1070723     
  -79140429.6124489     
  -79007881.0473785     
  -78878761.1344607     
  -78752883.3434980     
  -78630057.9969133     
  -78510093.1824495     
  -78392795.4999868     
  -78277970.6663534     
  -78165423.9991590     
  -78054960.7980718     
  -77946386.6396476     
  -77839507.5997377     
  -77734130.4157709     
  -77630062.5996933     
  -77527112.5111107     
  -77425089.3991607     
  -77323803.4208384     
  -77223065.6428774     
  -77122688.0338645     
  -77022483.4529978     
  -76922265.6417821     
  -76821849.2250242     
  -76721049.7276929     
  -76619683.6146212     
  -76517568.3605483     
  -76414522.5587856     
  -76310366.0777498     
  -76204920.2757533     
  -76098008.2859114     
  -75989455.3846555     
  -75879089.4593202     
  -75766741.5924254     
  -75652246.7827484     
  -75535444.8258575     
  -75416181.3794871     
  -75294309.2417720     
  -75169689.8726474     
  -75042195.1903549     
  -74911709.6753760     
  -74778132.8125709     
  -74641381.8976685     
  -74501395.2252659     
  -74358135.6601327     
  -74211594.5694115     
  -74061796.0570444     
  -73908801.3893141     
  -73752713.4266242     
  -73593680.7752736     
  -73431901.2366940     
  -73267623.9516402     
  -73101149.4032750     
  -72932826.1440872     
  -72763042.7310392     
  -72592212.8633533     
  -72420751.0599801     
  -72249035.2449950     
  -72077350.9681479     
  -71905808.8467173     
  -71734219.6980595     
  -71561896.8511830     
  -71387314.6763792     
  -71207454.9912027     
  -71016471.9470098     
  -70801926.6736491     
  -70534688.3566178     
  -70160566.1522642     
  -86473650.7849219     
  -85951757.0349211     
  -85577133.5676156     
  -85270853.6870799     
  -84997397.3011378     
  -84742908.1476009     
  -84500199.2505952     
  -84264918.4947627     
  -84034343.9553472     
  -83806785.5802395     
  -83581273.3187869     
  -83357352.4611377     
  -83134932.0050720     
  -82914166.4843493     
  -82695363.3734049     
  -82478912.2344943     
  -82265232.4294129     
  -82054736.2948623     
  -81847804.7306117     
  -81644772.3759722     
  -81445919.9095985     
  -81251471.4282789     
  -81061595.2804538     
  -80876407.1112477     
  -80695974.1997564     
  -80520320.4318750     
  -80349431.4567168     
  -80183259.7294936     
  -80021729.2573167     
  -79864739.9454164     
  -79712171.4973149     
  -79563886.8598841     
  -79419735.2279996     
  -79279554.6375907     
  -79143174.1833157     
  -79010415.8999504     
  -78881096.3465642     
  -78755027.9307412     
  -78632020.0072888     
  -78511879.7826082     
  -78394413.0524982     
  -78279424.7978675     
  -78166719.6597768     
  -78056102.3124543     
  -77947377.7504858     
  -77840351.5042537     
  -77734829.7958831     
  -77630619.6464423     
  -77527528.9438531     
  -77425366.4799726     
  -77323941.9644703     
  -77223066.0225284     
  -77122550.1829470     
  -77022206.8629905     
  -76921849.3561838     
  -76821291.8293416     
  -76720349.3353540     
  -76618837.8486133     
  -76516574.3305574     
  -76413376.8335893     
  -76309064.6526085     
  -76203458.5346109     
  -76096380.9583135     
  -75987656.4975137     
  -75877112.2839530     
  -75764578.5878419     
  -75649889.5368441     
  -75532883.9972450     
  -75413406.6441754     
  -75291309.2508776     
  -75166452.2300646     
  -75038706.4628965     
  -74907955.4526753     
  -74774097.8401538     
  -74637050.3145306     
  -74496750.9473023     
  -74353162.9632335     
  -74206278.9414960     
  -74056125.4070120     
  -73902767.7232570     
  -73746315.1277830     
  -73586925.6540802     
  -73424810.5503711     
  -73260237.6281870     
  -73093532.7408196     
  -72925078.2916214     
  -72755307.2890417     
  -72584690.9748390     
  -72413717.4023106     
  -72242857.4182694     
  -72072512.9634844     
  -71902939.8048225     
  -71734130.3350870     
  -71565628.2849101     
  -71396212.9792429     
  -71223283.8834263     
  -71041639.3555308     
  -70839979.4418658     
  -70589270.1017432     
  -70229002.5639009     
  -86393437.2459954     
  -85890219.9304825     
  -85535894.6513180     
  -85244014.6017248     
  -84980777.6712151     
  -84733988.2988884     
  -84497117.5577937     
  -84266225.3804306     
  -84038884.0279503     
  -83813631.2482087     
  -83589685.8134251     
  -83366751.5608040     
  -83144870.4325343     
  -82924307.0286879     
  -82705458.4271683     
  -82488785.7887028     
  -82274764.5814577     
  -82063850.2269206     
  -81856456.0057179     
  -81652940.3216100     
  -81453600.8174243     
  -81258673.2886855     
  -81068333.7824804     
  -80882702.6633353     
  -80701849.7582355     
  -80525799.9570550     
  -80354538.8481712     
  -80188018.1208016     
  -80026160.5754492     
  -79868864.6609641     
  -79716008.5090266     
  -79567453.4709043     
  -79423047.1822147     
  -79282626.1930887     
  -79146018.2065383     
  -79013043.9691148     
  -78883518.8566298     
  -78757254.1949160     
  -78634058.3520251     
  -78513737.6344129     
  -78396097.0158160     
  -78280940.7239275     
  -78168072.7066786     
  -78057296.9969948     
  -77948417.9923516     
  -77841240.6632186     
  -77735570.7026443     
  -77631214.6276778     
  -77527979.8420066     
  -77425674.6681979     
  -77324108.3570757     
  -77223091.0811749     
  -77122433.9187807     
  -77021948.8347824     
  -76921448.6644974     
  -76820747.1066585     
  -76719658.7320152     
  -76617999.0143906     
  -76515584.3916036     
  -76412232.3645093     
  -76307761.6433819     
  -76201992.3521458     
  -76094746.3025256     
  -75985847.3520222     
  -75875121.8618103     
  -75762399.2731978     
  -75647512.8241969     
  -75530300.4309705     
  -75410605.7624712     
  -75288279.5403009     
  -75163181.0995287     
  -75035180.2496387     
  -74904159.4774478     
  -74770016.5350902     
  -74632667.4550998     
  -74492050.0297825     
  -74348127.7817788     
  -74200894.4343799     
  -74050378.8605476     
  -73896650.4444386     
  -73739824.7231182     
  -73580069.0823380     
  -73417608.1504439     
  -73252728.3592263     
  -73085780.9085308     
  -72917182.0703421     
  -72747409.3825726     
  -72576991.7924045     
  -72406491.1679152     
  -72236471.7215358     
  -72067452.4734968     
  -71899835.3796832     
  -71733796.2716523     
  -71569112.3247789     
  -71404874.8814564     
  -71238920.3716950     
  -71066712.1975784     
  -70878338.8020330     
  -70645690.6815676     
  -70301521.1757500     
  -86308830.1531406     
  -85827353.3091003     
  -85494798.6986115     
  -85217391.3507411     
  -84964361.3405337     
  -84725287.9057333     
  -84494266.4277879     
  -84267778.1989262     
  -84043685.3019070     
  -83820751.2132553     
  -83598382.2980955     
  -83376440.3891534     
  -83155100.4500333     
  -82934737.5462305     
  -82715838.9262690     
  -82498937.9539352     
  -82284566.7754808     
  -82073224.3992403     
  -81865356.9064418     
  -81661346.8036177     
  -81461508.9625559     
  -81266091.0794458     
  -81075277.0501544     
  -80889192.0671712     
  -80707908.5811948     
  -80531452.5365395     
  -80359809.4919027     
  -80192930.3868965     
  -80030736.8208551     
  -79873125.7836163     
  -79719973.8265349     
  -79571140.6926380     
  -79426472.4427873     
  -79285804.1239274     
  -79148962.0288952     
  -79015765.5968820     
  -78886029.0011161     
  -78759562.4664645     
  -78636173.3553347     
  -78515667.0558232     
  -78397847.7017722     
  -78282518.7504780     
  -78169483.4402472     
  -78058545.1469145     
  -77949507.6557545     
  -77842175.3629220     
  -77736353.4186535     
  -77631847.8228662     
  -77528465.4824943     
  -77426014.2388353     
  -77324302.8723749     
  -77223141.0919437     
  -77122339.5146165     
  -77021709.6425163     
  -76921063.8425844     
  -76820215.3354386     
  -76718978.1997038     
  -76617167.3985919     
  -76514598.8360920     
  -76411089.4509988     
  -76306457.3579910     
  -76200522.0463349     
  -76093104.6483629     
  -75984028.2918406     
  -75873118.5526423     
  -75760204.0268575     
  -75645117.0446192     
  -75527694.5514398     
  -75407779.1868484     
  -75285220.5943680     
  -75159877.0012772     
  -75031617.1109601     
  -74900322.3544694     
  -74765889.5505997     
  -74628234.0244800     
  -74487293.2320098     
  -74343030.9296920     
  -74195441.9140995     
  -74044557.3289395     
  -73890450.4963103     
  -73733243.1665317     
  -73573111.9909559     
  -73410294.8958351     
  -73245096.8624914     
  -73077894.3879727     
  -72909137.5985195     
  -72739348.6003164     
  -72569114.1615641     
  -72399070.1911108     
  -72229874.6417582     
  -72062164.2258828     
  -71896488.0063532     
  -71733206.8819657     
  -71572334.3621610     
  -71413278.4049225     
  -71254333.6839953     
  -71091633.1874830     
  -70916837.3520849     
  -70703863.3372553     
  -70378580.4945766     
  -86219416.7141576     
  -85763466.1436538     
  -85454055.0218212     
  -85191011.3302982     
  -84948168.8104941     
  -84716818.6675163     
  -84491651.1310743     
  -84269579.6594076     
  -84048748.4224049     
  -83828145.0294299     
  -83607361.7145567     
  -83386417.6393723     
  -83165620.7291324     
  -82945456.8223546     
  -82726503.8412609     
  -82509367.9135420     
  -82294638.4081311     
  -82082858.4063394     
  -81874507.2017653     
  -81669991.7391185     
  -81469644.3841564     
  -81273724.9376350     
  -81082425.2971501     
  -80895875.5947976     
  -80714150.9838381     
  -80537278.5162597     
  -80365243.7545772     
  -80197996.9072779     
  -80035458.3797135     
  -79877523.7015213     
  -79724067.8364228     
  -79574948.9075091     
  -79430011.3861411     
  -79289088.7992913     
  -79152006.0115441     
  -79018581.1359635     
  -78888627.1241501     
  -78761953.0809977     
  -78638365.3445366     
  -78517668.3662096     
  -78399665.4222238     
  -78284159.1823586     
  -78170952.1588462     
  -78059847.0546714     
  -77950647.0278434     
  -77843155.8858186     
  -77737178.2222950     
  -77632519.5069662     
  -77528986.1375040     
  -77426385.4619722     
  -77324525.7790487     
  -77223216.3228240     
  -77122267.2385025     
  -77021489.5550873     
  -76920695.1610191     
  -76819696.7888287     
  -76718308.0151042     
  -76616343.2824881     
  -76513617.9510299     
  -76409948.3870653     
  -76305152.0988530     
  -76199047.9295756     
  -76091456.3199586     
  -75982199.6548061     
  -75871102.7102052     
  -75757993.2209859     
  -75642702.5914603     
  -75525066.7762785     
  -75404927.3626239     
  -75282132.8898110     
  -75156540.4474441     
  -75028017.5985700     
  -74896444.6792300     
  -74761717.5299499     
  -74623750.7171651     
  -74482481.3020733     
  -74337873.2092305     
  -74189922.2348377     
  -74038661.7118959     
  -73884168.8117781     
  -73726571.4035481     
  -73566055.3063492     
  -73402871.6473555     
  -73237343.8675386     
  -73069873.6875879     
  -72900945.0435006     
  -72731124.6123278     
  -72561057.0556483     
  -72391452.4998642     
  -72223062.9562083     
  -72056643.3658833     
  -71892890.7641953     
  -71732352.3941198     
  -71575281.2871764     
  -71421403.7064134     
  -71269494.7763591     
  -71116360.4737463     
  -70955289.5103068     
  -70763617.4976564     
  -70460737.0677982     
  -86124710.2350307     
  -85699023.5455001     
  -85413858.4686823     
  -85164878.2104190     
  -84932224.2255642     
  -84708590.1703621     
  -84489276.9788665     
  -84271632.6517459     
  -84054074.3582597     
  -83835812.7449960     
  -83616623.5590628     
  -83396682.6079624     
  -83176430.5505988     
  -82956464.2362695     
  -82737452.7023453     
  -82520075.3654955     
  -82304979.3396506     
  -82092752.2534674     
  -81883907.0195555     
  -81678875.3552062     
  -81478007.3864973     
  -81281575.2251625     
  -81089778.9264272     
  -80902753.6765876     
  -80720577.4130307     
  -80543278.3510306     
  -80370842.0924282     
  -80203218.1347205     
  -80040325.6978085     
  -79882058.8510044     
  -79728290.9639212     
  -79578878.5286745     
  -79433664.4128682     
  -79292480.6070853     
  -79155150.5298733     
  -79021490.9495962     
  -78891313.5773226     
  -78764426.3790718     
  -78640634.6498330     
  -78519741.8861405     
  -78401550.4888447     
  -78285862.3231002     
  -78172479.1586167     
  -78061203.0097672     
  -77951836.3922219     
  -77844182.5103483     
  -77738045.3875729     
  -77633229.9502671     
  -77529542.0743340     
  -77426788.6026413     
  -77324777.3405989     
  -77223317.0365377     
  -77122217.3531552     
  -77021288.8360135     
  -76920342.8849705     
  -76819191.7345488     
  -76717648.4494522     
  -76615526.9418788     
  -76512642.0179216     
  -76408809.4611741     
  -76303846.1627831     
  -76197570.3085801     
  -76089801.6356512     
  -75980361.7728256     
  -75869074.6821478     
  -75755767.2214068     
  -75640269.8514476     
  -75522417.5161520     
  -75402050.7277446     
  -75279016.8955031     
  -75153171.9417389     
  -75024382.2551015     
  -74892527.0374169     
  -74757501.1058258     
  -74619218.2162465     
  -74477614.9758688     
  -74332655.4097665     
  -74184336.2374415     
  -74032692.8957798     
  -73877806.3111015     
  -73719810.3688735     
  -73558899.9476299     
  -73395339.2645248     
  -73229470.1122892     
  -73061719.3389819     
  -72892604.6179796     
  -72722737.1661780     
  -72552819.5728439     
  -72383636.3116464     
  -72216033.7326208     
  -72050885.4498059     
  -71889037.3743759     
  -71731223.9311139     
  -71577941.2476785     
  -71429234.0855448     
  -71284373.7926700     
  -71140872.6572409     
  -70993508.2196179     
  -70824650.8523181     
  -70548679.2305282     
  -86024129.4351603     
  -85634724.8794016     
  -85374338.1686089     
  -85138977.9724680     
  -84916558.7542420     
  -84700608.2209581     
  -84487150.3716584     
  -84273940.0683232     
  -84059664.5698199     
  -83843754.9436309     
  -83626167.9451418     
  -83407235.2484515     
  -83187529.8548971     
  -82967759.8074274     
  -82748685.6402148     
  -82531060.5577094     
  -82315589.9234522     
  -82102906.3808808     
  -81893556.8660553     
  -81687998.2043027     
  -81486598.5508406     
  -81289642.5378179     
  -81097338.5370041     
  -80909826.9062208     
  -80727188.4508834     
  -80549452.6070694     
  -80376605.0529687     
  -80208594.5963976     
  -80045339.2812148     
  -79886731.7169355     
  -79732643.6730614     
  -79582930.0000130     
  -79437431.9476079     
  -79295979.9537642     
  -79158395.9732800     
  -79024495.4112896     
  -78894088.7194341     
  -78766982.7059395     
  -78642981.6040593     
  -78521887.9371305     
  -78403503.2128846     
  -78287628.4746963     
  -78174064.7332642     
  -78062613.2985422     
  -77953076.0287522     
  -77845255.5107494     
  -77738955.1839318     
  -77633979.4182214     
  -77530133.5552297     
  -77427223.9206642     
  -77325057.8151982     
  -77223443.4903955     
  -77122190.1158255     
  -77021107.7433061     
  -76920007.2740723     
  -76818700.4347657     
  -76716999.7684154     
  -76614718.6469750     
  -76511671.3126566     
  -76407672.9561360     
  -76302539.8408849     
  -76196089.4842724     
  -76088140.9078831     
  -75978514.9717609     
  -75867034.8098848     
  -75753526.3874755     
  -75637819.2045453     
  -75519747.1745901     
  -75399149.7125716     
  -75275873.0722003     
  -75149771.9791228     
  -75020711.6137120     
  -74888570.0044140     
  -74753240.8996909     
  -74614637.1926288     
  -74472694.9761203     
  -74327378.3065868     
  -74178684.7479593     
  -74026651.7518247     
  -73871363.8997547     
  -73712960.9838524     
  -73551646.8236590     
  -73387698.6021996     
  -73221476.3392544     
  -73053431.8927266     
  -72884116.5756112     
  -72714186.0821163     
  -72544400.9315192     
  -72375620.0288652     
  -72208784.3200873     
  -72044886.4552995     
  -71884922.1238659     
  -71729813.7176000     
  -71580302.9670432     
  -71436757.5812752     
  -71298937.5531849     
  -71165167.0326406     
  -71031344.7597349     
  -70886449.8157088     
  -70643278.4608645     
  -85916968.4282786     
  -85571632.2867284     
  -85335451.5026411     
  -85113313.0315265     
  -84901205.8949575     
  -84692874.8106276     
  -84485279.8992530     
  -84276504.4204940     
  -84065521.3261123     
  -83851972.7238042     
  -83635995.7016029     
  -83418076.2187077     
  -83198919.3012225     
  -82979344.2436519     
  -82760203.4298224     
  -82542324.3248048     
  -82326471.0367716     
  -82113321.6886561     
  -81903457.6455853     
  -81697361.1795055     
  -81495418.7471752     
  -81297927.7140801     
  -81105104.9304444     
  -80917096.0453707     
  -80733984.8180531     
  -80555801.9642527     
  -80382533.2764801     
  -80214126.8947948     
  -80050499.6968009     
  -79891542.8329471     
  -79737126.4666860     
  -79587103.7960084     
  -79441314.4388462     
  -79299587.2640646     
  -79161742.7448794     
  -79027594.9045251     
  -78896952.9161865     
  -78769622.4112430     
  -78645406.5423932     
  -78524106.8413699     
  -78405523.9049081     
  -78289457.9373574     
  -78175709.1738215     
  -78064078.2039536     
  -77954366.2133498     
  -77846375.1568676     
  -77739907.8760694     
  -77634768.1712669     
  -77530760.8372220     
  -77427691.6704906     
  -77325367.4555434     
  -77223595.9361547     
  -77122185.7781549     
  -77020946.5293406     
  -76919688.5823045     
  -76818223.1459776     
  -76716362.2319810     
  -76613918.6622947     
  -76510706.1054049     
  -76406539.1490059     
  -76301233.4184559     
  -76194605.7516832     
  -76086474.4430953     
  -75976659.5713279     
  -75864983.4284909     
  -75751271.0719595     
  -75635351.0238062     
  -75517056.1478241     
  -75396224.7396934     
  -75272701.8722995     
  -75146341.0455098     
  -75017006.1977063     
  -74884574.1448246     
  -74748937.5211929     
  -74610008.3042649     
  -74467722.0114212     
  -74322042.6597012     
  -74172968.5761619     
  -74020539.1343294     
  -73864842.4662485     
  -73706024.1538779     
  -73544296.8299761     
  -73379950.5070031     
  -73213363.2914070     
  -73045011.9138275     
  -72875481.2055434     
  -72705471.2484564     
  -72535800.4609122     
  -72367402.2410394     
  -72201312.3148440     
  -72038642.8398235     
  -71880539.6718053     
  -71728115.4513543     
  -71582354.9637456     
  -71443967.4431575     
  -71313152.9294900     
  -71189235.9233573     
  -71068777.1260269     
  -70948152.3012024     
  -70745671.5058178     
  -85802350.5727048     
  -85511393.7837290     
  -85296765.0680863     
  -85088009.3912776     
  -84886164.4708482     
  -84685400.3265069     
  -84483673.3721164     
  -84279328.6952552     
  -84071647.7021486     
  -83860467.7538158     
  -83646108.4710498     
  -83429206.9287281     
  -83210600.3354941     
  -82991218.9902295     
  -82772007.5379030     
  -82553868.1259876     
  -82337624.1125712     
  -82123999.5619075     
  -81913610.6804600     
  -81706965.5298413     
  -81504469.1457390     
  -81306431.8436344     
  -81113079.1170335     
  -80924562.0280631     
  -80740967.3767376     
  -80562327.2180963     
  -80388627.4972339     
  -80219815.7083972     
  -80055807.5725441     
  -79896492.7814801     
  -79741739.8863188     
  -79591400.4215070     
  -79445312.3586010     
  -79303302.9806634     
  -79165191.2611447     
  -79030789.8223982     
  -78899906.5398357     
  -78772345.8486834     
  -78647909.8020370     
  -78526398.9214139     
  -78407612.8745101     
  -78291351.0092395     
  -78177412.7683979     
  -78065598.0053420     
  -77955707.2177606     
  -77847541.7139445     
  -77740903.7237444     
  -77635596.4646398     
  -77531424.1719448     
  -77428192.1010426     
  -77325706.5086967     
  -77223774.6198720     
  -77122204.5860425     
  -77020805.4407212     
  -76919387.0578616     
  -76817760.1188919     
  -76715736.0943421     
  -76613127.2465462     
  -76509746.6605129     
  -76405408.3109821     
  -76299927.1748783     
  -76193119.3998608     
  -76084802.5416323     
  -75974795.8849913     
  -75862920.8665912     
  -75749001.6209136     
  -75632865.6752464     
  -75514344.8246310     
  -75393276.2237300     
  -75269503.7396146     
  -75142879.6174826     
  -75013266.5201689     
  -74880540.0120071     
  -74744591.5675697     
  -74605332.1954116     
  -74462696.7752956     
  -74316649.2126576     
  -74167188.5140747     
  -74014355.8788563     
  -73858242.8799211     
  -73699000.7657271     
  -73536850.8455704     
  -73372095.8136453     
  -73205131.7075779     
  -73036459.9771802     
  -72866698.8253642     
  -72696592.6179224     
  -72527017.5871218     
  -72358981.7290258     
  -72193615.5272173     
  -72032151.5446024     
  -71875885.0915701     
  -71726123.7409116     
  -71584087.8354072     
  -71450853.1627290     
  -71327015.6161436     
  -71212982.7328843     
  -71106102.1414607     
  -71008300.3787366     
  -70857399.4829400     
  -85679153.4310767     
  -85456654.8939300     
  -85256996.9198286     
  -85063605.9530997     
  -84871259.5408453     
  -84678265.2786600     
  -84482312.8382115     
  -84282426.5122437     
  -84078043.7962422     
  -83869243.8384444     
  -83656508.2276614     
  -83440629.8205018     
  -83222575.1770857     
  -83003386.3152600     
  -82784100.1609394     
  -82565694.0892014     
  -82349051.1707727     
  -82134941.8971119     
  -81924017.7307705     
  -81716812.8754760     
  -81513751.2282408     
  -81315156.2755518     
  -81121262.3215625     
  -80932225.9646707     
  -80748137.1333238     
  -80569029.2814070     
  -80394888.5444456     
  -80225661.7921427     
  -80061263.5976256     
  -79901582.1936536     
  -79746484.5118938     
  -79595820.4113535     
  -79449426.2020144     
  -79307127.5637448     
  -79168741.9514743     
  -79034080.5671935     
  -78902949.9687840     
  -78775153.3756331     
  -78650491.7218540     
  -78528764.4998568     
  -78409770.4300038     
  -78293307.9861591     
  -78179175.8019173     
  -78067172.9781809     
  -77957099.3093272     
  -77848755.4424031     
  -77741942.9815728     
  -77636464.5481907     
  -77532123.8054653     
  -77428725.4555335     
  -77326075.2159244     
  -77223979.7817499     
  -77122246.7795040     
  -77020684.7181462     
  -76919102.9430267     
  -76817311.5983013     
  -76715121.6037727     
  -76612344.6525203     
  -76508793.2363929     
  -76404280.7073026     
  -76298621.3835254     
  -76191630.7117633     
  -76083125.4976426     
  -75972924.2198710     
  -75860847.4462580     
  -75746718.3735701     
  -75630363.5177183     
  -75511613.5861942     
  -75390304.5711643     
  -75266279.1091555     
  -75139388.1620172     
  -75009493.0836253     
  -74876468.1476429     
  -74740203.6230897     
  -74600609.4959111     
  -74457619.9452848     
  -74311198.6913932     
  -74161345.3345309     
  -74008102.8004116     
  -73851565.9887215     
  -73691891.6847902     
  -73529309.7297395     
  -73364135.3405878     
  -73196782.3188377     
  -73027776.6591606     
  -72857769.7826379     
  -72687550.1784911     
  -72518051.8830343     
  -72350357.2959727     
  -72185692.3923658     
  -72025408.8475133     
  -71870956.8078364     
  -71723826.3605411     
  -71585513.6980883     
  -71457352.2032196     
  -71340662.0005647     
  -71235981.9247194     
  -71144354.2747843     
  -71064373.4825681     
  -70980659.1257721     
SCALARS elementIsPlast double 
LOOKUP_TABLE default
  0.000000000000000E+000
  0.000000000000000E+000
  0.000000000000000E+000
  0.000000000000000E+000
  0.000000000000000E+000
  0.000000000000000E+000
  0.000000000000000E+000
  0.000000000000000E+000
   1.00000000000000     
   1.00000000000000     
   1.00000000000000     
   1.00000000000000     
   1.00000000000000     
   1.00000000000000     
   1.00000000000000     
   1.00000000000000     
   1.00000000000000     
   1.00000000000000     
   1.00000000000000     
   1.00000000000000     
   1.00000000000000     
   1.00000000000000     
   1.00000000000000     
   1.00000000000000     
   1.00000000000000     
   1.00000000000000     
   1.00000000000000     
   1.00000000000000     
   1.00000000000000     
   1.00000000000000     
   1.00000000000000     
   1.00000000000000     
   1.00000000000000     
   1.00000000000000     
   1.00000000000000     
   1.00000000000000     
   1.00000000000000     
   1.00000000000000     
   1.00000000000000     
   1.00000000000000     
   1.00000000000000     
   1.00000000000000     
   1.00000000000000     
   1.00000000000000     
   1.00000000000000     
   1.00000000000000     
   1.00000000000000     
   1.00000000000000     
   1.00000000000000     
   1.00000000000000     
   1.00000000000000     
   1.00000000000000     
   1.00000000000000     
   1.00000000000000     
   1.00000000000000     
   1.00000000000000     
   1.00000000000000     
   1.00000000000000     
   1.00000000000000     
   1.00000000000000     
   1.00000000000000     
   1.00000000000000     
   1.00000000000000     
   1.00000000000000     
   1.00000000000000     
   1.00000000000000     
   1.00000000000000     
   1.00000000000000     
   1.00000000000000     
   1.00000000000000     
   1.00000000000000     
   1.00000000000000     
   1.00000000000000     
   1.00000000000000     
   1.00000000000000     
   1.00000000000000     
   1.00000000000000     
   1.00000000000000     
   1.00000000000000     
   1.00000000000000     
   1.00000000000000     
   1.00000000000000     
   1.00000000000000     
   1.00000000000000     
   1.00000000000000     
   1.00000000000000     
   1.00000000000000     
   1.00000000000000     
   1.00000000000000     
   1.00000000000000     
   1.00000000000000     
   1.00000000000000     
   1.00000000000000     
   1.00000000000000     
   1.00000000000000     
   1.00000000000000     
   1.00000000000000     
   1.00000000000000     
   1.00000000000000     
   1.00000000000000     
  0.000000000000000E+000
  0.000000000000000E+000
  0.000000000000000E+000
  0.000000000000000E+000
  0.000000000000000E+000
  0.000000000000000E+000
  0.000000000000000E+000
  0.000000000000000E+000
   1.00000000000000     
   1.00000000000000     
   1.00000000000000     
   1.00000000000000     
   1.00000000000000     
   1.00000000000000     
   1.00000000000000     
   1.00000000000000     
   1.00000000000000     
   1.00000000000000     
   1.00000000000000     
   1.00000000000000     
   1.00000000000000     
   1.00000000000000     
   1.00000000000000     
   1.00000000000000     
   1.00000000000000     
   1.00000000000000     
   1.00000000000000     
   1.00000000000000     
   1.00000000000000     
   1.00000000000000     
   1.00000000000000     
   1.00000000000000     
   1.00000000000000     
   1.00000000000000     
   1.00000000000000     
   1.00000000000000     
   1.00000000000000     
   1.00000000000000     
   1.00000000000000     
   1.00000000000000     
   1.00000000000000     
   1.00000000000000     
   1.00000000000000     
   1.00000000000000     
   1.00000000000000     
   1.00000000000000     
   1.00000000000000     
   1.00000000000000     
   1.00000000000000     
   1.00000000000000     
   1.00000000000000     
   1.00000000000000     
   1.00000000000000     
   1.00000000000000     
   1.00000000000000     
   1.00000000000000     
   1.00000000000000     
   1.00000000000000     
   1.00000000000000     
   1.00000000000000     
   1.00000000000000     
   1.00000000000000     
   1.00000000000000     
   1.00000000000000     
   1.00000000000000     
   1.00000000000000     
   1.00000000000000     
   1.00000000000000     
   1.00000000000000     
   1.00000000000000     
   1.00000000000000     
   1.00000000000000     
   1.00000000000000     
   1.00000000000000     
   1.00000000000000     
   1.00000000000000     
   1.00000000000000     
   1.00000000000000     
   1.00000000000000     
   1.00000000000000     
   1.00000000000000     
   1.00000000000000     
   1.00000000000000     
   1.00000000000000     
   1.00000000000000     
   1.00000000000000     
   1.00000000000000     
   1.00000000000000     
   1.00000000000000     
   1.00000000000000     
   1.00000000000000     
   1.00000000000000     
   1.00000000000000     
   1.00000000000000     
   1.00000000000000     
   1.00000000000000     
   1.00000000000000     
   1.00000000000000     
   1.00000000000000     
   1.00000000000000     
  0.000000000000000E+000
  0.000000000000000E+000
  0.000000000000000E+000
  0.000000000000000E+000
  0.000000000000000E+000
  0.000000000000000E+000
  0.000000000000000E+000
  0.000000000000000E+000
   1.00000000000000     
   1.00000000000000     
   1.00000000000000     
   1.00000000000000     
   1.00000000000000     
   1.00000000000000     
   1.00000000000000     
   1.00000000000000     
   1.00000000000000     
   1.00000000000000     
   1.00000000000000     
   1.00000000000000     
   1.00000000000000     
   1.00000000000000     
   1.00000000000000     
   1.00000000000000     
   1.00000000000000     
   1.00000000000000     
   1.00000000000000     
   1.00000000000000     
   1.00000000000000     
   1.00000000000000     
   1.00000000000000     
   1.00000000000000     
   1.00000000000000     
   1.00000000000000     
   1.00000000000000     
   1.00000000000000     
   1.00000000000000     
   1.00000000000000     
   1.00000000000000     
   1.00000000000000     
   1.00000000000000     
   1.00000000000000     
   1.00000000000000     
   1.00000000000000     
   1.00000000000000     
   1.00000000000000     
   1.00000000000000     
   1.00000000000000     
   1.00000000000000     
   1.00000000000000     
   1.00000000000000     
   1.00000000000000     
   1.00000000000000     
   1.00000000000000     
   1.00000000000000     
   1.00000000000000     
   1.00000000000000     
   1.00000000000000     
   1.00000000000000     
   1.00000000000000     
   1.00000000000000     
   1.00000000000000     
   1.00000000000000     
   1.00000000000000     
   1.00000000000000     
   1.00000000000000     
   1.00000000000000     
   1.00000000000000     
   1.00000000000000     
   1.00000000000000     
   1.00000000000000     
   1.00000000000000     
   1.00000000000000     
   1.00000000000000     
   1.00000000000000     
   1.00000000000000     
   1.00000000000000     
   1.00000000000000     
   1.00000000000000     
   1.00000000000000     
   1.00000000000000     
   1.00000000000000     
   1.00000000000000     
   1.00000000000000     
   1.00000000000000     
   1.00000000000000     
   1.00000000000000     
   1.00000000000000     
   1.00000000000000     
   1.00000000000000     
   1.00000000000000     
   1.00000000000000     
   1.00000000000000     
   1.00000000000000     
   1.00000000000000     
   1.00000000000000     
   1.00000000000000     
   1.00000000000000     
   1.00000000000000     
   1.00000000000000     
  0.000000000000000E+000
  0.000000000000000E+000
  0.000000000000000E+000
  0.000000000000000E+000
  0.000000000000000E+000
  0.000000000000000E+000
  0.000000000000000E+000
  0.000000000000000E+000
   1.00000000000000     
   1.00000000000000     
   1.00000000000000     
   1.00000000000000     
   1.00000000000000     
   1.00000000000000     
   1.00000000000000     
   1.00000000000000     
   1.00000000000000     
   1.00000000000000     
   1.00000000000000     
   1.00000000000000     
   1.00000000000000     
   1.00000000000000     
   1.00000000000000     
   1.00000000000000     
   1.00000000000000     
   1.00000000000000     
   1.00000000000000     
   1.00000000000000     
   1.00000000000000     
   1.00000000000000     
   1.00000000000000     
   1.00000000000000     
   1.00000000000000     
   1.00000000000000     
   1.00000000000000     
   1.00000000000000     
   1.00000000000000     
   1.00000000000000     
   1.00000000000000     
   1.00000000000000     
   1.00000000000000     
   1.00000000000000     
   1.00000000000000     
   1.00000000000000     
   1.00000000000000     
   1.00000000000000     
   1.00000000000000     
   1.00000000000000     
   1.00000000000000     
   1.00000000000000     
   1.00000000000000     
   1.00000000000000     
   1.00000000000000     
   1.00000000000000     
   1.00000000000000     
   1.00000000000000     
   1.00000000000000     
   1.00000000000000     
   1.00000000000000     
   1.00000000000000     
   1.00000000000000     
   1.00000000000000     
   1.00000000000000     
   1.00000000000000     
   1.00000000000000     
   1.00000000000000     
   1.00000000000000     
   1.00000000000000     
   1.00000000000000     
   1.00000000000000     
   1.00000000000000     
   1.00000000000000     
   1.00000000000000     
   1.00000000000000     
   1.00000000000000     
   1.00000000000000     
   1.00000000000000     
   1.00000000000000     
   1.00000000000000     
   1.00000000000000     
   1.00000000000000     
   1.00000000000000     
   1.00000000000000     
   1.00000000000000     
   1.00000000000000     
   1.00000000000000     
   1.00000000000000     
   1.00000000000000     
   1.00000000000000     
   1.00000000000000     
   1.00000000000000     
   1.00000000000000     
   1.00000000000000     
   1.00000000000000     
   1.00000000000000     
   1.00000000000000     
   1.00000000000000     
   1.00000000000000     
   1.00000000000000     
   1.00000000000000     
  0.000000000000000E+000
  0.000000000000000E+000
  0.000000000000000E+000
  0.000000000000000E+000
  0.000000000000000E+000
  0.000000000000000E+000
  0.000000000000000E+000
  0.000000000000000E+000
   1.00000000000000     
   1.00000000000000     
   1.00000000000000     
   1.00000000000000     
   1.00000000000000     
   1.00000000000000     
   1.00000000000000     
   1.00000000000000     
   1.00000000000000     
   1.00000000000000     
   1.00000000000000     
   1.00000000000000     
   1.00000000000000     
   1.00000000000000     
   1.00000000000000     
   1.00000000000000     
   1.00000000000000     
   1.00000000000000     
   1.00000000000000     
   1.00000000000000     
   1.00000000000000     
   1.00000000000000     
   1.00000000000000     
   1.00000000000000     
   1.00000000000000     
   1.00000000000000     
   1.00000000000000     
   1.00000000000000     
   1.00000000000000     
   1.00000000000000     
   1.00000000000000     
   1.00000000000000     
   1.00000000000000     
   1.00000000000000     
   1.00000000000000     
   1.00000000000000     
   1.00000000000000     
   1.00000000000000     
   1.00000000000000     
   1.00000000000000     
   1.00000000000000     
   1.00000000000000     
   1.00000000000000     
   1.00000000000000     
   1.00000000000000     
   1.00000000000000     
   1.00000000000000     
   1.00000000000000     
   1.00000000000000     
   1.00000000000000     
   1.00000000000000     
   1.00000000000000     
   1.00000000000000     
   1.00000000000000     
   1.00000000000000     
   1.00000000000000     
   1.00000000000000     
   1.00000000000000     
   1.00000000000000     
   1.00000000000000     
   1.00000000000000     
   1.00000000000000     
   1.00000000000000     
   1.00000000000000     
   1.00000000000000     
   1.00000000000000     
   1.00000000000000     
   1.00000000000000     
   1.00000000000000     
   1.00000000000000     
   1.00000000000000     
   1.00000000000000     
   1.00000000000000     
   1.00000000000000     
   1.00000000000000     
   1.00000000000000     
   1.00000000000000     
   1.00000000000000     
   1.00000000000000     
   1.00000000000000     
   1.00000000000000     
   1.00000000000000     
   1.00000000000000     
   1.00000000000000     
   1.00000000000000     
   1.00000000000000     
   1.00000000000000     
   1.00000000000000     
   1.00000000000000     
   1.00000000000000     
   1.00000000000000     
   1.00000000000000     
  0.000000000000000E+000
  0.000000000000000E+000
  0.000000000000000E+000
  0.000000000000000E+000
  0.000000000000000E+000
  0.000000000000000E+000
  0.000000000000000E+000
  0.000000000000000E+000
   1.00000000000000     
   1.00000000000000     
   1.00000000000000     
   1.00000000000000     
   1.00000000000000     
   1.00000000000000     
   1.00000000000000     
   1.00000000000000     
   1.00000000000000     
   1.00000000000000     
   1.00000000000000     
   1.00000000000000     
   1.00000000000000     
   1.00000000000000     
   1.00000000000000     
   1.00000000000000     
   1.00000000000000     
   1.00000000000000     
   1.00000000000000     
   1.00000000000000     
   1.00000000000000     
   1.00000000000000     
   1.00000000000000     
   1.00000000000000     
   1.00000000000000     
   1.00000000000000     
   1.00000000000000     
   1.00000000000000     
   1.00000000000000     
   1.00000000000000     
   1.00000000000000     
   1.00000000000000     
   1.00000000000000     
   1.00000000000000     
   1.00000000000000     
   1.00000000000000     
   1.00000000000000     
   1.00000000000000     
   1.00000000000000     
   1.00000000000000     
   1.00000000000000     
   1.00000000000000     
   1.00000000000000     
   1.00000000000000     
   1.00000000000000     
   1.00000000000000     
   1.00000000000000     
   1.00000000000000     
   1.00000000000000     
   1.00000000000000     
   1.00000000000000     
   1.00000000000000     
   1.00000000000000     
   1.00000000000000     
   1.00000000000000     
   1.00000000000000     
   1.00000000000000     
   1.00000000000000     
   1.00000000000000     
   1.00000000000000     
   1.00000000000000     
   1.00000000000000     
   1.00000000000000     
   1.00000000000000     
   1.00000000000000     
   1.00000000000000     
   1.00000000000000     
   1.00000000000000     
   1.00000000000000     
   1.00000000000000     
   1.00000000000000     
   1.00000000000000     
   1.00000000000000     
   1.00000000000000     
   1.00000000000000     
   1.00000000000000     
   1.00000000000000     
   1.00000000000000     
   1.00000000000000     
   1.00000000000000     
   1.00000000000000     
   1.00000000000000     
   1.00000000000000     
   1.00000000000000     
   1.00000000000000     
   1.00000000000000     
   1.00000000000000     
   1.00000000000000     
   1.00000000000000     
   1.00000000000000     
   1.00000000000000     
   1.00000000000000     
  0.000000000000000E+000
  0.000000000000000E+000
  0.000000000000000E+000
  0.000000000000000E+000
  0.000000000000000E+000
  0.000000000000000E+000
  0.000000000000000E+000
  0.000000000000000E+000
   1.00000000000000     
   1.00000000000000     
   1.00000000000000     
   1.00000000000000     
   1.00000000000000     
   1.00000000000000     
   1.00000000000000     
   1.00000000000000     
   1.00000000000000     
   1.00000000000000     
   1.00000000000000     
   1.00000000000000     
   1.00000000000000     
   1.00000000000000     
   1.00000000000000     
   1.00000000000000     
   1.00000000000000     
   1.00000000000000     
   1.00000000000000     
   1.00000000000000     
   1.00000000000000     
   1.00000000000000     
   1.00000000000000     
   1.00000000000000     
   1.00000000000000     
   1.00000000000000     
   1.00000000000000     
   1.00000000000000     
   1.00000000000000     
   1.00000000000000     
   1.00000000000000     
   1.00000000000000     
   1.00000000000000     
   1.00000000000000     
   1.00000000000000     
   1.00000000000000     
   1.00000000000000     
   1.00000000000000     
   1.00000000000000     
   1.00000000000000     
   1.00000000000000     
   1.00000000000000     
   1.00000000000000     
   1.00000000000000     
   1.00000000000000     
   1.00000000000000     
   1.00000000000000     
   1.00000000000000     
   1.00000000000000     
   1.00000000000000     
   1.00000000000000     
   1.00000000000000     
   1.00000000000000     
   1.00000000000000     
   1.00000000000000     
   1.00000000000000     
   1.00000000000000     
   1.00000000000000     
   1.00000000000000     
   1.00000000000000     
   1.00000000000000     
   1.00000000000000     
   1.00000000000000     
   1.00000000000000     
   1.00000000000000     
   1.00000000000000     
   1.00000000000000     
   1.00000000000000     
   1.00000000000000     
   1.00000000000000     
   1.00000000000000     
   1.00000000000000     
   1.00000000000000     
   1.00000000000000     
   1.00000000000000     
   1.00000000000000     
   1.00000000000000     
   1.00000000000000     
   1.00000000000000     
   1.00000000000000     
   1.00000000000000     
   1.00000000000000     
   1.00000000000000     
   1.00000000000000     
   1.00000000000000     
   1.00000000000000     
   1.00000000000000     
   1.00000000000000     
   1.00000000000000     
   1.00000000000000     
   1.00000000000000     
   1.00000000000000     
  0.000000000000000E+000
  0.000000000000000E+000
  0.000000000000000E+000
  0.000000000000000E+000
  0.000000000000000E+000
  0.000000000000000E+000
  0.000000000000000E+000
  0.000000000000000E+000
   1.00000000000000     
   1.00000000000000     
   1.00000000000000     
   1.00000000000000     
   1.00000000000000     
   1.00000000000000     
   1.00000000000000     
   1.00000000000000     
   1.00000000000000     
   1.00000000000000     
   1.00000000000000     
   1.00000000000000     
   1.00000000000000     
   1.00000000000000     
   1.00000000000000     
   1.00000000000000     
   1.00000000000000     
   1.00000000000000     
   1.00000000000000     
   1.00000000000000     
   1.00000000000000     
   1.00000000000000     
   1.00000000000000     
   1.00000000000000     
   1.00000000000000     
   1.00000000000000     
   1.00000000000000     
   1.00000000000000     
   1.00000000000000     
   1.00000000000000     
   1.00000000000000     
   1.00000000000000     
   1.00000000000000     
   1.00000000000000     
   1.00000000000000     
   1.00000000000000     
   1.00000000000000     
   1.00000000000000     
   1.00000000000000     
   1.00000000000000     
   1.00000000000000     
   1.00000000000000     
   1.00000000000000     
   1.00000000000000     
   1.00000000000000     
   1.00000000000000     
   1.00000000000000     
   1.00000000000000     
   1.00000000000000     
   1.00000000000000     
   1.00000000000000     
   1.00000000000000     
   1.00000000000000     
   1.00000000000000     
   1.00000000000000     
   1.00000000000000     
   1.00000000000000     
   1.00000000000000     
   1.00000000000000     
   1.00000000000000     
   1.00000000000000     
   1.00000000000000     
   1.00000000000000     
   1.00000000000000     
   1.00000000000000     
   1.00000000000000     
   1.00000000000000     
   1.00000000000000     
   1.00000000000000     
   1.00000000000000     
   1.00000000000000     
   1.00000000000000     
   1.00000000000000     
   1.00000000000000     
   1.00000000000000     
   1.00000000000000     
   1.00000000000000     
   1.00000000000000     
   1.00000000000000     
   1.00000000000000     
   1.00000000000000     
   1.00000000000000     
   1.00000000000000     
   1.00000000000000     
   1.00000000000000     
   1.00000000000000     
   1.00000000000000     
   1.00000000000000     
   1.00000000000000     
   1.00000000000000     
   1.00000000000000     
   1.00000000000000     
  0.000000000000000E+000
  0.000000000000000E+000
  0.000000000000000E+000
  0.000000000000000E+000
  0.000000000000000E+000
  0.000000000000000E+000
  0.000000000000000E+000
  0.000000000000000E+000
   1.00000000000000     
   1.00000000000000     
   1.00000000000000     
   1.00000000000000     
   1.00000000000000     
   1.00000000000000     
   1.00000000000000     
   1.00000000000000     
   1.00000000000000     
   1.00000000000000     
   1.00000000000000     
   1.00000000000000     
   1.00000000000000     
   1.00000000000000     
   1.00000000000000     
   1.00000000000000     
   1.00000000000000     
   1.00000000000000     
   1.00000000000000     
   1.00000000000000     
   1.00000000000000     
   1.00000000000000     
   1.00000000000000     
   1.00000000000000     
   1.00000000000000     
   1.00000000000000     
   1.00000000000000     
   1.00000000000000     
   1.00000000000000     
   1.00000000000000     
   1.00000000000000     
   1.00000000000000     
   1.00000000000000     
   1.00000000000000     
   1.00000000000000     
   1.00000000000000     
   1.00000000000000     
   1.00000000000000     
   1.00000000000000     
   1.00000000000000     
   1.00000000000000     
   1.00000000000000     
   1.00000000000000     
   1.00000000000000     
   1.00000000000000     
   1.00000000000000     
   1.00000000000000     
   1.00000000000000     
   1.00000000000000     
   1.00000000000000     
   1.00000000000000     
   1.00000000000000     
   1.00000000000000     
   1.00000000000000     
   1.00000000000000     
   1.00000000000000     
   1.00000000000000     
   1.00000000000000     
   1.00000000000000     
   1.00000000000000     
   1.00000000000000     
   1.00000000000000     
   1.00000000000000     
   1.00000000000000     
   1.00000000000000     
   1.00000000000000     
   1.00000000000000     
   1.00000000000000     
   1.00000000000000     
   1.00000000000000     
   1.00000000000000     
   1.00000000000000     
   1.00000000000000     
   1.00000000000000     
   1.00000000000000     
   1.00000000000000     
   1.00000000000000     
   1.00000000000000     
   1.00000000000000     
   1.00000000000000     
   1.00000000000000     
   1.00000000000000     
   1.00000000000000     
   1.00000000000000     
   1.00000000000000     
   1.00000000000000     
   1.00000000000000     
   1.00000000000000     
   1.00000000000000     
   1.00000000000000     
   1.00000000000000     
   1.00000000000000     
  0.000000000000000E+000
  0.000000000000000E+000
  0.000000000000000E+000
  0.000000000000000E+000
  0.000000000000000E+000
  0.000000000000000E+000
  0.000000000000000E+000
  0.000000000000000E+000
   1.00000000000000     
   1.00000000000000     
   1.00000000000000     
   1.00000000000000     
   1.00000000000000     
   1.00000000000000     
   1.00000000000000     
   1.00000000000000     
   1.00000000000000     
   1.00000000000000     
   1.00000000000000     
   1.00000000000000     
   1.00000000000000     
   1.00000000000000     
   1.00000000000000     
   1.00000000000000     
   1.00000000000000     
   1.00000000000000     
   1.00000000000000     
   1.00000000000000     
   1.00000000000000     
   1.00000000000000     
   1.00000000000000     
   1.00000000000000     
   1.00000000000000     
   1.00000000000000     
   1.00000000000000     
   1.00000000000000     
   1.00000000000000     
   1.00000000000000     
   1.00000000000000     
   1.00000000000000     
   1.00000000000000     
   1.00000000000000     
   1.00000000000000     
   1.00000000000000     
   1.00000000000000     
   1.00000000000000     
   1.00000000000000     
   1.00000000000000     
   1.00000000000000     
   1.00000000000000     
   1.00000000000000     
   1.00000000000000     
   1.00000000000000     
   1.00000000000000     
   1.00000000000000     
   1.00000000000000     
   1.00000000000000     
   1.00000000000000     
   1.00000000000000     
   1.00000000000000     
   1.00000000000000     
   1.00000000000000     
   1.00000000000000     
   1.00000000000000     
   1.00000000000000     
   1.00000000000000     
   1.00000000000000     
   1.00000000000000     
   1.00000000000000     
   1.00000000000000     
   1.00000000000000     
   1.00000000000000     
   1.00000000000000     
   1.00000000000000     
   1.00000000000000     
   1.00000000000000     
   1.00000000000000     
   1.00000000000000     
   1.00000000000000     
   1.00000000000000     
   1.00000000000000     
   1.00000000000000     
   1.00000000000000     
   1.00000000000000     
   1.00000000000000     
   1.00000000000000     
   1.00000000000000     
   1.00000000000000     
   1.00000000000000     
   1.00000000000000     
   1.00000000000000     
   1.00000000000000     
   1.00000000000000     
   1.00000000000000     
   1.00000000000000     
   1.00000000000000     
   1.00000000000000     
   1.00000000000000     
   1.00000000000000     
   1.00000000000000     
  0.000000000000000E+000
  0.000000000000000E+000
  0.000000000000000E+000
  0.000000000000000E+000
  0.000000000000000E+000
  0.000000000000000E+000
  0.000000000000000E+000
  0.000000000000000E+000
   1.00000000000000     
   1.00000000000000     
   1.00000000000000     
   1.00000000000000     
   1.00000000000000     
   1.00000000000000     
   1.00000000000000     
   1.00000000000000     
   1.00000000000000     
   1.00000000000000     
   1.00000000000000     
   1.00000000000000     
   1.00000000000000     
   1.00000000000000     
   1.00000000000000     
   1.00000000000000     
   1.00000000000000     
   1.00000000000000     
   1.00000000000000     
   1.00000000000000     
   1.00000000000000     
   1.00000000000000     
   1.00000000000000     
   1.00000000000000     
   1.00000000000000     
   1.00000000000000     
   1.00000000000000     
   1.00000000000000     
   1.00000000000000     
   1.00000000000000     
   1.00000000000000     
   1.00000000000000     
   1.00000000000000     
   1.00000000000000     
   1.00000000000000     
   1.00000000000000     
   1.00000000000000     
   1.00000000000000     
   1.00000000000000     
   1.00000000000000     
   1.00000000000000     
   1.00000000000000     
   1.00000000000000     
   1.00000000000000     
   1.00000000000000     
   1.00000000000000     
   1.00000000000000     
   1.00000000000000     
   1.00000000000000     
   1.00000000000000     
   1.00000000000000     
   1.00000000000000     
   1.00000000000000     
   1.00000000000000     
   1.00000000000000     
   1.00000000000000     
   1.00000000000000     
   1.00000000000000     
   1.00000000000000     
   1.00000000000000     
   1.00000000000000     
   1.00000000000000     
   1.00000000000000     
   1.00000000000000     
   1.00000000000000     
   1.00000000000000     
   1.00000000000000     
   1.00000000000000     
   1.00000000000000     
   1.00000000000000     
   1.00000000000000     
   1.00000000000000     
   1.00000000000000     
   1.00000000000000     
   1.00000000000000     
   1.00000000000000     
   1.00000000000000     
   1.00000000000000     
   1.00000000000000     
   1.00000000000000     
   1.00000000000000     
   1.00000000000000     
   1.00000000000000     
   1.00000000000000     
   1.00000000000000     
   1.00000000000000     
   1.00000000000000     
   1.00000000000000     
   1.00000000000000     
   1.00000000000000     
   1.00000000000000     
   1.00000000000000     
  0.000000000000000E+000
  0.000000000000000E+000
  0.000000000000000E+000
  0.000000000000000E+000
  0.000000000000000E+000
  0.000000000000000E+000
  0.000000000000000E+000
  0.000000000000000E+000
   1.00000000000000     
   1.00000000000000     
   1.00000000000000     
   1.00000000000000     
   1.00000000000000     
   1.00000000000000     
   1.00000000000000     
   1.00000000000000     
   1.00000000000000     
   1.00000000000000     
   1.00000000000000     
   1.00000000000000     
   1.00000000000000     
   1.00000000000000     
   1.00000000000000     
   1.00000000000000     
   1.00000000000000     
   1.00000000000000     
   1.00000000000000     
   1.00000000000000     
   1.00000000000000     
   1.00000000000000     
   1.00000000000000     
   1.00000000000000     
   1.00000000000000     
   1.00000000000000     
   1.00000000000000     
   1.00000000000000     
   1.00000000000000     
   1.00000000000000     
   1.00000000000000     
   1.00000000000000     
   1.00000000000000     
   1.00000000000000     
   1.00000000000000     
   1.00000000000000     
   1.00000000000000     
   1.00000000000000     
   1.00000000000000     
   1.00000000000000     
   1.00000000000000     
   1.00000000000000     
   1.00000000000000     
   1.00000000000000     
   1.00000000000000     
   1.00000000000000     
   1.00000000000000     
   1.00000000000000     
   1.00000000000000     
   1.00000000000000     
   1.00000000000000     
   1.00000000000000     
   1.00000000000000     
   1.00000000000000     
   1.00000000000000     
   1.00000000000000     
   1.00000000000000     
   1.00000000000000     
   1.00000000000000     
   1.00000000000000     
   1.00000000000000     
   1.00000000000000     
   1.00000000000000     
   1.00000000000000     
   1.00000000000000     
   1.00000000000000     
   1.00000000000000     
   1.00000000000000     
   1.00000000000000     
   1.00000000000000     
   1.00000000000000     
   1.00000000000000     
   1.00000000000000     
   1.00000000000000     
   1.00000000000000     
   1.00000000000000     
   1.00000000000000     
   1.00000000000000     
   1.00000000000000     
   1.00000000000000     
   1.00000000000000     
   1.00000000000000     
   1.00000000000000     
   1.00000000000000     
   1.00000000000000     
   1.00000000000000     
   1.00000000000000     
   1.00000000000000     
   1.00000000000000     
   1.00000000000000     
   1.00000000000000     
   1.00000000000000     
  0.000000000000000E+000
  0.000000000000000E+000
  0.000000000000000E+000
  0.000000000000000E+000
  0.000000000000000E+000
  0.000000000000000E+000
  0.000000000000000E+000
  0.000000000000000E+000
   1.00000000000000     
   1.00000000000000     
   1.00000000000000     
   1.00000000000000     
   1.00000000000000     
   1.00000000000000     
   1.00000000000000     
   1.00000000000000     
   1.00000000000000     
   1.00000000000000     
   1.00000000000000     
   1.00000000000000     
   1.00000000000000     
   1.00000000000000     
   1.00000000000000     
   1.00000000000000     
   1.00000000000000     
   1.00000000000000     
   1.00000000000000     
   1.00000000000000     
   1.00000000000000     
   1.00000000000000     
   1.00000000000000     
   1.00000000000000     
   1.00000000000000     
   1.00000000000000     
   1.00000000000000     
   1.00000000000000     
   1.00000000000000     
   1.00000000000000     
   1.00000000000000     
   1.00000000000000     
   1.00000000000000     
   1.00000000000000     
   1.00000000000000     
   1.00000000000000     
   1.00000000000000     
   1.00000000000000     
   1.00000000000000     
   1.00000000000000     
   1.00000000000000     
   1.00000000000000     
   1.00000000000000     
   1.00000000000000     
   1.00000000000000     
   1.00000000000000     
   1.00000000000000     
   1.00000000000000     
   1.00000000000000     
   1.00000000000000     
   1.00000000000000     
   1.00000000000000     
   1.00000000000000     
   1.00000000000000     
   1.00000000000000     
   1.00000000000000     
   1.00000000000000     
   1.00000000000000     
   1.00000000000000     
   1.00000000000000     
   1.00000000000000     
   1.00000000000000     
   1.00000000000000     
   1.00000000000000     
   1.00000000000000     
   1.00000000000000     
   1.00000000000000     
   1.00000000000000     
   1.00000000000000     
   1.00000000000000     
   1.00000000000000     
   1.00000000000000     
   1.00000000000000     
   1.00000000000000     
   1.00000000000000     
   1.00000000000000     
   1.00000000000000     
   1.00000000000000     
   1.00000000000000     
   1.00000000000000     
   1.00000000000000     
   1.00000000000000     
   1.00000000000000     
   1.00000000000000     
   1.00000000000000     
   1.00000000000000     
   1.00000000000000     
   1.00000000000000     
   1.00000000000000     
   1.00000000000000     
   1.00000000000000     
   1.00000000000000     
  0.000000000000000E+000
  0.000000000000000E+000
  0.000000000000000E+000
  0.000000000000000E+000
  0.000000000000000E+000
  0.000000000000000E+000
  0.000000000000000E+000
  0.000000000000000E+000
   1.00000000000000     
   1.00000000000000     
   1.00000000000000     
   1.00000000000000     
   1.00000000000000     
   1.00000000000000     
   1.00000000000000     
   1.00000000000000     
   1.00000000000000     
   1.00000000000000     
   1.00000000000000     
   1.00000000000000     
   1.00000000000000     
   1.00000000000000     
   1.00000000000000     
   1.00000000000000     
   1.00000000000000     
   1.00000000000000     
   1.00000000000000     
   1.00000000000000     
   1.00000000000000     
   1.00000000000000     
   1.00000000000000     
   1.00000000000000     
   1.00000000000000     
   1.00000000000000     
   1.00000000000000     
   1.00000000000000     
   1.00000000000000     
   1.00000000000000     
   1.00000000000000     
   1.00000000000000     
   1.00000000000000     
   1.00000000000000     
   1.00000000000000     
   1.00000000000000     
   1.00000000000000     
   1.00000000000000     
   1.00000000000000     
   1.00000000000000     
   1.00000000000000     
   1.00000000000000     
   1.00000000000000     
   1.00000000000000     
   1.00000000000000     
   1.00000000000000     
   1.00000000000000     
   1.00000000000000     
   1.00000000000000     
   1.00000000000000     
   1.00000000000000     
   1.00000000000000     
   1.00000000000000     
   1.00000000000000     
   1.00000000000000     
   1.00000000000000     
   1.00000000000000     
   1.00000000000000     
   1.00000000000000     
   1.00000000000000     
   1.00000000000000     
   1.00000000000000     
   1.00000000000000     
   1.00000000000000     
   1.00000000000000     
   1.00000000000000     
   1.00000000000000     
   1.00000000000000     
   1.00000000000000     
   1.00000000000000     
   1.00000000000000     
   1.00000000000000     
   1.00000000000000     
   1.00000000000000     
   1.00000000000000     
   1.00000000000000     
   1.00000000000000     
   1.00000000000000     
   1.00000000000000     
   1.00000000000000     
   1.00000000000000     
   1.00000000000000     
   1.00000000000000     
   1.00000000000000     
   1.00000000000000     
   1.00000000000000     
   1.00000000000000     
   1.00000000000000     
   1.00000000000000     
   1.00000000000000     
   1.00000000000000     
   1.00000000000000     
  0.000000000000000E+000
  0.000000000000000E+000
  0.000000000000000E+000
  0.000000000000000E+000
  0.000000000000000E+000
  0.000000000000000E+000
  0.000000000000000E+000
  0.000000000000000E+000
   1.00000000000000     
   1.00000000000000     
   1.00000000000000     
   1.00000000000000     
   1.00000000000000     
   1.00000000000000     
   1.00000000000000     
   1.00000000000000     
   1.00000000000000     
   1.00000000000000     
   1.00000000000000     
   1.00000000000000     
   1.00000000000000     
   1.00000000000000     
   1.00000000000000     
   1.00000000000000     
   1.00000000000000     
   1.00000000000000     
   1.00000000000000     
   1.00000000000000     
   1.00000000000000     
   1.00000000000000     
   1.00000000000000     
   1.00000000000000     
   1.00000000000000     
   1.00000000000000     
   1.00000000000000     
   1.00000000000000     
   1.00000000000000     
   1.00000000000000     
   1.00000000000000     
   1.00000000000000     
   1.00000000000000     
   1.00000000000000     
   1.00000000000000     
   1.00000000000000     
   1.00000000000000     
   1.00000000000000     
   1.00000000000000     
   1.00000000000000     
   1.00000000000000     
   1.00000000000000     
   1.00000000000000     
   1.00000000000000     
   1.00000000000000     
   1.00000000000000     
   1.00000000000000     
   1.00000000000000     
   1.00000000000000     
   1.00000000000000     
   1.00000000000000     
   1.00000000000000     
   1.00000000000000     
   1.00000000000000     
   1.00000000000000     
   1.00000000000000     
   1.00000000000000     
   1.00000000000000     
   1.00000000000000     
   1.00000000000000     
   1.00000000000000     
   1.00000000000000     
   1.00000000000000     
   1.00000000000000     
   1.00000000000000     
   1.00000000000000     
   1.00000000000000     
   1.00000000000000     
   1.00000000000000     
   1.00000000000000     
   1.00000000000000     
   1.00000000000000     
   1.00000000000000     
   1.00000000000000     
   1.00000000000000     
   1.00000000000000     
   1.00000000000000     
   1.00000000000000     
   1.00000000000000     
   1.00000000000000     
   1.00000000000000     
   1.00000000000000     
   1.00000000000000     
   1.00000000000000     
   1.00000000000000     
   1.00000000000000     
   1.00000000000000     
   1.00000000000000     
   1.00000000000000     
   1.00000000000000     
   1.00000000000000     
   1.00000000000000     
  0.000000000000000E+000
  0.000000000000000E+000
  0.000000000000000E+000
  0.000000000000000E+000
  0.000000000000000E+000
  0.000000000000000E+000
  0.000000000000000E+000
  0.000000000000000E+000
   1.00000000000000     
   1.00000000000000     
   1.00000000000000     
   1.00000000000000     
   1.00000000000000     
   1.00000000000000     
   1.00000000000000     
   1.00000000000000     
   1.00000000000000     
   1.00000000000000     
   1.00000000000000     
   1.00000000000000     
   1.00000000000000     
   1.00000000000000     
   1.00000000000000     
   1.00000000000000     
   1.00000000000000     
   1.00000000000000     
   1.00000000000000     
   1.00000000000000     
   1.00000000000000     
   1.00000000000000     
   1.00000000000000     
   1.00000000000000     
   1.00000000000000     
   1.00000000000000     
   1.00000000000000     
   1.00000000000000     
   1.00000000000000     
   1.00000000000000     
   1.00000000000000     
   1.00000000000000     
   1.00000000000000     
   1.00000000000000     
   1.00000000000000     
   1.00000000000000     
   1.00000000000000     
   1.00000000000000     
   1.00000000000000     
   1.00000000000000     
   1.00000000000000     
   1.00000000000000     
   1.00000000000000     
   1.00000000000000     
   1.00000000000000     
   1.00000000000000     
   1.00000000000000     
   1.00000000000000     
   1.00000000000000     
   1.00000000000000     
   1.00000000000000     
   1.00000000000000     
   1.00000000000000     
   1.00000000000000     
   1.00000000000000     
   1.00000000000000     
   1.00000000000000     
   1.00000000000000     
   1.00000000000000     
   1.00000000000000     
   1.00000000000000     
   1.00000000000000     
   1.00000000000000     
   1.00000000000000     
   1.00000000000000     
   1.00000000000000     
   1.00000000000000     
   1.00000000000000     
   1.00000000000000     
   1.00000000000000     
   1.00000000000000     
   1.00000000000000     
   1.00000000000000     
   1.00000000000000     
   1.00000000000000     
   1.00000000000000     
   1.00000000000000     
   1.00000000000000     
   1.00000000000000     
   1.00000000000000     
   1.00000000000000     
   1.00000000000000     
   1.00000000000000     
   1.00000000000000     
   1.00000000000000     
   1.00000000000000     
   1.00000000000000     
   1.00000000000000     
   1.00000000000000     
   1.00000000000000     
   1.00000000000000     
   1.00000000000000     
  0.000000000000000E+000
  0.000000000000000E+000
  0.000000000000000E+000
  0.000000000000000E+000
  0.000000000000000E+000
  0.000000000000000E+000
  0.000000000000000E+000
  0.000000000000000E+000
   1.00000000000000     
   1.00000000000000     
   1.00000000000000     
   1.00000000000000     
   1.00000000000000     
   1.00000000000000     
   1.00000000000000     
   1.00000000000000     
   1.00000000000000     
   1.00000000000000     
   1.00000000000000     
   1.00000000000000     
   1.00000000000000     
   1.00000000000000     
   1.00000000000000     
   1.00000000000000     
   1.00000000000000     
   1.00000000000000     
   1.00000000000000     
   1.00000000000000     
   1.00000000000000     
   1.00000000000000     
   1.00000000000000     
   1.00000000000000     
   1.00000000000000     
   1.00000000000000     
   1.00000000000000     
   1.00000000000000     
   1.00000000000000     
   1.00000000000000     
   1.00000000000000     
   1.00000000000000     
   1.00000000000000     
   1.00000000000000     
   1.00000000000000     
   1.00000000000000     
   1.00000000000000     
   1.00000000000000     
   1.00000000000000     
   1.00000000000000     
   1.00000000000000     
   1.00000000000000     
   1.00000000000000     
   1.00000000000000     
   1.00000000000000     
   1.00000000000000     
   1.00000000000000     
   1.00000000000000     
   1.00000000000000     
   1.00000000000000     
   1.00000000000000     
   1.00000000000000     
   1.00000000000000     
   1.00000000000000     
   1.00000000000000     
   1.00000000000000     
   1.00000000000000     
   1.00000000000000     
   1.00000000000000     
   1.00000000000000     
   1.00000000000000     
   1.00000000000000     
   1.00000000000000     
   1.00000000000000     
   1.00000000000000     
   1.00000000000000     
   1.00000000000000     
   1.00000000000000     
   1.00000000000000     
   1.00000000000000     
   1.00000000000000     
   1.00000000000000     
   1.00000000000000     
   1.00000000000000     
   1.00000000000000     
   1.00000000000000     
   1.00000000000000     
   1.00000000000000     
   1.00000000000000     
   1.00000000000000     
   1.00000000000000     
   1.00000000000000     
   1.00000000000000     
   1.00000000000000     
   1.00000000000000     
   1.00000000000000     
   1.00000000000000     
   1.00000000000000     
   1.00000000000000     
   1.00000000000000     
   1.00000000000000     
   1.00000000000000     
  0.000000000000000E+000
  0.000000000000000E+000
  0.000000000000000E+000
  0.000000000000000E+000
  0.000000000000000E+000
  0.000000000000000E+000
  0.000000000000000E+000
   1.00000000000000     
   1.00000000000000     
   1.00000000000000     
   1.00000000000000     
   1.00000000000000     
   1.00000000000000     
   1.00000000000000     
   1.00000000000000     
   1.00000000000000     
   1.00000000000000     
   1.00000000000000     
   1.00000000000000     
   1.00000000000000     
   1.00000000000000     
   1.00000000000000     
   1.00000000000000     
   1.00000000000000     
   1.00000000000000     
   1.00000000000000     
   1.00000000000000     
   1.00000000000000     
   1.00000000000000     
   1.00000000000000     
   1.00000000000000     
   1.00000000000000     
   1.00000000000000     
   1.00000000000000     
   1.00000000000000     
   1.00000000000000     
   1.00000000000000     
   1.00000000000000     
   1.00000000000000     
   1.00000000000000     
   1.00000000000000     
   1.00000000000000     
   1.00000000000000     
   1.00000000000000     
   1.00000000000000     
   1.00000000000000     
   1.00000000000000     
   1.00000000000000     
   1.00000000000000     
   1.00000000000000     
   1.00000000000000     
   1.00000000000000     
   1.00000000000000     
   1.00000000000000     
   1.00000000000000     
   1.00000000000000     
   1.00000000000000     
   1.00000000000000     
   1.00000000000000     
   1.00000000000000     
   1.00000000000000     
   1.00000000000000     
   1.00000000000000     
   1.00000000000000     
   1.00000000000000     
   1.00000000000000     
   1.00000000000000     
   1.00000000000000     
   1.00000000000000     
   1.00000000000000     
   1.00000000000000     
   1.00000000000000     
   1.00000000000000     
   1.00000000000000     
   1.00000000000000     
   1.00000000000000     
   1.00000000000000     
   1.00000000000000     
   1.00000000000000     
   1.00000000000000     
   1.00000000000000     
   1.00000000000000     
   1.00000000000000     
   1.00000000000000     
   1.00000000000000     
   1.00000000000000     
   1.00000000000000     
   1.00000000000000     
   1.00000000000000     
   1.00000000000000     
   1.00000000000000     
   1.00000000000000     
   1.00000000000000     
   1.00000000000000     
   1.00000000000000     
   1.00000000000000     
   1.00000000000000     
   1.00000000000000     
   1.00000000000000     
   1.00000000000000     
   1.00000000000000     
  0.000000000000000E+000
  0.000000000000000E+000
  0.000000000000000E+000
  0.000000000000000E+000
  0.000000000000000E+000
  0.000000000000000E+000
   1.00000000000000     
   1.00000000000000     
   1.00000000000000     
   1.00000000000000     
   1.00000000000000     
   1.00000000000000     
   1.00000000000000     
   1.00000000000000     
   1.00000000000000     
   1.00000000000000     
   1.00000000000000     
   1.00000000000000     
   1.00000000000000     
   1.00000000000000     
   1.00000000000000     
   1.00000000000000     
   1.00000000000000     
   1.00000000000000     
   1.00000000000000     
   1.00000000000000     
   1.00000000000000     
   1.00000000000000     
   1.00000000000000     
   1.00000000000000     
   1.00000000000000     
   1.00000000000000     
   1.00000000000000     
   1.00000000000000     
   1.00000000000000     
   1.00000000000000     
   1.00000000000000     
   1.00000000000000     
   1.00000000000000     
   1.00000000000000     
   1.00000000000000     
   1.00000000000000     
   1.00000000000000     
   1.00000000000000     
   1.00000000000000     
   1.00000000000000     
   1.00000000000000     
   1.00000000000000     
   1.00000000000000     
   1.00000000000000     
   1.00000000000000     
   1.00000000000000     
   1.00000000000000     
   1.00000000000000     
   1.00000000000000     
   1.00000000000000     
   1.00000000000000     
   1.00000000000000     
   1.00000000000000     
   1.00000000000000     
   1.00000000000000     
   1.00000000000000     
   1.00000000000000     
   1.00000000000000     
   1.00000000000000     
   1.00000000000000     
   1.00000000000000     
   1.00000000000000     
   1.00000000000000     
   1.00000000000000     
   1.00000000000000     
   1.00000000000000     
   1.00000000000000     
   1.00000000000000     
   1.00000000000000     
   1.00000000000000     
   1.00000000000000     
   1.00000000000000     
   1.00000000000000     
   1.00000000000000     
   1.00000000000000     
   1.00000000000000     
   1.00000000000000     
   1.00000000000000     
   1.00000000000000     
   1.00000000000000     
   1.00000000000000     
   1.00000000000000     
   1.00000000000000     
   1.00000000000000     
   1.00000000000000     
   1.00000000000000     
   1.00000000000000     
   1.00000000000000     
   1.00000000000000     
   1.00000000000000     
   1.00000000000000     
   1.00000000000000     
   1.00000000000000     
   1.00000000000000     
  0.000000000000000E+000
  0.000000000000000E+000
  0.000000000000000E+000
  0.000000000000000E+000
  0.000000000000000E+000
  0.000000000000000E+000
   1.00000000000000     
   1.00000000000000     
   1.00000000000000     
   1.00000000000000     
   1.00000000000000     
   1.00000000000000     
   1.00000000000000     
   1.00000000000000     
   1.00000000000000     
   1.00000000000000     
   1.00000000000000     
   1.00000000000000     
   1.00000000000000     
   1.00000000000000     
   1.00000000000000     
   1.00000000000000     
   1.00000000000000     
   1.00000000000000     
   1.00000000000000     
   1.00000000000000     
   1.00000000000000     
   1.00000000000000     
   1.00000000000000     
   1.00000000000000     
   1.00000000000000     
   1.00000000000000     
   1.00000000000000     
   1.00000000000000     
   1.00000000000000     
   1.00000000000000     
   1.00000000000000     
   1.00000000000000     
   1.00000000000000     
   1.00000000000000     
   1.00000000000000     
   1.00000000000000     
   1.00000000000000     
   1.00000000000000     
   1.00000000000000     
   1.00000000000000     
   1.00000000000000     
   1.00000000000000     
   1.00000000000000     
   1.00000000000000     
   1.00000000000000     
   1.00000000000000     
   1.00000000000000     
   1.00000000000000     
   1.00000000000000     
   1.00000000000000     
   1.00000000000000     
   1.00000000000000     
   1.00000000000000     
   1.00000000000000     
   1.00000000000000     
   1.00000000000000     
   1.00000000000000     
   1.00000000000000     
   1.00000000000000     
   1.00000000000000     
   1.00000000000000     
   1.00000000000000     
   1.00000000000000     
   1.00000000000000     
   1.00000000000000     
   1.00000000000000     
   1.00000000000000     
   1.00000000000000     
   1.00000000000000     
   1.00000000000000     
   1.00000000000000     
   1.00000000000000     
   1.00000000000000     
   1.00000000000000     
   1.00000000000000     
   1.00000000000000     
   1.00000000000000     
   1.00000000000000     
   1.00000000000000     
   1.00000000000000     
   1.00000000000000     
   1.00000000000000     
   1.00000000000000     
   1.00000000000000     
   1.00000000000000     
   1.00000000000000     
   1.00000000000000     
   1.00000000000000     
   1.00000000000000     
   1.00000000000000     
   1.00000000000000     
   1.00000000000000     
   1.00000000000000     
   1.00000000000000     
  0.000000000000000E+000
  0.000000000000000E+000
  0.000000000000000E+000
  0.000000000000000E+000
  0.000000000000000E+000
  0.000000000000000E+000
   1.00000000000000     
   1.00000000000000     
   1.00000000000000     
   1.00000000000000     
   1.00000000000000     
   1.00000000000000     
   1.00000000000000     
   1.00000000000000     
   1.00000000000000     
   1.00000000000000     
   1.00000000000000     
   1.00000000000000     
   1.00000000000000     
   1.00000000000000     
   1.00000000000000     
   1.00000000000000     
   1.00000000000000     
   1.00000000000000     
   1.00000000000000     
   1.00000000000000     
   1.00000000000000     
   1.00000000000000     
   1.00000000000000     
   1.00000000000000     
   1.00000000000000     
   1.00000000000000     
   1.00000000000000     
   1.00000000000000     
   1.00000000000000     
   1.00000000000000     
   1.00000000000000     
   1.00000000000000     
   1.00000000000000     
   1.00000000000000     
   1.00000000000000     
   1.00000000000000     
   1.00000000000000     
   1.00000000000000     
   1.00000000000000     
   1.00000000000000     
   1.00000000000000     
   1.00000000000000     
   1.00000000000000     
   1.00000000000000     
   1.00000000000000     
   1.00000000000000     
   1.00000000000000     
   1.00000000000000     
   1.00000000000000     
   1.00000000000000     
   1.00000000000000     
   1.00000000000000     
   1.00000000000000     
   1.00000000000000     
   1.00000000000000     
   1.00000000000000     
   1.00000000000000     
   1.00000000000000     
   1.00000000000000     
   1.00000000000000     
   1.00000000000000     
   1.00000000000000     
   1.00000000000000     
   1.00000000000000     
   1.00000000000000     
   1.00000000000000     
   1.00000000000000     
   1.00000000000000     
   1.00000000000000     
   1.00000000000000     
   1.00000000000000     
   1.00000000000000     
   1.00000000000000     
   1.00000000000000     
   1.00000000000000     
   1.00000000000000     
   1.00000000000000     
   1.00000000000000     
   1.00000000000000     
   1.00000000000000     
   1.00000000000000     
   1.00000000000000     
   1.00000000000000     
   1.00000000000000     
   1.00000000000000     
   1.00000000000000     
   1.00000000000000     
   1.00000000000000     
   1.00000000000000     
   1.00000000000000     
   1.00000000000000     
   1.00000000000000     
   1.00000000000000     
   1.00000000000000     
  0.000000000000000E+000
  0.000000000000000E+000
  0.000000000000000E+000
  0.000000000000000E+000
  0.000000000000000E+000
   1.00000000000000     
   1.00000000000000     
   1.00000000000000     
   1.00000000000000     
   1.00000000000000     
   1.00000000000000     
   1.00000000000000     
   1.00000000000000     
   1.00000000000000     
   1.00000000000000     
   1.00000000000000     
   1.00000000000000     
   1.00000000000000     
   1.00000000000000     
   1.00000000000000     
   1.00000000000000     
   1.00000000000000     
   1.00000000000000     
   1.00000000000000     
   1.00000000000000     
   1.00000000000000     
   1.00000000000000     
   1.00000000000000     
   1.00000000000000     
   1.00000000000000     
   1.00000000000000     
   1.00000000000000     
   1.00000000000000     
   1.00000000000000     
   1.00000000000000     
   1.00000000000000     
   1.00000000000000     
   1.00000000000000     
   1.00000000000000     
   1.00000000000000     
   1.00000000000000     
   1.00000000000000     
   1.00000000000000     
   1.00000000000000     
   1.00000000000000     
   1.00000000000000     
   1.00000000000000     
   1.00000000000000     
   1.00000000000000     
   1.00000000000000     
   1.00000000000000     
   1.00000000000000     
   1.00000000000000     
   1.00000000000000     
   1.00000000000000     
   1.00000000000000     
   1.00000000000000     
   1.00000000000000     
   1.00000000000000     
   1.00000000000000     
   1.00000000000000     
   1.00000000000000     
   1.00000000000000     
   1.00000000000000     
   1.00000000000000     
   1.00000000000000     
   1.00000000000000     
   1.00000000000000     
   1.00000000000000     
   1.00000000000000     
   1.00000000000000     
   1.00000000000000     
   1.00000000000000     
   1.00000000000000     
   1.00000000000000     
   1.00000000000000     
   1.00000000000000     
   1.00000000000000     
   1.00000000000000     
   1.00000000000000     
   1.00000000000000     
   1.00000000000000     
   1.00000000000000     
   1.00000000000000     
   1.00000000000000     
   1.00000000000000     
   1.00000000000000     
   1.00000000000000     
   1.00000000000000     
   1.00000000000000     
   1.00000000000000     
   1.00000000000000     
   1.00000000000000     
   1.00000000000000     
   1.00000000000000     
   1.00000000000000     
   1.00000000000000     
   1.00000000000000     
   1.00000000000000     
   1.00000000000000     
   1.00000000000000     
  0.000000000000000E+000
  0.000000000000000E+000
  0.000000000000000E+000
  0.000000000000000E+000
   1.00000000000000     
   1.00000000000000     
   1.00000000000000     
   1.00000000000000     
   1.00000000000000     
   1.00000000000000     
   1.00000000000000     
   1.00000000000000     
   1.00000000000000     
   1.00000000000000     
   1.00000000000000     
   1.00000000000000     
   1.00000000000000     
   1.00000000000000     
   1.00000000000000     
   1.00000000000000     
   1.00000000000000     
   1.00000000000000     
   1.00000000000000     
   1.00000000000000     
   1.00000000000000     
   1.00000000000000     
   1.00000000000000     
   1.00000000000000     
   1.00000000000000     
   1.00000000000000     
   1.00000000000000     
   1.00000000000000     
   1.00000000000000     
   1.00000000000000     
   1.00000000000000     
   1.00000000000000     
   1.00000000000000     
   1.00000000000000     
   1.00000000000000     
   1.00000000000000     
   1.00000000000000     
   1.00000000000000     
   1.00000000000000     
   1.00000000000000     
   1.00000000000000     
   1.00000000000000     
   1.00000000000000     
   1.00000000000000     
   1.00000000000000     
   1.00000000000000     
   1.00000000000000     
   1.00000000000000     
   1.00000000000000     
   1.00000000000000     
   1.00000000000000     
   1.00000000000000     
   1.00000000000000     
   1.00000000000000     
   1.00000000000000     
   1.00000000000000     
   1.00000000000000     
   1.00000000000000     
   1.00000000000000     
   1.00000000000000     
   1.00000000000000     
   1.00000000000000     
   1.00000000000000     
   1.00000000000000     
   1.00000000000000     
   1.00000000000000     
   1.00000000000000     
   1.00000000000000     
   1.00000000000000     
   1.00000000000000     
   1.00000000000000     
   1.00000000000000     
   1.00000000000000     
   1.00000000000000     
   1.00000000000000     
   1.00000000000000     
   1.00000000000000     
   1.00000000000000     
   1.00000000000000     
   1.00000000000000     
   1.00000000000000     
   1.00000000000000     
   1.00000000000000     
   1.00000000000000     
   1.00000000000000     
   1.00000000000000     
   1.00000000000000     
   1.00000000000000     
   1.00000000000000     
   1.00000000000000     
   1.00000000000000     
   1.00000000000000     
   1.00000000000000     
   1.00000000000000     
   1.00000000000000     
   1.00000000000000     
  0.000000000000000E+000
  0.000000000000000E+000
  0.000000000000000E+000
   1.00000000000000     
   1.00000000000000     
   1.00000000000000     
   1.00000000000000     
   1.00000000000000     
   1.00000000000000     
   1.00000000000000     
   1.00000000000000     
   1.00000000000000     
   1.00000000000000     
   1.00000000000000     
   1.00000000000000     
   1.00000000000000     
   1.00000000000000     
   1.00000000000000     
   1.00000000000000     
   1.00000000000000     
   1.00000000000000     
   1.00000000000000     
   1.00000000000000     
   1.00000000000000     
   1.00000000000000     
   1.00000000000000     
   1.00000000000000     
   1.00000000000000     
   1.00000000000000     
   1.00000000000000     
   1.00000000000000     
   1.00000000000000     
   1.00000000000000     
   1.00000000000000     
   1.00000000000000     
   1.00000000000000     
   1.00000000000000     
   1.00000000000000     
   1.00000000000000     
   1.00000000000000     
   1.00000000000000     
   1.00000000000000     
   1.00000000000000     
   1.00000000000000     
   1.00000000000000     
   1.00000000000000     
   1.00000000000000     
   1.00000000000000     
   1.00000000000000     
   1.00000000000000     
   1.00000000000000     
   1.00000000000000     
   1.00000000000000     
   1.00000000000000     
   1.00000000000000     
   1.00000000000000     
   1.00000000000000     
   1.00000000000000     
   1.00000000000000     
   1.00000000000000     
   1.00000000000000     
   1.00000000000000     
   1.00000000000000     
   1.00000000000000     
   1.00000000000000     
   1.00000000000000     
   1.00000000000000     
   1.00000000000000     
   1.00000000000000     
   1.00000000000000     
   1.00000000000000     
   1.00000000000000     
   1.00000000000000     
   1.00000000000000     
   1.00000000000000     
   1.00000000000000     
   1.00000000000000     
   1.00000000000000     
   1.00000000000000     
   1.00000000000000     
   1.00000000000000     
   1.00000000000000     
   1.00000000000000     
   1.00000000000000     
   1.00000000000000     
   1.00000000000000     
   1.00000000000000     
   1.00000000000000     
   1.00000000000000     
   1.00000000000000     
   1.00000000000000     
   1.00000000000000     
   1.00000000000000     
   1.00000000000000     
   1.00000000000000     
   1.00000000000000     
   1.00000000000000     
   1.00000000000000     
   1.00000000000000     
   1.00000000000000     
   1.00000000000000     
  0.000000000000000E+000
  0.000000000000000E+000
   1.00000000000000     
   1.00000000000000     
   1.00000000000000     
   1.00000000000000     
   1.00000000000000     
   1.00000000000000     
   1.00000000000000     
   1.00000000000000     
   1.00000000000000     
   1.00000000000000     
   1.00000000000000     
   1.00000000000000     
   1.00000000000000     
   1.00000000000000     
   1.00000000000000     
   1.00000000000000     
   1.00000000000000     
   1.00000000000000     
   1.00000000000000     
   1.00000000000000     
   1.00000000000000     
   1.00000000000000     
   1.00000000000000     
   1.00000000000000     
   1.00000000000000     
   1.00000000000000     
   1.00000000000000     
   1.00000000000000     
   1.00000000000000     
   1.00000000000000     
   1.00000000000000     
   1.00000000000000     
   1.00000000000000     
   1.00000000000000     
   1.00000000000000     
   1.00000000000000     
   1.00000000000000     
   1.00000000000000     
   1.00000000000000     
   1.00000000000000     
   1.00000000000000     
   1.00000000000000     
   1.00000000000000     
   1.00000000000000     
   1.00000000000000     
   1.00000000000000     
   1.00000000000000     
   1.00000000000000     
   1.00000000000000     
   1.00000000000000     
   1.00000000000000     
   1.00000000000000     
   1.00000000000000     
   1.00000000000000     
   1.00000000000000     
   1.00000000000000     
   1.00000000000000     
   1.00000000000000     
   1.00000000000000     
   1.00000000000000     
   1.00000000000000     
   1.00000000000000     
   1.00000000000000     
   1.00000000000000     
   1.00000000000000     
   1.00000000000000     
   1.00000000000000     
   1.00000000000000     
   1.00000000000000     
   1.00000000000000     
   1.00000000000000     
   1.00000000000000     
   1.00000000000000     
   1.00000000000000     
   1.00000000000000     
   1.00000000000000     
   1.00000000000000     
   1.00000000000000     
   1.00000000000000     
   1.00000000000000     
   1.00000000000000     
   1.00000000000000     
   1.00000000000000     
   1.00000000000000     
   1.00000000000000     
   1.00000000000000     
   1.00000000000000     
   1.00000000000000     
   1.00000000000000     
   1.00000000000000     
   1.00000000000000     
   1.00000000000000     
   1.00000000000000     
   1.00000000000000     
   1.00000000000000     
   1.00000000000000     
   1.00000000000000     
   1.00000000000000     
   1.00000000000000     
   1.00000000000000     
   1.00000000000000     
   1.00000000000000     
   1.00000000000000     
   1.00000000000000     
   1.00000000000000     
   1.00000000000000     
   1.00000000000000     
   1.00000000000000     
   1.00000000000000     
   1.00000000000000     
   1.00000000000000     
   1.00000000000000     
   1.00000000000000     
   1.00000000000000     
   1.00000000000000     
   1.00000000000000     
   1.00000000000000     
   1.00000000000000     
   1.00000000000000     
   1.00000000000000     
   1.00000000000000     
   1.00000000000000     
   1.00000000000000     
   1.00000000000000     
   1.00000000000000     
   1.00000000000000     
   1.00000000000000     
   1.00000000000000     
   1.00000000000000     
   1.00000000000000     
   1.00000000000000     
   1.00000000000000     
   1.00000000000000     
   1.00000000000000     
   1.00000000000000     
   1.00000000000000     
   1.00000000000000     
   1.00000000000000     
   1.00000000000000     
   1.00000000000000     
   1.00000000000000     
   1.00000000000000     
   1.00000000000000     
   1.00000000000000     
   1.00000000000000     
   1.00000000000000     
   1.00000000000000     
   1.00000000000000     
   1.00000000000000     
   1.00000000000000     
   1.00000000000000     
   1.00000000000000     
   1.00000000000000     
   1.00000000000000     
   1.00000000000000     
   1.00000000000000     
   1.00000000000000     
   1.00000000000000     
   1.00000000000000     
   1.00000000000000     
   1.00000000000000     
   1.00000000000000     
   1.00000000000000     
   1.00000000000000     
   1.00000000000000     
   1.00000000000000     
   1.00000000000000     
   1.00000000000000     
   1.00000000000000     
   1.00000000000000     
   1.00000000000000     
   1.00000000000000     
   1.00000000000000     
   1.00000000000000     
   1.00000000000000     
   1.00000000000000     
   1.00000000000000     
   1.00000000000000     
   1.00000000000000     
   1.00000000000000     
   1.00000000000000     
   1.00000000000000     
   1.00000000000000     
   1.00000000000000     
   1.00000000000000     
   1.00000000000000     
   1.00000000000000     
   1.00000000000000     
   1.00000000000000     
   1.00000000000000     
   1.00000000000000     
   1.00000000000000     
   1.00000000000000     
   1.00000000000000     
   1.00000000000000     
   1.00000000000000     
   1.00000000000000     
   1.00000000000000     
   1.00000000000000     
   1.00000000000000     
   1.00000000000000     
   1.00000000000000     
   1.00000000000000     
   1.00000000000000     
   1.00000000000000     
   1.00000000000000     
   1.00000000000000     
   1.00000000000000     
   1.00000000000000     
   1.00000000000000     
   1.00000000000000     
   1.00000000000000     
   1.00000000000000     
   1.00000000000000     
   1.00000000000000     
   1.00000000000000     
   1.00000000000000     
   1.00000000000000     
   1.00000000000000     
   1.00000000000000     
   1.00000000000000     
   1.00000000000000     
   1.00000000000000     
   1.00000000000000     
   1.00000000000000     
   1.00000000000000     
   1.00000000000000     
   1.00000000000000     
   1.00000000000000     
   1.00000000000000     
   1.00000000000000     
   1.00000000000000     
   1.00000000000000     
   1.00000000000000     
   1.00000000000000     
   1.00000000000000     
   1.00000000000000     
   1.00000000000000     
   1.00000000000000     
   1.00000000000000     
   1.00000000000000     
   1.00000000000000     
   1.00000000000000     
   1.00000000000000     
   1.00000000000000     
   1.00000000000000     
   1.00000000000000     
   1.00000000000000     
   1.00000000000000     
   1.00000000000000     
   1.00000000000000     
   1.00000000000000     
   1.00000000000000     
   1.00000000000000     
   1.00000000000000     
   1.00000000000000     
   1.00000000000000     
   1.00000000000000     
   1.00000000000000     
   1.00000000000000     
   1.00000000000000     
   1.00000000000000     
   1.00000000000000     
   1.00000000000000     
   1.00000000000000     
   1.00000000000000     
   1.00000000000000     
   1.00000000000000     
   1.00000000000000     
   1.00000000000000     
   1.00000000000000     
   1.00000000000000     
   1.00000000000000     
   1.00000000000000     
   1.00000000000000     
   1.00000000000000     
   1.00000000000000     
   1.00000000000000     
   1.00000000000000     
   1.00000000000000     
   1.00000000000000     
   1.00000000000000     
   1.00000000000000     
   1.00000000000000     
   1.00000000000000     
   1.00000000000000     
   1.00000000000000     
   1.00000000000000     
   1.00000000000000     
   1.00000000000000     
   1.00000000000000     
   1.00000000000000     
   1.00000000000000     
   1.00000000000000     
   1.00000000000000     
   1.00000000000000     
   1.00000000000000     
   1.00000000000000     
   1.00000000000000     
   1.00000000000000     
   1.00000000000000     
   1.00000000000000     
   1.00000000000000     
   1.00000000000000     
   1.00000000000000     
   1.00000000000000     
   1.00000000000000     
   1.00000000000000     
   1.00000000000000     
   1.00000000000000     
   1.00000000000000     
   1.00000000000000     
   1.00000000000000     
   1.00000000000000     
   1.00000000000000     
   1.00000000000000     
   1.00000000000000     
   1.00000000000000     
   1.00000000000000     
   1.00000000000000     
   1.00000000000000     
   1.00000000000000     
   1.00000000000000     
   1.00000000000000     
   1.00000000000000     
   1.00000000000000     
   1.00000000000000     
   1.00000000000000     
   1.00000000000000     
   1.00000000000000     
   1.00000000000000     
   1.00000000000000     
   1.00000000000000     
   1.00000000000000     
   1.00000000000000     
   1.00000000000000     
   1.00000000000000     
   1.00000000000000     
   1.00000000000000     
   1.00000000000000     
   1.00000000000000     
   1.00000000000000     
   1.00000000000000     
   1.00000000000000     
   1.00000000000000     
   1.00000000000000     
   1.00000000000000     
   1.00000000000000     
   1.00000000000000     
   1.00000000000000     
   1.00000000000000     
   1.00000000000000     
   1.00000000000000     
   1.00000000000000     
   1.00000000000000     
   1.00000000000000     
   1.00000000000000     
   1.00000000000000     
   1.00000000000000     
   1.00000000000000     
   1.00000000000000     
   1.00000000000000     
   1.00000000000000     
   1.00000000000000     
   1.00000000000000     
   1.00000000000000     
   1.00000000000000     
   1.00000000000000     
   1.00000000000000     
   1.00000000000000     
   1.00000000000000     
   1.00000000000000     
   1.00000000000000     
   1.00000000000000     
   1.00000000000000     
   1.00000000000000     
   1.00000000000000     
   1.00000000000000     
   1.00000000000000     
   1.00000000000000     
   1.00000000000000     
   1.00000000000000     
   1.00000000000000     
   1.00000000000000     
   1.00000000000000     
   1.00000000000000     
   1.00000000000000     
   1.00000000000000     
   1.00000000000000     
   1.00000000000000     
   1.00000000000000     
   1.00000000000000     
   1.00000000000000     
   1.00000000000000     
   1.00000000000000     
   1.00000000000000     
   1.00000000000000     
   1.00000000000000     
   1.00000000000000     
   1.00000000000000     
   1.00000000000000     
   1.00000000000000     
   1.00000000000000     
   1.00000000000000     
   1.00000000000000     
   1.00000000000000     
   1.00000000000000     
   1.00000000000000     
   1.00000000000000     
   1.00000000000000     
   1.00000000000000     
   1.00000000000000     
   1.00000000000000     
   1.00000000000000     
   1.00000000000000     
   1.00000000000000     
   1.00000000000000     
   1.00000000000000     
   1.00000000000000     
   1.00000000000000     
   1.00000000000000     
   1.00000000000000     
   1.00000000000000     
   1.00000000000000     
   1.00000000000000     
   1.00000000000000     
   1.00000000000000     
   1.00000000000000     
   1.00000000000000     
   1.00000000000000     
   1.00000000000000     
   1.00000000000000     
   1.00000000000000     
   1.00000000000000     
   1.00000000000000     
   1.00000000000000     
   1.00000000000000     
   1.00000000000000     
   1.00000000000000     
   1.00000000000000     
   1.00000000000000     
   1.00000000000000     
   1.00000000000000     
   1.00000000000000     
   1.00000000000000     
   1.00000000000000     
   1.00000000000000     
   1.00000000000000     
   1.00000000000000     
   1.00000000000000     
   1.00000000000000     
   1.00000000000000     
   1.00000000000000     
   1.00000000000000     
   1.00000000000000     
   1.00000000000000     
   1.00000000000000     
   1.00000000000000     
   1.00000000000000     
   1.00000000000000     
   1.00000000000000     
   1.00000000000000     
   1.00000000000000     
   1.00000000000000     
   1.00000000000000     
   1.00000000000000     
   1.00000000000000     
   1.00000000000000     
   1.00000000000000     
   1.00000000000000     
   1.00000000000000     
   1.00000000000000     
   1.00000000000000     
   1.00000000000000     
   1.00000000000000     
   1.00000000000000     
   1.00000000000000     
   1.00000000000000     
   1.00000000000000     
   1.00000000000000     
   1.00000000000000     
   1.00000000000000     
   1.00000000000000     
   1.00000000000000     
   1.00000000000000     
   1.00000000000000     
   1.00000000000000     
   1.00000000000000     
   1.00000000000000     
   1.00000000000000     
   1.00000000000000     
   1.00000000000000     
   1.00000000000000     
   1.00000000000000     
   1.00000000000000     
   1.00000000000000     
   1.00000000000000     
   1.00000000000000     
   1.00000000000000     
   1.00000000000000     
   1.00000000000000     
   1.00000000000000     
   1.00000000000000     
   1.00000000000000     
   1.00000000000000     
   1.00000000000000     
   1.00000000000000     
   1.00000000000000     
   1.00000000000000     
   1.00000000000000     
   1.00000000000000     
   1.00000000000000     
   1.00000000000000     
   1.00000000000000     
   1.00000000000000     
   1.00000000000000     
   1.00000000000000     
   1.00000000000000     
   1.00000000000000     
   1.00000000000000     
   1.00000000000000     
   1.00000000000000     
   1.00000000000000     
   1.00000000000000     
   1.00000000000000     
   1.00000000000000     
   1.00000000000000     
   1.00000000000000     
   1.00000000000000     
   1.00000000000000     
   1.00000000000000     
   1.00000000000000     
   1.00000000000000     
   1.00000000000000     
   1.00000000000000     
   1.00000000000000     
   1.00000000000000     
   1.00000000000000     
   1.00000000000000     
   1.00000000000000     
   1.00000000000000     
   1.00000000000000     
   1.00000000000000     
   1.00000000000000     
   1.00000000000000     
   1.00000000000000     
   1.00000000000000     
   1.00000000000000     
   1.00000000000000     
   1.00000000000000     
   1.00000000000000     
   1.00000000000000     
   1.00000000000000     
   1.00000000000000     
   1.00000000000000     
   1.00000000000000     
   1.00000000000000     
   1.00000000000000     
   1.00000000000000     
   1.00000000000000     
   1.00000000000000     
   1.00000000000000     
   1.00000000000000     
   1.00000000000000     
   1.00000000000000     
   1.00000000000000     
   1.00000000000000     
   1.00000000000000     
   1.00000000000000     
   1.00000000000000     
   1.00000000000000     
   1.00000000000000     
   1.00000000000000     
   1.00000000000000     
   1.00000000000000     
   1.00000000000000     
   1.00000000000000     
   1.00000000000000     
   1.00000000000000     
   1.00000000000000     
   1.00000000000000     
   1.00000000000000     
   1.00000000000000     
   1.00000000000000     
   1.00000000000000     
   1.00000000000000     
   1.00000000000000     
   1.00000000000000     
   1.00000000000000     
   1.00000000000000     
   1.00000000000000     
   1.00000000000000     
   1.00000000000000     
   1.00000000000000     
   1.00000000000000     
   1.00000000000000     
   1.00000000000000     
   1.00000000000000     
   1.00000000000000     
   1.00000000000000     
   1.00000000000000     
   1.00000000000000     
   1.00000000000000     
   1.00000000000000     
   1.00000000000000     
   1.00000000000000     
   1.00000000000000     
   1.00000000000000     
   1.00000000000000     
   1.00000000000000     
   1.00000000000000     
   1.00000000000000     
   1.00000000000000     
   1.00000000000000     
   1.00000000000000     
   1.00000000000000     
   1.00000000000000     
   1.00000000000000     
   1.00000000000000     
   1.00000000000000     
   1.00000000000000     
   1.00000000000000     
   1.00000000000000     
   1.00000000000000     
   1.00000000000000     
   1.00000000000000     
   1.00000000000000     
   1.00000000000000     
   1.00000000000000     
   1.00000000000000     
   1.00000000000000     
   1.00000000000000     
   1.00000000000000     
   1.00000000000000     
   1.00000000000000     
   1.00000000000000     
   1.00000000000000     
   1.00000000000000     
   1.00000000000000     
   1.00000000000000     
   1.00000000000000     
   1.00000000000000     
   1.00000000000000     
   1.00000000000000     
   1.00000000000000     
   1.00000000000000     
   1.00000000000000     
   1.00000000000000     
   1.00000000000000     
   1.00000000000000     
   1.00000000000000     
   1.00000000000000     
   1.00000000000000     
   1.00000000000000     
   1.00000000000000     
   1.00000000000000     
   1.00000000000000     
   1.00000000000000     
   1.00000000000000     
   1.00000000000000     
   1.00000000000000     
   1.00000000000000     
   1.00000000000000     
   1.00000000000000     
   1.00000000000000     
   1.00000000000000     
   1.00000000000000     
   1.00000000000000     
   1.00000000000000     
   1.00000000000000     
   1.00000000000000     
   1.00000000000000     
   1.00000000000000     
   1.00000000000000     
   1.00000000000000     
   1.00000000000000     
   1.00000000000000     
   1.00000000000000     
   1.00000000000000     
   1.00000000000000     
   1.00000000000000     
   1.00000000000000     
   1.00000000000000     
   1.00000000000000     
   1.00000000000000     
   1.00000000000000     
   1.00000000000000     
   1.00000000000000     
   1.00000000000000     
   1.00000000000000     
   1.00000000000000     
   1.00000000000000     
   1.00000000000000     
   1.00000000000000     
   1.00000000000000     
   1.00000000000000     
   1.00000000000000     
   1.00000000000000     
   1.00000000000000     
   1.00000000000000     
   1.00000000000000     
   1.00000000000000     
   1.00000000000000     
   1.00000000000000     
   1.00000000000000     
   1.00000000000000     
   1.00000000000000     
   1.00000000000000     
   1.00000000000000     
   1.00000000000000     
   1.00000000000000     
   1.00000000000000     
   1.00000000000000     
   1.00000000000000     
   1.00000000000000     
   1.00000000000000     
   1.00000000000000     
   1.00000000000000     
   1.00000000000000     
   1.00000000000000     
   1.00000000000000     
   1.00000000000000     
   1.00000000000000     
   1.00000000000000     
   1.00000000000000     
   1.00000000000000     
   1.00000000000000     
   1.00000000000000     
   1.00000000000000     
   1.00000000000000     
   1.00000000000000     
   1.00000000000000     
   1.00000000000000     
   1.00000000000000     
   1.00000000000000     
   1.00000000000000     
   1.00000000000000     
   1.00000000000000     
   1.00000000000000     
   1.00000000000000     
   1.00000000000000     
   1.00000000000000     
   1.00000000000000     
   1.00000000000000     
   1.00000000000000     
   1.00000000000000     
   1.00000000000000     
   1.00000000000000     
   1.00000000000000     
   1.00000000000000     
   1.00000000000000     
   1.00000000000000     
   1.00000000000000     
   1.00000000000000     
   1.00000000000000     
   1.00000000000000     
   1.00000000000000     
   1.00000000000000     
   1.00000000000000     
   1.00000000000000     
   1.00000000000000     
   1.00000000000000     
   1.00000000000000     
   1.00000000000000     
   1.00000000000000     
   1.00000000000000     
   1.00000000000000     
   1.00000000000000     
   1.00000000000000     
   1.00000000000000     
   1.00000000000000     
   1.00000000000000     
   1.00000000000000     
   1.00000000000000     
   1.00000000000000     
   1.00000000000000     
   1.00000000000000     
   1.00000000000000     
   1.00000000000000     
   1.00000000000000     
   1.00000000000000     
   1.00000000000000     
   1.00000000000000     
   1.00000000000000     
   1.00000000000000     
   1.00000000000000     
   1.00000000000000     
   1.00000000000000     
   1.00000000000000     
   1.00000000000000     
   1.00000000000000     
   1.00000000000000     
   1.00000000000000     
   1.00000000000000     
   1.00000000000000     
   1.00000000000000     
   1.00000000000000     
   1.00000000000000     
   1.00000000000000     
   1.00000000000000     
   1.00000000000000     
   1.00000000000000     
   1.00000000000000     
   1.00000000000000     
   1.00000000000000     
   1.00000000000000     
   1.00000000000000     
   1.00000000000000     
   1.00000000000000     
   1.00000000000000     
   1.00000000000000     
   1.00000000000000     
   1.00000000000000     
   1.00000000000000     
   1.00000000000000     
   1.00000000000000     
   1.00000000000000     
   1.00000000000000     
   1.00000000000000     
   1.00000000000000     
   1.00000000000000     
   1.00000000000000     
   1.00000000000000     
   1.00000000000000     
   1.00000000000000     
   1.00000000000000     
   1.00000000000000     
   1.00000000000000     
   1.00000000000000     
   1.00000000000000     
   1.00000000000000     
   1.00000000000000     
   1.00000000000000     
   1.00000000000000     
   1.00000000000000     
   1.00000000000000     
   1.00000000000000     
   1.00000000000000     
   1.00000000000000     
   1.00000000000000     
   1.00000000000000     
   1.00000000000000     
   1.00000000000000     
   1.00000000000000     
   1.00000000000000     
   1.00000000000000     
   1.00000000000000     
   1.00000000000000     
   1.00000000000000     
   1.00000000000000     
   1.00000000000000     
   1.00000000000000     
   1.00000000000000     
   1.00000000000000     
   1.00000000000000     
   1.00000000000000     
   1.00000000000000     
   1.00000000000000     
   1.00000000000000     
   1.00000000000000     
   1.00000000000000     
   1.00000000000000     
   1.00000000000000     
   1.00000000000000     
   1.00000000000000     
   1.00000000000000     
   1.00000000000000     
   1.00000000000000     
   1.00000000000000     
   1.00000000000000     
   1.00000000000000     
   1.00000000000000     
   1.00000000000000     
   1.00000000000000     
   1.00000000000000     
   1.00000000000000     
   1.00000000000000     
   1.00000000000000     
   1.00000000000000     
   1.00000000000000     
   1.00000000000000     
   1.00000000000000     
   1.00000000000000     
   1.00000000000000     
   1.00000000000000     
   1.00000000000000     
   1.00000000000000     
   1.00000000000000     
   1.00000000000000     
   1.00000000000000     
   1.00000000000000     
   1.00000000000000     
   1.00000000000000     
   1.00000000000000     
   1.00000000000000     
   1.00000000000000     
   1.00000000000000     
   1.00000000000000     
   1.00000000000000     
   1.00000000000000     
   1.00000000000000     
   1.00000000000000     
   1.00000000000000     
   1.00000000000000     
   1.00000000000000     
   1.00000000000000     
   1.00000000000000     
   1.00000000000000     
   1.00000000000000     
   1.00000000000000     
   1.00000000000000     
   1.00000000000000     
   1.00000000000000     
   1.00000000000000     
   1.00000000000000     
   1.00000000000000     
   1.00000000000000     
   1.00000000000000     
   1.00000000000000     
   1.00000000000000     
   1.00000000000000     
   1.00000000000000     
   1.00000000000000     
   1.00000000000000     
   1.00000000000000     
   1.00000000000000     
   1.00000000000000     
   1.00000000000000     
   1.00000000000000     
   1.00000000000000     
   1.00000000000000     
   1.00000000000000     
   1.00000000000000     
   1.00000000000000     
   1.00000000000000     
   1.00000000000000     
   1.00000000000000     
   1.00000000000000     
   1.00000000000000     
   1.00000000000000     
   1.00000000000000     
   1.00000000000000     
   1.00000000000000     
   1.00000000000000     
   1.00000000000000     
   1.00000000000000     
   1.00000000000000     
   1.00000000000000     
   1.00000000000000     
   1.00000000000000     
   1.00000000000000     
   1.00000000000000     
   1.00000000000000     
   1.00000000000000     
   1.00000000000000     
   1.00000000000000     
   1.00000000000000     
   1.00000000000000     
   1.00000000000000     
   1.00000000000000     
   1.00000000000000     
   1.00000000000000     
   1.00000000000000     
   1.00000000000000     
   1.00000000000000     
   1.00000000000000     
   1.00000000000000     
   1.00000000000000     
   1.00000000000000     
   1.00000000000000     
   1.00000000000000     
   1.00000000000000     
   1.00000000000000     
   1.00000000000000     
   1.00000000000000     
   1.00000000000000     
   1.00000000000000     
   1.00000000000000     
   1.00000000000000     
   1.00000000000000     
   1.00000000000000     
   1.00000000000000     
   1.00000000000000     
   1.00000000000000     
   1.00000000000000     
   1.00000000000000     
   1.00000000000000     
   1.00000000000000     
   1.00000000000000     
   1.00000000000000     
   1.00000000000000     
   1.00000000000000     
   1.00000000000000     
   1.00000000000000     
   1.00000000000000     
   1.00000000000000     
   1.00000000000000     
   1.00000000000000     
   1.00000000000000     
   1.00000000000000     
   1.00000000000000     
   1.00000000000000     
   1.00000000000000     
   1.00000000000000     
   1.00000000000000     
   1.00000000000000     
   1.00000000000000     
   1.00000000000000     
   1.00000000000000     
   1.00000000000000     
   1.00000000000000     
   1.00000000000000     
   1.00000000000000     
   1.00000000000000     
   1.00000000000000     
   1.00000000000000     
   1.00000000000000     
   1.00000000000000     
   1.00000000000000     
   1.00000000000000     
   1.00000000000000     
   1.00000000000000     
   1.00000000000000     
   1.00000000000000     
   1.00000000000000     
   1.00000000000000     
   1.00000000000000     
   1.00000000000000     
   1.00000000000000     
   1.00000000000000     
   1.00000000000000     
   1.00000000000000     
   1.00000000000000     
   1.00000000000000     
   1.00000000000000     
   1.00000000000000     
   1.00000000000000     
   1.00000000000000     
   1.00000000000000     
   1.00000000000000     
   1.00000000000000     
   1.00000000000000     
   1.00000000000000     
   1.00000000000000     
   1.00000000000000     
   1.00000000000000     
   1.00000000000000     
   1.00000000000000     
   1.00000000000000     
   1.00000000000000     
   1.00000000000000     
   1.00000000000000     
   1.00000000000000     
   1.00000000000000     
   1.00000000000000     
   1.00000000000000     
   1.00000000000000     
   1.00000000000000     
   1.00000000000000     
   1.00000000000000     
   1.00000000000000     
   1.00000000000000     
   1.00000000000000     
   1.00000000000000     
   1.00000000000000     
   1.00000000000000     
   1.00000000000000     
   1.00000000000000     
   1.00000000000000     
   1.00000000000000     
   1.00000000000000     
   1.00000000000000     
   1.00000000000000     
   1.00000000000000     
   1.00000000000000     
   1.00000000000000     
   1.00000000000000     
   1.00000000000000     
   1.00000000000000     
   1.00000000000000     
   1.00000000000000     
   1.00000000000000     
   1.00000000000000     
   1.00000000000000     
   1.00000000000000     
   1.00000000000000     
   1.00000000000000     
   1.00000000000000     
   1.00000000000000     
   1.00000000000000     
   1.00000000000000     
   1.00000000000000     
   1.00000000000000     
   1.00000000000000     
   1.00000000000000     
   1.00000000000000     
   1.00000000000000     
   1.00000000000000     
   1.00000000000000     
   1.00000000000000     
   1.00000000000000     
   1.00000000000000     
   1.00000000000000     
   1.00000000000000     
   1.00000000000000     
   1.00000000000000     
   1.00000000000000     
   1.00000000000000     
   1.00000000000000     
   1.00000000000000     
   1.00000000000000     
   1.00000000000000     
   1.00000000000000     
   1.00000000000000     
   1.00000000000000     
   1.00000000000000     
   1.00000000000000     
   1.00000000000000     
   1.00000000000000     
   1.00000000000000     
   1.00000000000000     
   1.00000000000000     
   1.00000000000000     
   1.00000000000000     
   1.00000000000000     
   1.00000000000000     
   1.00000000000000     
   1.00000000000000     
   1.00000000000000     
   1.00000000000000     
   1.00000000000000     
   1.00000000000000     
   1.00000000000000     
   1.00000000000000     
   1.00000000000000     
   1.00000000000000     
   1.00000000000000     
   1.00000000000000     
   1.00000000000000     
   1.00000000000000     
   1.00000000000000     
   1.00000000000000     
   1.00000000000000     
   1.00000000000000     
   1.00000000000000     
   1.00000000000000     
   1.00000000000000     
   1.00000000000000     
   1.00000000000000     
   1.00000000000000     
   1.00000000000000     
   1.00000000000000     
   1.00000000000000     
   1.00000000000000     
   1.00000000000000     
   1.00000000000000     
   1.00000000000000     
   1.00000000000000     
   1.00000000000000     
   1.00000000000000     
   1.00000000000000     
   1.00000000000000     
   1.00000000000000     
   1.00000000000000     
   1.00000000000000     
   1.00000000000000     
   1.00000000000000     
   1.00000000000000     
   1.00000000000000     
   1.00000000000000     
   1.00000000000000     
   1.00000000000000     
   1.00000000000000     
   1.00000000000000     
   1.00000000000000     
   1.00000000000000     
   1.00000000000000     
   1.00000000000000     
   1.00000000000000     
   1.00000000000000     
   1.00000000000000     
   1.00000000000000     
   1.00000000000000     
   1.00000000000000     
   1.00000000000000     
   1.00000000000000     
   1.00000000000000     
   1.00000000000000     
   1.00000000000000     
   1.00000000000000     
   1.00000000000000     
   1.00000000000000     
   1.00000000000000     
   1.00000000000000     
   1.00000000000000     
   1.00000000000000     
   1.00000000000000     
   1.00000000000000     
   1.00000000000000     
   1.00000000000000     
   1.00000000000000     
   1.00000000000000     
   1.00000000000000     
   1.00000000000000     
   1.00000000000000     
   1.00000000000000     
   1.00000000000000     
   1.00000000000000     
   1.00000000000000     
   1.00000000000000     
   1.00000000000000     
   1.00000000000000     
   1.00000000000000     
   1.00000000000000     
   1.00000000000000     
   1.00000000000000     
   1.00000000000000     
   1.00000000000000     
   1.00000000000000     
   1.00000000000000     
   1.00000000000000     
   1.00000000000000     
   1.00000000000000     
   1.00000000000000     
   1.00000000000000     
   1.00000000000000     
   1.00000000000000     
   1.00000000000000     
   1.00000000000000     
   1.00000000000000     
   1.00000000000000     
   1.00000000000000     
   1.00000000000000     
   1.00000000000000     
   1.00000000000000     
   1.00000000000000     
   1.00000000000000     
   1.00000000000000     
   1.00000000000000     
   1.00000000000000     
   1.00000000000000     
   1.00000000000000     
   1.00000000000000     
   1.00000000000000     
   1.00000000000000     
   1.00000000000000     
   1.00000000000000     
   1.00000000000000     
   1.00000000000000     
   1.00000000000000     
   1.00000000000000     
   1.00000000000000     
   1.00000000000000     
   1.00000000000000     
   1.00000000000000     
   1.00000000000000     
   1.00000000000000     
   1.00000000000000     
   1.00000000000000     
   1.00000000000000     
   1.00000000000000     
   1.00000000000000     
   1.00000000000000     
   1.00000000000000     
   1.00000000000000     
   1.00000000000000     
   1.00000000000000     
   1.00000000000000     
   1.00000000000000     
   1.00000000000000     
   1.00000000000000     
   1.00000000000000     
   1.00000000000000     
   1.00000000000000     
   1.00000000000000     
   1.00000000000000     
   1.00000000000000     
   1.00000000000000     
   1.00000000000000     
   1.00000000000000     
   1.00000000000000     
   1.00000000000000     
   1.00000000000000     
   1.00000000000000     
   1.00000000000000     
   1.00000000000000     
   1.00000000000000     
   1.00000000000000     
   1.00000000000000     
   1.00000000000000     
   1.00000000000000     
   1.00000000000000     
   1.00000000000000     
   1.00000000000000     
   1.00000000000000     
   1.00000000000000     
   1.00000000000000     
   1.00000000000000     
   1.00000000000000     
   1.00000000000000     
   1.00000000000000     
   1.00000000000000     
   1.00000000000000     
   1.00000000000000     
   1.00000000000000     
   1.00000000000000     
   1.00000000000000     
   1.00000000000000     
   1.00000000000000     
   1.00000000000000     
   1.00000000000000     
   1.00000000000000     
   1.00000000000000     
   1.00000000000000     
   1.00000000000000     
   1.00000000000000     
   1.00000000000000     
   1.00000000000000     
   1.00000000000000     
   1.00000000000000     
   1.00000000000000     
   1.00000000000000     
   1.00000000000000     
   1.00000000000000     
   1.00000000000000     
   1.00000000000000     
   1.00000000000000     
   1.00000000000000     
   1.00000000000000     
   1.00000000000000     
   1.00000000000000     
   1.00000000000000     
   1.00000000000000     
   1.00000000000000     
   1.00000000000000     
   1.00000000000000     
   1.00000000000000     
   1.00000000000000     
   1.00000000000000     
   1.00000000000000     
   1.00000000000000     
   1.00000000000000     
   1.00000000000000     
   1.00000000000000     
   1.00000000000000     
   1.00000000000000     
   1.00000000000000     
   1.00000000000000     
   1.00000000000000     
   1.00000000000000     
   1.00000000000000     
   1.00000000000000     
   1.00000000000000     
   1.00000000000000     
   1.00000000000000     
   1.00000000000000     
   1.00000000000000     
   1.00000000000000     
   1.00000000000000     
   1.00000000000000     
   1.00000000000000     
   1.00000000000000     
   1.00000000000000     
   1.00000000000000     
   1.00000000000000     
   1.00000000000000     
   1.00000000000000     
   1.00000000000000     
   1.00000000000000     
   1.00000000000000     
   1.00000000000000     
   1.00000000000000     
   1.00000000000000     
   1.00000000000000     
   1.00000000000000     
   1.00000000000000     
   1.00000000000000     
   1.00000000000000     
   1.00000000000000     
   1.00000000000000     
   1.00000000000000     
   1.00000000000000     
   1.00000000000000     
   1.00000000000000     
   1.00000000000000     
   1.00000000000000     
   1.00000000000000     
   1.00000000000000     
   1.00000000000000     
   1.00000000000000     
   1.00000000000000     
   1.00000000000000     
   1.00000000000000     
   1.00000000000000     
   1.00000000000000     
   1.00000000000000     
   1.00000000000000     
   1.00000000000000     
   1.00000000000000     
   1.00000000000000     
   1.00000000000000     
   1.00000000000000     
   1.00000000000000     
   1.00000000000000     
   1.00000000000000     
   1.00000000000000     
   1.00000000000000     
   1.00000000000000     
   1.00000000000000     
   1.00000000000000     
   1.00000000000000     
   1.00000000000000     
   1.00000000000000     
   1.00000000000000     
   1.00000000000000     
   1.00000000000000     
   1.00000000000000     
   1.00000000000000     
   1.00000000000000     
   1.00000000000000     
   1.00000000000000     
   1.00000000000000     
   1.00000000000000     
   1.00000000000000     
   1.00000000000000     
   1.00000000000000     
   1.00000000000000     
   1.00000000000000     
   1.00000000000000     
   1.00000000000000     
   1.00000000000000     
   1.00000000000000     
   1.00000000000000     
   1.00000000000000     
   1.00000000000000     
   1.00000000000000     
   1.00000000000000     
   1.00000000000000     
   1.00000000000000     
   1.00000000000000     
   1.00000000000000     
   1.00000000000000     
   1.00000000000000     
   1.00000000000000     
   1.00000000000000     
   1.00000000000000     
   1.00000000000000     
   1.00000000000000     
   1.00000000000000     
   1.00000000000000     
   1.00000000000000     
   1.00000000000000     
   1.00000000000000     
   1.00000000000000     
   1.00000000000000     
   1.00000000000000     
   1.00000000000000     
   1.00000000000000     
   1.00000000000000     
   1.00000000000000     
   1.00000000000000     
   1.00000000000000     
   1.00000000000000     
   1.00000000000000     
   1.00000000000000     
   1.00000000000000     
   1.00000000000000     
   1.00000000000000     
   1.00000000000000     
   1.00000000000000     
   1.00000000000000     
   1.00000000000000     
   1.00000000000000     
   1.00000000000000     
   1.00000000000000     
   1.00000000000000     
   1.00000000000000     
   1.00000000000000     
   1.00000000000000     
   1.00000000000000     
   1.00000000000000     
   1.00000000000000     
   1.00000000000000     
   1.00000000000000     
   1.00000000000000     
   1.00000000000000     
   1.00000000000000     
   1.00000000000000     
   1.00000000000000     
   1.00000000000000     
   1.00000000000000     
   1.00000000000000     
   1.00000000000000     
   1.00000000000000     
   1.00000000000000     
   1.00000000000000     
   1.00000000000000     
   1.00000000000000     
   1.00000000000000     
   1.00000000000000     
   1.00000000000000     
   1.00000000000000     
   1.00000000000000     
   1.00000000000000     
   1.00000000000000     
   1.00000000000000     
   1.00000000000000     
   1.00000000000000     
   1.00000000000000     
   1.00000000000000     
   1.00000000000000     
   1.00000000000000     
   1.00000000000000     
   1.00000000000000     
   1.00000000000000     
   1.00000000000000     
   1.00000000000000     
   1.00000000000000     
   1.00000000000000     
   1.00000000000000     
   1.00000000000000     
   1.00000000000000     
   1.00000000000000     
   1.00000000000000     
   1.00000000000000     
   1.00000000000000     
   1.00000000000000     
   1.00000000000000     
   1.00000000000000     
   1.00000000000000     
   1.00000000000000     
   1.00000000000000     
   1.00000000000000     
   1.00000000000000     
   1.00000000000000     
   1.00000000000000     
   1.00000000000000     
   1.00000000000000     
   1.00000000000000     
   1.00000000000000     
   1.00000000000000     
   1.00000000000000     
   1.00000000000000     
   1.00000000000000     
   1.00000000000000     
   1.00000000000000     
   1.00000000000000     
   1.00000000000000     
   1.00000000000000     
   1.00000000000000     
   1.00000000000000     
   1.00000000000000     
   1.00000000000000     
   1.00000000000000     
   1.00000000000000     
   1.00000000000000     
   1.00000000000000     
   1.00000000000000     
   1.00000000000000     
   1.00000000000000     
   1.00000000000000     
   1.00000000000000     
   1.00000000000000     
   1.00000000000000     
   1.00000000000000     
   1.00000000000000     
   1.00000000000000     
   1.00000000000000     
   1.00000000000000     
   1.00000000000000     
   1.00000000000000     
   1.00000000000000     
   1.00000000000000     
   1.00000000000000     
   1.00000000000000     
   1.00000000000000     
   1.00000000000000     
   1.00000000000000     
   1.00000000000000     
   1.00000000000000     
   1.00000000000000     
   1.00000000000000     
   1.00000000000000     
   1.00000000000000     
   1.00000000000000     
   1.00000000000000     
   1.00000000000000     
   1.00000000000000     
   1.00000000000000     
   1.00000000000000     
   1.00000000000000     
   1.00000000000000     
   1.00000000000000     
   1.00000000000000     
   1.00000000000000     
   1.00000000000000     
   1.00000000000000     
   1.00000000000000     
   1.00000000000000     
   1.00000000000000     
   1.00000000000000     
   1.00000000000000     
   1.00000000000000     
   1.00000000000000     
   1.00000000000000     
   1.00000000000000     
   1.00000000000000     
   1.00000000000000     
   1.00000000000000     
   1.00000000000000     
   1.00000000000000     
   1.00000000000000     
   1.00000000000000     
   1.00000000000000     
   1.00000000000000     
   1.00000000000000     
   1.00000000000000     
   1.00000000000000     
   1.00000000000000     
   1.00000000000000     
   1.00000000000000     
   1.00000000000000     
   1.00000000000000     
   1.00000000000000     
   1.00000000000000     
   1.00000000000000     
   1.00000000000000     
   1.00000000000000     
   1.00000000000000     
   1.00000000000000     
   1.00000000000000     
   1.00000000000000     
   1.00000000000000     
   1.00000000000000     
   1.00000000000000     
   1.00000000000000     
   1.00000000000000     
   1.00000000000000     
   1.00000000000000     
   1.00000000000000     
   1.00000000000000     
   1.00000000000000     
   1.00000000000000     
   1.00000000000000     
   1.00000000000000     
   1.00000000000000     
   1.00000000000000     
   1.00000000000000     
   1.00000000000000     
   1.00000000000000     
   1.00000000000000     
   1.00000000000000     
   1.00000000000000     
   1.00000000000000     
   1.00000000000000     
   1.00000000000000     
   1.00000000000000     
   1.00000000000000     
   1.00000000000000     
   1.00000000000000     
   1.00000000000000     
   1.00000000000000     
   1.00000000000000     
   1.00000000000000     
   1.00000000000000     
   1.00000000000000     
   1.00000000000000     
   1.00000000000000     
   1.00000000000000     
   1.00000000000000     
   1.00000000000000     
   1.00000000000000     
   1.00000000000000     
   1.00000000000000     
   1.00000000000000     
   1.00000000000000     
   1.00000000000000     
   1.00000000000000     
   1.00000000000000     
   1.00000000000000     
   1.00000000000000     
   1.00000000000000     
   1.00000000000000     
   1.00000000000000     
   1.00000000000000     
   1.00000000000000     
   1.00000000000000     
   1.00000000000000     
   1.00000000000000     
   1.00000000000000     
   1.00000000000000     
   1.00000000000000     
   1.00000000000000     
   1.00000000000000     
   1.00000000000000     
   1.00000000000000     
   1.00000000000000     
   1.00000000000000     
   1.00000000000000     
   1.00000000000000     
   1.00000000000000     
   1.00000000000000     
   1.00000000000000     
   1.00000000000000     
   1.00000000000000     
   1.00000000000000     
   1.00000000000000     
   1.00000000000000     
   1.00000000000000     
   1.00000000000000     
   1.00000000000000     
   1.00000000000000     
   1.00000000000000     
   1.00000000000000     
   1.00000000000000     
   1.00000000000000     
   1.00000000000000     
   1.00000000000000     
   1.00000000000000     
   1.00000000000000     
   1.00000000000000     
   1.00000000000000     
   1.00000000000000     
   1.00000000000000     
   1.00000000000000     
   1.00000000000000     
   1.00000000000000     
   1.00000000000000     
   1.00000000000000     
   1.00000000000000     
   1.00000000000000     
   1.00000000000000     
   1.00000000000000     
   1.00000000000000     
   1.00000000000000     
   1.00000000000000     
   1.00000000000000     
   1.00000000000000     
   1.00000000000000     
   1.00000000000000     
   1.00000000000000     
   1.00000000000000     
   1.00000000000000     
   1.00000000000000     
   1.00000000000000     
   1.00000000000000     
   1.00000000000000     
   1.00000000000000     
   1.00000000000000     
   1.00000000000000     
   1.00000000000000     
   1.00000000000000     
   1.00000000000000     
   1.00000000000000     
   1.00000000000000     
   1.00000000000000     
   1.00000000000000     
   1.00000000000000     
   1.00000000000000     
   1.00000000000000     
   1.00000000000000     
   1.00000000000000     
   1.00000000000000     
   1.00000000000000     
   1.00000000000000     
   1.00000000000000     
   1.00000000000000     
   1.00000000000000     
   1.00000000000000     
   1.00000000000000     
   1.00000000000000     
   1.00000000000000     
   1.00000000000000     
   1.00000000000000     
   1.00000000000000     
   1.00000000000000     
   1.00000000000000     
   1.00000000000000     
   1.00000000000000     
   1.00000000000000     
   1.00000000000000     
   1.00000000000000     
   1.00000000000000     
   1.00000000000000     
   1.00000000000000     
   1.00000000000000     
   1.00000000000000     
   1.00000000000000     
   1.00000000000000     
   1.00000000000000     
   1.00000000000000     
   1.00000000000000     
   1.00000000000000     
   1.00000000000000     
   1.00000000000000     
   1.00000000000000     
   1.00000000000000     
   1.00000000000000     
   1.00000000000000     
   1.00000000000000     
   1.00000000000000     
   1.00000000000000     
   1.00000000000000     
   1.00000000000000     
   1.00000000000000     
   1.00000000000000     
   1.00000000000000     
   1.00000000000000     
   1.00000000000000     
   1.00000000000000     
   1.00000000000000     
   1.00000000000000     
   1.00000000000000     
   1.00000000000000     
   1.00000000000000     
   1.00000000000000     
   1.00000000000000     
   1.00000000000000     
   1.00000000000000     
   1.00000000000000     
   1.00000000000000     
   1.00000000000000     
   1.00000000000000     
   1.00000000000000     
   1.00000000000000     
   1.00000000000000     
   1.00000000000000     
   1.00000000000000     
   1.00000000000000     
   1.00000000000000     
   1.00000000000000     
   1.00000000000000     
   1.00000000000000     
   1.00000000000000     
   1.00000000000000     
   1.00000000000000     
   1.00000000000000     
   1.00000000000000     
   1.00000000000000     
   1.00000000000000     
   1.00000000000000     
   1.00000000000000     
   1.00000000000000     
   1.00000000000000     
   1.00000000000000     
   1.00000000000000     
   1.00000000000000     
   1.00000000000000     
   1.00000000000000     
   1.00000000000000     
   1.00000000000000     
   1.00000000000000     
   1.00000000000000     
   1.00000000000000     
   1.00000000000000     
   1.00000000000000     
   1.00000000000000     
   1.00000000000000     
   1.00000000000000     
   1.00000000000000     
   1.00000000000000     
   1.00000000000000     
   1.00000000000000     
   1.00000000000000     
   1.00000000000000     
   1.00000000000000     
   1.00000000000000     
   1.00000000000000     
   1.00000000000000     
   1.00000000000000     
   1.00000000000000     
   1.00000000000000     
   1.00000000000000     
   1.00000000000000     
   1.00000000000000     
   1.00000000000000     
   1.00000000000000     
   1.00000000000000     
   1.00000000000000     
   1.00000000000000     
   1.00000000000000     
   1.00000000000000     
   1.00000000000000     
   1.00000000000000     
   1.00000000000000     
   1.00000000000000     
   1.00000000000000     
   1.00000000000000     
   1.00000000000000     
   1.00000000000000     
   1.00000000000000     
   1.00000000000000     
   1.00000000000000     
   1.00000000000000     
   1.00000000000000     
   1.00000000000000     
   1.00000000000000     
   1.00000000000000     
   1.00000000000000     
   1.00000000000000     
   1.00000000000000     
   1.00000000000000     
   1.00000000000000     
   1.00000000000000     
   1.00000000000000     
   1.00000000000000     
   1.00000000000000     
   1.00000000000000     
   1.00000000000000     
   1.00000000000000     
   1.00000000000000     
   1.00000000000000     
   1.00000000000000     
   1.00000000000000     
   1.00000000000000     
   1.00000000000000     
   1.00000000000000     
   1.00000000000000     
   1.00000000000000     
   1.00000000000000     
   1.00000000000000     
   1.00000000000000     
   1.00000000000000     
   1.00000000000000     
   1.00000000000000     
   1.00000000000000     
   1.00000000000000     
   1.00000000000000     
   1.00000000000000     
   1.00000000000000     
   1.00000000000000     
   1.00000000000000     
   1.00000000000000     
   1.00000000000000     
   1.00000000000000     
   1.00000000000000     
   1.00000000000000     
   1.00000000000000     
   1.00000000000000     
   1.00000000000000     
   1.00000000000000     
   1.00000000000000     
   1.00000000000000     
   1.00000000000000     
   1.00000000000000     
   1.00000000000000     
   1.00000000000000     
   1.00000000000000     
   1.00000000000000     
   1.00000000000000     
   1.00000000000000     
   1.00000000000000     
   1.00000000000000     
   1.00000000000000     
   1.00000000000000     
   1.00000000000000     
   1.00000000000000     
   1.00000000000000     
   1.00000000000000     
   1.00000000000000     
   1.00000000000000     
   1.00000000000000     
   1.00000000000000     
   1.00000000000000     
   1.00000000000000     
   1.00000000000000     
   1.00000000000000     
   1.00000000000000     
   1.00000000000000     
   1.00000000000000     
   1.00000000000000     
   1.00000000000000     
   1.00000000000000     
   1.00000000000000     
   1.00000000000000     
   1.00000000000000     
   1.00000000000000     
   1.00000000000000     
   1.00000000000000     
   1.00000000000000     
   1.00000000000000     
   1.00000000000000     
   1.00000000000000     
   1.00000000000000     
   1.00000000000000     
   1.00000000000000     
   1.00000000000000     
   1.00000000000000     
   1.00000000000000     
   1.00000000000000     
   1.00000000000000     
   1.00000000000000     
   1.00000000000000     
   1.00000000000000     
   1.00000000000000     
   1.00000000000000     
   1.00000000000000     
   1.00000000000000     
   1.00000000000000     
   1.00000000000000     
   1.00000000000000     
   1.00000000000000     
   1.00000000000000     
   1.00000000000000     
   1.00000000000000     
   1.00000000000000     
   1.00000000000000     
   1.00000000000000     
   1.00000000000000     
   1.00000000000000     
   1.00000000000000     
   1.00000000000000     
   1.00000000000000     
   1.00000000000000     
   1.00000000000000     
   1.00000000000000     
   1.00000000000000     
   1.00000000000000     
   1.00000000000000     
   1.00000000000000     
   1.00000000000000     
   1.00000000000000     
   1.00000000000000     
   1.00000000000000     
   1.00000000000000     
   1.00000000000000     
   1.00000000000000     
   1.00000000000000     
   1.00000000000000     
   1.00000000000000     
   1.00000000000000     
   1.00000000000000     
   1.00000000000000     
   1.00000000000000     
   1.00000000000000     
   1.00000000000000     
   1.00000000000000     
   1.00000000000000     
   1.00000000000000     
   1.00000000000000     
   1.00000000000000     
   1.00000000000000     
   1.00000000000000     
   1.00000000000000     
   1.00000000000000     
   1.00000000000000     
   1.00000000000000     
   1.00000000000000     
   1.00000000000000     
   1.00000000000000     
   1.00000000000000     
   1.00000000000000     
   1.00000000000000     
   1.00000000000000     
   1.00000000000000     
   1.00000000000000     
   1.00000000000000     
   1.00000000000000     
   1.00000000000000     
   1.00000000000000     
   1.00000000000000     
   1.00000000000000     
   1.00000000000000     
   1.00000000000000     
   1.00000000000000     
   1.00000000000000     
   1.00000000000000     
   1.00000000000000     
   1.00000000000000     
   1.00000000000000     
   1.00000000000000     
   1.00000000000000     
   1.00000000000000     
   1.00000000000000     
   1.00000000000000     
   1.00000000000000     
   1.00000000000000     
   1.00000000000000     
   1.00000000000000     
   1.00000000000000     
   1.00000000000000     
   1.00000000000000     
   1.00000000000000     
   1.00000000000000     
   1.00000000000000     
   1.00000000000000     
   1.00000000000000     
   1.00000000000000     
   1.00000000000000     
   1.00000000000000     
   1.00000000000000     
   1.00000000000000     
   1.00000000000000     
   1.00000000000000     
   1.00000000000000     
   1.00000000000000     
   1.00000000000000     
   1.00000000000000     
   1.00000000000000     
   1.00000000000000     
   1.00000000000000     
   1.00000000000000     
   1.00000000000000     
   1.00000000000000     
   1.00000000000000     
   1.00000000000000     
   1.00000000000000     
   1.00000000000000     
   1.00000000000000     
   1.00000000000000     
   1.00000000000000     
   1.00000000000000     
   1.00000000000000     
   1.00000000000000     
   1.00000000000000     
   1.00000000000000     
   1.00000000000000     
   1.00000000000000     
   1.00000000000000     
   1.00000000000000     
   1.00000000000000     
   1.00000000000000     
   1.00000000000000     
   1.00000000000000     
   1.00000000000000     
   1.00000000000000     
   1.00000000000000     
   1.00000000000000     
   1.00000000000000     
   1.00000000000000     
   1.00000000000000     
   1.00000000000000     
   1.00000000000000     
   1.00000000000000     
   1.00000000000000     
   1.00000000000000     
   1.00000000000000     
   1.00000000000000     
   1.00000000000000     
   1.00000000000000     
   1.00000000000000     
   1.00000000000000     
   1.00000000000000     
   1.00000000000000     
   1.00000000000000     
   1.00000000000000     
   1.00000000000000     
   1.00000000000000     
   1.00000000000000     
   1.00000000000000     
   1.00000000000000     
   1.00000000000000     
   1.00000000000000     
   1.00000000000000     
   1.00000000000000     
   1.00000000000000     
   1.00000000000000     
   1.00000000000000     
   1.00000000000000     
   1.00000000000000     
   1.00000000000000     
   1.00000000000000     
   1.00000000000000     
   1.00000000000000     
   1.00000000000000     
   1.00000000000000     
   1.00000000000000     
   1.00000000000000     
   1.00000000000000     
   1.00000000000000     
   1.00000000000000     
   1.00000000000000     
   1.00000000000000     
   1.00000000000000     
   1.00000000000000     
   1.00000000000000     
   1.00000000000000     
   1.00000000000000     
   1.00000000000000     
   1.00000000000000     
   1.00000000000000     
   1.00000000000000     
   1.00000000000000     
   1.00000000000000     
   1.00000000000000     
   1.00000000000000     
   1.00000000000000     
   1.00000000000000     
   1.00000000000000     
   1.00000000000000     
   1.00000000000000     
   1.00000000000000     
   1.00000000000000     
   1.00000000000000     
   1.00000000000000     
   1.00000000000000     
   1.00000000000000     
   1.00000000000000     
   1.00000000000000     
   1.00000000000000     
   1.00000000000000     
   1.00000000000000     
   1.00000000000000     
   1.00000000000000     
   1.00000000000000     
   1.00000000000000     
   1.00000000000000     
   1.00000000000000     
   1.00000000000000     
   1.00000000000000     
   1.00000000000000     
   1.00000000000000     
   1.00000000000000     
   1.00000000000000     
   1.00000000000000     
   1.00000000000000     
   1.00000000000000     
   1.00000000000000     
   1.00000000000000     
   1.00000000000000     
   1.00000000000000     
   1.00000000000000     
   1.00000000000000     
   1.00000000000000     
   1.00000000000000     
   1.00000000000000     
   1.00000000000000     
   1.00000000000000     
   1.00000000000000     
   1.00000000000000     
   1.00000000000000     
   1.00000000000000     
   1.00000000000000     
   1.00000000000000     
   1.00000000000000     
   1.00000000000000     
   1.00000000000000     
   1.00000000000000     
   1.00000000000000     
   1.00000000000000     
   1.00000000000000     
   1.00000000000000     
   1.00000000000000     
   1.00000000000000     
   1.00000000000000     
   1.00000000000000     
   1.00000000000000     
   1.00000000000000     
   1.00000000000000     
   1.00000000000000     
   1.00000000000000     
   1.00000000000000     
   1.00000000000000     
   1.00000000000000     
   1.00000000000000     
   1.00000000000000     
   1.00000000000000     
   1.00000000000000     
   1.00000000000000     
   1.00000000000000     
   1.00000000000000     
   1.00000000000000     
   1.00000000000000     
   1.00000000000000     
   1.00000000000000     
   1.00000000000000     
   1.00000000000000     
   1.00000000000000     
   1.00000000000000     
   1.00000000000000     
   1.00000000000000     
   1.00000000000000     
   1.00000000000000     
   1.00000000000000     
   1.00000000000000     
   1.00000000000000     
   1.00000000000000     
   1.00000000000000     
   1.00000000000000     
   1.00000000000000     
   1.00000000000000     
   1.00000000000000     
   1.00000000000000     
   1.00000000000000     
   1.00000000000000     
   1.00000000000000     
   1.00000000000000     
   1.00000000000000     
   1.00000000000000     
   1.00000000000000     
   1.00000000000000     
   1.00000000000000     
   1.00000000000000     
   1.00000000000000     
   1.00000000000000     
   1.00000000000000     
   1.00000000000000     
   1.00000000000000     
   1.00000000000000     
   1.00000000000000     
   1.00000000000000     
   1.00000000000000     
   1.00000000000000     
   1.00000000000000     
   1.00000000000000     
   1.00000000000000     
   1.00000000000000     
   1.00000000000000     
   1.00000000000000     
   1.00000000000000     
   1.00000000000000     
   1.00000000000000     
   1.00000000000000     
   1.00000000000000     
   1.00000000000000     
   1.00000000000000     
   1.00000000000000     
   1.00000000000000     
   1.00000000000000     
   1.00000000000000     
   1.00000000000000     
   1.00000000000000     
   1.00000000000000     
   1.00000000000000     
   1.00000000000000     
   1.00000000000000     
   1.00000000000000     
   1.00000000000000     
   1.00000000000000     
   1.00000000000000     
   1.00000000000000     
   1.00000000000000     
   1.00000000000000     
   1.00000000000000     
   1.00000000000000     
   1.00000000000000     
   1.00000000000000     
   1.00000000000000     
   1.00000000000000     
   1.00000000000000     
   1.00000000000000     
   1.00000000000000     
   1.00000000000000     
   1.00000000000000     
   1.00000000000000     
   1.00000000000000     
   1.00000000000000     
   1.00000000000000     
   1.00000000000000     
   1.00000000000000     
   1.00000000000000     
   1.00000000000000     
   1.00000000000000     
   1.00000000000000     
   1.00000000000000     
   1.00000000000000     
   1.00000000000000     
   1.00000000000000     
   1.00000000000000     
   1.00000000000000     
   1.00000000000000     
   1.00000000000000     
   1.00000000000000     
   1.00000000000000     
   1.00000000000000     
   1.00000000000000     
   1.00000000000000     
   1.00000000000000     
   1.00000000000000     
   1.00000000000000     
   1.00000000000000     
   1.00000000000000     
   1.00000000000000     
   1.00000000000000     
   1.00000000000000     
   1.00000000000000     
   1.00000000000000     
   1.00000000000000     
   1.00000000000000     
   1.00000000000000     
   1.00000000000000     
   1.00000000000000     
   1.00000000000000     
   1.00000000000000     
   1.00000000000000     
   1.00000000000000     
   1.00000000000000     
   1.00000000000000     
   1.00000000000000     
   1.00000000000000     
   1.00000000000000     
   1.00000000000000     
   1.00000000000000     
   1.00000000000000     
   1.00000000000000     
   1.00000000000000     
   1.00000000000000     
   1.00000000000000     
   1.00000000000000     
   1.00000000000000     
   1.00000000000000     
   1.00000000000000     
   1.00000000000000     
   1.00000000000000     
   1.00000000000000     
   1.00000000000000     
   1.00000000000000     
   1.00000000000000     
   1.00000000000000     
   1.00000000000000     
   1.00000000000000     
   1.00000000000000     
   1.00000000000000     
   1.00000000000000     
   1.00000000000000     
   1.00000000000000     
   1.00000000000000     
   1.00000000000000     
   1.00000000000000     
   1.00000000000000     
   1.00000000000000     
   1.00000000000000     
   1.00000000000000     
   1.00000000000000     
   1.00000000000000     
   1.00000000000000     
   1.00000000000000     
   1.00000000000000     
   1.00000000000000     
   1.00000000000000     
   1.00000000000000     
   1.00000000000000     
   1.00000000000000     
   1.00000000000000     
   1.00000000000000     
   1.00000000000000     
   1.00000000000000     
   1.00000000000000     
   1.00000000000000     
   1.00000000000000     
   1.00000000000000     
   1.00000000000000     
   1.00000000000000     
   1.00000000000000     
   1.00000000000000     
   1.00000000000000     
   1.00000000000000     
   1.00000000000000     
   1.00000000000000     
   1.00000000000000     
   1.00000000000000     
   1.00000000000000     
   1.00000000000000     
   1.00000000000000     
   1.00000000000000     
   1.00000000000000     
   1.00000000000000     
   1.00000000000000     
   1.00000000000000     
   1.00000000000000     
   1.00000000000000     
   1.00000000000000     
   1.00000000000000     
   1.00000000000000     
   1.00000000000000     
   1.00000000000000     
   1.00000000000000     
   1.00000000000000     
   1.00000000000000     
   1.00000000000000     
   1.00000000000000     
   1.00000000000000     
   1.00000000000000     
   1.00000000000000     
   1.00000000000000     
   1.00000000000000     
   1.00000000000000     
   1.00000000000000     
   1.00000000000000     
   1.00000000000000     
   1.00000000000000     
   1.00000000000000     
   1.00000000000000     
   1.00000000000000     
   1.00000000000000     
   1.00000000000000     
   1.00000000000000     
   1.00000000000000     
   1.00000000000000     
   1.00000000000000     
   1.00000000000000     
   1.00000000000000     
   1.00000000000000     
   1.00000000000000     
   1.00000000000000     
   1.00000000000000     
   1.00000000000000     
   1.00000000000000     
   1.00000000000000     
   1.00000000000000     
   1.00000000000000     
   1.00000000000000     
   1.00000000000000     
   1.00000000000000     
   1.00000000000000     
   1.00000000000000     
   1.00000000000000     
   1.00000000000000     
   1.00000000000000     
   1.00000000000000     
   1.00000000000000     
   1.00000000000000     
   1.00000000000000     
   1.00000000000000     
   1.00000000000000     
   1.00000000000000     
   1.00000000000000     
   1.00000000000000     
   1.00000000000000     
   1.00000000000000     
   1.00000000000000     
   1.00000000000000     
   1.00000000000000     
   1.00000000000000     
   1.00000000000000     
   1.00000000000000     
   1.00000000000000     
   1.00000000000000     
   1.00000000000000     
   1.00000000000000     
   1.00000000000000     
   1.00000000000000     
   1.00000000000000     
   1.00000000000000     
   1.00000000000000     
   1.00000000000000     
   1.00000000000000     
   1.00000000000000     
   1.00000000000000     
   1.00000000000000     
   1.00000000000000     
   1.00000000000000     
   1.00000000000000     
   1.00000000000000     
   1.00000000000000     
   1.00000000000000     
   1.00000000000000     
   1.00000000000000     
   1.00000000000000     
   1.00000000000000     
   1.00000000000000     
   1.00000000000000     
   1.00000000000000     
   1.00000000000000     
   1.00000000000000     
   1.00000000000000     
   1.00000000000000     
   1.00000000000000     
   1.00000000000000     
   1.00000000000000     
   1.00000000000000     
   1.00000000000000     
   1.00000000000000     
   1.00000000000000     
   1.00000000000000     
   1.00000000000000     
   1.00000000000000     
   1.00000000000000     
   1.00000000000000     
   1.00000000000000     
   1.00000000000000     
   1.00000000000000     
   1.00000000000000     
   1.00000000000000     
   1.00000000000000     
   1.00000000000000     
   1.00000000000000     
   1.00000000000000     
   1.00000000000000     
   1.00000000000000     
   1.00000000000000     
   1.00000000000000     
   1.00000000000000     
   1.00000000000000     
   1.00000000000000     
   1.00000000000000     
   1.00000000000000     
   1.00000000000000     
   1.00000000000000     
   1.00000000000000     
   1.00000000000000     
   1.00000000000000     
   1.00000000000000     
   1.00000000000000     
   1.00000000000000     
