# vtk DataFile Version 3.0
vtk output
ASCII
DATASET UNSTRUCTURED_GRID
POINTS       496 double 
  0.00000000E+00  3.00000000E+02  0.00000000E+00
  0.00000000E+00  2.80000000E+02  0.00000000E+00
  0.00000000E+00  2.60000000E+02  0.00000000E+00
  0.00000000E+00  2.40000000E+02  0.00000000E+00
  0.00000000E+00  2.20000000E+02  0.00000000E+00
  0.00000000E+00  2.00000000E+02  0.00000000E+00
  0.00000000E+00  1.80000000E+02  0.00000000E+00
  0.00000000E+00  1.60000000E+02  0.00000000E+00
  0.00000000E+00  1.40000000E+02  0.00000000E+00
  0.00000000E+00  1.20000000E+02  0.00000000E+00
  0.00000000E+00  1.00000000E+02  0.00000000E+00
  0.00000000E+00  8.00000000E+01  0.00000000E+00
  0.00000000E+00  6.00000000E+01  0.00000000E+00
  0.00000000E+00  4.00000000E+01  0.00000000E+00
  0.00000000E+00  2.00000000E+01  0.00000000E+00
  0.00000000E+00  4.99600361E-14  0.00000000E+00
  2.00000000E+01  3.00000000E+02  0.00000000E+00
  2.00000000E+01  2.80000000E+02  0.00000000E+00
  2.00000000E+01  2.60000000E+02  0.00000000E+00
  2.00000000E+01  2.40000000E+02  0.00000000E+00
  2.00000000E+01  2.20000000E+02  0.00000000E+00
  2.00000000E+01  2.00000000E+02  0.00000000E+00
  2.00000000E+01  1.80000000E+02  0.00000000E+00
  2.00000000E+01  1.60000000E+02  0.00000000E+00
  2.00000000E+01  1.40000000E+02  0.00000000E+00
  2.00000000E+01  1.20000000E+02  0.00000000E+00
  2.00000000E+01  1.00000000E+02  0.00000000E+00
  2.00000000E+01  8.00000000E+01  0.00000000E+00
  2.00000000E+01  6.00000000E+01  0.00000000E+00
  2.00000000E+01  4.00000000E+01  0.00000000E+00
  2.00000000E+01  2.00000000E+01  0.00000000E+00
  2.00000000E+01  4.99600361E-14  0.00000000E+00
  4.00000000E+01  3.00000000E+02  0.00000000E+00
  4.00000000E+01  2.80000000E+02  0.00000000E+00
  4.00000000E+01  2.60000000E+02  0.00000000E+00
  4.00000000E+01  2.40000000E+02  0.00000000E+00
  4.00000000E+01  2.20000000E+02  0.00000000E+00
  4.00000000E+01  2.00000000E+02  0.00000000E+00
  4.00000000E+01  1.80000000E+02  0.00000000E+00
  4.00000000E+01  1.60000000E+02  0.00000000E+00
  4.00000000E+01  1.40000000E+02  0.00000000E+00
  4.00000000E+01  1.20000000E+02  0.00000000E+00
  4.00000000E+01  1.00000000E+02  0.00000000E+00
  4.00000000E+01  8.00000000E+01  0.00000000E+00
  4.00000000E+01  6.00000000E+01  0.00000000E+00
  4.00000000E+01  4.00000000E+01  0.00000000E+00
  4.00000000E+01  2.00000000E+01  0.00000000E+00
  4.00000000E+01  4.99600361E-14  0.00000000E+00
  6.00000000E+01  3.00000000E+02  0.00000000E+00
  6.00000000E+01  2.80000000E+02  0.00000000E+00
  6.00000000E+01  2.60000000E+02  0.00000000E+00
  6.00000000E+01  2.40000000E+02  0.00000000E+00
  6.00000000E+01  2.20000000E+02  0.00000000E+00
  6.00000000E+01  2.00000000E+02  0.00000000E+00
  6.00000000E+01  1.80000000E+02  0.00000000E+00
  6.00000000E+01  1.60000000E+02  0.00000000E+00
  6.00000000E+01  1.40000000E+02  0.00000000E+00
  6.00000000E+01  1.20000000E+02  0.00000000E+00
  6.00000000E+01  1.00000000E+02  0.00000000E+00
  6.00000000E+01  8.00000000E+01  0.00000000E+00
  6.00000000E+01  6.00000000E+01  0.00000000E+00
  6.00000000E+01  4.00000000E+01  0.00000000E+00
  6.00000000E+01  2.00000000E+01  0.00000000E+00
  6.00000000E+01  4.99600361E-14  0.00000000E+00
  8.00000000E+01  3.00000000E+02  0.00000000E+00
  8.00000000E+01  2.80000000E+02  0.00000000E+00
  8.00000000E+01  2.60000000E+02  0.00000000E+00
  8.00000000E+01  2.40000000E+02  0.00000000E+00
  8.00000000E+01  2.20000000E+02  0.00000000E+00
  8.00000000E+01  2.00000000E+02  0.00000000E+00
  8.00000000E+01  1.80000000E+02  0.00000000E+00
  8.00000000E+01  1.60000000E+02  0.00000000E+00
  8.00000000E+01  1.40000000E+02  0.00000000E+00
  8.00000000E+01  1.20000000E+02  0.00000000E+00
  8.00000000E+01  1.00000000E+02  0.00000000E+00
  8.00000000E+01  8.00000000E+01  0.00000000E+00
  8.00000000E+01  6.00000000E+01  0.00000000E+00
  8.00000000E+01  4.00000000E+01  0.00000000E+00
  8.00000000E+01  2.00000000E+01  0.00000000E+00
  8.00000000E+01  4.99600361E-14  0.00000000E+00
  1.00000000E+02  3.00000000E+02  0.00000000E+00
  1.00000000E+02  2.80000000E+02  0.00000000E+00
  1.00000000E+02  2.60000000E+02  0.00000000E+00
  1.00000000E+02  2.40000000E+02  0.00000000E+00
  1.00000000E+02  2.20000000E+02  0.00000000E+00
  1.00000000E+02  2.00000000E+02  0.00000000E+00
  1.00000000E+02  1.80000000E+02  0.00000000E+00
  1.00000000E+02  1.60000000E+02  0.00000000E+00
  1.00000000E+02  1.40000000E+02  0.00000000E+00
  1.00000000E+02  1.20000000E+02  0.00000000E+00
  1.00000000E+02  1.00000000E+02  0.00000000E+00
  1.00000000E+02  8.00000000E+01  0.00000000E+00
  1.00000000E+02  6.00000000E+01  0.00000000E+00
  1.00000000E+02  4.00000000E+01  0.00000000E+00
  1.00000000E+02  2.00000000E+01  0.00000000E+00
  1.00000000E+02  4.99600361E-14  0.00000000E+00
  1.20000000E+02  3.00000000E+02  0.00000000E+00
  1.20000000E+02  2.80000000E+02  0.00000000E+00
  1.20000000E+02  2.60000000E+02  0.00000000E+00
  1.20000000E+02  2.40000000E+02  0.00000000E+00
  1.20000000E+02  2.20000000E+02  0.00000000E+00
  1.20000000E+02  2.00000000E+02  0.00000000E+00
  1.20000000E+02  1.80000000E+02  0.00000000E+00
  1.20000000E+02  1.60000000E+02  0.00000000E+00
  1.20000000E+02  1.40000000E+02  0.00000000E+00
  1.20000000E+02  1.20000000E+02  0.00000000E+00
  1.20000000E+02  1.00000000E+02  0.00000000E+00
  1.20000000E+02  8.00000000E+01  0.00000000E+00
  1.20000000E+02  6.00000000E+01  0.00000000E+00
  1.20000000E+02  4.00000000E+01  0.00000000E+00
  1.20000000E+02  2.00000000E+01  0.00000000E+00
  1.20000000E+02  4.99600361E-14  0.00000000E+00
  1.40000000E+02  3.00000000E+02  0.00000000E+00
  1.40000000E+02  2.80000000E+02  0.00000000E+00
  1.40000000E+02  2.60000000E+02  0.00000000E+00
  1.40000000E+02  2.40000000E+02  0.00000000E+00
  1.40000000E+02  2.20000000E+02  0.00000000E+00
  1.40000000E+02  2.00000000E+02  0.00000000E+00
  1.40000000E+02  1.80000000E+02  0.00000000E+00
  1.40000000E+02  1.60000000E+02  0.00000000E+00
  1.40000000E+02  1.40000000E+02  0.00000000E+00
  1.40000000E+02  1.20000000E+02  0.00000000E+00
  1.40000000E+02  1.00000000E+02  0.00000000E+00
  1.40000000E+02  8.00000000E+01  0.00000000E+00
  1.40000000E+02  6.00000000E+01  0.00000000E+00
  1.40000000E+02  4.00000000E+01  0.00000000E+00
  1.40000000E+02  2.00000000E+01  0.00000000E+00
  1.40000000E+02  4.99600361E-14  0.00000000E+00
  1.60000000E+02  3.00000000E+02  0.00000000E+00
  1.60000000E+02  2.80000000E+02  0.00000000E+00
  1.60000000E+02  2.60000000E+02  0.00000000E+00
  1.60000000E+02  2.40000000E+02  0.00000000E+00
  1.60000000E+02  2.20000000E+02  0.00000000E+00
  1.60000000E+02  2.00000000E+02  0.00000000E+00
  1.60000000E+02  1.80000000E+02  0.00000000E+00
  1.60000000E+02  1.60000000E+02  0.00000000E+00
  1.60000000E+02  1.40000000E+02  0.00000000E+00
  1.60000000E+02  1.20000000E+02  0.00000000E+00
  1.60000000E+02  1.00000000E+02  0.00000000E+00
  1.60000000E+02  8.00000000E+01  0.00000000E+00
  1.60000000E+02  6.00000000E+01  0.00000000E+00
  1.60000000E+02  4.00000000E+01  0.00000000E+00
  1.60000000E+02  2.00000000E+01  0.00000000E+00
  1.60000000E+02  4.99600361E-14  0.00000000E+00
  1.80000000E+02  3.00000000E+02  0.00000000E+00
  1.80000000E+02  2.80000000E+02  0.00000000E+00
  1.80000000E+02  2.60000000E+02  0.00000000E+00
  1.80000000E+02  2.40000000E+02  0.00000000E+00
  1.80000000E+02  2.20000000E+02  0.00000000E+00
  1.80000000E+02  2.00000000E+02  0.00000000E+00
  1.80000000E+02  1.80000000E+02  0.00000000E+00
  1.80000000E+02  1.60000000E+02  0.00000000E+00
  1.80000000E+02  1.40000000E+02  0.00000000E+00
  1.80000000E+02  1.20000000E+02  0.00000000E+00
  1.80000000E+02  1.00000000E+02  0.00000000E+00
  1.80000000E+02  8.00000000E+01  0.00000000E+00
  1.80000000E+02  6.00000000E+01  0.00000000E+00
  1.80000000E+02  4.00000000E+01  0.00000000E+00
  1.80000000E+02  2.00000000E+01  0.00000000E+00
  1.80000000E+02  4.99600361E-14  0.00000000E+00
  2.00000000E+02  3.00000000E+02  0.00000000E+00
  2.00000000E+02  2.80000000E+02  0.00000000E+00
  2.00000000E+02  2.60000000E+02  0.00000000E+00
  2.00000000E+02  2.40000000E+02  0.00000000E+00
  2.00000000E+02  2.20000000E+02  0.00000000E+00
  2.00000000E+02  2.00000000E+02  0.00000000E+00
  2.00000000E+02  1.80000000E+02  0.00000000E+00
  2.00000000E+02  1.60000000E+02  0.00000000E+00
  2.00000000E+02  1.40000000E+02  0.00000000E+00
  2.00000000E+02  1.20000000E+02  0.00000000E+00
  2.00000000E+02  1.00000000E+02  0.00000000E+00
  2.00000000E+02  8.00000000E+01  0.00000000E+00
  2.00000000E+02  6.00000000E+01  0.00000000E+00
  2.00000000E+02  4.00000000E+01  0.00000000E+00
  2.00000000E+02  2.00000000E+01  0.00000000E+00
  2.00000000E+02  4.99600361E-14  0.00000000E+00
  2.20000000E+02  3.00000000E+02  0.00000000E+00
  2.20000000E+02  2.80000000E+02  0.00000000E+00
  2.20000000E+02  2.60000000E+02  0.00000000E+00
  2.20000000E+02  2.40000000E+02  0.00000000E+00
  2.20000000E+02  2.20000000E+02  0.00000000E+00
  2.20000000E+02  2.00000000E+02  0.00000000E+00
  2.20000000E+02  1.80000000E+02  0.00000000E+00
  2.20000000E+02  1.60000000E+02  0.00000000E+00
  2.20000000E+02  1.40000000E+02  0.00000000E+00
  2.20000000E+02  1.20000000E+02  0.00000000E+00
  2.20000000E+02  1.00000000E+02  0.00000000E+00
  2.20000000E+02  8.00000000E+01  0.00000000E+00
  2.20000000E+02  6.00000000E+01  0.00000000E+00
  2.20000000E+02  4.00000000E+01  0.00000000E+00
  2.20000000E+02  2.00000000E+01  0.00000000E+00
  2.20000000E+02  4.99600361E-14  0.00000000E+00
  2.40000000E+02  3.00000000E+02  0.00000000E+00
  2.40000000E+02  2.80000000E+02  0.00000000E+00
  2.40000000E+02  2.60000000E+02  0.00000000E+00
  2.40000000E+02  2.40000000E+02  0.00000000E+00
  2.40000000E+02  2.20000000E+02  0.00000000E+00
  2.40000000E+02  2.00000000E+02  0.00000000E+00
  2.40000000E+02  1.80000000E+02  0.00000000E+00
  2.40000000E+02  1.60000000E+02  0.00000000E+00
  2.40000000E+02  1.40000000E+02  0.00000000E+00
  2.40000000E+02  1.20000000E+02  0.00000000E+00
  2.40000000E+02  1.00000000E+02  0.00000000E+00
  2.40000000E+02  8.00000000E+01  0.00000000E+00
  2.40000000E+02  6.00000000E+01  0.00000000E+00
  2.40000000E+02  4.00000000E+01  0.00000000E+00
  2.40000000E+02  2.00000000E+01  0.00000000E+00
  2.40000000E+02  4.99600361E-14  0.00000000E+00
  2.60000000E+02  3.00000000E+02  0.00000000E+00
  2.60000000E+02  2.80000000E+02  0.00000000E+00
  2.60000000E+02  2.60000000E+02  0.00000000E+00
  2.60000000E+02  2.40000000E+02  0.00000000E+00
  2.60000000E+02  2.20000000E+02  0.00000000E+00
  2.60000000E+02  2.00000000E+02  0.00000000E+00
  2.60000000E+02  1.80000000E+02  0.00000000E+00
  2.60000000E+02  1.60000000E+02  0.00000000E+00
  2.60000000E+02  1.40000000E+02  0.00000000E+00
  2.60000000E+02  1.20000000E+02  0.00000000E+00
  2.60000000E+02  1.00000000E+02  0.00000000E+00
  2.60000000E+02  8.00000000E+01  0.00000000E+00
  2.60000000E+02  6.00000000E+01  0.00000000E+00
  2.60000000E+02  4.00000000E+01  0.00000000E+00
  2.60000000E+02  2.00000000E+01  0.00000000E+00
  2.60000000E+02  4.99600361E-14  0.00000000E+00
  2.80000000E+02  3.00000000E+02  0.00000000E+00
  2.80000000E+02  2.80000000E+02  0.00000000E+00
  2.80000000E+02  2.60000000E+02  0.00000000E+00
  2.80000000E+02  2.40000000E+02  0.00000000E+00
  2.80000000E+02  2.20000000E+02  0.00000000E+00
  2.80000000E+02  2.00000000E+02  0.00000000E+00
  2.80000000E+02  1.80000000E+02  0.00000000E+00
  2.80000000E+02  1.60000000E+02  0.00000000E+00
  2.80000000E+02  1.40000000E+02  0.00000000E+00
  2.80000000E+02  1.20000000E+02  0.00000000E+00
  2.80000000E+02  1.00000000E+02  0.00000000E+00
  2.80000000E+02  8.00000000E+01  0.00000000E+00
  2.80000000E+02  6.00000000E+01  0.00000000E+00
  2.80000000E+02  4.00000000E+01  0.00000000E+00
  2.80000000E+02  2.00000000E+01  0.00000000E+00
  2.80000000E+02  4.99600361E-14  0.00000000E+00
  3.00000000E+02  3.00000000E+02  0.00000000E+00
  3.00000000E+02  2.80000000E+02  0.00000000E+00
  3.00000000E+02  2.60000000E+02  0.00000000E+00
  3.00000000E+02  2.40000000E+02  0.00000000E+00
  3.00000000E+02  2.20000000E+02  0.00000000E+00
  3.00000000E+02  2.00000000E+02  0.00000000E+00
  3.00000000E+02  1.80000000E+02  0.00000000E+00
  3.00000000E+02  1.60000000E+02  0.00000000E+00
  3.00000000E+02  1.40000000E+02  0.00000000E+00
  3.00000000E+02  1.20000000E+02  0.00000000E+00
  3.00000000E+02  1.00000000E+02  0.00000000E+00
  3.00000000E+02  8.00000000E+01  0.00000000E+00
  3.00000000E+02  6.00000000E+01  0.00000000E+00
  3.00000000E+02  4.00000000E+01  0.00000000E+00
  3.00000000E+02  2.00000000E+01  0.00000000E+00
  3.00000000E+02  4.99600361E-14  0.00000000E+00
  3.20000000E+02  3.00000000E+02  0.00000000E+00
  3.20000000E+02  2.80000000E+02  0.00000000E+00
  3.20000000E+02  2.60000000E+02  0.00000000E+00
  3.20000000E+02  2.40000000E+02  0.00000000E+00
  3.20000000E+02  2.20000000E+02  0.00000000E+00
  3.20000000E+02  2.00000000E+02  0.00000000E+00
  3.20000000E+02  1.80000000E+02  0.00000000E+00
  3.20000000E+02  1.60000000E+02  0.00000000E+00
  3.20000000E+02  1.40000000E+02  0.00000000E+00
  3.20000000E+02  1.20000000E+02  0.00000000E+00
  3.20000000E+02  1.00000000E+02  0.00000000E+00
  3.20000000E+02  8.00000000E+01  0.00000000E+00
  3.20000000E+02  6.00000000E+01  0.00000000E+00
  3.20000000E+02  4.00000000E+01  0.00000000E+00
  3.20000000E+02  2.00000000E+01  0.00000000E+00
  3.20000000E+02  4.99600361E-14  0.00000000E+00
  3.40000000E+02  3.00000000E+02  0.00000000E+00
  3.40000000E+02  2.80000000E+02  0.00000000E+00
  3.40000000E+02  2.60000000E+02  0.00000000E+00
  3.40000000E+02  2.40000000E+02  0.00000000E+00
  3.40000000E+02  2.20000000E+02  0.00000000E+00
  3.40000000E+02  2.00000000E+02  0.00000000E+00
  3.40000000E+02  1.80000000E+02  0.00000000E+00
  3.40000000E+02  1.60000000E+02  0.00000000E+00
  3.40000000E+02  1.40000000E+02  0.00000000E+00
  3.40000000E+02  1.20000000E+02  0.00000000E+00
  3.40000000E+02  1.00000000E+02  0.00000000E+00
  3.40000000E+02  8.00000000E+01  0.00000000E+00
  3.40000000E+02  6.00000000E+01  0.00000000E+00
  3.40000000E+02  4.00000000E+01  0.00000000E+00
  3.40000000E+02  2.00000000E+01  0.00000000E+00
  3.40000000E+02  4.99600361E-14  0.00000000E+00
  3.60000000E+02  3.00000000E+02  0.00000000E+00
  3.60000000E+02  2.80000000E+02  0.00000000E+00
  3.60000000E+02  2.60000000E+02  0.00000000E+00
  3.60000000E+02  2.40000000E+02  0.00000000E+00
  3.60000000E+02  2.20000000E+02  0.00000000E+00
  3.60000000E+02  2.00000000E+02  0.00000000E+00
  3.60000000E+02  1.80000000E+02  0.00000000E+00
  3.60000000E+02  1.60000000E+02  0.00000000E+00
  3.60000000E+02  1.40000000E+02  0.00000000E+00
  3.60000000E+02  1.20000000E+02  0.00000000E+00
  3.60000000E+02  1.00000000E+02  0.00000000E+00
  3.60000000E+02  8.00000000E+01  0.00000000E+00
  3.60000000E+02  6.00000000E+01  0.00000000E+00
  3.60000000E+02  4.00000000E+01  0.00000000E+00
  3.60000000E+02  2.00000000E+01  0.00000000E+00
  3.60000000E+02  4.99600361E-14  0.00000000E+00
  3.80000000E+02  3.00000000E+02  0.00000000E+00
  3.80000000E+02  2.80000000E+02  0.00000000E+00
  3.80000000E+02  2.60000000E+02  0.00000000E+00
  3.80000000E+02  2.40000000E+02  0.00000000E+00
  3.80000000E+02  2.20000000E+02  0.00000000E+00
  3.80000000E+02  2.00000000E+02  0.00000000E+00
  3.80000000E+02  1.80000000E+02  0.00000000E+00
  3.80000000E+02  1.60000000E+02  0.00000000E+00
  3.80000000E+02  1.40000000E+02  0.00000000E+00
  3.80000000E+02  1.20000000E+02  0.00000000E+00
  3.80000000E+02  1.00000000E+02  0.00000000E+00
  3.80000000E+02  8.00000000E+01  0.00000000E+00
  3.80000000E+02  6.00000000E+01  0.00000000E+00
  3.80000000E+02  4.00000000E+01  0.00000000E+00
  3.80000000E+02  2.00000000E+01  0.00000000E+00
  3.80000000E+02  4.99600361E-14  0.00000000E+00
  4.00000000E+02  3.00000000E+02  0.00000000E+00
  4.00000000E+02  2.80000000E+02  0.00000000E+00
  4.00000000E+02  2.60000000E+02  0.00000000E+00
  4.00000000E+02  2.40000000E+02  0.00000000E+00
  4.00000000E+02  2.20000000E+02  0.00000000E+00
  4.00000000E+02  2.00000000E+02  0.00000000E+00
  4.00000000E+02  1.80000000E+02  0.00000000E+00
  4.00000000E+02  1.60000000E+02  0.00000000E+00
  4.00000000E+02  1.40000000E+02  0.00000000E+00
  4.00000000E+02  1.20000000E+02  0.00000000E+00
  4.00000000E+02  1.00000000E+02  0.00000000E+00
  4.00000000E+02  8.00000000E+01  0.00000000E+00
  4.00000000E+02  6.00000000E+01  0.00000000E+00
  4.00000000E+02  4.00000000E+01  0.00000000E+00
  4.00000000E+02  2.00000000E+01  0.00000000E+00
  4.00000000E+02  4.99600361E-14  0.00000000E+00
  4.20000000E+02  3.00000000E+02  0.00000000E+00
  4.20000000E+02  2.80000000E+02  0.00000000E+00
  4.20000000E+02  2.60000000E+02  0.00000000E+00
  4.20000000E+02  2.40000000E+02  0.00000000E+00
  4.20000000E+02  2.20000000E+02  0.00000000E+00
  4.20000000E+02  2.00000000E+02  0.00000000E+00
  4.20000000E+02  1.80000000E+02  0.00000000E+00
  4.20000000E+02  1.60000000E+02  0.00000000E+00
  4.20000000E+02  1.40000000E+02  0.00000000E+00
  4.20000000E+02  1.20000000E+02  0.00000000E+00
  4.20000000E+02  1.00000000E+02  0.00000000E+00
  4.20000000E+02  8.00000000E+01  0.00000000E+00
  4.20000000E+02  6.00000000E+01  0.00000000E+00
  4.20000000E+02  4.00000000E+01  0.00000000E+00
  4.20000000E+02  2.00000000E+01  0.00000000E+00
  4.20000000E+02  4.99600361E-14  0.00000000E+00
  4.40000000E+02  3.00000000E+02  0.00000000E+00
  4.40000000E+02  2.80000000E+02  0.00000000E+00
  4.40000000E+02  2.60000000E+02  0.00000000E+00
  4.40000000E+02  2.40000000E+02  0.00000000E+00
  4.40000000E+02  2.20000000E+02  0.00000000E+00
  4.40000000E+02  2.00000000E+02  0.00000000E+00
  4.40000000E+02  1.80000000E+02  0.00000000E+00
  4.40000000E+02  1.60000000E+02  0.00000000E+00
  4.40000000E+02  1.40000000E+02  0.00000000E+00
  4.40000000E+02  1.20000000E+02  0.00000000E+00
  4.40000000E+02  1.00000000E+02  0.00000000E+00
  4.40000000E+02  8.00000000E+01  0.00000000E+00
  4.40000000E+02  6.00000000E+01  0.00000000E+00
  4.40000000E+02  4.00000000E+01  0.00000000E+00
  4.40000000E+02  2.00000000E+01  0.00000000E+00
  4.40000000E+02  4.99600361E-14  0.00000000E+00
  4.60000000E+02  3.00000000E+02  0.00000000E+00
  4.60000000E+02  2.80000000E+02  0.00000000E+00
  4.60000000E+02  2.60000000E+02  0.00000000E+00
  4.60000000E+02  2.40000000E+02  0.00000000E+00
  4.60000000E+02  2.20000000E+02  0.00000000E+00
  4.60000000E+02  2.00000000E+02  0.00000000E+00
  4.60000000E+02  1.80000000E+02  0.00000000E+00
  4.60000000E+02  1.60000000E+02  0.00000000E+00
  4.60000000E+02  1.40000000E+02  0.00000000E+00
  4.60000000E+02  1.20000000E+02  0.00000000E+00
  4.60000000E+02  1.00000000E+02  0.00000000E+00
  4.60000000E+02  8.00000000E+01  0.00000000E+00
  4.60000000E+02  6.00000000E+01  0.00000000E+00
  4.60000000E+02  4.00000000E+01  0.00000000E+00
  4.60000000E+02  2.00000000E+01  0.00000000E+00
  4.60000000E+02  4.99600361E-14  0.00000000E+00
  4.80000000E+02  3.00000000E+02  0.00000000E+00
  4.80000000E+02  2.80000000E+02  0.00000000E+00
  4.80000000E+02  2.60000000E+02  0.00000000E+00
  4.80000000E+02  2.40000000E+02  0.00000000E+00
  4.80000000E+02  2.20000000E+02  0.00000000E+00
  4.80000000E+02  2.00000000E+02  0.00000000E+00
  4.80000000E+02  1.80000000E+02  0.00000000E+00
  4.80000000E+02  1.60000000E+02  0.00000000E+00
  4.80000000E+02  1.40000000E+02  0.00000000E+00
  4.80000000E+02  1.20000000E+02  0.00000000E+00
  4.80000000E+02  1.00000000E+02  0.00000000E+00
  4.80000000E+02  8.00000000E+01  0.00000000E+00
  4.80000000E+02  6.00000000E+01  0.00000000E+00
  4.80000000E+02  4.00000000E+01  0.00000000E+00
  4.80000000E+02  2.00000000E+01  0.00000000E+00
  4.80000000E+02  4.99600361E-14  0.00000000E+00
  5.00000000E+02  3.00000000E+02  0.00000000E+00
  5.00000000E+02  2.80000000E+02  0.00000000E+00
  5.00000000E+02  2.60000000E+02  0.00000000E+00
  5.00000000E+02  2.40000000E+02  0.00000000E+00
  5.00000000E+02  2.20000000E+02  0.00000000E+00
  5.00000000E+02  2.00000000E+02  0.00000000E+00
  5.00000000E+02  1.80000000E+02  0.00000000E+00
  5.00000000E+02  1.60000000E+02  0.00000000E+00
  5.00000000E+02  1.40000000E+02  0.00000000E+00
  5.00000000E+02  1.20000000E+02  0.00000000E+00
  5.00000000E+02  1.00000000E+02  0.00000000E+00
  5.00000000E+02  8.00000000E+01  0.00000000E+00
  5.00000000E+02  6.00000000E+01  0.00000000E+00
  5.00000000E+02  4.00000000E+01  0.00000000E+00
  5.00000000E+02  2.00000000E+01  0.00000000E+00
  5.00000000E+02  4.99600361E-14  0.00000000E+00
  5.20000000E+02  3.00000000E+02  0.00000000E+00
  5.20000000E+02  2.80000000E+02  0.00000000E+00
  5.20000000E+02  2.60000000E+02  0.00000000E+00
  5.20000000E+02  2.40000000E+02  0.00000000E+00
  5.20000000E+02  2.20000000E+02  0.00000000E+00
  5.20000000E+02  2.00000000E+02  0.00000000E+00
  5.20000000E+02  1.80000000E+02  0.00000000E+00
  5.20000000E+02  1.60000000E+02  0.00000000E+00
  5.20000000E+02  1.40000000E+02  0.00000000E+00
  5.20000000E+02  1.20000000E+02  0.00000000E+00
  5.20000000E+02  1.00000000E+02  0.00000000E+00
  5.20000000E+02  8.00000000E+01  0.00000000E+00
  5.20000000E+02  6.00000000E+01  0.00000000E+00
  5.20000000E+02  4.00000000E+01  0.00000000E+00
  5.20000000E+02  2.00000000E+01  0.00000000E+00
  5.20000000E+02  4.99600361E-14  0.00000000E+00
  5.40000000E+02  3.00000000E+02  0.00000000E+00
  5.40000000E+02  2.80000000E+02  0.00000000E+00
  5.40000000E+02  2.60000000E+02  0.00000000E+00
  5.40000000E+02  2.40000000E+02  0.00000000E+00
  5.40000000E+02  2.20000000E+02  0.00000000E+00
  5.40000000E+02  2.00000000E+02  0.00000000E+00
  5.40000000E+02  1.80000000E+02  0.00000000E+00
  5.40000000E+02  1.60000000E+02  0.00000000E+00
  5.40000000E+02  1.40000000E+02  0.00000000E+00
  5.40000000E+02  1.20000000E+02  0.00000000E+00
  5.40000000E+02  1.00000000E+02  0.00000000E+00
  5.40000000E+02  8.00000000E+01  0.00000000E+00
  5.40000000E+02  6.00000000E+01  0.00000000E+00
  5.40000000E+02  4.00000000E+01  0.00000000E+00
  5.40000000E+02  2.00000000E+01  0.00000000E+00
  5.40000000E+02  4.99600361E-14  0.00000000E+00
  5.60000000E+02  3.00000000E+02  0.00000000E+00
  5.60000000E+02  2.80000000E+02  0.00000000E+00
  5.60000000E+02  2.60000000E+02  0.00000000E+00
  5.60000000E+02  2.40000000E+02  0.00000000E+00
  5.60000000E+02  2.20000000E+02  0.00000000E+00
  5.60000000E+02  2.00000000E+02  0.00000000E+00
  5.60000000E+02  1.80000000E+02  0.00000000E+00
  5.60000000E+02  1.60000000E+02  0.00000000E+00
  5.60000000E+02  1.40000000E+02  0.00000000E+00
  5.60000000E+02  1.20000000E+02  0.00000000E+00
  5.60000000E+02  1.00000000E+02  0.00000000E+00
  5.60000000E+02  8.00000000E+01  0.00000000E+00
  5.60000000E+02  6.00000000E+01  0.00000000E+00
  5.60000000E+02  4.00000000E+01  0.00000000E+00
  5.60000000E+02  2.00000000E+01  0.00000000E+00
  5.60000000E+02  4.99600361E-14  0.00000000E+00
  5.80000000E+02  3.00000000E+02  0.00000000E+00
  5.80000000E+02  2.80000000E+02  0.00000000E+00
  5.80000000E+02  2.60000000E+02  0.00000000E+00
  5.80000000E+02  2.40000000E+02  0.00000000E+00
  5.80000000E+02  2.20000000E+02  0.00000000E+00
  5.80000000E+02  2.00000000E+02  0.00000000E+00
  5.80000000E+02  1.80000000E+02  0.00000000E+00
  5.80000000E+02  1.60000000E+02  0.00000000E+00
  5.80000000E+02  1.40000000E+02  0.00000000E+00
  5.80000000E+02  1.20000000E+02  0.00000000E+00
  5.80000000E+02  1.00000000E+02  0.00000000E+00
  5.80000000E+02  8.00000000E+01  0.00000000E+00
  5.80000000E+02  6.00000000E+01  0.00000000E+00
  5.80000000E+02  4.00000000E+01  0.00000000E+00
  5.80000000E+02  2.00000000E+01  0.00000000E+00
  5.80000000E+02  4.99600361E-14  0.00000000E+00
  6.00000000E+02  3.00000000E+02  0.00000000E+00
  6.00000000E+02  2.80000000E+02  0.00000000E+00
  6.00000000E+02  2.60000000E+02  0.00000000E+00
  6.00000000E+02  2.40000000E+02  0.00000000E+00
  6.00000000E+02  2.20000000E+02  0.00000000E+00
  6.00000000E+02  2.00000000E+02  0.00000000E+00
  6.00000000E+02  1.80000000E+02  0.00000000E+00
  6.00000000E+02  1.60000000E+02  0.00000000E+00
  6.00000000E+02  1.40000000E+02  0.00000000E+00
  6.00000000E+02  1.20000000E+02  0.00000000E+00
  6.00000000E+02  1.00000000E+02  0.00000000E+00
  6.00000000E+02  8.00000000E+01  0.00000000E+00
  6.00000000E+02  6.00000000E+01  0.00000000E+00
  6.00000000E+02  4.00000000E+01  0.00000000E+00
  6.00000000E+02  2.00000000E+01  0.00000000E+00
  6.00000000E+02  4.99600361E-14  0.00000000E+00
CELLS       450      2250
         4           0           1          17          16
         4           1           2          18          17
         4           2           3          19          18
         4           3           4          20          19
         4           4           5          21          20
         4           5           6          22          21
         4           6           7          23          22
         4           7           8          24          23
         4           8           9          25          24
         4           9          10          26          25
         4          10          11          27          26
         4          11          12          28          27
         4          12          13          29          28
         4          13          14          30          29
         4          14          15          31          30
         4          16          17          33          32
         4          17          18          34          33
         4          18          19          35          34
         4          19          20          36          35
         4          20          21          37          36
         4          21          22          38          37
         4          22          23          39          38
         4          23          24          40          39
         4          24          25          41          40
         4          25          26          42          41
         4          26          27          43          42
         4          27          28          44          43
         4          28          29          45          44
         4          29          30          46          45
         4          30          31          47          46
         4          32          33          49          48
         4          33          34          50          49
         4          34          35          51          50
         4          35          36          52          51
         4          36          37          53          52
         4          37          38          54          53
         4          38          39          55          54
         4          39          40          56          55
         4          40          41          57          56
         4          41          42          58          57
         4          42          43          59          58
         4          43          44          60          59
         4          44          45          61          60
         4          45          46          62          61
         4          46          47          63          62
         4          48          49          65          64
         4          49          50          66          65
         4          50          51          67          66
         4          51          52          68          67
         4          52          53          69          68
         4          53          54          70          69
         4          54          55          71          70
         4          55          56          72          71
         4          56          57          73          72
         4          57          58          74          73
         4          58          59          75          74
         4          59          60          76          75
         4          60          61          77          76
         4          61          62          78          77
         4          62          63          79          78
         4          64          65          81          80
         4          65          66          82          81
         4          66          67          83          82
         4          67          68          84          83
         4          68          69          85          84
         4          69          70          86          85
         4          70          71          87          86
         4          71          72          88          87
         4          72          73          89          88
         4          73          74          90          89
         4          74          75          91          90
         4          75          76          92          91
         4          76          77          93          92
         4          77          78          94          93
         4          78          79          95          94
         4          80          81          97          96
         4          81          82          98          97
         4          82          83          99          98
         4          83          84         100          99
         4          84          85         101         100
         4          85          86         102         101
         4          86          87         103         102
         4          87          88         104         103
         4          88          89         105         104
         4          89          90         106         105
         4          90          91         107         106
         4          91          92         108         107
         4          92          93         109         108
         4          93          94         110         109
         4          94          95         111         110
         4          96          97         113         112
         4          97          98         114         113
         4          98          99         115         114
         4          99         100         116         115
         4         100         101         117         116
         4         101         102         118         117
         4         102         103         119         118
         4         103         104         120         119
         4         104         105         121         120
         4         105         106         122         121
         4         106         107         123         122
         4         107         108         124         123
         4         108         109         125         124
         4         109         110         126         125
         4         110         111         127         126
         4         112         113         129         128
         4         113         114         130         129
         4         114         115         131         130
         4         115         116         132         131
         4         116         117         133         132
         4         117         118         134         133
         4         118         119         135         134
         4         119         120         136         135
         4         120         121         137         136
         4         121         122         138         137
         4         122         123         139         138
         4         123         124         140         139
         4         124         125         141         140
         4         125         126         142         141
         4         126         127         143         142
         4         128         129         145         144
         4         129         130         146         145
         4         130         131         147         146
         4         131         132         148         147
         4         132         133         149         148
         4         133         134         150         149
         4         134         135         151         150
         4         135         136         152         151
         4         136         137         153         152
         4         137         138         154         153
         4         138         139         155         154
         4         139         140         156         155
         4         140         141         157         156
         4         141         142         158         157
         4         142         143         159         158
         4         144         145         161         160
         4         145         146         162         161
         4         146         147         163         162
         4         147         148         164         163
         4         148         149         165         164
         4         149         150         166         165
         4         150         151         167         166
         4         151         152         168         167
         4         152         153         169         168
         4         153         154         170         169
         4         154         155         171         170
         4         155         156         172         171
         4         156         157         173         172
         4         157         158         174         173
         4         158         159         175         174
         4         160         161         177         176
         4         161         162         178         177
         4         162         163         179         178
         4         163         164         180         179
         4         164         165         181         180
         4         165         166         182         181
         4         166         167         183         182
         4         167         168         184         183
         4         168         169         185         184
         4         169         170         186         185
         4         170         171         187         186
         4         171         172         188         187
         4         172         173         189         188
         4         173         174         190         189
         4         174         175         191         190
         4         176         177         193         192
         4         177         178         194         193
         4         178         179         195         194
         4         179         180         196         195
         4         180         181         197         196
         4         181         182         198         197
         4         182         183         199         198
         4         183         184         200         199
         4         184         185         201         200
         4         185         186         202         201
         4         186         187         203         202
         4         187         188         204         203
         4         188         189         205         204
         4         189         190         206         205
         4         190         191         207         206
         4         192         193         209         208
         4         193         194         210         209
         4         194         195         211         210
         4         195         196         212         211
         4         196         197         213         212
         4         197         198         214         213
         4         198         199         215         214
         4         199         200         216         215
         4         200         201         217         216
         4         201         202         218         217
         4         202         203         219         218
         4         203         204         220         219
         4         204         205         221         220
         4         205         206         222         221
         4         206         207         223         222
         4         208         209         225         224
         4         209         210         226         225
         4         210         211         227         226
         4         211         212         228         227
         4         212         213         229         228
         4         213         214         230         229
         4         214         215         231         230
         4         215         216         232         231
         4         216         217         233         232
         4         217         218         234         233
         4         218         219         235         234
         4         219         220         236         235
         4         220         221         237         236
         4         221         222         238         237
         4         222         223         239         238
         4         224         225         241         240
         4         225         226         242         241
         4         226         227         243         242
         4         227         228         244         243
         4         228         229         245         244
         4         229         230         246         245
         4         230         231         247         246
         4         231         232         248         247
         4         232         233         249         248
         4         233         234         250         249
         4         234         235         251         250
         4         235         236         252         251
         4         236         237         253         252
         4         237         238         254         253
         4         238         239         255         254
         4         240         241         257         256
         4         241         242         258         257
         4         242         243         259         258
         4         243         244         260         259
         4         244         245         261         260
         4         245         246         262         261
         4         246         247         263         262
         4         247         248         264         263
         4         248         249         265         264
         4         249         250         266         265
         4         250         251         267         266
         4         251         252         268         267
         4         252         253         269         268
         4         253         254         270         269
         4         254         255         271         270
         4         256         257         273         272
         4         257         258         274         273
         4         258         259         275         274
         4         259         260         276         275
         4         260         261         277         276
         4         261         262         278         277
         4         262         263         279         278
         4         263         264         280         279
         4         264         265         281         280
         4         265         266         282         281
         4         266         267         283         282
         4         267         268         284         283
         4         268         269         285         284
         4         269         270         286         285
         4         270         271         287         286
         4         272         273         289         288
         4         273         274         290         289
         4         274         275         291         290
         4         275         276         292         291
         4         276         277         293         292
         4         277         278         294         293
         4         278         279         295         294
         4         279         280         296         295
         4         280         281         297         296
         4         281         282         298         297
         4         282         283         299         298
         4         283         284         300         299
         4         284         285         301         300
         4         285         286         302         301
         4         286         287         303         302
         4         288         289         305         304
         4         289         290         306         305
         4         290         291         307         306
         4         291         292         308         307
         4         292         293         309         308
         4         293         294         310         309
         4         294         295         311         310
         4         295         296         312         311
         4         296         297         313         312
         4         297         298         314         313
         4         298         299         315         314
         4         299         300         316         315
         4         300         301         317         316
         4         301         302         318         317
         4         302         303         319         318
         4         304         305         321         320
         4         305         306         322         321
         4         306         307         323         322
         4         307         308         324         323
         4         308         309         325         324
         4         309         310         326         325
         4         310         311         327         326
         4         311         312         328         327
         4         312         313         329         328
         4         313         314         330         329
         4         314         315         331         330
         4         315         316         332         331
         4         316         317         333         332
         4         317         318         334         333
         4         318         319         335         334
         4         320         321         337         336
         4         321         322         338         337
         4         322         323         339         338
         4         323         324         340         339
         4         324         325         341         340
         4         325         326         342         341
         4         326         327         343         342
         4         327         328         344         343
         4         328         329         345         344
         4         329         330         346         345
         4         330         331         347         346
         4         331         332         348         347
         4         332         333         349         348
         4         333         334         350         349
         4         334         335         351         350
         4         336         337         353         352
         4         337         338         354         353
         4         338         339         355         354
         4         339         340         356         355
         4         340         341         357         356
         4         341         342         358         357
         4         342         343         359         358
         4         343         344         360         359
         4         344         345         361         360
         4         345         346         362         361
         4         346         347         363         362
         4         347         348         364         363
         4         348         349         365         364
         4         349         350         366         365
         4         350         351         367         366
         4         352         353         369         368
         4         353         354         370         369
         4         354         355         371         370
         4         355         356         372         371
         4         356         357         373         372
         4         357         358         374         373
         4         358         359         375         374
         4         359         360         376         375
         4         360         361         377         376
         4         361         362         378         377
         4         362         363         379         378
         4         363         364         380         379
         4         364         365         381         380
         4         365         366         382         381
         4         366         367         383         382
         4         368         369         385         384
         4         369         370         386         385
         4         370         371         387         386
         4         371         372         388         387
         4         372         373         389         388
         4         373         374         390         389
         4         374         375         391         390
         4         375         376         392         391
         4         376         377         393         392
         4         377         378         394         393
         4         378         379         395         394
         4         379         380         396         395
         4         380         381         397         396
         4         381         382         398         397
         4         382         383         399         398
         4         384         385         401         400
         4         385         386         402         401
         4         386         387         403         402
         4         387         388         404         403
         4         388         389         405         404
         4         389         390         406         405
         4         390         391         407         406
         4         391         392         408         407
         4         392         393         409         408
         4         393         394         410         409
         4         394         395         411         410
         4         395         396         412         411
         4         396         397         413         412
         4         397         398         414         413
         4         398         399         415         414
         4         400         401         417         416
         4         401         402         418         417
         4         402         403         419         418
         4         403         404         420         419
         4         404         405         421         420
         4         405         406         422         421
         4         406         407         423         422
         4         407         408         424         423
         4         408         409         425         424
         4         409         410         426         425
         4         410         411         427         426
         4         411         412         428         427
         4         412         413         429         428
         4         413         414         430         429
         4         414         415         431         430
         4         416         417         433         432
         4         417         418         434         433
         4         418         419         435         434
         4         419         420         436         435
         4         420         421         437         436
         4         421         422         438         437
         4         422         423         439         438
         4         423         424         440         439
         4         424         425         441         440
         4         425         426         442         441
         4         426         427         443         442
         4         427         428         444         443
         4         428         429         445         444
         4         429         430         446         445
         4         430         431         447         446
         4         432         433         449         448
         4         433         434         450         449
         4         434         435         451         450
         4         435         436         452         451
         4         436         437         453         452
         4         437         438         454         453
         4         438         439         455         454
         4         439         440         456         455
         4         440         441         457         456
         4         441         442         458         457
         4         442         443         459         458
         4         443         444         460         459
         4         444         445         461         460
         4         445         446         462         461
         4         446         447         463         462
         4         448         449         465         464
         4         449         450         466         465
         4         450         451         467         466
         4         451         452         468         467
         4         452         453         469         468
         4         453         454         470         469
         4         454         455         471         470
         4         455         456         472         471
         4         456         457         473         472
         4         457         458         474         473
         4         458         459         475         474
         4         459         460         476         475
         4         460         461         477         476
         4         461         462         478         477
         4         462         463         479         478
         4         464         465         481         480
         4         465         466         482         481
         4         466         467         483         482
         4         467         468         484         483
         4         468         469         485         484
         4         469         470         486         485
         4         470         471         487         486
         4         471         472         488         487
         4         472         473         489         488
         4         473         474         490         489
         4         474         475         491         490
         4         475         476         492         491
         4         476         477         493         492
         4         477         478         494         493
         4         478         479         495         494
CELL_TYPES        450
9
9
9
9
9
9
9
9
9
9
9
9
9
9
9
9
9
9
9
9
9
9
9
9
9
9
9
9
9
9
9
9
9
9
9
9
9
9
9
9
9
9
9
9
9
9
9
9
9
9
9
9
9
9
9
9
9
9
9
9
9
9
9
9
9
9
9
9
9
9
9
9
9
9
9
9
9
9
9
9
9
9
9
9
9
9
9
9
9
9
9
9
9
9
9
9
9
9
9
9
9
9
9
9
9
9
9
9
9
9
9
9
9
9
9
9
9
9
9
9
9
9
9
9
9
9
9
9
9
9
9
9
9
9
9
9
9
9
9
9
9
9
9
9
9
9
9
9
9
9
9
9
9
9
9
9
9
9
9
9
9
9
9
9
9
9
9
9
9
9
9
9
9
9
9
9
9
9
9
9
9
9
9
9
9
9
9
9
9
9
9
9
9
9
9
9
9
9
9
9
9
9
9
9
9
9
9
9
9
9
9
9
9
9
9
9
9
9
9
9
9
9
9
9
9
9
9
9
9
9
9
9
9
9
9
9
9
9
9
9
9
9
9
9
9
9
9
9
9
9
9
9
9
9
9
9
9
9
9
9
9
9
9
9
9
9
9
9
9
9
9
9
9
9
9
9
9
9
9
9
9
9
9
9
9
9
9
9
9
9
9
9
9
9
9
9
9
9
9
9
9
9
9
9
9
9
9
9
9
9
9
9
9
9
9
9
9
9
9
9
9
9
9
9
9
9
9
9
9
9
9
9
9
9
9
9
9
9
9
9
9
9
9
9
9
9
9
9
9
9
9
9
9
9
9
9
9
9
9
9
9
9
9
9
9
9
9
9
9
9
9
9
9
9
9
9
9
9
9
9
9
9
9
9
9
9
9
9
9
9
9
9
9
9
9
9
9
9
9
9
9
9
9
9
9
9
9
9
9
9
9
9
9
9
9
9
9
9
9
9
9
9
9
9
9
9
9
9
9
9
9
9
9
9
9
9
9
9
9
9
9
9
9
9
9
9
9
9
9
9
POINT_DATA       496
SCALARS p double 
LOOKUP_TABLE default
   90000000.0000000     
   90000000.0000000     
   90000000.0000000     
   90000000.0000000     
   90000000.0000000     
   90000000.0000000     
   90000000.0000000     
   90000000.0000000     
   90000000.0000000     
   90000000.0000000     
   90000000.0000000     
   90000000.0000000     
   90000000.0000000     
   90000000.0000000     
   90000000.0000000     
   90000000.0000000     
   86658313.3646216     
   86657133.7978711     
   86656454.6039419     
   86657286.8656051     
   86659476.8595074     
   86662662.7154393     
   86666475.2726368     
   86670591.1234877     
   86674737.6382123     
   86678682.8503733     
   86682221.3086204     
   86685161.3205129     
   86687318.5694058     
   86688527.9639232     
   86688699.6121367     
   86688117.6442260     
   83331525.6198385     
   83331675.9708656     
   83333215.6192607     
   83336845.1039939     
   83342390.4936631     
   83349355.3606805     
   83357196.5851229     
   83365417.9476405     
   83373591.5621139     
   83381350.1129431     
   83388369.8556304     
   83394355.2176214     
   83399035.3848141     
   83402189.2573865     
   83403745.3519332     
   83404064.2093602     
   80044383.8989586     
   80046127.7300690     
   80050927.9924124     
   80058372.2588371     
   80067931.5187126     
   80078967.3863290     
   80090845.0840332     
   80102995.0115869     
   80114927.7454514     
   80126224.5139442     
   80136518.4322557     
   80145477.1638058     
   80152796.2396293     
   80158214.4337623     
   80161561.2328395     
   80162750.4246340     
   76817773.5317292     
   76820974.5033961     
   76828974.4774067     
   76840271.1378964     
   76853800.1408585     
   76868703.1088064     
   76884261.3801229     
   76899877.7537240     
   76915059.0876048     
   76929392.7365466     
   76942520.0318642     
   76954111.3415849     
   76963846.1773425     
   76971397.4941505     
   76976399.0720933     
   76978345.3627333     
   73668741.9238176     
   73673086.3519465     
   73683690.3698317     
   73698192.9997832     
   73715025.4600772     
   73733086.9341473     
   73751570.1707708     
   73769867.4460397     
   73787510.9306915     
   73804126.2618923     
   73819391.7469701     
   73833000.3332337     
   73844621.1238658     
   73853851.5951994     
   73860141.1259819     
   73862656.9099573     
   70609961.1812913     
   70615052.5409689     
   70627391.2239155     
   70644047.4702283     
   70663080.5995040     
   70683193.1314534     
   70703505.1972660     
   70723410.6906292     
   70742481.3474708     
   70760396.4432222     
   70776885.2353855     
   70791674.0754217     
   70804430.6509532     
   70814695.0877073     
   70821783.5692376     
   70824649.2034074     
   67649422.4737761     
   67654836.2819096     
   67667925.6871829     
   67685484.3475199     
   67705371.4424532     
   67726180.0447733     
   67746997.9062077     
   67767239.5381266     
   67786527.0715671     
   67804601.3891536     
   67821250.0148916     
   67836241.6339510     
   67849258.2754066     
   67859815.7394977     
   67867162.3846990     
   67870148.1265641     
   64790419.8991184     
   64795743.2122703     
   64808596.2090455     
   64825764.2085344     
   64845082.6062042     
   64865139.3316539     
   64885045.6931096     
   64904264.5355297     
   64922481.5995627     
   64939506.3898470     
   64955190.8497579     
   64969356.0867934     
   64981718.6235644     
   64991808.3870772     
   64998871.7313878     
   65001755.1901475     
   62031809.4656128     
   62036670.0639021     
   62048377.6392413     
   62063938.7360824     
   62081326.3129383     
   62099227.3324857     
   62116838.2675381     
   62133703.6781909     
   62149589.7444036     
   62164383.4959325     
   62178008.7643316     
   62190350.7591044     
   62201182.1673772     
   62210084.7928670     
   62216362.3129626     
   62218942.0824260     
   59368493.3949621     
   59372580.0585018     
   59382368.5262126     
   59395269.3846158     
   59409528.3462799     
   59424024.2779546     
   59438097.8040153     
   59451409.7902219     
   59463825.8965019     
   59475321.6344223     
   59485901.7685511     
   59495528.0803790     
   59504050.1818382     
   59511135.1383579     
   59516193.2025324     
   59518299.0226092     
   56792065.4914274     
   56795140.1979006     
   56802407.3055135     
   56811814.3637715     
   56821983.1477410     
   56832059.2671860     
   56841577.8946623     
   56850347.7827587     
   56858352.8698800     
   56865668.8461026     
   56872391.0424116     
   56878569.7617888     
   56884149.5270662     
   56888909.5798246     
   56892404.2808400     
   56893903.7764905     
   54291551.0677755     
   54293454.0964531     
   54297786.7199090     
   54303117.1762976     
   54308512.8090366     
   54313439.3224579     
   54317664.4308081     
   54321170.0191933     
   54324074.3368349     
   54326563.8454630     
   54328833.1811637     
   54331031.2019418     
   54333211.1965860     
   54335283.9373543     
   54336973.2910795     
   54337775.4690234     
   51854180.5145898     
   51854829.6877551     
   51856006.1423071     
   51856936.9139969     
   51857171.4400600     
   51856526.3516704     
   51855025.5013455     
   51852840.5718066     
   51850235.3097423     
   51847514.6658249     
   51844978.9434085     
   51842882.4508226     
   51841396.0678023     
   51840573.5088645     
   51840321.8180623     
   51840377.6707352     
   49466145.7916609     
   49465531.2212608     
   49463511.5013093     
   49459970.4774549     
   49454945.9603751     
   49448614.5593697     
   49441264.9354075     
   49433265.4641644     
   49425030.3163833     
   49416986.3962349     
   49409542.4671400     
   49403061.1442275     
   49397834.2182510     
   49394061.9496577     
   49391837.4696368     
   49391138.1717452     
   47113301.3012814     
   47111477.0045891     
   47106384.2931225     
   47098528.3476535     
   47088415.3409198     
   47076571.1044213     
   47063543.4494145     
   47049894.3119754     
   47036186.2504983     
   47022966.4893761     
   47010750.7081709     
   47000008.1341492     
   46991149.1973478     
   46984517.0201532     
   46980384.2901158     
   46978957.5470374     
   44781782.8448237     
   44778856.4731856     
   44770953.0314738     
   44759137.0575033     
   44744341.3849249     
   44727413.2674963     
   44709141.0972874     
   44690267.7145440     
   44671495.0226142     
   44653483.5405110     
   44636849.6765097     
   44622162.9060089     
   44609944.6867941     
   44600670.8281787     
   44594779.1153670     
   44592684.2351990     
   42458529.3932853     
   42454651.1249816     
   42444311.2567131     
   42429052.0086262     
   42410174.2759240     
   42388805.0777257     
   42365943.8696541     
   42342493.3020250     
   42319279.0879015     
   42297062.8288513     
   42276550.9553538     
   42258402.3968427     
   42243237.2159878     
   42231648.2196348     
   42224217.4763744     
   42221539.7006903     
   40131701.5190580     
   40127052.9420633     
   40114735.2103001     
   40096673.0984932     
   40074464.7079625     
   40049464.6339389     
   40022845.2112860     
   39995640.8628252     
   39968780.0306192     
   39943108.6188935     
   39919408.3426435     
   39898412.8944341     
   39880824.4415397     
   39867332.6553325     
   39858638.2453332     
   39855482.8037166     
   37790997.2860752     
   37785780.8714522     
   37772001.2076678     
   37751862.4855411     
   37727181.1630956     
   37699479.9440470     
   37670059.6084841     
   37640053.1209193     
   37610466.2793719     
   37582208.8689005     
   37556119.8826726     
   37532989.9379480     
   37513583.5951852     
   37498663.9052745     
   37489021.1533236     
   37485507.4192170     
   35427871.2363535     
   35422300.7997624     
   35407607.6363621     
   35386168.7267347     
   35359935.7915507     
   35330535.9487124     
   35299350.1653324     
   35267573.4033652     
   35236260.5883233     
   35206362.4415567     
   35178754.8959272     
   35154265.3882549     
   35133698.8793864     
   35117866.0181731     
   35107615.4109864     
   35103871.4443908     
   33035665.0903464     
   33029957.4690185     
   33014909.5804109     
   32992964.6556943     
   32966125.5313425     
   32936058.6130513     
   32904175.3318566     
   32871694.6994991     
   32839691.1875153     
   32809132.1763938     
   32780908.8681770     
   32755864.0731714     
   32734819.8127835     
   32718607.2396786     
   32708100.8808283     
   32704258.5562667     
   30609660.2374786     
   30604028.2753401     
   30589175.6335422     
   30567508.0043840     
   30540996.8180751     
   30511283.7760462     
   30479761.8581355     
   30447636.6338595     
   30415972.6283277     
   30385729.3918239     
   30357791.3312685     
   30332994.7253688     
   30312154.8649090     
   30296095.9072934     
   30285685.6199534     
   30281876.4611887     
   28147062.3989498     
   28141709.2271508     
   28127576.8438345     
   28106934.2011004     
   28081642.7452962     
   28053259.0868622     
   28023111.8608822     
   27992357.8782113     
   27962023.5362533     
   27933036.7276299     
   27906253.3306434     
   27882481.4711648     
   27862506.3012391     
   27847117.9518238     
   27837145.2291733     
   27833497.0064225     
   25646928.3525174     
   25642042.8585361     
   25629117.2302794     
   25610190.2524913     
   25586941.0694544     
   25560787.0660701     
   25532951.8516200     
   25504511.7631714     
   25476428.9698446     
   25449576.9373304     
   25424761.9359020     
   25402743.0888750     
   25384253.1552594     
   25370022.6252734     
   25360810.4278148     
   25357444.5147744     
   23110043.6524971     
   23105796.9046987     
   23094514.1397247     
   23077917.2692932     
   23057440.1574575     
   23034316.3220631     
   23009630.9532384     
   22984352.5879092     
   22959355.1157715     
   22935435.5155845     
   22913329.7214716     
   22893727.8547545     
   22877289.8557701     
   22864663.6137008     
   22856509.7422101     
   22853539.1654577     
   20538759.2141697     
   20535301.3203226     
   20526034.8655451     
   20512286.9054393     
   20495197.8803322     
   20475786.4750479     
   20454974.6624056     
   20433599.6743143     
   20412423.8725170     
   20392145.0611614     
   20373407.4057275     
   20356812.2499451     
   20342928.5474370     
   20332302.9742719     
   20325474.2442201     
   20323002.2446013     
   17936793.9690134     
   17934249.9715565     
   17927292.7896174     
   17916793.0642676     
   17903575.5903845     
   17888430.8951232     
   17872099.9001757     
   17855265.9824209     
   17838554.6874504     
   17822539.1284720     
   17807747.7902653     
   17794672.4135999     
   17783773.9099152     
   17775485.8295719     
   17770210.8759521     
   17768329.6304034     
   15309012.6146124     
   15307471.5920928     
   15302998.8710284     
   15295993.0940672     
   15286986.5986657     
   15276540.8864513     
   15265197.7742845     
   15253458.5766298     
   15241780.9305725     
   15230582.7523444     
   15220248.7658562     
   15211136.8971070     
   15203582.3043280     
   15197894.7640861     
   15194350.8392392     
   15193137.4377336     
   12661194.2685308     
   12660671.5621745     
   12658637.8443133     
   12655184.6127171     
   12650597.7647399     
   12645198.9746416     
   12639293.6386918     
   12633159.7730405     
   12627047.9990027     
   12621185.4637382     
   12615780.8535287     
   12611029.1700177     
   12607114.9507535     
   12604211.9259968     
   12602467.8038812     
   12601988.5061680     
   10000000.0000000     
   10000000.0000000     
   10000000.0000000     
   10000000.0000000     
   10000000.0000000     
   10000000.0000000     
   10000000.0000000     
   10000000.0000000     
   10000000.0000000     
   10000000.0000000     
   10000000.0000000     
   10000000.0000000     
   10000000.0000000     
  10000000.00000000     
   10000000.0000000     
   10000000.0000000     
VECTORS u double 
    0.00000E+00         0.19570E-01         0.00000E+00
    0.00000E+00         0.18293E-01         0.00000E+00
    0.00000E+00         0.16998E-01         0.00000E+00
    0.00000E+00         0.15723E-01         0.00000E+00
    0.00000E+00         0.14475E-01         0.00000E+00
    0.00000E+00         0.13255E-01         0.00000E+00
    0.00000E+00         0.12057E-01         0.00000E+00
    0.00000E+00         0.10876E-01         0.00000E+00
    0.00000E+00         0.97012E-02         0.00000E+00
    0.00000E+00         0.85199E-02         0.00000E+00
    0.00000E+00         0.73174E-02         0.00000E+00
    0.00000E+00         0.60747E-02         0.00000E+00
    0.00000E+00         0.47677E-02         0.00000E+00
    0.00000E+00         0.33634E-02         0.00000E+00
    0.00000E+00         0.18119E-02         0.00000E+00
    0.00000E+00         0.00000E+00         0.00000E+00
    0.40676E-02         0.19069E-01         0.00000E+00
    0.34331E-02         0.17926E-01         0.00000E+00
    0.30445E-02         0.16707E-01         0.00000E+00
    0.27581E-02         0.15480E-01         0.00000E+00
    0.25305E-02         0.14268E-01         0.00000E+00
    0.23388E-02         0.13076E-01         0.00000E+00
    0.21693E-02         0.11902E-01         0.00000E+00
    0.20122E-02         0.10741E-01         0.00000E+00
    0.18598E-02         0.95826E-02         0.00000E+00
    0.17053E-02         0.84166E-02         0.00000E+00
    0.15416E-02         0.72276E-02         0.00000E+00
    0.13601E-02         0.59974E-02         0.00000E+00
    0.11493E-02         0.47019E-02         0.00000E+00
    0.89040E-03         0.33088E-02         0.00000E+00
    0.54738E-03         0.17685E-02         0.00000E+00
    0.00000E+00         0.00000E+00         0.00000E+00
    0.77668E-02         0.17912E-01         0.00000E+00
    0.66315E-02         0.16939E-01         0.00000E+00
    0.58593E-02         0.15880E-01         0.00000E+00
    0.52861E-02         0.14778E-01         0.00000E+00
    0.48290E-02         0.13663E-01         0.00000E+00
    0.44443E-02         0.12551E-01         0.00000E+00
    0.41043E-02         0.11444E-01         0.00000E+00
    0.37898E-02         0.10339E-01         0.00000E+00
    0.34854E-02         0.92319E-02         0.00000E+00
    0.31773E-02         0.81108E-02         0.00000E+00
    0.28516E-02         0.69629E-02         0.00000E+00
    0.24919E-02         0.57707E-02         0.00000E+00
    0.20763E-02         0.45119E-02         0.00000E+00
    0.15715E-02         0.31566E-02         0.00000E+00
    0.91608E-03         0.16647E-02         0.00000E+00
    0.00000E+00         0.00000E+00         0.00000E+00
    0.11079E-01         0.16308E-01         0.00000E+00
    0.95616E-02         0.15504E-01         0.00000E+00
    0.84502E-02         0.14620E-01         0.00000E+00
    0.75998E-02         0.13678E-01         0.00000E+00
    0.69153E-02         0.12702E-01         0.00000E+00
    0.63373E-02         0.11708E-01         0.00000E+00
    0.58264E-02         0.10704E-01         0.00000E+00
    0.53545E-02         0.96899E-02         0.00000E+00
    0.48988E-02         0.86631E-02         0.00000E+00
    0.44391E-02         0.76154E-02         0.00000E+00
    0.39551E-02         0.65356E-02         0.00000E+00
    0.34239E-02         0.54085E-02         0.00000E+00
    0.28158E-02         0.42147E-02         0.00000E+00
    0.20889E-02         0.29306E-02         0.00000E+00
    0.11801E-02         0.15313E-02         0.00000E+00
    0.00000E+00         0.00000E+00         0.00000E+00
    0.14017E-01         0.14373E-01         0.00000E+00
    0.12203E-01         0.13734E-01         0.00000E+00
    0.10807E-01         0.13025E-01         0.00000E+00
    0.97034E-02         0.12255E-01         0.00000E+00
    0.88011E-02         0.11439E-01         0.00000E+00
    0.80336E-02         0.10589E-01         0.00000E+00
    0.73538E-02         0.97140E-02         0.00000E+00
    0.67260E-02         0.88174E-02         0.00000E+00
    0.61212E-02         0.78976E-02         0.00000E+00
    0.55136E-02         0.69494E-02         0.00000E+00
    0.48775E-02         0.59639E-02         0.00000E+00
    0.41848E-02         0.49290E-02         0.00000E+00
    0.34014E-02         0.38297E-02         0.00000E+00
    0.24836E-02         0.26499E-02         0.00000E+00
    0.13737E-02         0.13752E-02         0.00000E+00
    0.00000E+00         0.00000E+00         0.00000E+00
    0.16595E-01         0.12189E-01         0.00000E+00
    0.14553E-01         0.11711E-01         0.00000E+00
    0.12921E-01         0.11174E-01         0.00000E+00
    0.11596E-01         0.10578E-01         0.00000E+00
    0.10492E-01         0.99298E-02         0.00000E+00
    0.95444E-02         0.92385E-02         0.00000E+00
    0.87012E-02         0.85114E-02         0.00000E+00
    0.79219E-02         0.77522E-02         0.00000E+00
    0.71726E-02         0.69612E-02         0.00000E+00
    0.64229E-02         0.61353E-02         0.00000E+00
    0.56431E-02         0.52681E-02         0.00000E+00
    0.48018E-02         0.43509E-02         0.00000E+00
    0.38633E-02         0.33735E-02         0.00000E+00
    0.27850E-02         0.23258E-02         0.00000E+00
    0.15164E-02         0.12012E-02         0.00000E+00
    0.00000E+00         0.00000E+00         0.00000E+00
    0.18834E-01         0.98159E-02         0.00000E+00
    0.16615E-01         0.94963E-02         0.00000E+00
    0.14791E-01         0.91271E-02         0.00000E+00
    0.13276E-01         0.87030E-02         0.00000E+00
    0.11992E-01         0.82258E-02         0.00000E+00
    0.10878E-01         0.77007E-02         0.00000E+00
    0.98805E-02         0.71330E-02         0.00000E+00
    0.89572E-02         0.65261E-02         0.00000E+00
    0.80706E-02         0.58811E-02         0.00000E+00
    0.71871E-02         0.51966E-02         0.00000E+00
    0.62744E-02         0.44686E-02         0.00000E+00
    0.52991E-02         0.36917E-02         0.00000E+00
    0.42256E-02         0.28595E-02         0.00000E+00
    0.30143E-02         0.19671E-02         0.00000E+00
    0.16213E-02         0.10125E-02         0.00000E+00
    0.00000E+00         0.00000E+00         0.00000E+00
    0.20752E-01         0.73040E-02         0.00000E+00
    0.18399E-01         0.71392E-02         0.00000E+00
    0.16421E-01         0.69331E-02         0.00000E+00
    0.14746E-01         0.66776E-02         0.00000E+00
    0.13305E-01         0.63710E-02         0.00000E+00
    0.12041E-01         0.60154E-02         0.00000E+00
    0.10902E-01         0.56140E-02         0.00000E+00
    0.98449E-02         0.51697E-02         0.00000E+00
    0.88307E-02         0.46839E-02         0.00000E+00
    0.78240E-02         0.41563E-02         0.00000E+00
    0.67906E-02         0.35849E-02         0.00000E+00
    0.56968E-02         0.29669E-02         0.00000E+00
    0.45079E-02         0.22993E-02         0.00000E+00
    0.31873E-02         0.15805E-02         0.00000E+00
    0.16973E-02         0.81193E-03         0.00000E+00
    0.00000E+00         0.00000E+00         0.00000E+00
    0.22370E-01         0.46920E-02         0.00000E+00
    0.19917E-01         0.46784E-02         0.00000E+00
    0.17818E-01         0.46310E-02         0.00000E+00
    0.16010E-01         0.45403E-02         0.00000E+00
    0.14435E-01         0.44022E-02         0.00000E+00
    0.13039E-01         0.42168E-02         0.00000E+00
    0.11774E-01         0.39858E-02         0.00000E+00
    0.10596E-01         0.37111E-02         0.00000E+00
    0.94664E-02         0.33942E-02         0.00000E+00
    0.83486E-02         0.30355E-02         0.00000E+00
    0.72082E-02         0.26346E-02         0.00000E+00
    0.60115E-02         0.21905E-02         0.00000E+00
    0.47253E-02         0.17028E-02         0.00000E+00
    0.33162E-02         0.11722E-02         0.00000E+00
    0.17514E-02         0.60206E-03         0.00000E+00
    0.00000E+00         0.00000E+00         0.00000E+00
    0.23706E-01         0.20111E-02         0.00000E+00
    0.21182E-01         0.21451E-02         0.00000E+00
    0.18989E-01         0.22522E-02         0.00000E+00
    0.17075E-01         0.23222E-02         0.00000E+00
    0.15387E-01         0.23501E-02         0.00000E+00
    0.13879E-01         0.23344E-02         0.00000E+00
    0.12504E-01         0.22755E-02         0.00000E+00
    0.11220E-01         0.21749E-02         0.00000E+00
    0.99889E-02         0.20337E-02         0.00000E+00
    0.87738E-02         0.18529E-02         0.00000E+00
    0.75407E-02         0.16330E-02         0.00000E+00
    0.62566E-02         0.13745E-02         0.00000E+00
    0.48899E-02         0.10785E-02         0.00000E+00
    0.34101E-02         0.74713E-03         0.00000E+00
    0.17887E-02         0.38506E-03         0.00000E+00
    0.00000E+00         0.00000E+00         0.00000E+00
    0.24780E-01        -0.71426E-03         0.00000E+00
    0.22208E-01        -0.43585E-03         0.00000E+00
    0.19945E-01        -0.17827E-03         0.00000E+00
    0.17946E-01         0.48676E-04         0.00000E+00
    0.16169E-01         0.23957E-03         0.00000E+00
    0.14567E-01         0.39212E-03         0.00000E+00
    0.13099E-01         0.50602E-03         0.00000E+00
    0.11726E-01         0.58200E-03         0.00000E+00
    0.10408E-01         0.62116E-03         0.00000E+00
    0.91100E-02         0.62465E-03         0.00000E+00
    0.77989E-02         0.59358E-03         0.00000E+00
    0.64426E-02         0.52928E-03         0.00000E+00
    0.50110E-02         0.43367E-03         0.00000E+00
    0.34763E-02         0.30987E-03         0.00000E+00
    0.18131E-02         0.16283E-03         0.00000E+00
    0.00000E+00         0.00000E+00         0.00000E+00
    0.25610E-01        -0.34648E-02         0.00000E+00
    0.23008E-01        -0.30450E-02         0.00000E+00
    0.20694E-01        -0.26406E-02         0.00000E+00
    0.18633E-01        -0.22602E-02         0.00000E+00
    0.16784E-01        -0.19092E-02         0.00000E+00
    0.15109E-01        -0.15902E-02         0.00000E+00
    0.13566E-01        -0.13039E-02         0.00000E+00
    0.12119E-01        -0.10499E-02         0.00000E+00
    0.10731E-01        -0.82754E-03         0.00000E+00
    0.93656E-02        -0.63547E-03         0.00000E+00
    0.79916E-02        -0.47235E-03         0.00000E+00
    0.65779E-02        -0.33644E-03         0.00000E+00
    0.50959E-02        -0.22540E-03         0.00000E+00
    0.35200E-02        -0.13585E-03         0.00000E+00
    0.18274E-02        -0.62957E-04         0.00000E+00
    0.00000E+00         0.00000E+00         0.00000E+00
    0.26209E-01        -0.62258E-02         0.00000E+00
    0.23592E-01        -0.56674E-02         0.00000E+00
    0.21246E-01        -0.51191E-02         0.00000E+00
    0.19140E-01        -0.45885E-02         0.00000E+00
    0.17240E-01        -0.40801E-02         0.00000E+00
    0.15509E-01        -0.35965E-02         0.00000E+00
    0.13910E-01        -0.31386E-02         0.00000E+00
    0.12407E-01        -0.27065E-02         0.00000E+00
    0.10964E-01        -0.22993E-02         0.00000E+00
    0.95472E-02        -0.19160E-02         0.00000E+00
    0.81254E-02        -0.15553E-02         0.00000E+00
    0.66687E-02        -0.12152E-02         0.00000E+00
    0.51500E-02        -0.89349E-03         0.00000E+00
    0.35452E-02        -0.58682E-03         0.00000E+00
    0.18339E-02        -0.29089E-03         0.00000E+00
    0.00000E+00         0.00000E+00         0.00000E+00
    0.26591E-01        -0.89862E-02         0.00000E+00
    0.23971E-01        -0.82913E-02         0.00000E+00
    0.21608E-01        -0.76018E-02         0.00000E+00
    0.19475E-01        -0.69236E-02         0.00000E+00
    0.17542E-01        -0.62602E-02         0.00000E+00
    0.15774E-01        -0.56140E-02         0.00000E+00
    0.14136E-01        -0.49857E-02         0.00000E+00
    0.12594E-01        -0.43757E-02         0.00000E+00
    0.11112E-01        -0.37832E-02         0.00000E+00
    0.96600E-02        -0.32076E-02         0.00000E+00
    0.82053E-02        -0.26473E-02         0.00000E+00
    0.67196E-02        -0.21009E-02         0.00000E+00
    0.51771E-02        -0.15662E-02         0.00000E+00
    0.35549E-02        -0.10403E-02         0.00000E+00
    0.18339E-02        -0.51976E-03         0.00000E+00
    0.00000E+00         0.00000E+00         0.00000E+00
    0.26766E-01        -0.11737E-01         0.00000E+00
    0.24153E-01        -0.10908E-01         0.00000E+00
    0.21786E-01        -0.10079E-01         0.00000E+00
    0.19643E-01        -0.92555E-02         0.00000E+00
    0.17694E-01        -0.84392E-02         0.00000E+00
    0.15906E-01        -0.76321E-02         0.00000E+00
    0.14247E-01        -0.68348E-02         0.00000E+00
    0.12683E-01        -0.60477E-02         0.00000E+00
    0.11180E-01        -0.52703E-02         0.00000E+00
    0.97076E-02        -0.45020E-02         0.00000E+00
    0.82348E-02        -0.37418E-02         0.00000E+00
    0.67340E-02        -0.29883E-02         0.00000E+00
    0.51800E-02        -0.22398E-02         0.00000E+00
    0.35509E-02        -0.14941E-02         0.00000E+00
    0.18287E-02        -0.74854E-03         0.00000E+00
    0.00000E+00         0.00000E+00         0.00000E+00
    0.26742E-01        -0.14472E-01         0.00000E+00
    0.24144E-01        -0.13509E-01         0.00000E+00
    0.21787E-01        -0.12543E-01         0.00000E+00
    0.19648E-01        -0.11576E-01         0.00000E+00
    0.17699E-01        -0.10608E-01         0.00000E+00
    0.15909E-01        -0.96420E-02         0.00000E+00
    0.14246E-01        -0.86771E-02         0.00000E+00
    0.12677E-01        -0.77140E-02         0.00000E+00
    0.11169E-01        -0.67527E-02         0.00000E+00
    0.96924E-02        -0.57925E-02         0.00000E+00
    0.82163E-02        -0.48329E-02         0.00000E+00
    0.67138E-02        -0.38728E-02         0.00000E+00
    0.51603E-02        -0.29110E-02         0.00000E+00
    0.35344E-02        -0.19461E-02         0.00000E+00
    0.18186E-02        -0.97634E-03         0.00000E+00
    0.00000E+00         0.00000E+00         0.00000E+00
    0.26522E-01        -0.17185E-01         0.00000E+00
    0.23947E-01        -0.16090E-01         0.00000E+00
    0.21612E-01        -0.14988E-01         0.00000E+00
    0.19491E-01        -0.13878E-01         0.00000E+00
    0.17559E-01        -0.12760E-01         0.00000E+00
    0.15784E-01        -0.11636E-01         0.00000E+00
    0.14134E-01        -0.10505E-01         0.00000E+00
    0.12577E-01        -0.93673E-02         0.00000E+00
    0.11081E-01        -0.82235E-02         0.00000E+00
    0.96157E-02        -0.70730E-02         0.00000E+00
    0.81508E-02        -0.59155E-02         0.00000E+00
    0.66599E-02        -0.47504E-02         0.00000E+00
    0.51187E-02        -0.35770E-02         0.00000E+00
    0.35058E-02        -0.23945E-02         0.00000E+00
    0.18039E-02        -0.12023E-02         0.00000E+00
    0.00000E+00         0.00000E+00         0.00000E+00
    0.26108E-01        -0.19871E-01         0.00000E+00
    0.23565E-01        -0.18644E-01         0.00000E+00
    0.21263E-01        -0.17406E-01         0.00000E+00
    0.19176E-01        -0.16154E-01         0.00000E+00
    0.17276E-01        -0.14887E-01         0.00000E+00
    0.15533E-01        -0.13606E-01         0.00000E+00
    0.13913E-01        -0.12310E-01         0.00000E+00
    0.12385E-01        -0.11000E-01         0.00000E+00
    0.10917E-01        -0.96760E-02         0.00000E+00
    0.94776E-02        -0.83374E-02         0.00000E+00
    0.80384E-02        -0.69846E-02         0.00000E+00
    0.65723E-02        -0.56171E-02         0.00000E+00
    0.50549E-02        -0.42348E-02         0.00000E+00
    0.34649E-02        -0.28376E-02         0.00000E+00
    0.17844E-02        -0.14257E-02         0.00000E+00
    0.00000E+00         0.00000E+00         0.00000E+00
    0.25499E-01        -0.22523E-01         0.00000E+00
    0.22997E-01        -0.21165E-01         0.00000E+00
    0.20740E-01        -0.19791E-01         0.00000E+00
    0.18701E-01        -0.18397E-01         0.00000E+00
    0.16850E-01        -0.16982E-01         0.00000E+00
    0.15155E-01        -0.15545E-01         0.00000E+00
    0.13583E-01        -0.14086E-01         0.00000E+00
    0.12100E-01        -0.12606E-01         0.00000E+00
    0.10675E-01        -0.11103E-01         0.00000E+00
    0.92774E-02        -0.95798E-02         0.00000E+00
    0.78780E-02        -0.80350E-02         0.00000E+00
    0.64498E-02        -0.64690E-02         0.00000E+00
    0.49682E-02        -0.48817E-02         0.00000E+00
    0.34110E-02        -0.32736E-02         0.00000E+00
    0.17598E-02        -0.16457E-02         0.00000E+00
    0.00000E+00         0.00000E+00         0.00000E+00
    0.24691E-01        -0.25134E-01         0.00000E+00
    0.22240E-01        -0.23644E-01         0.00000E+00
    0.20042E-01        -0.22134E-01         0.00000E+00
    0.18067E-01        -0.20599E-01         0.00000E+00
    0.16281E-01        -0.19036E-01         0.00000E+00
    0.14651E-01        -0.17445E-01         0.00000E+00
    0.13141E-01        -0.15824E-01         0.00000E+00
    0.11720E-01        -0.14175E-01         0.00000E+00
    0.10354E-01        -0.12498E-01         0.00000E+00
    0.90131E-02        -0.10793E-01         0.00000E+00
    0.76677E-02        -0.90613E-02         0.00000E+00
    0.62905E-02        -0.73016E-02         0.00000E+00
    0.48565E-02        -0.55144E-02         0.00000E+00
    0.33427E-02        -0.37005E-02         0.00000E+00
    0.17292E-02        -0.18614E-02         0.00000E+00
    0.00000E+00         0.00000E+00         0.00000E+00
    0.23678E-01        -0.27694E-01         0.00000E+00
    0.21290E-01        -0.26073E-01         0.00000E+00
    0.19166E-01        -0.24427E-01         0.00000E+00
    0.17270E-01        -0.22750E-01         0.00000E+00
    0.15566E-01        -0.21039E-01         0.00000E+00
    0.14018E-01        -0.19293E-01         0.00000E+00
    0.12588E-01        -0.17513E-01         0.00000E+00
    0.11244E-01        -0.15699E-01         0.00000E+00
    0.99520E-02        -0.13851E-01         0.00000E+00
    0.86819E-02        -0.11971E-01         0.00000E+00
    0.74042E-02        -0.10057E-01         0.00000E+00
    0.60913E-02        -0.81101E-02         0.00000E+00
    0.47172E-02        -0.61295E-02         0.00000E+00
    0.32578E-02        -0.41162E-02         0.00000E+00
    0.16915E-02        -0.20718E-02         0.00000E+00
    0.00000E+00         0.00000E+00         0.00000E+00
    0.22452E-01        -0.30192E-01         0.00000E+00
    0.20142E-01        -0.28439E-01         0.00000E+00
    0.18108E-01        -0.26656E-01         0.00000E+00
    0.16310E-01        -0.24837E-01         0.00000E+00
    0.14705E-01        -0.22978E-01         0.00000E+00
    0.13254E-01        -0.21080E-01         0.00000E+00
    0.11920E-01        -0.19142E-01         0.00000E+00
    0.10668E-01        -0.17166E-01         0.00000E+00
    0.94649E-02        -0.15153E-01         0.00000E+00
    0.82796E-02        -0.13103E-01         0.00000E+00
    0.70833E-02        -0.11015E-01         0.00000E+00
    0.58478E-02        -0.88887E-02         0.00000E+00
    0.45464E-02        -0.67229E-02         0.00000E+00
    0.31535E-02        -0.45181E-02         0.00000E+00
    0.16451E-02        -0.22759E-02         0.00000E+00
    0.00000E+00         0.00000E+00         0.00000E+00
    0.21003E-01        -0.32612E-01         0.00000E+00
    0.18789E-01        -0.30727E-01         0.00000E+00
    0.16865E-01        -0.28806E-01         0.00000E+00
    0.15182E-01        -0.26844E-01         0.00000E+00
    0.13694E-01        -0.24838E-01         0.00000E+00
    0.12358E-01        -0.22788E-01         0.00000E+00
    0.11135E-01        -0.20696E-01         0.00000E+00
    0.99894E-02        -0.18564E-01         0.00000E+00
    0.88881E-02        -0.16392E-01         0.00000E+00
    0.78010E-02        -0.14180E-01         0.00000E+00
    0.66991E-02        -0.11927E-01         0.00000E+00
    0.55545E-02        -0.96306E-02         0.00000E+00
    0.43392E-02        -0.72898E-02         0.00000E+00
    0.30260E-02        -0.49034E-02         0.00000E+00
    0.15880E-02        -0.24722E-02         0.00000E+00
    0.00000E+00         0.00000E+00         0.00000E+00
    0.19319E-01        -0.34935E-01         0.00000E+00
    0.17224E-01        -0.32918E-01         0.00000E+00
    0.15431E-01        -0.30859E-01         0.00000E+00
    0.13884E-01        -0.28753E-01         0.00000E+00
    0.12532E-01        -0.26599E-01         0.00000E+00
    0.11327E-01        -0.24400E-01         0.00000E+00
    0.10229E-01        -0.22158E-01         0.00000E+00
    0.92028E-02        -0.19875E-01         0.00000E+00
    0.82158E-02        -0.17552E-01         0.00000E+00
    0.72390E-02        -0.15189E-01         0.00000E+00
    0.62443E-02        -0.12782E-01         0.00000E+00
    0.52037E-02        -0.10328E-01         0.00000E+00
    0.40889E-02        -0.78247E-02         0.00000E+00
    0.28702E-02        -0.52686E-02         0.00000E+00
    0.15173E-02        -0.26594E-02         0.00000E+00
    0.00000E+00         0.00000E+00         0.00000E+00
    0.17390E-01        -0.37139E-01         0.00000E+00
    0.15439E-01        -0.34988E-01         0.00000E+00
    0.13803E-01        -0.32789E-01         0.00000E+00
    0.12415E-01        -0.30539E-01         0.00000E+00
    0.11217E-01        -0.28239E-01         0.00000E+00
    0.10158E-01        -0.25894E-01         0.00000E+00
    0.91985E-02        -0.23507E-01         0.00000E+00
    0.83028E-02        -0.21082E-01         0.00000E+00
    0.74408E-02        -0.18619E-01         0.00000E+00
    0.65852E-02        -0.16115E-01         0.00000E+00
    0.57093E-02        -0.13568E-01         0.00000E+00
    0.47861E-02        -0.10972E-01         0.00000E+00
    0.37867E-02        -0.83211E-02         0.00000E+00
    0.26793E-02        -0.56100E-02         0.00000E+00
    0.14292E-02        -0.28358E-02         0.00000E+00
    0.00000E+00         0.00000E+00         0.00000E+00
    0.15204E-01        -0.39192E-01         0.00000E+00
    0.13429E-01        -0.36908E-01         0.00000E+00
    0.11978E-01        -0.34569E-01         0.00000E+00
    0.10773E-01        -0.32174E-01         0.00000E+00
    0.97471E-02        -0.29730E-01         0.00000E+00
    0.88489E-02        -0.27243E-01         0.00000E+00
    0.80381E-02        -0.24720E-01         0.00000E+00
    0.72823E-02        -0.22163E-01         0.00000E+00
    0.65542E-02        -0.19572E-01         0.00000E+00
    0.58290E-02        -0.16944E-01         0.00000E+00
    0.50826E-02        -0.14273E-01         0.00000E+00
    0.42897E-02        -0.11552E-01         0.00000E+00
    0.34215E-02        -0.87715E-02         0.00000E+00
    0.24445E-02        -0.59230E-02         0.00000E+00
    0.13189E-02        -0.29995E-02         0.00000E+00
    0.00000E+00         0.00000E+00         0.00000E+00
    0.12746E-01        -0.41060E-01         0.00000E+00
    0.11188E-01        -0.38642E-01         0.00000E+00
    0.99569E-02        -0.36161E-01         0.00000E+00
    0.89589E-02        -0.33622E-01         0.00000E+00
    0.81224E-02        -0.31038E-01         0.00000E+00
    0.73958E-02        -0.28418E-01         0.00000E+00
    0.67421E-02        -0.25769E-01         0.00000E+00
    0.61329E-02        -0.23094E-01         0.00000E+00
    0.55450E-02        -0.20392E-01         0.00000E+00
    0.49576E-02        -0.17656E-01         0.00000E+00
    0.43499E-02        -0.14881E-01         0.00000E+00
    0.36993E-02        -0.12056E-01         0.00000E+00
    0.29788E-02        -0.91674E-02         0.00000E+00
    0.21538E-02        -0.62024E-02         0.00000E+00
    0.11794E-02        -0.31485E-02         0.00000E+00
    0.00000E+00         0.00000E+00         0.00000E+00
    0.10006E-01        -0.42695E-01         0.00000E+00
    0.87144E-02        -0.40142E-01         0.00000E+00
    0.77416E-02        -0.37518E-01         0.00000E+00
    0.69752E-02        -0.34839E-01         0.00000E+00
    0.63415E-02        -0.32124E-01         0.00000E+00
    0.57941E-02        -0.29384E-01         0.00000E+00
    0.53024E-02        -0.26627E-01         0.00000E+00
    0.48440E-02        -0.23853E-01         0.00000E+00
    0.44006E-02        -0.21058E-01         0.00000E+00
    0.39563E-02        -0.18236E-01         0.00000E+00
    0.34945E-02        -0.15378E-01         0.00000E+00
    0.29968E-02        -0.12470E-01         0.00000E+00
    0.24400E-02        -0.94983E-02         0.00000E+00
    0.17911E-02        -0.64417E-02         0.00000E+00
    0.10009E-02        -0.32804E-02         0.00000E+00
    0.00000E+00         0.00000E+00         0.00000E+00
    0.69702E-02        -0.44036E-01         0.00000E+00
    0.60127E-02        -0.41348E-01         0.00000E+00
    0.53399E-02        -0.38582E-01         0.00000E+00
    0.48241E-02        -0.35773E-01         0.00000E+00
    0.44009E-02        -0.32945E-01         0.00000E+00
    0.40362E-02        -0.30108E-01         0.00000E+00
    0.37086E-02        -0.27265E-01         0.00000E+00
    0.34026E-02        -0.24414E-01         0.00000E+00
    0.31062E-02        -0.21550E-01         0.00000E+00
    0.28083E-02        -0.18665E-01         0.00000E+00
    0.24977E-02        -0.15747E-01         0.00000E+00
    0.21613E-02        -0.12782E-01         0.00000E+00
    0.17819E-02        -0.97517E-02         0.00000E+00
    0.13334E-02        -0.66324E-02         0.00000E+00
    0.76795E-03        -0.33915E-02         0.00000E+00
    0.00000E+00         0.00000E+00         0.00000E+00
    0.36307E-02        -0.44994E-01         0.00000E+00
    0.30992E-02        -0.42169E-01         0.00000E+00
    0.27610E-02        -0.39276E-01         0.00000E+00
    0.25033E-02        -0.36367E-01         0.00000E+00
    0.22923E-02        -0.33459E-01         0.00000E+00
    0.21103E-02        -0.30557E-01         0.00000E+00
    0.19467E-02        -0.27659E-01         0.00000E+00
    0.17937E-02        -0.24760E-01         0.00000E+00
    0.16452E-02        -0.21853E-01         0.00000E+00
    0.14958E-02        -0.18928E-01         0.00000E+00
    0.13396E-02        -0.15974E-01         0.00000E+00
    0.11700E-02        -0.12976E-01         0.00000E+00
    0.97786E-03        -0.99127E-02         0.00000E+00
    0.74848E-03        -0.67596E-02         0.00000E+00
    0.45381E-03        -0.34767E-02         0.00000E+00
    0.00000E+00         0.00000E+00         0.00000E+00
    0.00000E+00        -0.45405E-01         0.00000E+00
    0.00000E+00        -0.42473E-01         0.00000E+00
    0.00000E+00        -0.39519E-01         0.00000E+00
    0.00000E+00        -0.36571E-01         0.00000E+00
    0.00000E+00        -0.33634E-01         0.00000E+00
    0.00000E+00        -0.30709E-01         0.00000E+00
    0.00000E+00        -0.27792E-01         0.00000E+00
    0.00000E+00        -0.24876E-01         0.00000E+00
    0.00000E+00        -0.21955E-01         0.00000E+00
    0.00000E+00        -0.19017E-01         0.00000E+00
    0.00000E+00        -0.16051E-01         0.00000E+00
    0.00000E+00        -0.13041E-01         0.00000E+00
    0.00000E+00        -0.99683E-02         0.00000E+00
    0.00000E+00        -0.68050E-02         0.00000E+00
    0.00000E+00        -0.35120E-02         0.00000E+00
    0.00000E+00         0.00000E+00         0.00000E+00
CELL_DATA        450
VECTORS vDarcy double 
    0.23971E-07        -0.42300E-11         0.00000E+00
    0.23969E-07        -0.24347E-11         0.00000E+00
    0.23961E-07         0.29826E-11         0.00000E+00
    0.23945E-07         0.78464E-11         0.00000E+00
    0.23921E-07         0.11412E-10         0.00000E+00
    0.23892E-07         0.13655E-10         0.00000E+00
    0.23860E-07         0.14739E-10         0.00000E+00
    0.23828E-07         0.14847E-10         0.00000E+00
    0.23796E-07         0.14124E-10         0.00000E+00
    0.23766E-07         0.12667E-10         0.00000E+00
    0.23740E-07         0.10523E-10         0.00000E+00
    0.23720E-07         0.77207E-11         0.00000E+00
    0.23705E-07         0.43279E-11         0.00000E+00
    0.23697E-07         0.61418E-12         0.00000E+00
    0.23695E-07        -0.20820E-11         0.00000E+00
    0.23846E-07        -0.36895E-11         0.00000E+00
    0.23827E-07         0.30836E-11         0.00000E+00
    0.23803E-07         0.15985E-10         0.00000E+00
    0.23775E-07         0.27708E-10         0.00000E+00
    0.23746E-07         0.36353E-10         0.00000E+00
    0.23714E-07         0.41729E-10         0.00000E+00
    0.23681E-07         0.44170E-10         0.00000E+00
    0.23649E-07         0.44103E-10         0.00000E+00
    0.23618E-07         0.41892E-10         0.00000E+00
    0.23590E-07         0.37788E-10         0.00000E+00
    0.23564E-07         0.31940E-10         0.00000E+00
    0.23541E-07         0.24466E-10         0.00000E+00
    0.23523E-07         0.15611E-10         0.00000E+00
    0.23508E-07         0.61809E-11         0.00000E+00
    0.23498E-07        -0.94115E-12         0.00000E+00
    0.23552E-07         0.67873E-11         0.00000E+00
    0.23529E-07         0.22712E-10         0.00000E+00
    0.23499E-07         0.39663E-10         0.00000E+00
    0.23466E-07         0.54090E-10         0.00000E+00
    0.23433E-07         0.64450E-10         0.00000E+00
    0.23401E-07         0.70591E-10         0.00000E+00
    0.23369E-07         0.72917E-10         0.00000E+00
    0.23339E-07         0.71960E-10         0.00000E+00
    0.23310E-07         0.68191E-10         0.00000E+00
    0.23283E-07         0.61952E-10         0.00000E+00
    0.23259E-07         0.53468E-10         0.00000E+00
    0.23236E-07         0.42927E-10         0.00000E+00
    0.23217E-07         0.30664E-10         0.00000E+00
    0.23200E-07         0.17537E-10         0.00000E+00
    0.23188E-07         0.53936E-11         0.00000E+00
    0.23109E-07         0.17711E-10         0.00000E+00
    0.23088E-07         0.45840E-10         0.00000E+00
    0.23059E-07         0.67102E-10         0.00000E+00
    0.23027E-07         0.82655E-10         0.00000E+00
    0.22996E-07         0.92846E-10         0.00000E+00
    0.22966E-07         0.98192E-10         0.00000E+00
    0.22937E-07         0.99362E-10         0.00000E+00
    0.22911E-07         0.97017E-10         0.00000E+00
    0.22886E-07         0.91699E-10         0.00000E+00
    0.22863E-07         0.83787E-10         0.00000E+00
    0.22841E-07         0.73509E-10         0.00000E+00
    0.22821E-07         0.60998E-10         0.00000E+00
    0.22803E-07         0.46386E-10         0.00000E+00
    0.22788E-07         0.29856E-10         0.00000E+00
    0.22778E-07         0.11212E-10         0.00000E+00
    0.22545E-07         0.27015E-10         0.00000E+00
    0.22529E-07         0.66599E-10         0.00000E+00
    0.22505E-07         0.92345E-10         0.00000E+00
    0.22478E-07         0.10866E-09         0.00000E+00
    0.22452E-07         0.11796E-09         0.00000E+00
    0.22428E-07         0.12180E-09         0.00000E+00
    0.22406E-07         0.12133E-09         0.00000E+00
    0.22385E-07         0.11742E-09         0.00000E+00
    0.22366E-07         0.11070E-09         0.00000E+00
    0.22348E-07         0.10155E-09         0.00000E+00
    0.22332E-07         0.90123E-10         0.00000E+00
    0.22316E-07         0.76369E-10         0.00000E+00
    0.22302E-07         0.60009E-10         0.00000E+00
    0.22290E-07         0.40373E-10         0.00000E+00
    0.22282E-07         0.15954E-10         0.00000E+00
    0.21892E-07         0.33770E-10         0.00000E+00
    0.21881E-07         0.82102E-10         0.00000E+00
    0.21864E-07         0.11149E-09         0.00000E+00
    0.21846E-07         0.12832E-09         0.00000E+00
    0.21829E-07         0.13656E-09         0.00000E+00
    0.21813E-07         0.13877E-09         0.00000E+00
    0.21798E-07         0.13664E-09         0.00000E+00
    0.21786E-07         0.13130E-09         0.00000E+00
    0.21774E-07         0.12348E-09         0.00000E+00
    0.21763E-07         0.11355E-09         0.00000E+00
    0.21753E-07         0.10154E-09         0.00000E+00
    0.21744E-07         0.87158E-10         0.00000E+00
    0.21735E-07         0.69697E-10         0.00000E+00
    0.21727E-07         0.47826E-10         0.00000E+00
    0.21722E-07         0.19238E-10         0.00000E+00
    0.21182E-07         0.37583E-10         0.00000E+00
    0.21177E-07         0.90964E-10         0.00000E+00
    0.21169E-07         0.12239E-09         0.00000E+00
    0.21161E-07         0.13921E-09         0.00000E+00
    0.21153E-07         0.14635E-09         0.00000E+00
    0.21147E-07         0.14708E-09         0.00000E+00
    0.21143E-07         0.14356E-09         0.00000E+00
    0.21139E-07         0.13715E-09         0.00000E+00
    0.21136E-07         0.12867E-09         0.00000E+00
    0.21134E-07         0.11847E-09         0.00000E+00
    0.21131E-07         0.10646E-09         0.00000E+00
    0.21128E-07         0.92130E-10         0.00000E+00
    0.21125E-07         0.74427E-10         0.00000E+00
    0.21123E-07         0.51596E-10         0.00000E+00
    0.21121E-07         0.20914E-10         0.00000E+00
    0.20450E-07         0.38399E-10         0.00000E+00
    0.20450E-07         0.92773E-10         0.00000E+00
    0.20451E-07         0.12418E-09         0.00000E+00
    0.20453E-07         0.14018E-09         0.00000E+00
    0.20456E-07         0.14611E-09         0.00000E+00
    0.20460E-07         0.14559E-09         0.00000E+00
    0.20466E-07         0.14107E-09         0.00000E+00
    0.20472E-07         0.13407E-09         0.00000E+00
    0.20478E-07         0.12546E-09         0.00000E+00
    0.20485E-07         0.11557E-09         0.00000E+00
    0.20490E-07         0.10421E-09         0.00000E+00
    0.20494E-07         0.90703E-10         0.00000E+00
    0.20498E-07         0.73789E-10         0.00000E+00
    0.20500E-07         0.51497E-10         0.00000E+00
    0.20501E-07         0.20974E-10         0.00000E+00
    0.19726E-07         0.36408E-10         0.00000E+00
    0.19731E-07         0.87802E-10         0.00000E+00
    0.19740E-07         0.11700E-09         0.00000E+00
    0.19752E-07         0.13121E-09         0.00000E+00
    0.19765E-07         0.13567E-09         0.00000E+00
    0.19780E-07         0.13409E-09         0.00000E+00
    0.19795E-07         0.12896E-09         0.00000E+00
    0.19811E-07         0.12188E-09         0.00000E+00
    0.19826E-07         0.11371E-09         0.00000E+00
    0.19841E-07         0.10474E-09         0.00000E+00
    0.19854E-07         0.94719E-10         0.00000E+00
    0.19865E-07         0.82876E-10         0.00000E+00
    0.19874E-07         0.67861E-10         0.00000E+00
    0.19881E-07         0.47667E-10         0.00000E+00
    0.19885E-07         0.19520E-10         0.00000E+00
    0.19040E-07         0.31977E-10         0.00000E+00
    0.19049E-07         0.76823E-10         0.00000E+00
    0.19064E-07         0.10171E-09         0.00000E+00
    0.19084E-07         0.11309E-09         0.00000E+00
    0.19107E-07         0.11577E-09         0.00000E+00
    0.19131E-07         0.11322E-09         0.00000E+00
    0.19155E-07         0.10783E-09         0.00000E+00
    0.19180E-07         0.10112E-09         0.00000E+00
    0.19203E-07         0.93927E-10         0.00000E+00
    0.19225E-07         0.86478E-10         0.00000E+00
    0.19245E-07         0.78483E-10         0.00000E+00
    0.19263E-07         0.69140E-10         0.00000E+00
    0.19277E-07         0.57114E-10         0.00000E+00
    0.19287E-07         0.40494E-10         0.00000E+00
    0.19293E-07         0.16738E-10         0.00000E+00
    0.18414E-07         0.25586E-10         0.00000E+00
    0.18426E-07         0.60935E-10         0.00000E+00
    0.18447E-07         0.79698E-10         0.00000E+00
    0.18474E-07         0.87269E-10         0.00000E+00
    0.18503E-07         0.87782E-10         0.00000E+00
    0.18535E-07         0.84279E-10         0.00000E+00
    0.18567E-07         0.78881E-10         0.00000E+00
    0.18598E-07         0.72947E-10         0.00000E+00
    0.18628E-07         0.67195E-10         0.00000E+00
    0.18657E-07         0.61802E-10         0.00000E+00
    0.18682E-07         0.56453E-10         0.00000E+00
    0.18705E-07         0.50368E-10         0.00000E+00
    0.18723E-07         0.42306E-10         0.00000E+00
    0.18737E-07         0.30547E-10         0.00000E+00
    0.18744E-07         0.12877E-10         0.00000E+00
    0.17867E-07         0.17779E-10         0.00000E+00
    0.17881E-07         0.41431E-10         0.00000E+00
    0.17906E-07         0.52637E-10         0.00000E+00
    0.17937E-07         0.55590E-10         0.00000E+00
    0.17972E-07         0.53582E-10         0.00000E+00
    0.18009E-07         0.49085E-10         0.00000E+00
    0.18046E-07         0.43840E-10         0.00000E+00
    0.18083E-07         0.38960E-10         0.00000E+00
    0.18118E-07         0.35017E-10         0.00000E+00
    0.18151E-07         0.32110E-10         0.00000E+00
    0.18181E-07         0.29914E-10         0.00000E+00
    0.18207E-07         0.27710E-10         0.00000E+00
    0.18228E-07         0.24400E-10         0.00000E+00
    0.18244E-07         0.18512E-10         0.00000E+00
    0.18253E-07         0.82191E-11         0.00000E+00
    0.17411E-07         0.91132E-11         0.00000E+00
    0.17426E-07         0.19671E-10         0.00000E+00
    0.17453E-07         0.22357E-10         0.00000E+00
    0.17487E-07         0.20103E-10         0.00000E+00
    0.17525E-07         0.15287E-10         0.00000E+00
    0.17566E-07         0.97271E-11         0.00000E+00
    0.17606E-07         0.47154E-11         0.00000E+00
    0.17646E-07         0.10678E-11         0.00000E+00
    0.17684E-07        -0.82525E-12         0.00000E+00
    0.17719E-07        -0.95110E-12         0.00000E+00
    0.17752E-07         0.36249E-12         0.00000E+00
    0.17780E-07         0.24764E-11         0.00000E+00
    0.17803E-07         0.44635E-11         0.00000E+00
    0.17820E-07         0.51328E-11         0.00000E+00
    0.17830E-07         0.30634E-11         0.00000E+00
    0.17054E-07         0.12352E-12         0.00000E+00
    0.17070E-07        -0.30102E-11         0.00000E+00
    0.17097E-07        -0.93179E-11         0.00000E+00
    0.17132E-07        -0.17099E-10         0.00000E+00
    0.17171E-07        -0.24904E-10         0.00000E+00
    0.17212E-07        -0.31593E-10         0.00000E+00
    0.17253E-07        -0.36355E-10         0.00000E+00
    0.17294E-07        -0.38696E-10         0.00000E+00
    0.17333E-07        -0.38425E-10         0.00000E+00
    0.17370E-07        -0.35623E-10         0.00000E+00
    0.17403E-07        -0.30619E-10         0.00000E+00
    0.17432E-07        -0.23964E-10         0.00000E+00
    0.17455E-07        -0.16401E-10         0.00000E+00
    0.17473E-07        -0.88388E-11         0.00000E+00
    0.17483E-07        -0.22968E-11         0.00000E+00
    0.16798E-07        -0.87037E-11         0.00000E+00
    0.16813E-07        -0.25383E-10         0.00000E+00
    0.16840E-07        -0.40673E-10         0.00000E+00
    0.16873E-07        -0.54023E-10         0.00000E+00
    0.16911E-07        -0.64866E-10         0.00000E+00
    0.16951E-07        -0.72723E-10         0.00000E+00
    0.16992E-07        -0.77260E-10         0.00000E+00
    0.17031E-07        -0.78312E-10         0.00000E+00
    0.17069E-07        -0.75887E-10         0.00000E+00
    0.17105E-07        -0.70162E-10         0.00000E+00
    0.17137E-07        -0.61469E-10         0.00000E+00
    0.17165E-07        -0.50270E-10         0.00000E+00
    0.17188E-07        -0.37132E-10         0.00000E+00
    0.17205E-07        -0.22688E-10         0.00000E+00
    0.17215E-07        -0.75876E-11         0.00000E+00
    0.16641E-07        -0.16949E-10         0.00000E+00
    0.16655E-07        -0.46368E-10         0.00000E+00
    0.16679E-07        -0.70187E-10         0.00000E+00
    0.16710E-07        -0.88872E-10         0.00000E+00
    0.16745E-07        -0.10266E-09         0.00000E+00
    0.16782E-07        -0.11168E-09         0.00000E+00
    0.16820E-07        -0.11604E-09         0.00000E+00
    0.16857E-07        -0.11589E-09         0.00000E+00
    0.16892E-07        -0.11144E-09         0.00000E+00
    0.16925E-07        -0.10294E-09         0.00000E+00
    0.16955E-07        -0.90735E-10         0.00000E+00
    0.16981E-07        -0.75206E-10         0.00000E+00
    0.17002E-07        -0.56755E-10         0.00000E+00
    0.17018E-07        -0.35769E-10         0.00000E+00
    0.17027E-07        -0.12566E-10         0.00000E+00
    0.16577E-07        -0.24271E-10         0.00000E+00
    0.16589E-07        -0.65072E-10         0.00000E+00
    0.16610E-07        -0.96577E-10         0.00000E+00
    0.16638E-07        -0.12011E-09         0.00000E+00
    0.16668E-07        -0.13661E-09         0.00000E+00
    0.16701E-07        -0.14673E-09         0.00000E+00
    0.16734E-07        -0.15098E-09         0.00000E+00
    0.16766E-07        -0.14978E-09         0.00000E+00
    0.16797E-07        -0.14351E-09         0.00000E+00
    0.16826E-07        -0.13251E-09         0.00000E+00
    0.16853E-07        -0.11714E-09         0.00000E+00
    0.16876E-07        -0.97689E-10         0.00000E+00
    0.16895E-07        -0.74428E-10         0.00000E+00
    0.16908E-07        -0.47528E-10         0.00000E+00
    0.16916E-07        -0.17027E-10         0.00000E+00
    0.16597E-07        -0.30406E-10         0.00000E+00
    0.16607E-07        -0.80796E-10         0.00000E+00
    0.16625E-07        -0.11883E-09         0.00000E+00
    0.16647E-07        -0.14652E-09         0.00000E+00
    0.16672E-07        -0.16536E-09         0.00000E+00
    0.16699E-07        -0.17646E-09         0.00000E+00
    0.16726E-07        -0.18066E-09         0.00000E+00
    0.16753E-07        -0.17859E-09         0.00000E+00
    0.16779E-07        -0.17079E-09         0.00000E+00
    0.16803E-07        -0.15769E-09         0.00000E+00
    0.16825E-07        -0.13961E-09         0.00000E+00
    0.16844E-07        -0.11682E-09         0.00000E+00
    0.16859E-07        -0.89458E-10         0.00000E+00
    0.16871E-07        -0.57516E-10         0.00000E+00
    0.16877E-07        -0.20806E-10         0.00000E+00
    0.16691E-07        -0.35168E-10         0.00000E+00
    0.16699E-07        -0.93038E-10         0.00000E+00
    0.16712E-07        -0.13619E-09         0.00000E+00
    0.16729E-07        -0.16717E-09         0.00000E+00
    0.16748E-07        -0.18790E-09         0.00000E+00
    0.16768E-07        -0.19981E-09         0.00000E+00
    0.16788E-07        -0.20399E-09         0.00000E+00
    0.16808E-07        -0.20128E-09         0.00000E+00
    0.16828E-07        -0.19230E-09         0.00000E+00
    0.16846E-07        -0.17754E-09         0.00000E+00
    0.16863E-07        -0.15735E-09         0.00000E+00
    0.16877E-07        -0.13193E-09         0.00000E+00
    0.16889E-07        -0.10132E-09         0.00000E+00
    0.16898E-07        -0.65394E-10         0.00000E+00
    0.16902E-07        -0.23784E-10         0.00000E+00
    0.16845E-07        -0.38444E-10         0.00000E+00
    0.16851E-07        -0.10148E-09         0.00000E+00
    0.16859E-07        -0.14819E-09         0.00000E+00
    0.16870E-07        -0.18148E-09         0.00000E+00
    0.16882E-07        -0.20354E-09         0.00000E+00
    0.16895E-07        -0.21604E-09         0.00000E+00
    0.16909E-07        -0.22025E-09         0.00000E+00
    0.16922E-07        -0.21710E-09         0.00000E+00
    0.16934E-07        -0.20733E-09         0.00000E+00
    0.16946E-07        -0.19144E-09         0.00000E+00
    0.16957E-07        -0.16978E-09         0.00000E+00
    0.16966E-07        -0.14252E-09         0.00000E+00
    0.16974E-07        -0.10965E-09         0.00000E+00
    0.16980E-07        -0.70930E-10         0.00000E+00
    0.16983E-07        -0.25878E-10         0.00000E+00
    0.17047E-07        -0.40183E-10         0.00000E+00
    0.17050E-07        -0.10597E-09         0.00000E+00
    0.17054E-07        -0.15459E-09         0.00000E+00
    0.17058E-07        -0.18912E-09         0.00000E+00
    0.17064E-07        -0.21192E-09         0.00000E+00
    0.17070E-07        -0.22477E-09         0.00000E+00
    0.17075E-07        -0.22901E-09         0.00000E+00
    0.17081E-07        -0.22567E-09         0.00000E+00
    0.17087E-07        -0.21549E-09         0.00000E+00
    0.17092E-07        -0.19901E-09         0.00000E+00
    0.17097E-07        -0.17657E-09         0.00000E+00
    0.17101E-07        -0.14833E-09         0.00000E+00
    0.17104E-07        -0.11424E-09         0.00000E+00
    0.17107E-07        -0.73996E-10         0.00000E+00
    0.17109E-07        -0.27045E-10         0.00000E+00
    0.17282E-07        -0.40391E-10         0.00000E+00
    0.17282E-07        -0.10651E-09         0.00000E+00
    0.17282E-07        -0.15536E-09         0.00000E+00
    0.17281E-07        -0.19007E-09         0.00000E+00
    0.17279E-07        -0.21298E-09         0.00000E+00
    0.17278E-07        -0.22591E-09         0.00000E+00
    0.17276E-07        -0.23021E-09         0.00000E+00
    0.17275E-07        -0.22687E-09         0.00000E+00
    0.17273E-07        -0.21667E-09         0.00000E+00
    0.17272E-07        -0.20015E-09         0.00000E+00
    0.17271E-07        -0.17763E-09         0.00000E+00
    0.17270E-07        -0.14928E-09         0.00000E+00
    0.17269E-07        -0.11502E-09         0.00000E+00
    0.17269E-07        -0.74553E-10         0.00000E+00
    0.17269E-07        -0.27273E-10         0.00000E+00
    0.17537E-07        -0.39117E-10         0.00000E+00
    0.17535E-07        -0.10322E-09         0.00000E+00
    0.17530E-07        -0.15068E-09         0.00000E+00
    0.17523E-07        -0.18450E-09         0.00000E+00
    0.17515E-07        -0.20694E-09         0.00000E+00
    0.17507E-07        -0.21968E-09         0.00000E+00
    0.17498E-07        -0.22400E-09         0.00000E+00
    0.17490E-07        -0.22088E-09         0.00000E+00
    0.17482E-07        -0.21103E-09         0.00000E+00
    0.17474E-07        -0.19498E-09         0.00000E+00
    0.17467E-07        -0.17306E-09         0.00000E+00
    0.17461E-07        -0.14544E-09         0.00000E+00
    0.17457E-07        -0.11206E-09         0.00000E+00
    0.17453E-07        -0.72638E-10         0.00000E+00
    0.17451E-07        -0.26576E-10         0.00000E+00
    0.17798E-07        -0.36448E-10         0.00000E+00
    0.17794E-07        -0.96330E-10         0.00000E+00
    0.17785E-07        -0.14089E-09         0.00000E+00
    0.17773E-07        -0.17284E-09         0.00000E+00
    0.17760E-07        -0.19421E-09         0.00000E+00
    0.17745E-07        -0.20650E-09         0.00000E+00
    0.17730E-07        -0.21083E-09         0.00000E+00
    0.17715E-07        -0.20808E-09         0.00000E+00
    0.17701E-07        -0.19891E-09         0.00000E+00
    0.17687E-07        -0.18381E-09         0.00000E+00
    0.17675E-07        -0.16313E-09         0.00000E+00
    0.17664E-07        -0.13704E-09         0.00000E+00
    0.17656E-07        -0.10553E-09         0.00000E+00
    0.17650E-07        -0.68358E-10         0.00000E+00
    0.17646E-07        -0.24993E-10         0.00000E+00
    0.18054E-07        -0.32499E-10         0.00000E+00
    0.18048E-07        -0.86160E-10         0.00000E+00
    0.18035E-07        -0.12645E-09         0.00000E+00
    0.18019E-07        -0.15566E-09         0.00000E+00
    0.18000E-07        -0.17544E-09         0.00000E+00
    0.17980E-07        -0.18700E-09         0.00000E+00
    0.17959E-07        -0.19129E-09         0.00000E+00
    0.17938E-07        -0.18903E-09         0.00000E+00
    0.17918E-07        -0.18082E-09         0.00000E+00
    0.17900E-07        -0.16712E-09         0.00000E+00
    0.17883E-07        -0.14825E-09         0.00000E+00
    0.17868E-07        -0.12442E-09         0.00000E+00
    0.17856E-07        -0.95673E-10         0.00000E+00
    0.17847E-07        -0.61867E-10         0.00000E+00
    0.17843E-07        -0.22575E-10         0.00000E+00
    0.18292E-07        -0.27410E-10         0.00000E+00
    0.18285E-07        -0.73115E-10         0.00000E+00
    0.18270E-07        -0.10798E-09         0.00000E+00
    0.18250E-07        -0.13370E-09         0.00000E+00
    0.18227E-07        -0.15140E-09         0.00000E+00
    0.18202E-07        -0.16196E-09         0.00000E+00
    0.18176E-07        -0.16609E-09         0.00000E+00
    0.18150E-07        -0.16440E-09         0.00000E+00
    0.18125E-07        -0.15738E-09         0.00000E+00
    0.18102E-07        -0.14545E-09         0.00000E+00
    0.18080E-07        -0.12891E-09         0.00000E+00
    0.18062E-07        -0.10799E-09         0.00000E+00
    0.18047E-07        -0.82818E-10         0.00000E+00
    0.18036E-07        -0.53368E-10         0.00000E+00
    0.18030E-07        -0.19387E-10         0.00000E+00
    0.18504E-07        -0.21345E-10         0.00000E+00
    0.18496E-07        -0.57708E-10         0.00000E+00
    0.18479E-07        -0.86263E-10         0.00000E+00
    0.18456E-07        -0.10783E-09         0.00000E+00
    0.18430E-07        -0.12297E-09         0.00000E+00
    0.18401E-07        -0.13219E-09         0.00000E+00
    0.18371E-07        -0.13600E-09         0.00000E+00
    0.18341E-07        -0.13487E-09         0.00000E+00
    0.18311E-07        -0.12921E-09         0.00000E+00
    0.18284E-07        -0.11938E-09         0.00000E+00
    0.18259E-07        -0.10565E-09         0.00000E+00
    0.18237E-07        -0.88249E-10         0.00000E+00
    0.18219E-07        -0.67356E-10         0.00000E+00
    0.18207E-07        -0.43107E-10         0.00000E+00
    0.18200E-07        -0.15505E-10         0.00000E+00
    0.18681E-07        -0.14523E-10         0.00000E+00
    0.18673E-07        -0.40645E-10         0.00000E+00
    0.18655E-07        -0.62261E-10         0.00000E+00
    0.18631E-07        -0.79056E-10         0.00000E+00
    0.18602E-07        -0.91045E-10         0.00000E+00
    0.18570E-07        -0.98471E-10         0.00000E+00
    0.18536E-07        -0.10168E-09         0.00000E+00
    0.18502E-07        -0.10104E-09         0.00000E+00
    0.18469E-07        -0.96865E-10         0.00000E+00
    0.18438E-07        -0.89440E-10         0.00000E+00
    0.18409E-07        -0.78989E-10         0.00000E+00
    0.18385E-07        -0.65700E-10         0.00000E+00
    0.18365E-07        -0.49763E-10         0.00000E+00
    0.18351E-07        -0.31404E-10         0.00000E+00
    0.18344E-07        -0.11021E-10         0.00000E+00
    0.18818E-07        -0.73347E-11         0.00000E+00
    0.18810E-07        -0.23131E-10         0.00000E+00
    0.18793E-07        -0.37190E-10         0.00000E+00
    0.18768E-07        -0.48344E-10         0.00000E+00
    0.18738E-07        -0.56360E-10         0.00000E+00
    0.18703E-07        -0.61362E-10         0.00000E+00
    0.18666E-07        -0.63592E-10         0.00000E+00
    0.18628E-07        -0.63302E-10         0.00000E+00
    0.18592E-07        -0.60716E-10         0.00000E+00
    0.18557E-07        -0.56016E-10         0.00000E+00
    0.18526E-07        -0.49347E-10         0.00000E+00
    0.18499E-07        -0.40827E-10         0.00000E+00
    0.18478E-07        -0.30584E-10         0.00000E+00
    0.18463E-07        -0.18828E-10         0.00000E+00
    0.18456E-07        -0.60275E-11         0.00000E+00
    0.18909E-07        -0.18572E-11         0.00000E+00
    0.18906E-07        -0.72282E-11         0.00000E+00
    0.18891E-07        -0.12276E-10         0.00000E+00
    0.18866E-07        -0.16310E-10         0.00000E+00
    0.18834E-07        -0.19200E-10         0.00000E+00
    0.18796E-07        -0.21005E-10         0.00000E+00
    0.18756E-07        -0.21820E-10         0.00000E+00
    0.18715E-07        -0.21744E-10         0.00000E+00
    0.18674E-07        -0.20860E-10         0.00000E+00
    0.18636E-07        -0.19233E-10         0.00000E+00
    0.18602E-07        -0.16911E-10         0.00000E+00
    0.18573E-07        -0.13932E-10         0.00000E+00
    0.18550E-07        -0.10334E-10         0.00000E+00
    0.18536E-07        -0.62090E-11         0.00000E+00
    0.18530E-07        -0.17065E-11         0.00000E+00
POINT_DATA        496
VECTORS vDarcyNodal double 
    0.23967E-07         0.00000E+00         0.00000E+00
    0.23971E-07         0.00000E+00         0.00000E+00
    0.23968E-07         0.00000E+00         0.00000E+00
    0.23956E-07         0.00000E+00         0.00000E+00
    0.23935E-07         0.00000E+00         0.00000E+00
    0.23908E-07         0.00000E+00         0.00000E+00
    0.23877E-07         0.00000E+00         0.00000E+00
    0.23844E-07         0.00000E+00         0.00000E+00
    0.23811E-07         0.00000E+00         0.00000E+00
    0.23780E-07         0.00000E+00         0.00000E+00
    0.23752E-07         0.00000E+00         0.00000E+00
    0.23729E-07         0.00000E+00         0.00000E+00
    0.23711E-07        -0.66656E-22         0.00000E+00
    0.23699E-07        -0.84496E-26         0.00000E+00
    0.23694E-07         0.66647E-22         0.00000E+00
    0.23697E-07         0.00000E+00         0.00000E+00
    0.23909E-07        -0.84584E-11         0.00000E+00
    0.23904E-07        -0.66636E-11         0.00000E+00
    0.23892E-07         0.54782E-12         0.00000E+00
    0.23873E-07         0.10828E-10         0.00000E+00
    0.23848E-07         0.19256E-10         0.00000E+00
    0.23819E-07         0.25064E-10         0.00000E+00
    0.23787E-07         0.28391E-10         0.00000E+00
    0.23755E-07         0.29583E-10         0.00000E+00
    0.23722E-07         0.28968E-10         0.00000E+00
    0.23692E-07         0.26788E-10         0.00000E+00
    0.23664E-07         0.23188E-10         0.00000E+00
    0.23640E-07         0.18242E-10         0.00000E+00
    0.23621E-07         0.12047E-10         0.00000E+00
    0.23607E-07         0.49416E-11         0.00000E+00
    0.23598E-07        -0.14677E-11         0.00000E+00
    0.23595E-07        -0.41637E-11         0.00000E+00
    0.23704E-07         0.10777E-11         0.00000E+00
    0.23691E-07         0.60555E-11         0.00000E+00
    0.23665E-07         0.18518E-10         0.00000E+00
    0.23636E-07         0.32862E-10         0.00000E+00
    0.23605E-07         0.44801E-10         0.00000E+00
    0.23574E-07         0.53014E-10         0.00000E+00
    0.23541E-07         0.57505E-10         0.00000E+00
    0.23509E-07         0.58687E-10         0.00000E+00
    0.23479E-07         0.57024E-10         0.00000E+00
    0.23450E-07         0.52888E-10         0.00000E+00
    0.23423E-07         0.46538E-10         0.00000E+00
    0.23399E-07         0.38162E-10         0.00000E+00
    0.23379E-07         0.28028E-10         0.00000E+00
    0.23361E-07         0.16849E-10         0.00000E+00
    0.23347E-07         0.67069E-11         0.00000E+00
    0.23340E-07         0.22810E-11         0.00000E+00
    0.23336E-07         0.12495E-10         0.00000E+00
    0.23322E-07         0.23441E-10         0.00000E+00
    0.23295E-07         0.43852E-10         0.00000E+00
    0.23263E-07         0.60885E-10         0.00000E+00
    0.23230E-07         0.73734E-10         0.00000E+00
    0.23199E-07         0.82023E-10         0.00000E+00
    0.23168E-07         0.85999E-10         0.00000E+00
    0.23139E-07         0.86186E-10         0.00000E+00
    0.23111E-07         0.83123E-10         0.00000E+00
    0.23085E-07         0.77251E-10         0.00000E+00
    0.23061E-07         0.68879E-10         0.00000E+00
    0.23039E-07         0.58231E-10         0.00000E+00
    0.23019E-07         0.45561E-10         0.00000E+00
    0.23001E-07         0.31350E-10         0.00000E+00
    0.22987E-07         0.16223E-10         0.00000E+00
    0.22980E-07         0.85057E-11         0.00000E+00
    0.22832E-07         0.22926E-10         0.00000E+00
    0.22821E-07         0.40107E-10         0.00000E+00
    0.22796E-07         0.69085E-10         0.00000E+00
    0.22767E-07         0.88867E-10         0.00000E+00
    0.22738E-07         0.10176E-09         0.00000E+00
    0.22710E-07         0.10901E-09         0.00000E+00
    0.22684E-07         0.11155E-09         0.00000E+00
    0.22659E-07         0.11019E-09         0.00000E+00
    0.22636E-07         0.10559E-09         0.00000E+00
    0.22615E-07         0.98233E-10         0.00000E+00
    0.22596E-07         0.88415E-10         0.00000E+00
    0.22577E-07         0.76275E-10         0.00000E+00
    0.22560E-07         0.61821E-10         0.00000E+00
    0.22545E-07         0.44890E-10         0.00000E+00
    0.22533E-07         0.24845E-10         0.00000E+00
    0.22527E-07         0.13919E-10         0.00000E+00
    0.22222E-07         0.31103E-10         0.00000E+00
    0.22214E-07         0.53505E-10         0.00000E+00
    0.22195E-07         0.89855E-10         0.00000E+00
    0.22173E-07         0.11213E-09         0.00000E+00
    0.22151E-07         0.12485E-09         0.00000E+00
    0.22130E-07         0.13075E-09         0.00000E+00
    0.22111E-07         0.13158E-09         0.00000E+00
    0.22093E-07         0.12856E-09         0.00000E+00
    0.22077E-07         0.12253E-09         0.00000E+00
    0.22063E-07         0.11402E-09         0.00000E+00
    0.22049E-07         0.10326E-09         0.00000E+00
    0.22036E-07         0.90217E-10         0.00000E+00
    0.22024E-07         0.74556E-10         0.00000E+00
    0.22013E-07         0.55491E-10         0.00000E+00
    0.22004E-07         0.31481E-10         0.00000E+00
    0.22000E-07         0.17989E-10         0.00000E+00
    0.21539E-07         0.36437E-10         0.00000E+00
    0.21534E-07         0.62365E-10         0.00000E+00
    0.21523E-07         0.10374E-09         0.00000E+00
    0.21510E-07         0.12767E-09         0.00000E+00
    0.21497E-07         0.14003E-09         0.00000E+00
    0.21485E-07         0.14459E-09         0.00000E+00
    0.21475E-07         0.14383E-09         0.00000E+00
    0.21466E-07         0.13938E-09         0.00000E+00
    0.21459E-07         0.13225E-09         0.00000E+00
    0.21452E-07         0.12301E-09         0.00000E+00
    0.21445E-07         0.11183E-09         0.00000E+00
    0.21439E-07         0.98478E-10         0.00000E+00
    0.21433E-07         0.82298E-10         0.00000E+00
    0.21427E-07         0.62032E-10         0.00000E+00
    0.21423E-07         0.35582E-10         0.00000E+00
    0.21420E-07         0.20487E-10         0.00000E+00
    0.20816E-07         0.38730E-10         0.00000E+00
    0.20815E-07         0.66182E-10         0.00000E+00
    0.20811E-07         0.10961E-09         0.00000E+00
    0.20808E-07         0.13392E-09         0.00000E+00
    0.20805E-07         0.14553E-09         0.00000E+00
    0.20804E-07         0.14885E-09         0.00000E+00
    0.20804E-07         0.14681E-09         0.00000E+00
    0.20805E-07         0.14133E-09         0.00000E+00
    0.20806E-07         0.13357E-09         0.00000E+00
    0.20808E-07         0.12413E-09         0.00000E+00
    0.20810E-07         0.11310E-09         0.00000E+00
    0.20811E-07         0.10011E-09         0.00000E+00
    0.20812E-07         0.84259E-10         0.00000E+00
    0.20811E-07         0.63991E-10         0.00000E+00
    0.20811E-07         0.36928E-10         0.00000E+00
    0.20811E-07         0.21342E-10         0.00000E+00
    0.20087E-07         0.38069E-10         0.00000E+00
    0.20088E-07         0.64991E-10         0.00000E+00
    0.20092E-07         0.10734E-09         0.00000E+00
    0.20098E-07         0.13045E-09         0.00000E+00
    0.20106E-07         0.14077E-09         0.00000E+00
    0.20115E-07         0.14286E-09         0.00000E+00
    0.20125E-07         0.13985E-09         0.00000E+00
    0.20136E-07         0.13381E-09         0.00000E+00
    0.20147E-07         0.12596E-09         0.00000E+00
    0.20158E-07         0.11690E-09         0.00000E+00
    0.20168E-07         0.10668E-09         0.00000E+00
    0.20176E-07         0.94800E-10         0.00000E+00
    0.20183E-07         0.80233E-10         0.00000E+00
    0.20189E-07         0.61295E-10         0.00000E+00
    0.20192E-07         0.35543E-10         0.00000E+00
    0.20193E-07         0.20607E-10         0.00000E+00
    0.19381E-07         0.34748E-10         0.00000E+00
    0.19385E-07         0.59221E-10         0.00000E+00
    0.19395E-07         0.97466E-10         0.00000E+00
    0.19409E-07         0.11776E-09         0.00000E+00
    0.19427E-07         0.12612E-09         0.00000E+00
    0.19445E-07         0.12691E-09         0.00000E+00
    0.19465E-07         0.12321E-09         0.00000E+00
    0.19486E-07         0.11704E-09         0.00000E+00
    0.19505E-07         0.10963E-09         0.00000E+00
    0.19524E-07         0.10155E-09         0.00000E+00
    0.19542E-07         0.92781E-10         0.00000E+00
    0.19557E-07         0.82796E-10         0.00000E+00
    0.19571E-07         0.70505E-10         0.00000E+00
    0.19581E-07         0.54234E-10         0.00000E+00
    0.19588E-07         0.31644E-10         0.00000E+00
    0.19590E-07         0.18433E-10         0.00000E+00
    0.18724E-07         0.29206E-10         0.00000E+00
    0.18730E-07         0.49580E-10         0.00000E+00
    0.18745E-07         0.81074E-10         0.00000E+00
    0.18766E-07         0.97045E-10         0.00000E+00
    0.18792E-07         0.10274E-09         0.00000E+00
    0.18819E-07         0.10207E-09         0.00000E+00
    0.18847E-07         0.97841E-10         0.00000E+00
    0.18875E-07         0.91916E-10         0.00000E+00
    0.18903E-07         0.85424E-10         0.00000E+00
    0.18929E-07         0.78863E-10         0.00000E+00
    0.18953E-07         0.72182E-10         0.00000E+00
    0.18974E-07         0.64829E-10         0.00000E+00
    0.18993E-07         0.55749E-10         0.00000E+00
    0.19007E-07         0.43375E-10         0.00000E+00
    0.19017E-07         0.25589E-10         0.00000E+00
    0.19021E-07         0.15044E-10         0.00000E+00
    0.18136E-07         0.21967E-10         0.00000E+00
    0.18144E-07         0.36943E-10         0.00000E+00
    0.18163E-07         0.59563E-10         0.00000E+00
    0.18190E-07         0.69927E-10         0.00000E+00
    0.18221E-07         0.72315E-10         0.00000E+00
    0.18255E-07         0.69991E-10         0.00000E+00
    0.18289E-07         0.65323E-10         0.00000E+00
    0.18324E-07         0.59916E-10         0.00000E+00
    0.18357E-07         0.54721E-10         0.00000E+00
    0.18389E-07         0.50138E-10         0.00000E+00
    0.18418E-07         0.46075E-10         0.00000E+00
    0.18445E-07         0.41994E-10         0.00000E+00
    0.18467E-07         0.36927E-10         0.00000E+00
    0.18485E-07         0.29480E-10         0.00000E+00
    0.18496E-07         0.17836E-10         0.00000E+00
    0.18501E-07         0.10710E-10         0.00000E+00
    0.17634E-07         0.13592E-10         0.00000E+00
    0.17643E-07         0.22269E-10         0.00000E+00
    0.17665E-07         0.34509E-10         0.00000E+00
    0.17695E-07         0.38304E-10         0.00000E+00
    0.17730E-07         0.36861E-10         0.00000E+00
    0.17768E-07         0.32681E-10         0.00000E+00
    0.17807E-07         0.27606E-10         0.00000E+00
    0.17846E-07         0.22889E-10         0.00000E+00
    0.17883E-07         0.19260E-10         0.00000E+00
    0.17919E-07         0.16993E-10         0.00000E+00
    0.17951E-07         0.15952E-10         0.00000E+00
    0.17981E-07         0.15632E-10         0.00000E+00
    0.18006E-07         0.15185E-10         0.00000E+00
    0.18026E-07         0.13433E-10         0.00000E+00
    0.18039E-07         0.88962E-11         0.00000E+00
    0.18044E-07         0.57285E-11         0.00000E+00
    0.17228E-07         0.46354E-11         0.00000E+00
    0.17237E-07         0.65179E-11         0.00000E+00
    0.17259E-07         0.75232E-11         0.00000E+00
    0.17291E-07         0.41603E-11         0.00000E+00
    0.17328E-07        -0.14658E-11         0.00000E+00
    0.17368E-07        -0.76613E-11         0.00000E+00
    0.17409E-07        -0.13159E-10         0.00000E+00
    0.17450E-07        -0.17101E-10         0.00000E+00
    0.17490E-07        -0.19014E-10         0.00000E+00
    0.17527E-07        -0.18765E-10         0.00000E+00
    0.17562E-07        -0.16537E-10         0.00000E+00
    0.17593E-07        -0.12791E-10         0.00000E+00
    0.17619E-07        -0.82427E-11         0.00000E+00
    0.17640E-07        -0.38350E-11         0.00000E+00
    0.17654E-07        -0.69912E-12         0.00000E+00
    0.17659E-07         0.39878E-12         0.00000E+00
    0.16921E-07        -0.43871E-11         0.00000E+00
    0.16930E-07        -0.94024E-11         0.00000E+00
    0.16953E-07        -0.19848E-10         0.00000E+00
    0.16984E-07        -0.30573E-10         0.00000E+00
    0.17021E-07        -0.40532E-10         0.00000E+00
    0.17061E-07        -0.48831E-10         0.00000E+00
    0.17102E-07        -0.54785E-10         0.00000E+00
    0.17143E-07        -0.57945E-10         0.00000E+00
    0.17182E-07        -0.58104E-10         0.00000E+00
    0.17220E-07        -0.55280E-10         0.00000E+00
    0.17254E-07        -0.49702E-10         0.00000E+00
    0.17285E-07        -0.41789E-10         0.00000E+00
    0.17312E-07        -0.32120E-10         0.00000E+00
    0.17332E-07        -0.21404E-10         0.00000E+00
    0.17346E-07        -0.10436E-10         0.00000E+00
    0.17351E-07        -0.49919E-11         0.00000E+00
    0.16715E-07        -0.13019E-10         0.00000E+00
    0.16723E-07        -0.24682E-10         0.00000E+00
    0.16745E-07        -0.46205E-10         0.00000E+00
    0.16774E-07        -0.64120E-10         0.00000E+00
    0.16809E-07        -0.78352E-10         0.00000E+00
    0.16847E-07        -0.88753E-10         0.00000E+00
    0.16886E-07        -0.95194E-10         0.00000E+00
    0.16925E-07        -0.97623E-10         0.00000E+00
    0.16963E-07        -0.96091E-10         0.00000E+00
    0.16998E-07        -0.90766E-10         0.00000E+00
    0.17031E-07        -0.81926E-10         0.00000E+00
    0.17061E-07        -0.69948E-10         0.00000E+00
    0.17086E-07        -0.55280E-10         0.00000E+00
    0.17105E-07        -0.38415E-10         0.00000E+00
    0.17118E-07        -0.19839E-10         0.00000E+00
    0.17123E-07        -0.10183E-10         0.00000E+00
    0.16605E-07        -0.20879E-10         0.00000E+00
    0.16612E-07        -0.38634E-10         0.00000E+00
    0.16631E-07        -0.70347E-10         0.00000E+00
    0.16658E-07        -0.94936E-10         0.00000E+00
    0.16690E-07        -0.11317E-09         0.00000E+00
    0.16724E-07        -0.12558E-09         0.00000E+00
    0.16759E-07        -0.13252E-09         0.00000E+00
    0.16794E-07        -0.13431E-09         0.00000E+00
    0.16828E-07        -0.13123E-09         0.00000E+00
    0.16861E-07        -0.12360E-09         0.00000E+00
    0.16890E-07        -0.11174E-09         0.00000E+00
    0.16917E-07        -0.95991E-10         0.00000E+00
    0.16940E-07        -0.76680E-10         0.00000E+00
    0.16957E-07        -0.54108E-10         0.00000E+00
    0.16969E-07        -0.28495E-10         0.00000E+00
    0.16974E-07        -0.14948E-10         0.00000E+00
    0.16584E-07        -0.27663E-10         0.00000E+00
    0.16590E-07        -0.50708E-10         0.00000E+00
    0.16606E-07        -0.91299E-10         0.00000E+00
    0.16629E-07        -0.12175E-09         0.00000E+00
    0.16656E-07        -0.14355E-09         0.00000E+00
    0.16685E-07        -0.15776E-09         0.00000E+00
    0.16715E-07        -0.16518E-09         0.00000E+00
    0.16745E-07        -0.16645E-09         0.00000E+00
    0.16774E-07        -0.16205E-09         0.00000E+00
    0.16802E-07        -0.15241E-09         0.00000E+00
    0.16827E-07        -0.13790E-09         0.00000E+00
    0.16850E-07        -0.11883E-09         0.00000E+00
    0.16869E-07        -0.95435E-10         0.00000E+00
    0.16885E-07        -0.67846E-10         0.00000E+00
    0.16895E-07        -0.36059E-10         0.00000E+00
    0.16899E-07        -0.19104E-10         0.00000E+00
    0.16642E-07        -0.33148E-10         0.00000E+00
    0.16647E-07        -0.60493E-10         0.00000E+00
    0.16659E-07        -0.10832E-09         0.00000E+00
    0.16677E-07        -0.14359E-09         0.00000E+00
    0.16698E-07        -0.16833E-09         0.00000E+00
    0.16721E-07        -0.18407E-09         0.00000E+00
    0.16745E-07        -0.19193E-09         0.00000E+00
    0.16769E-07        -0.19280E-09         0.00000E+00
    0.16792E-07        -0.18734E-09         0.00000E+00
    0.16814E-07        -0.17607E-09         0.00000E+00
    0.16834E-07        -0.15940E-09         0.00000E+00
    0.16853E-07        -0.13760E-09         0.00000E+00
    0.16868E-07        -0.11085E-09         0.00000E+00
    0.16880E-07        -0.79127E-10         0.00000E+00
    0.16888E-07        -0.42263E-10         0.00000E+00
    0.16891E-07        -0.22508E-10         0.00000E+00
    0.16767E-07        -0.37187E-10         0.00000E+00
    0.16770E-07        -0.67712E-10         0.00000E+00
    0.16779E-07        -0.12091E-09         0.00000E+00
    0.16792E-07        -0.15977E-09         0.00000E+00
    0.16807E-07        -0.18674E-09         0.00000E+00
    0.16823E-07        -0.20364E-09         0.00000E+00
    0.16840E-07        -0.21187E-09         0.00000E+00
    0.16857E-07        -0.21247E-09         0.00000E+00
    0.16873E-07        -0.20624E-09         0.00000E+00
    0.16889E-07        -0.19377E-09         0.00000E+00
    0.16903E-07        -0.17549E-09         0.00000E+00
    0.16916E-07        -0.15167E-09         0.00000E+00
    0.16927E-07        -0.12240E-09         0.00000E+00
    0.16936E-07        -0.87585E-10         0.00000E+00
    0.16942E-07        -0.46914E-10         0.00000E+00
    0.16944E-07        -0.25059E-10         0.00000E+00
    0.16945E-07        -0.39700E-10         0.00000E+00
    0.16948E-07        -0.72211E-10         0.00000E+00
    0.16953E-07        -0.12876E-09         0.00000E+00
    0.16960E-07        -0.16990E-09         0.00000E+00
    0.16968E-07        -0.19828E-09         0.00000E+00
    0.16978E-07        -0.21594E-09         0.00000E+00
    0.16987E-07        -0.22442E-09         0.00000E+00
    0.16997E-07        -0.22488E-09         0.00000E+00
    0.17006E-07        -0.21819E-09         0.00000E+00
    0.17015E-07        -0.20499E-09         0.00000E+00
    0.17023E-07        -0.18572E-09         0.00000E+00
    0.17030E-07        -0.16062E-09         0.00000E+00
    0.17037E-07        -0.12977E-09         0.00000E+00
    0.17042E-07        -0.92992E-10         0.00000E+00
    0.17045E-07        -0.49894E-10         0.00000E+00
    0.17046E-07        -0.26697E-10         0.00000E+00
    0.17165E-07        -0.40666E-10         0.00000E+00
    0.17165E-07        -0.73943E-10         0.00000E+00
    0.17167E-07        -0.13180E-09         0.00000E+00
    0.17169E-07        -0.17382E-09         0.00000E+00
    0.17171E-07        -0.20276E-09         0.00000E+00
    0.17173E-07        -0.22075E-09         0.00000E+00
    0.17175E-07        -0.22936E-09         0.00000E+00
    0.17177E-07        -0.22980E-09         0.00000E+00
    0.17179E-07        -0.22297E-09         0.00000E+00
    0.17181E-07        -0.20950E-09         0.00000E+00
    0.17183E-07        -0.18986E-09         0.00000E+00
    0.17185E-07        -0.16428E-09         0.00000E+00
    0.17186E-07        -0.13280E-09         0.00000E+00
    0.17187E-07        -0.95240E-10         0.00000E+00
    0.17188E-07        -0.51147E-10         0.00000E+00
    0.17189E-07        -0.27393E-10         0.00000E+00
    0.17410E-07        -0.40116E-10         0.00000E+00
    0.17410E-07        -0.72958E-10         0.00000E+00
    0.17408E-07        -0.13008E-09         0.00000E+00
    0.17404E-07        -0.17161E-09         0.00000E+00
    0.17400E-07        -0.20029E-09         0.00000E+00
    0.17395E-07        -0.21815E-09         0.00000E+00
    0.17390E-07        -0.22676E-09         0.00000E+00
    0.17385E-07        -0.22728E-09         0.00000E+00
    0.17380E-07        -0.22058E-09         0.00000E+00
    0.17375E-07        -0.20732E-09         0.00000E+00
    0.17371E-07        -0.18792E-09         0.00000E+00
    0.17367E-07        -0.16263E-09         0.00000E+00
    0.17364E-07        -0.13150E-09         0.00000E+00
    0.17362E-07        -0.94334E-10         0.00000E+00
    0.17360E-07        -0.50678E-10         0.00000E+00
    0.17360E-07        -0.27152E-10         0.00000E+00
    0.17669E-07        -0.38118E-10         0.00000E+00
    0.17667E-07        -0.69380E-10         0.00000E+00
    0.17662E-07        -0.12383E-09         0.00000E+00
    0.17653E-07        -0.16358E-09         0.00000E+00
    0.17643E-07        -0.19116E-09         0.00000E+00
    0.17632E-07        -0.20847E-09         0.00000E+00
    0.17620E-07        -0.21693E-09         0.00000E+00
    0.17608E-07        -0.21761E-09         0.00000E+00
    0.17597E-07        -0.21133E-09         0.00000E+00
    0.17586E-07        -0.19869E-09         0.00000E+00
    0.17576E-07        -0.18012E-09         0.00000E+00
    0.17567E-07        -0.15587E-09         0.00000E+00
    0.17559E-07        -0.12601E-09         0.00000E+00
    0.17553E-07        -0.90369E-10         0.00000E+00
    0.17549E-07        -0.48537E-10         0.00000E+00
    0.17548E-07        -0.26001E-10         0.00000E+00
    0.17928E-07        -0.34778E-10         0.00000E+00
    0.17925E-07        -0.63399E-10         0.00000E+00
    0.17917E-07        -0.11339E-09         0.00000E+00
    0.17904E-07        -0.15015E-09         0.00000E+00
    0.17889E-07        -0.17590E-09         0.00000E+00
    0.17872E-07        -0.19225E-09         0.00000E+00
    0.17854E-07        -0.20040E-09         0.00000E+00
    0.17836E-07        -0.20130E-09         0.00000E+00
    0.17818E-07        -0.19566E-09         0.00000E+00
    0.17801E-07        -0.18403E-09         0.00000E+00
    0.17786E-07        -0.16683E-09         0.00000E+00
    0.17772E-07        -0.14431E-09         0.00000E+00
    0.17760E-07        -0.11657E-09         0.00000E+00
    0.17751E-07        -0.83520E-10         0.00000E+00
    0.17745E-07        -0.44814E-10         0.00000E+00
    0.17743E-07        -0.23985E-10         0.00000E+00
    0.18176E-07        -0.30221E-10         0.00000E+00
    0.18172E-07        -0.55261E-10         0.00000E+00
    0.18161E-07        -0.99219E-10         0.00000E+00
    0.18144E-07        -0.13195E-09         0.00000E+00
    0.18125E-07        -0.15520E-09         0.00000E+00
    0.18103E-07        -0.17020E-09         0.00000E+00
    0.18079E-07        -0.17789E-09         0.00000E+00
    0.18056E-07        -0.17902E-09         0.00000E+00
    0.18033E-07        -0.17419E-09         0.00000E+00
    0.18011E-07        -0.16391E-09         0.00000E+00
    0.17990E-07        -0.14854E-09         0.00000E+00
    0.17972E-07        -0.12836E-09         0.00000E+00
    0.17957E-07        -0.10353E-09         0.00000E+00
    0.17945E-07        -0.74022E-10         0.00000E+00
    0.17938E-07        -0.39629E-10         0.00000E+00
    0.17935E-07        -0.21165E-10         0.00000E+00
    0.18401E-07        -0.24600E-10         0.00000E+00
    0.18397E-07        -0.45266E-10         0.00000E+00
    0.18384E-07        -0.81882E-10         0.00000E+00
    0.18365E-07        -0.10973E-09         0.00000E+00
    0.18341E-07        -0.12990E-09         0.00000E+00
    0.18315E-07        -0.14316E-09         0.00000E+00
    0.18287E-07        -0.15017E-09         0.00000E+00
    0.18259E-07        -0.15148E-09         0.00000E+00
    0.18231E-07        -0.14759E-09         0.00000E+00
    0.18205E-07        -0.13892E-09         0.00000E+00
    0.18180E-07        -0.12582E-09         0.00000E+00
    0.18158E-07        -0.10854E-09         0.00000E+00
    0.18140E-07        -0.87287E-10         0.00000E+00
    0.18126E-07        -0.62165E-10         0.00000E+00
    0.18117E-07        -0.33127E-10         0.00000E+00
    0.18113E-07        -0.17610E-10         0.00000E+00
    0.18596E-07        -0.18092E-10         0.00000E+00
    0.18591E-07        -0.33789E-10         0.00000E+00
    0.18577E-07        -0.62092E-10         0.00000E+00
    0.18556E-07        -0.84372E-10         0.00000E+00
    0.18530E-07        -0.10091E-09         0.00000E+00
    0.18501E-07        -0.11200E-09         0.00000E+00
    0.18470E-07        -0.11803E-09         0.00000E+00
    0.18437E-07        -0.11939E-09         0.00000E+00
    0.18405E-07        -0.11649E-09         0.00000E+00
    0.18375E-07        -0.10967E-09         0.00000E+00
    0.18346E-07        -0.99212E-10         0.00000E+00
    0.18321E-07        -0.85360E-10         0.00000E+00
    0.18300E-07        -0.68320E-10         0.00000E+00
    0.18284E-07        -0.48299E-10         0.00000E+00
    0.18274E-07        -0.25485E-10         0.00000E+00
    0.18270E-07        -0.13400E-10         0.00000E+00
    0.18753E-07        -0.10956E-10         0.00000E+00
    0.18748E-07        -0.21381E-10         0.00000E+00
    0.18735E-07        -0.40817E-10         0.00000E+00
    0.18713E-07        -0.56949E-10         0.00000E+00
    0.18686E-07        -0.69195E-10         0.00000E+00
    0.18654E-07        -0.77517E-10         0.00000E+00
    0.18619E-07        -0.82130E-10         0.00000E+00
    0.18583E-07        -0.83330E-10         0.00000E+00
    0.18547E-07        -0.81413E-10         0.00000E+00
    0.18513E-07        -0.76639E-10         0.00000E+00
    0.18481E-07        -0.69220E-10         0.00000E+00
    0.18453E-07        -0.59331E-10         0.00000E+00
    0.18430E-07        -0.47145E-10         0.00000E+00
    0.18413E-07        -0.32869E-10         0.00000E+00
    0.18402E-07        -0.16940E-10         0.00000E+00
    0.18398E-07        -0.86420E-11         0.00000E+00
    0.18866E-07        -0.37150E-11         0.00000E+00
    0.18863E-07        -0.90866E-11         0.00000E+00
    0.18852E-07        -0.19507E-10         0.00000E+00
    0.18831E-07        -0.28589E-10         0.00000E+00
    0.18803E-07        -0.35513E-10         0.00000E+00
    0.18768E-07        -0.40209E-10         0.00000E+00
    0.18731E-07        -0.42829E-10         0.00000E+00
    0.18691E-07        -0.43569E-10         0.00000E+00
    0.18652E-07        -0.42608E-10         0.00000E+00
    0.18614E-07        -0.40096E-10         0.00000E+00
    0.18579E-07        -0.36146E-10         0.00000E+00
    0.18548E-07        -0.30845E-10         0.00000E+00
    0.18523E-07        -0.24267E-10         0.00000E+00
    0.18505E-07        -0.16544E-10         0.00000E+00
    0.18494E-07        -0.79161E-11         0.00000E+00
    0.18491E-07        -0.34132E-11         0.00000E+00
    0.18911E-07         0.00000E+00         0.00000E+00
    0.18910E-07         0.00000E+00         0.00000E+00
    0.18901E-07        -0.53802E-22         0.00000E+00
    0.18881E-07         0.10705E-25         0.00000E+00
    0.18851E-07         0.57952E-22         0.00000E+00
    0.18816E-07         0.00000E+00         0.00000E+00
    0.18777E-07         0.00000E+00         0.00000E+00
    0.18735E-07        -0.53844E-22         0.00000E+00
    0.18694E-07        -0.53844E-22         0.00000E+00
    0.18654E-07         0.53855E-22         0.00000E+00
    0.18618E-07         0.57998E-22         0.00000E+00
    0.18586E-07        -0.58009E-22         0.00000E+00
    0.18560E-07        -0.41385E-23         0.00000E+00
    0.18541E-07         0.58016E-22         0.00000E+00
    0.18531E-07         0.82887E-23         0.00000E+00
    0.18529E-07         0.00000E+00         0.00000E+00
CELL_DATA        450
TENSORS stressef double 
    0.52687E+08        -0.56860E+06         0.00000E+00
   -0.56860E+06         0.27916E+08         0.00000E+00
    0.00000E+00         0.00000E+00         0.16121E+08
 
    0.46190E+08        -0.65571E+06         0.00000E+00
   -0.65571E+06         0.26868E+08         0.00000E+00
    0.00000E+00         0.00000E+00         0.14611E+08
 
    0.41782E+08        -0.60289E+06         0.00000E+00
   -0.60289E+06         0.25690E+08         0.00000E+00
    0.00000E+00         0.00000E+00         0.13494E+08
 
    0.38374E+08        -0.54072E+06         0.00000E+00
   -0.54072E+06         0.24584E+08         0.00000E+00
    0.00000E+00         0.00000E+00         0.12592E+08
 
    0.35571E+08        -0.47230E+06         0.00000E+00
   -0.47230E+06         0.23595E+08         0.00000E+00
    0.00000E+00         0.00000E+00         0.11833E+08
 
    0.33155E+08        -0.40084E+06         0.00000E+00
   -0.40084E+06         0.22738E+08         0.00000E+00
    0.00000E+00         0.00000E+00         0.11179E+08
 
    0.30986E+08        -0.32648E+06         0.00000E+00
   -0.32648E+06         0.22022E+08         0.00000E+00
    0.00000E+00         0.00000E+00         0.10602E+08
 
    0.28959E+08        -0.24828E+06         0.00000E+00
   -0.24828E+06         0.21456E+08         0.00000E+00
    0.00000E+00         0.00000E+00         0.10083E+08
 
    0.26988E+08        -0.16433E+06         0.00000E+00
   -0.16433E+06         0.21051E+08         0.00000E+00
    0.00000E+00         0.00000E+00         0.96078E+07
 
    0.24991E+08        -0.71529E+05         0.00000E+00
   -0.71529E+05         0.20821E+08         0.00000E+00
    0.00000E+00         0.00000E+00         0.91625E+07
 
    0.22880E+08         0.35249E+05         0.00000E+00
    0.35249E+05         0.20789E+08         0.00000E+00
    0.00000E+00         0.00000E+00         0.87338E+07
 
    0.20540E+08         0.16514E+06         0.00000E+00
    0.16514E+06         0.20993E+08         0.00000E+00
    0.00000E+00         0.00000E+00         0.83067E+07
 
    0.17804E+08         0.33772E+06         0.00000E+00
    0.33772E+06         0.21498E+08         0.00000E+00
    0.00000E+00         0.00000E+00         0.78603E+07
 
    0.14370E+08         0.59717E+06         0.00000E+00
    0.59717E+06         0.22433E+08         0.00000E+00
    0.00000E+00         0.00000E+00         0.73605E+07
 
    0.93762E+07         0.12284E+07         0.00000E+00
    0.12284E+07         0.24162E+08         0.00000E+00
    0.00000E+00         0.00000E+00         0.67077E+07
 
    0.48271E+08        -0.91108E+06         0.00000E+00
   -0.91108E+06         0.24956E+08         0.00000E+00
    0.00000E+00         0.00000E+00         0.14645E+08
 
    0.42788E+08        -0.15905E+07         0.00000E+00
   -0.15905E+07         0.24580E+08         0.00000E+00
    0.00000E+00         0.00000E+00         0.13474E+08
 
    0.38513E+08        -0.16321E+07         0.00000E+00
   -0.16321E+07         0.23822E+08         0.00000E+00
    0.00000E+00         0.00000E+00         0.12467E+08
 
    0.35153E+08        -0.15178E+07         0.00000E+00
   -0.15178E+07         0.22966E+08         0.00000E+00
    0.00000E+00         0.00000E+00         0.11624E+08
 
    0.32372E+08        -0.13496E+07         0.00000E+00
   -0.13496E+07         0.22138E+08         0.00000E+00
    0.00000E+00         0.00000E+00         0.10902E+08
 
    0.29971E+08        -0.11561E+07         0.00000E+00
   -0.11561E+07         0.21393E+08         0.00000E+00
    0.00000E+00         0.00000E+00         0.10273E+08
 
    0.27814E+08        -0.94583E+06         0.00000E+00
   -0.94583E+06         0.20759E+08         0.00000E+00
    0.00000E+00         0.00000E+00         0.97148E+07
 
    0.25802E+08        -0.71942E+06         0.00000E+00
   -0.71942E+06         0.20256E+08         0.00000E+00
    0.00000E+00         0.00000E+00         0.92117E+07
 
    0.23851E+08        -0.47280E+06         0.00000E+00
   -0.47280E+06         0.19900E+08         0.00000E+00
    0.00000E+00         0.00000E+00         0.87502E+07
 
    0.21881E+08        -0.19755E+06         0.00000E+00
   -0.19755E+06         0.19711E+08         0.00000E+00
    0.00000E+00         0.00000E+00         0.83182E+07
 
    0.19808E+08         0.12123E+06         0.00000E+00
    0.12123E+06         0.19714E+08         0.00000E+00
    0.00000E+00         0.00000E+00         0.79044E+07
 
    0.17533E+08         0.51094E+06         0.00000E+00
    0.51094E+06         0.19948E+08         0.00000E+00
    0.00000E+00         0.00000E+00         0.74963E+07
 
    0.14919E+08         0.10273E+07         0.00000E+00
    0.10273E+07         0.20478E+08         0.00000E+00
    0.00000E+00         0.00000E+00         0.70794E+07
 
    0.11751E+08         0.18096E+07         0.00000E+00
    0.18096E+07         0.21415E+08         0.00000E+00
    0.00000E+00         0.00000E+00         0.66331E+07
 
    0.79755E+07         0.33142E+07         0.00000E+00
    0.33142E+07         0.22915E+08         0.00000E+00
    0.00000E+00         0.00000E+00         0.61781E+07
 
    0.43464E+08        -0.94242E+06         0.00000E+00
   -0.94242E+06         0.21695E+08         0.00000E+00
    0.00000E+00         0.00000E+00         0.13032E+08
 
    0.39045E+08        -0.19807E+07         0.00000E+00
   -0.19807E+07         0.21600E+08         0.00000E+00
    0.00000E+00         0.00000E+00         0.12129E+08
 
    0.35203E+08        -0.22829E+07         0.00000E+00
   -0.22829E+07         0.21259E+08         0.00000E+00
    0.00000E+00         0.00000E+00         0.11292E+08
 
    0.31997E+08        -0.22412E+07         0.00000E+00
   -0.22412E+07         0.20738E+08         0.00000E+00
    0.00000E+00         0.00000E+00         0.10547E+08
 
    0.29289E+08        -0.20503E+07         0.00000E+00
   -0.20503E+07         0.20159E+08         0.00000E+00
    0.00000E+00         0.00000E+00         0.98896E+07
 
    0.26929E+08        -0.17837E+07         0.00000E+00
   -0.17837E+07         0.19600E+08         0.00000E+00
    0.00000E+00         0.00000E+00         0.93058E+07
 
    0.24805E+08        -0.14698E+07         0.00000E+00
   -0.14698E+07         0.19107E+08         0.00000E+00
    0.00000E+00         0.00000E+00         0.87825E+07
 
    0.22826E+08        -0.11169E+07         0.00000E+00
   -0.11169E+07         0.18713E+08         0.00000E+00
    0.00000E+00         0.00000E+00         0.83077E+07
 
    0.20912E+08        -0.72253E+06         0.00000E+00
   -0.72253E+06         0.18444E+08         0.00000E+00
    0.00000E+00         0.00000E+00         0.78712E+07
 
    0.18994E+08        -0.27529E+06         0.00000E+00
   -0.27529E+06         0.18324E+08         0.00000E+00
    0.00000E+00         0.00000E+00         0.74636E+07
 
    0.16999E+08         0.24755E+06         0.00000E+00
    0.24755E+06         0.18383E+08         0.00000E+00
    0.00000E+00         0.00000E+00         0.70765E+07
 
    0.14849E+08         0.88803E+06         0.00000E+00
    0.88803E+06         0.18658E+08         0.00000E+00
    0.00000E+00         0.00000E+00         0.67015E+07
 
    0.12458E+08         0.17273E+07         0.00000E+00
    0.17273E+07         0.19199E+08         0.00000E+00
    0.00000E+00         0.00000E+00         0.63314E+07
 
    0.97773E+07         0.29365E+07         0.00000E+00
    0.29365E+07         0.20062E+08         0.00000E+00
    0.00000E+00         0.00000E+00         0.59678E+07
 
    0.69099E+07         0.47843E+07         0.00000E+00
    0.47843E+07         0.21203E+08         0.00000E+00
    0.00000E+00         0.00000E+00         0.56226E+07
 
    0.38612E+08        -0.91206E+06         0.00000E+00
   -0.91206E+06         0.18454E+08         0.00000E+00
    0.00000E+00         0.00000E+00         0.11413E+08
 
    0.35076E+08        -0.20877E+07         0.00000E+00
   -0.20877E+07         0.18472E+08         0.00000E+00
    0.00000E+00         0.00000E+00         0.10710E+08
 
    0.31772E+08        -0.25929E+07         0.00000E+00
   -0.25929E+07         0.18373E+08         0.00000E+00
    0.00000E+00         0.00000E+00         0.10029E+08
 
    0.28843E+08        -0.26788E+07         0.00000E+00
   -0.26788E+07         0.18134E+08         0.00000E+00
    0.00000E+00         0.00000E+00         0.93956E+07
 
    0.26280E+08        -0.25271E+07         0.00000E+00
   -0.25271E+07         0.17806E+08         0.00000E+00
    0.00000E+00         0.00000E+00         0.88172E+07
 
    0.24008E+08        -0.22378E+07         0.00000E+00
   -0.22378E+07         0.17454E+08         0.00000E+00
    0.00000E+00         0.00000E+00         0.82923E+07
 
    0.21947E+08        -0.18583E+07         0.00000E+00
   -0.18583E+07         0.17128E+08         0.00000E+00
    0.00000E+00         0.00000E+00         0.78150E+07
 
    0.20024E+08        -0.14076E+07         0.00000E+00
   -0.14076E+07         0.16868E+08         0.00000E+00
    0.00000E+00         0.00000E+00         0.73784E+07
 
    0.18174E+08        -0.88761E+06         0.00000E+00
   -0.88761E+06         0.16706E+08         0.00000E+00
    0.00000E+00         0.00000E+00         0.69759E+07
 
    0.16336E+08        -0.28684E+06         0.00000E+00
   -0.28684E+06         0.16670E+08         0.00000E+00
    0.00000E+00         0.00000E+00         0.66011E+07
 
    0.14455E+08         0.42112E+06         0.00000E+00
    0.42112E+06         0.16789E+08         0.00000E+00
    0.00000E+00         0.00000E+00         0.62486E+07
 
    0.12479E+08         0.12843E+07         0.00000E+00
    0.12843E+07         0.17093E+08         0.00000E+00
    0.00000E+00         0.00000E+00         0.59143E+07
 
    0.10377E+08         0.23865E+07         0.00000E+00
    0.23865E+07         0.17609E+08         0.00000E+00
    0.00000E+00         0.00000E+00         0.55972E+07
 
    0.81692E+07         0.38557E+07         0.00000E+00
    0.38557E+07         0.18336E+08         0.00000E+00
    0.00000E+00         0.00000E+00         0.53011E+07
 
    0.59814E+07         0.58446E+07         0.00000E+00
    0.58446E+07         0.19207E+08         0.00000E+00
    0.00000E+00         0.00000E+00         0.50377E+07
 
    0.33851E+08        -0.85867E+06         0.00000E+00
   -0.85867E+06         0.15273E+08         0.00000E+00
    0.00000E+00         0.00000E+00         0.98248E+07
 
    0.31038E+08        -0.20608E+07         0.00000E+00
   -0.20608E+07         0.15348E+08         0.00000E+00
    0.00000E+00         0.00000E+00         0.92771E+07
 
    0.28260E+08        -0.26814E+07         0.00000E+00
   -0.26814E+07         0.15388E+08         0.00000E+00
    0.00000E+00         0.00000E+00         0.87297E+07
 
    0.25671E+08        -0.28780E+07         0.00000E+00
   -0.28780E+07         0.15343E+08         0.00000E+00
    0.00000E+00         0.00000E+00         0.82028E+07
 
    0.23317E+08        -0.27892E+07         0.00000E+00
   -0.27892E+07         0.15221E+08         0.00000E+00
    0.00000E+00         0.00000E+00         0.77075E+07
 
    0.21182E+08        -0.25107E+07         0.00000E+00
   -0.25107E+07         0.15058E+08         0.00000E+00
    0.00000E+00         0.00000E+00         0.72479E+07
 
    0.19222E+08        -0.20981E+07         0.00000E+00
   -0.20981E+07         0.14896E+08         0.00000E+00
    0.00000E+00         0.00000E+00         0.68235E+07
 
    0.17387E+08        -0.15784E+07         0.00000E+00
   -0.15784E+07         0.14771E+08         0.00000E+00
    0.00000E+00         0.00000E+00         0.64317E+07
 
    0.15627E+08        -0.95851E+06         0.00000E+00
   -0.95851E+06         0.14718E+08         0.00000E+00
    0.00000E+00         0.00000E+00         0.60691E+07
 
    0.13898E+08        -0.22939E+06         0.00000E+00
   -0.22939E+06         0.14764E+08         0.00000E+00
    0.00000E+00         0.00000E+00         0.57325E+07
 
    0.12160E+08         0.63396E+06         0.00000E+00
    0.63396E+06         0.14936E+08         0.00000E+00
    0.00000E+00         0.00000E+00         0.54191E+07
 
    0.10387E+08         0.16759E+07         0.00000E+00
    0.16759E+07         0.15252E+08         0.00000E+00
    0.00000E+00         0.00000E+00         0.51278E+07
 
    0.85806E+07         0.29636E+07         0.00000E+00
    0.29636E+07         0.15719E+08         0.00000E+00
    0.00000E+00         0.00000E+00         0.48600E+07
 
    0.67856E+07         0.45833E+07         0.00000E+00
    0.45833E+07         0.16317E+08         0.00000E+00
    0.00000E+00         0.00000E+00         0.46205E+07
 
    0.51144E+07         0.66205E+07         0.00000E+00
    0.66205E+07         0.16979E+08         0.00000E+00
    0.00000E+00         0.00000E+00         0.44186E+07
 
    0.29252E+08        -0.79384E+06         0.00000E+00
   -0.79384E+06         0.12173E+08         0.00000E+00
    0.00000E+00         0.00000E+00         0.82850E+07
 
    0.27033E+08        -0.19633E+07         0.00000E+00
   -0.19633E+07         0.12279E+08         0.00000E+00
    0.00000E+00         0.00000E+00         0.78624E+07
 
    0.24736E+08        -0.26344E+07         0.00000E+00
   -0.26344E+07         0.12400E+08         0.00000E+00
    0.00000E+00         0.00000E+00         0.74273E+07
 
    0.22500E+08        -0.29056E+07         0.00000E+00
   -0.29056E+07         0.12482E+08         0.00000E+00
    0.00000E+00         0.00000E+00         0.69964E+07
 
    0.20394E+08        -0.28753E+07         0.00000E+00
   -0.28753E+07         0.12511E+08         0.00000E+00
    0.00000E+00         0.00000E+00         0.65810E+07
 
    0.18438E+08        -0.26219E+07         0.00000E+00
   -0.26219E+07         0.12500E+08         0.00000E+00
    0.00000E+00         0.00000E+00         0.61876E+07
 
    0.16615E+08        -0.21983E+07         0.00000E+00
   -0.21983E+07         0.12478E+08         0.00000E+00
    0.00000E+00         0.00000E+00         0.58188E+07
 
    0.14900E+08        -0.16340E+07         0.00000E+00
   -0.16340E+07         0.12475E+08         0.00000E+00
    0.00000E+00         0.00000E+00         0.54750E+07
 
    0.13259E+08        -0.93999E+06         0.00000E+00
   -0.93999E+06         0.12519E+08         0.00000E+00
    0.00000E+00         0.00000E+00         0.51556E+07
 
    0.11662E+08        -0.11114E+06         0.00000E+00
   -0.11114E+06         0.12636E+08         0.00000E+00
    0.00000E+00         0.00000E+00         0.48597E+07
 
    0.10088E+08         0.87228E+06         0.00000E+00
    0.87228E+06         0.12846E+08         0.00000E+00
    0.00000E+00         0.00000E+00         0.45868E+07
 
    0.85280E+07         0.20447E+07         0.00000E+00
    0.20447E+07         0.13159E+08         0.00000E+00
    0.00000E+00         0.00000E+00         0.43374E+07
 
    0.69983E+07         0.34537E+07         0.00000E+00
    0.34537E+07         0.13572E+08         0.00000E+00
    0.00000E+00         0.00000E+00         0.41141E+07
 
    0.55503E+07         0.51530E+07         0.00000E+00
    0.51530E+07         0.14058E+08         0.00000E+00
    0.00000E+00         0.00000E+00         0.39217E+07
 
    0.42784E+07         0.71882E+07         0.00000E+00
    0.71882E+07         0.14559E+08         0.00000E+00
    0.00000E+00         0.00000E+00         0.37674E+07
 
    0.24852E+08        -0.72326E+06         0.00000E+00
   -0.72326E+06         0.91654E+07         0.00000E+00
    0.00000E+00         0.00000E+00         0.68035E+07
 
    0.23127E+08        -0.18272E+07         0.00000E+00
   -0.18272E+07         0.92868E+07         0.00000E+00
    0.00000E+00         0.00000E+00         0.64827E+07
 
    0.21255E+08        -0.25055E+07         0.00000E+00
   -0.25055E+07         0.94552E+07         0.00000E+00
    0.00000E+00         0.00000E+00         0.61421E+07
 
    0.19361E+08        -0.28180E+07         0.00000E+00
   -0.28180E+07         0.96165E+07         0.00000E+00
    0.00000E+00         0.00000E+00         0.57956E+07
 
    0.17522E+08        -0.28312E+07         0.00000E+00
   -0.28312E+07         0.97474E+07         0.00000E+00
    0.00000E+00         0.00000E+00         0.54539E+07
 
    0.15771E+08        -0.26042E+07         0.00000E+00
   -0.26042E+07         0.98485E+07         0.00000E+00
    0.00000E+00         0.00000E+00         0.51240E+07
 
    0.14117E+08        -0.21816E+07         0.00000E+00
   -0.21816E+07         0.99348E+07         0.00000E+00
    0.00000E+00         0.00000E+00         0.48103E+07
 
    0.12548E+08        -0.15914E+07         0.00000E+00
   -0.15914E+07         0.10028E+08         0.00000E+00
    0.00000E+00         0.00000E+00         0.45152E+07
 
    0.11050E+08        -0.84644E+06         0.00000E+00
   -0.84644E+06         0.10149E+08         0.00000E+00
    0.00000E+00         0.00000E+00         0.42399E+07
 
    0.96063E+07         0.53999E+05         0.00000E+00
    0.53999E+05         0.10319E+08         0.00000E+00
    0.00000E+00         0.00000E+00         0.39851E+07
 
    0.82073E+07         0.11227E+07         0.00000E+00
    0.11227E+07         0.10552E+08         0.00000E+00
    0.00000E+00         0.00000E+00         0.37519E+07
 
    0.68566E+07         0.23827E+07         0.00000E+00
    0.23827E+07         0.10853E+08         0.00000E+00
    0.00000E+00         0.00000E+00         0.35420E+07
 
    0.55777E+07         0.38639E+07         0.00000E+00
    0.38639E+07         0.11213E+08         0.00000E+00
    0.00000E+00         0.00000E+00         0.33582E+07
 
    0.44193E+07         0.55963E+07         0.00000E+00
    0.55963E+07         0.11605E+08         0.00000E+00
    0.00000E+00         0.00000E+00         0.32050E+07
 
    0.34590E+07         0.76002E+07         0.00000E+00
    0.76002E+07         0.11982E+08         0.00000E+00
    0.00000E+00         0.00000E+00         0.30882E+07
 
    0.20671E+08        -0.65086E+06         0.00000E+00
   -0.65086E+06         0.62557E+07         0.00000E+00
    0.00000E+00         0.00000E+00         0.53854E+07
 
    0.19356E+08        -0.16717E+07         0.00000E+00
   -0.16717E+07         0.63830E+07         0.00000E+00
    0.00000E+00         0.00000E+00         0.51479E+07
 
    0.17858E+08        -0.23296E+07         0.00000E+00
   -0.23296E+07         0.65746E+07         0.00000E+00
    0.00000E+00         0.00000E+00         0.48865E+07
 
    0.16285E+08        -0.26577E+07         0.00000E+00
   -0.26577E+07         0.67809E+07         0.00000E+00
    0.00000E+00         0.00000E+00         0.46132E+07
 
    0.14713E+08        -0.26983E+07         0.00000E+00
   -0.26983E+07         0.69751E+07         0.00000E+00
    0.00000E+00         0.00000E+00         0.43376E+07
 
    0.13184E+08        -0.24931E+07         0.00000E+00
   -0.24931E+07         0.71498E+07         0.00000E+00
    0.00000E+00         0.00000E+00         0.40668E+07
 
    0.11718E+08        -0.20769E+07         0.00000E+00
   -0.20769E+07         0.73109E+07         0.00000E+00
    0.00000E+00         0.00000E+00         0.38058E+07
 
    0.10319E+08        -0.14738E+07         0.00000E+00
   -0.14738E+07         0.74713E+07         0.00000E+00
    0.00000E+00         0.00000E+00         0.35580E+07
 
    0.89825E+07        -0.69712E+06         0.00000E+00
   -0.69712E+06         0.76466E+07         0.00000E+00
    0.00000E+00         0.00000E+00         0.33258E+07
 
    0.77047E+07         0.25017E+06         0.00000E+00
    0.25017E+06         0.78509E+07         0.00000E+00
    0.00000E+00         0.00000E+00         0.31111E+07
 
    0.64858E+07         0.13740E+07         0.00000E+00
    0.13740E+07         0.80931E+07         0.00000E+00
    0.00000E+00         0.00000E+00         0.29158E+07
 
    0.53362E+07         0.26868E+07         0.00000E+00
    0.26868E+07         0.83744E+07         0.00000E+00
    0.00000E+00         0.00000E+00         0.27421E+07
 
    0.42813E+07         0.42041E+07         0.00000E+00
    0.42041E+07         0.86843E+07         0.00000E+00
    0.00000E+00         0.00000E+00         0.25931E+07
 
    0.33648E+07         0.59390E+07         0.00000E+00
    0.59390E+07         0.89988E+07         0.00000E+00
    0.00000E+00         0.00000E+00         0.24727E+07
 
    0.26495E+07         0.78948E+07         0.00000E+00
    0.78948E+07         0.92789E+07         0.00000E+00
    0.00000E+00         0.00000E+00         0.23857E+07
 
    0.16716E+08        -0.57983E+06         0.00000E+00
   -0.57983E+06         0.34454E+07         0.00000E+00
    0.00000E+00         0.00000E+00         0.40322E+07
 
    0.15741E+08        -0.15099E+07         0.00000E+00
   -0.15099E+07         0.35710E+07         0.00000E+00
    0.00000E+00         0.00000E+00         0.38624E+07
 
    0.14568E+08        -0.21311E+07         0.00000E+00
   -0.21311E+07         0.37685E+07         0.00000E+00
    0.00000E+00         0.00000E+00         0.36672E+07
 
    0.13291E+08        -0.24568E+07         0.00000E+00
   -0.24568E+07         0.39938E+07         0.00000E+00
    0.00000E+00         0.00000E+00         0.34569E+07
 
    0.11979E+08        -0.25113E+07         0.00000E+00
   -0.25113E+07         0.42202E+07         0.00000E+00
    0.00000E+00         0.00000E+00         0.32398E+07
 
    0.10678E+08        -0.23217E+07         0.00000E+00
   -0.23217E+07         0.44360E+07         0.00000E+00
    0.00000E+00         0.00000E+00         0.30228E+07
 
    0.94133E+07        -0.19135E+07         0.00000E+00
   -0.19135E+07         0.46408E+07         0.00000E+00
    0.00000E+00         0.00000E+00         0.28108E+07
 
    0.81977E+07        -0.13061E+07         0.00000E+00
   -0.13061E+07         0.48412E+07         0.00000E+00
    0.00000E+00         0.00000E+00         0.26078E+07
 
    0.70367E+07        -0.51248E+06         0.00000E+00
   -0.51248E+06         0.50468E+07         0.00000E+00
    0.00000E+00         0.00000E+00         0.24167E+07
 
    0.59337E+07         0.46172E+06         0.00000E+00
    0.46172E+06         0.52662E+07         0.00000E+00
    0.00000E+00         0.00000E+00         0.22400E+07
 
    0.48957E+07         0.16165E+07         0.00000E+00
    0.16165E+07         0.55046E+07         0.00000E+00
    0.00000E+00         0.00000E+00         0.20801E+07
 
    0.39366E+07         0.29557E+07         0.00000E+00
    0.29557E+07         0.57604E+07         0.00000E+00
    0.00000E+00         0.00000E+00         0.19394E+07
 
    0.30815E+07         0.44838E+07         0.00000E+00
    0.44838E+07         0.60232E+07         0.00000E+00
    0.00000E+00         0.00000E+00         0.18209E+07
 
    0.23680E+07         0.62013E+07         0.00000E+00
    0.62013E+07         0.62724E+07         0.00000E+00
    0.00000E+00         0.00000E+00         0.17281E+07
 
    0.18465E+07         0.81002E+07         0.00000E+00
    0.81002E+07         0.64769E+07         0.00000E+00
    0.00000E+00         0.00000E+00         0.16647E+07
 
    0.12980E+08        -0.51288E+06         0.00000E+00
   -0.51288E+06         0.73166E+06         0.00000E+00
    0.00000E+00         0.00000E+00         0.27423E+07
 
    0.12287E+08        -0.13519E+07         0.00000E+00
   -0.13519E+07         0.84933E+06         0.00000E+00
    0.00000E+00         0.00000E+00         0.26272E+07
 
    0.11396E+08        -0.19280E+07         0.00000E+00
   -0.19280E+07         0.10395E+07         0.00000E+00
    0.00000E+00         0.00000E+00         0.24871E+07
 
    0.10389E+08        -0.22400E+07         0.00000E+00
   -0.22400E+07         0.12640E+07         0.00000E+00
    0.00000E+00         0.00000E+00         0.23305E+07
 
    0.93266E+07        -0.22982E+07         0.00000E+00
   -0.22982E+07         0.14978E+07         0.00000E+00
    0.00000E+00         0.00000E+00         0.21649E+07
 
    0.82528E+07        -0.21185E+07         0.00000E+00
   -0.21185E+07         0.17277E+07         0.00000E+00
    0.00000E+00         0.00000E+00         0.19961E+07
 
    0.71958E+07        -0.17180E+07         0.00000E+00
   -0.17180E+07         0.19494E+07         0.00000E+00
    0.00000E+00         0.00000E+00         0.18290E+07
 
    0.61730E+07        -0.11119E+07         0.00000E+00
   -0.11119E+07         0.21651E+07         0.00000E+00
    0.00000E+00         0.00000E+00         0.16676E+07
 
    0.51953E+07        -0.31193E+06         0.00000E+00
   -0.31193E+06         0.23794E+07         0.00000E+00
    0.00000E+00         0.00000E+00         0.15149E+07
 
    0.42716E+07         0.67423E+06         0.00000E+00
    0.67423E+06         0.25970E+07         0.00000E+00
    0.00000E+00         0.00000E+00         0.13737E+07
 
    0.34124E+07         0.18421E+07         0.00000E+00
    0.18421E+07         0.28199E+07         0.00000E+00
    0.00000E+00         0.00000E+00         0.12465E+07
 
    0.26332E+07         0.31888E+07         0.00000E+00
    0.31888E+07         0.30450E+07         0.00000E+00
    0.00000E+00         0.00000E+00         0.11357E+07
 
    0.19571E+07         0.47103E+07         0.00000E+00
    0.47103E+07         0.32629E+07         0.00000E+00
    0.00000E+00         0.00000E+00         0.10440E+07
 
    0.14155E+07         0.63987E+07         0.00000E+00
    0.63987E+07         0.34563E+07         0.00000E+00
    0.00000E+00         0.00000E+00         0.97437E+06
 
    0.10487E+07         0.82378E+07         0.00000E+00
    0.82378E+07         0.36009E+07         0.00000E+00
    0.00000E+00         0.00000E+00         0.92990E+06
 
    0.94494E+07        -0.45229E+06         0.00000E+00
   -0.45229E+06        -0.18921E+07         0.00000E+00
    0.00000E+00         0.00000E+00         0.15115E+07
 
    0.89889E+07        -0.12054E+07         0.00000E+00
   -0.12054E+07        -0.17873E+07         0.00000E+00
    0.00000E+00         0.00000E+00         0.14403E+07
 
    0.83441E+07        -0.17341E+07         0.00000E+00
   -0.17341E+07        -0.16147E+07         0.00000E+00
    0.00000E+00         0.00000E+00         0.13459E+07
 
    0.75824E+07        -0.20262E+07         0.00000E+00
   -0.20262E+07        -0.14065E+07         0.00000E+00
    0.00000E+00         0.00000E+00         0.12352E+07
 
    0.67566E+07        -0.20815E+07         0.00000E+00
   -0.20815E+07        -0.11846E+07         0.00000E+00
    0.00000E+00         0.00000E+00         0.11144E+07
 
    0.59060E+07        -0.19070E+07         0.00000E+00
   -0.19070E+07        -0.96236E+06         0.00000E+00
    0.00000E+00         0.00000E+00         0.98873E+06
 
    0.50582E+07        -0.15133E+07         0.00000E+00
   -0.15133E+07        -0.74571E+06         0.00000E+00
    0.00000E+00         0.00000E+00         0.86250E+06
 
    0.42324E+07        -0.91169E+06         0.00000E+00
   -0.91169E+06        -0.53578E+06         0.00000E+00
    0.00000E+00         0.00000E+00         0.73932E+06
 
    0.34422E+07        -0.11259E+06         0.00000E+00
   -0.11259E+06        -0.33110E+06         0.00000E+00
    0.00000E+00         0.00000E+00         0.62222E+06
 
    0.26991E+07         0.87509E+06         0.00000E+00
    0.87509E+06        -0.12998E+06         0.00000E+00
    0.00000E+00         0.00000E+00         0.51382E+06
 
    0.20152E+07         0.20436E+07         0.00000E+00
    0.20436E+07         0.67436E+05         0.00000E+00
    0.00000E+00         0.00000E+00         0.41653E+06
 
    0.14060E+07         0.33850E+07         0.00000E+00
    0.33850E+07         0.25745E+06         0.00000E+00
    0.00000E+00         0.00000E+00         0.33268E+06
 
    0.89149E+06         0.48895E+07         0.00000E+00
    0.48895E+07         0.43163E+06         0.00000E+00
    0.00000E+00         0.00000E+00         0.26462E+06
 
    0.49764E+06         0.65428E+07         0.00000E+00
    0.65428E+07         0.57623E+06         0.00000E+00
    0.00000E+00         0.00000E+00         0.21477E+06
 
    0.25546E+06         0.83234E+07         0.00000E+00
    0.83234E+07         0.67247E+06         0.00000E+00
    0.00000E+00         0.00000E+00         0.18559E+06
 
    0.61024E+07        -0.39996E+06         0.00000E+00
   -0.39996E+06        -0.44352E+07         0.00000E+00
    0.00000E+00         0.00000E+00         0.33344E+06
 
    0.58347E+07        -0.10765E+07         0.00000E+00
   -0.10765E+07        -0.43472E+07         0.00000E+00
    0.00000E+00         0.00000E+00         0.29751E+06
 
    0.54052E+07        -0.15599E+07         0.00000E+00
   -0.15599E+07        -0.42001E+07         0.00000E+00
    0.00000E+00         0.00000E+00         0.24101E+06
 
    0.48676E+07        -0.18299E+07         0.00000E+00
   -0.18299E+07        -0.40199E+07         0.00000E+00
    0.00000E+00         0.00000E+00         0.16955E+06
 
    0.42652E+07        -0.18785E+07         0.00000E+00
   -0.18785E+07        -0.38248E+07         0.00000E+00
    0.00000E+00         0.00000E+00         0.88076E+05
 
    0.36315E+07        -0.17061E+07         0.00000E+00
   -0.17061E+07        -0.36270E+07         0.00000E+00
    0.00000E+00         0.00000E+00         0.90488E+03
 
    0.29915E+07        -0.13180E+07         0.00000E+00
   -0.13180E+07        -0.34330E+07         0.00000E+00
    0.00000E+00         0.00000E+00        -0.88287E+05
 
    0.23637E+07        -0.72253E+06         0.00000E+00
   -0.72253E+06        -0.32455E+07         0.00000E+00
    0.00000E+00         0.00000E+00        -0.17636E+06
 
    0.17621E+07         0.71245E+05         0.00000E+00
    0.71245E+05        -0.30653E+07         0.00000E+00
    0.00000E+00         0.00000E+00        -0.26064E+06
 
    0.11989E+07         0.10537E+07         0.00000E+00
    0.10537E+07        -0.28926E+07         0.00000E+00
    0.00000E+00         0.00000E+00        -0.33874E+06
 
    0.68627E+06         0.22149E+07         0.00000E+00
    0.22149E+07        -0.27288E+07         0.00000E+00
    0.00000E+00         0.00000E+00        -0.40851E+06
 
    0.23815E+06         0.35435E+07         0.00000E+00
    0.35435E+07        -0.25778E+07         0.00000E+00
    0.00000E+00         0.00000E+00        -0.46793E+06
 
   -0.12850E+06         0.50254E+07         0.00000E+00
    0.50254E+07        -0.24466E+07         0.00000E+00
    0.00000E+00         0.00000E+00        -0.51502E+06
 
   -0.39337E+06         0.66421E+07         0.00000E+00
    0.66421E+07        -0.23459E+07         0.00000E+00
    0.00000E+00         0.00000E+00        -0.54784E+06
 
   -0.53309E+06         0.83688E+07         0.00000E+00
    0.83688E+07        -0.22895E+07         0.00000E+00
    0.00000E+00         0.00000E+00        -0.56452E+06
 
    0.29115E+07        -0.35732E+06         0.00000E+00
   -0.35732E+06        -0.69094E+07         0.00000E+00
    0.00000E+00         0.00000E+00        -0.79958E+06
 
    0.28054E+07        -0.96994E+06         0.00000E+00
   -0.96994E+06        -0.68409E+07         0.00000E+00
    0.00000E+00         0.00000E+00        -0.80710E+06
 
    0.25665E+07        -0.14135E+07         0.00000E+00
   -0.14135E+07        -0.67252E+07         0.00000E+00
    0.00000E+00         0.00000E+00        -0.83173E+06
 
    0.22350E+07        -0.16622E+07         0.00000E+00
   -0.16622E+07        -0.65814E+07         0.00000E+00
    0.00000E+00         0.00000E+00        -0.86928E+06
 
    0.18442E+07        -0.17026E+07         0.00000E+00
   -0.17026E+07        -0.64241E+07         0.00000E+00
    0.00000E+00         0.00000E+00        -0.91599E+06
 
    0.14207E+07        -0.15302E+07         0.00000E+00
   -0.15302E+07        -0.62632E+07         0.00000E+00
    0.00000E+00         0.00000E+00        -0.96849E+06
 
    0.98548E+06        -0.11467E+07         0.00000E+00
   -0.11467E+07        -0.61049E+07         0.00000E+00
    0.00000E+00         0.00000E+00        -0.10239E+07
 
    0.55454E+06        -0.55788E+06         0.00000E+00
   -0.55788E+06        -0.59526E+07         0.00000E+00
    0.00000E+00         0.00000E+00        -0.10796E+07
 
    0.14088E+06         0.22821E+06         0.00000E+00
    0.22821E+06        -0.58082E+07         0.00000E+00
    0.00000E+00         0.00000E+00        -0.11335E+07
 
   -0.24426E+06         0.12017E+07         0.00000E+00
    0.12017E+07        -0.56731E+07         0.00000E+00
    0.00000E+00         0.00000E+00        -0.11835E+07
 
   -0.58988E+06         0.23512E+07         0.00000E+00
    0.23512E+07        -0.55493E+07         0.00000E+00
    0.00000E+00         0.00000E+00        -0.12278E+07
 
   -0.88419E+06         0.36631E+07         0.00000E+00
    0.36631E+07        -0.54403E+07         0.00000E+00
    0.00000E+00         0.00000E+00        -0.12649E+07
 
   -0.11138E+07         0.51207E+07         0.00000E+00
    0.51207E+07        -0.53518E+07         0.00000E+00
    0.00000E+00         0.00000E+00        -0.12931E+07
 
   -0.12635E+07         0.67028E+07         0.00000E+00
    0.67028E+07        -0.52914E+07         0.00000E+00
    0.00000E+00         0.00000E+00        -0.13110E+07
 
   -0.13168E+07         0.83824E+07         0.00000E+00
    0.83824E+07        -0.52691E+07         0.00000E+00
    0.00000E+00         0.00000E+00        -0.13172E+07
 
   -0.15461E+06        -0.32538E+06         0.00000E+00
   -0.32538E+06        -0.93278E+07         0.00000E+00
    0.00000E+00         0.00000E+00        -0.18965E+07
 
   -0.12203E+06        -0.88885E+06         0.00000E+00
   -0.88885E+06        -0.92806E+07         0.00000E+00
    0.00000E+00         0.00000E+00        -0.18805E+07
 
   -0.18890E+06        -0.13004E+07         0.00000E+00
   -0.13004E+07        -0.91999E+07         0.00000E+00
    0.00000E+00         0.00000E+00        -0.18778E+07
 
   -0.32840E+06        -0.15308E+07         0.00000E+00
   -0.15308E+07        -0.90984E+07         0.00000E+00
    0.00000E+00         0.00000E+00        -0.18854E+07
 
   -0.51749E+06        -0.15632E+07         0.00000E+00
   -0.15632E+07        -0.89862E+07         0.00000E+00
    0.00000E+00         0.00000E+00        -0.19007E+07
 
   -0.73698E+06        -0.13898E+07         0.00000E+00
   -0.13898E+07        -0.88708E+07         0.00000E+00
    0.00000E+00         0.00000E+00        -0.19216E+07
 
   -0.97119E+06        -0.10100E+07         0.00000E+00
   -0.10100E+07        -0.87573E+07         0.00000E+00
    0.00000E+00         0.00000E+00        -0.19457E+07
 
   -0.12074E+07        -0.42770E+06         0.00000E+00
   -0.42770E+06        -0.86491E+07         0.00000E+00
    0.00000E+00         0.00000E+00        -0.19713E+07
 
   -0.14349E+07         0.34983E+06         0.00000E+00
    0.34983E+06        -0.85484E+07         0.00000E+00
    0.00000E+00         0.00000E+00        -0.19967E+07
 
   -0.16443E+07         0.13127E+07         0.00000E+00
    0.13127E+07        -0.84573E+07         0.00000E+00
    0.00000E+00         0.00000E+00        -0.20203E+07
 
   -0.18267E+07         0.24487E+07         0.00000E+00
    0.24487E+07        -0.83779E+07         0.00000E+00
    0.00000E+00         0.00000E+00        -0.20409E+07
 
   -0.19730E+07         0.37430E+07         0.00000E+00
    0.37430E+07        -0.83132E+07         0.00000E+00
    0.00000E+00         0.00000E+00        -0.20572E+07
 
   -0.20735E+07         0.51773E+07         0.00000E+00
    0.51773E+07        -0.82671E+07         0.00000E+00
    0.00000E+00         0.00000E+00        -0.20681E+07
 
   -0.21178E+07         0.67290E+07         0.00000E+00
    0.67290E+07        -0.82448E+07         0.00000E+00
    0.00000E+00         0.00000E+00        -0.20725E+07
 
   -0.20954E+07         0.83699E+07         0.00000E+00
    0.83699E+07        -0.82525E+07         0.00000E+00
    0.00000E+00         0.00000E+00        -0.20696E+07
 
   -0.31298E+07        -0.30474E+06         0.00000E+00
   -0.30474E+06        -0.11704E+08         0.00000E+00
    0.00000E+00         0.00000E+00        -0.29668E+07
 
   -0.29733E+07        -0.83529E+06         0.00000E+00
   -0.83529E+06        -0.11679E+08         0.00000E+00
    0.00000E+00         0.00000E+00        -0.29305E+07
 
   -0.28806E+07        -0.12242E+07         0.00000E+00
   -0.12242E+07        -0.11635E+08         0.00000E+00
    0.00000E+00         0.00000E+00        -0.29032E+07
 
   -0.28380E+07        -0.14408E+07         0.00000E+00
   -0.14408E+07        -0.11579E+08         0.00000E+00
    0.00000E+00         0.00000E+00        -0.28834E+07
 
   -0.28328E+07        -0.14665E+07         0.00000E+00
   -0.14665E+07        -0.11516E+08         0.00000E+00
    0.00000E+00         0.00000E+00        -0.28698E+07
 
   -0.28536E+07        -0.12920E+07         0.00000E+00
   -0.12920E+07        -0.11451E+08         0.00000E+00
    0.00000E+00         0.00000E+00        -0.28610E+07
 
   -0.28903E+07        -0.91505E+06         0.00000E+00
   -0.91505E+06        -0.11388E+08         0.00000E+00
    0.00000E+00         0.00000E+00        -0.28556E+07
 
   -0.29342E+07        -0.33868E+06         0.00000E+00
   -0.33868E+06        -0.11329E+08         0.00000E+00
    0.00000E+00         0.00000E+00        -0.28527E+07
 
   -0.29777E+07         0.43040E+06         0.00000E+00
    0.43040E+06        -0.11277E+08         0.00000E+00
    0.00000E+00         0.00000E+00        -0.28509E+07
 
   -0.30139E+07         0.13824E+07         0.00000E+00
    0.13824E+07        -0.11234E+08         0.00000E+00
    0.00000E+00         0.00000E+00        -0.28495E+07
 
   -0.30363E+07         0.25049E+07         0.00000E+00
    0.25049E+07        -0.11201E+08         0.00000E+00
    0.00000E+00         0.00000E+00        -0.28475E+07
 
   -0.30387E+07         0.37825E+07         0.00000E+00
    0.37825E+07        -0.11182E+08         0.00000E+00
    0.00000E+00         0.00000E+00        -0.28441E+07
 
   -0.30153E+07         0.51963E+07         0.00000E+00
    0.51963E+07        -0.11178E+08         0.00000E+00
    0.00000E+00         0.00000E+00        -0.28387E+07
 
   -0.29603E+07         0.67232E+07         0.00000E+00
    0.67232E+07        -0.11193E+08         0.00000E+00
    0.00000E+00         0.00000E+00        -0.28306E+07
 
   -0.28685E+07         0.83348E+07         0.00000E+00
    0.83348E+07        -0.11228E+08         0.00000E+00
    0.00000E+00         0.00000E+00        -0.28193E+07
 
   -0.60486E+07        -0.29560E+06         0.00000E+00
   -0.29560E+06        -0.14052E+08         0.00000E+00
    0.00000E+00         0.00000E+00        -0.40201E+07
 
   -0.57751E+07        -0.81009E+06         0.00000E+00
   -0.81009E+06        -0.14049E+08         0.00000E+00
    0.00000E+00         0.00000E+00        -0.39649E+07
 
   -0.55293E+07        -0.11866E+07         0.00000E+00
   -0.11866E+07        -0.14043E+08         0.00000E+00
    0.00000E+00         0.00000E+00        -0.39144E+07
 
   -0.53104E+07        -0.13947E+07         0.00000E+00
   -0.13947E+07        -0.14033E+08         0.00000E+00
    0.00000E+00         0.00000E+00        -0.38686E+07
 
   -0.51156E+07        -0.14158E+07         0.00000E+00
   -0.14158E+07        -0.14020E+08         0.00000E+00
    0.00000E+00         0.00000E+00        -0.38272E+07
 
   -0.49414E+07        -0.12403E+07         0.00000E+00
   -0.12403E+07        -0.14007E+08         0.00000E+00
    0.00000E+00         0.00000E+00        -0.37898E+07
 
   -0.47837E+07        -0.86559E+06         0.00000E+00
   -0.86559E+06        -0.13996E+08         0.00000E+00
    0.00000E+00         0.00000E+00        -0.37559E+07
 
   -0.46379E+07        -0.29441E+06         0.00000E+00
   -0.29441E+06        -0.13988E+08         0.00000E+00
    0.00000E+00         0.00000E+00        -0.37252E+07
 
   -0.44996E+07         0.46683E+06         0.00000E+00
    0.46683E+06        -0.13986E+08         0.00000E+00
    0.00000E+00         0.00000E+00        -0.36972E+07
 
   -0.43647E+07         0.14086E+07         0.00000E+00
    0.14086E+07        -0.13992E+08         0.00000E+00
    0.00000E+00         0.00000E+00        -0.36714E+07
 
   -0.42293E+07         0.25185E+07         0.00000E+00
    0.25185E+07        -0.14008E+08         0.00000E+00
    0.00000E+00         0.00000E+00        -0.36474E+07
 
   -0.40906E+07         0.37813E+07         0.00000E+00
    0.37813E+07        -0.14034E+08         0.00000E+00
    0.00000E+00         0.00000E+00        -0.36249E+07
 
   -0.39460E+07         0.51783E+07         0.00000E+00
    0.51783E+07        -0.14072E+08         0.00000E+00
    0.00000E+00         0.00000E+00        -0.36037E+07
 
   -0.37945E+07         0.66867E+07         0.00000E+00
    0.66867E+07        -0.14123E+08         0.00000E+00
    0.00000E+00         0.00000E+00        -0.35835E+07
 
   -0.36358E+07         0.82788E+07         0.00000E+00
    0.82788E+07        -0.14185E+08         0.00000E+00
    0.00000E+00         0.00000E+00        -0.35642E+07
 
   -0.89452E+07        -0.29776E+06         0.00000E+00
   -0.29776E+06        -0.16385E+08         0.00000E+00
    0.00000E+00         0.00000E+00        -0.50660E+07
 
   -0.85542E+07        -0.81296E+06         0.00000E+00
   -0.81296E+06        -0.16404E+08         0.00000E+00
    0.00000E+00         0.00000E+00        -0.49915E+07
 
   -0.81561E+07        -0.11874E+07         0.00000E+00
   -0.11874E+07        -0.16433E+08         0.00000E+00
    0.00000E+00         0.00000E+00        -0.49178E+07
 
   -0.77622E+07        -0.13926E+07         0.00000E+00
   -0.13926E+07        -0.16468E+08         0.00000E+00
    0.00000E+00         0.00000E+00        -0.48459E+07
 
   -0.73798E+07        -0.14114E+07         0.00000E+00
   -0.14114E+07        -0.16504E+08         0.00000E+00
    0.00000E+00         0.00000E+00        -0.47768E+07
 
   -0.70129E+07        -0.12352E+07         0.00000E+00
   -0.12352E+07        -0.16542E+08         0.00000E+00
    0.00000E+00         0.00000E+00        -0.47109E+07
 
   -0.66630E+07        -0.86232E+06         0.00000E+00
   -0.86232E+06        -0.16581E+08         0.00000E+00
    0.00000E+00         0.00000E+00        -0.46488E+07
 
   -0.63296E+07        -0.29556E+06         0.00000E+00
   -0.29556E+06        -0.16623E+08         0.00000E+00
    0.00000E+00         0.00000E+00        -0.45905E+07
 
   -0.60116E+07         0.45853E+06         0.00000E+00
    0.45853E+06        -0.16670E+08         0.00000E+00
    0.00000E+00         0.00000E+00        -0.45364E+07
 
   -0.57074E+07         0.13907E+07         0.00000E+00
    0.13907E+07        -0.16724E+08         0.00000E+00
    0.00000E+00         0.00000E+00        -0.44863E+07
 
   -0.54159E+07         0.24891E+07         0.00000E+00
    0.24891E+07        -0.16787E+08         0.00000E+00
    0.00000E+00         0.00000E+00        -0.44405E+07
 
   -0.51369E+07         0.37394E+07         0.00000E+00
    0.37394E+07        -0.16858E+08         0.00000E+00
    0.00000E+00         0.00000E+00        -0.43990E+07
 
   -0.48717E+07         0.51236E+07         0.00000E+00
    0.51236E+07        -0.16938E+08         0.00000E+00
    0.00000E+00         0.00000E+00        -0.43619E+07
 
   -0.46234E+07         0.66199E+07         0.00000E+00
    0.66199E+07        -0.17024E+08         0.00000E+00
    0.00000E+00         0.00000E+00        -0.43295E+07
 
   -0.43969E+07         0.82020E+07         0.00000E+00
    0.82020E+07        -0.17114E+08         0.00000E+00
    0.00000E+00         0.00000E+00        -0.43021E+07
 
   -0.11852E+08        -0.31071E+06         0.00000E+00
   -0.31071E+06        -0.18715E+08         0.00000E+00
    0.00000E+00         0.00000E+00        -0.61135E+07
 
   -0.11336E+08        -0.84263E+06         0.00000E+00
   -0.84263E+06        -0.18754E+08         0.00000E+00
    0.00000E+00         0.00000E+00        -0.60179E+07
 
   -0.10781E+08        -0.12248E+07         0.00000E+00
   -0.12248E+07        -0.18816E+08         0.00000E+00
    0.00000E+00         0.00000E+00        -0.59194E+07
 
   -0.10209E+08        -0.14323E+07         0.00000E+00
   -0.14323E+07        -0.18892E+08         0.00000E+00
    0.00000E+00         0.00000E+00        -0.58202E+07
 
   -0.96384E+07        -0.14509E+07         0.00000E+00
   -0.14509E+07        -0.18973E+08         0.00000E+00
    0.00000E+00         0.00000E+00        -0.57223E+07
 
   -0.90795E+07        -0.12745E+07         0.00000E+00
   -0.12745E+07        -0.19057E+08         0.00000E+00
    0.00000E+00         0.00000E+00        -0.56273E+07
 
   -0.85390E+07        -0.90286E+06         0.00000E+00
   -0.90286E+06        -0.19142E+08         0.00000E+00
    0.00000E+00         0.00000E+00        -0.55362E+07
 
   -0.80202E+07        -0.33998E+06         0.00000E+00
   -0.33998E+06        -0.19230E+08         0.00000E+00
    0.00000E+00         0.00000E+00        -0.54500E+07
 
   -0.75245E+07         0.40735E+06         0.00000E+00
    0.40735E+06        -0.19322E+08         0.00000E+00
    0.00000E+00         0.00000E+00        -0.53692E+07
 
   -0.70525E+07         0.13303E+07         0.00000E+00
    0.13303E+07        -0.19421E+08         0.00000E+00
    0.00000E+00         0.00000E+00        -0.52946E+07
 
   -0.66054E+07         0.24179E+07         0.00000E+00
    0.24179E+07        -0.19527E+08         0.00000E+00
    0.00000E+00         0.00000E+00        -0.52266E+07
 
   -0.61856E+07         0.36571E+07         0.00000E+00
    0.36571E+07        -0.19642E+08         0.00000E+00
    0.00000E+00         0.00000E+00        -0.51656E+07
 
   -0.57981E+07         0.50318E+07         0.00000E+00
    0.50318E+07        -0.19763E+08         0.00000E+00
    0.00000E+00         0.00000E+00        -0.51123E+07
 
   -0.54500E+07         0.65220E+07         0.00000E+00
    0.65220E+07        -0.19886E+08         0.00000E+00
    0.00000E+00         0.00000E+00        -0.50672E+07
 
   -0.51511E+07         0.81029E+07         0.00000E+00
    0.81029E+07        -0.20004E+08         0.00000E+00
    0.00000E+00         0.00000E+00        -0.50311E+07
 
   -0.14800E+08        -0.33362E+06         0.00000E+00
   -0.33362E+06        -0.21054E+08         0.00000E+00
    0.00000E+00         0.00000E+00        -0.71707E+07
 
   -0.14144E+08        -0.89685E+06         0.00000E+00
   -0.89685E+06        -0.21110E+08         0.00000E+00
    0.00000E+00         0.00000E+00        -0.70506E+07
 
   -0.13420E+08        -0.12954E+07         0.00000E+00
   -0.12954E+07        -0.21202E+08         0.00000E+00
    0.00000E+00         0.00000E+00        -0.69244E+07
 
   -0.12665E+08        -0.15095E+07         0.00000E+00
   -0.15095E+07        -0.21313E+08         0.00000E+00
    0.00000E+00         0.00000E+00        -0.67955E+07
 
   -0.11903E+08        -0.15294E+07         0.00000E+00
   -0.15294E+07        -0.21432E+08         0.00000E+00
    0.00000E+00         0.00000E+00        -0.66670E+07
 
   -0.11152E+08        -0.13526E+07         0.00000E+00
   -0.13526E+07        -0.21554E+08         0.00000E+00
    0.00000E+00         0.00000E+00        -0.65411E+07
 
   -0.10422E+08        -0.98185E+06         0.00000E+00
   -0.98185E+06        -0.21677E+08         0.00000E+00
    0.00000E+00         0.00000E+00        -0.64198E+07
 
   -0.97196E+07        -0.42268E+06         0.00000E+00
   -0.42268E+06        -0.21803E+08         0.00000E+00
    0.00000E+00         0.00000E+00        -0.63045E+07
 
   -0.90483E+07         0.31758E+06         0.00000E+00
    0.31758E+06        -0.21933E+08         0.00000E+00
    0.00000E+00         0.00000E+00        -0.61963E+07
 
   -0.84099E+07         0.12305E+07         0.00000E+00
    0.12305E+07        -0.22071E+08         0.00000E+00
    0.00000E+00         0.00000E+00        -0.60962E+07
 
   -0.78072E+07         0.23068E+07         0.00000E+00
    0.23068E+07        -0.22218E+08         0.00000E+00
    0.00000E+00         0.00000E+00        -0.60051E+07
 
   -0.72449E+07         0.35353E+07         0.00000E+00
    0.35353E+07        -0.22374E+08         0.00000E+00
    0.00000E+00         0.00000E+00        -0.59238E+07
 
   -0.67310E+07         0.49025E+07         0.00000E+00
    0.49025E+07        -0.22536E+08         0.00000E+00
    0.00000E+00         0.00000E+00        -0.58533E+07
 
   -0.62769E+07         0.63911E+07         0.00000E+00
    0.63911E+07        -0.22696E+08         0.00000E+00
    0.00000E+00         0.00000E+00        -0.57946E+07
 
   -0.58979E+07         0.79788E+07         0.00000E+00
    0.79788E+07        -0.22846E+08         0.00000E+00
    0.00000E+00         0.00000E+00        -0.57488E+07
 
   -0.17815E+08        -0.36540E+06         0.00000E+00
   -0.36540E+06        -0.23409E+08         0.00000E+00
    0.00000E+00         0.00000E+00        -0.82448E+07
 
   -0.16997E+08        -0.97248E+06         0.00000E+00
   -0.97248E+06        -0.23480E+08         0.00000E+00
    0.00000E+00         0.00000E+00        -0.80954E+07
 
   -0.16091E+08        -0.13942E+07         0.00000E+00
   -0.13942E+07        -0.23596E+08         0.00000E+00
    0.00000E+00         0.00000E+00        -0.79374E+07
 
   -0.15141E+08        -0.16176E+07         0.00000E+00
   -0.16176E+07        -0.23735E+08         0.00000E+00
    0.00000E+00         0.00000E+00        -0.77753E+07
 
   -0.14183E+08        -0.16390E+07         0.00000E+00
   -0.16390E+07        -0.23883E+08         0.00000E+00
    0.00000E+00         0.00000E+00        -0.76132E+07
 
   -0.13238E+08        -0.14612E+07         0.00000E+00
   -0.14612E+07        -0.24033E+08         0.00000E+00
    0.00000E+00         0.00000E+00        -0.74541E+07
 
   -0.12320E+08        -0.10909E+07         0.00000E+00
   -0.10909E+07        -0.24183E+08         0.00000E+00
    0.00000E+00         0.00000E+00        -0.73006E+07
 
   -0.11437E+08        -0.53580E+06         0.00000E+00
   -0.53580E+06        -0.24336E+08         0.00000E+00
    0.00000E+00         0.00000E+00        -0.71546E+07
 
   -0.10593E+08         0.19591E+06         0.00000E+00
    0.19591E+06        -0.24495E+08         0.00000E+00
    0.00000E+00         0.00000E+00        -0.70176E+07
 
   -0.97900E+07         0.10966E+07         0.00000E+00
    0.10966E+07        -0.24664E+08         0.00000E+00
    0.00000E+00         0.00000E+00        -0.68909E+07
 
   -0.90312E+07         0.21590E+07         0.00000E+00
    0.21590E+07        -0.24846E+08         0.00000E+00
    0.00000E+00         0.00000E+00        -0.67755E+07
 
   -0.83231E+07         0.33749E+07         0.00000E+00
    0.33749E+07        -0.25040E+08         0.00000E+00
    0.00000E+00         0.00000E+00        -0.66727E+07
 
   -0.76765E+07         0.47346E+07         0.00000E+00
    0.47346E+07        -0.25242E+08         0.00000E+00
    0.00000E+00         0.00000E+00        -0.65836E+07
 
   -0.71074E+07         0.62243E+07         0.00000E+00
    0.62243E+07        -0.25442E+08         0.00000E+00
    0.00000E+00         0.00000E+00        -0.65098E+07
 
   -0.66366E+07         0.78252E+07         0.00000E+00
    0.78252E+07        -0.25627E+08         0.00000E+00
    0.00000E+00         0.00000E+00        -0.64528E+07
 
   -0.20918E+08        -0.40471E+06         0.00000E+00
   -0.40471E+06        -0.25790E+08         0.00000E+00
    0.00000E+00         0.00000E+00        -0.93417E+07
 
   -0.19911E+08        -0.10655E+07         0.00000E+00
   -0.10655E+07        -0.25873E+08         0.00000E+00
    0.00000E+00         0.00000E+00        -0.91568E+07
 
   -0.18802E+08        -0.15146E+07         0.00000E+00
   -0.15146E+07        -0.26006E+08         0.00000E+00
    0.00000E+00         0.00000E+00        -0.89615E+07
 
   -0.17646E+08        -0.17475E+07         0.00000E+00
   -0.17475E+07        -0.26163E+08         0.00000E+00
    0.00000E+00         0.00000E+00        -0.87617E+07
 
   -0.16484E+08        -0.17690E+07         0.00000E+00
   -0.17690E+07        -0.26327E+08         0.00000E+00
    0.00000E+00         0.00000E+00        -0.85623E+07
 
   -0.15344E+08        -0.15887E+07         0.00000E+00
   -0.15887E+07        -0.26491E+08         0.00000E+00
    0.00000E+00         0.00000E+00        -0.83670E+07
 
   -0.14241E+08        -0.12183E+07         0.00000E+00
   -0.12183E+07        -0.26654E+08         0.00000E+00
    0.00000E+00         0.00000E+00        -0.81790E+07
 
   -0.13182E+08        -0.66859E+06         0.00000E+00
   -0.66859E+06        -0.26820E+08         0.00000E+00
    0.00000E+00         0.00000E+00        -0.80004E+07
 
   -0.12169E+08         0.51502E+05         0.00000E+00
    0.51502E+05        -0.26996E+08         0.00000E+00
    0.00000E+00         0.00000E+00        -0.78329E+07
 
   -0.11204E+08         0.93547E+06         0.00000E+00
    0.93547E+06        -0.27186E+08         0.00000E+00
    0.00000E+00         0.00000E+00        -0.76780E+07
 
   -0.10288E+08         0.19787E+07         0.00000E+00
    0.19787E+07        -0.27396E+08         0.00000E+00
    0.00000E+00         0.00000E+00        -0.75368E+07
 
   -0.94299E+07         0.31774E+07         0.00000E+00
    0.31774E+07        -0.27624E+08         0.00000E+00
    0.00000E+00         0.00000E+00        -0.74107E+07
 
   -0.86420E+07         0.45264E+07         0.00000E+00
    0.45264E+07        -0.27865E+08         0.00000E+00
    0.00000E+00         0.00000E+00        -0.73014E+07
 
   -0.79450E+07         0.60174E+07         0.00000E+00
    0.60174E+07        -0.28108E+08         0.00000E+00
    0.00000E+00         0.00000E+00        -0.72106E+07
 
   -0.73665E+07         0.76359E+07         0.00000E+00
    0.76359E+07        -0.28335E+08         0.00000E+00
    0.00000E+00         0.00000E+00        -0.71404E+07
 
   -0.24128E+08        -0.45002E+06         0.00000E+00
   -0.45002E+06        -0.28202E+08         0.00000E+00
    0.00000E+00         0.00000E+00        -0.10466E+08
 
   -0.22898E+08        -0.11710E+07         0.00000E+00
   -0.11710E+07        -0.28292E+08         0.00000E+00
    0.00000E+00         0.00000E+00        -0.10238E+08
 
   -0.21560E+08        -0.16480E+07         0.00000E+00
   -0.16480E+07        -0.28434E+08         0.00000E+00
    0.00000E+00         0.00000E+00        -0.99988E+07
 
   -0.20182E+08        -0.18877E+07         0.00000E+00
   -0.18877E+07        -0.28597E+08         0.00000E+00
    0.00000E+00         0.00000E+00        -0.97557E+07
 
   -0.18810E+08        -0.19054E+07         0.00000E+00
   -0.19054E+07        -0.28762E+08         0.00000E+00
    0.00000E+00         0.00000E+00        -0.95145E+07
 
   -0.17475E+08        -0.17200E+07         0.00000E+00
   -0.17200E+07        -0.28923E+08         0.00000E+00
    0.00000E+00         0.00000E+00        -0.92796E+07
 
   -0.16191E+08        -0.13492E+07         0.00000E+00
   -0.13492E+07        -0.29080E+08         0.00000E+00
    0.00000E+00         0.00000E+00        -0.90543E+07
 
   -0.14962E+08        -0.80730E+06         0.00000E+00
   -0.80730E+06        -0.29243E+08         0.00000E+00
    0.00000E+00         0.00000E+00        -0.88410E+07
 
   -0.13787E+08        -0.10402E+06         0.00000E+00
   -0.10402E+06        -0.29420E+08         0.00000E+00
    0.00000E+00         0.00000E+00        -0.86413E+07
 
   -0.12663E+08         0.75579E+06         0.00000E+00
    0.75579E+06        -0.29619E+08         0.00000E+00
    0.00000E+00         0.00000E+00        -0.84564E+07
 
   -0.11591E+08         0.17712E+07         0.00000E+00
    0.17712E+07        -0.29848E+08         0.00000E+00
    0.00000E+00         0.00000E+00        -0.82877E+07
 
   -0.10577E+08         0.29438E+07         0.00000E+00
    0.29438E+07        -0.30106E+08         0.00000E+00
    0.00000E+00         0.00000E+00        -0.81366E+07
 
   -0.96365E+07         0.42753E+07         0.00000E+00
    0.42753E+07        -0.30387E+08         0.00000E+00
    0.00000E+00         0.00000E+00        -0.80047E+07
 
   -0.87948E+07         0.57642E+07         0.00000E+00
    0.57642E+07        -0.30678E+08         0.00000E+00
    0.00000E+00         0.00000E+00        -0.78945E+07
 
   -0.80871E+07         0.74022E+07         0.00000E+00
    0.74022E+07        -0.30955E+08         0.00000E+00
    0.00000E+00         0.00000E+00        -0.78085E+07
 
   -0.27457E+08        -0.49962E+06         0.00000E+00
   -0.49962E+06        -0.30648E+08         0.00000E+00
    0.00000E+00         0.00000E+00        -0.11621E+08
 
   -0.25962E+08        -0.12830E+07         0.00000E+00
   -0.12830E+07        -0.30741E+08         0.00000E+00
    0.00000E+00         0.00000E+00        -0.11341E+08
 
   -0.24365E+08        -0.17837E+07         0.00000E+00
   -0.17837E+07        -0.30882E+08         0.00000E+00
    0.00000E+00         0.00000E+00        -0.11050E+08
 
   -0.22748E+08        -0.20231E+07         0.00000E+00
   -0.20231E+07        -0.31035E+08         0.00000E+00
    0.00000E+00         0.00000E+00        -0.10757E+08
 
   -0.21161E+08        -0.20306E+07         0.00000E+00
   -0.20306E+07        -0.31182E+08         0.00000E+00
    0.00000E+00         0.00000E+00        -0.10468E+08
 
   -0.19633E+08        -0.18363E+07         0.00000E+00
   -0.18363E+07        -0.31318E+08         0.00000E+00
    0.00000E+00         0.00000E+00        -0.10190E+08
 
   -0.18176E+08        -0.14652E+07         0.00000E+00
   -0.14652E+07        -0.31449E+08         0.00000E+00
    0.00000E+00         0.00000E+00        -0.99250E+07
 
   -0.16787E+08        -0.93532E+06         0.00000E+00
   -0.93532E+06        -0.31588E+08         0.00000E+00
    0.00000E+00         0.00000E+00        -0.96749E+07
 
   -0.15458E+08        -0.25672E+06         0.00000E+00
   -0.25672E+06        -0.31748E+08         0.00000E+00
    0.00000E+00         0.00000E+00        -0.94413E+07
 
   -0.14182E+08         0.56801E+06         0.00000E+00
    0.56801E+06        -0.31943E+08         0.00000E+00
    0.00000E+00         0.00000E+00        -0.92250E+07
 
   -0.12954E+08         0.15426E+07         0.00000E+00
    0.15426E+07        -0.32181E+08         0.00000E+00
    0.00000E+00         0.00000E+00        -0.90270E+07
 
   -0.11779E+08         0.26757E+07         0.00000E+00
    0.26757E+07        -0.32464E+08         0.00000E+00
    0.00000E+00         0.00000E+00        -0.88486E+07
 
   -0.10672E+08         0.39775E+07         0.00000E+00
    0.39775E+07        -0.32786E+08         0.00000E+00
    0.00000E+00         0.00000E+00        -0.86917E+07
 
   -0.96635E+07         0.54564E+07         0.00000E+00
    0.54564E+07        -0.33131E+08         0.00000E+00
    0.00000E+00         0.00000E+00        -0.85589E+07
 
   -0.87986E+07         0.71128E+07         0.00000E+00
    0.71128E+07        -0.33470E+08         0.00000E+00
    0.00000E+00         0.00000E+00        -0.84538E+07
 
   -0.30911E+08        -0.55160E+06         0.00000E+00
   -0.55160E+06        -0.33129E+08         0.00000E+00
    0.00000E+00         0.00000E+00        -0.12808E+08
 
   -0.29100E+08        -0.13941E+07         0.00000E+00
   -0.13941E+07        -0.33220E+08         0.00000E+00
    0.00000E+00         0.00000E+00        -0.12464E+08
 
   -0.27211E+08        -0.19079E+07         0.00000E+00
   -0.19079E+07        -0.33348E+08         0.00000E+00
    0.00000E+00         0.00000E+00        -0.12112E+08
 
   -0.25336E+08        -0.21346E+07         0.00000E+00
   -0.21346E+07        -0.33472E+08         0.00000E+00
    0.00000E+00         0.00000E+00        -0.11762E+08
 
   -0.23531E+08        -0.21224E+07         0.00000E+00
   -0.21224E+07        -0.33575E+08         0.00000E+00
    0.00000E+00         0.00000E+00        -0.11421E+08
 
   -0.21819E+08        -0.19148E+07         0.00000E+00
   -0.19148E+07        -0.33660E+08         0.00000E+00
    0.00000E+00         0.00000E+00        -0.11096E+08
 
   -0.20201E+08        -0.15449E+07         0.00000E+00
   -0.15449E+07        -0.33741E+08         0.00000E+00
    0.00000E+00         0.00000E+00        -0.10788E+08
 
   -0.18666E+08        -0.10336E+07         0.00000E+00
   -0.10336E+07        -0.33834E+08         0.00000E+00
    0.00000E+00         0.00000E+00        -0.10500E+08
 
   -0.17197E+08        -0.39077E+06         0.00000E+00
   -0.39077E+06        -0.33959E+08         0.00000E+00
    0.00000E+00         0.00000E+00        -0.10231E+08
 
   -0.15777E+08         0.38407E+06         0.00000E+00
    0.38407E+06        -0.34133E+08         0.00000E+00
    0.00000E+00         0.00000E+00        -0.99821E+07
 
   -0.14397E+08         0.13001E+07         0.00000E+00
    0.13001E+07        -0.34369E+08         0.00000E+00
    0.00000E+00         0.00000E+00        -0.97532E+07
 
   -0.13054E+08         0.23742E+07         0.00000E+00
    0.23742E+07        -0.34672E+08         0.00000E+00
    0.00000E+00         0.00000E+00        -0.95453E+07
 
   -0.11764E+08         0.36279E+07         0.00000E+00
    0.36279E+07        -0.35038E+08         0.00000E+00
    0.00000E+00         0.00000E+00        -0.93603E+07
 
   -0.10561E+08         0.50828E+07         0.00000E+00
    0.50828E+07        -0.35446E+08         0.00000E+00
    0.00000E+00         0.00000E+00        -0.92014E+07
 
   -0.95017E+07         0.67521E+07         0.00000E+00
    0.67521E+07        -0.35862E+08         0.00000E+00
    0.00000E+00         0.00000E+00        -0.90727E+07
 
   -0.34488E+08        -0.60383E+06         0.00000E+00
   -0.60383E+06        -0.35647E+08         0.00000E+00
    0.00000E+00         0.00000E+00        -0.14027E+08
 
   -0.32300E+08        -0.14945E+07         0.00000E+00
   -0.14945E+07        -0.35729E+08         0.00000E+00
    0.00000E+00         0.00000E+00        -0.13606E+08
 
   -0.30080E+08        -0.20019E+07         0.00000E+00
   -0.20019E+07        -0.35825E+08         0.00000E+00
    0.00000E+00         0.00000E+00        -0.13181E+08
 
   -0.27934E+08        -0.21972E+07         0.00000E+00
   -0.21972E+07        -0.35893E+08         0.00000E+00
    0.00000E+00         0.00000E+00        -0.12765E+08
 
   -0.25915E+08        -0.21533E+07         0.00000E+00
   -0.21533E+07        -0.35923E+08         0.00000E+00
    0.00000E+00         0.00000E+00        -0.12367E+08
 
   -0.24032E+08        -0.19293E+07         0.00000E+00
   -0.19293E+07        -0.35928E+08         0.00000E+00
    0.00000E+00         0.00000E+00        -0.11992E+08
 
   -0.22272E+08        -0.15647E+07         0.00000E+00
   -0.15647E+07        -0.35930E+08         0.00000E+00
    0.00000E+00         0.00000E+00        -0.11640E+08
 
   -0.20610E+08        -0.10821E+07         0.00000E+00
   -0.10821E+07        -0.35954E+08         0.00000E+00
    0.00000E+00         0.00000E+00        -0.11313E+08
 
   -0.19018E+08        -0.48939E+06         0.00000E+00
   -0.48939E+06        -0.36025E+08         0.00000E+00
    0.00000E+00         0.00000E+00        -0.11009E+08
 
   -0.17468E+08         0.21698E+06         0.00000E+00
    0.21698E+06        -0.36163E+08         0.00000E+00
    0.00000E+00         0.00000E+00        -0.10726E+08
 
   -0.15941E+08         0.10518E+07         0.00000E+00
    0.10518E+07        -0.36386E+08         0.00000E+00
    0.00000E+00         0.00000E+00        -0.10465E+08
 
   -0.14427E+08         0.20410E+07         0.00000E+00
    0.20410E+07        -0.36703E+08         0.00000E+00
    0.00000E+00         0.00000E+00        -0.10226E+08
 
   -0.12934E+08         0.32200E+07         0.00000E+00
    0.32200E+07        -0.37113E+08         0.00000E+00
    0.00000E+00         0.00000E+00        -0.10009E+08
 
   -0.11502E+08         0.46286E+07         0.00000E+00
    0.46286E+07        -0.37596E+08         0.00000E+00
    0.00000E+00         0.00000E+00        -0.98196E+07
 
   -0.10199E+08         0.62995E+07         0.00000E+00
    0.62995E+07        -0.38109E+08         0.00000E+00
    0.00000E+00         0.00000E+00        -0.96616E+07
 
   -0.38181E+08        -0.65366E+06         0.00000E+00
   -0.65366E+06        -0.38199E+08         0.00000E+00
    0.00000E+00         0.00000E+00        -0.15276E+08
 
   -0.35539E+08        -0.15697E+07         0.00000E+00
   -0.15697E+07        -0.38261E+08         0.00000E+00
    0.00000E+00         0.00000E+00        -0.14760E+08
 
   -0.32947E+08        -0.20385E+07         0.00000E+00
   -0.20385E+07        -0.38299E+08         0.00000E+00
    0.00000E+00         0.00000E+00        -0.14249E+08
 
   -0.30523E+08        -0.21771E+07         0.00000E+00
   -0.21771E+07        -0.38274E+08         0.00000E+00
    0.00000E+00         0.00000E+00        -0.13759E+08
 
   -0.28303E+08        -0.20904E+07         0.00000E+00
   -0.20904E+07        -0.38192E+08         0.00000E+00
    0.00000E+00         0.00000E+00        -0.13299E+08
 
   -0.26274E+08        -0.18511E+07         0.00000E+00
   -0.18511E+07        -0.38084E+08         0.00000E+00
    0.00000E+00         0.00000E+00        -0.12872E+08
 
   -0.24398E+08        -0.15014E+07         0.00000E+00
   -0.15014E+07        -0.37983E+08         0.00000E+00
    0.00000E+00         0.00000E+00        -0.12476E+08
 
   -0.22633E+08        -0.10615E+07         0.00000E+00
   -0.10615E+07        -0.37918E+08         0.00000E+00
    0.00000E+00         0.00000E+00        -0.12110E+08
 
   -0.20939E+08        -0.53668E+06         0.00000E+00
   -0.53668E+06        -0.37918E+08         0.00000E+00
    0.00000E+00         0.00000E+00        -0.11771E+08
 
   -0.19276E+08         0.79940E+05         0.00000E+00
    0.79940E+05        -0.38006E+08         0.00000E+00
    0.00000E+00         0.00000E+00        -0.11456E+08
 
   -0.17613E+08         0.80735E+06         0.00000E+00
    0.80735E+06        -0.38202E+08         0.00000E+00
    0.00000E+00         0.00000E+00        -0.11163E+08
 
   -0.15927E+08         0.16792E+07         0.00000E+00
    0.16792E+07        -0.38525E+08         0.00000E+00
    0.00000E+00         0.00000E+00        -0.10890E+08
 
   -0.14214E+08         0.27465E+07         0.00000E+00
    0.27465E+07        -0.38980E+08         0.00000E+00
    0.00000E+00         0.00000E+00        -0.10639E+08
 
   -0.12509E+08         0.40744E+07         0.00000E+00
    0.40744E+07        -0.39551E+08         0.00000E+00
    0.00000E+00         0.00000E+00        -0.10412E+08
 
   -0.10897E+08         0.57265E+07         0.00000E+00
    0.57265E+07        -0.40189E+08         0.00000E+00
    0.00000E+00         0.00000E+00        -0.10217E+08
 
   -0.41968E+08        -0.69708E+06         0.00000E+00
   -0.69708E+06        -0.40782E+08         0.00000E+00
    0.00000E+00         0.00000E+00        -0.16550E+08
 
   -0.38773E+08        -0.15952E+07         0.00000E+00
   -0.15952E+07        -0.40803E+08         0.00000E+00
    0.00000E+00         0.00000E+00        -0.15915E+08
 
   -0.35773E+08        -0.19758E+07         0.00000E+00
   -0.19758E+07        -0.40738E+08         0.00000E+00
    0.00000E+00         0.00000E+00        -0.15302E+08
 
   -0.33083E+08        -0.20300E+07         0.00000E+00
   -0.20300E+07        -0.40567E+08         0.00000E+00
    0.00000E+00         0.00000E+00        -0.14730E+08
 
   -0.30695E+08        -0.18971E+07         0.00000E+00
   -0.18971E+07        -0.40331E+08         0.00000E+00
    0.00000E+00         0.00000E+00        -0.14205E+08
 
   -0.28553E+08        -0.16538E+07         0.00000E+00
   -0.16538E+07        -0.40080E+08         0.00000E+00
    0.00000E+00         0.00000E+00        -0.13727E+08
 
   -0.26591E+08        -0.13359E+07         0.00000E+00
   -0.13359E+07        -0.39855E+08         0.00000E+00
    0.00000E+00         0.00000E+00        -0.13289E+08
 
   -0.24750E+08        -0.95767E+06         0.00000E+00
   -0.95767E+06        -0.39689E+08         0.00000E+00
    0.00000E+00         0.00000E+00        -0.12888E+08
 
   -0.22977E+08        -0.52044E+06         0.00000E+00
   -0.52044E+06        -0.39608E+08         0.00000E+00
    0.00000E+00         0.00000E+00        -0.12517E+08
 
   -0.21223E+08        -0.15299E+05         0.00000E+00
   -0.15299E+05        -0.39635E+08         0.00000E+00
    0.00000E+00         0.00000E+00        -0.12172E+08
 
   -0.19442E+08         0.57790E+06         0.00000E+00
    0.57790E+06        -0.39794E+08         0.00000E+00
    0.00000E+00         0.00000E+00        -0.11847E+08
 
   -0.17591E+08         0.12959E+07         0.00000E+00
    0.12959E+07        -0.40110E+08         0.00000E+00
    0.00000E+00         0.00000E+00        -0.11540E+08
 
   -0.15645E+08         0.22027E+07         0.00000E+00
    0.22027E+07        -0.40605E+08         0.00000E+00
    0.00000E+00         0.00000E+00        -0.11250E+08
 
   -0.13618E+08         0.33965E+07         0.00000E+00
    0.33965E+07        -0.41278E+08         0.00000E+00
    0.00000E+00         0.00000E+00        -0.10979E+08
 
   -0.11608E+08         0.49931E+07         0.00000E+00
    0.49931E+07        -0.42078E+08         0.00000E+00
    0.00000E+00         0.00000E+00        -0.10737E+08
 
   -0.45806E+08        -0.72537E+06         0.00000E+00
   -0.72537E+06        -0.43386E+08         0.00000E+00
    0.00000E+00         0.00000E+00        -0.17839E+08
 
   -0.41929E+08        -0.15212E+07         0.00000E+00
   -0.15212E+07        -0.43323E+08         0.00000E+00
    0.00000E+00         0.00000E+00        -0.17050E+08
 
   -0.38511E+08        -0.17454E+07         0.00000E+00
   -0.17454E+07        -0.43073E+08         0.00000E+00
    0.00000E+00         0.00000E+00        -0.16317E+08
 
   -0.35604E+08        -0.17020E+07         0.00000E+00
   -0.17020E+07        -0.42686E+08         0.00000E+00
    0.00000E+00         0.00000E+00        -0.15658E+08
 
   -0.33101E+08        -0.15418E+07         0.00000E+00
   -0.15418E+07        -0.42257E+08         0.00000E+00
    0.00000E+00         0.00000E+00        -0.15072E+08
 
   -0.30886E+08        -0.13208E+07         0.00000E+00
   -0.13208E+07        -0.41847E+08         0.00000E+00
    0.00000E+00         0.00000E+00        -0.14547E+08
 
   -0.28870E+08        -0.10601E+07         0.00000E+00
   -0.10601E+07        -0.41496E+08         0.00000E+00
    0.00000E+00         0.00000E+00        -0.14073E+08
 
   -0.26978E+08        -0.76591E+06         0.00000E+00
   -0.76591E+06        -0.41228E+08         0.00000E+00
    0.00000E+00         0.00000E+00        -0.13641E+08
 
   -0.25150E+08        -0.43597E+06         0.00000E+00
   -0.43597E+06        -0.41066E+08         0.00000E+00
    0.00000E+00         0.00000E+00        -0.13243E+08
 
   -0.23327E+08        -0.61464E+05         0.00000E+00
   -0.61464E+05        -0.41031E+08         0.00000E+00
    0.00000E+00         0.00000E+00        -0.12872E+08
 
   -0.21452E+08         0.37502E+06         0.00000E+00
    0.37502E+06        -0.41146E+08         0.00000E+00
    0.00000E+00         0.00000E+00        -0.12520E+08
 
   -0.19462E+08         0.90566E+06         0.00000E+00
    0.90566E+06        -0.41441E+08         0.00000E+00
    0.00000E+00         0.00000E+00        -0.12181E+08
 
   -0.17288E+08         0.15929E+07         0.00000E+00
    0.15929E+07        -0.41956E+08         0.00000E+00
    0.00000E+00         0.00000E+00        -0.11849E+08
 
   -0.14892E+08         0.25687E+07         0.00000E+00
    0.25687E+07        -0.42736E+08         0.00000E+00
    0.00000E+00         0.00000E+00        -0.11526E+08
 
   -0.12356E+08         0.40405E+07         0.00000E+00
    0.40405E+07        -0.43746E+08         0.00000E+00
    0.00000E+00         0.00000E+00        -0.11220E+08
 
   -0.49602E+08        -0.70813E+06         0.00000E+00
   -0.70813E+06        -0.45989E+08         0.00000E+00
    0.00000E+00         0.00000E+00        -0.19118E+08
 
   -0.44896E+08        -0.12288E+07         0.00000E+00
   -0.12288E+07        -0.45708E+08         0.00000E+00
    0.00000E+00         0.00000E+00        -0.18121E+08
 
   -0.41141E+08        -0.12517E+07         0.00000E+00
   -0.12517E+07        -0.45132E+08         0.00000E+00
    0.00000E+00         0.00000E+00        -0.17254E+08
 
   -0.38113E+08        -0.11546E+07         0.00000E+00
   -0.11546E+07        -0.44484E+08         0.00000E+00
    0.00000E+00         0.00000E+00        -0.16519E+08
 
   -0.35551E+08        -0.10160E+07         0.00000E+00
   -0.10160E+07        -0.43862E+08         0.00000E+00
    0.00000E+00         0.00000E+00        -0.15883E+08
 
   -0.33300E+08        -0.85690E+06         0.00000E+00
   -0.85690E+06        -0.43310E+08         0.00000E+00
    0.00000E+00         0.00000E+00        -0.15322E+08
 
   -0.31253E+08        -0.68337E+06         0.00000E+00
   -0.68337E+06        -0.42850E+08         0.00000E+00
    0.00000E+00         0.00000E+00        -0.14821E+08
 
   -0.29332E+08        -0.49543E+06         0.00000E+00
   -0.49543E+06        -0.42499E+08         0.00000E+00
    0.00000E+00         0.00000E+00        -0.14366E+08
 
   -0.27469E+08        -0.28978E+06         0.00000E+00
   -0.28978E+06        -0.42272E+08         0.00000E+00
    0.00000E+00         0.00000E+00        -0.13948E+08
 
   -0.25601E+08        -0.59882E+05         0.00000E+00
   -0.59882E+05        -0.42183E+08         0.00000E+00
    0.00000E+00         0.00000E+00        -0.13557E+08
 
   -0.23662E+08         0.20568E+06         0.00000E+00
    0.20568E+06        -0.42256E+08         0.00000E+00
    0.00000E+00         0.00000E+00        -0.13183E+08
 
   -0.21571E+08         0.52789E+06         0.00000E+00
    0.52789E+06        -0.42520E+08         0.00000E+00
    0.00000E+00         0.00000E+00        -0.12818E+08
 
   -0.19221E+08         0.94957E+06         0.00000E+00
    0.94957E+06        -0.43028E+08         0.00000E+00
    0.00000E+00         0.00000E+00        -0.12450E+08
 
   -0.16445E+08         0.15786E+07         0.00000E+00
    0.15786E+07        -0.43865E+08         0.00000E+00
    0.00000E+00         0.00000E+00        -0.12062E+08
 
   -0.13203E+08         0.27704E+07         0.00000E+00
    0.27704E+07        -0.45154E+08         0.00000E+00
    0.00000E+00         0.00000E+00        -0.11671E+08
 
   -0.53097E+08        -0.44654E+06         0.00000E+00
   -0.44654E+06        -0.48347E+08         0.00000E+00
    0.00000E+00         0.00000E+00        -0.20289E+08
 
   -0.47594E+08        -0.50857E+06         0.00000E+00
   -0.50857E+06        -0.47532E+08         0.00000E+00
    0.00000E+00         0.00000E+00        -0.19025E+08
 
   -0.43735E+08        -0.46299E+06         0.00000E+00
   -0.46299E+06        -0.46625E+08         0.00000E+00
    0.00000E+00         0.00000E+00        -0.18072E+08
 
   -0.40668E+08        -0.41153E+06         0.00000E+00
   -0.41153E+06        -0.45782E+08         0.00000E+00
    0.00000E+00         0.00000E+00        -0.17290E+08
 
   -0.38087E+08        -0.35553E+06         0.00000E+00
   -0.35553E+06        -0.45034E+08         0.00000E+00
    0.00000E+00         0.00000E+00        -0.16624E+08
 
   -0.35821E+08        -0.29702E+06         0.00000E+00
   -0.29702E+06        -0.44395E+08         0.00000E+00
    0.00000E+00         0.00000E+00        -0.16043E+08
 
   -0.33761E+08        -0.23582E+06         0.00000E+00
   -0.23582E+06        -0.43872E+08         0.00000E+00
    0.00000E+00         0.00000E+00        -0.15527E+08
 
   -0.31824E+08        -0.17106E+06         0.00000E+00
   -0.17106E+06        -0.43473E+08         0.00000E+00
    0.00000E+00         0.00000E+00        -0.15059E+08
 
   -0.29942E+08        -0.10117E+06         0.00000E+00
   -0.10117E+06        -0.43207E+08         0.00000E+00
    0.00000E+00         0.00000E+00        -0.14630E+08
 
   -0.28050E+08        -0.23767E+05         0.00000E+00
   -0.23767E+05        -0.43087E+08         0.00000E+00
    0.00000E+00         0.00000E+00        -0.14227E+08
 
   -0.26076E+08         0.65093E+05         0.00000E+00
    0.65093E+05        -0.43133E+08         0.00000E+00
    0.00000E+00         0.00000E+00        -0.13842E+08
 
   -0.23932E+08         0.17240E+06         0.00000E+00
    0.17240E+06        -0.43374E+08         0.00000E+00
    0.00000E+00         0.00000E+00        -0.13461E+08
 
   -0.21485E+08         0.31321E+06         0.00000E+00
    0.31321E+06        -0.43861E+08         0.00000E+00
    0.00000E+00         0.00000E+00        -0.13069E+08
 
   -0.18501E+08         0.52163E+06         0.00000E+00
    0.52163E+06        -0.44697E+08         0.00000E+00
    0.00000E+00         0.00000E+00        -0.12640E+08
 
   -0.14306E+08         0.10202E+07         0.00000E+00
    0.10202E+07        -0.46164E+08         0.00000E+00
    0.00000E+00         0.00000E+00        -0.12094E+08
 
TENSORS stresstot double 
   -0.35642E+08        -0.56860E+06         0.00000E+00
   -0.56860E+06        -0.60412E+08         0.00000E+00
    0.00000E+00         0.00000E+00        -0.72208E+08
 
   -0.42139E+08        -0.65571E+06         0.00000E+00
   -0.65571E+06        -0.61461E+08         0.00000E+00
    0.00000E+00         0.00000E+00        -0.73717E+08
 
   -0.46546E+08        -0.60289E+06         0.00000E+00
   -0.60289E+06        -0.62638E+08         0.00000E+00
    0.00000E+00         0.00000E+00        -0.74834E+08
 
   -0.49956E+08        -0.54072E+06         0.00000E+00
   -0.54072E+06        -0.63745E+08         0.00000E+00
    0.00000E+00         0.00000E+00        -0.75738E+08
 
   -0.52760E+08        -0.47230E+06         0.00000E+00
   -0.47230E+06        -0.64736E+08         0.00000E+00
    0.00000E+00         0.00000E+00        -0.76497E+08
 
   -0.55177E+08        -0.40084E+06         0.00000E+00
   -0.40084E+06        -0.65595E+08         0.00000E+00
    0.00000E+00         0.00000E+00        -0.77154E+08
 
   -0.57348E+08        -0.32648E+06         0.00000E+00
   -0.32648E+06        -0.66312E+08         0.00000E+00
    0.00000E+00         0.00000E+00        -0.77733E+08
 
   -0.59377E+08        -0.24828E+06         0.00000E+00
   -0.24828E+06        -0.66880E+08         0.00000E+00
    0.00000E+00         0.00000E+00        -0.78253E+08
 
   -0.61350E+08        -0.16433E+06         0.00000E+00
   -0.16433E+06        -0.67287E+08         0.00000E+00
    0.00000E+00         0.00000E+00        -0.78731E+08
 
   -0.63349E+08        -0.71529E+05         0.00000E+00
   -0.71529E+05        -0.67519E+08         0.00000E+00
    0.00000E+00         0.00000E+00        -0.79178E+08
 
   -0.65462E+08         0.35249E+05         0.00000E+00
    0.35249E+05        -0.67552E+08         0.00000E+00
    0.00000E+00         0.00000E+00        -0.79608E+08
 
   -0.67803E+08         0.16514E+06         0.00000E+00
    0.16514E+06        -0.67350E+08         0.00000E+00
    0.00000E+00         0.00000E+00        -0.80036E+08
 
   -0.70540E+08         0.33772E+06         0.00000E+00
    0.33772E+06        -0.66846E+08         0.00000E+00
    0.00000E+00         0.00000E+00        -0.80484E+08
 
   -0.73975E+08         0.59717E+06         0.00000E+00
    0.59717E+06        -0.65911E+08         0.00000E+00
    0.00000E+00         0.00000E+00        -0.80984E+08
 
   -0.78968E+08         0.12284E+07         0.00000E+00
    0.12284E+07        -0.64182E+08         0.00000E+00
    0.00000E+00         0.00000E+00        -0.81637E+08
 
   -0.36724E+08        -0.91108E+06         0.00000E+00
   -0.91108E+06        -0.60038E+08         0.00000E+00
    0.00000E+00         0.00000E+00        -0.70349E+08
 
   -0.42207E+08        -0.15905E+07         0.00000E+00
   -0.15905E+07        -0.60414E+08         0.00000E+00
    0.00000E+00         0.00000E+00        -0.71521E+08
 
   -0.46483E+08        -0.16321E+07         0.00000E+00
   -0.16321E+07        -0.61174E+08         0.00000E+00
    0.00000E+00         0.00000E+00        -0.72529E+08
 
   -0.49846E+08        -0.15178E+07         0.00000E+00
   -0.15178E+07        -0.62033E+08         0.00000E+00
    0.00000E+00         0.00000E+00        -0.73375E+08
 
   -0.52632E+08        -0.13496E+07         0.00000E+00
   -0.13496E+07        -0.62865E+08         0.00000E+00
    0.00000E+00         0.00000E+00        -0.74102E+08
 
   -0.55038E+08        -0.11561E+07         0.00000E+00
   -0.11561E+07        -0.63616E+08         0.00000E+00
    0.00000E+00         0.00000E+00        -0.74736E+08
 
   -0.57201E+08        -0.94583E+06         0.00000E+00
   -0.94583E+06        -0.64255E+08         0.00000E+00
    0.00000E+00         0.00000E+00        -0.75300E+08
 
   -0.59219E+08        -0.71942E+06         0.00000E+00
   -0.71942E+06        -0.64765E+08         0.00000E+00
    0.00000E+00         0.00000E+00        -0.75809E+08
 
   -0.61176E+08        -0.47280E+06         0.00000E+00
   -0.47280E+06        -0.65127E+08         0.00000E+00
    0.00000E+00         0.00000E+00        -0.76277E+08
 
   -0.63152E+08        -0.19755E+06         0.00000E+00
   -0.19755E+06        -0.65322E+08         0.00000E+00
    0.00000E+00         0.00000E+00        -0.76714E+08
 
   -0.65229E+08         0.12123E+06         0.00000E+00
    0.12123E+06        -0.65324E+08         0.00000E+00
    0.00000E+00         0.00000E+00        -0.77133E+08
 
   -0.67508E+08         0.51094E+06         0.00000E+00
    0.51094E+06        -0.65093E+08         0.00000E+00
    0.00000E+00         0.00000E+00        -0.77545E+08
 
   -0.70125E+08         0.10273E+07         0.00000E+00
    0.10273E+07        -0.64566E+08         0.00000E+00
    0.00000E+00         0.00000E+00        -0.77965E+08
 
   -0.73295E+08         0.18096E+07         0.00000E+00
    0.18096E+07        -0.63631E+08         0.00000E+00
    0.00000E+00         0.00000E+00        -0.78413E+08
 
   -0.77071E+08         0.33142E+07         0.00000E+00
    0.33142E+07        -0.62131E+08         0.00000E+00
    0.00000E+00         0.00000E+00        -0.78868E+08
 
   -0.38224E+08        -0.94242E+06         0.00000E+00
   -0.94242E+06        -0.59993E+08         0.00000E+00
    0.00000E+00         0.00000E+00        -0.68656E+08
 
   -0.42646E+08        -0.19807E+07         0.00000E+00
   -0.19807E+07        -0.60091E+08         0.00000E+00
    0.00000E+00         0.00000E+00        -0.69562E+08
 
   -0.46492E+08        -0.22829E+07         0.00000E+00
   -0.22829E+07        -0.60436E+08         0.00000E+00
    0.00000E+00         0.00000E+00        -0.70402E+08
 
   -0.49704E+08        -0.22412E+07         0.00000E+00
   -0.22412E+07        -0.60963E+08         0.00000E+00
    0.00000E+00         0.00000E+00        -0.71154E+08
 
   -0.52421E+08        -0.20503E+07         0.00000E+00
   -0.20503E+07        -0.61550E+08         0.00000E+00
    0.00000E+00         0.00000E+00        -0.71820E+08
 
   -0.54790E+08        -0.17837E+07         0.00000E+00
   -0.17837E+07        -0.62119E+08         0.00000E+00
    0.00000E+00         0.00000E+00        -0.72413E+08
 
   -0.56924E+08        -0.14698E+07         0.00000E+00
   -0.14698E+07        -0.62622E+08         0.00000E+00
    0.00000E+00         0.00000E+00        -0.72947E+08
 
   -0.58914E+08        -0.11169E+07         0.00000E+00
   -0.11169E+07        -0.63026E+08         0.00000E+00
    0.00000E+00         0.00000E+00        -0.73432E+08
 
   -0.60837E+08        -0.72253E+06         0.00000E+00
   -0.72253E+06        -0.63305E+08         0.00000E+00
    0.00000E+00         0.00000E+00        -0.73878E+08
 
   -0.62764E+08        -0.27529E+06         0.00000E+00
   -0.27529E+06        -0.63434E+08         0.00000E+00
    0.00000E+00         0.00000E+00        -0.74294E+08
 
   -0.64767E+08         0.24755E+06         0.00000E+00
    0.24755E+06        -0.63383E+08         0.00000E+00
    0.00000E+00         0.00000E+00        -0.74690E+08
 
   -0.66923E+08         0.88803E+06         0.00000E+00
    0.88803E+06        -0.63115E+08         0.00000E+00
    0.00000E+00         0.00000E+00        -0.75071E+08
 
   -0.69320E+08         0.17273E+07         0.00000E+00
    0.17273E+07        -0.62579E+08         0.00000E+00
    0.00000E+00         0.00000E+00        -0.75447E+08
 
   -0.72004E+08         0.29365E+07         0.00000E+00
    0.29365E+07        -0.61720E+08         0.00000E+00
    0.00000E+00         0.00000E+00        -0.75814E+08
 
   -0.74873E+08         0.47843E+07         0.00000E+00
    0.47843E+07        -0.60580E+08         0.00000E+00
    0.00000E+00         0.00000E+00        -0.76160E+08
 
   -0.39821E+08        -0.91206E+06         0.00000E+00
   -0.91206E+06        -0.59978E+08         0.00000E+00
    0.00000E+00         0.00000E+00        -0.67019E+08
 
   -0.43361E+08        -0.20877E+07         0.00000E+00
   -0.20877E+07        -0.59965E+08         0.00000E+00
    0.00000E+00         0.00000E+00        -0.67727E+08
 
   -0.46673E+08        -0.25929E+07         0.00000E+00
   -0.25929E+07        -0.60071E+08         0.00000E+00
    0.00000E+00         0.00000E+00        -0.68416E+08
 
   -0.49612E+08        -0.26788E+07         0.00000E+00
   -0.26788E+07        -0.60321E+08         0.00000E+00
    0.00000E+00         0.00000E+00        -0.69060E+08
 
   -0.52188E+08        -0.25271E+07         0.00000E+00
   -0.25271E+07        -0.60661E+08         0.00000E+00
    0.00000E+00         0.00000E+00        -0.69650E+08
 
   -0.54473E+08        -0.22378E+07         0.00000E+00
   -0.22378E+07        -0.61027E+08         0.00000E+00
    0.00000E+00         0.00000E+00        -0.70188E+08
 
   -0.56548E+08        -0.18583E+07         0.00000E+00
   -0.18583E+07        -0.61366E+08         0.00000E+00
    0.00000E+00         0.00000E+00        -0.70680E+08
 
   -0.58484E+08        -0.14076E+07         0.00000E+00
   -0.14076E+07        -0.61640E+08         0.00000E+00
    0.00000E+00         0.00000E+00        -0.71130E+08
 
   -0.60348E+08        -0.88761E+06         0.00000E+00
   -0.88761E+06        -0.61816E+08         0.00000E+00
    0.00000E+00         0.00000E+00        -0.71546E+08
 
   -0.62198E+08        -0.28684E+06         0.00000E+00
   -0.28684E+06        -0.61864E+08         0.00000E+00
    0.00000E+00         0.00000E+00        -0.71933E+08
 
   -0.64090E+08         0.42112E+06         0.00000E+00
    0.42112E+06        -0.61756E+08         0.00000E+00
    0.00000E+00         0.00000E+00        -0.72296E+08
 
   -0.66075E+08         0.12843E+07         0.00000E+00
    0.12843E+07        -0.61461E+08         0.00000E+00
    0.00000E+00         0.00000E+00        -0.72640E+08
 
   -0.68185E+08         0.23865E+07         0.00000E+00
    0.23865E+07        -0.60952E+08         0.00000E+00
    0.00000E+00         0.00000E+00        -0.72964E+08
 
   -0.70398E+08         0.38557E+07         0.00000E+00
    0.38557E+07        -0.60231E+08         0.00000E+00
    0.00000E+00         0.00000E+00        -0.73266E+08
 
   -0.72588E+08         0.58446E+07         0.00000E+00
    0.58446E+07        -0.59363E+08         0.00000E+00
    0.00000E+00         0.00000E+00        -0.73532E+08
 
   -0.41394E+08        -0.85867E+06         0.00000E+00
   -0.85867E+06        -0.59972E+08         0.00000E+00
    0.00000E+00         0.00000E+00        -0.65420E+08
 
   -0.44214E+08        -0.20608E+07         0.00000E+00
   -0.20608E+07        -0.59904E+08         0.00000E+00
    0.00000E+00         0.00000E+00        -0.65975E+08
 
   -0.47002E+08        -0.26814E+07         0.00000E+00
   -0.26814E+07        -0.59875E+08         0.00000E+00
    0.00000E+00         0.00000E+00        -0.66533E+08
 
   -0.49606E+08        -0.28780E+07         0.00000E+00
   -0.28780E+07        -0.59934E+08         0.00000E+00
    0.00000E+00         0.00000E+00        -0.67074E+08
 
   -0.51976E+08        -0.27892E+07         0.00000E+00
   -0.27892E+07        -0.60072E+08         0.00000E+00
    0.00000E+00         0.00000E+00        -0.67585E+08
 
   -0.54128E+08        -0.25107E+07         0.00000E+00
   -0.25107E+07        -0.60252E+08         0.00000E+00
    0.00000E+00         0.00000E+00        -0.68062E+08
 
   -0.56105E+08        -0.20981E+07         0.00000E+00
   -0.20981E+07        -0.60431E+08         0.00000E+00
    0.00000E+00         0.00000E+00        -0.68503E+08
 
   -0.57956E+08        -0.15784E+07         0.00000E+00
   -0.15784E+07        -0.60572E+08         0.00000E+00
    0.00000E+00         0.00000E+00        -0.68911E+08
 
   -0.59732E+08        -0.95851E+06         0.00000E+00
   -0.95851E+06        -0.60641E+08         0.00000E+00
    0.00000E+00         0.00000E+00        -0.69290E+08
 
   -0.61476E+08        -0.22939E+06         0.00000E+00
   -0.22939E+06        -0.60609E+08         0.00000E+00
    0.00000E+00         0.00000E+00        -0.69641E+08
 
   -0.63227E+08         0.63396E+06         0.00000E+00
    0.63396E+06        -0.60452E+08         0.00000E+00
    0.00000E+00         0.00000E+00        -0.69968E+08
 
   -0.65011E+08         0.16759E+07         0.00000E+00
    0.16759E+07        -0.60147E+08         0.00000E+00
    0.00000E+00         0.00000E+00        -0.70271E+08
 
   -0.66828E+08         0.29636E+07         0.00000E+00
    0.29636E+07        -0.59689E+08         0.00000E+00
    0.00000E+00         0.00000E+00        -0.70548E+08
 
   -0.68630E+08         0.45833E+07         0.00000E+00
    0.45833E+07        -0.59098E+08         0.00000E+00
    0.00000E+00         0.00000E+00        -0.70795E+08
 
   -0.70305E+08         0.66205E+07         0.00000E+00
    0.66205E+07        -0.58441E+08         0.00000E+00
    0.00000E+00         0.00000E+00        -0.71001E+08
 
   -0.42890E+08        -0.79384E+06         0.00000E+00
   -0.79384E+06        -0.59968E+08         0.00000E+00
    0.00000E+00         0.00000E+00        -0.63857E+08
 
   -0.45117E+08        -0.19633E+07         0.00000E+00
   -0.19633E+07        -0.59871E+08         0.00000E+00
    0.00000E+00         0.00000E+00        -0.64287E+08
 
   -0.47427E+08        -0.26344E+07         0.00000E+00
   -0.26344E+07        -0.59763E+08         0.00000E+00
    0.00000E+00         0.00000E+00        -0.64736E+08
 
   -0.49681E+08        -0.29056E+07         0.00000E+00
   -0.29056E+07        -0.59698E+08         0.00000E+00
    0.00000E+00         0.00000E+00        -0.65184E+08
 
   -0.51804E+08        -0.28753E+07         0.00000E+00
   -0.28753E+07        -0.59688E+08         0.00000E+00
    0.00000E+00         0.00000E+00        -0.65618E+08
 
   -0.53780E+08        -0.26219E+07         0.00000E+00
   -0.26219E+07        -0.59718E+08         0.00000E+00
    0.00000E+00         0.00000E+00        -0.66030E+08
 
   -0.55622E+08        -0.21983E+07         0.00000E+00
   -0.21983E+07        -0.59759E+08         0.00000E+00
    0.00000E+00         0.00000E+00        -0.66418E+08
 
   -0.57356E+08        -0.16340E+07         0.00000E+00
   -0.16340E+07        -0.59781E+08         0.00000E+00
    0.00000E+00         0.00000E+00        -0.66781E+08
 
   -0.59015E+08        -0.93999E+06         0.00000E+00
   -0.93999E+06        -0.59754E+08         0.00000E+00
    0.00000E+00         0.00000E+00        -0.67118E+08
 
   -0.60628E+08        -0.11114E+06         0.00000E+00
   -0.11114E+06        -0.59654E+08         0.00000E+00
    0.00000E+00         0.00000E+00        -0.67430E+08
 
   -0.62217E+08         0.87228E+06         0.00000E+00
    0.87228E+06        -0.59460E+08         0.00000E+00
    0.00000E+00         0.00000E+00        -0.67718E+08
 
   -0.63790E+08         0.20447E+07         0.00000E+00
    0.20447E+07        -0.59160E+08         0.00000E+00
    0.00000E+00         0.00000E+00        -0.67981E+08
 
   -0.65331E+08         0.34537E+07         0.00000E+00
    0.34537E+07        -0.58757E+08         0.00000E+00
    0.00000E+00         0.00000E+00        -0.68215E+08
 
   -0.66787E+08         0.51530E+07         0.00000E+00
    0.51530E+07        -0.58280E+08         0.00000E+00
    0.00000E+00         0.00000E+00        -0.68416E+08
 
   -0.68064E+08         0.71882E+07         0.00000E+00
    0.71882E+07        -0.57783E+08         0.00000E+00
    0.00000E+00         0.00000E+00        -0.68575E+08
 
   -0.44280E+08        -0.72326E+06         0.00000E+00
   -0.72326E+06        -0.59967E+08         0.00000E+00
    0.00000E+00         0.00000E+00        -0.62329E+08
 
   -0.46014E+08        -0.18272E+07         0.00000E+00
   -0.18272E+07        -0.59855E+08         0.00000E+00
    0.00000E+00         0.00000E+00        -0.62659E+08
 
   -0.47901E+08        -0.25055E+07         0.00000E+00
   -0.25055E+07        -0.59701E+08         0.00000E+00
    0.00000E+00         0.00000E+00        -0.63014E+08
 
   -0.49813E+08        -0.28180E+07         0.00000E+00
   -0.28180E+07        -0.59558E+08         0.00000E+00
    0.00000E+00         0.00000E+00        -0.63379E+08
 
   -0.51673E+08        -0.28312E+07         0.00000E+00
   -0.28312E+07        -0.59447E+08         0.00000E+00
    0.00000E+00         0.00000E+00        -0.63741E+08
 
   -0.53444E+08        -0.26042E+07         0.00000E+00
   -0.26042E+07        -0.59366E+08         0.00000E+00
    0.00000E+00         0.00000E+00        -0.64091E+08
 
   -0.55119E+08        -0.21816E+07         0.00000E+00
   -0.21816E+07        -0.59300E+08         0.00000E+00
    0.00000E+00         0.00000E+00        -0.64425E+08
 
   -0.56706E+08        -0.15914E+07         0.00000E+00
   -0.15914E+07        -0.59227E+08         0.00000E+00
    0.00000E+00         0.00000E+00        -0.64740E+08
 
   -0.58223E+08        -0.84644E+06         0.00000E+00
   -0.84644E+06        -0.59124E+08         0.00000E+00
    0.00000E+00         0.00000E+00        -0.65034E+08
 
   -0.59684E+08         0.53999E+05         0.00000E+00
    0.53999E+05        -0.58971E+08         0.00000E+00
    0.00000E+00         0.00000E+00        -0.65306E+08
 
   -0.61099E+08         0.11227E+07         0.00000E+00
    0.11227E+07        -0.58754E+08         0.00000E+00
    0.00000E+00         0.00000E+00        -0.65555E+08
 
   -0.62464E+08         0.23827E+07         0.00000E+00
    0.23827E+07        -0.58467E+08         0.00000E+00
    0.00000E+00         0.00000E+00        -0.65778E+08
 
   -0.63754E+08         0.38639E+07         0.00000E+00
    0.38639E+07        -0.58119E+08         0.00000E+00
    0.00000E+00         0.00000E+00        -0.65974E+08
 
   -0.64922E+08         0.55963E+07         0.00000E+00
    0.55963E+07        -0.57735E+08         0.00000E+00
    0.00000E+00         0.00000E+00        -0.66136E+08
 
   -0.65887E+08         0.76002E+07         0.00000E+00
    0.76002E+07        -0.57364E+08         0.00000E+00
    0.00000E+00         0.00000E+00        -0.66258E+08
 
   -0.45551E+08        -0.65086E+06         0.00000E+00
   -0.65086E+06        -0.59967E+08         0.00000E+00
    0.00000E+00         0.00000E+00        -0.60837E+08
 
   -0.46875E+08        -0.16717E+07         0.00000E+00
   -0.16717E+07        -0.59849E+08         0.00000E+00
    0.00000E+00         0.00000E+00        -0.61084E+08
 
   -0.48389E+08        -0.23296E+07         0.00000E+00
   -0.23296E+07        -0.59672E+08         0.00000E+00
    0.00000E+00         0.00000E+00        -0.61360E+08
 
   -0.49980E+08        -0.26577E+07         0.00000E+00
   -0.26577E+07        -0.59485E+08         0.00000E+00
    0.00000E+00         0.00000E+00        -0.61652E+08
 
   -0.51573E+08        -0.26983E+07         0.00000E+00
   -0.26983E+07        -0.59310E+08         0.00000E+00
    0.00000E+00         0.00000E+00        -0.61948E+08
 
   -0.53122E+08        -0.24931E+07         0.00000E+00
   -0.24931E+07        -0.59156E+08         0.00000E+00
    0.00000E+00         0.00000E+00        -0.62239E+08
 
   -0.54608E+08        -0.20769E+07         0.00000E+00
   -0.20769E+07        -0.59015E+08         0.00000E+00
    0.00000E+00         0.00000E+00        -0.62520E+08
 
   -0.56026E+08        -0.14738E+07         0.00000E+00
   -0.14738E+07        -0.58874E+08         0.00000E+00
    0.00000E+00         0.00000E+00        -0.62787E+08
 
   -0.57381E+08        -0.69712E+06         0.00000E+00
   -0.69712E+06        -0.58717E+08         0.00000E+00
    0.00000E+00         0.00000E+00        -0.63037E+08
 
   -0.58675E+08         0.25017E+06         0.00000E+00
    0.25017E+06        -0.58529E+08         0.00000E+00
    0.00000E+00         0.00000E+00        -0.63269E+08
 
   -0.59910E+08         0.13740E+07         0.00000E+00
    0.13740E+07        -0.58302E+08         0.00000E+00
    0.00000E+00         0.00000E+00        -0.63480E+08
 
   -0.61073E+08         0.26868E+07         0.00000E+00
    0.26868E+07        -0.58035E+08         0.00000E+00
    0.00000E+00         0.00000E+00        -0.63667E+08
 
   -0.62139E+08         0.42041E+07         0.00000E+00
    0.42041E+07        -0.57736E+08         0.00000E+00
    0.00000E+00         0.00000E+00        -0.63828E+08
 
   -0.63065E+08         0.59390E+07         0.00000E+00
    0.59390E+07        -0.57431E+08         0.00000E+00
    0.00000E+00         0.00000E+00        -0.63957E+08
 
   -0.63785E+08         0.78948E+07         0.00000E+00
    0.78948E+07        -0.57156E+08         0.00000E+00
    0.00000E+00         0.00000E+00        -0.64049E+08
 
   -0.46698E+08        -0.57983E+06         0.00000E+00
   -0.57983E+06        -0.59968E+08         0.00000E+00
    0.00000E+00         0.00000E+00        -0.59381E+08
 
   -0.47681E+08        -0.15099E+07         0.00000E+00
   -0.15099E+07        -0.59851E+08         0.00000E+00
    0.00000E+00         0.00000E+00        -0.59560E+08
 
   -0.48869E+08        -0.21311E+07         0.00000E+00
   -0.21311E+07        -0.59668E+08         0.00000E+00
    0.00000E+00         0.00000E+00        -0.59769E+08
 
   -0.50163E+08        -0.24568E+07         0.00000E+00
   -0.24568E+07        -0.59460E+08         0.00000E+00
    0.00000E+00         0.00000E+00        -0.59997E+08
 
   -0.51494E+08        -0.25113E+07         0.00000E+00
   -0.25113E+07        -0.59252E+08         0.00000E+00
    0.00000E+00         0.00000E+00        -0.60233E+08
 
   -0.52814E+08        -0.23217E+07         0.00000E+00
   -0.23217E+07        -0.59056E+08         0.00000E+00
    0.00000E+00         0.00000E+00        -0.60469E+08
 
   -0.54097E+08        -0.19135E+07         0.00000E+00
   -0.19135E+07        -0.58869E+08         0.00000E+00
    0.00000E+00         0.00000E+00        -0.60699E+08
 
   -0.55330E+08        -0.13061E+07         0.00000E+00
   -0.13061E+07        -0.58686E+08         0.00000E+00
    0.00000E+00         0.00000E+00        -0.60920E+08
 
   -0.56507E+08        -0.51248E+06         0.00000E+00
   -0.51248E+06        -0.58497E+08         0.00000E+00
    0.00000E+00         0.00000E+00        -0.61127E+08
 
   -0.57626E+08         0.46172E+06         0.00000E+00
    0.46172E+06        -0.58293E+08         0.00000E+00
    0.00000E+00         0.00000E+00        -0.61319E+08
 
   -0.58678E+08         0.16165E+07         0.00000E+00
    0.16165E+07        -0.58069E+08         0.00000E+00
    0.00000E+00         0.00000E+00        -0.61493E+08
 
   -0.59649E+08         0.29557E+07         0.00000E+00
    0.29557E+07        -0.57825E+08         0.00000E+00
    0.00000E+00         0.00000E+00        -0.61646E+08
 
   -0.60515E+08         0.44838E+07         0.00000E+00
    0.44838E+07        -0.57573E+08         0.00000E+00
    0.00000E+00         0.00000E+00        -0.61775E+08
 
   -0.61236E+08         0.62013E+07         0.00000E+00
    0.62013E+07        -0.57332E+08         0.00000E+00
    0.00000E+00         0.00000E+00        -0.61876E+08
 
   -0.61762E+08         0.81002E+07         0.00000E+00
    0.81002E+07        -0.57132E+08         0.00000E+00
    0.00000E+00         0.00000E+00        -0.61944E+08
 
   -0.47722E+08        -0.51288E+06         0.00000E+00
   -0.51288E+06        -0.59971E+08         0.00000E+00
    0.00000E+00         0.00000E+00        -0.57960E+08
 
   -0.48423E+08        -0.13519E+07         0.00000E+00
   -0.13519E+07        -0.59861E+08         0.00000E+00
    0.00000E+00         0.00000E+00        -0.58083E+08
 
   -0.49327E+08        -0.19280E+07         0.00000E+00
   -0.19280E+07        -0.59683E+08         0.00000E+00
    0.00000E+00         0.00000E+00        -0.58235E+08
 
   -0.50349E+08        -0.22400E+07         0.00000E+00
   -0.22400E+07        -0.59474E+08         0.00000E+00
    0.00000E+00         0.00000E+00        -0.58407E+08
 
   -0.51427E+08        -0.22982E+07         0.00000E+00
   -0.22982E+07        -0.59256E+08         0.00000E+00
    0.00000E+00         0.00000E+00        -0.58589E+08
 
   -0.52517E+08        -0.21185E+07         0.00000E+00
   -0.21185E+07        -0.59042E+08         0.00000E+00
    0.00000E+00         0.00000E+00        -0.58773E+08
 
   -0.53589E+08        -0.17180E+07         0.00000E+00
   -0.17180E+07        -0.58836E+08         0.00000E+00
    0.00000E+00         0.00000E+00        -0.58956E+08
 
   -0.54627E+08        -0.11119E+07         0.00000E+00
   -0.11119E+07        -0.58635E+08         0.00000E+00
    0.00000E+00         0.00000E+00        -0.59132E+08
 
   -0.55618E+08        -0.31193E+06         0.00000E+00
   -0.31193E+06        -0.58434E+08         0.00000E+00
    0.00000E+00         0.00000E+00        -0.59298E+08
 
   -0.56554E+08         0.67423E+06         0.00000E+00
    0.67423E+06        -0.58229E+08         0.00000E+00
    0.00000E+00         0.00000E+00        -0.59452E+08
 
   -0.57425E+08         0.18421E+07         0.00000E+00
    0.18421E+07        -0.58018E+08         0.00000E+00
    0.00000E+00         0.00000E+00        -0.59591E+08
 
   -0.58215E+08         0.31888E+07         0.00000E+00
    0.31888E+07        -0.57803E+08         0.00000E+00
    0.00000E+00         0.00000E+00        -0.59712E+08
 
   -0.58900E+08         0.47103E+07         0.00000E+00
    0.47103E+07        -0.57594E+08         0.00000E+00
    0.00000E+00         0.00000E+00        -0.59813E+08
 
   -0.59448E+08         0.63987E+07         0.00000E+00
    0.63987E+07        -0.57407E+08         0.00000E+00
    0.00000E+00         0.00000E+00        -0.59889E+08
 
   -0.59819E+08         0.82378E+07         0.00000E+00
    0.82378E+07        -0.57267E+08         0.00000E+00
    0.00000E+00         0.00000E+00        -0.59938E+08
 
   -0.48633E+08        -0.45229E+06         0.00000E+00
   -0.45229E+06        -0.59974E+08         0.00000E+00
    0.00000E+00         0.00000E+00        -0.56571E+08
 
   -0.49099E+08        -0.12054E+07         0.00000E+00
   -0.12054E+07        -0.59875E+08         0.00000E+00
    0.00000E+00         0.00000E+00        -0.56648E+08
 
   -0.49754E+08        -0.17341E+07         0.00000E+00
   -0.17341E+07        -0.59713E+08         0.00000E+00
    0.00000E+00         0.00000E+00        -0.56752E+08
 
   -0.50527E+08        -0.20262E+07         0.00000E+00
   -0.20262E+07        -0.59516E+08         0.00000E+00
    0.00000E+00         0.00000E+00        -0.56874E+08
 
   -0.51365E+08        -0.20815E+07         0.00000E+00
   -0.20815E+07        -0.59307E+08         0.00000E+00
    0.00000E+00         0.00000E+00        -0.57007E+08
 
   -0.52228E+08        -0.19070E+07         0.00000E+00
   -0.19070E+07        -0.59096E+08         0.00000E+00
    0.00000E+00         0.00000E+00        -0.57145E+08
 
   -0.53087E+08        -0.15133E+07         0.00000E+00
   -0.15133E+07        -0.58891E+08         0.00000E+00
    0.00000E+00         0.00000E+00        -0.57283E+08
 
   -0.53924E+08        -0.91169E+06         0.00000E+00
   -0.91169E+06        -0.58692E+08         0.00000E+00
    0.00000E+00         0.00000E+00        -0.57417E+08
 
   -0.54724E+08        -0.11259E+06         0.00000E+00
   -0.11259E+06        -0.58497E+08         0.00000E+00
    0.00000E+00         0.00000E+00        -0.57544E+08
 
   -0.55476E+08         0.87509E+06         0.00000E+00
    0.87509E+06        -0.58305E+08         0.00000E+00
    0.00000E+00         0.00000E+00        -0.57661E+08
 
   -0.56168E+08         0.20436E+07         0.00000E+00
    0.20436E+07        -0.58116E+08         0.00000E+00
    0.00000E+00         0.00000E+00        -0.57767E+08
 
   -0.56785E+08         0.33850E+07         0.00000E+00
    0.33850E+07        -0.57933E+08         0.00000E+00
    0.00000E+00         0.00000E+00        -0.57858E+08
 
   -0.57306E+08         0.48895E+07         0.00000E+00
    0.48895E+07        -0.57765E+08         0.00000E+00
    0.00000E+00         0.00000E+00        -0.57932E+08
 
   -0.57705E+08         0.65428E+07         0.00000E+00
    0.65428E+07        -0.57626E+08         0.00000E+00
    0.00000E+00         0.00000E+00        -0.57987E+08
 
   -0.57950E+08         0.83234E+07         0.00000E+00
    0.83234E+07        -0.57533E+08         0.00000E+00
    0.00000E+00         0.00000E+00        -0.58020E+08
 
   -0.49441E+08        -0.39996E+06         0.00000E+00
   -0.39996E+06        -0.59978E+08         0.00000E+00
    0.00000E+00         0.00000E+00        -0.55210E+08
 
   -0.49712E+08        -0.10765E+07         0.00000E+00
   -0.10765E+07        -0.59894E+08         0.00000E+00
    0.00000E+00         0.00000E+00        -0.55250E+08
 
   -0.50149E+08        -0.15599E+07         0.00000E+00
   -0.15599E+07        -0.59754E+08         0.00000E+00
    0.00000E+00         0.00000E+00        -0.55313E+08
 
   -0.50694E+08        -0.18299E+07         0.00000E+00
   -0.18299E+07        -0.59581E+08         0.00000E+00
    0.00000E+00         0.00000E+00        -0.55392E+08
 
   -0.51304E+08        -0.18785E+07         0.00000E+00
   -0.18785E+07        -0.59394E+08         0.00000E+00
    0.00000E+00         0.00000E+00        -0.55481E+08
 
   -0.51945E+08        -0.17061E+07         0.00000E+00
   -0.17061E+07        -0.59203E+08         0.00000E+00
    0.00000E+00         0.00000E+00        -0.55575E+08
 
   -0.52591E+08        -0.13180E+07         0.00000E+00
   -0.13180E+07        -0.59016E+08         0.00000E+00
    0.00000E+00         0.00000E+00        -0.55671E+08
 
   -0.53225E+08        -0.72253E+06         0.00000E+00
   -0.72253E+06        -0.58834E+08         0.00000E+00
    0.00000E+00         0.00000E+00        -0.55765E+08
 
   -0.53832E+08         0.71245E+05         0.00000E+00
    0.71245E+05        -0.58659E+08         0.00000E+00
    0.00000E+00         0.00000E+00        -0.55854E+08
 
   -0.54399E+08         0.10537E+07         0.00000E+00
    0.10537E+07        -0.58491E+08         0.00000E+00
    0.00000E+00         0.00000E+00        -0.55937E+08
 
   -0.54916E+08         0.22149E+07         0.00000E+00
    0.22149E+07        -0.58332E+08         0.00000E+00
    0.00000E+00         0.00000E+00        -0.56011E+08
 
   -0.55369E+08         0.35435E+07         0.00000E+00
    0.35435E+07        -0.58185E+08         0.00000E+00
    0.00000E+00         0.00000E+00        -0.56075E+08
 
   -0.55739E+08         0.50254E+07         0.00000E+00
    0.50254E+07        -0.58057E+08         0.00000E+00
    0.00000E+00         0.00000E+00        -0.56125E+08
 
   -0.56007E+08         0.66421E+07         0.00000E+00
    0.66421E+07        -0.57959E+08         0.00000E+00
    0.00000E+00         0.00000E+00        -0.56161E+08
 
   -0.56148E+08         0.83688E+07         0.00000E+00
    0.83688E+07        -0.57905E+08         0.00000E+00
    0.00000E+00         0.00000E+00        -0.56180E+08
 
   -0.50162E+08        -0.35732E+06         0.00000E+00
   -0.35732E+06        -0.59983E+08         0.00000E+00
    0.00000E+00         0.00000E+00        -0.53873E+08
 
   -0.50270E+08        -0.96994E+06         0.00000E+00
   -0.96994E+06        -0.59916E+08         0.00000E+00
    0.00000E+00         0.00000E+00        -0.53883E+08
 
   -0.50512E+08        -0.14135E+07         0.00000E+00
   -0.14135E+07        -0.59804E+08         0.00000E+00
    0.00000E+00         0.00000E+00        -0.53910E+08
 
   -0.50846E+08        -0.16622E+07         0.00000E+00
   -0.16622E+07        -0.59663E+08         0.00000E+00
    0.00000E+00         0.00000E+00        -0.53951E+08
 
   -0.51240E+08        -0.17026E+07         0.00000E+00
   -0.17026E+07        -0.59508E+08         0.00000E+00
    0.00000E+00         0.00000E+00        -0.54000E+08
 
   -0.51665E+08        -0.15302E+07         0.00000E+00
   -0.15302E+07        -0.59349E+08         0.00000E+00
    0.00000E+00         0.00000E+00        -0.54054E+08
 
   -0.52101E+08        -0.11467E+07         0.00000E+00
   -0.11467E+07        -0.59192E+08         0.00000E+00
    0.00000E+00         0.00000E+00        -0.54111E+08
 
   -0.52533E+08        -0.55788E+06         0.00000E+00
   -0.55788E+06        -0.59040E+08         0.00000E+00
    0.00000E+00         0.00000E+00        -0.54167E+08
 
   -0.52946E+08         0.22821E+06         0.00000E+00
    0.22821E+06        -0.58895E+08         0.00000E+00
    0.00000E+00         0.00000E+00        -0.54221E+08
 
   -0.53331E+08         0.12017E+07         0.00000E+00
    0.12017E+07        -0.58760E+08         0.00000E+00
    0.00000E+00         0.00000E+00        -0.54270E+08
 
   -0.53677E+08         0.23512E+07         0.00000E+00
    0.23512E+07        -0.58636E+08         0.00000E+00
    0.00000E+00         0.00000E+00        -0.54315E+08
 
   -0.53971E+08         0.36631E+07         0.00000E+00
    0.36631E+07        -0.58527E+08         0.00000E+00
    0.00000E+00         0.00000E+00        -0.54352E+08
 
   -0.54201E+08         0.51207E+07         0.00000E+00
    0.51207E+07        -0.58439E+08         0.00000E+00
    0.00000E+00         0.00000E+00        -0.54381E+08
 
   -0.54352E+08         0.67028E+07         0.00000E+00
    0.67028E+07        -0.58380E+08         0.00000E+00
    0.00000E+00         0.00000E+00        -0.54399E+08
 
   -0.54406E+08         0.83824E+07         0.00000E+00
    0.83824E+07        -0.58358E+08         0.00000E+00
    0.00000E+00         0.00000E+00        -0.54406E+08
 
   -0.50815E+08        -0.32538E+06         0.00000E+00
   -0.32538E+06        -0.59988E+08         0.00000E+00
    0.00000E+00         0.00000E+00        -0.52557E+08
 
   -0.50782E+08        -0.88885E+06         0.00000E+00
   -0.88885E+06        -0.59941E+08         0.00000E+00
    0.00000E+00         0.00000E+00        -0.52541E+08
 
   -0.50848E+08        -0.13004E+07         0.00000E+00
   -0.13004E+07        -0.59859E+08         0.00000E+00
    0.00000E+00         0.00000E+00        -0.52537E+08
 
   -0.50986E+08        -0.15308E+07         0.00000E+00
   -0.15308E+07        -0.59756E+08         0.00000E+00
    0.00000E+00         0.00000E+00        -0.52543E+08
 
   -0.51172E+08        -0.15632E+07         0.00000E+00
   -0.15632E+07        -0.59640E+08         0.00000E+00
    0.00000E+00         0.00000E+00        -0.52555E+08
 
   -0.51387E+08        -0.13898E+07         0.00000E+00
   -0.13898E+07        -0.59521E+08         0.00000E+00
    0.00000E+00         0.00000E+00        -0.52572E+08
 
   -0.51617E+08        -0.10100E+07         0.00000E+00
   -0.10100E+07        -0.59403E+08         0.00000E+00
    0.00000E+00         0.00000E+00        -0.52591E+08
 
   -0.51848E+08        -0.42770E+06         0.00000E+00
   -0.42770E+06        -0.59289E+08         0.00000E+00
    0.00000E+00         0.00000E+00        -0.52612E+08
 
   -0.52070E+08         0.34983E+06         0.00000E+00
    0.34983E+06        -0.59183E+08         0.00000E+00
    0.00000E+00         0.00000E+00        -0.52632E+08
 
   -0.52274E+08         0.13127E+07         0.00000E+00
    0.13127E+07        -0.59087E+08         0.00000E+00
    0.00000E+00         0.00000E+00        -0.52650E+08
 
   -0.52452E+08         0.24487E+07         0.00000E+00
    0.24487E+07        -0.59003E+08         0.00000E+00
    0.00000E+00         0.00000E+00        -0.52666E+08
 
   -0.52594E+08         0.37430E+07         0.00000E+00
    0.37430E+07        -0.58934E+08         0.00000E+00
    0.00000E+00         0.00000E+00        -0.52679E+08
 
   -0.52692E+08         0.51773E+07         0.00000E+00
    0.51773E+07        -0.58886E+08         0.00000E+00
    0.00000E+00         0.00000E+00        -0.52687E+08
 
   -0.52735E+08         0.67290E+07         0.00000E+00
    0.67290E+07        -0.58862E+08         0.00000E+00
    0.00000E+00         0.00000E+00        -0.52689E+08
 
   -0.52711E+08         0.83699E+07         0.00000E+00
    0.83699E+07        -0.58868E+08         0.00000E+00
    0.00000E+00         0.00000E+00        -0.52686E+08
 
   -0.51419E+08        -0.30474E+06         0.00000E+00
   -0.30474E+06        -0.59993E+08         0.00000E+00
    0.00000E+00         0.00000E+00        -0.51256E+08
 
   -0.51260E+08        -0.83529E+06         0.00000E+00
   -0.83529E+06        -0.59966E+08         0.00000E+00
    0.00000E+00         0.00000E+00        -0.51217E+08
 
   -0.51163E+08        -0.12242E+07         0.00000E+00
   -0.12242E+07        -0.59917E+08         0.00000E+00
    0.00000E+00         0.00000E+00        -0.51185E+08
 
   -0.51113E+08        -0.14408E+07         0.00000E+00
   -0.14408E+07        -0.59855E+08         0.00000E+00
    0.00000E+00         0.00000E+00        -0.51159E+08
 
   -0.51100E+08        -0.14665E+07         0.00000E+00
   -0.14665E+07        -0.59783E+08         0.00000E+00
    0.00000E+00         0.00000E+00        -0.51137E+08
 
   -0.51111E+08        -0.12920E+07         0.00000E+00
   -0.12920E+07        -0.59709E+08         0.00000E+00
    0.00000E+00         0.00000E+00        -0.51118E+08
 
   -0.51137E+08        -0.91505E+06         0.00000E+00
   -0.91505E+06        -0.59635E+08         0.00000E+00
    0.00000E+00         0.00000E+00        -0.51103E+08
 
   -0.51170E+08        -0.33868E+06         0.00000E+00
   -0.33868E+06        -0.59565E+08         0.00000E+00
    0.00000E+00         0.00000E+00        -0.51089E+08
 
   -0.51203E+08         0.43040E+06         0.00000E+00
    0.43040E+06        -0.59502E+08         0.00000E+00
    0.00000E+00         0.00000E+00        -0.51076E+08
 
   -0.51229E+08         0.13824E+07         0.00000E+00
    0.13824E+07        -0.59449E+08         0.00000E+00
    0.00000E+00         0.00000E+00        -0.51065E+08
 
   -0.51242E+08         0.25049E+07         0.00000E+00
    0.25049E+07        -0.59407E+08         0.00000E+00
    0.00000E+00         0.00000E+00        -0.51053E+08
 
   -0.51237E+08         0.37825E+07         0.00000E+00
    0.37825E+07        -0.59380E+08         0.00000E+00
    0.00000E+00         0.00000E+00        -0.51042E+08
 
   -0.51207E+08         0.51963E+07         0.00000E+00
    0.51963E+07        -0.59370E+08         0.00000E+00
    0.00000E+00         0.00000E+00        -0.51031E+08
 
   -0.51148E+08         0.67232E+07         0.00000E+00
    0.67232E+07        -0.59380E+08         0.00000E+00
    0.00000E+00         0.00000E+00        -0.51018E+08
 
   -0.51054E+08         0.83348E+07         0.00000E+00
    0.83348E+07        -0.59414E+08         0.00000E+00
    0.00000E+00         0.00000E+00        -0.51005E+08
 
   -0.51995E+08        -0.29560E+06         0.00000E+00
   -0.29560E+06        -0.59998E+08         0.00000E+00
    0.00000E+00         0.00000E+00        -0.49966E+08
 
   -0.51717E+08        -0.81009E+06         0.00000E+00
   -0.81009E+06        -0.59991E+08         0.00000E+00
    0.00000E+00         0.00000E+00        -0.49907E+08
 
   -0.51463E+08        -0.11866E+07         0.00000E+00
   -0.11866E+07        -0.59976E+08         0.00000E+00
    0.00000E+00         0.00000E+00        -0.49848E+08
 
   -0.51233E+08        -0.13947E+07         0.00000E+00
   -0.13947E+07        -0.59955E+08         0.00000E+00
    0.00000E+00         0.00000E+00        -0.49791E+08
 
   -0.51025E+08        -0.14158E+07         0.00000E+00
   -0.14158E+07        -0.59929E+08         0.00000E+00
    0.00000E+00         0.00000E+00        -0.49736E+08
 
   -0.50836E+08        -0.12403E+07         0.00000E+00
   -0.12403E+07        -0.59902E+08         0.00000E+00
    0.00000E+00         0.00000E+00        -0.49684E+08
 
   -0.50662E+08        -0.86559E+06         0.00000E+00
   -0.86559E+06        -0.59874E+08         0.00000E+00
    0.00000E+00         0.00000E+00        -0.49634E+08
 
   -0.50500E+08        -0.29441E+06         0.00000E+00
   -0.29441E+06        -0.59850E+08         0.00000E+00
    0.00000E+00         0.00000E+00        -0.49587E+08
 
   -0.50346E+08         0.46683E+06         0.00000E+00
    0.46683E+06        -0.59832E+08         0.00000E+00
    0.00000E+00         0.00000E+00        -0.49543E+08
 
   -0.50196E+08         0.14086E+07         0.00000E+00
    0.14086E+07        -0.59823E+08         0.00000E+00
    0.00000E+00         0.00000E+00        -0.49502E+08
 
   -0.50047E+08         0.25185E+07         0.00000E+00
    0.25185E+07        -0.59825E+08         0.00000E+00
    0.00000E+00         0.00000E+00        -0.49465E+08
 
   -0.49896E+08         0.37813E+07         0.00000E+00
    0.37813E+07        -0.59840E+08         0.00000E+00
    0.00000E+00         0.00000E+00        -0.49431E+08
 
   -0.49743E+08         0.51783E+07         0.00000E+00
    0.51783E+07        -0.59869E+08         0.00000E+00
    0.00000E+00         0.00000E+00        -0.49400E+08
 
   -0.49585E+08         0.66867E+07         0.00000E+00
    0.66867E+07        -0.59913E+08         0.00000E+00
    0.00000E+00         0.00000E+00        -0.49374E+08
 
   -0.49423E+08         0.82788E+07         0.00000E+00
    0.82788E+07        -0.59972E+08         0.00000E+00
    0.00000E+00         0.00000E+00        -0.49351E+08
 
   -0.52564E+08        -0.29776E+06         0.00000E+00
   -0.29776E+06        -0.60003E+08         0.00000E+00
    0.00000E+00         0.00000E+00        -0.48684E+08
 
   -0.52166E+08        -0.81296E+06         0.00000E+00
   -0.81296E+06        -0.60016E+08         0.00000E+00
    0.00000E+00         0.00000E+00        -0.48604E+08
 
   -0.51757E+08        -0.11874E+07         0.00000E+00
   -0.11874E+07        -0.60034E+08         0.00000E+00
    0.00000E+00         0.00000E+00        -0.48519E+08
 
   -0.51348E+08        -0.13926E+07         0.00000E+00
   -0.13926E+07        -0.60053E+08         0.00000E+00
    0.00000E+00         0.00000E+00        -0.48432E+08
 
   -0.50947E+08        -0.14114E+07         0.00000E+00
   -0.14114E+07        -0.60072E+08         0.00000E+00
    0.00000E+00         0.00000E+00        -0.48344E+08
 
   -0.50561E+08        -0.12352E+07         0.00000E+00
   -0.12352E+07        -0.60090E+08         0.00000E+00
    0.00000E+00         0.00000E+00        -0.48259E+08
 
   -0.50190E+08        -0.86232E+06         0.00000E+00
   -0.86232E+06        -0.60108E+08         0.00000E+00
    0.00000E+00         0.00000E+00        -0.48176E+08
 
   -0.49836E+08        -0.29556E+06         0.00000E+00
   -0.29556E+06        -0.60129E+08         0.00000E+00
    0.00000E+00         0.00000E+00        -0.48096E+08
 
   -0.49497E+08         0.45853E+06         0.00000E+00
    0.45853E+06        -0.60156E+08         0.00000E+00
    0.00000E+00         0.00000E+00        -0.48022E+08
 
   -0.49173E+08         0.13907E+07         0.00000E+00
    0.13907E+07        -0.60190E+08         0.00000E+00
    0.00000E+00         0.00000E+00        -0.47952E+08
 
   -0.48864E+08         0.24891E+07         0.00000E+00
    0.24891E+07        -0.60235E+08         0.00000E+00
    0.00000E+00         0.00000E+00        -0.47889E+08
 
   -0.48570E+08         0.37394E+07         0.00000E+00
    0.37394E+07        -0.60292E+08         0.00000E+00
    0.00000E+00         0.00000E+00        -0.47832E+08
 
   -0.48293E+08         0.51236E+07         0.00000E+00
    0.51236E+07        -0.60359E+08         0.00000E+00
    0.00000E+00         0.00000E+00        -0.47783E+08
 
   -0.48036E+08         0.66199E+07         0.00000E+00
    0.66199E+07        -0.60437E+08         0.00000E+00
    0.00000E+00         0.00000E+00        -0.47742E+08
 
   -0.47805E+08         0.82020E+07         0.00000E+00
    0.82020E+07        -0.60522E+08         0.00000E+00
    0.00000E+00         0.00000E+00        -0.47710E+08
 
   -0.53145E+08        -0.31071E+06         0.00000E+00
   -0.31071E+06        -0.60008E+08         0.00000E+00
    0.00000E+00         0.00000E+00        -0.47406E+08
 
   -0.52621E+08        -0.84263E+06         0.00000E+00
   -0.84263E+06        -0.60039E+08         0.00000E+00
    0.00000E+00         0.00000E+00        -0.47303E+08
 
   -0.52052E+08        -0.12248E+07         0.00000E+00
   -0.12248E+07        -0.60087E+08         0.00000E+00
    0.00000E+00         0.00000E+00        -0.47191E+08
 
   -0.51462E+08        -0.14323E+07         0.00000E+00
   -0.14323E+07        -0.60144E+08         0.00000E+00
    0.00000E+00         0.00000E+00        -0.47073E+08
 
   -0.50869E+08        -0.14509E+07         0.00000E+00
   -0.14509E+07        -0.60204E+08         0.00000E+00
    0.00000E+00         0.00000E+00        -0.46953E+08
 
   -0.50286E+08        -0.12745E+07         0.00000E+00
   -0.12745E+07        -0.60264E+08         0.00000E+00
    0.00000E+00         0.00000E+00        -0.46834E+08
 
   -0.49721E+08        -0.90286E+06         0.00000E+00
   -0.90286E+06        -0.60324E+08         0.00000E+00
    0.00000E+00         0.00000E+00        -0.46718E+08
 
   -0.49177E+08        -0.33998E+06         0.00000E+00
   -0.33998E+06        -0.60386E+08         0.00000E+00
    0.00000E+00         0.00000E+00        -0.46607E+08
 
   -0.48657E+08         0.40735E+06         0.00000E+00
    0.40735E+06        -0.60454E+08         0.00000E+00
    0.00000E+00         0.00000E+00        -0.46501E+08
 
   -0.48162E+08         0.13303E+07         0.00000E+00
    0.13303E+07        -0.60530E+08         0.00000E+00
    0.00000E+00         0.00000E+00        -0.46404E+08
 
   -0.47694E+08         0.24179E+07         0.00000E+00
    0.24179E+07        -0.60616E+08         0.00000E+00
    0.00000E+00         0.00000E+00        -0.46315E+08
 
   -0.47256E+08         0.36571E+07         0.00000E+00
    0.36571E+07        -0.60713E+08         0.00000E+00
    0.00000E+00         0.00000E+00        -0.46236E+08
 
   -0.46854E+08         0.50318E+07         0.00000E+00
    0.50318E+07        -0.60819E+08         0.00000E+00
    0.00000E+00         0.00000E+00        -0.46168E+08
 
   -0.46495E+08         0.65220E+07         0.00000E+00
    0.65220E+07        -0.60931E+08         0.00000E+00
    0.00000E+00         0.00000E+00        -0.46113E+08
 
   -0.46191E+08         0.81029E+07         0.00000E+00
    0.81029E+07        -0.61044E+08         0.00000E+00
    0.00000E+00         0.00000E+00        -0.46071E+08
 
   -0.53759E+08        -0.33362E+06         0.00000E+00
   -0.33362E+06        -0.60012E+08         0.00000E+00
    0.00000E+00         0.00000E+00        -0.46130E+08
 
   -0.53093E+08        -0.89685E+06         0.00000E+00
   -0.89685E+06        -0.60059E+08         0.00000E+00
    0.00000E+00         0.00000E+00        -0.46001E+08
 
   -0.52354E+08        -0.12954E+07         0.00000E+00
   -0.12954E+07        -0.60135E+08         0.00000E+00
    0.00000E+00         0.00000E+00        -0.45858E+08
 
   -0.51578E+08        -0.15095E+07         0.00000E+00
   -0.15095E+07        -0.60225E+08         0.00000E+00
    0.00000E+00         0.00000E+00        -0.45708E+08
 
   -0.50791E+08        -0.15294E+07         0.00000E+00
   -0.15294E+07        -0.60320E+08         0.00000E+00
    0.00000E+00         0.00000E+00        -0.45555E+08
 
   -0.50012E+08        -0.13526E+07         0.00000E+00
   -0.13526E+07        -0.60415E+08         0.00000E+00
    0.00000E+00         0.00000E+00        -0.45402E+08
 
   -0.49254E+08        -0.98185E+06         0.00000E+00
   -0.98185E+06        -0.60509E+08         0.00000E+00
    0.00000E+00         0.00000E+00        -0.45252E+08
 
   -0.48523E+08        -0.42268E+06         0.00000E+00
   -0.42268E+06        -0.60607E+08         0.00000E+00
    0.00000E+00         0.00000E+00        -0.45108E+08
 
   -0.47824E+08         0.31758E+06         0.00000E+00
    0.31758E+06        -0.60709E+08         0.00000E+00
    0.00000E+00         0.00000E+00        -0.44972E+08
 
   -0.47160E+08         0.12305E+07         0.00000E+00
    0.12305E+07        -0.60821E+08         0.00000E+00
    0.00000E+00         0.00000E+00        -0.44846E+08
 
   -0.46534E+08         0.23068E+07         0.00000E+00
    0.23068E+07        -0.60945E+08         0.00000E+00
    0.00000E+00         0.00000E+00        -0.44732E+08
 
   -0.45951E+08         0.35353E+07         0.00000E+00
    0.35353E+07        -0.61081E+08         0.00000E+00
    0.00000E+00         0.00000E+00        -0.44630E+08
 
   -0.45421E+08         0.49025E+07         0.00000E+00
    0.49025E+07        -0.61226E+08         0.00000E+00
    0.00000E+00         0.00000E+00        -0.44543E+08
 
   -0.44955E+08         0.63911E+07         0.00000E+00
    0.63911E+07        -0.61374E+08         0.00000E+00
    0.00000E+00         0.00000E+00        -0.44473E+08
 
   -0.44570E+08         0.79788E+07         0.00000E+00
    0.79788E+07        -0.61518E+08         0.00000E+00
    0.00000E+00         0.00000E+00        -0.44421E+08
 
   -0.54421E+08        -0.36540E+06         0.00000E+00
   -0.36540E+06        -0.60016E+08         0.00000E+00
    0.00000E+00         0.00000E+00        -0.44852E+08
 
   -0.53594E+08        -0.97248E+06         0.00000E+00
   -0.97248E+06        -0.60077E+08         0.00000E+00
    0.00000E+00         0.00000E+00        -0.44692E+08
 
   -0.52670E+08        -0.13942E+07         0.00000E+00
   -0.13942E+07        -0.60176E+08         0.00000E+00
    0.00000E+00         0.00000E+00        -0.44517E+08
 
   -0.51698E+08        -0.16176E+07         0.00000E+00
   -0.16176E+07        -0.60291E+08         0.00000E+00
    0.00000E+00         0.00000E+00        -0.44332E+08
 
   -0.50712E+08        -0.16390E+07         0.00000E+00
   -0.16390E+07        -0.60412E+08         0.00000E+00
    0.00000E+00         0.00000E+00        -0.44142E+08
 
   -0.49737E+08        -0.14612E+07         0.00000E+00
   -0.14612E+07        -0.60533E+08         0.00000E+00
    0.00000E+00         0.00000E+00        -0.43954E+08
 
   -0.48789E+08        -0.10909E+07         0.00000E+00
   -0.10909E+07        -0.60653E+08         0.00000E+00
    0.00000E+00         0.00000E+00        -0.43770E+08
 
   -0.47876E+08        -0.53580E+06         0.00000E+00
   -0.53580E+06        -0.60775E+08         0.00000E+00
    0.00000E+00         0.00000E+00        -0.43593E+08
 
   -0.47002E+08         0.19591E+06         0.00000E+00
    0.19591E+06        -0.60904E+08         0.00000E+00
    0.00000E+00         0.00000E+00        -0.43426E+08
 
   -0.46171E+08         0.10966E+07         0.00000E+00
    0.10966E+07        -0.61045E+08         0.00000E+00
    0.00000E+00         0.00000E+00        -0.43272E+08
 
   -0.45387E+08         0.21590E+07         0.00000E+00
    0.21590E+07        -0.61202E+08         0.00000E+00
    0.00000E+00         0.00000E+00        -0.43131E+08
 
   -0.44657E+08         0.33749E+07         0.00000E+00
    0.33749E+07        -0.61374E+08         0.00000E+00
    0.00000E+00         0.00000E+00        -0.43006E+08
 
   -0.43992E+08         0.47346E+07         0.00000E+00
    0.47346E+07        -0.61558E+08         0.00000E+00
    0.00000E+00         0.00000E+00        -0.42900E+08
 
   -0.43411E+08         0.62243E+07         0.00000E+00
    0.62243E+07        -0.61745E+08         0.00000E+00
    0.00000E+00         0.00000E+00        -0.42813E+08
 
   -0.42933E+08         0.78252E+07         0.00000E+00
    0.78252E+07        -0.61924E+08         0.00000E+00
    0.00000E+00         0.00000E+00        -0.42749E+08
 
   -0.55147E+08        -0.40471E+06         0.00000E+00
   -0.40471E+06        -0.60019E+08         0.00000E+00
    0.00000E+00         0.00000E+00        -0.43571E+08
 
   -0.54130E+08        -0.10655E+07         0.00000E+00
   -0.10655E+07        -0.60091E+08         0.00000E+00
    0.00000E+00         0.00000E+00        -0.43376E+08
 
   -0.53002E+08        -0.15146E+07         0.00000E+00
   -0.15146E+07        -0.60206E+08         0.00000E+00
    0.00000E+00         0.00000E+00        -0.43162E+08
 
   -0.51822E+08        -0.17475E+07         0.00000E+00
   -0.17475E+07        -0.60339E+08         0.00000E+00
    0.00000E+00         0.00000E+00        -0.42938E+08
 
   -0.50632E+08        -0.17690E+07         0.00000E+00
   -0.17690E+07        -0.60475E+08         0.00000E+00
    0.00000E+00         0.00000E+00        -0.42710E+08
 
   -0.49462E+08        -0.15887E+07         0.00000E+00
   -0.15887E+07        -0.60609E+08         0.00000E+00
    0.00000E+00         0.00000E+00        -0.42485E+08
 
   -0.48326E+08        -0.12183E+07         0.00000E+00
   -0.12183E+07        -0.60740E+08         0.00000E+00
    0.00000E+00         0.00000E+00        -0.42265E+08
 
   -0.47235E+08        -0.66859E+06         0.00000E+00
   -0.66859E+06        -0.60874E+08         0.00000E+00
    0.00000E+00         0.00000E+00        -0.42054E+08
 
   -0.46192E+08         0.51502E+05         0.00000E+00
    0.51502E+05        -0.61019E+08         0.00000E+00
    0.00000E+00         0.00000E+00        -0.41856E+08
 
   -0.45197E+08         0.93547E+06         0.00000E+00
    0.93547E+06        -0.61180E+08         0.00000E+00
    0.00000E+00         0.00000E+00        -0.41672E+08
 
   -0.44256E+08         0.19787E+07         0.00000E+00
    0.19787E+07        -0.61363E+08         0.00000E+00
    0.00000E+00         0.00000E+00        -0.41504E+08
 
   -0.43375E+08         0.31774E+07         0.00000E+00
    0.31774E+07        -0.61568E+08         0.00000E+00
    0.00000E+00         0.00000E+00        -0.41355E+08
 
   -0.42568E+08         0.45264E+07         0.00000E+00
    0.45264E+07        -0.61791E+08         0.00000E+00
    0.00000E+00         0.00000E+00        -0.41228E+08
 
   -0.41858E+08         0.60174E+07         0.00000E+00
    0.60174E+07        -0.62021E+08         0.00000E+00
    0.00000E+00         0.00000E+00        -0.41124E+08
 
   -0.41272E+08         0.76359E+07         0.00000E+00
    0.76359E+07        -0.62241E+08         0.00000E+00
    0.00000E+00         0.00000E+00        -0.41046E+08
 
   -0.55948E+08        -0.45002E+06         0.00000E+00
   -0.45002E+06        -0.60022E+08         0.00000E+00
    0.00000E+00         0.00000E+00        -0.42286E+08
 
   -0.54708E+08        -0.11710E+07         0.00000E+00
   -0.11710E+07        -0.60101E+08         0.00000E+00
    0.00000E+00         0.00000E+00        -0.42048E+08
 
   -0.53351E+08        -0.16480E+07         0.00000E+00
   -0.16480E+07        -0.60225E+08         0.00000E+00
    0.00000E+00         0.00000E+00        -0.41790E+08
 
   -0.51949E+08        -0.18877E+07         0.00000E+00
   -0.18877E+07        -0.60364E+08         0.00000E+00
    0.00000E+00         0.00000E+00        -0.41523E+08
 
   -0.50549E+08        -0.19054E+07         0.00000E+00
   -0.19054E+07        -0.60501E+08         0.00000E+00
    0.00000E+00         0.00000E+00        -0.41253E+08
 
   -0.49183E+08        -0.17200E+07         0.00000E+00
   -0.17200E+07        -0.60630E+08         0.00000E+00
    0.00000E+00         0.00000E+00        -0.40987E+08
 
   -0.47867E+08        -0.13492E+07         0.00000E+00
   -0.13492E+07        -0.60756E+08         0.00000E+00
    0.00000E+00         0.00000E+00        -0.40730E+08
 
   -0.46606E+08        -0.80730E+06         0.00000E+00
   -0.80730E+06        -0.60887E+08         0.00000E+00
    0.00000E+00         0.00000E+00        -0.40485E+08
 
   -0.45399E+08        -0.10402E+06         0.00000E+00
   -0.10402E+06        -0.61032E+08         0.00000E+00
    0.00000E+00         0.00000E+00        -0.40254E+08
 
   -0.44246E+08         0.75579E+06         0.00000E+00
    0.75579E+06        -0.61203E+08         0.00000E+00
    0.00000E+00         0.00000E+00        -0.40040E+08
 
   -0.43148E+08         0.17712E+07         0.00000E+00
    0.17712E+07        -0.61405E+08         0.00000E+00
    0.00000E+00         0.00000E+00        -0.39845E+08
 
   -0.42111E+08         0.29438E+07         0.00000E+00
    0.29438E+07        -0.61640E+08         0.00000E+00
    0.00000E+00         0.00000E+00        -0.39671E+08
 
   -0.41152E+08         0.42753E+07         0.00000E+00
    0.42753E+07        -0.61903E+08         0.00000E+00
    0.00000E+00         0.00000E+00        -0.39520E+08
 
   -0.40297E+08         0.57642E+07         0.00000E+00
    0.57642E+07        -0.62180E+08         0.00000E+00
    0.00000E+00         0.00000E+00        -0.39397E+08
 
   -0.39582E+08         0.74022E+07         0.00000E+00
    0.74022E+07        -0.62450E+08         0.00000E+00
    0.00000E+00         0.00000E+00        -0.39303E+08
 
   -0.56833E+08        -0.49962E+06         0.00000E+00
   -0.49962E+06        -0.60023E+08         0.00000E+00
    0.00000E+00         0.00000E+00        -0.40997E+08
 
   -0.55327E+08        -0.12830E+07         0.00000E+00
   -0.12830E+07        -0.60106E+08         0.00000E+00
    0.00000E+00         0.00000E+00        -0.40706E+08
 
   -0.53713E+08        -0.17837E+07         0.00000E+00
   -0.17837E+07        -0.60230E+08         0.00000E+00
    0.00000E+00         0.00000E+00        -0.40397E+08
 
   -0.52072E+08        -0.20231E+07         0.00000E+00
   -0.20231E+07        -0.60359E+08         0.00000E+00
    0.00000E+00         0.00000E+00        -0.40081E+08
 
   -0.50457E+08        -0.20306E+07         0.00000E+00
   -0.20306E+07        -0.60479E+08         0.00000E+00
    0.00000E+00         0.00000E+00        -0.39765E+08
 
   -0.48900E+08        -0.18363E+07         0.00000E+00
   -0.18363E+07        -0.60584E+08         0.00000E+00
    0.00000E+00         0.00000E+00        -0.39457E+08
 
   -0.47412E+08        -0.14652E+07         0.00000E+00
   -0.14652E+07        -0.60685E+08         0.00000E+00
    0.00000E+00         0.00000E+00        -0.39161E+08
 
   -0.45991E+08        -0.93532E+06         0.00000E+00
   -0.93532E+06        -0.60792E+08         0.00000E+00
    0.00000E+00         0.00000E+00        -0.38879E+08
 
   -0.44632E+08        -0.25672E+06         0.00000E+00
   -0.25672E+06        -0.60923E+08         0.00000E+00
    0.00000E+00         0.00000E+00        -0.38615E+08
 
   -0.43328E+08         0.56801E+06         0.00000E+00
    0.56801E+06        -0.61089E+08         0.00000E+00
    0.00000E+00         0.00000E+00        -0.38371E+08
 
   -0.42074E+08         0.15426E+07         0.00000E+00
    0.15426E+07        -0.61301E+08         0.00000E+00
    0.00000E+00         0.00000E+00        -0.38147E+08
 
   -0.40876E+08         0.26757E+07         0.00000E+00
    0.26757E+07        -0.61561E+08         0.00000E+00
    0.00000E+00         0.00000E+00        -0.37946E+08
 
   -0.39751E+08         0.39775E+07         0.00000E+00
    0.39775E+07        -0.61866E+08         0.00000E+00
    0.00000E+00         0.00000E+00        -0.37771E+08
 
   -0.38730E+08         0.54564E+07         0.00000E+00
    0.54564E+07        -0.62198E+08         0.00000E+00
    0.00000E+00         0.00000E+00        -0.37625E+08
 
   -0.37858E+08         0.71128E+07         0.00000E+00
    0.71128E+07        -0.62530E+08         0.00000E+00
    0.00000E+00         0.00000E+00        -0.37513E+08
 
   -0.57805E+08        -0.55160E+06         0.00000E+00
   -0.55160E+06        -0.60024E+08         0.00000E+00
    0.00000E+00         0.00000E+00        -0.39703E+08
 
   -0.55985E+08        -0.13941E+07         0.00000E+00
   -0.13941E+07        -0.60105E+08         0.00000E+00
    0.00000E+00         0.00000E+00        -0.39349E+08
 
   -0.54079E+08        -0.19079E+07         0.00000E+00
   -0.19079E+07        -0.60216E+08         0.00000E+00
    0.00000E+00         0.00000E+00        -0.38980E+08
 
   -0.52183E+08        -0.21346E+07         0.00000E+00
   -0.21346E+07        -0.60318E+08         0.00000E+00
    0.00000E+00         0.00000E+00        -0.38608E+08
 
   -0.50352E+08        -0.21224E+07         0.00000E+00
   -0.21224E+07        -0.60396E+08         0.00000E+00
    0.00000E+00         0.00000E+00        -0.38242E+08
 
   -0.48611E+08        -0.19148E+07         0.00000E+00
   -0.19148E+07        -0.60453E+08         0.00000E+00
    0.00000E+00         0.00000E+00        -0.37888E+08
 
   -0.46964E+08        -0.15449E+07         0.00000E+00
   -0.15449E+07        -0.60504E+08         0.00000E+00
    0.00000E+00         0.00000E+00        -0.37552E+08
 
   -0.45399E+08        -0.10336E+07         0.00000E+00
   -0.10336E+07        -0.60568E+08         0.00000E+00
    0.00000E+00         0.00000E+00        -0.37234E+08
 
   -0.43902E+08        -0.39077E+06         0.00000E+00
   -0.39077E+06        -0.60664E+08         0.00000E+00
    0.00000E+00         0.00000E+00        -0.36936E+08
 
   -0.42456E+08         0.38407E+06         0.00000E+00
    0.38407E+06        -0.60812E+08         0.00000E+00
    0.00000E+00         0.00000E+00        -0.36660E+08
 
   -0.41051E+08         0.13001E+07         0.00000E+00
    0.13001E+07        -0.61023E+08         0.00000E+00
    0.00000E+00         0.00000E+00        -0.36407E+08
 
   -0.39687E+08         0.23742E+07         0.00000E+00
    0.23742E+07        -0.61305E+08         0.00000E+00
    0.00000E+00         0.00000E+00        -0.36178E+08
 
   -0.38380E+08         0.36279E+07         0.00000E+00
    0.36279E+07        -0.61654E+08         0.00000E+00
    0.00000E+00         0.00000E+00        -0.35976E+08
 
   -0.37165E+08         0.50828E+07         0.00000E+00
    0.50828E+07        -0.62050E+08         0.00000E+00
    0.00000E+00         0.00000E+00        -0.35805E+08
 
   -0.36099E+08         0.67521E+07         0.00000E+00
    0.67521E+07        -0.62459E+08         0.00000E+00
    0.00000E+00         0.00000E+00        -0.35670E+08
 
   -0.58865E+08        -0.60383E+06         0.00000E+00
   -0.60383E+06        -0.60024E+08         0.00000E+00
    0.00000E+00         0.00000E+00        -0.38403E+08
 
   -0.56668E+08        -0.14945E+07         0.00000E+00
   -0.14945E+07        -0.60097E+08         0.00000E+00
    0.00000E+00         0.00000E+00        -0.37974E+08
 
   -0.54433E+08        -0.20019E+07         0.00000E+00
   -0.20019E+07        -0.60178E+08         0.00000E+00
    0.00000E+00         0.00000E+00        -0.37534E+08
 
   -0.52267E+08        -0.21972E+07         0.00000E+00
   -0.21972E+07        -0.60226E+08         0.00000E+00
    0.00000E+00         0.00000E+00        -0.37099E+08
 
   -0.50224E+08        -0.21533E+07         0.00000E+00
   -0.21533E+07        -0.60233E+08         0.00000E+00
    0.00000E+00         0.00000E+00        -0.36677E+08
 
   -0.48316E+08        -0.19293E+07         0.00000E+00
   -0.19293E+07        -0.60212E+08         0.00000E+00
    0.00000E+00         0.00000E+00        -0.36276E+08
 
   -0.46530E+08        -0.15647E+07         0.00000E+00
   -0.15647E+07        -0.60188E+08         0.00000E+00
    0.00000E+00         0.00000E+00        -0.35898E+08
 
   -0.44841E+08        -0.10821E+07         0.00000E+00
   -0.10821E+07        -0.60186E+08         0.00000E+00
    0.00000E+00         0.00000E+00        -0.35544E+08
 
   -0.43223E+08        -0.48939E+06         0.00000E+00
   -0.48939E+06        -0.60230E+08         0.00000E+00
    0.00000E+00         0.00000E+00        -0.35214E+08
 
   -0.41649E+08         0.21698E+06         0.00000E+00
    0.21698E+06        -0.60344E+08         0.00000E+00
    0.00000E+00         0.00000E+00        -0.34907E+08
 
   -0.40100E+08         0.10518E+07         0.00000E+00
    0.10518E+07        -0.60544E+08         0.00000E+00
    0.00000E+00         0.00000E+00        -0.34624E+08
 
   -0.38566E+08         0.20410E+07         0.00000E+00
    0.20410E+07        -0.60842E+08         0.00000E+00
    0.00000E+00         0.00000E+00        -0.34365E+08
 
   -0.37059E+08         0.32200E+07         0.00000E+00
    0.32200E+07        -0.61237E+08         0.00000E+00
    0.00000E+00         0.00000E+00        -0.34134E+08
 
   -0.35615E+08         0.46286E+07         0.00000E+00
    0.46286E+07        -0.61709E+08         0.00000E+00
    0.00000E+00         0.00000E+00        -0.33933E+08
 
   -0.34306E+08         0.62995E+07         0.00000E+00
    0.62995E+07        -0.62216E+08         0.00000E+00
    0.00000E+00         0.00000E+00        -0.33769E+08
 
   -0.60003E+08        -0.65366E+06         0.00000E+00
   -0.65366E+06        -0.60022E+08         0.00000E+00
    0.00000E+00         0.00000E+00        -0.37099E+08
 
   -0.57354E+08        -0.15697E+07         0.00000E+00
   -0.15697E+07        -0.60076E+08         0.00000E+00
    0.00000E+00         0.00000E+00        -0.36575E+08
 
   -0.54750E+08        -0.20385E+07         0.00000E+00
   -0.20385E+07        -0.60101E+08         0.00000E+00
    0.00000E+00         0.00000E+00        -0.36052E+08
 
   -0.52309E+08        -0.21771E+07         0.00000E+00
   -0.21771E+07        -0.60059E+08         0.00000E+00
    0.00000E+00         0.00000E+00        -0.35545E+08
 
   -0.50069E+08        -0.20904E+07         0.00000E+00
   -0.20904E+07        -0.59958E+08         0.00000E+00
    0.00000E+00         0.00000E+00        -0.35065E+08
 
   -0.48018E+08        -0.18511E+07         0.00000E+00
   -0.18511E+07        -0.59828E+08         0.00000E+00
    0.00000E+00         0.00000E+00        -0.34615E+08
 
   -0.46118E+08        -0.15014E+07         0.00000E+00
   -0.15014E+07        -0.59703E+08         0.00000E+00
    0.00000E+00         0.00000E+00        -0.34197E+08
 
   -0.44331E+08        -0.10615E+07         0.00000E+00
   -0.10615E+07        -0.59616E+08         0.00000E+00
    0.00000E+00         0.00000E+00        -0.33808E+08
 
   -0.42614E+08        -0.53668E+06         0.00000E+00
   -0.53668E+06        -0.59593E+08         0.00000E+00
    0.00000E+00         0.00000E+00        -0.33446E+08
 
   -0.40930E+08         0.79940E+05         0.00000E+00
    0.79940E+05        -0.59659E+08         0.00000E+00
    0.00000E+00         0.00000E+00        -0.33110E+08
 
   -0.39248E+08         0.80735E+06         0.00000E+00
    0.80735E+06        -0.59836E+08         0.00000E+00
    0.00000E+00         0.00000E+00        -0.32797E+08
 
   -0.37544E+08         0.16792E+07         0.00000E+00
    0.16792E+07        -0.60142E+08         0.00000E+00
    0.00000E+00         0.00000E+00        -0.32508E+08
 
   -0.35818E+08         0.27465E+07         0.00000E+00
    0.27465E+07        -0.60584E+08         0.00000E+00
    0.00000E+00         0.00000E+00        -0.32243E+08
 
   -0.34104E+08         0.40744E+07         0.00000E+00
    0.40744E+07        -0.61146E+08         0.00000E+00
    0.00000E+00         0.00000E+00        -0.32007E+08
 
   -0.32487E+08         0.57265E+07         0.00000E+00
    0.57265E+07        -0.61779E+08         0.00000E+00
    0.00000E+00         0.00000E+00        -0.31807E+08
 
   -0.61204E+08        -0.69708E+06         0.00000E+00
   -0.69708E+06        -0.60018E+08         0.00000E+00
    0.00000E+00         0.00000E+00        -0.35786E+08
 
   -0.58004E+08        -0.15952E+07         0.00000E+00
   -0.15952E+07        -0.60034E+08         0.00000E+00
    0.00000E+00         0.00000E+00        -0.35146E+08
 
   -0.54993E+08        -0.19758E+07         0.00000E+00
   -0.19758E+07        -0.59959E+08         0.00000E+00
    0.00000E+00         0.00000E+00        -0.34523E+08
 
   -0.52290E+08        -0.20300E+07         0.00000E+00
   -0.20300E+07        -0.59774E+08         0.00000E+00
    0.00000E+00         0.00000E+00        -0.33937E+08
 
   -0.49886E+08        -0.18971E+07         0.00000E+00
   -0.18971E+07        -0.59522E+08         0.00000E+00
    0.00000E+00         0.00000E+00        -0.33396E+08
 
   -0.47726E+08        -0.16538E+07         0.00000E+00
   -0.16538E+07        -0.59252E+08         0.00000E+00
    0.00000E+00         0.00000E+00        -0.32899E+08
 
   -0.45745E+08        -0.13359E+07         0.00000E+00
   -0.13359E+07        -0.59009E+08         0.00000E+00
    0.00000E+00         0.00000E+00        -0.32443E+08
 
   -0.43885E+08        -0.95767E+06         0.00000E+00
   -0.95767E+06        -0.58824E+08         0.00000E+00
    0.00000E+00         0.00000E+00        -0.32023E+08
 
   -0.42094E+08        -0.52044E+06         0.00000E+00
   -0.52044E+06        -0.58724E+08         0.00000E+00
    0.00000E+00         0.00000E+00        -0.31633E+08
 
   -0.40322E+08        -0.15299E+05         0.00000E+00
   -0.15299E+05        -0.58734E+08         0.00000E+00
    0.00000E+00         0.00000E+00        -0.31271E+08
 
   -0.38525E+08         0.57790E+06         0.00000E+00
    0.57790E+06        -0.58877E+08         0.00000E+00
    0.00000E+00         0.00000E+00        -0.30930E+08
 
   -0.36661E+08         0.12959E+07         0.00000E+00
    0.12959E+07        -0.59180E+08         0.00000E+00
    0.00000E+00         0.00000E+00        -0.30610E+08
 
   -0.34704E+08         0.22027E+07         0.00000E+00
    0.22027E+07        -0.59664E+08         0.00000E+00
    0.00000E+00         0.00000E+00        -0.30309E+08
 
   -0.32669E+08         0.33965E+07         0.00000E+00
    0.33965E+07        -0.60329E+08         0.00000E+00
    0.00000E+00         0.00000E+00        -0.30030E+08
 
   -0.30654E+08         0.49931E+07         0.00000E+00
    0.49931E+07        -0.61125E+08         0.00000E+00
    0.00000E+00         0.00000E+00        -0.29784E+08
 
   -0.62428E+08        -0.72537E+06         0.00000E+00
   -0.72537E+06        -0.60008E+08         0.00000E+00
    0.00000E+00         0.00000E+00        -0.34460E+08
 
   -0.58547E+08        -0.15212E+07         0.00000E+00
   -0.15212E+07        -0.59941E+08         0.00000E+00
    0.00000E+00         0.00000E+00        -0.33668E+08
 
   -0.55122E+08        -0.17454E+07         0.00000E+00
   -0.17454E+07        -0.59684E+08         0.00000E+00
    0.00000E+00         0.00000E+00        -0.32928E+08
 
   -0.52205E+08        -0.17020E+07         0.00000E+00
   -0.17020E+07        -0.59286E+08         0.00000E+00
    0.00000E+00         0.00000E+00        -0.32259E+08
 
   -0.49690E+08        -0.15418E+07         0.00000E+00
   -0.15418E+07        -0.58846E+08         0.00000E+00
    0.00000E+00         0.00000E+00        -0.31660E+08
 
   -0.47462E+08        -0.13208E+07         0.00000E+00
   -0.13208E+07        -0.58423E+08         0.00000E+00
    0.00000E+00         0.00000E+00        -0.31122E+08
 
   -0.45431E+08        -0.10601E+07         0.00000E+00
   -0.10601E+07        -0.58057E+08         0.00000E+00
    0.00000E+00         0.00000E+00        -0.30635E+08
 
   -0.43525E+08        -0.76591E+06         0.00000E+00
   -0.76591E+06        -0.57776E+08         0.00000E+00
    0.00000E+00         0.00000E+00        -0.30189E+08
 
   -0.41683E+08        -0.43597E+06         0.00000E+00
   -0.43597E+06        -0.57600E+08         0.00000E+00
    0.00000E+00         0.00000E+00        -0.29777E+08
 
   -0.39848E+08        -0.61464E+05         0.00000E+00
   -0.61464E+05        -0.57551E+08         0.00000E+00
    0.00000E+00         0.00000E+00        -0.29392E+08
 
   -0.37961E+08         0.37502E+06         0.00000E+00
    0.37502E+06        -0.57654E+08         0.00000E+00
    0.00000E+00         0.00000E+00        -0.29028E+08
 
   -0.35960E+08         0.90566E+06         0.00000E+00
    0.90566E+06        -0.57939E+08         0.00000E+00
    0.00000E+00         0.00000E+00        -0.28679E+08
 
   -0.33778E+08         0.15929E+07         0.00000E+00
    0.15929E+07        -0.58446E+08         0.00000E+00
    0.00000E+00         0.00000E+00        -0.28339E+08
 
   -0.31377E+08         0.25687E+07         0.00000E+00
    0.25687E+07        -0.59221E+08         0.00000E+00
    0.00000E+00         0.00000E+00        -0.28010E+08
 
   -0.28837E+08         0.40405E+07         0.00000E+00
    0.40405E+07        -0.60228E+08         0.00000E+00
    0.00000E+00         0.00000E+00        -0.27702E+08
 
   -0.63586E+08        -0.70813E+06         0.00000E+00
   -0.70813E+06        -0.59974E+08         0.00000E+00
    0.00000E+00         0.00000E+00        -0.33103E+08
 
   -0.58879E+08        -0.12288E+07         0.00000E+00
   -0.12288E+07        -0.59690E+08         0.00000E+00
    0.00000E+00         0.00000E+00        -0.32103E+08
 
   -0.55119E+08        -0.12517E+07         0.00000E+00
   -0.12517E+07        -0.59110E+08         0.00000E+00
    0.00000E+00         0.00000E+00        -0.31233E+08
 
   -0.52085E+08        -0.11546E+07         0.00000E+00
   -0.11546E+07        -0.58456E+08         0.00000E+00
    0.00000E+00         0.00000E+00        -0.30492E+08
 
   -0.49516E+08        -0.10160E+07         0.00000E+00
   -0.10160E+07        -0.57827E+08         0.00000E+00
    0.00000E+00         0.00000E+00        -0.29847E+08
 
   -0.47256E+08        -0.85690E+06         0.00000E+00
   -0.85690E+06        -0.57266E+08         0.00000E+00
    0.00000E+00         0.00000E+00        -0.29278E+08
 
   -0.45201E+08        -0.68337E+06         0.00000E+00
   -0.68337E+06        -0.56798E+08         0.00000E+00
    0.00000E+00         0.00000E+00        -0.28769E+08
 
   -0.43271E+08        -0.49543E+06         0.00000E+00
   -0.49543E+06        -0.56438E+08         0.00000E+00
    0.00000E+00         0.00000E+00        -0.28305E+08
 
   -0.41399E+08        -0.28978E+06         0.00000E+00
   -0.28978E+06        -0.56202E+08         0.00000E+00
    0.00000E+00         0.00000E+00        -0.27878E+08
 
   -0.39523E+08        -0.59882E+05         0.00000E+00
   -0.59882E+05        -0.56105E+08         0.00000E+00
    0.00000E+00         0.00000E+00        -0.27479E+08
 
   -0.37576E+08         0.20568E+06         0.00000E+00
    0.20568E+06        -0.56170E+08         0.00000E+00
    0.00000E+00         0.00000E+00        -0.27098E+08
 
   -0.35479E+08         0.52789E+06         0.00000E+00
    0.52789E+06        -0.56429E+08         0.00000E+00
    0.00000E+00         0.00000E+00        -0.26726E+08
 
   -0.33124E+08         0.94957E+06         0.00000E+00
    0.94957E+06        -0.56931E+08         0.00000E+00
    0.00000E+00         0.00000E+00        -0.26353E+08
 
   -0.30345E+08         0.15786E+07         0.00000E+00
    0.15786E+07        -0.57765E+08         0.00000E+00
    0.00000E+00         0.00000E+00        -0.25962E+08
 
   -0.27101E+08         0.27704E+07         0.00000E+00
    0.27704E+07        -0.59052E+08         0.00000E+00
    0.00000E+00         0.00000E+00        -0.25569E+08
 
   -0.64427E+08        -0.44654E+06         0.00000E+00
   -0.44654E+06        -0.59677E+08         0.00000E+00
    0.00000E+00         0.00000E+00        -0.31619E+08
 
   -0.58923E+08        -0.50857E+06         0.00000E+00
   -0.50857E+06        -0.58862E+08         0.00000E+00
    0.00000E+00         0.00000E+00        -0.30355E+08
 
   -0.55064E+08        -0.46299E+06         0.00000E+00
   -0.46299E+06        -0.57954E+08         0.00000E+00
    0.00000E+00         0.00000E+00        -0.29401E+08
 
   -0.51995E+08        -0.41153E+06         0.00000E+00
   -0.41153E+06        -0.57108E+08         0.00000E+00
    0.00000E+00         0.00000E+00        -0.28616E+08
 
   -0.49411E+08        -0.35553E+06         0.00000E+00
   -0.35553E+06        -0.56358E+08         0.00000E+00
    0.00000E+00         0.00000E+00        -0.27948E+08
 
   -0.47142E+08        -0.29702E+06         0.00000E+00
   -0.29702E+06        -0.55716E+08         0.00000E+00
    0.00000E+00         0.00000E+00        -0.27364E+08
 
   -0.45079E+08        -0.23582E+06         0.00000E+00
   -0.23582E+06        -0.55190E+08         0.00000E+00
    0.00000E+00         0.00000E+00        -0.26845E+08
 
   -0.43139E+08        -0.17106E+06         0.00000E+00
   -0.17106E+06        -0.54788E+08         0.00000E+00
    0.00000E+00         0.00000E+00        -0.26374E+08
 
   -0.41254E+08        -0.10117E+06         0.00000E+00
   -0.10117E+06        -0.54519E+08         0.00000E+00
    0.00000E+00         0.00000E+00        -0.25942E+08
 
   -0.39359E+08        -0.23767E+05         0.00000E+00
   -0.23767E+05        -0.54397E+08         0.00000E+00
    0.00000E+00         0.00000E+00        -0.25537E+08
 
   -0.37383E+08         0.65093E+05         0.00000E+00
    0.65093E+05        -0.54440E+08         0.00000E+00
    0.00000E+00         0.00000E+00        -0.25148E+08
 
   -0.35237E+08         0.17240E+06         0.00000E+00
    0.17240E+06        -0.54678E+08         0.00000E+00
    0.00000E+00         0.00000E+00        -0.24766E+08
 
   -0.32788E+08         0.31321E+06         0.00000E+00
    0.31321E+06        -0.55164E+08         0.00000E+00
    0.00000E+00         0.00000E+00        -0.24372E+08
 
   -0.29802E+08         0.52163E+06         0.00000E+00
    0.52163E+06        -0.55999E+08         0.00000E+00
    0.00000E+00         0.00000E+00        -0.23941E+08
 
   -0.25608E+08         0.10202E+07         0.00000E+00
    0.10202E+07        -0.57465E+08         0.00000E+00
    0.00000E+00         0.00000E+00        -0.23395E+08
 
SCALARS stressS double 
LOOKUP_TABLE default
  -56087670.5341389     
  -59105475.3612992     
  -61339579.6010988     
  -63146024.7157884     
  -64664283.6206710     
  -65975066.7929324     
  -67130974.8726367     
  -68170101.5721124     
  -69122689.2757464     
  -70015300.5832057     
  -70874263.6725058     
  -71729751.7026174     
  -72623281.0548286     
  -73623244.8702346     
  -74928803.9354885     
  -55703817.9479415     
  -58047417.2475960     
  -60062179.2511484     
  -61751495.6074428     
  -63199578.4999505     
  -64463478.5264593     
  -65585391.6322205     
  -66597662.0202682     
  -67526787.3927243     
  -68396213.6770858     
  -69228690.1192085     
  -70048840.4317120     
  -70885425.8389269     
  -71779550.0168154     
  -72689874.7709309     
  -55624483.4889546     
  -57432729.7705795     
  -59110102.0297960     
  -60607191.5520723     
  -61930479.2050488     
  -63107422.2249156     
  -64164178.7612857     
  -65123859.4104823     
  -66006681.8354475     
  -66830829.7651859     
  -67613269.3208485     
  -68369952.3649151     
  -69115179.3088447     
  -69845745.9093903     
  -70537744.4809353     
  -55606035.4338930     
  -57017693.5341959     
  -58386481.2762417     
  -59663989.4021201     
  -60832986.4612686     
  -61896102.8258674     
  -62864526.2687716     
  -63751383.6048151     
  -64569683.1135415     
  -65331495.1319926     
  -66047383.3783326     
  -66725378.3761869     
  -67367204.6755179     
  -67964668.1439371     
  -68494364.0374035     
  -55595450.0281844     
  -56697503.5575462     
  -57803365.9768866     
  -58871229.5199637     
  -59877611.5362921     
  -60813624.7945495     
  -61679441.5098912     
  -62479739.2605035     
  -63220817.2403587     
  -63908953.4891657     
  -64549116.9194469     
  -65143298.1191489     
  -65688521.0343600     
  -66174409.9787534     
  -66582216.9674015     
  -55571743.9261972     
  -56425054.3099065     
  -57308809.0128191     
  -58187334.9029218     
  -59036550.2278750     
  -59842684.5152214     
  -60599580.3519455     
  -61305816.9230397     
  -61962356.6467961     
  -62570763.0178854     
  -63131723.4814910     
  -63643643.7787757     
  -64101209.0161451     
  -64494276.6620674     
  -64807414.4224539     
  -55525396.8335614     
  -56175836.0623201     
  -56872056.3529563     
  -57583296.2897158     
  -58286746.6713346     
  -58967008.4524447     
  -59614663.7530311     
  -60224487.8042572     
  -60793712.0876265     
  -61320506.7783818     
  -61802672.0804013     
  -62236480.0242250     
  -62615703.2455828     
  -62930944.6339447     
  -63169476.8845735     
  -55451795.7397787     
  -55936049.5380715     
  -56474017.1795303     
  -57039038.7252259     
  -57610248.7629473     
  -58172258.3581782     
  -58714307.8717082     
  -59229114.1109207     
  -59711634.7888951     
  -60157894.2335749     
  -60563932.8112645     
  -60924910.7660750     
  -61234406.9973661     
  -61483988.4933636     
  -61663120.7472518     
  -55349180.2912144     
  -55697554.9270379     
  -56102250.5380251     
  -56540276.7234577     
  -56993023.0430869     
  -57446013.7883205     
  -57888351.4527327     
  -58311942.5326506     
  -58710624.9174588     
  -59079297.9056931     
  -59413124.9050055     
  -59706857.5077889     
  -59954325.3338462     
  -60148134.9035918     
  -60279611.9435093     
  -55217733.3973721     
  -55455563.8697295     
  -55748293.8377332     
  -56076417.6384598     
  -56423777.4507185     
  -56777361.0067165     
  -57126913.0396822     
  -57464401.0324364     
  -57783400.2461328     
  -58078464.9113546     
  -58344542.4820838     
  -58576476.8013851     
  -58768637.7065354     
  -58914707.3081411     
  -59007641.2126029     
  -55059115.3691782     
  -55207463.5905053     
  -55406208.0710700     
  -55639269.3463864     
  -55893091.2925585     
  -56156484.9865598     
  -56420356.0822138     
  -56677335.3892643     
  -56921350.0892111     
  -57147179.3032330     
  -57350035.9478896     
  -57525211.2728162     
  -57667811.8511883     
  -57772611.1255995     
  -57834028.1355918     
  -54876164.6318509     
  -54952167.8167493     
  -55071757.1749501     
  -55222265.5165525     
  -55392847.0674541     
  -55574375.4680854     
  -55759263.1976720     
  -55941214.7551364     
  -56114937.0794682     
  -56275836.2631176     
  -56419730.2385104     
  -56542604.4641569     
  -56640433.0780987     
  -56709082.2005145     
  -56744305.2717889     
  -54672664.8041059     
  -54689721.9725327     
  -54741926.0038421     
  -54820003.5155477     
  -54915882.7159203     
  -55022649.5743763     
  -55134445.9187099     
  -55246319.6943627     
  -55354043.6596784     
  -55453922.3094681     
  -55542607.6293399     
  -55616942.9025461     
  -55673850.9022771     
  -55710278.9431758     
  -55723208.8728499     
  -54453137.0344738     
  -54421033.5155571     
  -54414617.8689996     
  -54427962.3797858     
  -54455784.1279226     
  -54493457.9289544     
  -54536983.0989815     
  -54582913.8970005     
  -54628265.8168741     
  -54670411.3310963     
  -54706978.9059921     
  -54735768.2073554     
  -54754692.6771199     
  -54761758.4005998     
  -54755085.7069934     
  -54222641.8785799     
  -54147662.0871639     
  -54088443.2671928     
  -54042316.8922488     
  -54006755.6881819     
  -53979437.3225022     
  -53958270.6780930     
  -53941394.3972116     
  -53927156.9410945     
  -53914087.0122008     
  -53900862.6253369     
  -53886286.3489681     
  -53869273.3239439     
  -53848857.7008279     
  -53824222.2343789     
  -53986585.2655552     
  -53871635.2515747     
  -53762549.1025935     
  -53659794.8999466     
  -53563524.6142827     
  -53473679.1810646     
  -53390065.4101079     
  -53312413.8512080     
  -53240423.9903974     
  -53173801.1345708     
  -53112288.0281384     
  -53055693.5431234     
  -53003920.5834927     
  -52956995.5460876     
  -52915102.2028372     
  -53750527.0786120     
  -53595271.1334778     
  -53436458.3586286     
  -53277544.2319238     
  -53121248.6949142     
  -52969690.9526841     
  -52824508.7291488     
  -52686969.8018022     
  -52558078.5443265     
  -52438676.6388012     
  -52329535.1785556     
  -52231434.8707118     
  -52145231.6578586     
  -52071906.5131996     
  -52012600.1620939     
  -53519992.1067664     
  -53320996.8147848     
  -53109901.0803036     
  -52892986.7111224     
  -52675406.2127672     
  -52461333.9775291     
  -52254120.9818285     
  -52056458.2938501     
  -51870546.7398103     
  -51698264.9607834     
  -51541325.8220020     
  -51401411.1789905     
  -51280276.7218008     
  -51179821.5193701     
  -51102120.5911908     
  -53300283.2312742     
  -53051154.1968121     
  -52782622.0883442     
  -52503641.8862540     
  -52221651.6556239     
  -51942725.4632474     
  -51671759.4976930     
  -51412691.7848401     
  -51168744.1843548     
  -50942668.9054447     
  -50736979.9508516     
  -50554151.2291825     
  -50396766.3639303     
  -50267609.8612473     
  -50169695.0670264     
  -53096296.2331630     
  -52787784.3093830     
  -52454150.2867251     
  -52106903.1034008     
  -51755621.5771078     
  -51408093.6916045     
  -51070536.0327995     
  -50747883.6935102     
  -50444124.5156434     
  -50162645.0171664     
  -49906555.8963027     
  -49678969.0271421     
  -49483203.0949510     
  -49322901.3574293     
  -49202053.0409089     
  -52912334.3096863     
  -52532376.3114842     
  -52123508.3156602     
  -51699743.1719145     
  -51272671.7272935     
  -50851574.7797701     
  -50443690.2742747     
  -50054604.2959897     
  -49688713.3366096     
  -49349702.9785758     
  -49040995.8713019     
  -48766130.8128508     
  -48529041.6977311     
  -48334211.3369815     
  -48186685.2296537     
  -52751917.0795790     
  -52285556.3221087     
  -51788827.2257247     
  -51278314.7516722     
  -50767519.2542885     
  -50266937.0551871     
  -49784417.3440308     
  -49325715.6432121     
  -48895142.8939594     
  -48496223.9050109     
  -48132304.2744131     
  -47807062.7339379     
  -47524890.0467864     
  -47291097.0816009     
  -47111922.2992164     
  -52617570.7538954     
  -52046667.7600652     
  -51446803.0682266     
  -50837388.7203521     
  -50233752.8196688     
  -49647217.7736775     
  -49085651.0071386     
  -48554297.8295975     
  -48056706.9397375     
  -47595623.6358326     
  -47173792.6483548     
  -46794639.5561672     
  -46462793.0862824     
  -46184383.3628896     
  -45967055.7560372     
  -52510566.1755835     
  -51813145.2696276     
  -51091877.8936279     
  -50369537.4883142     
  -49663161.9865672     
  -48984263.0330074     
  -48339815.6843486     
  -47733586.9616740     
  -47167457.7158833     
  -46642589.0833739     
  -46160430.8058243     
  -45723609.5021398     
  -45336661.3258654     
  -45006512.1924128     
  -44742533.5634799     
  -52430524.6671975     
  -51579470.7699886     
  -50714919.9601444     
  -49863914.0580916     
  -49044838.1319637     
  -48268192.1464077     
  -47538588.8335142     
  -46856956.8607862     
  -46222364.1530511     
  -45633404.6650291     
  -45089347.7654398     
  -44591227.5235231     
  -44142947.4129404     
  -43752104.7818661     
  -43430277.8029650     
  -52374670.8463514     
  -51335234.2550052     
  -50300948.5423693     
  -49304412.4576764     
  -48364060.3292520     
  -47486894.9045603     
  -46672775.5735746     
  -45917989.4455836     
  -45217523.3075583     
  -44566359.2417003     
  -43960488.7908603     
  -43398220.9272751     
  -42881730.3721648     
  -42418935.0459871     
  -42024190.8531637     
  -52336172.3397612     
  -51061016.5978071     
  -49825012.6636489     
  -48667027.3062803     
  -47601221.5346163     
  -46625897.0649511     
  -45732457.2550752     
  -44910682.7158912     
  -44150385.1488813     
  -43442075.7235057     
  -42777428.9580757     
  -42150101.4056655     
  -41558699.9620397     
  -41009611.4563231     
  -40521114.9396239     
  -52298885.1448073     
  -50718823.4058397     
  -49244487.9524110     
  -47916867.0944611     
  -46732044.7406707     
  -45669032.1994863     
  -44707615.2264798     
  -43829827.6853345     
  -43019889.7868992     
  -42263571.5432124     
  -41547581.9982765     
  -40859437.7206656     
  -40187993.7419277     
  -39535919.1869061     
  -38922230.6376687     
  -52220895.8804633     
  -50223963.5426098     
  -48487166.2676340     
  -47010897.7913523     
  -45730033.8126965     
  -44600417.4875091     
  -43589305.5043530     
  -42671536.2879489     
  -41826441.6667443     
  -41035697.1049819     
  -40281511.9789260     
  -39544652.2055357     
  -38802714.8658070     
  -38023766.4619170     
  -37240844.0333707     
  -51907816.3254217     
  -49379994.0394965     
  -47472777.1716804     
  -45906450.8960886     
  -44572285.3254665     
  -43407513.3612056     
  -42371246.4044588     
  -41433831.7645142     
  -40571677.7369585     
  -39764025.6571125     
  -38990290.5848530     
  -38226908.2682589     
  -37441513.1384932     
  -36580844.5433925     
  -35489431.1334906     
SCALARS 2waySource double 
LOOKUP_TABLE default
  3.133061155381722E-005
  1.514220416232202E-005
  7.446260522575324E-006
  3.382329365760612E-006
  1.335958860920787E-006
  4.414933420393855E-007
  2.008512636230901E-007
  2.985287812166489E-007
  5.152078072044185E-007
  6.769359710461408E-007
  6.183463824195062E-007
  1.463643672994211E-007
 -1.016550843063328E-006
 -3.319292455116660E-006
 -8.135708318358381E-006
  3.302458724868872E-005
  2.507496750279646E-005
  1.988097146368347E-005
  1.711554633677905E-005
  1.574743708813893E-005
  1.521848770305198E-005
  1.517181451902997E-005
  1.537258917377178E-005
  1.565288428554787E-005
  1.587789168608505E-005
  1.592058603126405E-005
  1.563700757431553E-005
  1.483961480904314E-005
  1.321084603163446E-005
  1.041016738792368E-005
  3.170268852700722E-005
  3.046529796084078E-005
  2.899251251389819E-005
  2.812675918889931E-005
  2.786113213979754E-005
  2.799130761675387E-005
  2.835614311308272E-005
  2.883243767419545E-005
  2.932563159948096E-005
  2.975747678207078E-005
  3.005561001528519E-005
  3.014515121531463E-005
  2.993765937952564E-005
  2.935169943540656E-005
  2.837769825698438E-005
  2.963391741593473E-005
  3.323158252901592E-005
  3.513693274663464E-005
  3.637206593147197E-005
  3.739323794782494E-005
  3.834578201333622E-005
  3.925830797230641E-005
  4.012642105482980E-005
  4.093550774828880E-005
  4.166933072241589E-005
  4.231366828294129E-005
  4.285960031058557E-005
  4.331432396532958E-005
  4.372703987384358E-005
  4.426707446829132E-005
  2.728561813106179E-005
  3.431342451854455E-005
  3.886252095675017E-005
  4.196320067146072E-005
  4.424383254366078E-005
  4.604890093902371E-005
  4.755939871414592E-005
  4.887357363060939E-005
  5.005018754199518E-005
  5.113057436124053E-005
  5.215259890658096E-005
  5.316334739986356E-005
  5.423602871197928E-005
  5.550042398413602E-005
  5.718691522245964E-005
  2.487840688078926E-005
  3.415903789547708E-005
  4.058071096720524E-005
  4.512654085972054E-005
  4.846997222432457E-005
  5.104531719402151E-005
  5.312433247687572E-005
  5.487913479028151E-005
  5.642551043455872E-005
  5.785100049320325E-005
  5.923457279424796E-005
  6.066370930338459E-005
  6.225382468964699E-005
  6.417298908751978E-005
  6.667174657026505E-005
  2.255929888761037E-005
  3.306066269731052E-005
  4.061961201422051E-005
  4.613382147220181E-005
  5.025462174380145E-005
  5.343686939443678E-005
  5.599104409250358E-005
  5.812992867026303E-005
  6.000549951680160E-005
  6.173638754003325E-005
  6.342893191752568E-005
  6.519540793577785E-005
  6.717238699123347E-005
  6.954090480545592E-005
  7.254763389265569E-005
  2.043704337096420E-005
  3.125825022518885E-005
  3.928383901439593E-005
  4.529286710060899E-005
  4.987239499356219E-005
  5.345302741078130E-005
  5.634520827107471E-005
  5.877316607101416E-005
  6.090400540737029E-005
  6.287139956600279E-005
  6.479498991742745E-005
  6.679729699035869E-005
  6.901979947464366E-005
  7.163901354327250E-005
  7.488230631346146E-005
  1.858821625918045E-005
  2.896927865544315E-005
  3.687497292473714E-005
  4.294118616624776E-005
  4.766292954643191E-005
  5.141712112723679E-005
  5.448671630369911E-005
  5.708436376590191E-005
  5.937396761169098E-005
  6.148942831729932E-005
  6.355076407047250E-005
  6.567835029912733E-005
  6.800604495286585E-005
  7.069360464055366E-005
  7.393827022277713E-005
  1.705894170667046E-005
  2.639209587197600E-005
  3.369004213752346E-005
  3.943208123869867E-005
  4.400470093466696E-005
  4.771270293991863E-005
  5.079313186200883E-005
  5.343028711392385E-005
  5.577043787496169E-005
  5.793541384780768E-005
  6.003481476045104E-005
  6.217696136540962E-005
  6.447881339504391E-005
  6.707494345070295E-005
  7.012541792779316E-005
  1.586691243066593E-005
  2.370146422643036E-005
  3.001114701879742E-005
  3.511660431198699E-005
  3.928909925866724E-005
  4.275161769785934E-005
  4.568421575138552E-005
  4.823173418700056E-005
  5.051248524743337E-005
  5.262698050538070E-005
  5.466618136427677E-005
  5.671904213153236E-005
  5.887923588862685E-005
  6.125092275739529E-005
  6.395330234807421E-005
  1.500480627309946E-005
  2.104343691072543E-005
  2.609387977851747E-005
  3.032587069839393E-005
  3.389697200483802E-005
  3.694575859327452E-005
  3.959025099704482E-005
  4.192963151105901E-005
  4.404780996228095E-005
  4.601783150761670E-005
  4.790645831950598E-005
  4.977849324123404E-005
  5.170053305893533E-005
  5.374385117453682E-005
  5.598604381210871E-005
  1.444493385059445E-005
  1.853229816591780E-005
  2.215825325969402E-005
  2.535678003970961E-005
  2.817968383179065E-005
  3.068414922796944E-005
  3.292597657692104E-005
  3.495660627505569E-005
  3.682252664778957E-005
  3.856604060727393E-005
  4.022665529952409E-005
  4.184255925529496E-005
  4.345176234876853E-005
  4.509250190351518E-005
  4.680247757626204E-005
  1.414458988349277E-005
  1.625025272336208E-005
  1.838352235955560E-005
  2.046252738475169E-005
  2.244576616624090E-005
  2.431621237746548E-005
  2.607101319842696E-005
  2.771509372096868E-005
  2.925737743173233E-005
  3.070864701038020E-005
  3.208030952210340E-005
  3.338349791811931E-005
  3.462803850870613E-005
  3.582084659836027E-005
  3.696328728460975E-005
  1.405153900563338E-005
  1.424959400197221E-005
  1.490693977043856E-005
  1.584804897260757E-005
  1.695324768779233E-005
  1.814125644269729E-005
  1.935683523666551E-005
  2.056213857896007E-005
  2.173067066052648E-005
  2.284296998211100E-005
  2.388334108689090E-005
  2.483708603225636E-005
  2.568777019111823E-005
  2.641408893828956E-005
  2.698588853988063E-005
  1.410916628263790E-005
  1.255668253854500E-005
  1.182579363923826E-005
  1.166978443445433E-005
  1.190705047473512E-005
  1.240356564947664E-005
  1.305971000519216E-005
  1.380038746611240E-005
  1.456754033011469E-005
  1.531433291567558E-005
  1.600041447418353E-005
  1.658777363387676E-005
  1.703676113542102E-005
  1.730188619478739E-005
  1.732698824600416E-005
  1.426096856743855E-005
  1.117697832864672E-005
  9.201799364201314E-006
  8.038767843657031E-006
  7.460444958381924E-006
  7.292090695929568E-006
  7.398629676326191E-006
  7.674350820793666E-006
  8.034673216608672E-006
  8.409413313870674E-006
  8.737080983130359E-006
  8.959802684671057E-006
  9.018515919135769E-006
  8.848101977691551E-006
  8.372127584438644E-006
  1.445420714598886E-005
  1.010044868203165E-005
  7.066902996370758E-006
  5.025973985264325E-006
  3.719429063321155E-006
  2.943583888611284E-006
  2.537086039336454E-006
  2.370811438936990E-006
  2.339420535320145E-006
  2.354178513270538E-006
  2.336698818237443E-006
  2.213310208678037E-006
  1.909773195062580E-006
  1.346086054392166E-006
  4.311285817503285E-007
  1.464266157695196E-005
  9.306827648911759E-006
  5.429686911656311E-006
  2.668942130902054E-006
  7.489568505123494E-007
 -5.519490407710986E-007
 -1.412463553407129E-006
 -1.977775018776868E-006
 -2.367849841940649E-006
 -2.684720396326347E-006
 -3.018982889373723E-006
 -3.455694843239936E-006
 -4.079860771949753E-006
 -4.981692764243083E-006
 -6.261822742119369E-006
  1.478851138293265E-005
  8.770380607471566E-006
  4.281773500947448E-006
  9.788981824432308E-007
 -1.419882295150374E-006
 -3.144462138096160E-006
 -4.382475998357110E-006
 -5.287957951418085E-006
 -5.989248259100070E-006
 -6.596192125403521E-006
 -7.206678701294038E-006
 -7.912597943634269E-006
 -8.805325781237158E-006
 -9.980864528348583E-006
 -1.154475397354747E-005
  1.486342801019063E-005
  8.464001733688843E-006
  3.603855350783115E-006
 -5.215564912950075E-008
 -2.782397112296118E-006
 -4.816520439385485E-006
 -6.343407300499814E-006
 -7.518969657802721E-006
 -8.473668136497969E-006
 -9.319576695340228E-006
 -1.015687321989048E-005
 -1.107972800172525E-005
 -1.218164632277496E-005
 -1.356036181803306E-005
 -1.532236258825237E-005
  1.484899227356879E-005
  8.362639384533405E-006
  3.371226710838605E-006
 -4.446421673603989E-007
 -3.352944691695759E-006
 -5.575935169568489E-006
 -7.296667498928023E-006
 -8.666155239164605E-006
 -9.810711134574281E-006
 -1.083899471473956E-005
 -1.184846034557527E-005
 -1.293110300086273E-005
 -1.417854923164021E-005
 -1.568661540390439E-005
 -1.755942234571667E-005
  1.473657546416515E-005
  8.446228093454355E-006
  3.558970990350584E-006
 -2.248615409711746E-007
 -3.157841903425661E-006
 -5.448722831814333E-006
 -7.267942239226159E-006
 -8.754753175089514E-006
 -1.002489210890562E-005
 -1.117787351944911E-005
 -1.230344944964629E-005
 -1.348714055201388E-005
 -1.481496916522334E-005
 -1.637759309195898E-005
 -1.827403443723807E-005
  1.452686058631170E-005
  8.702572373259946E-006
  4.147348492398534E-006
  5.816999120086520E-007
 -2.228447335826558E-006
 -4.472597104125033E-006
 -6.301283254302858E-006
 -7.834514928820652E-006
 -9.170644286637562E-006
 -1.039420023875834E-005
 -1.158232152608697E-005
 -1.280996369987361E-005
 -1.415410758704263E-005
 -1.569738931422264E-005
 -1.753144173992893E-005
  1.422926788567447E-005
  9.131175974081814E-006
  5.128605932017564E-006
  1.958063413591857E-006
 -5.941969506967912E-007
 -2.691263959187328E-006
 -4.454412072873201E-006
 -5.975589383270079E-006
 -7.328501559426576E-006
 -8.576872566683130E-006
 -9.780487809933636E-006
 -1.099979816028277E-005
 -1.229963501379969E-005
 -1.375195654581441E-005
 -1.543900709099003E-005
  1.386192527818846E-005
  9.750328429162396E-006
  6.517895536965284E-006
  3.905837772432172E-006
  1.724306216224772E-006
 -1.502699029044391E-007
 -1.795934854123012E-006
 -3.266021207289563E-006
 -4.602578937155051E-006
 -5.843308304865739E-006
 -7.026060892975515E-006
 -8.193018998797514E-006
 -9.393504039046098E-006
 -1.068672598160952E-005
 -1.214288934666592E-005
  1.345355748352728E-005
  1.061432261192200E-005
  8.373948742586601E-006
  6.458928410404877E-006
  4.720347344191045E-006
  3.103439586317594E-006
  1.594693464998561E-006
  1.889844646642698E-007
 -1.119083726812617E-006
 -2.337761271801446E-006
 -3.479250306671348E-006
 -4.561871471391545E-006
 -5.616904395436886E-006
 -6.686435007999186E-006
 -7.827814032311232E-006
  1.305788185948568E-005
  1.186012069430802E-005
  1.084147093083692E-005
  9.696906212985344E-006
  8.395628808936795E-006
  7.015980244378708E-006
  5.623835002111414E-006
  4.266338791405375E-006
  2.974958561381587E-006
  1.770864918436409E-006
  6.691430507402858E-007
 -3.195967967491236E-007
 -1.192229577974677E-006
 -1.983651947815170E-006
 -2.719942699349863E-006
  1.281036632196759E-005
  1.387398586432091E-005
  1.421422827987811E-005
  1.371399972068101E-005
  1.273992132247482E-005
  1.151377008883574E-005
  1.017781393486183E-005
  8.823769128604330E-006
  7.513757998182748E-006
  6.293727379264031E-006
  5.203192298835807E-006
  4.283124602774439E-006
  3.581027293471058E-006
  3.149738247367671E-006
  2.877697541823595E-006
  1.367329839100315E-005
  1.767074222708537E-005
  1.874575056441167E-005
  1.855357405022428E-005
  1.769591677952498E-005
  1.648854530580193E-005
  1.511696509440463E-005
  1.369920880066247E-005
  1.231618202533195E-005
  1.102974808406423E-005
  9.895838438297397E-006
  8.976887202312179E-006
  8.357784154942808E-006
  8.176348561239626E-006
  8.645335226312227E-006
SCALARS poroP double 
LOOKUP_TABLE default
  0.000000000000000E+000
  0.000000000000000E+000
  0.000000000000000E+000
  0.000000000000000E+000
  0.000000000000000E+000
  0.000000000000000E+000
  0.000000000000000E+000
  0.000000000000000E+000
  0.000000000000000E+000
  0.000000000000000E+000
  0.000000000000000E+000
  0.000000000000000E+000
  0.000000000000000E+000
  0.000000000000000E+000
  0.000000000000000E+000
  0.000000000000000E+000
  0.000000000000000E+000
  0.000000000000000E+000
  0.000000000000000E+000
  0.000000000000000E+000
  0.000000000000000E+000
  0.000000000000000E+000
  0.000000000000000E+000
  0.000000000000000E+000
  0.000000000000000E+000
  0.000000000000000E+000
  0.000000000000000E+000
  0.000000000000000E+000
  0.000000000000000E+000
  0.000000000000000E+000
  0.000000000000000E+000
  0.000000000000000E+000
  0.000000000000000E+000
  0.000000000000000E+000
  0.000000000000000E+000
  0.000000000000000E+000
  0.000000000000000E+000
  0.000000000000000E+000
  0.000000000000000E+000
  0.000000000000000E+000
  0.000000000000000E+000
  0.000000000000000E+000
  0.000000000000000E+000
  0.000000000000000E+000
  0.000000000000000E+000
  0.000000000000000E+000
  0.000000000000000E+000
  0.000000000000000E+000
  0.000000000000000E+000
  0.000000000000000E+000
  0.000000000000000E+000
  0.000000000000000E+000
  0.000000000000000E+000
  0.000000000000000E+000
  0.000000000000000E+000
  0.000000000000000E+000
  0.000000000000000E+000
  0.000000000000000E+000
  0.000000000000000E+000
  0.000000000000000E+000
  0.000000000000000E+000
  0.000000000000000E+000
  0.000000000000000E+000
  0.000000000000000E+000
  0.000000000000000E+000
  0.000000000000000E+000
  0.000000000000000E+000
  0.000000000000000E+000
  0.000000000000000E+000
  0.000000000000000E+000
  0.000000000000000E+000
  0.000000000000000E+000
  0.000000000000000E+000
  0.000000000000000E+000
  0.000000000000000E+000
  0.000000000000000E+000
  0.000000000000000E+000
  0.000000000000000E+000
  0.000000000000000E+000
  0.000000000000000E+000
  0.000000000000000E+000
  0.000000000000000E+000
  0.000000000000000E+000
  0.000000000000000E+000
  0.000000000000000E+000
  0.000000000000000E+000
  0.000000000000000E+000
  0.000000000000000E+000
  0.000000000000000E+000
  0.000000000000000E+000
  0.000000000000000E+000
  0.000000000000000E+000
  0.000000000000000E+000
  0.000000000000000E+000
  0.000000000000000E+000
  0.000000000000000E+000
  0.000000000000000E+000
  0.000000000000000E+000
  0.000000000000000E+000
  0.000000000000000E+000
  0.000000000000000E+000
  0.000000000000000E+000
  0.000000000000000E+000
  0.000000000000000E+000
  0.000000000000000E+000
  0.000000000000000E+000
  0.000000000000000E+000
  0.000000000000000E+000
  0.000000000000000E+000
  0.000000000000000E+000
  0.000000000000000E+000
  0.000000000000000E+000
  0.000000000000000E+000
  0.000000000000000E+000
  0.000000000000000E+000
  0.000000000000000E+000
  0.000000000000000E+000
  0.000000000000000E+000
  0.000000000000000E+000
  0.000000000000000E+000
  0.000000000000000E+000
  0.000000000000000E+000
  0.000000000000000E+000
  0.000000000000000E+000
  0.000000000000000E+000
  0.000000000000000E+000
  0.000000000000000E+000
  0.000000000000000E+000
  0.000000000000000E+000
  0.000000000000000E+000
  0.000000000000000E+000
  0.000000000000000E+000
  0.000000000000000E+000
  0.000000000000000E+000
  0.000000000000000E+000
  0.000000000000000E+000
  0.000000000000000E+000
  0.000000000000000E+000
  0.000000000000000E+000
  0.000000000000000E+000
  0.000000000000000E+000
  0.000000000000000E+000
  0.000000000000000E+000
  0.000000000000000E+000
  0.000000000000000E+000
  0.000000000000000E+000
  0.000000000000000E+000
  0.000000000000000E+000
  0.000000000000000E+000
  0.000000000000000E+000
  0.000000000000000E+000
  0.000000000000000E+000
  0.000000000000000E+000
  0.000000000000000E+000
  0.000000000000000E+000
  0.000000000000000E+000
  0.000000000000000E+000
  0.000000000000000E+000
  0.000000000000000E+000
  0.000000000000000E+000
  0.000000000000000E+000
  0.000000000000000E+000
  0.000000000000000E+000
  0.000000000000000E+000
  0.000000000000000E+000
  0.000000000000000E+000
  0.000000000000000E+000
  0.000000000000000E+000
  0.000000000000000E+000
  0.000000000000000E+000
  0.000000000000000E+000
  0.000000000000000E+000
  0.000000000000000E+000
  0.000000000000000E+000
  0.000000000000000E+000
  0.000000000000000E+000
  0.000000000000000E+000
  0.000000000000000E+000
  0.000000000000000E+000
  0.000000000000000E+000
  0.000000000000000E+000
  0.000000000000000E+000
  0.000000000000000E+000
  0.000000000000000E+000
  0.000000000000000E+000
  0.000000000000000E+000
  0.000000000000000E+000
  0.000000000000000E+000
  0.000000000000000E+000
  0.000000000000000E+000
  0.000000000000000E+000
  0.000000000000000E+000
  0.000000000000000E+000
  0.000000000000000E+000
  0.000000000000000E+000
  0.000000000000000E+000
  0.000000000000000E+000
  0.000000000000000E+000
  0.000000000000000E+000
  0.000000000000000E+000
  0.000000000000000E+000
  0.000000000000000E+000
  0.000000000000000E+000
  0.000000000000000E+000
  0.000000000000000E+000
  0.000000000000000E+000
  0.000000000000000E+000
  0.000000000000000E+000
  0.000000000000000E+000
  0.000000000000000E+000
  0.000000000000000E+000
  0.000000000000000E+000
  0.000000000000000E+000
  0.000000000000000E+000
  0.000000000000000E+000
  0.000000000000000E+000
  0.000000000000000E+000
  0.000000000000000E+000
  0.000000000000000E+000
  0.000000000000000E+000
  0.000000000000000E+000
  0.000000000000000E+000
  0.000000000000000E+000
  0.000000000000000E+000
  0.000000000000000E+000
  0.000000000000000E+000
  0.000000000000000E+000
  0.000000000000000E+000
  0.000000000000000E+000
  0.000000000000000E+000
  0.000000000000000E+000
  0.000000000000000E+000
  0.000000000000000E+000
  0.000000000000000E+000
  0.000000000000000E+000
  0.000000000000000E+000
  0.000000000000000E+000
  0.000000000000000E+000
  0.000000000000000E+000
  0.000000000000000E+000
  0.000000000000000E+000
  0.000000000000000E+000
  0.000000000000000E+000
  0.000000000000000E+000
  0.000000000000000E+000
  0.000000000000000E+000
  0.000000000000000E+000
  0.000000000000000E+000
  0.000000000000000E+000
  0.000000000000000E+000
  0.000000000000000E+000
  0.000000000000000E+000
  0.000000000000000E+000
  0.000000000000000E+000
  0.000000000000000E+000
  0.000000000000000E+000
  0.000000000000000E+000
  0.000000000000000E+000
  0.000000000000000E+000
  0.000000000000000E+000
  0.000000000000000E+000
  0.000000000000000E+000
  0.000000000000000E+000
  0.000000000000000E+000
  0.000000000000000E+000
  0.000000000000000E+000
  0.000000000000000E+000
  0.000000000000000E+000
  0.000000000000000E+000
  0.000000000000000E+000
  0.000000000000000E+000
  0.000000000000000E+000
  0.000000000000000E+000
  0.000000000000000E+000
  0.000000000000000E+000
  0.000000000000000E+000
  0.000000000000000E+000
  0.000000000000000E+000
  0.000000000000000E+000
  0.000000000000000E+000
  0.000000000000000E+000
  0.000000000000000E+000
  0.000000000000000E+000
  0.000000000000000E+000
  0.000000000000000E+000
  0.000000000000000E+000
  0.000000000000000E+000
  0.000000000000000E+000
  0.000000000000000E+000
  0.000000000000000E+000
  0.000000000000000E+000
  0.000000000000000E+000
  0.000000000000000E+000
  0.000000000000000E+000
  0.000000000000000E+000
  0.000000000000000E+000
  0.000000000000000E+000
  0.000000000000000E+000
  0.000000000000000E+000
  0.000000000000000E+000
  0.000000000000000E+000
  0.000000000000000E+000
  0.000000000000000E+000
  0.000000000000000E+000
  0.000000000000000E+000
  0.000000000000000E+000
  0.000000000000000E+000
  0.000000000000000E+000
  0.000000000000000E+000
  0.000000000000000E+000
  0.000000000000000E+000
  0.000000000000000E+000
  0.000000000000000E+000
  0.000000000000000E+000
  0.000000000000000E+000
  0.000000000000000E+000
  0.000000000000000E+000
  0.000000000000000E+000
  0.000000000000000E+000
  0.000000000000000E+000
  0.000000000000000E+000
  0.000000000000000E+000
  0.000000000000000E+000
  0.000000000000000E+000
  0.000000000000000E+000
  0.000000000000000E+000
  0.000000000000000E+000
  0.000000000000000E+000
  0.000000000000000E+000
  0.000000000000000E+000
  0.000000000000000E+000
  0.000000000000000E+000
  0.000000000000000E+000
  0.000000000000000E+000
  0.000000000000000E+000
  0.000000000000000E+000
  0.000000000000000E+000
  0.000000000000000E+000
  0.000000000000000E+000
  0.000000000000000E+000
  0.000000000000000E+000
  0.000000000000000E+000
  0.000000000000000E+000
  0.000000000000000E+000
  0.000000000000000E+000
  0.000000000000000E+000
  0.000000000000000E+000
  0.000000000000000E+000
  0.000000000000000E+000
  0.000000000000000E+000
  0.000000000000000E+000
  0.000000000000000E+000
  0.000000000000000E+000
  0.000000000000000E+000
  0.000000000000000E+000
  0.000000000000000E+000
  0.000000000000000E+000
  0.000000000000000E+000
  0.000000000000000E+000
  0.000000000000000E+000
  0.000000000000000E+000
  0.000000000000000E+000
  0.000000000000000E+000
  0.000000000000000E+000
  0.000000000000000E+000
  0.000000000000000E+000
  0.000000000000000E+000
  0.000000000000000E+000
  0.000000000000000E+000
  0.000000000000000E+000
  0.000000000000000E+000
  0.000000000000000E+000
  0.000000000000000E+000
  0.000000000000000E+000
  0.000000000000000E+000
  0.000000000000000E+000
  0.000000000000000E+000
  0.000000000000000E+000
  0.000000000000000E+000
  0.000000000000000E+000
  0.000000000000000E+000
  0.000000000000000E+000
  0.000000000000000E+000
  0.000000000000000E+000
  0.000000000000000E+000
  0.000000000000000E+000
  0.000000000000000E+000
  0.000000000000000E+000
  0.000000000000000E+000
  0.000000000000000E+000
  0.000000000000000E+000
  0.000000000000000E+000
  0.000000000000000E+000
  0.000000000000000E+000
  0.000000000000000E+000
  0.000000000000000E+000
  0.000000000000000E+000
  0.000000000000000E+000
  0.000000000000000E+000
  0.000000000000000E+000
  0.000000000000000E+000
  0.000000000000000E+000
  0.000000000000000E+000
  0.000000000000000E+000
  0.000000000000000E+000
  0.000000000000000E+000
  0.000000000000000E+000
  0.000000000000000E+000
  0.000000000000000E+000
  0.000000000000000E+000
  0.000000000000000E+000
  0.000000000000000E+000
  0.000000000000000E+000
  0.000000000000000E+000
  0.000000000000000E+000
  0.000000000000000E+000
  0.000000000000000E+000
  0.000000000000000E+000
  0.000000000000000E+000
  0.000000000000000E+000
  0.000000000000000E+000
  0.000000000000000E+000
  0.000000000000000E+000
  0.000000000000000E+000
  0.000000000000000E+000
  0.000000000000000E+000
  0.000000000000000E+000
  0.000000000000000E+000
  0.000000000000000E+000
  0.000000000000000E+000
  0.000000000000000E+000
  0.000000000000000E+000
  0.000000000000000E+000
  0.000000000000000E+000
  0.000000000000000E+000
  0.000000000000000E+000
  0.000000000000000E+000
  0.000000000000000E+000
  0.000000000000000E+000
  0.000000000000000E+000
  0.000000000000000E+000
  0.000000000000000E+000
  0.000000000000000E+000
  0.000000000000000E+000
  0.000000000000000E+000
  0.000000000000000E+000
  0.000000000000000E+000
  0.000000000000000E+000
  0.000000000000000E+000
  0.000000000000000E+000
SCALARS elementIsPlast double 
LOOKUP_TABLE default
  0.000000000000000E+000
  0.000000000000000E+000
  0.000000000000000E+000
  0.000000000000000E+000
  0.000000000000000E+000
  0.000000000000000E+000
  0.000000000000000E+000
  0.000000000000000E+000
  0.000000000000000E+000
  0.000000000000000E+000
  0.000000000000000E+000
  0.000000000000000E+000
  0.000000000000000E+000
  0.000000000000000E+000
  0.000000000000000E+000
  0.000000000000000E+000
  0.000000000000000E+000
  0.000000000000000E+000
  0.000000000000000E+000
  0.000000000000000E+000
  0.000000000000000E+000
  0.000000000000000E+000
  0.000000000000000E+000
  0.000000000000000E+000
  0.000000000000000E+000
  0.000000000000000E+000
  0.000000000000000E+000
  0.000000000000000E+000
  0.000000000000000E+000
  0.000000000000000E+000
  0.000000000000000E+000
  0.000000000000000E+000
  0.000000000000000E+000
  0.000000000000000E+000
  0.000000000000000E+000
  0.000000000000000E+000
  0.000000000000000E+000
  0.000000000000000E+000
  0.000000000000000E+000
  0.000000000000000E+000
  0.000000000000000E+000
  0.000000000000000E+000
  0.000000000000000E+000
  0.000000000000000E+000
  0.000000000000000E+000
  0.000000000000000E+000
  0.000000000000000E+000
  0.000000000000000E+000
  0.000000000000000E+000
  0.000000000000000E+000
  0.000000000000000E+000
  0.000000000000000E+000
  0.000000000000000E+000
  0.000000000000000E+000
  0.000000000000000E+000
  0.000000000000000E+000
  0.000000000000000E+000
  0.000000000000000E+000
  0.000000000000000E+000
  0.000000000000000E+000
  0.000000000000000E+000
  0.000000000000000E+000
  0.000000000000000E+000
  0.000000000000000E+000
  0.000000000000000E+000
  0.000000000000000E+000
  0.000000000000000E+000
  0.000000000000000E+000
  0.000000000000000E+000
  0.000000000000000E+000
  0.000000000000000E+000
  0.000000000000000E+000
  0.000000000000000E+000
  0.000000000000000E+000
  0.000000000000000E+000
  0.000000000000000E+000
  0.000000000000000E+000
  0.000000000000000E+000
  0.000000000000000E+000
  0.000000000000000E+000
  0.000000000000000E+000
  0.000000000000000E+000
  0.000000000000000E+000
  0.000000000000000E+000
  0.000000000000000E+000
  0.000000000000000E+000
  0.000000000000000E+000
  0.000000000000000E+000
  0.000000000000000E+000
  0.000000000000000E+000
  0.000000000000000E+000
  0.000000000000000E+000
  0.000000000000000E+000
  0.000000000000000E+000
  0.000000000000000E+000
  0.000000000000000E+000
  0.000000000000000E+000
  0.000000000000000E+000
  0.000000000000000E+000
  0.000000000000000E+000
  0.000000000000000E+000
  0.000000000000000E+000
  0.000000000000000E+000
  0.000000000000000E+000
  0.000000000000000E+000
  0.000000000000000E+000
  0.000000000000000E+000
  0.000000000000000E+000
  0.000000000000000E+000
  0.000000000000000E+000
  0.000000000000000E+000
  0.000000000000000E+000
  0.000000000000000E+000
  0.000000000000000E+000
  0.000000000000000E+000
  0.000000000000000E+000
  0.000000000000000E+000
  0.000000000000000E+000
  0.000000000000000E+000
  0.000000000000000E+000
  0.000000000000000E+000
  0.000000000000000E+000
  0.000000000000000E+000
  0.000000000000000E+000
  0.000000000000000E+000
  0.000000000000000E+000
  0.000000000000000E+000
  0.000000000000000E+000
  0.000000000000000E+000
  0.000000000000000E+000
  0.000000000000000E+000
  0.000000000000000E+000
  0.000000000000000E+000
  0.000000000000000E+000
  0.000000000000000E+000
  0.000000000000000E+000
  0.000000000000000E+000
  0.000000000000000E+000
  0.000000000000000E+000
  0.000000000000000E+000
  0.000000000000000E+000
  0.000000000000000E+000
  0.000000000000000E+000
  0.000000000000000E+000
  0.000000000000000E+000
  0.000000000000000E+000
  0.000000000000000E+000
  0.000000000000000E+000
  0.000000000000000E+000
  0.000000000000000E+000
  0.000000000000000E+000
  0.000000000000000E+000
  0.000000000000000E+000
  0.000000000000000E+000
  0.000000000000000E+000
  0.000000000000000E+000
  0.000000000000000E+000
  0.000000000000000E+000
  0.000000000000000E+000
  0.000000000000000E+000
  0.000000000000000E+000
  0.000000000000000E+000
  0.000000000000000E+000
  0.000000000000000E+000
  0.000000000000000E+000
  0.000000000000000E+000
  0.000000000000000E+000
  0.000000000000000E+000
  0.000000000000000E+000
  0.000000000000000E+000
  0.000000000000000E+000
  0.000000000000000E+000
  0.000000000000000E+000
  0.000000000000000E+000
  0.000000000000000E+000
  0.000000000000000E+000
  0.000000000000000E+000
  0.000000000000000E+000
  0.000000000000000E+000
  0.000000000000000E+000
  0.000000000000000E+000
  0.000000000000000E+000
  0.000000000000000E+000
  0.000000000000000E+000
  0.000000000000000E+000
  0.000000000000000E+000
  0.000000000000000E+000
  0.000000000000000E+000
  0.000000000000000E+000
  0.000000000000000E+000
  0.000000000000000E+000
  0.000000000000000E+000
  0.000000000000000E+000
  0.000000000000000E+000
  0.000000000000000E+000
  0.000000000000000E+000
  0.000000000000000E+000
  0.000000000000000E+000
  0.000000000000000E+000
  0.000000000000000E+000
  0.000000000000000E+000
  0.000000000000000E+000
  0.000000000000000E+000
  0.000000000000000E+000
  0.000000000000000E+000
  0.000000000000000E+000
  0.000000000000000E+000
  0.000000000000000E+000
  0.000000000000000E+000
  0.000000000000000E+000
  0.000000000000000E+000
  0.000000000000000E+000
  0.000000000000000E+000
  0.000000000000000E+000
  0.000000000000000E+000
  0.000000000000000E+000
  0.000000000000000E+000
  0.000000000000000E+000
  0.000000000000000E+000
  0.000000000000000E+000
  0.000000000000000E+000
  0.000000000000000E+000
  0.000000000000000E+000
  0.000000000000000E+000
  0.000000000000000E+000
  0.000000000000000E+000
  0.000000000000000E+000
  0.000000000000000E+000
  0.000000000000000E+000
  0.000000000000000E+000
  0.000000000000000E+000
  0.000000000000000E+000
  0.000000000000000E+000
  0.000000000000000E+000
  0.000000000000000E+000
  0.000000000000000E+000
  0.000000000000000E+000
  0.000000000000000E+000
  0.000000000000000E+000
  0.000000000000000E+000
  0.000000000000000E+000
  0.000000000000000E+000
  0.000000000000000E+000
  0.000000000000000E+000
  0.000000000000000E+000
  0.000000000000000E+000
  0.000000000000000E+000
  0.000000000000000E+000
  0.000000000000000E+000
  0.000000000000000E+000
  0.000000000000000E+000
  0.000000000000000E+000
  0.000000000000000E+000
  0.000000000000000E+000
  0.000000000000000E+000
  0.000000000000000E+000
  0.000000000000000E+000
  0.000000000000000E+000
  0.000000000000000E+000
  0.000000000000000E+000
  0.000000000000000E+000
  0.000000000000000E+000
  0.000000000000000E+000
  0.000000000000000E+000
  0.000000000000000E+000
  0.000000000000000E+000
  0.000000000000000E+000
  0.000000000000000E+000
  0.000000000000000E+000
  0.000000000000000E+000
  0.000000000000000E+000
  0.000000000000000E+000
  0.000000000000000E+000
  0.000000000000000E+000
  0.000000000000000E+000
  0.000000000000000E+000
  0.000000000000000E+000
  0.000000000000000E+000
  0.000000000000000E+000
  0.000000000000000E+000
  0.000000000000000E+000
  0.000000000000000E+000
  0.000000000000000E+000
  0.000000000000000E+000
  0.000000000000000E+000
  0.000000000000000E+000
  0.000000000000000E+000
  0.000000000000000E+000
  0.000000000000000E+000
  0.000000000000000E+000
  0.000000000000000E+000
  0.000000000000000E+000
  0.000000000000000E+000
  0.000000000000000E+000
  0.000000000000000E+000
  0.000000000000000E+000
  0.000000000000000E+000
  0.000000000000000E+000
  0.000000000000000E+000
  0.000000000000000E+000
  0.000000000000000E+000
  0.000000000000000E+000
  0.000000000000000E+000
  0.000000000000000E+000
  0.000000000000000E+000
  0.000000000000000E+000
  0.000000000000000E+000
  0.000000000000000E+000
  0.000000000000000E+000
  0.000000000000000E+000
  0.000000000000000E+000
  0.000000000000000E+000
  0.000000000000000E+000
  0.000000000000000E+000
  0.000000000000000E+000
  0.000000000000000E+000
  0.000000000000000E+000
  0.000000000000000E+000
  0.000000000000000E+000
  0.000000000000000E+000
  0.000000000000000E+000
  0.000000000000000E+000
  0.000000000000000E+000
  0.000000000000000E+000
  0.000000000000000E+000
  0.000000000000000E+000
  0.000000000000000E+000
  0.000000000000000E+000
  0.000000000000000E+000
  0.000000000000000E+000
  0.000000000000000E+000
  0.000000000000000E+000
  0.000000000000000E+000
  0.000000000000000E+000
  0.000000000000000E+000
  0.000000000000000E+000
  0.000000000000000E+000
  0.000000000000000E+000
  0.000000000000000E+000
  0.000000000000000E+000
  0.000000000000000E+000
  0.000000000000000E+000
  0.000000000000000E+000
  0.000000000000000E+000
  0.000000000000000E+000
  0.000000000000000E+000
  0.000000000000000E+000
  0.000000000000000E+000
  0.000000000000000E+000
  0.000000000000000E+000
  0.000000000000000E+000
  0.000000000000000E+000
  0.000000000000000E+000
  0.000000000000000E+000
  0.000000000000000E+000
  0.000000000000000E+000
  0.000000000000000E+000
  0.000000000000000E+000
  0.000000000000000E+000
  0.000000000000000E+000
  0.000000000000000E+000
  0.000000000000000E+000
  0.000000000000000E+000
  0.000000000000000E+000
  0.000000000000000E+000
  0.000000000000000E+000
  0.000000000000000E+000
  0.000000000000000E+000
  0.000000000000000E+000
  0.000000000000000E+000
  0.000000000000000E+000
  0.000000000000000E+000
  0.000000000000000E+000
  0.000000000000000E+000
  0.000000000000000E+000
  0.000000000000000E+000
  0.000000000000000E+000
  0.000000000000000E+000
  0.000000000000000E+000
  0.000000000000000E+000
  0.000000000000000E+000
  0.000000000000000E+000
  0.000000000000000E+000
  0.000000000000000E+000
  0.000000000000000E+000
  0.000000000000000E+000
  0.000000000000000E+000
  0.000000000000000E+000
  0.000000000000000E+000
  0.000000000000000E+000
  0.000000000000000E+000
  0.000000000000000E+000
  0.000000000000000E+000
  0.000000000000000E+000
  0.000000000000000E+000
  0.000000000000000E+000
  0.000000000000000E+000
  0.000000000000000E+000
  0.000000000000000E+000
  0.000000000000000E+000
  0.000000000000000E+000
  0.000000000000000E+000
  0.000000000000000E+000
  0.000000000000000E+000
  0.000000000000000E+000
  0.000000000000000E+000
  0.000000000000000E+000
  0.000000000000000E+000
  0.000000000000000E+000
  0.000000000000000E+000
  0.000000000000000E+000
  0.000000000000000E+000
  0.000000000000000E+000
  0.000000000000000E+000
  0.000000000000000E+000
  0.000000000000000E+000
  0.000000000000000E+000
  0.000000000000000E+000
  0.000000000000000E+000
  0.000000000000000E+000
  0.000000000000000E+000
  0.000000000000000E+000
  0.000000000000000E+000
  0.000000000000000E+000
  0.000000000000000E+000
  0.000000000000000E+000
  0.000000000000000E+000
  0.000000000000000E+000
  0.000000000000000E+000
  0.000000000000000E+000
  0.000000000000000E+000
  0.000000000000000E+000
  0.000000000000000E+000
  0.000000000000000E+000
  0.000000000000000E+000
  0.000000000000000E+000
  0.000000000000000E+000
  0.000000000000000E+000
  0.000000000000000E+000
  0.000000000000000E+000
  0.000000000000000E+000
  0.000000000000000E+000
  0.000000000000000E+000
  0.000000000000000E+000
  0.000000000000000E+000
  0.000000000000000E+000
  0.000000000000000E+000
  0.000000000000000E+000
  0.000000000000000E+000
  0.000000000000000E+000
SCALARS poroL double 
LOOKUP_TABLE default
  0.156248009163511     
  0.156224791705686     
  0.156207606582818     
  0.156193716663196     
  0.156182048086716     
  0.156171978597724     
  0.156163102244049     
  0.156155124850910     
  0.156147812814203     
  0.156140960965050     
  0.156134366015268     
  0.156127795140537     
  0.156120928312142     
  0.156113238938644     
  0.156103195387528     
  0.156225314186464     
  0.156207286175003     
  0.156191798240747     
  0.156178826955563     
  0.156167722252749     
  0.156158041876592     
  0.156149457912308     
  0.156141718634981     
  0.156134617716525     
  0.156127972633499     
  0.156121606436972     
  0.156115327901472     
  0.156108914168884     
  0.156102048004073     
  0.156095048322565     
  0.156200491883200     
  0.156186598131212     
  0.156173728755491     
  0.156162263025321     
  0.156152147553729     
  0.156143166683686     
  0.156135114883814     
  0.156127810566586     
  0.156121094935755     
  0.156114825276642     
  0.156108868544973     
  0.156103099720281     
  0.156097406765539     
  0.156091812935843     
  0.156086502198644     
  0.156175586765247     
  0.156164761981859     
  0.156154293501465     
  0.156144546956630     
  0.156135648954442     
  0.156127573780107     
  0.156120230527220     
  0.156113514086883     
  0.156107320906980     
  0.156101555144590     
  0.156096132872031     
  0.156090989841188     
  0.156086110453159     
  0.156081555576264     
  0.156077503076813     
  0.156151151492689     
  0.156142724445139     
  0.156134303202072     
  0.156126196868575     
  0.156118577249036     
  0.156111506004645     
  0.156104976559060     
  0.156098948765723     
  0.156093370807799     
  0.156088191570809     
  0.156083370299569     
  0.156078889204807     
  0.156074768523564     
  0.156071084902639     
  0.156067978220387     
  0.156127461281333     
  0.156120959621629     
  0.156114265550024     
  0.156107636551765     
  0.156101246510026     
  0.156095193494948     
  0.156089519292494     
  0.156084230774467     
  0.156079317477685     
  0.156074764899261     
  0.156070565495125     
  0.156066729136670     
  0.156063293773833     
  0.156060333393711     
  0.156057960717536     
  0.156104668625276     
  0.156099734349009     
  0.156094493506379     
  0.156089163074425     
  0.156083905458717     
  0.156078830466288     
  0.156074004804462     
  0.156069464821982     
  0.156065229149809     
  0.156061309819171     
  0.156057721851227     
  0.156054491701036     
  0.156051664205329     
  0.156049307073549     
  0.156047511222588     
  0.156082852382515     
  0.156079197890843     
  0.156075176349489     
  0.156070972207123     
  0.156066732266102     
  0.156062566018352     
  0.156058550608050     
  0.156054738569810     
  0.156051166494797     
  0.156047863407133     
  0.156044858283347     
  0.156042186406837     
  0.156039894178916     
  0.156038041738979     
  0.156036702797007     
  0.156062034464377     
  0.156059421475801     
  0.156056418605078     
  0.156053182701865     
  0.156049843621944     
  0.156046504222061     
  0.156043243166084     
  0.156040119748898     
  0.156037179733769     
  0.156034461342071     
  0.156032000782385     
  0.156029836880011     
  0.156028014408914     
  0.156026585745404     
  0.156025610545275     
  0.156042189652680     
  0.156040418732325     
  0.156038263036414     
  0.156035854600435     
  0.156033305762436     
  0.156030709122414     
  0.156028139225733     
  0.156025655624961     
  0.156023306768821     
  0.156021134146188     
  0.156019176191239     
  0.156017471546121     
  0.156016061348951     
  0.156014990281181     
  0.156014306214943     
  0.156023253495512     
  0.156022158926396     
  0.156020705821723     
  0.156019002918956     
  0.156017144672825     
  0.156015211190957     
  0.156013269247967     
  0.156011374220735     
  0.156009572632481     
  0.156007904934766     
  0.156006408167041     
  0.156005118177807     
  0.156004071148120     
  0.156003304226345     
  0.156002855168731     
  0.156005129908320     
  0.156004577148178     
  0.156003707878588     
  0.156002608395059     
  0.156001355012070     
  0.156000013921236     
  0.155998641744878     
  0.155997286703823     
  0.155995990214578     
  0.155994788676659     
  0.155993715200449     
  0.155992801045828     
  0.155992076580632     
  0.155991571619783     
  0.155991315068712     
  0.155987698761827     
  0.155987583055301     
  0.155987204121033     
  0.155986626392841     
  0.155985907921268     
  0.155985100110209     
  0.155984247917016     
  0.155983390464346     
  0.155982561949075     
  0.155981792694996     
  0.155981110183192     
  0.155980539902513     
  0.155980105886734     
  0.155979830839967     
  0.155979735793764     
  0.155970823344380     
  0.155971068739405     
  0.155971111449152     
  0.155970994567832     
  0.155970757926538     
  0.155970437691600     
  0.155970066277071     
  0.155969672530912     
  0.155969282121963     
  0.155968918032977     
  0.155968601056503     
  0.155968350194330     
  0.155968182875069     
  0.155968114925277     
  0.155968160254427     
  0.155954357476547     
  0.155954915876292     
  0.155955335810675     
  0.155955639601072     
  0.155955849085024     
  0.155955985086074     
  0.155956067087401     
  0.155956113074527     
  0.155956139503246     
  0.155956161342331     
  0.155956192138370     
  0.155956244052496     
  0.155956327825172     
  0.155956452634474     
  0.155956625824117     
  0.155938152070311     
  0.155939002172685     
  0.155939778473691     
  0.155940483158714     
  0.155941120466617     
  0.155941696061912     
  0.155942216509486     
  0.155942688822875     
  0.155943120067964     
  0.155943517011301     
  0.155943885806370     
  0.155944231712984     
  0.155944558844997     
  0.155944869940518     
  0.155945166146878     
  0.155922060983696     
  0.155923207091062     
  0.155924341576769     
  0.155925447168845     
  0.155926511036974     
  0.155927524114426     
  0.155928480405898     
  0.155929376261384     
  0.155930209627505     
  0.155930979308550     
  0.155931684279270     
  0.155932323091775     
  0.155932893412152     
  0.155933391710744     
  0.155933813115152     
  0.155905946089524     
  0.155907416852452     
  0.155908933013948     
  0.155910458494705     
  0.155911964007393     
  0.155913426390159     
  0.155914827767920     
  0.155916154538669     
  0.155917396237706     
  0.155918544367120     
  0.155919591290964     
  0.155920529292755     
  0.155921349876241     
  0.155922043366383     
  0.155922598838195     
  0.155889681537872     
  0.155891528756624     
  0.155893470737786     
  0.155895453103673     
  0.155897430738128     
  0.155899367206817     
  0.155901233770794     
  0.155903008025297     
  0.155904672282808     
  0.155906211865560     
  0.155907613483181     
  0.155908863857601     
  0.155909948729118     
  0.155910852339451     
  0.155911557441064     
  0.155873157240887     
  0.155875454910149     
  0.155877886613287     
  0.155880379876449     
  0.155882874320267     
  0.155885321251731     
  0.155887682484936     
  0.155889928497342     
  0.155892036154068     
  0.155893986280808     
  0.155895761358692     
  0.155897343580177     
  0.155898713461573     
  0.155899849155881     
  0.155900726544739     
  0.155856281648763     
  0.155859125519692     
  0.155862130033340     
  0.155865204273111     
  0.155868273017261     
  0.155871276578731     
  0.155874169293275     
  0.155876916928259     
  0.155879493448168     
  0.155881877589361     
  0.155884049634116     
  0.155885988701735     
  0.155887670817614     
  0.155889067969619     
  0.155890148279565     
  0.155838983928373     
  0.155842492010904     
  0.155846171632637     
  0.155849912184621     
  0.155853623822541     
  0.155857237560305     
  0.155860703075283     
  0.155863984870339     
  0.155867057603477     
  0.155869901281053     
  0.155872496811347     
  0.155874822274116     
  0.155876850226226     
  0.155878546348695     
  0.155879869677541     
  0.155821215725237     
  0.155825530421038     
  0.155830007658481     
  0.155834514474784     
  0.155838946482976     
  0.155843227972091     
  0.155847308200390     
  0.155851155383381     
  0.155854749874087     
  0.155858077531227     
  0.155861123750510     
  0.155863868421419     
  0.155866282120539     
  0.155868324060109     
  0.155869942271717     
  0.155802952842567     
  0.155808245894387     
  0.155813665974910     
  0.155819052996760     
  0.155824288426964     
  0.155829294341795     
  0.155834026289647     
  0.155838463412117     
  0.155842598529438     
  0.155846429370381     
  0.155849950993468     
  0.155853149126938     
  0.155855994720635     
  0.155858440475893     
  0.155860420697931     
  0.155784197525191     
  0.155790679977026     
  0.155797215498175     
  0.155803609293301     
  0.155809731023245     
  0.155815509456937     
  0.155820917484273     
  0.155825955424988     
  0.155830637192166     
  0.155834979779712     
  0.155838994560652     
  0.155842679045886     
  0.155846008537689     
  0.155848929975541     
  0.155851359985843     
  0.155764983110974     
  0.155772924442712     
  0.155780782613482     
  0.155788317677657     
  0.155795397114457     
  0.155801975247682     
  0.155808060491507     
  0.155813688025900     
  0.155818902435259     
  0.155823747847571     
  0.155828260234747     
  0.155832457451536     
  0.155836327429813     
  0.155839813866135     
  0.155842811080738     
  0.155745385413685     
  0.155755151562607     
  0.155764581455712     
  0.155773384123491     
  0.155781457893658     
  0.155788822507063     
  0.155795550213844     
  0.155801725217987     
  0.155807431004142     
  0.155812745262484     
  0.155817736392360     
  0.155822457272112     
  0.155826922483487     
  0.155831086592498     
  0.155834812610071     
  0.155725561514554     
  0.155737685999233     
  0.155748971396172     
  0.155759107461480     
  0.155768129528861     
  0.155776204116650     
  0.155783491464092     
  0.155790134133530     
  0.155796257496829     
  0.155801974677431     
  0.155807391303603     
  0.155812606566620     
  0.155817709157385     
  0.155822681279925     
  0.155827379050447     
  0.155705874550991     
  0.155721219087883     
  0.155734546441061     
  0.155745856097894     
  0.155755652286488     
  0.155764278002546     
  0.155771988245664     
  0.155778979427168     
  0.155785413135536     
  0.155791432710415     
  0.155797177207252     
  0.155802796643269     
  0.155808465277850     
  0.155814430499011     
  0.155820439554718     
  0.155687866539479     
  0.155707306410093     
  0.155721966757251     
  0.155733999959217     
  0.155744243568149     
  0.155753181613786     
  0.155761129745757     
  0.155768317078296     
  0.155774926004836     
  0.155781117045555     
  0.155787049322469     
  0.155792904828938     
  0.155798933219851     
  0.155805544810685     
  0.155813936022646     
