# vtk DataFile Version 3.0
vtk output
ASCII
DATASET UNSTRUCTURED_GRID
POINTS       496 double 
  0.00000000E+00  3.00000000E+02  0.00000000E+00
  0.00000000E+00  2.80000000E+02  0.00000000E+00
  0.00000000E+00  2.60000000E+02  0.00000000E+00
  0.00000000E+00  2.40000000E+02  0.00000000E+00
  0.00000000E+00  2.20000000E+02  0.00000000E+00
  0.00000000E+00  2.00000000E+02  0.00000000E+00
  0.00000000E+00  1.80000000E+02  0.00000000E+00
  0.00000000E+00  1.60000000E+02  0.00000000E+00
  0.00000000E+00  1.40000000E+02  0.00000000E+00
  0.00000000E+00  1.20000000E+02  0.00000000E+00
  0.00000000E+00  1.00000000E+02  0.00000000E+00
  0.00000000E+00  8.00000000E+01  0.00000000E+00
  0.00000000E+00  6.00000000E+01  0.00000000E+00
  0.00000000E+00  4.00000000E+01  0.00000000E+00
  0.00000000E+00  2.00000000E+01  0.00000000E+00
  0.00000000E+00  4.99600361E-14  0.00000000E+00
  2.00000000E+01  3.00000000E+02  0.00000000E+00
  2.00000000E+01  2.80000000E+02  0.00000000E+00
  2.00000000E+01  2.60000000E+02  0.00000000E+00
  2.00000000E+01  2.40000000E+02  0.00000000E+00
  2.00000000E+01  2.20000000E+02  0.00000000E+00
  2.00000000E+01  2.00000000E+02  0.00000000E+00
  2.00000000E+01  1.80000000E+02  0.00000000E+00
  2.00000000E+01  1.60000000E+02  0.00000000E+00
  2.00000000E+01  1.40000000E+02  0.00000000E+00
  2.00000000E+01  1.20000000E+02  0.00000000E+00
  2.00000000E+01  1.00000000E+02  0.00000000E+00
  2.00000000E+01  8.00000000E+01  0.00000000E+00
  2.00000000E+01  6.00000000E+01  0.00000000E+00
  2.00000000E+01  4.00000000E+01  0.00000000E+00
  2.00000000E+01  2.00000000E+01  0.00000000E+00
  2.00000000E+01  4.99600361E-14  0.00000000E+00
  4.00000000E+01  3.00000000E+02  0.00000000E+00
  4.00000000E+01  2.80000000E+02  0.00000000E+00
  4.00000000E+01  2.60000000E+02  0.00000000E+00
  4.00000000E+01  2.40000000E+02  0.00000000E+00
  4.00000000E+01  2.20000000E+02  0.00000000E+00
  4.00000000E+01  2.00000000E+02  0.00000000E+00
  4.00000000E+01  1.80000000E+02  0.00000000E+00
  4.00000000E+01  1.60000000E+02  0.00000000E+00
  4.00000000E+01  1.40000000E+02  0.00000000E+00
  4.00000000E+01  1.20000000E+02  0.00000000E+00
  4.00000000E+01  1.00000000E+02  0.00000000E+00
  4.00000000E+01  8.00000000E+01  0.00000000E+00
  4.00000000E+01  6.00000000E+01  0.00000000E+00
  4.00000000E+01  4.00000000E+01  0.00000000E+00
  4.00000000E+01  2.00000000E+01  0.00000000E+00
  4.00000000E+01  4.99600361E-14  0.00000000E+00
  6.00000000E+01  3.00000000E+02  0.00000000E+00
  6.00000000E+01  2.80000000E+02  0.00000000E+00
  6.00000000E+01  2.60000000E+02  0.00000000E+00
  6.00000000E+01  2.40000000E+02  0.00000000E+00
  6.00000000E+01  2.20000000E+02  0.00000000E+00
  6.00000000E+01  2.00000000E+02  0.00000000E+00
  6.00000000E+01  1.80000000E+02  0.00000000E+00
  6.00000000E+01  1.60000000E+02  0.00000000E+00
  6.00000000E+01  1.40000000E+02  0.00000000E+00
  6.00000000E+01  1.20000000E+02  0.00000000E+00
  6.00000000E+01  1.00000000E+02  0.00000000E+00
  6.00000000E+01  8.00000000E+01  0.00000000E+00
  6.00000000E+01  6.00000000E+01  0.00000000E+00
  6.00000000E+01  4.00000000E+01  0.00000000E+00
  6.00000000E+01  2.00000000E+01  0.00000000E+00
  6.00000000E+01  4.99600361E-14  0.00000000E+00
  8.00000000E+01  3.00000000E+02  0.00000000E+00
  8.00000000E+01  2.80000000E+02  0.00000000E+00
  8.00000000E+01  2.60000000E+02  0.00000000E+00
  8.00000000E+01  2.40000000E+02  0.00000000E+00
  8.00000000E+01  2.20000000E+02  0.00000000E+00
  8.00000000E+01  2.00000000E+02  0.00000000E+00
  8.00000000E+01  1.80000000E+02  0.00000000E+00
  8.00000000E+01  1.60000000E+02  0.00000000E+00
  8.00000000E+01  1.40000000E+02  0.00000000E+00
  8.00000000E+01  1.20000000E+02  0.00000000E+00
  8.00000000E+01  1.00000000E+02  0.00000000E+00
  8.00000000E+01  8.00000000E+01  0.00000000E+00
  8.00000000E+01  6.00000000E+01  0.00000000E+00
  8.00000000E+01  4.00000000E+01  0.00000000E+00
  8.00000000E+01  2.00000000E+01  0.00000000E+00
  8.00000000E+01  4.99600361E-14  0.00000000E+00
  1.00000000E+02  3.00000000E+02  0.00000000E+00
  1.00000000E+02  2.80000000E+02  0.00000000E+00
  1.00000000E+02  2.60000000E+02  0.00000000E+00
  1.00000000E+02  2.40000000E+02  0.00000000E+00
  1.00000000E+02  2.20000000E+02  0.00000000E+00
  1.00000000E+02  2.00000000E+02  0.00000000E+00
  1.00000000E+02  1.80000000E+02  0.00000000E+00
  1.00000000E+02  1.60000000E+02  0.00000000E+00
  1.00000000E+02  1.40000000E+02  0.00000000E+00
  1.00000000E+02  1.20000000E+02  0.00000000E+00
  1.00000000E+02  1.00000000E+02  0.00000000E+00
  1.00000000E+02  8.00000000E+01  0.00000000E+00
  1.00000000E+02  6.00000000E+01  0.00000000E+00
  1.00000000E+02  4.00000000E+01  0.00000000E+00
  1.00000000E+02  2.00000000E+01  0.00000000E+00
  1.00000000E+02  4.99600361E-14  0.00000000E+00
  1.20000000E+02  3.00000000E+02  0.00000000E+00
  1.20000000E+02  2.80000000E+02  0.00000000E+00
  1.20000000E+02  2.60000000E+02  0.00000000E+00
  1.20000000E+02  2.40000000E+02  0.00000000E+00
  1.20000000E+02  2.20000000E+02  0.00000000E+00
  1.20000000E+02  2.00000000E+02  0.00000000E+00
  1.20000000E+02  1.80000000E+02  0.00000000E+00
  1.20000000E+02  1.60000000E+02  0.00000000E+00
  1.20000000E+02  1.40000000E+02  0.00000000E+00
  1.20000000E+02  1.20000000E+02  0.00000000E+00
  1.20000000E+02  1.00000000E+02  0.00000000E+00
  1.20000000E+02  8.00000000E+01  0.00000000E+00
  1.20000000E+02  6.00000000E+01  0.00000000E+00
  1.20000000E+02  4.00000000E+01  0.00000000E+00
  1.20000000E+02  2.00000000E+01  0.00000000E+00
  1.20000000E+02  4.99600361E-14  0.00000000E+00
  1.40000000E+02  3.00000000E+02  0.00000000E+00
  1.40000000E+02  2.80000000E+02  0.00000000E+00
  1.40000000E+02  2.60000000E+02  0.00000000E+00
  1.40000000E+02  2.40000000E+02  0.00000000E+00
  1.40000000E+02  2.20000000E+02  0.00000000E+00
  1.40000000E+02  2.00000000E+02  0.00000000E+00
  1.40000000E+02  1.80000000E+02  0.00000000E+00
  1.40000000E+02  1.60000000E+02  0.00000000E+00
  1.40000000E+02  1.40000000E+02  0.00000000E+00
  1.40000000E+02  1.20000000E+02  0.00000000E+00
  1.40000000E+02  1.00000000E+02  0.00000000E+00
  1.40000000E+02  8.00000000E+01  0.00000000E+00
  1.40000000E+02  6.00000000E+01  0.00000000E+00
  1.40000000E+02  4.00000000E+01  0.00000000E+00
  1.40000000E+02  2.00000000E+01  0.00000000E+00
  1.40000000E+02  4.99600361E-14  0.00000000E+00
  1.60000000E+02  3.00000000E+02  0.00000000E+00
  1.60000000E+02  2.80000000E+02  0.00000000E+00
  1.60000000E+02  2.60000000E+02  0.00000000E+00
  1.60000000E+02  2.40000000E+02  0.00000000E+00
  1.60000000E+02  2.20000000E+02  0.00000000E+00
  1.60000000E+02  2.00000000E+02  0.00000000E+00
  1.60000000E+02  1.80000000E+02  0.00000000E+00
  1.60000000E+02  1.60000000E+02  0.00000000E+00
  1.60000000E+02  1.40000000E+02  0.00000000E+00
  1.60000000E+02  1.20000000E+02  0.00000000E+00
  1.60000000E+02  1.00000000E+02  0.00000000E+00
  1.60000000E+02  8.00000000E+01  0.00000000E+00
  1.60000000E+02  6.00000000E+01  0.00000000E+00
  1.60000000E+02  4.00000000E+01  0.00000000E+00
  1.60000000E+02  2.00000000E+01  0.00000000E+00
  1.60000000E+02  4.99600361E-14  0.00000000E+00
  1.80000000E+02  3.00000000E+02  0.00000000E+00
  1.80000000E+02  2.80000000E+02  0.00000000E+00
  1.80000000E+02  2.60000000E+02  0.00000000E+00
  1.80000000E+02  2.40000000E+02  0.00000000E+00
  1.80000000E+02  2.20000000E+02  0.00000000E+00
  1.80000000E+02  2.00000000E+02  0.00000000E+00
  1.80000000E+02  1.80000000E+02  0.00000000E+00
  1.80000000E+02  1.60000000E+02  0.00000000E+00
  1.80000000E+02  1.40000000E+02  0.00000000E+00
  1.80000000E+02  1.20000000E+02  0.00000000E+00
  1.80000000E+02  1.00000000E+02  0.00000000E+00
  1.80000000E+02  8.00000000E+01  0.00000000E+00
  1.80000000E+02  6.00000000E+01  0.00000000E+00
  1.80000000E+02  4.00000000E+01  0.00000000E+00
  1.80000000E+02  2.00000000E+01  0.00000000E+00
  1.80000000E+02  4.99600361E-14  0.00000000E+00
  2.00000000E+02  3.00000000E+02  0.00000000E+00
  2.00000000E+02  2.80000000E+02  0.00000000E+00
  2.00000000E+02  2.60000000E+02  0.00000000E+00
  2.00000000E+02  2.40000000E+02  0.00000000E+00
  2.00000000E+02  2.20000000E+02  0.00000000E+00
  2.00000000E+02  2.00000000E+02  0.00000000E+00
  2.00000000E+02  1.80000000E+02  0.00000000E+00
  2.00000000E+02  1.60000000E+02  0.00000000E+00
  2.00000000E+02  1.40000000E+02  0.00000000E+00
  2.00000000E+02  1.20000000E+02  0.00000000E+00
  2.00000000E+02  1.00000000E+02  0.00000000E+00
  2.00000000E+02  8.00000000E+01  0.00000000E+00
  2.00000000E+02  6.00000000E+01  0.00000000E+00
  2.00000000E+02  4.00000000E+01  0.00000000E+00
  2.00000000E+02  2.00000000E+01  0.00000000E+00
  2.00000000E+02  4.99600361E-14  0.00000000E+00
  2.20000000E+02  3.00000000E+02  0.00000000E+00
  2.20000000E+02  2.80000000E+02  0.00000000E+00
  2.20000000E+02  2.60000000E+02  0.00000000E+00
  2.20000000E+02  2.40000000E+02  0.00000000E+00
  2.20000000E+02  2.20000000E+02  0.00000000E+00
  2.20000000E+02  2.00000000E+02  0.00000000E+00
  2.20000000E+02  1.80000000E+02  0.00000000E+00
  2.20000000E+02  1.60000000E+02  0.00000000E+00
  2.20000000E+02  1.40000000E+02  0.00000000E+00
  2.20000000E+02  1.20000000E+02  0.00000000E+00
  2.20000000E+02  1.00000000E+02  0.00000000E+00
  2.20000000E+02  8.00000000E+01  0.00000000E+00
  2.20000000E+02  6.00000000E+01  0.00000000E+00
  2.20000000E+02  4.00000000E+01  0.00000000E+00
  2.20000000E+02  2.00000000E+01  0.00000000E+00
  2.20000000E+02  4.99600361E-14  0.00000000E+00
  2.40000000E+02  3.00000000E+02  0.00000000E+00
  2.40000000E+02  2.80000000E+02  0.00000000E+00
  2.40000000E+02  2.60000000E+02  0.00000000E+00
  2.40000000E+02  2.40000000E+02  0.00000000E+00
  2.40000000E+02  2.20000000E+02  0.00000000E+00
  2.40000000E+02  2.00000000E+02  0.00000000E+00
  2.40000000E+02  1.80000000E+02  0.00000000E+00
  2.40000000E+02  1.60000000E+02  0.00000000E+00
  2.40000000E+02  1.40000000E+02  0.00000000E+00
  2.40000000E+02  1.20000000E+02  0.00000000E+00
  2.40000000E+02  1.00000000E+02  0.00000000E+00
  2.40000000E+02  8.00000000E+01  0.00000000E+00
  2.40000000E+02  6.00000000E+01  0.00000000E+00
  2.40000000E+02  4.00000000E+01  0.00000000E+00
  2.40000000E+02  2.00000000E+01  0.00000000E+00
  2.40000000E+02  4.99600361E-14  0.00000000E+00
  2.60000000E+02  3.00000000E+02  0.00000000E+00
  2.60000000E+02  2.80000000E+02  0.00000000E+00
  2.60000000E+02  2.60000000E+02  0.00000000E+00
  2.60000000E+02  2.40000000E+02  0.00000000E+00
  2.60000000E+02  2.20000000E+02  0.00000000E+00
  2.60000000E+02  2.00000000E+02  0.00000000E+00
  2.60000000E+02  1.80000000E+02  0.00000000E+00
  2.60000000E+02  1.60000000E+02  0.00000000E+00
  2.60000000E+02  1.40000000E+02  0.00000000E+00
  2.60000000E+02  1.20000000E+02  0.00000000E+00
  2.60000000E+02  1.00000000E+02  0.00000000E+00
  2.60000000E+02  8.00000000E+01  0.00000000E+00
  2.60000000E+02  6.00000000E+01  0.00000000E+00
  2.60000000E+02  4.00000000E+01  0.00000000E+00
  2.60000000E+02  2.00000000E+01  0.00000000E+00
  2.60000000E+02  4.99600361E-14  0.00000000E+00
  2.80000000E+02  3.00000000E+02  0.00000000E+00
  2.80000000E+02  2.80000000E+02  0.00000000E+00
  2.80000000E+02  2.60000000E+02  0.00000000E+00
  2.80000000E+02  2.40000000E+02  0.00000000E+00
  2.80000000E+02  2.20000000E+02  0.00000000E+00
  2.80000000E+02  2.00000000E+02  0.00000000E+00
  2.80000000E+02  1.80000000E+02  0.00000000E+00
  2.80000000E+02  1.60000000E+02  0.00000000E+00
  2.80000000E+02  1.40000000E+02  0.00000000E+00
  2.80000000E+02  1.20000000E+02  0.00000000E+00
  2.80000000E+02  1.00000000E+02  0.00000000E+00
  2.80000000E+02  8.00000000E+01  0.00000000E+00
  2.80000000E+02  6.00000000E+01  0.00000000E+00
  2.80000000E+02  4.00000000E+01  0.00000000E+00
  2.80000000E+02  2.00000000E+01  0.00000000E+00
  2.80000000E+02  4.99600361E-14  0.00000000E+00
  3.00000000E+02  3.00000000E+02  0.00000000E+00
  3.00000000E+02  2.80000000E+02  0.00000000E+00
  3.00000000E+02  2.60000000E+02  0.00000000E+00
  3.00000000E+02  2.40000000E+02  0.00000000E+00
  3.00000000E+02  2.20000000E+02  0.00000000E+00
  3.00000000E+02  2.00000000E+02  0.00000000E+00
  3.00000000E+02  1.80000000E+02  0.00000000E+00
  3.00000000E+02  1.60000000E+02  0.00000000E+00
  3.00000000E+02  1.40000000E+02  0.00000000E+00
  3.00000000E+02  1.20000000E+02  0.00000000E+00
  3.00000000E+02  1.00000000E+02  0.00000000E+00
  3.00000000E+02  8.00000000E+01  0.00000000E+00
  3.00000000E+02  6.00000000E+01  0.00000000E+00
  3.00000000E+02  4.00000000E+01  0.00000000E+00
  3.00000000E+02  2.00000000E+01  0.00000000E+00
  3.00000000E+02  4.99600361E-14  0.00000000E+00
  3.20000000E+02  3.00000000E+02  0.00000000E+00
  3.20000000E+02  2.80000000E+02  0.00000000E+00
  3.20000000E+02  2.60000000E+02  0.00000000E+00
  3.20000000E+02  2.40000000E+02  0.00000000E+00
  3.20000000E+02  2.20000000E+02  0.00000000E+00
  3.20000000E+02  2.00000000E+02  0.00000000E+00
  3.20000000E+02  1.80000000E+02  0.00000000E+00
  3.20000000E+02  1.60000000E+02  0.00000000E+00
  3.20000000E+02  1.40000000E+02  0.00000000E+00
  3.20000000E+02  1.20000000E+02  0.00000000E+00
  3.20000000E+02  1.00000000E+02  0.00000000E+00
  3.20000000E+02  8.00000000E+01  0.00000000E+00
  3.20000000E+02  6.00000000E+01  0.00000000E+00
  3.20000000E+02  4.00000000E+01  0.00000000E+00
  3.20000000E+02  2.00000000E+01  0.00000000E+00
  3.20000000E+02  4.99600361E-14  0.00000000E+00
  3.40000000E+02  3.00000000E+02  0.00000000E+00
  3.40000000E+02  2.80000000E+02  0.00000000E+00
  3.40000000E+02  2.60000000E+02  0.00000000E+00
  3.40000000E+02  2.40000000E+02  0.00000000E+00
  3.40000000E+02  2.20000000E+02  0.00000000E+00
  3.40000000E+02  2.00000000E+02  0.00000000E+00
  3.40000000E+02  1.80000000E+02  0.00000000E+00
  3.40000000E+02  1.60000000E+02  0.00000000E+00
  3.40000000E+02  1.40000000E+02  0.00000000E+00
  3.40000000E+02  1.20000000E+02  0.00000000E+00
  3.40000000E+02  1.00000000E+02  0.00000000E+00
  3.40000000E+02  8.00000000E+01  0.00000000E+00
  3.40000000E+02  6.00000000E+01  0.00000000E+00
  3.40000000E+02  4.00000000E+01  0.00000000E+00
  3.40000000E+02  2.00000000E+01  0.00000000E+00
  3.40000000E+02  4.99600361E-14  0.00000000E+00
  3.60000000E+02  3.00000000E+02  0.00000000E+00
  3.60000000E+02  2.80000000E+02  0.00000000E+00
  3.60000000E+02  2.60000000E+02  0.00000000E+00
  3.60000000E+02  2.40000000E+02  0.00000000E+00
  3.60000000E+02  2.20000000E+02  0.00000000E+00
  3.60000000E+02  2.00000000E+02  0.00000000E+00
  3.60000000E+02  1.80000000E+02  0.00000000E+00
  3.60000000E+02  1.60000000E+02  0.00000000E+00
  3.60000000E+02  1.40000000E+02  0.00000000E+00
  3.60000000E+02  1.20000000E+02  0.00000000E+00
  3.60000000E+02  1.00000000E+02  0.00000000E+00
  3.60000000E+02  8.00000000E+01  0.00000000E+00
  3.60000000E+02  6.00000000E+01  0.00000000E+00
  3.60000000E+02  4.00000000E+01  0.00000000E+00
  3.60000000E+02  2.00000000E+01  0.00000000E+00
  3.60000000E+02  4.99600361E-14  0.00000000E+00
  3.80000000E+02  3.00000000E+02  0.00000000E+00
  3.80000000E+02  2.80000000E+02  0.00000000E+00
  3.80000000E+02  2.60000000E+02  0.00000000E+00
  3.80000000E+02  2.40000000E+02  0.00000000E+00
  3.80000000E+02  2.20000000E+02  0.00000000E+00
  3.80000000E+02  2.00000000E+02  0.00000000E+00
  3.80000000E+02  1.80000000E+02  0.00000000E+00
  3.80000000E+02  1.60000000E+02  0.00000000E+00
  3.80000000E+02  1.40000000E+02  0.00000000E+00
  3.80000000E+02  1.20000000E+02  0.00000000E+00
  3.80000000E+02  1.00000000E+02  0.00000000E+00
  3.80000000E+02  8.00000000E+01  0.00000000E+00
  3.80000000E+02  6.00000000E+01  0.00000000E+00
  3.80000000E+02  4.00000000E+01  0.00000000E+00
  3.80000000E+02  2.00000000E+01  0.00000000E+00
  3.80000000E+02  4.99600361E-14  0.00000000E+00
  4.00000000E+02  3.00000000E+02  0.00000000E+00
  4.00000000E+02  2.80000000E+02  0.00000000E+00
  4.00000000E+02  2.60000000E+02  0.00000000E+00
  4.00000000E+02  2.40000000E+02  0.00000000E+00
  4.00000000E+02  2.20000000E+02  0.00000000E+00
  4.00000000E+02  2.00000000E+02  0.00000000E+00
  4.00000000E+02  1.80000000E+02  0.00000000E+00
  4.00000000E+02  1.60000000E+02  0.00000000E+00
  4.00000000E+02  1.40000000E+02  0.00000000E+00
  4.00000000E+02  1.20000000E+02  0.00000000E+00
  4.00000000E+02  1.00000000E+02  0.00000000E+00
  4.00000000E+02  8.00000000E+01  0.00000000E+00
  4.00000000E+02  6.00000000E+01  0.00000000E+00
  4.00000000E+02  4.00000000E+01  0.00000000E+00
  4.00000000E+02  2.00000000E+01  0.00000000E+00
  4.00000000E+02  4.99600361E-14  0.00000000E+00
  4.20000000E+02  3.00000000E+02  0.00000000E+00
  4.20000000E+02  2.80000000E+02  0.00000000E+00
  4.20000000E+02  2.60000000E+02  0.00000000E+00
  4.20000000E+02  2.40000000E+02  0.00000000E+00
  4.20000000E+02  2.20000000E+02  0.00000000E+00
  4.20000000E+02  2.00000000E+02  0.00000000E+00
  4.20000000E+02  1.80000000E+02  0.00000000E+00
  4.20000000E+02  1.60000000E+02  0.00000000E+00
  4.20000000E+02  1.40000000E+02  0.00000000E+00
  4.20000000E+02  1.20000000E+02  0.00000000E+00
  4.20000000E+02  1.00000000E+02  0.00000000E+00
  4.20000000E+02  8.00000000E+01  0.00000000E+00
  4.20000000E+02  6.00000000E+01  0.00000000E+00
  4.20000000E+02  4.00000000E+01  0.00000000E+00
  4.20000000E+02  2.00000000E+01  0.00000000E+00
  4.20000000E+02  4.99600361E-14  0.00000000E+00
  4.40000000E+02  3.00000000E+02  0.00000000E+00
  4.40000000E+02  2.80000000E+02  0.00000000E+00
  4.40000000E+02  2.60000000E+02  0.00000000E+00
  4.40000000E+02  2.40000000E+02  0.00000000E+00
  4.40000000E+02  2.20000000E+02  0.00000000E+00
  4.40000000E+02  2.00000000E+02  0.00000000E+00
  4.40000000E+02  1.80000000E+02  0.00000000E+00
  4.40000000E+02  1.60000000E+02  0.00000000E+00
  4.40000000E+02  1.40000000E+02  0.00000000E+00
  4.40000000E+02  1.20000000E+02  0.00000000E+00
  4.40000000E+02  1.00000000E+02  0.00000000E+00
  4.40000000E+02  8.00000000E+01  0.00000000E+00
  4.40000000E+02  6.00000000E+01  0.00000000E+00
  4.40000000E+02  4.00000000E+01  0.00000000E+00
  4.40000000E+02  2.00000000E+01  0.00000000E+00
  4.40000000E+02  4.99600361E-14  0.00000000E+00
  4.60000000E+02  3.00000000E+02  0.00000000E+00
  4.60000000E+02  2.80000000E+02  0.00000000E+00
  4.60000000E+02  2.60000000E+02  0.00000000E+00
  4.60000000E+02  2.40000000E+02  0.00000000E+00
  4.60000000E+02  2.20000000E+02  0.00000000E+00
  4.60000000E+02  2.00000000E+02  0.00000000E+00
  4.60000000E+02  1.80000000E+02  0.00000000E+00
  4.60000000E+02  1.60000000E+02  0.00000000E+00
  4.60000000E+02  1.40000000E+02  0.00000000E+00
  4.60000000E+02  1.20000000E+02  0.00000000E+00
  4.60000000E+02  1.00000000E+02  0.00000000E+00
  4.60000000E+02  8.00000000E+01  0.00000000E+00
  4.60000000E+02  6.00000000E+01  0.00000000E+00
  4.60000000E+02  4.00000000E+01  0.00000000E+00
  4.60000000E+02  2.00000000E+01  0.00000000E+00
  4.60000000E+02  4.99600361E-14  0.00000000E+00
  4.80000000E+02  3.00000000E+02  0.00000000E+00
  4.80000000E+02  2.80000000E+02  0.00000000E+00
  4.80000000E+02  2.60000000E+02  0.00000000E+00
  4.80000000E+02  2.40000000E+02  0.00000000E+00
  4.80000000E+02  2.20000000E+02  0.00000000E+00
  4.80000000E+02  2.00000000E+02  0.00000000E+00
  4.80000000E+02  1.80000000E+02  0.00000000E+00
  4.80000000E+02  1.60000000E+02  0.00000000E+00
  4.80000000E+02  1.40000000E+02  0.00000000E+00
  4.80000000E+02  1.20000000E+02  0.00000000E+00
  4.80000000E+02  1.00000000E+02  0.00000000E+00
  4.80000000E+02  8.00000000E+01  0.00000000E+00
  4.80000000E+02  6.00000000E+01  0.00000000E+00
  4.80000000E+02  4.00000000E+01  0.00000000E+00
  4.80000000E+02  2.00000000E+01  0.00000000E+00
  4.80000000E+02  4.99600361E-14  0.00000000E+00
  5.00000000E+02  3.00000000E+02  0.00000000E+00
  5.00000000E+02  2.80000000E+02  0.00000000E+00
  5.00000000E+02  2.60000000E+02  0.00000000E+00
  5.00000000E+02  2.40000000E+02  0.00000000E+00
  5.00000000E+02  2.20000000E+02  0.00000000E+00
  5.00000000E+02  2.00000000E+02  0.00000000E+00
  5.00000000E+02  1.80000000E+02  0.00000000E+00
  5.00000000E+02  1.60000000E+02  0.00000000E+00
  5.00000000E+02  1.40000000E+02  0.00000000E+00
  5.00000000E+02  1.20000000E+02  0.00000000E+00
  5.00000000E+02  1.00000000E+02  0.00000000E+00
  5.00000000E+02  8.00000000E+01  0.00000000E+00
  5.00000000E+02  6.00000000E+01  0.00000000E+00
  5.00000000E+02  4.00000000E+01  0.00000000E+00
  5.00000000E+02  2.00000000E+01  0.00000000E+00
  5.00000000E+02  4.99600361E-14  0.00000000E+00
  5.20000000E+02  3.00000000E+02  0.00000000E+00
  5.20000000E+02  2.80000000E+02  0.00000000E+00
  5.20000000E+02  2.60000000E+02  0.00000000E+00
  5.20000000E+02  2.40000000E+02  0.00000000E+00
  5.20000000E+02  2.20000000E+02  0.00000000E+00
  5.20000000E+02  2.00000000E+02  0.00000000E+00
  5.20000000E+02  1.80000000E+02  0.00000000E+00
  5.20000000E+02  1.60000000E+02  0.00000000E+00
  5.20000000E+02  1.40000000E+02  0.00000000E+00
  5.20000000E+02  1.20000000E+02  0.00000000E+00
  5.20000000E+02  1.00000000E+02  0.00000000E+00
  5.20000000E+02  8.00000000E+01  0.00000000E+00
  5.20000000E+02  6.00000000E+01  0.00000000E+00
  5.20000000E+02  4.00000000E+01  0.00000000E+00
  5.20000000E+02  2.00000000E+01  0.00000000E+00
  5.20000000E+02  4.99600361E-14  0.00000000E+00
  5.40000000E+02  3.00000000E+02  0.00000000E+00
  5.40000000E+02  2.80000000E+02  0.00000000E+00
  5.40000000E+02  2.60000000E+02  0.00000000E+00
  5.40000000E+02  2.40000000E+02  0.00000000E+00
  5.40000000E+02  2.20000000E+02  0.00000000E+00
  5.40000000E+02  2.00000000E+02  0.00000000E+00
  5.40000000E+02  1.80000000E+02  0.00000000E+00
  5.40000000E+02  1.60000000E+02  0.00000000E+00
  5.40000000E+02  1.40000000E+02  0.00000000E+00
  5.40000000E+02  1.20000000E+02  0.00000000E+00
  5.40000000E+02  1.00000000E+02  0.00000000E+00
  5.40000000E+02  8.00000000E+01  0.00000000E+00
  5.40000000E+02  6.00000000E+01  0.00000000E+00
  5.40000000E+02  4.00000000E+01  0.00000000E+00
  5.40000000E+02  2.00000000E+01  0.00000000E+00
  5.40000000E+02  4.99600361E-14  0.00000000E+00
  5.60000000E+02  3.00000000E+02  0.00000000E+00
  5.60000000E+02  2.80000000E+02  0.00000000E+00
  5.60000000E+02  2.60000000E+02  0.00000000E+00
  5.60000000E+02  2.40000000E+02  0.00000000E+00
  5.60000000E+02  2.20000000E+02  0.00000000E+00
  5.60000000E+02  2.00000000E+02  0.00000000E+00
  5.60000000E+02  1.80000000E+02  0.00000000E+00
  5.60000000E+02  1.60000000E+02  0.00000000E+00
  5.60000000E+02  1.40000000E+02  0.00000000E+00
  5.60000000E+02  1.20000000E+02  0.00000000E+00
  5.60000000E+02  1.00000000E+02  0.00000000E+00
  5.60000000E+02  8.00000000E+01  0.00000000E+00
  5.60000000E+02  6.00000000E+01  0.00000000E+00
  5.60000000E+02  4.00000000E+01  0.00000000E+00
  5.60000000E+02  2.00000000E+01  0.00000000E+00
  5.60000000E+02  4.99600361E-14  0.00000000E+00
  5.80000000E+02  3.00000000E+02  0.00000000E+00
  5.80000000E+02  2.80000000E+02  0.00000000E+00
  5.80000000E+02  2.60000000E+02  0.00000000E+00
  5.80000000E+02  2.40000000E+02  0.00000000E+00
  5.80000000E+02  2.20000000E+02  0.00000000E+00
  5.80000000E+02  2.00000000E+02  0.00000000E+00
  5.80000000E+02  1.80000000E+02  0.00000000E+00
  5.80000000E+02  1.60000000E+02  0.00000000E+00
  5.80000000E+02  1.40000000E+02  0.00000000E+00
  5.80000000E+02  1.20000000E+02  0.00000000E+00
  5.80000000E+02  1.00000000E+02  0.00000000E+00
  5.80000000E+02  8.00000000E+01  0.00000000E+00
  5.80000000E+02  6.00000000E+01  0.00000000E+00
  5.80000000E+02  4.00000000E+01  0.00000000E+00
  5.80000000E+02  2.00000000E+01  0.00000000E+00
  5.80000000E+02  4.99600361E-14  0.00000000E+00
  6.00000000E+02  3.00000000E+02  0.00000000E+00
  6.00000000E+02  2.80000000E+02  0.00000000E+00
  6.00000000E+02  2.60000000E+02  0.00000000E+00
  6.00000000E+02  2.40000000E+02  0.00000000E+00
  6.00000000E+02  2.20000000E+02  0.00000000E+00
  6.00000000E+02  2.00000000E+02  0.00000000E+00
  6.00000000E+02  1.80000000E+02  0.00000000E+00
  6.00000000E+02  1.60000000E+02  0.00000000E+00
  6.00000000E+02  1.40000000E+02  0.00000000E+00
  6.00000000E+02  1.20000000E+02  0.00000000E+00
  6.00000000E+02  1.00000000E+02  0.00000000E+00
  6.00000000E+02  8.00000000E+01  0.00000000E+00
  6.00000000E+02  6.00000000E+01  0.00000000E+00
  6.00000000E+02  4.00000000E+01  0.00000000E+00
  6.00000000E+02  2.00000000E+01  0.00000000E+00
  6.00000000E+02  4.99600361E-14  0.00000000E+00
CELLS       450      2250
         4           0           1          17          16
         4           1           2          18          17
         4           2           3          19          18
         4           3           4          20          19
         4           4           5          21          20
         4           5           6          22          21
         4           6           7          23          22
         4           7           8          24          23
         4           8           9          25          24
         4           9          10          26          25
         4          10          11          27          26
         4          11          12          28          27
         4          12          13          29          28
         4          13          14          30          29
         4          14          15          31          30
         4          16          17          33          32
         4          17          18          34          33
         4          18          19          35          34
         4          19          20          36          35
         4          20          21          37          36
         4          21          22          38          37
         4          22          23          39          38
         4          23          24          40          39
         4          24          25          41          40
         4          25          26          42          41
         4          26          27          43          42
         4          27          28          44          43
         4          28          29          45          44
         4          29          30          46          45
         4          30          31          47          46
         4          32          33          49          48
         4          33          34          50          49
         4          34          35          51          50
         4          35          36          52          51
         4          36          37          53          52
         4          37          38          54          53
         4          38          39          55          54
         4          39          40          56          55
         4          40          41          57          56
         4          41          42          58          57
         4          42          43          59          58
         4          43          44          60          59
         4          44          45          61          60
         4          45          46          62          61
         4          46          47          63          62
         4          48          49          65          64
         4          49          50          66          65
         4          50          51          67          66
         4          51          52          68          67
         4          52          53          69          68
         4          53          54          70          69
         4          54          55          71          70
         4          55          56          72          71
         4          56          57          73          72
         4          57          58          74          73
         4          58          59          75          74
         4          59          60          76          75
         4          60          61          77          76
         4          61          62          78          77
         4          62          63          79          78
         4          64          65          81          80
         4          65          66          82          81
         4          66          67          83          82
         4          67          68          84          83
         4          68          69          85          84
         4          69          70          86          85
         4          70          71          87          86
         4          71          72          88          87
         4          72          73          89          88
         4          73          74          90          89
         4          74          75          91          90
         4          75          76          92          91
         4          76          77          93          92
         4          77          78          94          93
         4          78          79          95          94
         4          80          81          97          96
         4          81          82          98          97
         4          82          83          99          98
         4          83          84         100          99
         4          84          85         101         100
         4          85          86         102         101
         4          86          87         103         102
         4          87          88         104         103
         4          88          89         105         104
         4          89          90         106         105
         4          90          91         107         106
         4          91          92         108         107
         4          92          93         109         108
         4          93          94         110         109
         4          94          95         111         110
         4          96          97         113         112
         4          97          98         114         113
         4          98          99         115         114
         4          99         100         116         115
         4         100         101         117         116
         4         101         102         118         117
         4         102         103         119         118
         4         103         104         120         119
         4         104         105         121         120
         4         105         106         122         121
         4         106         107         123         122
         4         107         108         124         123
         4         108         109         125         124
         4         109         110         126         125
         4         110         111         127         126
         4         112         113         129         128
         4         113         114         130         129
         4         114         115         131         130
         4         115         116         132         131
         4         116         117         133         132
         4         117         118         134         133
         4         118         119         135         134
         4         119         120         136         135
         4         120         121         137         136
         4         121         122         138         137
         4         122         123         139         138
         4         123         124         140         139
         4         124         125         141         140
         4         125         126         142         141
         4         126         127         143         142
         4         128         129         145         144
         4         129         130         146         145
         4         130         131         147         146
         4         131         132         148         147
         4         132         133         149         148
         4         133         134         150         149
         4         134         135         151         150
         4         135         136         152         151
         4         136         137         153         152
         4         137         138         154         153
         4         138         139         155         154
         4         139         140         156         155
         4         140         141         157         156
         4         141         142         158         157
         4         142         143         159         158
         4         144         145         161         160
         4         145         146         162         161
         4         146         147         163         162
         4         147         148         164         163
         4         148         149         165         164
         4         149         150         166         165
         4         150         151         167         166
         4         151         152         168         167
         4         152         153         169         168
         4         153         154         170         169
         4         154         155         171         170
         4         155         156         172         171
         4         156         157         173         172
         4         157         158         174         173
         4         158         159         175         174
         4         160         161         177         176
         4         161         162         178         177
         4         162         163         179         178
         4         163         164         180         179
         4         164         165         181         180
         4         165         166         182         181
         4         166         167         183         182
         4         167         168         184         183
         4         168         169         185         184
         4         169         170         186         185
         4         170         171         187         186
         4         171         172         188         187
         4         172         173         189         188
         4         173         174         190         189
         4         174         175         191         190
         4         176         177         193         192
         4         177         178         194         193
         4         178         179         195         194
         4         179         180         196         195
         4         180         181         197         196
         4         181         182         198         197
         4         182         183         199         198
         4         183         184         200         199
         4         184         185         201         200
         4         185         186         202         201
         4         186         187         203         202
         4         187         188         204         203
         4         188         189         205         204
         4         189         190         206         205
         4         190         191         207         206
         4         192         193         209         208
         4         193         194         210         209
         4         194         195         211         210
         4         195         196         212         211
         4         196         197         213         212
         4         197         198         214         213
         4         198         199         215         214
         4         199         200         216         215
         4         200         201         217         216
         4         201         202         218         217
         4         202         203         219         218
         4         203         204         220         219
         4         204         205         221         220
         4         205         206         222         221
         4         206         207         223         222
         4         208         209         225         224
         4         209         210         226         225
         4         210         211         227         226
         4         211         212         228         227
         4         212         213         229         228
         4         213         214         230         229
         4         214         215         231         230
         4         215         216         232         231
         4         216         217         233         232
         4         217         218         234         233
         4         218         219         235         234
         4         219         220         236         235
         4         220         221         237         236
         4         221         222         238         237
         4         222         223         239         238
         4         224         225         241         240
         4         225         226         242         241
         4         226         227         243         242
         4         227         228         244         243
         4         228         229         245         244
         4         229         230         246         245
         4         230         231         247         246
         4         231         232         248         247
         4         232         233         249         248
         4         233         234         250         249
         4         234         235         251         250
         4         235         236         252         251
         4         236         237         253         252
         4         237         238         254         253
         4         238         239         255         254
         4         240         241         257         256
         4         241         242         258         257
         4         242         243         259         258
         4         243         244         260         259
         4         244         245         261         260
         4         245         246         262         261
         4         246         247         263         262
         4         247         248         264         263
         4         248         249         265         264
         4         249         250         266         265
         4         250         251         267         266
         4         251         252         268         267
         4         252         253         269         268
         4         253         254         270         269
         4         254         255         271         270
         4         256         257         273         272
         4         257         258         274         273
         4         258         259         275         274
         4         259         260         276         275
         4         260         261         277         276
         4         261         262         278         277
         4         262         263         279         278
         4         263         264         280         279
         4         264         265         281         280
         4         265         266         282         281
         4         266         267         283         282
         4         267         268         284         283
         4         268         269         285         284
         4         269         270         286         285
         4         270         271         287         286
         4         272         273         289         288
         4         273         274         290         289
         4         274         275         291         290
         4         275         276         292         291
         4         276         277         293         292
         4         277         278         294         293
         4         278         279         295         294
         4         279         280         296         295
         4         280         281         297         296
         4         281         282         298         297
         4         282         283         299         298
         4         283         284         300         299
         4         284         285         301         300
         4         285         286         302         301
         4         286         287         303         302
         4         288         289         305         304
         4         289         290         306         305
         4         290         291         307         306
         4         291         292         308         307
         4         292         293         309         308
         4         293         294         310         309
         4         294         295         311         310
         4         295         296         312         311
         4         296         297         313         312
         4         297         298         314         313
         4         298         299         315         314
         4         299         300         316         315
         4         300         301         317         316
         4         301         302         318         317
         4         302         303         319         318
         4         304         305         321         320
         4         305         306         322         321
         4         306         307         323         322
         4         307         308         324         323
         4         308         309         325         324
         4         309         310         326         325
         4         310         311         327         326
         4         311         312         328         327
         4         312         313         329         328
         4         313         314         330         329
         4         314         315         331         330
         4         315         316         332         331
         4         316         317         333         332
         4         317         318         334         333
         4         318         319         335         334
         4         320         321         337         336
         4         321         322         338         337
         4         322         323         339         338
         4         323         324         340         339
         4         324         325         341         340
         4         325         326         342         341
         4         326         327         343         342
         4         327         328         344         343
         4         328         329         345         344
         4         329         330         346         345
         4         330         331         347         346
         4         331         332         348         347
         4         332         333         349         348
         4         333         334         350         349
         4         334         335         351         350
         4         336         337         353         352
         4         337         338         354         353
         4         338         339         355         354
         4         339         340         356         355
         4         340         341         357         356
         4         341         342         358         357
         4         342         343         359         358
         4         343         344         360         359
         4         344         345         361         360
         4         345         346         362         361
         4         346         347         363         362
         4         347         348         364         363
         4         348         349         365         364
         4         349         350         366         365
         4         350         351         367         366
         4         352         353         369         368
         4         353         354         370         369
         4         354         355         371         370
         4         355         356         372         371
         4         356         357         373         372
         4         357         358         374         373
         4         358         359         375         374
         4         359         360         376         375
         4         360         361         377         376
         4         361         362         378         377
         4         362         363         379         378
         4         363         364         380         379
         4         364         365         381         380
         4         365         366         382         381
         4         366         367         383         382
         4         368         369         385         384
         4         369         370         386         385
         4         370         371         387         386
         4         371         372         388         387
         4         372         373         389         388
         4         373         374         390         389
         4         374         375         391         390
         4         375         376         392         391
         4         376         377         393         392
         4         377         378         394         393
         4         378         379         395         394
         4         379         380         396         395
         4         380         381         397         396
         4         381         382         398         397
         4         382         383         399         398
         4         384         385         401         400
         4         385         386         402         401
         4         386         387         403         402
         4         387         388         404         403
         4         388         389         405         404
         4         389         390         406         405
         4         390         391         407         406
         4         391         392         408         407
         4         392         393         409         408
         4         393         394         410         409
         4         394         395         411         410
         4         395         396         412         411
         4         396         397         413         412
         4         397         398         414         413
         4         398         399         415         414
         4         400         401         417         416
         4         401         402         418         417
         4         402         403         419         418
         4         403         404         420         419
         4         404         405         421         420
         4         405         406         422         421
         4         406         407         423         422
         4         407         408         424         423
         4         408         409         425         424
         4         409         410         426         425
         4         410         411         427         426
         4         411         412         428         427
         4         412         413         429         428
         4         413         414         430         429
         4         414         415         431         430
         4         416         417         433         432
         4         417         418         434         433
         4         418         419         435         434
         4         419         420         436         435
         4         420         421         437         436
         4         421         422         438         437
         4         422         423         439         438
         4         423         424         440         439
         4         424         425         441         440
         4         425         426         442         441
         4         426         427         443         442
         4         427         428         444         443
         4         428         429         445         444
         4         429         430         446         445
         4         430         431         447         446
         4         432         433         449         448
         4         433         434         450         449
         4         434         435         451         450
         4         435         436         452         451
         4         436         437         453         452
         4         437         438         454         453
         4         438         439         455         454
         4         439         440         456         455
         4         440         441         457         456
         4         441         442         458         457
         4         442         443         459         458
         4         443         444         460         459
         4         444         445         461         460
         4         445         446         462         461
         4         446         447         463         462
         4         448         449         465         464
         4         449         450         466         465
         4         450         451         467         466
         4         451         452         468         467
         4         452         453         469         468
         4         453         454         470         469
         4         454         455         471         470
         4         455         456         472         471
         4         456         457         473         472
         4         457         458         474         473
         4         458         459         475         474
         4         459         460         476         475
         4         460         461         477         476
         4         461         462         478         477
         4         462         463         479         478
         4         464         465         481         480
         4         465         466         482         481
         4         466         467         483         482
         4         467         468         484         483
         4         468         469         485         484
         4         469         470         486         485
         4         470         471         487         486
         4         471         472         488         487
         4         472         473         489         488
         4         473         474         490         489
         4         474         475         491         490
         4         475         476         492         491
         4         476         477         493         492
         4         477         478         494         493
         4         478         479         495         494
CELL_TYPES        450
9
9
9
9
9
9
9
9
9
9
9
9
9
9
9
9
9
9
9
9
9
9
9
9
9
9
9
9
9
9
9
9
9
9
9
9
9
9
9
9
9
9
9
9
9
9
9
9
9
9
9
9
9
9
9
9
9
9
9
9
9
9
9
9
9
9
9
9
9
9
9
9
9
9
9
9
9
9
9
9
9
9
9
9
9
9
9
9
9
9
9
9
9
9
9
9
9
9
9
9
9
9
9
9
9
9
9
9
9
9
9
9
9
9
9
9
9
9
9
9
9
9
9
9
9
9
9
9
9
9
9
9
9
9
9
9
9
9
9
9
9
9
9
9
9
9
9
9
9
9
9
9
9
9
9
9
9
9
9
9
9
9
9
9
9
9
9
9
9
9
9
9
9
9
9
9
9
9
9
9
9
9
9
9
9
9
9
9
9
9
9
9
9
9
9
9
9
9
9
9
9
9
9
9
9
9
9
9
9
9
9
9
9
9
9
9
9
9
9
9
9
9
9
9
9
9
9
9
9
9
9
9
9
9
9
9
9
9
9
9
9
9
9
9
9
9
9
9
9
9
9
9
9
9
9
9
9
9
9
9
9
9
9
9
9
9
9
9
9
9
9
9
9
9
9
9
9
9
9
9
9
9
9
9
9
9
9
9
9
9
9
9
9
9
9
9
9
9
9
9
9
9
9
9
9
9
9
9
9
9
9
9
9
9
9
9
9
9
9
9
9
9
9
9
9
9
9
9
9
9
9
9
9
9
9
9
9
9
9
9
9
9
9
9
9
9
9
9
9
9
9
9
9
9
9
9
9
9
9
9
9
9
9
9
9
9
9
9
9
9
9
9
9
9
9
9
9
9
9
9
9
9
9
9
9
9
9
9
9
9
9
9
9
9
9
9
9
9
9
9
9
9
9
9
9
9
9
9
9
9
9
9
9
9
9
9
9
9
9
9
9
9
9
9
9
9
9
9
9
9
9
9
9
9
9
9
9
9
9
9
9
9
9
9
9
9
9
9
9
9
POINT_DATA       496
SCALARS p double 
LOOKUP_TABLE default
   90000000.0000000     
   90000000.0000000     
   90000000.0000000     
   90000000.0000000     
   90000000.0000000     
   90000000.0000000     
   90000000.0000000     
   90000000.0000000     
   90000000.0000000     
   90000000.0000000     
   90000000.0000000     
   90000000.0000000     
   90000000.0000000     
   90000000.0000000     
   90000000.0000000     
   90000000.0000000     
   79754712.5205563     
   79832371.8281193     
   79950119.9983307     
   80062908.1460628     
   80162550.9346400     
   80249145.9370227     
   80324709.4275286     
   80391547.0462635     
   80451848.9063890     
   80507633.5886076     
   80560790.8260248     
   80613122.7224303     
   80666281.8715785     
   80721319.4376784     
   80776795.5036480     
   80821379.8420559     
   72690304.6303031     
   72744081.4905488     
   72860340.2185982     
   72992992.2335880     
   73122453.7150655     
   73242125.7467816     
   73350817.1982580     
   73449414.6997630     
   73539539.8031905     
   73622991.8447668     
   73701476.5736177     
   73776359.3371703     
   73848192.2737134     
   73915527.4334285     
   73972221.1579494     
   73997666.8256372     
   67740118.0424460     
   67767469.0972551     
   67844449.7295835     
   67949958.2198822     
   68065596.2863595     
   68181030.9908205     
   68291377.0357003     
   68394791.0537046     
   68490937.6978735     
   68580103.2173966     
   68662622.0432263     
   68738369.3124194     
   68806100.3657994     
   68862492.5790917     
   68900553.9627494     
   68912097.8815304     
   64207369.6004428     
   64214382.7459380     
   64250316.8919602     
   64314288.1628634     
   64396107.4725099     
   64486318.4883553     
   64578418.2037186     
   64668410.0907495     
   64753925.5454972     
   64833440.5732180     
   64905649.0915718     
   64968926.4959957     
   65020860.5231719     
   65057969.4248789     
   65076681.3656845     
   65077950.9109373     
   61618603.1068702     
   61611556.5653044     
   61614102.8685097     
   61637940.3919101     
   61681155.6908830     
   61737700.8914561     
   61801520.4470867     
   61867733.7432011     
   61932619.9533280     
   61993236.5549822     
   62046985.9714348     
   62091265.4067905     
   62123339.4323556     
   62140810.8123505     
   62143503.6289154     
   62137954.5941922     
   59649325.5394621     
   59633105.3951403     
   59611086.9045047     
   59601713.3243374     
   59609286.3452092     
   59631584.1816165     
   59664183.0720313     
   59702433.8870051     
   59742132.1679703     
   59779591.4146398     
   59811520.0413938     
   59834944.9153417     
   59847418.4224081     
   59847860.0874746     
   59838546.1081944     
   59828758.9162063     
   58075628.0818842     
   58053733.5704334     
   58014709.1315003     
   57979985.4723082     
   57957894.6598859     
   57949474.5302177     
   57952296.5543295     
   57962633.9952331     
   57976517.0803552     
   57990168.9224011     
   58000181.9548232     
   58003699.6358521     
   57998844.7826758     
   57985665.8729930     
   57967891.5398765     
   57955693.8977948     
   56741890.5286509     
   56716732.1876532     
   56666544.9985132     
   56613518.9528953     
   56568298.2633854     
   56534348.7568162     
   56511125.9195836     
   56496121.3493057     
   56486059.4759351     
   56477557.3312316     
   56467523.5262137     
   56453526.3782469     
   56434335.1383037     
   56410825.4076069     
   56387406.6732971     
   56374034.8425848     
   55538973.5492823     
   55512174.5706437     
   55455125.1765043     
   55389538.6056100     
   55327175.7832301     
   55273154.7087435     
   55228503.1282704     
   55191960.6906227     
   55161165.0871601     
   55133412.6914865     
   55106188.0177722     
   55077638.3258976     
   55047147.7731228     
   55016139.0754429     
   54989185.7295312     
   54975439.6507583     
   54389442.0199553     
   54362078.6662461     
   54301247.7538715     
   54227555.8671519     
   54153107.1006322     
   54084053.4677902     
   54022638.9233477     
   53968734.3678812     
   53920934.6093668     
   53877332.8268668     
   53836102.7226438     
   53796013.4439053     
   53756985.9234339     
   53720772.7497437     
   53691802.6761363     
   53678171.6138613     
   53237557.0236814     
   53210334.6490520     
   53147895.1844387     
   53069462.8707657     
   52987011.7609713     
   52907272.6679218     
   52833377.4572379     
   52766147.6667275     
   52705070.8566155     
   52649036.4625283     
   52596916.2036189     
   52548073.3526731     
   52502873.2325751     
   52463245.2435727     
   52433313.9297391     
   52420073.2044880     
   52042521.2106389     
   52015898.2432318     
   51953371.8835294     
   51872705.7362759     
   51785469.6377711     
   51698652.4580405     
   51615998.1393028     
   51539083.1465790     
   51468167.2259044     
   51402864.2054522     
   51342688.0221598     
   51287528.9123180     
   51238105.8443824     
   51196424.2639576     
   51166243.5135372     
   51153527.0408853     
   50773952.0080997     
   50748225.7968426     
   50686679.8715634     
   50605641.5042231     
   50516126.9838067     
   50425162.3337534     
   50336882.0800780     
   50253431.8323102     
   50175701.5265295     
   50103921.7084832     
   50038158.9997771     
   49978745.8512359     
   49926672.8176144     
   49883958.8504866     
   49853997.0243634     
   49841850.8181813     
   49408883.9997406     
   49384249.9744110     
   49324444.0675220     
   49244428.0200058     
   49154589.1716158     
   49061839.1545748     
   48970528.6016630     
   48883207.0172500     
   48801251.8306054     
   48725390.5689609     
   48656140.4460492     
   48594187.7075867     
   48540723.5188789     
   48497743.7074207     
   48468306.6256716     
   48456727.6219064     
   47929821.7174061     
   47906414.1951499     
   47848907.3151577     
   47770981.9623037     
   47682361.4819265     
   47589737.2938055     
   47497538.9340508     
   47408577.8038681     
   47324586.3863292     
   47246671.6905289     
   47175699.9778609     
   47112627.2558416     
   47058785.4119826     
   47016126.7986749     
   46987420.7357737     
   46976384.3426162     
   46323512.4191654     
   46301432.6994298     
   46246660.3621534     
   46171675.3434611     
   46085520.8384441     
   45994590.8953448     
   45903284.8993271     
   45814556.3325465     
   45730375.4160675     
   45652121.0656434     
   45580914.8784146     
   45517907.0471929     
   45464520.2358565     
   45422652.1618180     
   45394830.9813531     
   45384309.9433165     
   44580208.3777454     
   44559543.7449639     
   44507871.8575218     
   44436536.5082849     
   44353890.2196709     
   44265969.5380779     
   44177055.4374080     
   44090143.3778822     
   44007340.5773970     
   43930203.7289839     
   43860027.3728624     
   43798090.3466919     
   43745864.5143071     
   43705186.0063949     
   43678384.5156290     
   43668361.0461530     
   42693255.3140043     
   42674091.1658118     
   42625851.4257452     
   42558788.1729531     
   42480550.6914364     
   42396767.5345269     
   42311528.4967216     
   42227788.0566261     
   42147706.0590208     
   42072937.4366449     
   42004879.8310467     
   41944885.3963597     
   41894440.4093482     
   41855313.3456028     
   41829668.8251807     
   41820141.4958599     
   40658888.3897762     
   40641314.7961309     
   40596824.6918828     
   40534600.5434629     
   40461570.0406282     
   40382908.8019202     
   40302454.8436079     
   40223053.8120472     
   40146849.3733840     
   40075529.6938888     
   40010538.2446530     
   39953254.8707806     
   39905150.9064812     
   39867919.9440567     
   39843583.6778649     
   39834570.2204942     
   38476146.7454159     
   38460260.1831720     
   38419829.5927966     
   38362968.1560623     
   38295857.0657317     
   38223178.1645397     
   38148467.7133817     
   38074408.5182927     
   38003073.9484358     
   37936134.3201084     
   37875033.6501236     
   37821142.7719328     
   37775893.1136116     
   37740893.9363409     
   37718034.4858235     
   37709571.4382997     
   36146836.7236315     
   36132737.4032027     
   36096663.1312403     
   36045639.1979636     
   35985070.6433540     
   35919109.5651549     
   35850951.0855744     
   35783074.4665681     
   35717442.5483780     
   35655669.7341983     
   35599166.3717729     
   35549265.6280597     
   35507337.7351276     
   35474895.6537800     
   35453695.6090337     
   35445835.5963664     
   33675485.8073012     
   33663270.8160031     
   33631820.0636156     
   33587038.7358766     
   33533525.5805425     
   33474874.5797174     
   33413912.0985742     
   33352886.3766057     
   33293622.4887011     
   33237652.6160764     
   33186329.0221817     
   33140925.6212655     
   33102733.3798667     
   33073154.7721146     
   33053802.7731298     
   33046610.1438530     
   31069235.8306409     
   31058988.1796313     
   31032371.8143894     
   30994134.4627545     
   30948044.9029875     
   30897122.6822253     
   30843811.4501588     
   30790114.0283971     
   30737702.0548676     
   30688008.9655085     
   30642312.4655603     
   30601811.4600885     
   30567702.5198165     
   30541262.0739152     
   30523942.0239099     
   30517487.5463314     
   28337626.1214973     
   28329399.6238323     
   28307736.1678093     
   28276196.3700730     
   28237711.8236000     
   28194729.1370640     
   28149310.7596351     
   28103211.7349397     
   28057943.4842138     
   28014830.7483075     
   27975065.2848385     
   27939759.2714846     
   27910002.4524197     
   27886929.7038740     
   27871809.2761211     
   27866164.6264280     
   25492214.9101502     
   25486014.5604404     
   25469286.1504018     
   25444400.6040874     
   25413474.8942342     
   25378408.0407187     
   25340898.6037752     
   25302460.3654898     
   25264441.8683203     
   25228050.7350452     
   25194382.1104989     
   25164450.9746706     
   25139230.0320489     
   25119699.2785750     
   25106920.0106700     
   25102152.8436724     
   22545979.7188188     
   22541736.7525571     
   22529739.4381599     
   22511222.7448076     
   22487557.3062541     
   22460147.5562733     
   22430357.8245830     
   22399469.2868521     
   22368661.4525733     
   22339010.6802378     
   22311499.3860615     
   22287031.5827680     
   22266453.5306453     
   22250581.9065352     
   22240253.2829268     
   22236423.7379293     
   19512422.4636982     
   19509962.7274528     
   19502256.7197386     
   19489557.2889969     
   19472616.8099821     
   19452422.4906822     
   19430036.0577750     
   19406505.3037432     
   19382820.5236689     
   19359897.9220911     
   19338577.7190570     
   19319629.3395616     
   19303758.8439189     
   19291618.6324896     
   19283817.9570913     
   19280977.5975745     
   16404282.1403059     
   16403283.5006550     
   16399160.2286351     
   16391489.9656764     
   16380597.8369527     
   16367136.7785232     
   16351879.2021893     
   16335612.6651904     
   16319092.1685674     
   16303021.0446457     
   16288046.3291151     
   16274760.2581620     
   16263702.2302277     
   16255354.2590876     
   16250133.4006869     
   16248324.6759971     
   13231713.2682816     
   13231671.9297320     
   13230164.8558159     
   13226641.6428788     
   13221213.9357956     
   13214245.6555216     
   13206182.2889068     
   13197480.6628515     
   13188578.6828283     
   13179884.2132130     
   13171772.9978291     
   13164590.3880703     
   13158653.1276871     
   13154247.2844367     
   13151605.3329687     
   13150882.6989153     
   10000000.0000000     
   10000000.0000000     
   10000000.0000000     
   10000000.0000000     
   10000000.0000000     
   10000000.0000000     
   10000000.0000000     
   10000000.0000000     
   10000000.0000000     
   10000000.0000000     
   10000000.0000000     
   10000000.0000000     
   10000000.0000000     
  10000000.00000000     
   10000000.0000000     
   10000000.0000000     
VECTORS u double 
    0.00000E+00         0.10923E-01         0.00000E+00
    0.00000E+00         0.98090E-02         0.00000E+00
    0.00000E+00         0.88251E-02         0.00000E+00
    0.00000E+00         0.79800E-02         0.00000E+00
    0.00000E+00         0.72392E-02         0.00000E+00
    0.00000E+00         0.65781E-02         0.00000E+00
    0.00000E+00         0.59759E-02         0.00000E+00
    0.00000E+00         0.54154E-02         0.00000E+00
    0.00000E+00         0.48812E-02         0.00000E+00
    0.00000E+00         0.43583E-02         0.00000E+00
    0.00000E+00         0.38315E-02         0.00000E+00
    0.00000E+00         0.32830E-02         0.00000E+00
    0.00000E+00         0.26896E-02         0.00000E+00
    0.00000E+00         0.20152E-02         0.00000E+00
    0.00000E+00         0.11941E-02         0.00000E+00
    0.00000E+00         0.00000E+00         0.00000E+00
    0.41081E-02         0.99697E-02         0.00000E+00
    0.32404E-02         0.92514E-02         0.00000E+00
    0.28867E-02         0.84536E-02         0.00000E+00
    0.26718E-02         0.77056E-02         0.00000E+00
    0.25176E-02         0.70256E-02         0.00000E+00
    0.23925E-02         0.64055E-02         0.00000E+00
    0.22818E-02         0.58327E-02         0.00000E+00
    0.21769E-02         0.52941E-02         0.00000E+00
    0.20718E-02         0.47763E-02         0.00000E+00
    0.19608E-02         0.42661E-02         0.00000E+00
    0.18376E-02         0.37486E-02         0.00000E+00
    0.16924E-02         0.32064E-02         0.00000E+00
    0.15093E-02         0.26158E-02         0.00000E+00
    0.12557E-02         0.19409E-02         0.00000E+00
    0.85755E-03         0.11134E-02         0.00000E+00
    0.00000E+00         0.00000E+00         0.00000E+00
    0.72683E-02         0.82676E-02         0.00000E+00
    0.59170E-02         0.79161E-02         0.00000E+00
    0.51945E-02         0.74548E-02         0.00000E+00
    0.47506E-02         0.69350E-02         0.00000E+00
    0.44316E-02         0.64110E-02         0.00000E+00
    0.41755E-02         0.59020E-02         0.00000E+00
    0.39510E-02         0.54113E-02         0.00000E+00
    0.37402E-02         0.49350E-02         0.00000E+00
    0.35303E-02         0.44655E-02         0.00000E+00
    0.33099E-02         0.39929E-02         0.00000E+00
    0.30662E-02         0.35043E-02         0.00000E+00
    0.27810E-02         0.29835E-02         0.00000E+00
    0.24247E-02         0.24078E-02         0.00000E+00
    0.19427E-02         0.17447E-02         0.00000E+00
    0.12133E-02         0.94636E-03         0.00000E+00
    0.00000E+00         0.00000E+00         0.00000E+00
    0.96967E-02         0.63576E-02         0.00000E+00
    0.81282E-02         0.62605E-02         0.00000E+00
    0.71229E-02         0.60770E-02         0.00000E+00
    0.64482E-02         0.58046E-02         0.00000E+00
    0.59527E-02         0.54756E-02         0.00000E+00
    0.55541E-02         0.51177E-02         0.00000E+00
    0.52074E-02         0.47451E-02         0.00000E+00
    0.48848E-02         0.43623E-02         0.00000E+00
    0.45668E-02         0.39680E-02         0.00000E+00
    0.42361E-02         0.35565E-02         0.00000E+00
    0.38739E-02         0.31181E-02         0.00000E+00
    0.34555E-02         0.26394E-02         0.00000E+00
    0.29432E-02         0.21026E-02         0.00000E+00
    0.22738E-02         0.14861E-02         0.00000E+00
    0.13423E-02         0.77738E-03         0.00000E+00
    0.00000E+00         0.00000E+00         0.00000E+00
    0.11607E-01         0.44177E-02         0.00000E+00
    0.99518E-02         0.45003E-02         0.00000E+00
    0.87568E-02         0.45213E-02         0.00000E+00
    0.78828E-02         0.44568E-02         0.00000E+00
    0.72126E-02         0.43166E-02         0.00000E+00
    0.66652E-02         0.41200E-02         0.00000E+00
    0.61888E-02         0.38823E-02         0.00000E+00
    0.57485E-02         0.36126E-02         0.00000E+00
    0.53186E-02         0.33139E-02         0.00000E+00
    0.48765E-02         0.29841E-02         0.00000E+00
    0.43989E-02         0.26176E-02         0.00000E+00
    0.38571E-02         0.22055E-02         0.00000E+00
    0.32116E-02         0.17370E-02         0.00000E+00
    0.24061E-02         0.12047E-02         0.00000E+00
    0.13642E-02         0.61405E-03         0.00000E+00
    0.00000E+00         0.00000E+00         0.00000E+00
    0.13149E-01         0.25127E-02         0.00000E+00
    0.11469E-01         0.27263E-02         0.00000E+00
    0.10150E-01         0.28970E-02         0.00000E+00
    0.91169E-02         0.29959E-02         0.00000E+00
    0.82878E-02         0.30189E-02         0.00000E+00
    0.75947E-02         0.29747E-02         0.00000E+00
    0.69867E-02         0.28744E-02         0.00000E+00
    0.64258E-02         0.27269E-02         0.00000E+00
    0.58822E-02         0.25372E-02         0.00000E+00
    0.53296E-02         0.23061E-02         0.00000E+00
    0.47419E-02         0.20315E-02         0.00000E+00
    0.40891E-02         0.17095E-02         0.00000E+00
    0.33351E-02         0.13365E-02         0.00000E+00
    0.24350E-02         0.91446E-03         0.00000E+00
    0.13383E-02         0.45749E-03         0.00000E+00
    0.00000E+00         0.00000E+00         0.00000E+00
    0.14429E-01         0.65907E-03         0.00000E+00
    0.12746E-01         0.97307E-03         0.00000E+00
    0.11346E-01         0.12571E-02         0.00000E+00
    0.10189E-01         0.14840E-02         0.00000E+00
    0.92224E-02         0.16431E-02         0.00000E+00
    0.83942E-02         0.17354E-02         0.00000E+00
    0.76590E-02         0.17667E-02         0.00000E+00
    0.69795E-02         0.17435E-02         0.00000E+00
    0.63241E-02         0.16708E-02         0.00000E+00
    0.56649E-02         0.15510E-02         0.00000E+00
    0.49745E-02         0.13848E-02         0.00000E+00
    0.42242E-02         0.11723E-02         0.00000E+00
    0.33828E-02         0.91537E-03         0.00000E+00
    0.24172E-02         0.62105E-03         0.00000E+00
    0.12961E-02         0.30602E-03         0.00000E+00
    0.00000E+00         0.00000E+00         0.00000E+00
    0.15516E-01        -0.11472E-02         0.00000E+00
    0.13837E-01        -0.75123E-03         0.00000E+00
    0.12379E-01        -0.37674E-03         0.00000E+00
    0.11125E-01        -0.46495E-04         0.00000E+00
    0.10043E-01         0.22708E-03         0.00000E+00
    0.90945E-02         0.44025E-03         0.00000E+00
    0.82415E-02         0.59463E-03         0.00000E+00
    0.74498E-02         0.69399E-03         0.00000E+00
    0.66884E-02         0.74219E-03         0.00000E+00
    0.59292E-02         0.74231E-03         0.00000E+00
    0.51453E-02         0.69677E-03         0.00000E+00
    0.43103E-02         0.60830E-03         0.00000E+00
    0.33984E-02         0.48172E-03         0.00000E+00
    0.23856E-02         0.32624E-03         0.00000E+00
    0.12544E-02         0.15778E-03         0.00000E+00
    0.00000E+00         0.00000E+00         0.00000E+00
    0.16458E-01        -0.29190E-02         0.00000E+00
    0.14780E-01        -0.24513E-02         0.00000E+00
    0.13276E-01        -0.19996E-02         0.00000E+00
    0.11945E-01        -0.15815E-02         0.00000E+00
    0.10766E-01        -0.12087E-02         0.00000E+00
    0.97136E-02        -0.88695E-03         0.00000E+00
    0.87555E-02        -0.61735E-03         0.00000E+00
    0.78616E-02        -0.39844E-03         0.00000E+00
    0.70031E-02        -0.22763E-03         0.00000E+00
    0.61529E-02        -0.10204E-03         0.00000E+00
    0.52857E-02        -0.18548E-04         0.00000E+00
    0.43776E-02         0.26832E-04         0.00000E+00
    0.34075E-02         0.40044E-04         0.00000E+00
    0.23585E-02         0.30304E-04         0.00000E+00
    0.12215E-02         0.11087E-04         0.00000E+00
    0.00000E+00         0.00000E+00         0.00000E+00
    0.17286E-01        -0.46723E-02         0.00000E+00
    0.15601E-01        -0.41375E-02         0.00000E+00
    0.14058E-01        -0.36152E-02         0.00000E+00
    0.12663E-01        -0.31179E-02         0.00000E+00
    0.11404E-01        -0.26552E-02         0.00000E+00
    0.10262E-01        -0.22332E-02         0.00000E+00
    0.92130E-02        -0.18542E-02         0.00000E+00
    0.82292E-02        -0.15185E-02         0.00000E+00
    0.72847E-02        -0.12245E-02         0.00000E+00
    0.63541E-02        -0.97004E-03         0.00000E+00
    0.54141E-02        -0.75205E-03         0.00000E+00
    0.44434E-02        -0.56643E-03         0.00000E+00
    0.34244E-02        -0.40747E-03         0.00000E+00
    0.23450E-02        -0.26724E-03         0.00000E+00
    0.12010E-02        -0.13542E-03         0.00000E+00
    0.00000E+00         0.00000E+00         0.00000E+00
    0.18019E-01        -0.64237E-02         0.00000E+00
    0.16318E-01        -0.58227E-02         0.00000E+00
    0.14738E-01        -0.52319E-02         0.00000E+00
    0.13288E-01        -0.46590E-02         0.00000E+00
    0.11962E-01        -0.41111E-02         0.00000E+00
    0.10747E-01        -0.35932E-02         0.00000E+00
    0.96202E-02        -0.31083E-02         0.00000E+00
    0.85599E-02        -0.26574E-02         0.00000E+00
    0.75417E-02        -0.22399E-02         0.00000E+00
    0.65423E-02        -0.18544E-02         0.00000E+00
    0.55402E-02        -0.14984E-02         0.00000E+00
    0.45162E-02        -0.11686E-02         0.00000E+00
    0.34554E-02        -0.86011E-03         0.00000E+00
    0.23485E-02        -0.56719E-03         0.00000E+00
    0.11938E-02        -0.28284E-03         0.00000E+00
    0.00000E+00         0.00000E+00         0.00000E+00
    0.18668E-01        -0.81888E-02         0.00000E+00
    0.16940E-01        -0.75200E-02         0.00000E+00
    0.15324E-01        -0.68596E-02         0.00000E+00
    0.13826E-01        -0.62112E-02         0.00000E+00
    0.12446E-01        -0.55790E-02         0.00000E+00
    0.11169E-01        -0.49668E-02         0.00000E+00
    0.99795E-02        -0.43772E-02         0.00000E+00
    0.88562E-02        -0.38115E-02         0.00000E+00
    0.77773E-02        -0.32699E-02         0.00000E+00
    0.67210E-02        -0.27517E-02         0.00000E+00
    0.56673E-02        -0.22553E-02         0.00000E+00
    0.45988E-02        -0.17785E-02         0.00000E+00
    0.35020E-02        -0.13181E-02         0.00000E+00
    0.23691E-02        -0.87055E-03         0.00000E+00
    0.11991E-02        -0.43211E-03         0.00000E+00
    0.00000E+00         0.00000E+00         0.00000E+00
    0.19236E-01        -0.99817E-02         0.00000E+00
    0.17473E-01        -0.92417E-02         0.00000E+00
    0.15819E-01        -0.85086E-02         0.00000E+00
    0.14280E-01        -0.77823E-02         0.00000E+00
    0.12854E-01        -0.70643E-02         0.00000E+00
    0.11529E-01        -0.63568E-02         0.00000E+00
    0.10290E-01        -0.56617E-02         0.00000E+00
    0.91176E-02        -0.49803E-02         0.00000E+00
    0.79910E-02        -0.43134E-02         0.00000E+00
    0.68899E-02        -0.36609E-02         0.00000E+00
    0.57951E-02        -0.30222E-02         0.00000E+00
    0.46903E-02        -0.23965E-02         0.00000E+00
    0.35627E-02        -0.17823E-02         0.00000E+00
    0.24047E-02        -0.11784E-02         0.00000E+00
    0.12151E-02        -0.58399E-03         0.00000E+00
    0.00000E+00         0.00000E+00         0.00000E+00
    0.19720E-01        -0.11815E-01         0.00000E+00
    0.17916E-01        -0.10999E-01         0.00000E+00
    0.16224E-01        -0.10188E-01         0.00000E+00
    0.14649E-01        -0.93801E-02         0.00000E+00
    0.13186E-01        -0.85729E-02         0.00000E+00
    0.11825E-01        -0.77673E-02         0.00000E+00
    0.10550E-01        -0.69644E-02         0.00000E+00
    0.93411E-02        -0.61654E-02         0.00000E+00
    0.81799E-02        -0.53712E-02         0.00000E+00
    0.70458E-02        -0.45825E-02         0.00000E+00
    0.59204E-02        -0.37998E-02         0.00000E+00
    0.47873E-02        -0.30234E-02         0.00000E+00
    0.36340E-02        -0.22537E-02         0.00000E+00
    0.24523E-02        -0.14916E-02         0.00000E+00
    0.12398E-02        -0.73910E-03         0.00000E+00
    0.00000E+00         0.00000E+00         0.00000E+00
    0.20114E-01        -0.13698E-01         0.00000E+00
    0.18263E-01        -0.12800E-01         0.00000E+00
    0.16534E-01        -0.11907E-01         0.00000E+00
    0.14928E-01        -0.11011E-01         0.00000E+00
    0.13439E-01        -0.10110E-01         0.00000E+00
    0.12052E-01        -0.92025E-02         0.00000E+00
    0.10753E-01        -0.82884E-02         0.00000E+00
    0.95223E-02        -0.73688E-02         0.00000E+00
    0.83392E-02        -0.64448E-02         0.00000E+00
    0.71841E-02        -0.55178E-02         0.00000E+00
    0.60383E-02        -0.45892E-02         0.00000E+00
    0.48852E-02        -0.36604E-02         0.00000E+00
    0.37116E-02        -0.27334E-02         0.00000E+00
    0.25083E-02        -0.18112E-02         0.00000E+00
    0.12707E-02        -0.89792E-03         0.00000E+00
    0.00000E+00         0.00000E+00         0.00000E+00
    0.20408E-01        -0.15638E-01         0.00000E+00
    0.18507E-01        -0.14653E-01         0.00000E+00
    0.16743E-01        -0.13671E-01         0.00000E+00
    0.15113E-01        -0.12681E-01         0.00000E+00
    0.13606E-01        -0.11681E-01         0.00000E+00
    0.12206E-01        -0.10666E-01         0.00000E+00
    0.10896E-01        -0.96360E-02         0.00000E+00
    0.96554E-02        -0.85923E-02         0.00000E+00
    0.84633E-02        -0.75356E-02         0.00000E+00
    0.72990E-02        -0.64679E-02         0.00000E+00
    0.61431E-02        -0.53912E-02         0.00000E+00
    0.49785E-02        -0.43081E-02         0.00000E+00
    0.37905E-02        -0.32221E-02         0.00000E+00
    0.25685E-02        -0.21376E-02         0.00000E+00
    0.13057E-02        -0.10608E-02         0.00000E+00
    0.00000E+00         0.00000E+00         0.00000E+00
    0.20589E-01        -0.17639E-01         0.00000E+00
    0.18637E-01        -0.16561E-01         0.00000E+00
    0.16842E-01        -0.15483E-01         0.00000E+00
    0.15195E-01        -0.14393E-01         0.00000E+00
    0.13680E-01        -0.13287E-01         0.00000E+00
    0.12279E-01        -0.12159E-01         0.00000E+00
    0.10971E-01        -0.11009E-01         0.00000E+00
    0.97338E-02        -0.98367E-02         0.00000E+00
    0.85453E-02        -0.86441E-02         0.00000E+00
    0.73837E-02        -0.74329E-02         0.00000E+00
    0.62285E-02        -0.62061E-02         0.00000E+00
    0.50611E-02        -0.49669E-02         0.00000E+00
    0.38656E-02        -0.37200E-02         0.00000E+00
    0.26290E-02        -0.24710E-02         0.00000E+00
    0.13423E-02        -0.12277E-02         0.00000E+00
    0.00000E+00         0.00000E+00         0.00000E+00
    0.20639E-01        -0.19703E-01         0.00000E+00
    0.18639E-01        -0.18525E-01         0.00000E+00
    0.16820E-01        -0.17344E-01         0.00000E+00
    0.15165E-01        -0.16147E-01         0.00000E+00
    0.13654E-01        -0.14928E-01         0.00000E+00
    0.12264E-01        -0.13681E-01         0.00000E+00
    0.10971E-01        -0.12406E-01         0.00000E+00
    0.97501E-02        -0.11101E-01         0.00000E+00
    0.85781E-02        -0.97691E-02         0.00000E+00
    0.74312E-02        -0.84120E-02         0.00000E+00
    0.62875E-02        -0.70330E-02         0.00000E+00
    0.51269E-02        -0.56362E-02         0.00000E+00
    0.39314E-02        -0.42267E-02         0.00000E+00
    0.26858E-02        -0.28112E-02         0.00000E+00
    0.13782E-02        -0.13986E-02         0.00000E+00
    0.00000E+00         0.00000E+00         0.00000E+00
    0.20540E-01        -0.21827E-01         0.00000E+00
    0.18499E-01        -0.20542E-01         0.00000E+00
    0.16665E-01        -0.19251E-01         0.00000E+00
    0.15014E-01        -0.17940E-01         0.00000E+00
    0.13518E-01        -0.16602E-01         0.00000E+00
    0.12152E-01        -0.15230E-01         0.00000E+00
    0.10887E-01        -0.13823E-01         0.00000E+00
    0.96965E-02        -0.12382E-01         0.00000E+00
    0.85538E-02        -0.10908E-01         0.00000E+00
    0.74338E-02        -0.94024E-02         0.00000E+00
    0.63129E-02        -0.78698E-02         0.00000E+00
    0.51690E-02        -0.63141E-02         0.00000E+00
    0.39822E-02        -0.47409E-02         0.00000E+00
    0.27346E-02        -0.31574E-02         0.00000E+00
    0.14113E-02        -0.15731E-02         0.00000E+00
    0.00000E+00         0.00000E+00         0.00000E+00
    0.20273E-01        -0.24005E-01         0.00000E+00
    0.18200E-01        -0.22606E-01         0.00000E+00
    0.16363E-01        -0.21198E-01         0.00000E+00
    0.14728E-01        -0.19766E-01         0.00000E+00
    0.13263E-01        -0.18301E-01         0.00000E+00
    0.11935E-01        -0.16798E-01         0.00000E+00
    0.10712E-01        -0.15256E-01         0.00000E+00
    0.95646E-02        -0.13674E-01         0.00000E+00
    0.84641E-02        -0.12054E-01         0.00000E+00
    0.73834E-02        -0.10399E-01         0.00000E+00
    0.62968E-02        -0.87124E-02         0.00000E+00
    0.51805E-02        -0.69975E-02         0.00000E+00
    0.40121E-02        -0.52603E-02         0.00000E+00
    0.27711E-02        -0.35081E-02         0.00000E+00
    0.14390E-02        -0.17505E-02         0.00000E+00
    0.00000E+00         0.00000E+00         0.00000E+00
    0.19815E-01        -0.26224E-01         0.00000E+00
    0.17725E-01        -0.24706E-01         0.00000E+00
    0.15900E-01        -0.23174E-01         0.00000E+00
    0.14297E-01        -0.21613E-01         0.00000E+00
    0.12877E-01        -0.20016E-01         0.00000E+00
    0.11602E-01        -0.18376E-01         0.00000E+00
    0.10436E-01        -0.16693E-01         0.00000E+00
    0.93456E-02        -0.14968E-01         0.00000E+00
    0.83003E-02        -0.13201E-01         0.00000E+00
    0.72711E-02        -0.11396E-01         0.00000E+00
    0.62309E-02        -0.95549E-02         0.00000E+00
    0.51538E-02        -0.76818E-02         0.00000E+00
    0.40149E-02        -0.57816E-02         0.00000E+00
    0.27907E-02        -0.38612E-02         0.00000E+00
    0.14591E-02        -0.19298E-02         0.00000E+00
    0.00000E+00         0.00000E+00         0.00000E+00
    0.19144E-01        -0.28471E-01         0.00000E+00
    0.17056E-01        -0.26827E-01         0.00000E+00
    0.15261E-01        -0.25164E-01         0.00000E+00
    0.13709E-01        -0.23468E-01         0.00000E+00
    0.12352E-01        -0.21731E-01         0.00000E+00
    0.11145E-01        -0.19949E-01         0.00000E+00
    0.10050E-01        -0.18122E-01         0.00000E+00
    0.90303E-02        -0.16251E-01         0.00000E+00
    0.80529E-02        -0.14337E-01         0.00000E+00
    0.70877E-02        -0.12382E-01         0.00000E+00
    0.61060E-02        -0.10389E-01         0.00000E+00
    0.50803E-02        -0.83607E-02         0.00000E+00
    0.39832E-02        -0.63002E-02         0.00000E+00
    0.27880E-02        -0.42137E-02         0.00000E+00
    0.14686E-02        -0.21096E-02         0.00000E+00
    0.00000E+00         0.00000E+00         0.00000E+00
    0.18238E-01        -0.30723E-01         0.00000E+00
    0.16175E-01        -0.28948E-01         0.00000E+00
    0.14433E-01        -0.27147E-01         0.00000E+00
    0.12953E-01        -0.25309E-01         0.00000E+00
    0.11677E-01        -0.23427E-01         0.00000E+00
    0.10555E-01        -0.21499E-01         0.00000E+00
    0.95457E-02        -0.19525E-01         0.00000E+00
    0.86093E-02        -0.17507E-01         0.00000E+00
    0.77120E-02        -0.15447E-01         0.00000E+00
    0.68227E-02        -0.13346E-01         0.00000E+00
    0.59119E-02        -0.11205E-01         0.00000E+00
    0.49504E-02        -0.90261E-02         0.00000E+00
    0.39089E-02        -0.68104E-02         0.00000E+00
    0.27571E-02        -0.45622E-02         0.00000E+00
    0.14643E-02        -0.22884E-02         0.00000E+00
    0.00000E+00         0.00000E+00         0.00000E+00
    0.17072E-01        -0.32954E-01         0.00000E+00
    0.15064E-01        -0.31042E-01         0.00000E+00
    0.13403E-01        -0.29098E-01         0.00000E+00
    0.12017E-01        -0.27112E-01         0.00000E+00
    0.10843E-01        -0.25079E-01         0.00000E+00
    0.98235E-02        -0.23001E-01         0.00000E+00
    0.89132E-02        -0.20879E-01         0.00000E+00
    0.80723E-02        -0.18716E-01         0.00000E+00
    0.72664E-02        -0.16514E-01         0.00000E+00
    0.64644E-02        -0.14272E-01         0.00000E+00
    0.56366E-02        -0.11990E-01         0.00000E+00
    0.47530E-02        -0.96682E-02         0.00000E+00
    0.37823E-02        -0.73051E-02         0.00000E+00
    0.26908E-02        -0.49023E-02         0.00000E+00
    0.14424E-02        -0.24641E-02         0.00000E+00
    0.00000E+00         0.00000E+00         0.00000E+00
    0.15626E-01        -0.35131E-01         0.00000E+00
    0.13707E-01        -0.33077E-01         0.00000E+00
    0.12159E-01        -0.30984E-01         0.00000E+00
    0.10895E-01        -0.28844E-01         0.00000E+00
    0.98426E-02        -0.26657E-01         0.00000E+00
    0.89416E-02        -0.24428E-01         0.00000E+00
    0.81435E-02        -0.22159E-01         0.00000E+00
    0.74089E-02        -0.19855E-01         0.00000E+00
    0.67043E-02        -0.17516E-01         0.00000E+00
    0.59999E-02        -0.15141E-01         0.00000E+00
    0.52666E-02        -0.12729E-01         0.00000E+00
    0.44748E-02        -0.10275E-01         0.00000E+00
    0.35916E-02        -0.77760E-02         0.00000E+00
    0.25800E-02        -0.52288E-02         0.00000E+00
    0.13979E-02        -0.26346E-02         0.00000E+00
    0.00000E+00         0.00000E+00         0.00000E+00
    0.13878E-01        -0.37214E-01         0.00000E+00
    0.12091E-01        -0.35014E-01         0.00000E+00
    0.10692E-01        -0.32765E-01         0.00000E+00
    0.95788E-02        -0.30467E-01         0.00000E+00
    0.86700E-02        -0.28124E-01         0.00000E+00
    0.79021E-02        -0.25744E-01         0.00000E+00
    0.72271E-02        -0.23333E-01         0.00000E+00
    0.66073E-02        -0.20895E-01         0.00000E+00
    0.60121E-02        -0.18429E-01         0.00000E+00
    0.54139E-02        -0.15934E-01         0.00000E+00
    0.47861E-02        -0.13405E-01         0.00000E+00
    0.40999E-02        -0.10834E-01         0.00000E+00
    0.33224E-02        -0.82132E-02         0.00000E+00
    0.24134E-02        -0.55358E-02         0.00000E+00
    0.13246E-02        -0.27972E-02         0.00000E+00
    0.00000E+00         0.00000E+00         0.00000E+00
    0.11808E-01        -0.39153E-01         0.00000E+00
    0.10205E-01        -0.36803E-01         0.00000E+00
    0.89974E-02        -0.34394E-01         0.00000E+00
    0.80655E-02        -0.31935E-01         0.00000E+00
    0.73200E-02        -0.29436E-01         0.00000E+00
    0.66975E-02        -0.26911E-01         0.00000E+00
    0.61535E-02        -0.24367E-01         0.00000E+00
    0.56547E-02        -0.21806E-01         0.00000E+00
    0.51745E-02        -0.19228E-01         0.00000E+00
    0.46895E-02        -0.16628E-01         0.00000E+00
    0.41763E-02        -0.13998E-01         0.00000E+00
    0.36092E-02        -0.11328E-01         0.00000E+00
    0.29564E-02        -0.86055E-02         0.00000E+00
    0.21764E-02        -0.58164E-02         0.00000E+00
    0.12140E-02        -0.29492E-02         0.00000E+00
    0.00000E+00         0.00000E+00         0.00000E+00
    0.93971E-02        -0.40889E-01         0.00000E+00
    0.80429E-02        -0.38384E-01         0.00000E+00
    0.70754E-02        -0.35811E-01         0.00000E+00
    0.63543E-02        -0.33191E-01         0.00000E+00
    0.57879E-02        -0.30544E-01         0.00000E+00
    0.53191E-02        -0.27886E-01         0.00000E+00
    0.49107E-02        -0.25224E-01         0.00000E+00
    0.45361E-02        -0.22558E-01         0.00000E+00
    0.41745E-02        -0.19886E-01         0.00000E+00
    0.38074E-02        -0.17200E-01         0.00000E+00
    0.34165E-02        -0.14489E-01         0.00000E+00
    0.29802E-02        -0.11742E-01         0.00000E+00
    0.24710E-02        -0.89396E-02         0.00000E+00
    0.18490E-02        -0.60622E-02         0.00000E+00
    0.10540E-02        -0.30872E-02         0.00000E+00
    0.00000E+00         0.00000E+00         0.00000E+00
    0.66295E-02        -0.42342E-01         0.00000E+00
    0.56074E-02        -0.39679E-01         0.00000E+00
    0.49321E-02        -0.36941E-01         0.00000E+00
    0.44453E-02        -0.34169E-01         0.00000E+00
    0.40671E-02        -0.31392E-01         0.00000E+00
    0.37553E-02        -0.28624E-01         0.00000E+00
    0.34837E-02        -0.25868E-01         0.00000E+00
    0.32343E-02        -0.23121E-01         0.00000E+00
    0.29928E-02        -0.20377E-01         0.00000E+00
    0.27468E-02        -0.17627E-01         0.00000E+00
    0.24833E-02        -0.14858E-01         0.00000E+00
    0.21872E-02        -0.12056E-01         0.00000E+00
    0.18380E-02        -0.91996E-02         0.00000E+00
    0.14039E-02        -0.62621E-02         0.00000E+00
    0.82632E-03        -0.32067E-02         0.00000E+00
    0.00000E+00         0.00000E+00         0.00000E+00
    0.34921E-02        -0.43402E-01         0.00000E+00
    0.29164E-02        -0.40577E-01         0.00000E+00
    0.25763E-02        -0.37686E-01         0.00000E+00
    0.23331E-02        -0.34797E-01         0.00000E+00
    0.21448E-02        -0.31928E-01         0.00000E+00
    0.19895E-02        -0.29086E-01         0.00000E+00
    0.18542E-02        -0.26269E-01         0.00000E+00
    0.17296E-02        -0.23470E-01         0.00000E+00
    0.16087E-02        -0.20681E-01         0.00000E+00
    0.14852E-02        -0.17891E-01         0.00000E+00
    0.13526E-02        -0.15088E-01         0.00000E+00
    0.12029E-02        -0.12253E-01         0.00000E+00
    0.10254E-02        -0.93667E-02         0.00000E+00
    0.80204E-03        -0.63979E-02         0.00000E+00
    0.49856E-03        -0.33010E-02         0.00000E+00
    0.00000E+00         0.00000E+00         0.00000E+00
    0.00000E+00        -0.43868E-01         0.00000E+00
    0.00000E+00        -0.40913E-01         0.00000E+00
    0.00000E+00        -0.37950E-01         0.00000E+00
    0.00000E+00        -0.35014E-01         0.00000E+00
    0.00000E+00        -0.32112E-01         0.00000E+00
    0.00000E+00        -0.29244E-01         0.00000E+00
    0.00000E+00        -0.26405E-01         0.00000E+00
    0.00000E+00        -0.23588E-01         0.00000E+00
    0.00000E+00        -0.20784E-01         0.00000E+00
    0.00000E+00        -0.17981E-01         0.00000E+00
    0.00000E+00        -0.15165E-01         0.00000E+00
    0.00000E+00        -0.12321E-01         0.00000E+00
    0.00000E+00        -0.94247E-02         0.00000E+00
    0.00000E+00        -0.64468E-02         0.00000E+00
    0.00000E+00        -0.33408E-02         0.00000E+00
    0.00000E+00         0.00000E+00         0.00000E+00
CELL_DATA        450
VECTORS vDarcy double 
    0.73180E-07         0.27841E-09         0.00000E+00
    0.72441E-07         0.42190E-09         0.00000E+00
    0.71593E-07         0.40400E-09         0.00000E+00
    0.70816E-07         0.35684E-09         0.00000E+00
    0.70137E-07         0.31006E-09         0.00000E+00
    0.69547E-07         0.27052E-09         0.00000E+00
    0.69029E-07         0.23925E-09         0.00000E+00
    0.68566E-07         0.21583E-09         0.00000E+00
    0.68144E-07         0.19965E-09         0.00000E+00
    0.67748E-07         0.19023E-09         0.00000E+00
    0.67364E-07         0.18726E-09         0.00000E+00
    0.66980E-07         0.19020E-09         0.00000E+00
    0.66586E-07         0.19690E-09         0.00000E+00
    0.66181E-07         0.19844E-09         0.00000E+00
    0.65807E-07         0.15944E-09         0.00000E+00
    0.50689E-07         0.47075E-09         0.00000E+00
    0.50766E-07         0.83789E-09         0.00000E+00
    0.50688E-07         0.87862E-09         0.00000E+00
    0.50501E-07         0.81998E-09         0.00000E+00
    0.50268E-07         0.73814E-09         0.00000E+00
    0.50025E-07         0.65928E-09         0.00000E+00
    0.49787E-07         0.59188E-09         0.00000E+00
    0.49562E-07         0.53813E-09         0.00000E+00
    0.49352E-07         0.49805E-09         0.00000E+00
    0.49158E-07         0.47085E-09         0.00000E+00
    0.48983E-07         0.45497E-09         0.00000E+00
    0.48831E-07         0.44698E-09         0.00000E+00
    0.48716E-07         0.43758E-09         0.00000E+00
    0.48662E-07         0.40105E-09         0.00000E+00
    0.48721E-07         0.25036E-09         0.00000E+00
    0.35527E-07         0.29035E-09         0.00000E+00
    0.35758E-07         0.69150E-09         0.00000E+00
    0.35990E-07         0.85212E-09         0.00000E+00
    0.36132E-07         0.87683E-09         0.00000E+00
    0.36192E-07         0.84097E-09         0.00000E+00
    0.36197E-07         0.78341E-09         0.00000E+00
    0.36170E-07         0.72244E-09         0.00000E+00
    0.36128E-07         0.66609E-09         0.00000E+00
    0.36083E-07         0.61722E-09         0.00000E+00
    0.36046E-07         0.57564E-09         0.00000E+00
    0.36026E-07         0.53852E-09         0.00000E+00
    0.36035E-07         0.49892E-09         0.00000E+00
    0.36086E-07         0.44227E-09         0.00000E+00
    0.36189E-07         0.33869E-09         0.00000E+00
    0.36304E-07         0.13221E-09         0.00000E+00
    0.25346E-07         0.12292E-09         0.00000E+00
    0.25564E-07         0.40387E-09         0.00000E+00
    0.25857E-07         0.60614E-09         0.00000E+00
    0.26124E-07         0.70613E-09         0.00000E+00
    0.26332E-07         0.73534E-09         0.00000E+00
    0.26485E-07         0.72383E-09         0.00000E+00
    0.26596E-07         0.69145E-09         0.00000E+00
    0.26680E-07         0.64941E-09         0.00000E+00
    0.26751E-07         0.60296E-09         0.00000E+00
    0.26820E-07         0.55305E-09         0.00000E+00
    0.26900E-07         0.49689E-09         0.00000E+00
    0.27000E-07         0.42767E-09         0.00000E+00
    0.27124E-07         0.33415E-09         0.00000E+00
    0.27261E-07         0.20288E-09         0.00000E+00
    0.27366E-07         0.45789E-10         0.00000E+00
    0.18563E-07        -0.11941E-12         0.00000E+00
    0.18732E-07         0.13758E-09         0.00000E+00
    0.18994E-07         0.31394E-09         0.00000E+00
    0.19274E-07         0.44700E-09         0.00000E+00
    0.19531E-07         0.52462E-09         0.00000E+00
    0.19751E-07         0.55733E-09         0.00000E+00
    0.19935E-07         0.55831E-09         0.00000E+00
    0.20093E-07         0.53753E-09         0.00000E+00
    0.20233E-07         0.50080E-09         0.00000E+00
    0.20365E-07         0.45012E-09         0.00000E+00
    0.20498E-07         0.38434E-09         0.00000E+00
    0.20636E-07         0.30018E-09         0.00000E+00
    0.20776E-07         0.19502E-09         0.00000E+00
    0.20903E-07         0.76479E-10         0.00000E+00
    0.20985E-07        -0.15290E-10         0.00000E+00
    0.14111E-07        -0.83165E-10         0.00000E+00
    0.14231E-07        -0.69601E-10         0.00000E+00
    0.14437E-07         0.51698E-10         0.00000E+00
    0.14683E-07         0.18152E-09         0.00000E+00
    0.14932E-07         0.28178E-09         0.00000E+00
    0.15165E-07         0.34457E-09         0.00000E+00
    0.15375E-07         0.37330E-09         0.00000E+00
    0.15564E-07         0.37371E-09         0.00000E+00
    0.15736E-07         0.35043E-09         0.00000E+00
    0.15896E-07         0.30612E-09         0.00000E+00
    0.16048E-07         0.24189E-09         0.00000E+00
    0.16192E-07         0.15915E-09         0.00000E+00
    0.16322E-07         0.63995E-10         0.00000E+00
    0.16426E-07        -0.23654E-10         0.00000E+00
    0.16484E-07        -0.54789E-10         0.00000E+00
    0.11268E-07        -0.13621E-09         0.00000E+00
    0.11349E-07        -0.21814E-09         0.00000E+00
    0.11500E-07        -0.15758E-09         0.00000E+00
    0.11696E-07        -0.51878E-10         0.00000E+00
    0.11911E-07         0.49588E-10         0.00000E+00
    0.12127E-07         0.12656E-09         0.00000E+00
    0.12332E-07         0.17360E-09         0.00000E+00
    0.12524E-07         0.19143E-09         0.00000E+00
    0.12700E-07         0.18260E-09         0.00000E+00
    0.12863E-07         0.14983E-09         0.00000E+00
    0.13012E-07         0.96246E-10         0.00000E+00
    0.13145E-07         0.27215E-10         0.00000E+00
    0.13255E-07        -0.45498E-10         0.00000E+00
    0.13334E-07        -0.96760E-10         0.00000E+00
    0.13373E-07        -0.78531E-10         0.00000E+00
    0.95424E-08        -0.16812E-09         0.00000E+00
    0.95939E-08        -0.31875E-09         0.00000E+00
    0.96990E-08        -0.31352E-09         0.00000E+00
    0.98467E-08        -0.24049E-09         0.00000E+00
    0.10020E-07        -0.15137E-09         0.00000E+00
    0.10204E-07        -0.72881E-10         0.00000E+00
    0.10387E-07        -0.16672E-10         0.00000E+00
    0.10563E-07         0.13650E-10         0.00000E+00
    0.10727E-07         0.18395E-10         0.00000E+00
    0.10877E-07        -0.74198E-13         0.00000E+00
    0.11011E-07        -0.37431E-10         0.00000E+00
    0.11125E-07        -0.85886E-10         0.00000E+00
    0.11213E-07        -0.13104E-09         0.00000E+00
    0.11270E-07        -0.14713E-09         0.00000E+00
    0.11294E-07        -0.91325E-10         0.00000E+00
    0.86004E-08        -0.18561E-09         0.00000E+00
    0.86307E-08        -0.38309E-09         0.00000E+00
    0.87000E-08        -0.42372E-09         0.00000E+00
    0.88058E-08        -0.38431E-09         0.00000E+00
    0.89385E-08        -0.31424E-09         0.00000E+00
    0.90864E-08        -0.24244E-09         0.00000E+00
    0.92395E-08        -0.18412E-09         0.00000E+00
    0.93902E-08        -0.14593E-09         0.00000E+00
    0.95327E-08        -0.12949E-09         0.00000E+00
    0.96625E-08        -0.13307E-09         0.00000E+00
    0.97756E-08        -0.15195E-09         0.00000E+00
    0.98678E-08        -0.17743E-09         0.00000E+00
    0.99347E-08        -0.19470E-09         0.00000E+00
    0.99741E-08        -0.17989E-09         0.00000E+00
    0.99880E-08        -0.96844E-10         0.00000E+00
    0.82140E-08        -0.19346E-09         0.00000E+00
    0.82294E-08        -0.42105E-09         0.00000E+00
    0.82717E-08        -0.49747E-09         0.00000E+00
    0.83436E-08        -0.48865E-09         0.00000E+00
    0.84403E-08        -0.43957E-09         0.00000E+00
    0.85535E-08        -0.37881E-09         0.00000E+00
    0.86751E-08        -0.32302E-09         0.00000E+00
    0.87976E-08        -0.28068E-09         0.00000E+00
    0.89147E-08        -0.25482E-09         0.00000E+00
    0.90211E-08        -0.24446E-09         0.00000E+00
    0.91121E-08        -0.24511E-09         0.00000E+00
    0.91836E-08        -0.24824E-09         0.00000E+00
    0.92325E-08        -0.24004E-09         0.00000E+00
    0.92582E-08        -0.19969E-09         0.00000E+00
    0.92650E-08        -0.97758E-10         0.00000E+00
    0.82273E-08        -0.19495E-09         0.00000E+00
    0.82323E-08        -0.44024E-09         0.00000E+00
    0.82548E-08        -0.54328E-09         0.00000E+00
    0.83001E-08        -0.56032E-09         0.00000E+00
    0.83666E-08        -0.53135E-09         0.00000E+00
    0.84491E-08        -0.48319E-09         0.00000E+00
    0.85410E-08        -0.43256E-09         0.00000E+00
    0.86358E-08        -0.38878E-09         0.00000E+00
    0.87274E-08        -0.35577E-09         0.00000E+00
    0.88105E-08        -0.33332E-09         0.00000E+00
    0.88804E-08        -0.31754E-09         0.00000E+00
    0.89335E-08        -0.30073E-09         0.00000E+00
    0.89677E-08        -0.27079E-09         0.00000E+00
    0.89832E-08        -0.21030E-09         0.00000E+00
    0.89852E-08        -0.95943E-10         0.00000E+00
    0.85327E-08        -0.19228E-09         0.00000E+00
    0.85307E-08        -0.44624E-09         0.00000E+00
    0.85388E-08        -0.56811E-09         0.00000E+00
    0.85636E-08        -0.60590E-09         0.00000E+00
    0.86058E-08        -0.59471E-09         0.00000E+00
    0.86621E-08        -0.55896E-09         0.00000E+00
    0.87277E-08        -0.51466E-09         0.00000E+00
    0.87972E-08        -0.47126E-09         0.00000E+00
    0.88652E-08        -0.43321E-09         0.00000E+00
    0.89269E-08        -0.40092E-09         0.00000E+00
    0.89781E-08        -0.37130E-09         0.00000E+00
    0.90155E-08        -0.33781E-09         0.00000E+00
    0.90378E-08        -0.29028E-09         0.00000E+00
    0.90459E-08        -0.21460E-09         0.00000E+00
    0.90449E-08        -0.92666E-10         0.00000E+00
    0.90557E-08        -0.18691E-09         0.00000E+00
    0.90487E-08        -0.44299E-09         0.00000E+00
    0.90463E-08        -0.57733E-09         0.00000E+00
    0.90555E-08        -0.63104E-09         0.00000E+00
    0.90782E-08        -0.63470E-09         0.00000E+00
    0.91129E-08        -0.61024E-09         0.00000E+00
    0.91561E-08        -0.57250E-09         0.00000E+00
    0.92036E-08        -0.53065E-09         0.00000E+00
    0.92508E-08        -0.48936E-09         0.00000E+00
    0.92937E-08        -0.44957E-09         0.00000E+00
    0.93287E-08        -0.40899E-09         0.00000E+00
    0.93532E-08        -0.36230E-09         0.00000E+00
    0.93662E-08        -0.30126E-09         0.00000E+00
    0.93690E-08        -0.21468E-09         0.00000E+00
    0.93661E-08        -0.88748E-10         0.00000E+00
    0.97427E-08        -0.17979E-09         0.00000E+00
    0.97323E-08        -0.43321E-09         0.00000E+00
    0.97221E-08        -0.57493E-09         0.00000E+00
    0.97194E-08        -0.64024E-09         0.00000E+00
    0.97267E-08        -0.65579E-09         0.00000E+00
    0.97437E-08        -0.64106E-09         0.00000E+00
    0.97681E-08        -0.60956E-09         0.00000E+00
    0.97968E-08        -0.56998E-09         0.00000E+00
    0.98263E-08        -0.52698E-09         0.00000E+00
    0.98532E-08        -0.48190E-09         0.00000E+00
    0.98746E-08        -0.43318E-09         0.00000E+00
    0.98885E-08        -0.37668E-09         0.00000E+00
    0.98943E-08        -0.30585E-09         0.00000E+00
    0.98932E-08        -0.21200E-09         0.00000E+00
    0.98892E-08        -0.84677E-10         0.00000E+00
    0.10554E-07        -0.17148E-09         0.00000E+00
    0.10542E-07        -0.41873E-09         0.00000E+00
    0.10526E-07        -0.56373E-09         0.00000E+00
    0.10514E-07        -0.63695E-09         0.00000E+00
    0.10509E-07        -0.66161E-09         0.00000E+00
    0.10511E-07        -0.65494E-09         0.00000E+00
    0.10520E-07        -0.62914E-09         0.00000E+00
    0.10533E-07        -0.59225E-09         0.00000E+00
    0.10547E-07        -0.54880E-09         0.00000E+00
    0.10561E-07        -0.50042E-09         0.00000E+00
    0.10571E-07        -0.44619E-09         0.00000E+00
    0.10576E-07        -0.38294E-09         0.00000E+00
    0.10576E-07        -0.30562E-09         0.00000E+00
    0.10572E-07        -0.20749E-09         0.00000E+00
    0.10567E-07        -0.80705E-10         0.00000E+00
    0.11461E-07        -0.16234E-09         0.00000E+00
    0.11446E-07        -0.40069E-09         0.00000E+00
    0.11425E-07        -0.54568E-09         0.00000E+00
    0.11406E-07        -0.62369E-09         0.00000E+00
    0.11391E-07        -0.65501E-09         0.00000E+00
    0.11381E-07        -0.65482E-09         0.00000E+00
    0.11377E-07        -0.63407E-09         0.00000E+00
    0.11377E-07        -0.60010E-09         0.00000E+00
    0.11379E-07        -0.55726E-09         0.00000E+00
    0.11380E-07        -0.50733E-09         0.00000E+00
    0.11381E-07        -0.44989E-09         0.00000E+00
    0.11379E-07        -0.38262E-09         0.00000E+00
    0.11374E-07        -0.30161E-09         0.00000E+00
    0.11368E-07        -0.20170E-09         0.00000E+00
    0.11363E-07        -0.76919E-10         0.00000E+00
    0.12436E-07        -0.15252E-09         0.00000E+00
    0.12419E-07        -0.37980E-09         0.00000E+00
    0.12395E-07        -0.52207E-09         0.00000E+00
    0.12369E-07        -0.60227E-09         0.00000E+00
    0.12346E-07        -0.63812E-09         0.00000E+00
    0.12326E-07        -0.64300E-09         0.00000E+00
    0.12311E-07        -0.62665E-09         0.00000E+00
    0.12300E-07        -0.59576E-09         0.00000E+00
    0.12291E-07        -0.55440E-09         0.00000E+00
    0.12283E-07        -0.50442E-09         0.00000E+00
    0.12276E-07        -0.44577E-09         0.00000E+00
    0.12267E-07        -0.37680E-09         0.00000E+00
    0.12259E-07        -0.29450E-09         0.00000E+00
    0.12251E-07        -0.19487E-09         0.00000E+00
    0.12245E-07        -0.73295E-10         0.00000E+00
    0.13458E-07        -0.14209E-09         0.00000E+00
    0.13440E-07        -0.35642E-09         0.00000E+00
    0.13412E-07        -0.49371E-09         0.00000E+00
    0.13381E-07        -0.57391E-09         0.00000E+00
    0.13350E-07        -0.61250E-09         0.00000E+00
    0.13322E-07        -0.62124E-09         0.00000E+00
    0.13298E-07        -0.60875E-09         0.00000E+00
    0.13277E-07        -0.58104E-09         0.00000E+00
    0.13259E-07        -0.54187E-09         0.00000E+00
    0.13243E-07        -0.49311E-09         0.00000E+00
    0.13228E-07        -0.43495E-09         0.00000E+00
    0.13215E-07        -0.36624E-09         0.00000E+00
    0.13203E-07        -0.28468E-09         0.00000E+00
    0.13193E-07        -0.18708E-09         0.00000E+00
    0.13187E-07        -0.69740E-10         0.00000E+00
    0.14506E-07        -0.13103E-09         0.00000E+00
    0.14487E-07        -0.33073E-09         0.00000E+00
    0.14456E-07        -0.46111E-09         0.00000E+00
    0.14420E-07        -0.53950E-09         0.00000E+00
    0.14383E-07        -0.57936E-09         0.00000E+00
    0.14348E-07        -0.59095E-09         0.00000E+00
    0.14315E-07        -0.58185E-09         0.00000E+00
    0.14286E-07        -0.55740E-09         0.00000E+00
    0.14260E-07        -0.52103E-09         0.00000E+00
    0.14237E-07        -0.47453E-09         0.00000E+00
    0.14216E-07        -0.41828E-09         0.00000E+00
    0.14198E-07        -0.35149E-09         0.00000E+00
    0.14183E-07        -0.27234E-09         0.00000E+00
    0.14172E-07        -0.17826E-09         0.00000E+00
    0.14165E-07        -0.66127E-10         0.00000E+00
    0.15560E-07        -0.11931E-09         0.00000E+00
    0.15540E-07        -0.30280E-09         0.00000E+00
    0.15506E-07        -0.42462E-09         0.00000E+00
    0.15466E-07        -0.49971E-09         0.00000E+00
    0.15423E-07        -0.53964E-09         0.00000E+00
    0.15382E-07        -0.55328E-09         0.00000E+00
    0.15342E-07        -0.54721E-09         0.00000E+00
    0.15306E-07        -0.52611E-09         0.00000E+00
    0.15273E-07        -0.49302E-09         0.00000E+00
    0.15244E-07        -0.44964E-09         0.00000E+00
    0.15218E-07        -0.39645E-09         0.00000E+00
    0.15196E-07        -0.33290E-09         0.00000E+00
    0.15178E-07        -0.25758E-09         0.00000E+00
    0.15165E-07        -0.16830E-09         0.00000E+00
    0.15158E-07        -0.62322E-10         0.00000E+00
    0.16601E-07        -0.10689E-09         0.00000E+00
    0.16579E-07        -0.27272E-09         0.00000E+00
    0.16543E-07        -0.38459E-09         0.00000E+00
    0.16499E-07        -0.45516E-09         0.00000E+00
    0.16452E-07        -0.49424E-09         0.00000E+00
    0.16405E-07        -0.50933E-09         0.00000E+00
    0.16360E-07        -0.50602E-09         0.00000E+00
    0.16318E-07        -0.48831E-09         0.00000E+00
    0.16279E-07        -0.45889E-09         0.00000E+00
    0.16245E-07        -0.41930E-09         0.00000E+00
    0.16214E-07        -0.37006E-09         0.00000E+00
    0.16189E-07        -0.31083E-09         0.00000E+00
    0.16168E-07        -0.24046E-09         0.00000E+00
    0.16153E-07        -0.15709E-09         0.00000E+00
    0.16145E-07        -0.58200E-10         0.00000E+00
    0.17608E-07        -0.93778E-10         0.00000E+00
    0.17585E-07        -0.24065E-09         0.00000E+00
    0.17547E-07        -0.34144E-09         0.00000E+00
    0.17500E-07        -0.40659E-09         0.00000E+00
    0.17449E-07        -0.44413E-09         0.00000E+00
    0.17398E-07        -0.46022E-09         0.00000E+00
    0.17348E-07        -0.45945E-09         0.00000E+00
    0.17302E-07        -0.44519E-09         0.00000E+00
    0.17259E-07        -0.41970E-09         0.00000E+00
    0.17220E-07        -0.38437E-09         0.00000E+00
    0.17186E-07        -0.33974E-09         0.00000E+00
    0.17157E-07        -0.28561E-09         0.00000E+00
    0.17134E-07        -0.22110E-09         0.00000E+00
    0.17117E-07        -0.14457E-09         0.00000E+00
    0.17109E-07        -0.53662E-10         0.00000E+00
    0.18563E-07        -0.80026E-10         0.00000E+00
    0.18540E-07        -0.20688E-09         0.00000E+00
    0.18500E-07        -0.29579E-09         0.00000E+00
    0.18451E-07        -0.35489E-09         0.00000E+00
    0.18398E-07        -0.39043E-09         0.00000E+00
    0.18344E-07        -0.40720E-09         0.00000E+00
    0.18291E-07        -0.40882E-09         0.00000E+00
    0.18242E-07        -0.39798E-09         0.00000E+00
    0.18195E-07        -0.37657E-09         0.00000E+00
    0.18154E-07        -0.34578E-09         0.00000E+00
    0.18117E-07        -0.30617E-09         0.00000E+00
    0.18085E-07        -0.25770E-09         0.00000E+00
    0.18060E-07        -0.19967E-09         0.00000E+00
    0.18042E-07        -0.13071E-09         0.00000E+00
    0.18032E-07        -0.48644E-10         0.00000E+00
    0.19450E-07        -0.65795E-10         0.00000E+00
    0.19426E-07        -0.17196E-09         0.00000E+00
    0.19386E-07        -0.24854E-09         0.00000E+00
    0.19336E-07        -0.30126E-09         0.00000E+00
    0.19282E-07        -0.33452E-09         0.00000E+00
    0.19227E-07        -0.35173E-09         0.00000E+00
    0.19173E-07        -0.35555E-09         0.00000E+00
    0.19121E-07        -0.34803E-09         0.00000E+00
    0.19073E-07        -0.33068E-09         0.00000E+00
    0.19029E-07        -0.30453E-09         0.00000E+00
    0.18991E-07        -0.27013E-09         0.00000E+00
    0.18957E-07        -0.22759E-09         0.00000E+00
    0.18930E-07        -0.17645E-09         0.00000E+00
    0.18911E-07        -0.11561E-09         0.00000E+00
    0.18901E-07        -0.43120E-10         0.00000E+00
    0.20253E-07        -0.51363E-10         0.00000E+00
    0.20230E-07        -0.13669E-09         0.00000E+00
    0.20191E-07        -0.20092E-09         0.00000E+00
    0.20142E-07        -0.24718E-09         0.00000E+00
    0.20088E-07        -0.27796E-09         0.00000E+00
    0.20033E-07        -0.29536E-09         0.00000E+00
    0.19979E-07        -0.30111E-09         0.00000E+00
    0.19928E-07        -0.29668E-09         0.00000E+00
    0.19879E-07        -0.28322E-09         0.00000E+00
    0.19835E-07        -0.26162E-09         0.00000E+00
    0.19795E-07        -0.23243E-09         0.00000E+00
    0.19760E-07        -0.19588E-09         0.00000E+00
    0.19732E-07        -0.15180E-09         0.00000E+00
    0.19712E-07        -0.99413E-10         0.00000E+00
    0.19701E-07        -0.37101E-10         0.00000E+00
    0.20964E-07        -0.37167E-10         0.00000E+00
    0.20942E-07        -0.10224E-09         0.00000E+00
    0.20905E-07        -0.15450E-09         0.00000E+00
    0.20859E-07        -0.19435E-09         0.00000E+00
    0.20808E-07        -0.22244E-09         0.00000E+00
    0.20755E-07        -0.23964E-09         0.00000E+00
    0.20702E-07        -0.24688E-09         0.00000E+00
    0.20652E-07        -0.24512E-09         0.00000E+00
    0.20603E-07        -0.23522E-09         0.00000E+00
    0.20559E-07        -0.21791E-09         0.00000E+00
    0.20519E-07        -0.19377E-09         0.00000E+00
    0.20484E-07        -0.16315E-09         0.00000E+00
    0.20455E-07        -0.12612E-09         0.00000E+00
    0.20435E-07        -0.82326E-10         0.00000E+00
    0.20423E-07        -0.30628E-10         0.00000E+00
    0.21578E-07        -0.23845E-10         0.00000E+00
    0.21559E-07        -0.70106E-10         0.00000E+00
    0.21527E-07        -0.11109E-09         0.00000E+00
    0.21485E-07        -0.14452E-09         0.00000E+00
    0.21438E-07        -0.16945E-09         0.00000E+00
    0.21388E-07        -0.18574E-09         0.00000E+00
    0.21338E-07        -0.19375E-09         0.00000E+00
    0.21288E-07        -0.19403E-09         0.00000E+00
    0.21240E-07        -0.18721E-09         0.00000E+00
    0.21196E-07        -0.17390E-09         0.00000E+00
    0.21156E-07        -0.15462E-09         0.00000E+00
    0.21121E-07        -0.12982E-09         0.00000E+00
    0.21092E-07        -0.99775E-10         0.00000E+00
    0.21071E-07        -0.64579E-10         0.00000E+00
    0.21060E-07        -0.23760E-10         0.00000E+00
    0.22101E-07        -0.12299E-10         0.00000E+00
    0.22087E-07        -0.42075E-10         0.00000E+00
    0.22061E-07        -0.72466E-10         0.00000E+00
    0.22025E-07        -0.99031E-10         0.00000E+00
    0.21983E-07        -0.11977E-09         0.00000E+00
    0.21936E-07        -0.13398E-09         0.00000E+00
    0.21887E-07        -0.14166E-09         0.00000E+00
    0.21838E-07        -0.14312E-09         0.00000E+00
    0.21790E-07        -0.13882E-09         0.00000E+00
    0.21745E-07        -0.12923E-09         0.00000E+00
    0.21704E-07        -0.11478E-09         0.00000E+00
    0.21668E-07        -0.95892E-10         0.00000E+00
    0.21639E-07        -0.72964E-10         0.00000E+00
    0.21618E-07        -0.46377E-10         0.00000E+00
    0.21607E-07        -0.16559E-10         0.00000E+00
    0.22552E-07        -0.36969E-11         0.00000E+00
    0.22545E-07        -0.20020E-10         0.00000E+00
    0.22526E-07        -0.39810E-10         0.00000E+00
    0.22496E-07        -0.58053E-10         0.00000E+00
    0.22457E-07        -0.72682E-10         0.00000E+00
    0.22412E-07        -0.82981E-10         0.00000E+00
    0.22362E-07        -0.88853E-10         0.00000E+00
    0.22310E-07        -0.90479E-10         0.00000E+00
    0.22259E-07        -0.88150E-10         0.00000E+00
    0.22210E-07        -0.82179E-10         0.00000E+00
    0.22166E-07        -0.72869E-10         0.00000E+00
    0.22128E-07        -0.60509E-10         0.00000E+00
    0.22098E-07        -0.45412E-10         0.00000E+00
    0.22077E-07        -0.27999E-10         0.00000E+00
    0.22066E-07        -0.90151E-11         0.00000E+00
    0.22968E-07        -0.14690E-12         0.00000E+00
    0.22970E-07        -0.53572E-11         0.00000E+00
    0.22958E-07        -0.12527E-10         0.00000E+00
    0.22931E-07        -0.19303E-10         0.00000E+00
    0.22891E-07        -0.24786E-10         0.00000E+00
    0.22840E-07        -0.28685E-10         0.00000E+00
    0.22784E-07        -0.30959E-10         0.00000E+00
    0.22723E-07        -0.31676E-10         0.00000E+00
    0.22663E-07        -0.30941E-10         0.00000E+00
    0.22605E-07        -0.28868E-10         0.00000E+00
    0.22553E-07        -0.25565E-10         0.00000E+00
    0.22508E-07        -0.21134E-10         0.00000E+00
    0.22474E-07        -0.15685E-10         0.00000E+00
    0.22451E-07        -0.94064E-11         0.00000E+00
    0.22443E-07        -0.25732E-11         0.00000E+00
POINT_DATA        496
VECTORS vDarcyNodal double 
    0.73458E-07         0.00000E+00         0.00000E+00
    0.72882E-07         0.00000E+00         0.00000E+00
    0.72008E-07         0.00000E+00         0.00000E+00
    0.71181E-07         0.00000E+00         0.00000E+00
    0.70453E-07         0.00000E+00         0.00000E+00
    0.69822E-07         0.00000E+00         0.00000E+00
    0.69272E-07         0.00000E+00         0.00000E+00
    0.68786E-07         0.00000E+00         0.00000E+00
    0.68347E-07         0.00000E+00         0.00000E+00
    0.67941E-07         0.00000E+00         0.00000E+00
    0.67555E-07         0.00000E+00         0.00000E+00
    0.67174E-07         0.00000E+00         0.00000E+00
    0.66786E-07        -0.66636E-22         0.00000E+00
    0.66384E-07        -0.96827E-26         0.00000E+00
    0.65974E-07         0.66626E-22         0.00000E+00
    0.65647E-07         0.00000E+00         0.00000E+00
    0.62031E-07         0.55655E-09         0.00000E+00
    0.61825E-07         0.70003E-09         0.00000E+00
    0.61387E-07         0.82564E-09         0.00000E+00
    0.60897E-07         0.76061E-09         0.00000E+00
    0.60422E-07         0.66671E-09         0.00000E+00
    0.59984E-07         0.58042E-09         0.00000E+00
    0.59588E-07         0.50964E-09         0.00000E+00
    0.59228E-07         0.45497E-09         0.00000E+00
    0.58900E-07         0.41537E-09         0.00000E+00
    0.58596E-07         0.38977E-09         0.00000E+00
    0.58310E-07         0.37739E-09         0.00000E+00
    0.58037E-07         0.37736E-09         0.00000E+00
    0.57774E-07         0.38700E-09         0.00000E+00
    0.57527E-07         0.39524E-09         0.00000E+00
    0.57315E-07         0.35780E-09         0.00000E+00
    0.57218E-07         0.31883E-09         0.00000E+00
    0.43018E-07         0.38507E-09         0.00000E+00
    0.43194E-07         0.60869E-09         0.00000E+00
    0.43331E-07         0.89090E-09         0.00000E+00
    0.43349E-07         0.93799E-09         0.00000E+00
    0.43285E-07         0.89140E-09         0.00000E+00
    0.43176E-07         0.81698E-09         0.00000E+00
    0.43046E-07         0.74151E-09         0.00000E+00
    0.42911E-07         0.67502E-09         0.00000E+00
    0.42779E-07         0.62080E-09         0.00000E+00
    0.42656E-07         0.57911E-09         0.00000E+00
    0.42548E-07         0.54843E-09         0.00000E+00
    0.42461E-07         0.52460E-09         0.00000E+00
    0.42405E-07         0.49757E-09         0.00000E+00
    0.42396E-07         0.44341E-09         0.00000E+00
    0.42455E-07         0.29363E-09         0.00000E+00
    0.42571E-07         0.18191E-09         0.00000E+00
    0.30353E-07         0.19572E-09         0.00000E+00
    0.30519E-07         0.37327E-09         0.00000E+00
    0.30803E-07         0.65283E-09         0.00000E+00
    0.31045E-07         0.79103E-09         0.00000E+00
    0.31211E-07         0.82645E-09         0.00000E+00
    0.31313E-07         0.80743E-09         0.00000E+00
    0.31369E-07         0.76437E-09         0.00000E+00
    0.31397E-07         0.71353E-09         0.00000E+00
    0.31411E-07         0.66254E-09         0.00000E+00
    0.31423E-07         0.61377E-09         0.00000E+00
    0.31443E-07         0.56576E-09         0.00000E+00
    0.31483E-07         0.51286E-09         0.00000E+00
    0.31552E-07         0.44365E-09         0.00000E+00
    0.31658E-07         0.33758E-09         0.00000E+00
    0.31792E-07         0.17729E-09         0.00000E+00
    0.31878E-07         0.82512E-10         0.00000E+00
    0.21893E-07         0.50161E-10         0.00000E+00
    0.22015E-07         0.15358E-09         0.00000E+00
    0.22280E-07         0.35726E-09         0.00000E+00
    0.22570E-07         0.52130E-09         0.00000E+00
    0.22827E-07         0.61507E-09         0.00000E+00
    0.23036E-07         0.65178E-09         0.00000E+00
    0.23200E-07         0.65094E-09         0.00000E+00
    0.23332E-07         0.62736E-09         0.00000E+00
    0.23442E-07         0.58987E-09         0.00000E+00
    0.23542E-07         0.54227E-09         0.00000E+00
    0.23644E-07         0.48421E-09         0.00000E+00
    0.23755E-07         0.41173E-09         0.00000E+00
    0.23881E-07         0.31819E-09         0.00000E+00
    0.24019E-07         0.19947E-09         0.00000E+00
    0.24145E-07         0.71399E-10         0.00000E+00
    0.24206E-07         0.90728E-11         0.00000E+00
    0.16295E-07        -0.50382E-10         0.00000E+00
    0.16378E-07        -0.16088E-10         0.00000E+00
    0.16585E-07         0.94316E-10         0.00000E+00
    0.16846E-07         0.23969E-09         0.00000E+00
    0.17110E-07         0.35659E-09         0.00000E+00
    0.17352E-07         0.43021E-09         0.00000E+00
    0.17564E-07         0.46473E-09         0.00000E+00
    0.17747E-07         0.46852E-09         0.00000E+00
    0.17910E-07         0.44849E-09         0.00000E+00
    0.18059E-07         0.40867E-09         0.00000E+00
    0.18202E-07         0.35027E-09         0.00000E+00
    0.18344E-07         0.27281E-09         0.00000E+00
    0.18484E-07         0.17702E-09         0.00000E+00
    0.18615E-07         0.72042E-10         0.00000E+00
    0.18715E-07        -0.10205E-10         0.00000E+00
    0.18754E-07        -0.39650E-10         0.00000E+00
    0.12663E-07        -0.11594E-09         0.00000E+00
    0.12716E-07        -0.13666E-09         0.00000E+00
    0.12864E-07        -0.11219E-09         0.00000E+00
    0.13073E-07        -0.64362E-11         0.00000E+00
    0.13306E-07         0.10675E-09         0.00000E+00
    0.13537E-07         0.19617E-09         0.00000E+00
    0.13754E-07         0.25316E-09         0.00000E+00
    0.13953E-07         0.27852E-09         0.00000E+00
    0.14135E-07         0.27568E-09         0.00000E+00
    0.14302E-07         0.24790E-09         0.00000E+00
    0.14458E-07         0.19776E-09         0.00000E+00
    0.14603E-07         0.12825E-09         0.00000E+00
    0.14734E-07         0.46138E-10         0.00000E+00
    0.14843E-07        -0.31694E-10         0.00000E+00
    0.14916E-07        -0.68234E-10         0.00000E+00
    0.14940E-07        -0.69925E-10         0.00000E+00
    0.10389E-07        -0.15647E-09         0.00000E+00
    0.10421E-07        -0.21768E-09         0.00000E+00
    0.10522E-07        -0.26352E-09         0.00000E+00
    0.10677E-07        -0.20301E-09         0.00000E+00
    0.10866E-07        -0.10902E-09         0.00000E+00
    0.11066E-07        -0.20002E-10         0.00000E+00
    0.11265E-07         0.47014E-10         0.00000E+00
    0.11455E-07         0.86528E-10         0.00000E+00
    0.11632E-07         0.98365E-10         0.00000E+00
    0.11796E-07         0.84536E-10         0.00000E+00
    0.11945E-07         0.48333E-10         0.00000E+00
    0.12078E-07        -0.47759E-11         0.00000E+00
    0.12191E-07        -0.64414E-10         0.00000E+00
    0.12277E-07        -0.11056E-09         0.00000E+00
    0.12327E-07        -0.10705E-09         0.00000E+00
    0.12340E-07        -0.87136E-10         0.00000E+00
    0.90626E-08        -0.17976E-09         0.00000E+00
    0.90801E-08        -0.26918E-09         0.00000E+00
    0.91444E-08        -0.36874E-09         0.00000E+00
    0.92545E-08        -0.35099E-09         0.00000E+00
    0.93980E-08        -0.28283E-09         0.00000E+00
    0.95606E-08        -0.20424E-09         0.00000E+00
    0.97298E-08        -0.13655E-09         0.00000E+00
    0.98969E-08        -0.89538E-10         0.00000E+00
    0.10056E-07        -0.66308E-10         0.00000E+00
    0.10204E-07        -0.66206E-10         0.00000E+00
    0.10336E-07        -0.85830E-10         0.00000E+00
    0.10451E-07        -0.11853E-09         0.00000E+00
    0.10542E-07        -0.15251E-09         0.00000E+00
    0.10605E-07        -0.16760E-09         0.00000E+00
    0.10638E-07        -0.13139E-09         0.00000E+00
    0.10644E-07        -0.95513E-10         0.00000E+00
    0.84033E-08        -0.19146E-09         0.00000E+00
    0.84111E-08        -0.29952E-09         0.00000E+00
    0.84490E-08        -0.43806E-09         0.00000E+00
    0.85226E-08        -0.45703E-09         0.00000E+00
    0.86268E-08        -0.41571E-09         0.00000E+00
    0.87519E-08        -0.35244E-09         0.00000E+00
    0.88880E-08        -0.29000E-09         0.00000E+00
    0.90267E-08        -0.24050E-09         0.00000E+00
    0.91611E-08        -0.20910E-09         0.00000E+00
    0.92862E-08        -0.19634E-09         0.00000E+00
    0.93974E-08        -0.19918E-09         0.00000E+00
    0.94903E-08        -0.21084E-09         0.00000E+00
    0.95610E-08        -0.21962E-09         0.00000E+00
    0.96063E-08        -0.20698E-09         0.00000E+00
    0.96260E-08        -0.14534E-09         0.00000E+00
    0.96270E-08        -0.98175E-10         0.00000E+00
    0.82199E-08        -0.19547E-09         0.00000E+00
    0.82213E-08        -0.31500E-09         0.00000E+00
    0.82404E-08        -0.48046E-09         0.00000E+00
    0.82861E-08        -0.52908E-09         0.00000E+00
    0.83576E-08        -0.51250E-09         0.00000E+00
    0.84492E-08        -0.46594E-09         0.00000E+00
    0.85534E-08        -0.41183E-09         0.00000E+00
    0.86628E-08        -0.36319E-09         0.00000E+00
    0.87707E-08        -0.32639E-09         0.00000E+00
    0.88714E-08        -0.30292E-09         0.00000E+00
    0.89601E-08        -0.29037E-09         0.00000E+00
    0.90324E-08        -0.28250E-09         0.00000E+00
    0.90848E-08        -0.26866E-09         0.00000E+00
    0.91154E-08        -0.23274E-09         0.00000E+00
    0.91260E-08        -0.15211E-09         0.00000E+00
    0.91242E-08        -0.97342E-10         0.00000E+00
    0.83813E-08        -0.19443E-09         0.00000E+00
    0.83786E-08        -0.32020E-09         0.00000E+00
    0.83845E-08        -0.50306E-09         0.00000E+00
    0.84092E-08        -0.57451E-09         0.00000E+00
    0.84546E-08        -0.57917E-09         0.00000E+00
    0.85178E-08        -0.54860E-09         0.00000E+00
    0.85934E-08        -0.50392E-09         0.00000E+00
    0.86754E-08        -0.45813E-09         0.00000E+00
    0.87577E-08        -0.41815E-09         0.00000E+00
    0.88350E-08        -0.38616E-09         0.00000E+00
    0.89024E-08        -0.36048E-09         0.00000E+00
    0.89561E-08        -0.33576E-09         0.00000E+00
    0.89930E-08        -0.30286E-09         0.00000E+00
    0.90125E-08        -0.24834E-09         0.00000E+00
    0.90167E-08        -0.15413E-09         0.00000E+00
    0.90134E-08        -0.94543E-10         0.00000E+00
    0.87969E-08        -0.19013E-09         0.00000E+00
    0.87914E-08        -0.31832E-09         0.00000E+00
    0.87880E-08        -0.51128E-09         0.00000E+00
    0.87971E-08        -0.59950E-09         0.00000E+00
    0.88221E-08        -0.62144E-09         0.00000E+00
    0.88619E-08        -0.60507E-09         0.00000E+00
    0.89131E-08        -0.56970E-09         0.00000E+00
    0.89708E-08        -0.52778E-09         0.00000E+00
    0.90300E-08        -0.48631E-09         0.00000E+00
    0.90861E-08        -0.44796E-09         0.00000E+00
    0.91346E-08        -0.41174E-09         0.00000E+00
    0.91722E-08        -0.37335E-09         0.00000E+00
    0.91966E-08        -0.32523E-09         0.00000E+00
    0.92075E-08        -0.25653E-09         0.00000E+00
    0.92075E-08        -0.15313E-09         0.00000E+00
    0.92036E-08        -0.90789E-10         0.00000E+00
    0.94027E-08        -0.18370E-09         0.00000E+00
    0.93955E-08        -0.31158E-09         0.00000E+00
    0.93855E-08        -0.50904E-09         0.00000E+00
    0.93829E-08        -0.60887E-09         0.00000E+00
    0.93920E-08        -0.64429E-09         0.00000E+00
    0.94129E-08        -0.63987E-09         0.00000E+00
    0.94436E-08        -0.61304E-09         0.00000E+00
    0.94806E-08        -0.57536E-09         0.00000E+00
    0.95198E-08        -0.53369E-09         0.00000E+00
    0.95573E-08        -0.49096E-09         0.00000E+00
    0.95896E-08        -0.44681E-09         0.00000E+00
    0.96137E-08        -0.39794E-09         0.00000E+00
    0.96280E-08        -0.33833E-09         0.00000E+00
    0.96325E-08        -0.25941E-09         0.00000E+00
    0.96298E-08        -0.15030E-09         0.00000E+00
    0.96256E-08        -0.86707E-10         0.00000E+00
    0.10153E-07        -0.17587E-09         0.00000E+00
    0.10144E-07        -0.30142E-09         0.00000E+00
    0.10130E-07        -0.49910E-09         0.00000E+00
    0.10118E-07        -0.60629E-09         0.00000E+00
    0.10115E-07        -0.65173E-09         0.00000E+00
    0.10120E-07        -0.65697E-09         0.00000E+00
    0.10134E-07        -0.63758E-09         0.00000E+00
    0.10154E-07        -0.60418E-09         0.00000E+00
    0.10176E-07        -0.56327E-09         0.00000E+00
    0.10198E-07        -0.51791E-09         0.00000E+00
    0.10216E-07        -0.46827E-09         0.00000E+00
    0.10229E-07        -0.41192E-09         0.00000E+00
    0.10235E-07        -0.34420E-09         0.00000E+00
    0.10235E-07        -0.25845E-09         0.00000E+00
    0.10230E-07        -0.14638E-09         0.00000E+00
    0.10226E-07        -0.82647E-10         0.00000E+00
    0.11012E-07        -0.16709E-09         0.00000E+00
    0.11003E-07        -0.28879E-09         0.00000E+00
    0.10985E-07        -0.48335E-09         0.00000E+00
    0.10966E-07        -0.59438E-09         0.00000E+00
    0.10953E-07        -0.64683E-09         0.00000E+00
    0.10946E-07        -0.65959E-09         0.00000E+00
    0.10946E-07        -0.64650E-09         0.00000E+00
    0.10951E-07        -0.61721E-09         0.00000E+00
    0.10959E-07        -0.57778E-09         0.00000E+00
    0.10967E-07        -0.53131E-09         0.00000E+00
    0.10974E-07        -0.47834E-09         0.00000E+00
    0.10978E-07        -0.41721E-09         0.00000E+00
    0.10977E-07        -0.34436E-09         0.00000E+00
    0.10973E-07        -0.25466E-09         0.00000E+00
    0.10967E-07        -0.14182E-09         0.00000E+00
    0.10963E-07        -0.78764E-10         0.00000E+00
    0.11953E-07        -0.15758E-09         0.00000E+00
    0.11943E-07        -0.27424E-09         0.00000E+00
    0.11922E-07        -0.46302E-09         0.00000E+00
    0.11898E-07        -0.57499E-09         0.00000E+00
    0.11877E-07        -0.63187E-09         0.00000E+00
    0.11860E-07        -0.65025E-09         0.00000E+00
    0.11848E-07        -0.64238E-09         0.00000E+00
    0.11840E-07        -0.61696E-09         0.00000E+00
    0.11836E-07        -0.57958E-09         0.00000E+00
    0.11833E-07        -0.53328E-09         0.00000E+00
    0.11830E-07        -0.47888E-09         0.00000E+00
    0.11826E-07        -0.41529E-09         0.00000E+00
    0.11820E-07        -0.33987E-09         0.00000E+00
    0.11813E-07        -0.24865E-09         0.00000E+00
    0.11806E-07        -0.13680E-09         0.00000E+00
    0.11803E-07        -0.75075E-10         0.00000E+00
    0.12952E-07        -0.14746E-09         0.00000E+00
    0.12941E-07        -0.25808E-09         0.00000E+00
    0.12918E-07        -0.43885E-09         0.00000E+00
    0.12889E-07        -0.54935E-09         0.00000E+00
    0.12861E-07        -0.60851E-09         0.00000E+00
    0.12835E-07        -0.63086E-09         0.00000E+00
    0.12814E-07        -0.62726E-09         0.00000E+00
    0.12796E-07        -0.60546E-09         0.00000E+00
    0.12781E-07        -0.57058E-09         0.00000E+00
    0.12769E-07        -0.52554E-09         0.00000E+00
    0.12757E-07        -0.47131E-09         0.00000E+00
    0.12747E-07        -0.40727E-09         0.00000E+00
    0.12736E-07        -0.33143E-09         0.00000E+00
    0.12726E-07        -0.24073E-09         0.00000E+00
    0.12718E-07        -0.13137E-09         0.00000E+00
    0.12715E-07        -0.71515E-10         0.00000E+00
    0.13987E-07        -0.13672E-09         0.00000E+00
    0.13976E-07        -0.24043E-09         0.00000E+00
    0.13950E-07        -0.41128E-09         0.00000E+00
    0.13918E-07        -0.51827E-09         0.00000E+00
    0.13883E-07        -0.57791E-09         0.00000E+00
    0.13850E-07        -0.60288E-09         0.00000E+00
    0.13820E-07        -0.60272E-09         0.00000E+00
    0.13793E-07        -0.58433E-09         0.00000E+00
    0.13770E-07        -0.55233E-09         0.00000E+00
    0.13749E-07        -0.50944E-09         0.00000E+00
    0.13731E-07        -0.45675E-09         0.00000E+00
    0.13714E-07        -0.39393E-09         0.00000E+00
    0.13699E-07        -0.31949E-09         0.00000E+00
    0.13687E-07        -0.23103E-09         0.00000E+00
    0.13678E-07        -0.12545E-09         0.00000E+00
    0.13674E-07        -0.67965E-10         0.00000E+00
    0.15039E-07        -0.12534E-09         0.00000E+00
    0.15027E-07        -0.22133E-09         0.00000E+00
    0.14999E-07        -0.38056E-09         0.00000E+00
    0.14963E-07        -0.48233E-09         0.00000E+00
    0.14923E-07        -0.54095E-09         0.00000E+00
    0.14884E-07        -0.56743E-09         0.00000E+00
    0.14846E-07        -0.57007E-09         0.00000E+00
    0.14812E-07        -0.55492E-09         0.00000E+00
    0.14781E-07        -0.52610E-09         0.00000E+00
    0.14753E-07        -0.48612E-09         0.00000E+00
    0.14728E-07        -0.43607E-09         0.00000E+00
    0.14707E-07        -0.37584E-09         0.00000E+00
    0.14688E-07        -0.30433E-09         0.00000E+00
    0.14673E-07        -0.21957E-09         0.00000E+00
    0.14663E-07        -0.11894E-09         0.00000E+00
    0.14660E-07        -0.64290E-10         0.00000E+00
    0.16087E-07        -0.11328E-09         0.00000E+00
    0.16074E-07        -0.20079E-09         0.00000E+00
    0.16044E-07        -0.34687E-09         0.00000E+00
    0.16004E-07        -0.44200E-09         0.00000E+00
    0.15960E-07        -0.49840E-09         0.00000E+00
    0.15915E-07        -0.52550E-09         0.00000E+00
    0.15871E-07        -0.53043E-09         0.00000E+00
    0.15831E-07        -0.51840E-09         0.00000E+00
    0.15793E-07        -0.49302E-09         0.00000E+00
    0.15759E-07        -0.45654E-09         0.00000E+00
    0.15729E-07        -0.41002E-09         0.00000E+00
    0.15703E-07        -0.35351E-09         0.00000E+00
    0.15681E-07        -0.28615E-09         0.00000E+00
    0.15664E-07        -0.20631E-09         0.00000E+00
    0.15653E-07        -0.11169E-09         0.00000E+00
    0.15649E-07        -0.60354E-10         0.00000E+00
    0.17111E-07        -0.10051E-09         0.00000E+00
    0.17098E-07        -0.17883E-09         0.00000E+00
    0.17066E-07        -0.31045E-09         0.00000E+00
    0.17023E-07        -0.39776E-09         0.00000E+00
    0.16975E-07        -0.45101E-09         0.00000E+00
    0.16926E-07        -0.47808E-09         0.00000E+00
    0.16877E-07        -0.48492E-09         0.00000E+00
    0.16831E-07        -0.47593E-09         0.00000E+00
    0.16789E-07        -0.45418E-09         0.00000E+00
    0.16750E-07        -0.42165E-09         0.00000E+00
    0.16715E-07        -0.37933E-09         0.00000E+00
    0.16685E-07        -0.32738E-09         0.00000E+00
    0.16661E-07        -0.26514E-09         0.00000E+00
    0.16641E-07        -0.19124E-09         0.00000E+00
    0.16629E-07        -0.10361E-09         0.00000E+00
    0.16624E-07        -0.56045E-10         0.00000E+00
    0.18092E-07        -0.87049E-10         0.00000E+00
    0.18079E-07        -0.15559E-09         0.00000E+00
    0.18046E-07        -0.27164E-09         0.00000E+00
    0.18001E-07        -0.35027E-09         0.00000E+00
    0.17950E-07        -0.39971E-09         0.00000E+00
    0.17897E-07        -0.42627E-09         0.00000E+00
    0.17845E-07        -0.43475E-09         0.00000E+00
    0.17795E-07        -0.42871E-09         0.00000E+00
    0.17748E-07        -0.41071E-09         0.00000E+00
    0.17706E-07        -0.38242E-09         0.00000E+00
    0.17668E-07        -0.34477E-09         0.00000E+00
    0.17635E-07        -0.29797E-09         0.00000E+00
    0.17608E-07        -0.24157E-09         0.00000E+00
    0.17586E-07        -0.17442E-09         0.00000E+00
    0.17573E-07        -0.94622E-10         0.00000E+00
    0.17568E-07        -0.51279E-10         0.00000E+00
    0.19014E-07        -0.73005E-10         0.00000E+00
    0.19000E-07        -0.13132E-09         0.00000E+00
    0.18966E-07        -0.23103E-09         0.00000E+00
    0.18920E-07        -0.30041E-09         0.00000E+00
    0.18867E-07        -0.34562E-09         0.00000E+00
    0.18812E-07        -0.37137E-09         0.00000E+00
    0.18758E-07        -0.38128E-09         0.00000E+00
    0.18706E-07        -0.37809E-09         0.00000E+00
    0.18657E-07        -0.36384E-09         0.00000E+00
    0.18612E-07        -0.33993E-09         0.00000E+00
    0.18571E-07        -0.30718E-09         0.00000E+00
    0.18536E-07        -0.26590E-09         0.00000E+00
    0.18507E-07        -0.21579E-09         0.00000E+00
    0.18484E-07        -0.15596E-09         0.00000E+00
    0.18469E-07        -0.84735E-10         0.00000E+00
    0.18464E-07        -0.46009E-10         0.00000E+00
    0.19859E-07        -0.58586E-10         0.00000E+00
    0.19845E-07        -0.10644E-09         0.00000E+00
    0.19811E-07        -0.18947E-09         0.00000E+00
    0.19765E-07        -0.24939E-09         0.00000E+00
    0.19713E-07        -0.29016E-09         0.00000E+00
    0.19657E-07        -0.31488E-09         0.00000E+00
    0.19603E-07        -0.32600E-09         0.00000E+00
    0.19549E-07        -0.32549E-09         0.00000E+00
    0.19499E-07        -0.31487E-09         0.00000E+00
    0.19453E-07        -0.29528E-09         0.00000E+00
    0.19411E-07        -0.26748E-09         0.00000E+00
    0.19374E-07        -0.23183E-09         0.00000E+00
    0.19343E-07        -0.18825E-09         0.00000E+00
    0.19319E-07        -0.13610E-09         0.00000E+00
    0.19304E-07        -0.73997E-10         0.00000E+00
    0.19298E-07        -0.40230E-10         0.00000E+00
    0.20616E-07        -0.44141E-10         0.00000E+00
    0.20602E-07        -0.81622E-10         0.00000E+00
    0.20570E-07        -0.14815E-09         0.00000E+00
    0.20526E-07        -0.19871E-09         0.00000E+00
    0.20475E-07        -0.23498E-09         0.00000E+00
    0.20421E-07        -0.25845E-09         0.00000E+00
    0.20367E-07        -0.27048E-09         0.00000E+00
    0.20315E-07        -0.27231E-09         0.00000E+00
    0.20265E-07        -0.26504E-09         0.00000E+00
    0.20218E-07        -0.24956E-09         0.00000E+00
    0.20175E-07        -0.22656E-09         0.00000E+00
    0.20138E-07        -0.19648E-09         0.00000E+00
    0.20106E-07        -0.15944E-09         0.00000E+00
    0.20082E-07        -0.11512E-09         0.00000E+00
    0.20065E-07        -0.62518E-10         0.00000E+00
    0.20059E-07        -0.33971E-10         0.00000E+00
    0.21277E-07        -0.30195E-10         0.00000E+00
    0.21266E-07        -0.57792E-10         0.00000E+00
    0.21236E-07        -0.10860E-09         0.00000E+00
    0.21195E-07        -0.15014E-09         0.00000E+00
    0.21148E-07        -0.18182E-09         0.00000E+00
    0.21097E-07        -0.20364E-09         0.00000E+00
    0.21046E-07        -0.21605E-09         0.00000E+00
    0.20994E-07        -0.21969E-09         0.00000E+00
    0.20945E-07        -0.21530E-09         0.00000E+00
    0.20899E-07        -0.20358E-09         0.00000E+00
    0.20856E-07        -0.18513E-09         0.00000E+00
    0.20818E-07        -0.16045E-09         0.00000E+00
    0.20786E-07        -0.12984E-09         0.00000E+00
    0.20761E-07        -0.93332E-10         0.00000E+00
    0.20745E-07        -0.50438E-10         0.00000E+00
    0.20738E-07        -0.27286E-10         0.00000E+00
    0.21845E-07        -0.17498E-10         0.00000E+00
    0.21835E-07        -0.36163E-10         0.00000E+00
    0.21811E-07        -0.72599E-10         0.00000E+00
    0.21776E-07        -0.10547E-09         0.00000E+00
    0.21734E-07        -0.13216E-09         0.00000E+00
    0.21687E-07        -0.15156E-09         0.00000E+00
    0.21637E-07        -0.16345E-09         0.00000E+00
    0.21587E-07        -0.16809E-09         0.00000E+00
    0.21539E-07        -0.16594E-09         0.00000E+00
    0.21492E-07        -0.15753E-09         0.00000E+00
    0.21449E-07        -0.14339E-09         0.00000E+00
    0.21411E-07        -0.12400E-09         0.00000E+00
    0.21379E-07        -0.99758E-10         0.00000E+00
    0.21353E-07        -0.71023E-10         0.00000E+00
    0.21336E-07        -0.37902E-10         0.00000E+00
    0.21330E-07        -0.20235E-10         0.00000E+00
    0.22331E-07        -0.71013E-11         0.00000E+00
    0.22325E-07        -0.18214E-10         0.00000E+00
    0.22308E-07        -0.41947E-10         0.00000E+00
    0.22279E-07        -0.66034E-10         0.00000E+00
    0.22242E-07        -0.86647E-10         0.00000E+00
    0.22198E-07        -0.10219E-09         0.00000E+00
    0.22150E-07        -0.11219E-09         0.00000E+00
    0.22099E-07        -0.11670E-09         0.00000E+00
    0.22049E-07        -0.11601E-09         0.00000E+00
    0.22000E-07        -0.11052E-09         0.00000E+00
    0.21955E-07        -0.10061E-09         0.00000E+00
    0.21915E-07        -0.86677E-10         0.00000E+00
    0.21882E-07        -0.69101E-10         0.00000E+00
    0.21856E-07        -0.48320E-10         0.00000E+00
    0.21839E-07        -0.25035E-10         0.00000E+00
    0.21833E-07        -0.12884E-10         0.00000E+00
    0.22762E-07        -0.29385E-12         0.00000E+00
    0.22762E-07        -0.55049E-11         0.00000E+00
    0.22753E-07        -0.17887E-10         0.00000E+00
    0.22731E-07        -0.31834E-10         0.00000E+00
    0.22696E-07        -0.44094E-10         0.00000E+00
    0.22652E-07        -0.53477E-10         0.00000E+00
    0.22600E-07        -0.59651E-10         0.00000E+00
    0.22545E-07        -0.62642E-10         0.00000E+00
    0.22489E-07        -0.62623E-10         0.00000E+00
    0.22434E-07        -0.59814E-10         0.00000E+00
    0.22382E-07        -0.54438E-10         0.00000E+00
    0.22337E-07        -0.46704E-10         0.00000E+00
    0.22300E-07        -0.36823E-10         0.00000E+00
    0.22272E-07        -0.25093E-10         0.00000E+00
    0.22256E-07        -0.11981E-10         0.00000E+00
    0.22251E-07        -0.51468E-11         0.00000E+00
    0.22968E-07         0.00000E+00         0.00000E+00
    0.22971E-07         0.00000E+00         0.00000E+00
    0.22968E-07        -0.66229E-22         0.00000E+00
    0.22948E-07         0.13326E-25         0.00000E+00
    0.22913E-07         0.70382E-22         0.00000E+00
    0.22867E-07         0.00000E+00         0.00000E+00
    0.22813E-07         0.00000E+00         0.00000E+00
    0.22754E-07        -0.62136E-22         0.00000E+00
    0.22693E-07        -0.62136E-22         0.00000E+00
    0.22633E-07         0.62148E-22         0.00000E+00
    0.22578E-07         0.66291E-22         0.00000E+00
    0.22529E-07        -0.66303E-22         0.00000E+00
    0.22488E-07        -0.41383E-23         0.00000E+00
    0.22459E-07         0.66311E-22         0.00000E+00
    0.22444E-07         0.82897E-23         0.00000E+00
    0.22440E-07         0.00000E+00         0.00000E+00
CELL_DATA        450
TENSORS stressef double 
    0.50742E+08        -0.15678E+07         0.00000E+00
   -0.15678E+07         0.23851E+08         0.00000E+00
    0.00000E+00         0.00000E+00         0.14919E+08
 
    0.42721E+08        -0.14026E+07         0.00000E+00
   -0.14026E+07         0.21538E+08         0.00000E+00
    0.00000E+00         0.00000E+00         0.12852E+08
 
    0.38719E+08        -0.10506E+07         0.00000E+00
   -0.10506E+07         0.19388E+08         0.00000E+00
    0.00000E+00         0.00000E+00         0.11621E+08
 
    0.36040E+08        -0.81362E+06         0.00000E+00
   -0.81362E+06         0.17668E+08         0.00000E+00
    0.00000E+00         0.00000E+00         0.10741E+08
 
    0.33998E+08        -0.63652E+06         0.00000E+00
   -0.63652E+06         0.16307E+08         0.00000E+00
    0.00000E+00         0.00000E+00         0.10061E+08
 
    0.32292E+08        -0.49985E+06         0.00000E+00
   -0.49985E+06         0.15233E+08         0.00000E+00
    0.00000E+00         0.00000E+00         0.95049E+07
 
    0.30767E+08        -0.38929E+06         0.00000E+00
   -0.38929E+06         0.14390E+08         0.00000E+00
    0.00000E+00         0.00000E+00         0.90314E+07
 
    0.29326E+08        -0.29513E+06         0.00000E+00
   -0.29513E+06         0.13742E+08         0.00000E+00
    0.00000E+00         0.00000E+00         0.86136E+07
 
    0.27891E+08        -0.20982E+06         0.00000E+00
   -0.20982E+06         0.13268E+08         0.00000E+00
    0.00000E+00         0.00000E+00         0.82318E+07
 
    0.26387E+08        -0.12616E+06         0.00000E+00
   -0.12616E+06         0.12960E+08         0.00000E+00
    0.00000E+00         0.00000E+00         0.78694E+07
 
    0.24717E+08        -0.34893E+05         0.00000E+00
   -0.34893E+05         0.12826E+08         0.00000E+00
    0.00000E+00         0.00000E+00         0.75086E+07
 
    0.22735E+08         0.79903E+05         0.00000E+00
    0.79903E+05         0.12899E+08         0.00000E+00
    0.00000E+00         0.00000E+00         0.71267E+07
 
    0.20165E+08         0.25704E+06         0.00000E+00
    0.25704E+06         0.13264E+08         0.00000E+00
    0.00000E+00         0.00000E+00         0.66858E+07
 
    0.16415E+08         0.59268E+06         0.00000E+00
    0.59268E+06         0.14149E+08         0.00000E+00
    0.00000E+00         0.00000E+00         0.61129E+07
 
    0.93238E+07         0.18934E+07         0.00000E+00
    0.18934E+07         0.16393E+08         0.00000E+00
    0.00000E+00         0.00000E+00         0.51433E+07
 
    0.39678E+08        -0.19949E+07         0.00000E+00
   -0.19949E+07         0.16439E+08         0.00000E+00
    0.00000E+00         0.00000E+00         0.11223E+08
 
    0.34445E+08        -0.30664E+07         0.00000E+00
   -0.30664E+07         0.16285E+08         0.00000E+00
    0.00000E+00         0.00000E+00         0.10146E+08
 
    0.30573E+08        -0.27068E+07         0.00000E+00
   -0.27068E+07         0.15368E+08         0.00000E+00
    0.00000E+00         0.00000E+00         0.91882E+07
 
    0.27910E+08        -0.22230E+07         0.00000E+00
   -0.22230E+07         0.14314E+08         0.00000E+00
    0.00000E+00         0.00000E+00         0.84449E+07
 
    0.25866E+08        -0.17959E+07         0.00000E+00
   -0.17959E+07         0.13347E+08         0.00000E+00
    0.00000E+00         0.00000E+00         0.78426E+07
 
    0.24168E+08        -0.14373E+07         0.00000E+00
   -0.14373E+07         0.12523E+08         0.00000E+00
    0.00000E+00         0.00000E+00         0.73382E+07
 
    0.22661E+08        -0.11329E+07         0.00000E+00
   -0.11329E+07         0.11850E+08         0.00000E+00
    0.00000E+00         0.00000E+00         0.69023E+07
 
    0.21246E+08        -0.86494E+06         0.00000E+00
   -0.86494E+06         0.11327E+08         0.00000E+00
    0.00000E+00         0.00000E+00         0.65146E+07
 
    0.19847E+08        -0.61605E+06         0.00000E+00
   -0.61605E+06         0.10951E+08         0.00000E+00
    0.00000E+00         0.00000E+00         0.61595E+07
 
    0.18390E+08        -0.36677E+06         0.00000E+00
   -0.36677E+06         0.10728E+08         0.00000E+00
    0.00000E+00         0.00000E+00         0.58236E+07
 
    0.16790E+08        -0.89817E+05         0.00000E+00
   -0.89817E+05         0.10676E+08         0.00000E+00
    0.00000E+00         0.00000E+00         0.54931E+07
 
    0.14922E+08         0.26456E+06         0.00000E+00
    0.26456E+06         0.10837E+08         0.00000E+00
    0.00000E+00         0.00000E+00         0.51517E+07
 
    0.12591E+08         0.80776E+06         0.00000E+00
    0.80776E+06         0.11301E+08         0.00000E+00
    0.00000E+00         0.00000E+00         0.47784E+07
 
    0.94199E+07         0.18634E+07         0.00000E+00
    0.18634E+07         0.12262E+08         0.00000E+00
    0.00000E+00         0.00000E+00         0.43365E+07
 
    0.56595E+07         0.46406E+07         0.00000E+00
    0.46406E+07         0.13967E+08         0.00000E+00
    0.00000E+00         0.00000E+00         0.39252E+07
 
    0.30887E+08        -0.15742E+07         0.00000E+00
   -0.15742E+07         0.10455E+08         0.00000E+00
    0.00000E+00         0.00000E+00         0.82684E+07
 
    0.27955E+08        -0.31822E+07         0.00000E+00
   -0.31822E+07         0.10918E+08         0.00000E+00
    0.00000E+00         0.00000E+00         0.77746E+07
 
    0.24856E+08        -0.33871E+07         0.00000E+00
   -0.33871E+07         0.11042E+08         0.00000E+00
    0.00000E+00         0.00000E+00         0.71795E+07
 
    0.22307E+08        -0.30507E+07         0.00000E+00
   -0.30507E+07         0.10774E+08         0.00000E+00
    0.00000E+00         0.00000E+00         0.66164E+07
 
    0.20257E+08        -0.25960E+07         0.00000E+00
   -0.25960E+07         0.10347E+08         0.00000E+00
    0.00000E+00         0.00000E+00         0.61207E+07
 
    0.18530E+08        -0.21432E+07         0.00000E+00
   -0.21432E+07         0.98940E+07         0.00000E+00
    0.00000E+00         0.00000E+00         0.56848E+07
 
    0.17002E+08        -0.17197E+07         0.00000E+00
   -0.17197E+07         0.94856E+07         0.00000E+00
    0.00000E+00         0.00000E+00         0.52976E+07
 
    0.15581E+08        -0.13217E+07         0.00000E+00
   -0.13217E+07         0.91584E+07         0.00000E+00
    0.00000E+00         0.00000E+00         0.49479E+07
 
    0.14195E+08        -0.93311E+06         0.00000E+00
   -0.93311E+06         0.89366E+07         0.00000E+00
    0.00000E+00         0.00000E+00         0.46262E+07
 
    0.12777E+08        -0.52822E+06         0.00000E+00
   -0.52822E+06         0.88427E+07         0.00000E+00
    0.00000E+00         0.00000E+00         0.43239E+07
 
    0.11258E+08        -0.64994E+05         0.00000E+00
   -0.64994E+05         0.89057E+07         0.00000E+00
    0.00000E+00         0.00000E+00         0.40328E+07
 
    0.95614E+07         0.53429E+06         0.00000E+00
    0.53429E+06         0.91695E+07         0.00000E+00
    0.00000E+00         0.00000E+00         0.37462E+07
 
    0.76010E+07         0.14319E+07         0.00000E+00
    0.14319E+07         0.96974E+07         0.00000E+00
    0.00000E+00         0.00000E+00         0.34597E+07
 
    0.54398E+07         0.30063E+07         0.00000E+00
    0.30063E+07         0.10544E+08         0.00000E+00
    0.00000E+00         0.00000E+00         0.31968E+07
 
    0.36398E+07         0.58175E+07         0.00000E+00
    0.58175E+07         0.11414E+08         0.00000E+00
    0.00000E+00         0.00000E+00         0.30107E+07
 
    0.24291E+08        -0.11619E+07         0.00000E+00
   -0.11619E+07         0.61609E+07         0.00000E+00
    0.00000E+00         0.00000E+00         0.60905E+07
 
    0.22738E+08        -0.27191E+07         0.00000E+00
   -0.27191E+07         0.66749E+07         0.00000E+00
    0.00000E+00         0.00000E+00         0.58826E+07
 
    0.20493E+08        -0.33024E+07         0.00000E+00
   -0.33024E+07         0.71769E+07         0.00000E+00
    0.00000E+00         0.00000E+00         0.55340E+07
 
    0.18276E+08        -0.32689E+07         0.00000E+00
   -0.32689E+07         0.74276E+07         0.00000E+00
    0.00000E+00         0.00000E+00         0.51408E+07
 
    0.16312E+08        -0.29515E+07         0.00000E+00
   -0.29515E+07         0.74573E+07         0.00000E+00
    0.00000E+00         0.00000E+00         0.47539E+07
 
    0.14593E+08        -0.25285E+07         0.00000E+00
   -0.25285E+07         0.73674E+07         0.00000E+00
    0.00000E+00         0.00000E+00         0.43921E+07
 
    0.13053E+08        -0.20708E+07         0.00000E+00
   -0.20708E+07         0.72392E+07         0.00000E+00
    0.00000E+00         0.00000E+00         0.40585E+07
 
    0.11626E+08        -0.15986E+07         0.00000E+00
   -0.15986E+07         0.71298E+07         0.00000E+00
    0.00000E+00         0.00000E+00         0.37513E+07
 
    0.10253E+08        -0.11060E+07         0.00000E+00
   -0.11060E+07         0.70805E+07         0.00000E+00
    0.00000E+00         0.00000E+00         0.34668E+07
 
    0.88826E+07        -0.56807E+06         0.00000E+00
   -0.56807E+06         0.71254E+07         0.00000E+00
    0.00000E+00         0.00000E+00         0.32016E+07
 
    0.74703E+07         0.63026E+05         0.00000E+00
    0.63026E+05         0.72963E+07         0.00000E+00
    0.00000E+00         0.00000E+00         0.29533E+07
 
    0.59888E+07         0.87333E+06         0.00000E+00
    0.87333E+06         0.76232E+07         0.00000E+00
    0.00000E+00         0.00000E+00         0.27224E+07
 
    0.44713E+07         0.20180E+07         0.00000E+00
    0.20180E+07         0.81181E+07         0.00000E+00
    0.00000E+00         0.00000E+00         0.25179E+07
 
    0.31135E+07         0.37259E+07         0.00000E+00
    0.37259E+07         0.86966E+07         0.00000E+00
    0.00000E+00         0.00000E+00         0.23620E+07
 
    0.24033E+07         0.61991E+07         0.00000E+00
    0.61991E+07         0.90799E+07         0.00000E+00
    0.00000E+00         0.00000E+00         0.22966E+07
 
    0.19405E+08        -0.83699E+06         0.00000E+00
   -0.83699E+06         0.30465E+07         0.00000E+00
    0.00000E+00         0.00000E+00         0.44903E+07
 
    0.18603E+08        -0.21566E+07         0.00000E+00
   -0.21566E+07         0.34828E+07         0.00000E+00
    0.00000E+00         0.00000E+00         0.44171E+07
 
    0.17021E+08        -0.28717E+07         0.00000E+00
   -0.28717E+07         0.40458E+07         0.00000E+00
    0.00000E+00         0.00000E+00         0.42134E+07
 
    0.15201E+08        -0.30694E+07         0.00000E+00
   -0.30694E+07         0.45141E+07         0.00000E+00
    0.00000E+00         0.00000E+00         0.39431E+07
 
    0.13422E+08        -0.29314E+07         0.00000E+00
   -0.29314E+07         0.48237E+07         0.00000E+00
    0.00000E+00         0.00000E+00         0.36492E+07
 
    0.11777E+08        -0.26052E+07         0.00000E+00
   -0.26052E+07         0.50033E+07         0.00000E+00
    0.00000E+00         0.00000E+00         0.33560E+07
 
    0.10266E+08        -0.21754E+07         0.00000E+00
   -0.21754E+07         0.51084E+07         0.00000E+00
    0.00000E+00         0.00000E+00         0.30749E+07
 
    0.88596E+07        -0.16790E+07         0.00000E+00
   -0.16790E+07         0.51919E+07         0.00000E+00
    0.00000E+00         0.00000E+00         0.28103E+07
 
    0.75204E+07        -0.11214E+07         0.00000E+00
   -0.11214E+07         0.52976E+07         0.00000E+00
    0.00000E+00         0.00000E+00         0.25636E+07
 
    0.62167E+07        -0.48438E+06         0.00000E+00
   -0.48438E+06         0.54606E+07         0.00000E+00
    0.00000E+00         0.00000E+00         0.23355E+07
 
    0.49312E+07         0.27414E+06         0.00000E+00
    0.27414E+06         0.57069E+07         0.00000E+00
    0.00000E+00         0.00000E+00         0.21276E+07
 
    0.36785E+07         0.12261E+07         0.00000E+00
    0.12261E+07         0.60469E+07         0.00000E+00
    0.00000E+00         0.00000E+00         0.19451E+07
 
    0.25413E+07         0.24738E+07         0.00000E+00
    0.24738E+07         0.64513E+07         0.00000E+00
    0.00000E+00         0.00000E+00         0.17985E+07
 
    0.17219E+07         0.41236E+07         0.00000E+00
    0.41236E+07         0.68144E+07         0.00000E+00
    0.00000E+00         0.00000E+00         0.17073E+07
 
    0.15730E+07         0.62058E+07         0.00000E+00
    0.62058E+07         0.69230E+07         0.00000E+00
    0.00000E+00         0.00000E+00         0.16992E+07
 
    0.15765E+08        -0.59271E+06         0.00000E+00
   -0.59271E+06         0.72627E+06         0.00000E+00
    0.00000E+00         0.00000E+00         0.32982E+07
 
    0.15338E+08        -0.16428E+07         0.00000E+00
   -0.16428E+07         0.10634E+07         0.00000E+00
    0.00000E+00         0.00000E+00         0.32802E+07
 
    0.14209E+08        -0.23447E+07         0.00000E+00
   -0.23447E+07         0.15670E+07         0.00000E+00
    0.00000E+00         0.00000E+00         0.31552E+07
 
    0.12745E+08        -0.26624E+07         0.00000E+00
   -0.26624E+07         0.20762E+07         0.00000E+00
    0.00000E+00         0.00000E+00         0.29643E+07
 
    0.11194E+08        -0.26661E+07         0.00000E+00
   -0.26661E+07         0.25059E+07         0.00000E+00
    0.00000E+00         0.00000E+00         0.27399E+07
 
    0.96792E+07        -0.24465E+07         0.00000E+00
   -0.24465E+07         0.28401E+07         0.00000E+00
    0.00000E+00         0.00000E+00         0.25039E+07
 
    0.82463E+07        -0.20734E+07         0.00000E+00
   -0.20734E+07         0.31012E+07         0.00000E+00
    0.00000E+00         0.00000E+00         0.22695E+07
 
    0.68979E+07        -0.15865E+07         0.00000E+00
   -0.15865E+07         0.33242E+07         0.00000E+00
    0.00000E+00         0.00000E+00         0.20444E+07
 
    0.56217E+07        -0.99889E+06         0.00000E+00
   -0.99889E+06         0.35437E+07         0.00000E+00
    0.00000E+00         0.00000E+00         0.18331E+07
 
    0.44071E+07        -0.30162E+06         0.00000E+00
   -0.30162E+06         0.37875E+07         0.00000E+00
    0.00000E+00         0.00000E+00         0.16389E+07
 
    0.32583E+07         0.53391E+06         0.00000E+00
    0.53391E+06         0.40718E+07         0.00000E+00
    0.00000E+00         0.00000E+00         0.14660E+07
 
    0.22119E+07         0.15528E+07         0.00000E+00
    0.15528E+07         0.43914E+07         0.00000E+00
    0.00000E+00         0.00000E+00         0.13207E+07
 
    0.13589E+07         0.28060E+07         0.00000E+00
    0.28060E+07         0.47052E+07         0.00000E+00
    0.00000E+00         0.00000E+00         0.12128E+07
 
    0.86462E+06         0.43212E+07         0.00000E+00
    0.43212E+07         0.49205E+07         0.00000E+00
    0.00000E+00         0.00000E+00         0.11570E+07
 
    0.96650E+06         0.60524E+07         0.00000E+00
    0.60524E+07         0.48943E+07         0.00000E+00
    0.00000E+00         0.00000E+00         0.11722E+07
 
    0.13004E+08        -0.41191E+06         0.00000E+00
   -0.41191E+06        -0.10757E+07         0.00000E+00
    0.00000E+00         0.00000E+00         0.23856E+07
 
    0.12736E+08        -0.12163E+07         0.00000E+00
   -0.12163E+07        -0.82871E+06         0.00000E+00
    0.00000E+00         0.00000E+00         0.23815E+07
 
    0.11894E+08        -0.18369E+07         0.00000E+00
   -0.18369E+07        -0.42151E+06         0.00000E+00
    0.00000E+00         0.00000E+00         0.22945E+07
 
    0.10715E+08        -0.21898E+07         0.00000E+00
   -0.21898E+07         0.41720E+05         0.00000E+00
    0.00000E+00         0.00000E+00         0.21513E+07
 
    0.93885E+07        -0.22781E+07         0.00000E+00
   -0.22781E+07         0.48586E+06         0.00000E+00
    0.00000E+00         0.00000E+00         0.19749E+07
 
    0.80359E+07        -0.21429E+07         0.00000E+00
   -0.21429E+07         0.87754E+06         0.00000E+00
    0.00000E+00         0.00000E+00         0.17827E+07
 
    0.67197E+07        -0.18289E+07         0.00000E+00
   -0.18289E+07         0.12156E+07         0.00000E+00
    0.00000E+00         0.00000E+00         0.15871E+07
 
    0.54653E+07        -0.13684E+07         0.00000E+00
   -0.13684E+07         0.15160E+07         0.00000E+00
    0.00000E+00         0.00000E+00         0.13963E+07
 
    0.42808E+07        -0.77699E+06         0.00000E+00
   -0.77699E+06         0.17996E+07         0.00000E+00
    0.00000E+00         0.00000E+00         0.12161E+07
 
    0.31727E+07        -0.54403E+05         0.00000E+00
   -0.54403E+05         0.20834E+07         0.00000E+00
    0.00000E+00         0.00000E+00         0.10512E+07
 
    0.21594E+07         0.81222E+06         0.00000E+00
    0.81222E+06         0.23737E+07         0.00000E+00
    0.00000E+00         0.00000E+00         0.90661E+06
 
    0.12840E+07         0.18419E+07         0.00000E+00
    0.18419E+07         0.26581E+07         0.00000E+00
    0.00000E+00         0.00000E+00         0.78842E+06
 
    0.62666E+06         0.30468E+07         0.00000E+00
    0.30468E+07         0.28976E+07         0.00000E+00
    0.00000E+00         0.00000E+00         0.70485E+06
 
    0.30896E+06         0.44100E+07         0.00000E+00
    0.44100E+07         0.30235E+07         0.00000E+00
    0.00000E+00         0.00000E+00         0.66649E+06
 
    0.48216E+06         0.58556E+07         0.00000E+00
    0.58556E+07         0.29468E+07         0.00000E+00
    0.00000E+00         0.00000E+00         0.68580E+06
 
    0.10847E+08        -0.27974E+06         0.00000E+00
   -0.27974E+06        -0.25519E+07         0.00000E+00
    0.00000E+00         0.00000E+00         0.16590E+07
 
    0.10618E+08        -0.87904E+06         0.00000E+00
   -0.87904E+06        -0.23800E+07         0.00000E+00
    0.00000E+00         0.00000E+00         0.16477E+07
 
    0.99472E+07        -0.13955E+07         0.00000E+00
   -0.13955E+07        -0.20735E+07         0.00000E+00
    0.00000E+00         0.00000E+00         0.15747E+07
 
    0.89818E+07        -0.17321E+07         0.00000E+00
   -0.17321E+07        -0.16932E+07         0.00000E+00
    0.00000E+00         0.00000E+00         0.14577E+07
 
    0.78579E+07        -0.18565E+07         0.00000E+00
   -0.18565E+07        -0.12952E+07         0.00000E+00
    0.00000E+00         0.00000E+00         0.13125E+07
 
    0.66760E+07        -0.17748E+07         0.00000E+00
   -0.17748E+07        -0.91461E+06         0.00000E+00
    0.00000E+00         0.00000E+00         0.11523E+07
 
    0.55001E+07        -0.15083E+07         0.00000E+00
   -0.15083E+07        -0.56447E+06         0.00000E+00
    0.00000E+00         0.00000E+00         0.98712E+06
 
    0.43662E+07        -0.10783E+07         0.00000E+00
   -0.10783E+07        -0.24305E+06         0.00000E+00
    0.00000E+00         0.00000E+00         0.82464E+06
 
    0.32953E+07        -0.49915E+06         0.00000E+00
   -0.49915E+06         0.57802E+05         0.00000E+00
    0.00000E+00         0.00000E+00         0.67063E+06
 
    0.23049E+07         0.22304E+06         0.00000E+00
    0.22304E+06         0.34497E+06         0.00000E+00
    0.00000E+00         0.00000E+00         0.52997E+06
 
    0.14198E+07         0.10877E+07         0.00000E+00
    0.10877E+07         0.61752E+06         0.00000E+00
    0.00000E+00         0.00000E+00         0.40746E+06
 
    0.68114E+06         0.20936E+07         0.00000E+00
    0.20936E+07         0.86113E+06         0.00000E+00
    0.00000E+00         0.00000E+00         0.30845E+06
 
    0.15182E+06         0.32277E+07         0.00000E+00
    0.32277E+07         0.10447E+07         0.00000E+00
    0.00000E+00         0.00000E+00         0.23931E+06
 
   -0.85234E+05         0.44500E+07         0.00000E+00
    0.44500E+07         0.11224E+07         0.00000E+00
    0.00000E+00         0.00000E+00         0.20743E+06
 
    0.60386E+05         0.56773E+07         0.00000E+00
    0.56773E+07         0.10441E+07         0.00000E+00
    0.00000E+00         0.00000E+00         0.22090E+06
 
    0.90897E+07        -0.18512E+06         0.00000E+00
   -0.18512E+06        -0.38370E+07         0.00000E+00
    0.00000E+00         0.00000E+00         0.10505E+07
 
    0.88356E+07        -0.62270E+06         0.00000E+00
   -0.62270E+06        -0.37265E+07         0.00000E+00
    0.00000E+00         0.00000E+00         0.10218E+07
 
    0.82606E+07        -0.10364E+07         0.00000E+00
   -0.10364E+07        -0.35132E+07         0.00000E+00
    0.00000E+00         0.00000E+00         0.94947E+06
 
    0.74525E+07        -0.13312E+07         0.00000E+00
   -0.13312E+07        -0.32277E+07         0.00000E+00
    0.00000E+00         0.00000E+00         0.84496E+06
 
    0.65025E+07        -0.14585E+07         0.00000E+00
   -0.14585E+07        -0.29070E+07         0.00000E+00
    0.00000E+00         0.00000E+00         0.71909E+06
 
    0.54869E+07        -0.14029E+07         0.00000E+00
   -0.14029E+07        -0.25804E+07         0.00000E+00
    0.00000E+00         0.00000E+00         0.58131E+06
 
    0.44616E+07        -0.11681E+07         0.00000E+00
   -0.11681E+07        -0.22647E+07         0.00000E+00
    0.00000E+00         0.00000E+00         0.43939E+06
 
    0.34641E+07        -0.76505E+06         0.00000E+00
   -0.76505E+06        -0.19662E+07         0.00000E+00
    0.00000E+00         0.00000E+00         0.29958E+06
 
    0.25204E+07        -0.20513E+06         0.00000E+00
   -0.20513E+06        -0.16858E+07         0.00000E+00
    0.00000E+00         0.00000E+00         0.16691E+06
 
    0.16527E+07         0.50170E+06         0.00000E+00
    0.50170E+06        -0.14240E+07         0.00000E+00
    0.00000E+00         0.00000E+00         0.45740E+05
 
    0.88684E+06         0.13455E+07         0.00000E+00
    0.13455E+07        -0.11859E+07         0.00000E+00
    0.00000E+00         0.00000E+00        -0.59818E+05
 
    0.25742E+06         0.23114E+07         0.00000E+00
    0.23114E+07        -0.98483E+06         0.00000E+00
    0.00000E+00         0.00000E+00        -0.14548E+06
 
   -0.19028E+06         0.33721E+07         0.00000E+00
    0.33721E+07        -0.84276E+06         0.00000E+00
    0.00000E+00         0.00000E+00        -0.20661E+06
 
   -0.40394E+06         0.44777E+07         0.00000E+00
    0.44777E+07        -0.78717E+06         0.00000E+00
    0.00000E+00         0.00000E+00        -0.23822E+06
 
   -0.33502E+06         0.55476E+07         0.00000E+00
    0.55476E+07        -0.84138E+06         0.00000E+00
    0.00000E+00         0.00000E+00        -0.23528E+06
 
    0.75799E+07        -0.12019E+06         0.00000E+00
   -0.12019E+06        -0.50262E+07         0.00000E+00
    0.00000E+00         0.00000E+00         0.51074E+06
 
    0.72690E+07        -0.43715E+06         0.00000E+00
   -0.43715E+06        -0.49659E+07         0.00000E+00
    0.00000E+00         0.00000E+00         0.46061E+06
 
    0.67444E+07        -0.76162E+06         0.00000E+00
   -0.76162E+06        -0.48357E+07         0.00000E+00
    0.00000E+00         0.00000E+00         0.38176E+06
 
    0.60530E+07        -0.10064E+07         0.00000E+00
   -0.10064E+07        -0.46450E+07         0.00000E+00
    0.00000E+00         0.00000E+00         0.28159E+06
 
    0.52510E+07        -0.11175E+07         0.00000E+00
   -0.11175E+07        -0.44149E+07         0.00000E+00
    0.00000E+00         0.00000E+00         0.16721E+06
 
    0.43915E+07        -0.10682E+07         0.00000E+00
   -0.10682E+07        -0.41662E+07         0.00000E+00
    0.00000E+00         0.00000E+00         0.45077E+05
 
    0.35182E+07        -0.85041E+06         0.00000E+00
   -0.85041E+06        -0.39144E+07         0.00000E+00
    0.00000E+00         0.00000E+00        -0.79250E+05
 
    0.26638E+07        -0.46716E+06         0.00000E+00
   -0.46716E+06        -0.36693E+07         0.00000E+00
    0.00000E+00         0.00000E+00        -0.20109E+06
 
    0.18538E+07         0.73220E+05         0.00000E+00
    0.73220E+05        -0.34363E+07         0.00000E+00
    0.00000E+00         0.00000E+00        -0.31650E+06
 
    0.11099E+07         0.75910E+06         0.00000E+00
    0.75910E+06        -0.32201E+07         0.00000E+00
    0.00000E+00         0.00000E+00        -0.42205E+06
 
    0.45496E+06         0.15750E+07         0.00000E+00
    0.15750E+07        -0.30277E+07         0.00000E+00
    0.00000E+00         0.00000E+00        -0.51454E+06
 
   -0.84762E+05         0.24984E+07         0.00000E+00
    0.24984E+07        -0.28694E+07         0.00000E+00
    0.00000E+00         0.00000E+00        -0.59084E+06
 
   -0.47956E+06         0.34948E+07         0.00000E+00
    0.34948E+07        -0.27594E+07         0.00000E+00
    0.00000E+00         0.00000E+00        -0.64779E+06
 
   -0.70020E+06         0.45125E+07         0.00000E+00
    0.45125E+07        -0.27111E+07         0.00000E+00
    0.00000E+00         0.00000E+00        -0.68226E+06
 
   -0.72638E+06         0.54780E+07         0.00000E+00
    0.54780E+07        -0.27304E+07         0.00000E+00
    0.00000E+00         0.00000E+00        -0.69135E+06
 
    0.62012E+07        -0.79500E+05         0.00000E+00
   -0.79500E+05        -0.61872E+07         0.00000E+00
    0.00000E+00         0.00000E+00         0.27960E+04
 
    0.58228E+07        -0.31332E+06         0.00000E+00
   -0.31332E+06        -0.61688E+07         0.00000E+00
    0.00000E+00         0.00000E+00        -0.69188E+05
 
    0.53241E+07        -0.56764E+06         0.00000E+00
   -0.56764E+06        -0.61115E+07         0.00000E+00
    0.00000E+00         0.00000E+00        -0.15748E+06
 
    0.47228E+07        -0.76488E+06         0.00000E+00
   -0.76488E+06        -0.60106E+07         0.00000E+00
    0.00000E+00         0.00000E+00        -0.25757E+06
 
    0.40486E+07        -0.85147E+06         0.00000E+00
   -0.85147E+06        -0.58741E+07         0.00000E+00
    0.00000E+00         0.00000E+00        -0.36510E+06
 
    0.33342E+07        -0.79580E+06         0.00000E+00
   -0.79580E+06        -0.57143E+07         0.00000E+00
    0.00000E+00         0.00000E+00        -0.47602E+06
 
    0.26094E+07        -0.58343E+06         0.00000E+00
   -0.58343E+06        -0.55429E+07         0.00000E+00
    0.00000E+00         0.00000E+00        -0.58671E+06
 
    0.18993E+07        -0.21195E+06         0.00000E+00
   -0.21195E+06        -0.53694E+07         0.00000E+00
    0.00000E+00         0.00000E+00        -0.69401E+06
 
    0.12247E+07         0.31288E+06         0.00000E+00
    0.31288E+06        -0.52007E+07         0.00000E+00
    0.00000E+00         0.00000E+00        -0.79522E+06
 
    0.60336E+06         0.97915E+06         0.00000E+00
    0.97915E+06        -0.50431E+07         0.00000E+00
    0.00000E+00         0.00000E+00        -0.88794E+06
 
    0.52835E+05         0.17688E+07         0.00000E+00
    0.17688E+07        -0.49028E+07         0.00000E+00
    0.00000E+00         0.00000E+00        -0.97000E+06
 
   -0.40939E+06         0.26559E+07         0.00000E+00
    0.26559E+07        -0.47874E+07         0.00000E+00
    0.00000E+00         0.00000E+00        -0.10394E+07
 
   -0.76659E+06         0.36039E+07         0.00000E+00
    0.36039E+07        -0.47039E+07         0.00000E+00
    0.00000E+00         0.00000E+00        -0.10941E+07
 
   -0.10065E+07         0.45630E+07         0.00000E+00
    0.45630E+07        -0.46561E+07         0.00000E+00
    0.00000E+00         0.00000E+00        -0.11325E+07
 
   -0.11275E+07         0.54688E+07         0.00000E+00
    0.54688E+07        -0.46386E+07         0.00000E+00
    0.00000E+00         0.00000E+00        -0.11532E+07
 
    0.48633E+07        -0.59239E+05         0.00000E+00
   -0.59239E+05        -0.73692E+07         0.00000E+00
    0.00000E+00         0.00000E+00        -0.50117E+06
 
    0.44201E+07        -0.24364E+06         0.00000E+00
   -0.24364E+06        -0.73862E+07         0.00000E+00
    0.00000E+00         0.00000E+00        -0.59321E+06
 
    0.39372E+07        -0.44891E+06         0.00000E+00
   -0.44891E+06        -0.73930E+07         0.00000E+00
    0.00000E+00         0.00000E+00        -0.69116E+06
 
    0.34113E+07        -0.60700E+06         0.00000E+00
   -0.60700E+06        -0.73747E+07         0.00000E+00
    0.00000E+00         0.00000E+00        -0.79268E+06
 
    0.28514E+07        -0.66794E+06         0.00000E+00
   -0.66794E+06        -0.73291E+07         0.00000E+00
    0.00000E+00         0.00000E+00        -0.89553E+06
 
    0.22727E+07        -0.59937E+06         0.00000E+00
   -0.59937E+06        -0.72607E+07         0.00000E+00
    0.00000E+00         0.00000E+00        -0.99760E+06
 
    0.16918E+07        -0.38405E+06         0.00000E+00
   -0.38405E+06        -0.71765E+07         0.00000E+00
    0.00000E+00         0.00000E+00        -0.10969E+07
 
    0.11244E+07        -0.16641E+05         0.00000E+00
   -0.16641E+05        -0.70835E+07         0.00000E+00
    0.00000E+00         0.00000E+00        -0.11918E+07
 
    0.58433E+06         0.49898E+06         0.00000E+00
    0.49898E+06        -0.69880E+07         0.00000E+00
    0.00000E+00         0.00000E+00        -0.12807E+07
 
    0.83706E+05         0.11514E+07         0.00000E+00
    0.11514E+07        -0.68953E+07         0.00000E+00
    0.00000E+00         0.00000E+00        -0.13623E+07
 
   -0.36663E+06         0.19219E+07         0.00000E+00
    0.19219E+07        -0.68105E+07         0.00000E+00
    0.00000E+00         0.00000E+00        -0.14354E+07
 
   -0.75746E+06         0.27841E+07         0.00000E+00
    0.27841E+07        -0.67376E+07         0.00000E+00
    0.00000E+00         0.00000E+00        -0.14990E+07
 
   -0.10827E+07         0.37024E+07         0.00000E+00
    0.37024E+07        -0.66783E+07         0.00000E+00
    0.00000E+00         0.00000E+00        -0.15522E+07
 
   -0.13423E+07         0.46310E+07         0.00000E+00
    0.46310E+07        -0.66293E+07         0.00000E+00
    0.00000E+00         0.00000E+00        -0.15943E+07
 
   -0.15469E+07         0.55144E+07         0.00000E+00
    0.55144E+07        -0.65786E+07         0.00000E+00
    0.00000E+00         0.00000E+00        -0.16251E+07
 
    0.34944E+07        -0.56680E+05         0.00000E+00
   -0.56680E+05        -0.86081E+07         0.00000E+00
    0.00000E+00         0.00000E+00        -0.10228E+07
 
    0.29979E+07        -0.22193E+06         0.00000E+00
   -0.22193E+06        -0.86557E+07         0.00000E+00
    0.00000E+00         0.00000E+00        -0.11316E+07
 
    0.25315E+07        -0.39924E+06         0.00000E+00
   -0.39924E+06        -0.87188E+07         0.00000E+00
    0.00000E+00         0.00000E+00        -0.12374E+07
 
    0.20758E+07        -0.52957E+06         0.00000E+00
   -0.52957E+06        -0.87751E+07         0.00000E+00
    0.00000E+00         0.00000E+00        -0.13398E+07
 
    0.16234E+07        -0.56806E+06         0.00000E+00
   -0.56806E+06        -0.88146E+07         0.00000E+00
    0.00000E+00         0.00000E+00        -0.14382E+07
 
    0.11744E+07        -0.48418E+06         0.00000E+00
   -0.48418E+06        -0.88349E+07         0.00000E+00
    0.00000E+00         0.00000E+00        -0.15321E+07
 
    0.73338E+06        -0.26041E+06         0.00000E+00
   -0.26041E+06        -0.88379E+07         0.00000E+00
    0.00000E+00         0.00000E+00        -0.16209E+07
 
    0.30633E+06         0.10968E+06         0.00000E+00
    0.10968E+06        -0.88273E+07         0.00000E+00
    0.00000E+00         0.00000E+00        -0.17042E+07
 
   -0.10059E+06         0.62334E+06         0.00000E+00
    0.62334E+06        -0.88074E+07         0.00000E+00
    0.00000E+00         0.00000E+00        -0.17816E+07
 
   -0.48197E+06         0.12699E+07         0.00000E+00
    0.12699E+07        -0.87816E+07         0.00000E+00
    0.00000E+00         0.00000E+00        -0.18527E+07
 
   -0.83384E+06         0.20314E+07         0.00000E+00
    0.20314E+07        -0.87528E+07         0.00000E+00
    0.00000E+00         0.00000E+00        -0.19173E+07
 
   -0.11546E+07         0.28825E+07         0.00000E+00
    0.28825E+07        -0.87218E+07         0.00000E+00
    0.00000E+00         0.00000E+00        -0.19753E+07
 
   -0.14466E+07         0.37901E+07         0.00000E+00
    0.37901E+07        -0.86859E+07         0.00000E+00
    0.00000E+00         0.00000E+00        -0.20265E+07
 
   -0.17188E+07         0.47136E+07         0.00000E+00
    0.47136E+07        -0.86374E+07         0.00000E+00
    0.00000E+00         0.00000E+00        -0.20712E+07
 
   -0.19897E+07         0.56057E+07         0.00000E+00
    0.56057E+07        -0.85600E+07         0.00000E+00
    0.00000E+00         0.00000E+00        -0.21099E+07
 
    0.20357E+07        -0.69737E+05         0.00000E+00
   -0.69737E+05        -0.99311E+07         0.00000E+00
    0.00000E+00         0.00000E+00        -0.15791E+07
 
    0.15044E+07        -0.24294E+06         0.00000E+00
   -0.24294E+06        -0.10005E+08         0.00000E+00
    0.00000E+00         0.00000E+00        -0.17002E+07
 
    0.10635E+07        -0.41231E+06         0.00000E+00
   -0.41231E+06        -0.10118E+08         0.00000E+00
    0.00000E+00         0.00000E+00        -0.18108E+07
 
    0.68047E+06        -0.52727E+06         0.00000E+00
   -0.52727E+06        -0.10240E+08         0.00000E+00
    0.00000E+00         0.00000E+00        -0.19120E+07
 
    0.33436E+06        -0.54883E+06         0.00000E+00
   -0.54883E+06        -0.10357E+08         0.00000E+00
    0.00000E+00         0.00000E+00        -0.20045E+07
 
    0.12920E+05        -0.44984E+06         0.00000E+00
   -0.44984E+06        -0.10460E+08         0.00000E+00
    0.00000E+00         0.00000E+00        -0.20894E+07
 
   -0.29034E+06        -0.21425E+06         0.00000E+00
   -0.21425E+06        -0.10545E+08         0.00000E+00
    0.00000E+00         0.00000E+00        -0.21672E+07
 
   -0.57847E+06         0.16414E+06         0.00000E+00
    0.16414E+06        -0.10614E+08         0.00000E+00
    0.00000E+00         0.00000E+00        -0.22386E+07
 
   -0.85300E+06         0.68300E+06         0.00000E+00
    0.68300E+06        -0.10668E+08         0.00000E+00
    0.00000E+00         0.00000E+00        -0.23042E+07
 
   -0.11154E+07         0.13325E+07         0.00000E+00
    0.13325E+07        -0.10708E+08         0.00000E+00
    0.00000E+00         0.00000E+00        -0.23646E+07
 
   -0.13681E+07         0.20960E+07         0.00000E+00
    0.20960E+07        -0.10733E+08         0.00000E+00
    0.00000E+00         0.00000E+00        -0.24203E+07
 
   -0.16163E+07         0.29501E+07         0.00000E+00
    0.29501E+07        -0.10743E+08         0.00000E+00
    0.00000E+00         0.00000E+00        -0.24719E+07
 
   -0.18692E+07         0.38653E+07         0.00000E+00
    0.38653E+07        -0.10731E+08         0.00000E+00
    0.00000E+00         0.00000E+00        -0.25201E+07
 
   -0.21422E+07         0.48060E+07         0.00000E+00
    0.48060E+07        -0.10686E+08         0.00000E+00
    0.00000E+00         0.00000E+00        -0.25657E+07
 
   -0.24588E+07         0.57323E+07         0.00000E+00
    0.57323E+07        -0.10590E+08         0.00000E+00
    0.00000E+00         0.00000E+00        -0.26098E+07
 
    0.43870E+06        -0.96687E+05         0.00000E+00
   -0.96687E+05        -0.11359E+08         0.00000E+00
    0.00000E+00         0.00000E+00        -0.21840E+07
 
   -0.10333E+06        -0.30197E+06         0.00000E+00
   -0.30197E+06        -0.11456E+08         0.00000E+00
    0.00000E+00         0.00000E+00        -0.23118E+07
 
   -0.50338E+06        -0.48170E+06         0.00000E+00
   -0.48170E+06        -0.11611E+08         0.00000E+00
    0.00000E+00         0.00000E+00        -0.24228E+07
 
   -0.80508E+06        -0.59342E+06         0.00000E+00
   -0.59342E+06        -0.11792E+08         0.00000E+00
    0.00000E+00         0.00000E+00        -0.25193E+07
 
   -0.10406E+07        -0.60446E+06         0.00000E+00
   -0.60446E+06        -0.11977E+08         0.00000E+00
    0.00000E+00         0.00000E+00        -0.26035E+07
 
   -0.12330E+07        -0.49203E+06         0.00000E+00
   -0.49203E+06        -0.12153E+08         0.00000E+00
    0.00000E+00         0.00000E+00        -0.26772E+07
 
   -0.13980E+07        -0.24273E+06         0.00000E+00
   -0.24273E+06        -0.12314E+08         0.00000E+00
    0.00000E+00         0.00000E+00        -0.27424E+07
 
   -0.15471E+07         0.14843E+06         0.00000E+00
    0.14843E+06        -0.12456E+08         0.00000E+00
    0.00000E+00         0.00000E+00        -0.28006E+07
 
   -0.16887E+07         0.67897E+06         0.00000E+00
    0.67897E+06        -0.12578E+08         0.00000E+00
    0.00000E+00         0.00000E+00        -0.28533E+07
 
   -0.18307E+07         0.13398E+07         0.00000E+00
    0.13398E+07        -0.12678E+08         0.00000E+00
    0.00000E+00         0.00000E+00        -0.29017E+07
 
   -0.19814E+07         0.21158E+07         0.00000E+00
    0.21158E+07        -0.12755E+08         0.00000E+00
    0.00000E+00         0.00000E+00        -0.29473E+07
 
   -0.21516E+07         0.29862E+07         0.00000E+00
    0.29862E+07        -0.12805E+08         0.00000E+00
    0.00000E+00         0.00000E+00        -0.29912E+07
 
   -0.23562E+07         0.39251E+07         0.00000E+00
    0.39251E+07        -0.12818E+08         0.00000E+00
    0.00000E+00         0.00000E+00        -0.30347E+07
 
   -0.26152E+07         0.49020E+07         0.00000E+00
    0.49020E+07        -0.12781E+08         0.00000E+00
    0.00000E+00         0.00000E+00        -0.30792E+07
 
   -0.29558E+07         0.58831E+07         0.00000E+00
    0.58831E+07        -0.12675E+08         0.00000E+00
    0.00000E+00         0.00000E+00        -0.31261E+07
 
   -0.13370E+07        -0.13596E+06         0.00000E+00
   -0.13596E+06        -0.12906E+08         0.00000E+00
    0.00000E+00         0.00000E+00        -0.28486E+07
 
   -0.18609E+07        -0.39454E+06         0.00000E+00
   -0.39454E+06        -0.13023E+08         0.00000E+00
    0.00000E+00         0.00000E+00        -0.29767E+07
 
   -0.21993E+07        -0.60084E+06         0.00000E+00
   -0.60084E+06        -0.13214E+08         0.00000E+00
    0.00000E+00         0.00000E+00        -0.30827E+07
 
   -0.24057E+07        -0.72039E+06         0.00000E+00
   -0.72039E+06        -0.13444E+08         0.00000E+00
    0.00000E+00         0.00000E+00        -0.31700E+07
 
   -0.25221E+07        -0.72720E+06         0.00000E+00
   -0.72720E+06        -0.13688E+08         0.00000E+00
    0.00000E+00         0.00000E+00        -0.32420E+07
 
   -0.25802E+07        -0.60360E+06         0.00000E+00
   -0.60360E+06        -0.13928E+08         0.00000E+00
    0.00000E+00         0.00000E+00        -0.33016E+07
 
   -0.26042E+07        -0.33964E+06         0.00000E+00
   -0.33964E+06        -0.14154E+08         0.00000E+00
    0.00000E+00         0.00000E+00        -0.33516E+07
 
   -0.26122E+07         0.67670E+05         0.00000E+00
    0.67670E+05        -0.14359E+08         0.00000E+00
    0.00000E+00         0.00000E+00        -0.33943E+07
 
   -0.26189E+07         0.61524E+06         0.00000E+00
    0.61524E+06        -0.14542E+08         0.00000E+00
    0.00000E+00         0.00000E+00        -0.34321E+07
 
   -0.26374E+07         0.12946E+07         0.00000E+00
    0.12946E+07        -0.14697E+08         0.00000E+00
    0.00000E+00         0.00000E+00        -0.34668E+07
 
   -0.26812E+07         0.20922E+07         0.00000E+00
    0.20922E+07        -0.14821E+08         0.00000E+00
    0.00000E+00         0.00000E+00        -0.35005E+07
 
   -0.27659E+07         0.29902E+07         0.00000E+00
    0.29902E+07        -0.14908E+08         0.00000E+00
    0.00000E+00         0.00000E+00        -0.35348E+07
 
   -0.29104E+07         0.39664E+07         0.00000E+00
    0.39664E+07        -0.14947E+08         0.00000E+00
    0.00000E+00         0.00000E+00        -0.35715E+07
 
   -0.31389E+07         0.49950E+07         0.00000E+00
    0.49950E+07        -0.14923E+08         0.00000E+00
    0.00000E+00         0.00000E+00        -0.36124E+07
 
   -0.34809E+07         0.60474E+07         0.00000E+00
    0.60474E+07        -0.14815E+08         0.00000E+00
    0.00000E+00         0.00000E+00        -0.36593E+07
 
   -0.33251E+07        -0.18604E+06         0.00000E+00
   -0.18604E+06        -0.14584E+08         0.00000E+00
    0.00000E+00         0.00000E+00        -0.35819E+07
 
   -0.37972E+07        -0.51620E+06         0.00000E+00
   -0.51620E+06        -0.14718E+08         0.00000E+00
    0.00000E+00         0.00000E+00        -0.37030E+07
 
   -0.40485E+07        -0.76283E+06         0.00000E+00
   -0.76283E+06        -0.14939E+08         0.00000E+00
    0.00000E+00         0.00000E+00        -0.37975E+07
 
   -0.41414E+07        -0.89962E+06         0.00000E+00
   -0.89962E+06        -0.15210E+08         0.00000E+00
    0.00000E+00         0.00000E+00        -0.38703E+07
 
   -0.41262E+07        -0.90770E+06         0.00000E+00
   -0.90770E+06        -0.15501E+08         0.00000E+00
    0.00000E+00         0.00000E+00        -0.39254E+07
 
   -0.40421E+07        -0.77515E+06         0.00000E+00
   -0.77515E+06        -0.15792E+08         0.00000E+00
    0.00000E+00         0.00000E+00        -0.39669E+07
 
   -0.39198E+07        -0.49620E+06         0.00000E+00
   -0.49620E+06        -0.16072E+08         0.00000E+00
    0.00000E+00         0.00000E+00        -0.39983E+07
 
   -0.37831E+07        -0.70404E+05         0.00000E+00
   -0.70404E+05        -0.16330E+08         0.00000E+00
    0.00000E+00         0.00000E+00        -0.40226E+07
 
   -0.36515E+07         0.49814E+06         0.00000E+00
    0.49814E+06        -0.16563E+08         0.00000E+00
    0.00000E+00         0.00000E+00        -0.40428E+07
 
   -0.35421E+07         0.12014E+07         0.00000E+00
    0.12014E+07        -0.16765E+08         0.00000E+00
    0.00000E+00         0.00000E+00        -0.40614E+07
 
   -0.34726E+07         0.20276E+07         0.00000E+00
    0.20276E+07        -0.16931E+08         0.00000E+00
    0.00000E+00         0.00000E+00        -0.40807E+07
 
   -0.34621E+07         0.29619E+07         0.00000E+00
    0.29619E+07        -0.17053E+08         0.00000E+00
    0.00000E+00         0.00000E+00        -0.41031E+07
 
   -0.35333E+07         0.39857E+07         0.00000E+00
    0.39857E+07        -0.17119E+08         0.00000E+00
    0.00000E+00         0.00000E+00        -0.41305E+07
 
   -0.37133E+07         0.50779E+07         0.00000E+00
    0.50779E+07        -0.17113E+08         0.00000E+00
    0.00000E+00         0.00000E+00        -0.41653E+07
 
   -0.40341E+07         0.62145E+07         0.00000E+00
    0.62145E+07        -0.17013E+08         0.00000E+00
    0.00000E+00         0.00000E+00        -0.42093E+07
 
   -0.55526E+07        -0.24535E+06         0.00000E+00
   -0.24535E+06        -0.16403E+08         0.00000E+00
    0.00000E+00         0.00000E+00        -0.43910E+07
 
   -0.59351E+07        -0.66227E+06         0.00000E+00
   -0.66227E+06        -0.16549E+08         0.00000E+00
    0.00000E+00         0.00000E+00        -0.44968E+07
 
   -0.60698E+07        -0.96028E+06         0.00000E+00
   -0.96028E+06        -0.16794E+08         0.00000E+00
    0.00000E+00         0.00000E+00        -0.45727E+07
 
   -0.60272E+07        -0.11216E+07         0.00000E+00
   -0.11216E+07        -0.17095E+08         0.00000E+00
    0.00000E+00         0.00000E+00        -0.46244E+07
 
   -0.58649E+07        -0.11352E+07         0.00000E+00
   -0.11352E+07        -0.17422E+08         0.00000E+00
    0.00000E+00         0.00000E+00        -0.46573E+07
 
   -0.56283E+07        -0.99539E+06         0.00000E+00
   -0.99539E+06        -0.17752E+08         0.00000E+00
    0.00000E+00         0.00000E+00        -0.46760E+07
 
   -0.53530E+07        -0.70140E+06         0.00000E+00
   -0.70140E+06        -0.18070E+08         0.00000E+00
    0.00000E+00         0.00000E+00        -0.46847E+07
 
   -0.50668E+07        -0.25582E+06         0.00000E+00
   -0.25582E+06        -0.18369E+08         0.00000E+00
    0.00000E+00         0.00000E+00        -0.46871E+07
 
   -0.47923E+07         0.33595E+06         0.00000E+00
    0.33595E+06        -0.18640E+08         0.00000E+00
    0.00000E+00         0.00000E+00        -0.46865E+07
 
   -0.45497E+07         0.10663E+07         0.00000E+00
    0.10663E+07        -0.18880E+08         0.00000E+00
    0.00000E+00         0.00000E+00        -0.46860E+07
 
   -0.43592E+07         0.19254E+07         0.00000E+00
    0.19254E+07        -0.19082E+08         0.00000E+00
    0.00000E+00         0.00000E+00        -0.46882E+07
 
   -0.42426E+07         0.29013E+07         0.00000E+00
    0.29013E+07        -0.19237E+08         0.00000E+00
    0.00000E+00         0.00000E+00        -0.46958E+07
 
   -0.42256E+07         0.39798E+07         0.00000E+00
    0.39798E+07        -0.19331E+08         0.00000E+00
    0.00000E+00         0.00000E+00        -0.47113E+07
 
   -0.43380E+07         0.51438E+07         0.00000E+00
    0.51438E+07        -0.19347E+08         0.00000E+00
    0.00000E+00         0.00000E+00        -0.47370E+07
 
   -0.46143E+07         0.63740E+07         0.00000E+00
    0.63740E+07        -0.19263E+08         0.00000E+00
    0.00000E+00         0.00000E+00        -0.47754E+07
 
   -0.80406E+07        -0.31222E+06         0.00000E+00
   -0.31222E+06        -0.18365E+08         0.00000E+00
    0.00000E+00         0.00000E+00        -0.52812E+07
 
   -0.82913E+07        -0.82778E+06         0.00000E+00
   -0.82778E+06        -0.18521E+08         0.00000E+00
    0.00000E+00         0.00000E+00        -0.53624E+07
 
   -0.82760E+07        -0.11851E+07         0.00000E+00
   -0.11851E+07        -0.18782E+08         0.00000E+00
    0.00000E+00         0.00000E+00        -0.54115E+07
 
   -0.80730E+07        -0.13758E+07         0.00000E+00
   -0.13758E+07        -0.19103E+08         0.00000E+00
    0.00000E+00         0.00000E+00        -0.54353E+07
 
   -0.77459E+07        -0.13972E+07         0.00000E+00
   -0.13972E+07        -0.19452E+08         0.00000E+00
    0.00000E+00         0.00000E+00        -0.54397E+07
 
   -0.73451E+07        -0.12511E+07         0.00000E+00
   -0.12511E+07        -0.19806E+08         0.00000E+00
    0.00000E+00         0.00000E+00        -0.54302E+07
 
   -0.69092E+07        -0.94216E+06         0.00000E+00
   -0.94216E+06        -0.20149E+08         0.00000E+00
    0.00000E+00         0.00000E+00        -0.54116E+07
 
   -0.64682E+07        -0.47657E+06         0.00000E+00
   -0.47657E+06        -0.20472E+08         0.00000E+00
    0.00000E+00         0.00000E+00        -0.53880E+07
 
   -0.60462E+07         0.13877E+06         0.00000E+00
    0.13877E+06        -0.20769E+08         0.00000E+00
    0.00000E+00         0.00000E+00        -0.53631E+07
 
   -0.56645E+07         0.89665E+06         0.00000E+00
    0.89665E+06        -0.21036E+08         0.00000E+00
    0.00000E+00         0.00000E+00        -0.53402E+07
 
   -0.53445E+07         0.17895E+07         0.00000E+00
    0.17895E+07        -0.21266E+08         0.00000E+00
    0.00000E+00         0.00000E+00        -0.53222E+07
 
   -0.51098E+07         0.28089E+07         0.00000E+00
    0.28089E+07        -0.21450E+08         0.00000E+00
    0.00000E+00         0.00000E+00        -0.53120E+07
 
   -0.49883E+07         0.39450E+07         0.00000E+00
    0.39450E+07        -0.21574E+08         0.00000E+00
    0.00000E+00         0.00000E+00        -0.53124E+07
 
   -0.50126E+07         0.51855E+07         0.00000E+00
    0.51855E+07        -0.21618E+08         0.00000E+00
    0.00000E+00         0.00000E+00        -0.53261E+07
 
   -0.52203E+07         0.65152E+07         0.00000E+00
    0.65152E+07        -0.21558E+08         0.00000E+00
    0.00000E+00         0.00000E+00        -0.53557E+07
 
   -0.10803E+08        -0.38486E+06         0.00000E+00
   -0.38486E+06        -0.20475E+08         0.00000E+00
    0.00000E+00         0.00000E+00        -0.62558E+07
 
   -0.10876E+08        -0.10073E+07         0.00000E+00
   -0.10073E+07        -0.20636E+08         0.00000E+00
    0.00000E+00         0.00000E+00        -0.63024E+07
 
   -0.10674E+08        -0.14285E+07         0.00000E+00
   -0.14285E+07        -0.20905E+08         0.00000E+00
    0.00000E+00         0.00000E+00        -0.63158E+07
 
   -0.10283E+08        -0.16503E+07         0.00000E+00
   -0.16503E+07        -0.21235E+08         0.00000E+00
    0.00000E+00         0.00000E+00        -0.63037E+07
 
   -0.97727E+07        -0.16797E+07         0.00000E+00
   -0.16797E+07        -0.21592E+08         0.00000E+00
    0.00000E+00         0.00000E+00        -0.62729E+07
 
   -0.91954E+07        -0.15270E+07         0.00000E+00
   -0.15270E+07        -0.21952E+08         0.00000E+00
    0.00000E+00         0.00000E+00        -0.62294E+07
 
   -0.85915E+07        -0.12032E+07         0.00000E+00
   -0.12032E+07        -0.22301E+08         0.00000E+00
    0.00000E+00         0.00000E+00        -0.61786E+07
 
   -0.79911E+07        -0.71852E+06         0.00000E+00
   -0.71852E+06        -0.22632E+08         0.00000E+00
    0.00000E+00         0.00000E+00        -0.61247E+07
 
   -0.74174E+07        -0.81521E+05         0.00000E+00
   -0.81521E+05        -0.22940E+08         0.00000E+00
    0.00000E+00         0.00000E+00        -0.60716E+07
 
   -0.68910E+07         0.70126E+06         0.00000E+00
    0.70126E+06        -0.23222E+08         0.00000E+00
    0.00000E+00         0.00000E+00        -0.60227E+07
 
   -0.64328E+07         0.16249E+07         0.00000E+00
    0.16249E+07        -0.23473E+08         0.00000E+00
    0.00000E+00         0.00000E+00        -0.59811E+07
 
   -0.60671E+07         0.26853E+07         0.00000E+00
    0.26853E+07        -0.23682E+08         0.00000E+00
    0.00000E+00         0.00000E+00        -0.59498E+07
 
   -0.58234E+07         0.38777E+07         0.00000E+00
    0.38777E+07        -0.23836E+08         0.00000E+00
    0.00000E+00         0.00000E+00        -0.59319E+07
 
   -0.57373E+07         0.51952E+07         0.00000E+00
    0.51952E+07        -0.23914E+08         0.00000E+00
    0.00000E+00         0.00000E+00        -0.59303E+07
 
   -0.58502E+07         0.66272E+07         0.00000E+00
    0.66272E+07        -0.23889E+08         0.00000E+00
    0.00000E+00         0.00000E+00        -0.59479E+07
 
   -0.13849E+08        -0.46137E+06         0.00000E+00
   -0.46137E+06        -0.22732E+08         0.00000E+00
    0.00000E+00         0.00000E+00        -0.73162E+07
 
   -0.13693E+08        -0.11949E+07         0.00000E+00
   -0.11949E+07        -0.22894E+08         0.00000E+00
    0.00000E+00         0.00000E+00        -0.73174E+07
 
   -0.13265E+08        -0.16804E+07         0.00000E+00
   -0.16804E+07        -0.23162E+08         0.00000E+00
    0.00000E+00         0.00000E+00        -0.72853E+07
 
   -0.12657E+08        -0.19314E+07         0.00000E+00
   -0.19314E+07        -0.23487E+08         0.00000E+00
    0.00000E+00         0.00000E+00        -0.72288E+07
 
   -0.11944E+08        -0.19664E+07         0.00000E+00
   -0.19664E+07        -0.23834E+08         0.00000E+00
    0.00000E+00         0.00000E+00        -0.71555E+07
 
   -0.11178E+08        -0.18054E+07         0.00000E+00
   -0.18054E+07        -0.24182E+08         0.00000E+00
    0.00000E+00         0.00000E+00        -0.70720E+07
 
   -0.10401E+08        -0.14668E+07         0.00000E+00
   -0.14668E+07        -0.24518E+08         0.00000E+00
    0.00000E+00         0.00000E+00        -0.69837E+07
 
   -0.96380E+07        -0.96532E+06         0.00000E+00
   -0.96532E+06        -0.24837E+08         0.00000E+00
    0.00000E+00         0.00000E+00        -0.68951E+07
 
   -0.89101E+07        -0.31118E+06         0.00000E+00
   -0.31118E+06        -0.25139E+08         0.00000E+00
    0.00000E+00         0.00000E+00        -0.68099E+07
 
   -0.82345E+07         0.49020E+06         0.00000E+00
    0.49020E+06        -0.25423E+08         0.00000E+00
    0.00000E+00         0.00000E+00        -0.67314E+07
 
   -0.76299E+07         0.14373E+07         0.00000E+00
    0.14373E+07        -0.25684E+08         0.00000E+00
    0.00000E+00         0.00000E+00        -0.66628E+07
 
   -0.71197E+07         0.25312E+07         0.00000E+00
    0.25312E+07        -0.25915E+08         0.00000E+00
    0.00000E+00         0.00000E+00        -0.66070E+07
 
   -0.67345E+07         0.37736E+07         0.00000E+00
    0.37736E+07        -0.26101E+08         0.00000E+00
    0.00000E+00         0.00000E+00        -0.65671E+07
 
   -0.65131E+07         0.51641E+07         0.00000E+00
    0.51641E+07        -0.26220E+08         0.00000E+00
    0.00000E+00         0.00000E+00        -0.65465E+07
 
   -0.65022E+07         0.66979E+07         0.00000E+00
    0.66979E+07        -0.26241E+08         0.00000E+00
    0.00000E+00         0.00000E+00        -0.65486E+07
 
   -0.17180E+08        -0.53971E+06         0.00000E+00
   -0.53971E+06        -0.25132E+08         0.00000E+00
    0.00000E+00         0.00000E+00        -0.84622E+07
 
   -0.16740E+08        -0.13841E+07         0.00000E+00
   -0.13841E+07        -0.25290E+08         0.00000E+00
    0.00000E+00         0.00000E+00        -0.84059E+07
 
   -0.16042E+08        -0.19293E+07         0.00000E+00
   -0.19293E+07        -0.25547E+08         0.00000E+00
    0.00000E+00         0.00000E+00        -0.83178E+07
 
   -0.15188E+08        -0.22033E+07         0.00000E+00
   -0.22033E+07        -0.25852E+08         0.00000E+00
    0.00000E+00         0.00000E+00        -0.82079E+07
 
   -0.14252E+08        -0.22382E+07         0.00000E+00
   -0.22382E+07        -0.26170E+08         0.00000E+00
    0.00000E+00         0.00000E+00        -0.80845E+07
 
   -0.13290E+08        -0.20656E+07         0.00000E+00
   -0.20656E+07        -0.26483E+08         0.00000E+00
    0.00000E+00         0.00000E+00        -0.79547E+07
 
   -0.12336E+08        -0.17124E+07         0.00000E+00
   -0.17124E+07        -0.26783E+08         0.00000E+00
    0.00000E+00         0.00000E+00        -0.78238E+07
 
   -0.11411E+08        -0.11982E+07         0.00000E+00
   -0.11982E+07        -0.27070E+08         0.00000E+00
    0.00000E+00         0.00000E+00        -0.76961E+07
 
   -0.10529E+08        -0.53449E+06         0.00000E+00
   -0.53449E+06        -0.27346E+08         0.00000E+00
    0.00000E+00         0.00000E+00        -0.75751E+07
 
   -0.97022E+07         0.27494E+06         0.00000E+00
    0.27494E+06        -0.27616E+08         0.00000E+00
    0.00000E+00         0.00000E+00        -0.74636E+07
 
   -0.89440E+07         0.12330E+07         0.00000E+00
    0.12330E+07        -0.27878E+08         0.00000E+00
    0.00000E+00         0.00000E+00        -0.73644E+07
 
   -0.82755E+07         0.23472E+07         0.00000E+00
    0.23472E+07        -0.28126E+08         0.00000E+00
    0.00000E+00         0.00000E+00        -0.72804E+07
 
   -0.77276E+07         0.36276E+07         0.00000E+00
    0.36276E+07        -0.28347E+08         0.00000E+00
    0.00000E+00         0.00000E+00        -0.72148E+07
 
   -0.73426E+07         0.50821E+07         0.00000E+00
    0.50821E+07        -0.28514E+08         0.00000E+00
    0.00000E+00         0.00000E+00        -0.71713E+07
 
   -0.71744E+07         0.67133E+07         0.00000E+00
    0.67133E+07        -0.28594E+08         0.00000E+00
    0.00000E+00         0.00000E+00        -0.71537E+07
 
   -0.20788E+08        -0.61776E+06         0.00000E+00
   -0.61776E+06        -0.27669E+08         0.00000E+00
    0.00000E+00         0.00000E+00        -0.96914E+07
 
   -0.20004E+08        -0.15672E+07         0.00000E+00
   -0.15672E+07        -0.27818E+08         0.00000E+00
    0.00000E+00         0.00000E+00        -0.95644E+07
 
   -0.18991E+08        -0.21619E+07         0.00000E+00
   -0.21619E+07        -0.28052E+08         0.00000E+00
    0.00000E+00         0.00000E+00        -0.94087E+07
 
   -0.17860E+08        -0.24472E+07         0.00000E+00
   -0.24472E+07        -0.28319E+08         0.00000E+00
    0.00000E+00         0.00000E+00        -0.92357E+07
 
   -0.16688E+08        -0.24726E+07         0.00000E+00
   -0.24726E+07        -0.28585E+08         0.00000E+00
    0.00000E+00         0.00000E+00        -0.90546E+07
 
   -0.15524E+08        -0.22838E+07         0.00000E+00
   -0.22838E+07        -0.28838E+08         0.00000E+00
    0.00000E+00         0.00000E+00        -0.88723E+07
 
   -0.14395E+08        -0.19168E+07         0.00000E+00
   -0.19168E+07        -0.29075E+08         0.00000E+00
    0.00000E+00         0.00000E+00        -0.86941E+07
 
   -0.13313E+08        -0.13961E+07         0.00000E+00
   -0.13961E+07        -0.29305E+08         0.00000E+00
    0.00000E+00         0.00000E+00        -0.85235E+07
 
   -0.12282E+08        -0.73389E+06         0.00000E+00
   -0.73389E+06        -0.29535E+08         0.00000E+00
    0.00000E+00         0.00000E+00        -0.83633E+07
 
   -0.11304E+08         0.68358E+05         0.00000E+00
    0.68358E+05        -0.29774E+08         0.00000E+00
    0.00000E+00         0.00000E+00        -0.82156E+07
 
   -0.10387E+08         0.10190E+07         0.00000E+00
    0.10190E+07        -0.30026E+08         0.00000E+00
    0.00000E+00         0.00000E+00        -0.80826E+07
 
   -0.95463E+07         0.21339E+07         0.00000E+00
    0.21339E+07        -0.30288E+08         0.00000E+00
    0.00000E+00         0.00000E+00        -0.79669E+07
 
   -0.88123E+07         0.34333E+07         0.00000E+00
    0.34333E+07        -0.30545E+08         0.00000E+00
    0.00000E+00         0.00000E+00        -0.78716E+07
 
   -0.82310E+07         0.49368E+07         0.00000E+00
    0.49368E+07        -0.30772E+08         0.00000E+00
    0.00000E+00         0.00000E+00        -0.78005E+07
 
   -0.78653E+07         0.66569E+07         0.00000E+00
    0.66569E+07        -0.30927E+08         0.00000E+00
    0.00000E+00         0.00000E+00        -0.77584E+07
 
   -0.24662E+08        -0.69329E+06         0.00000E+00
   -0.69329E+06        -0.30335E+08         0.00000E+00
    0.00000E+00         0.00000E+00        -0.10999E+08
 
   -0.23466E+08        -0.17355E+07         0.00000E+00
   -0.17355E+07        -0.30469E+08         0.00000E+00
    0.00000E+00         0.00000E+00        -0.10787E+08
 
   -0.22089E+08        -0.23614E+07         0.00000E+00
   -0.23614E+07        -0.30667E+08         0.00000E+00
    0.00000E+00         0.00000E+00        -0.10551E+08
 
   -0.20653E+08        -0.26399E+07         0.00000E+00
   -0.26399E+07        -0.30872E+08         0.00000E+00
    0.00000E+00         0.00000E+00        -0.10305E+08
 
   -0.19233E+08        -0.26428E+07         0.00000E+00
   -0.26428E+07        -0.31058E+08         0.00000E+00
    0.00000E+00         0.00000E+00        -0.10058E+08
 
   -0.17870E+08        -0.24322E+07         0.00000E+00
   -0.24322E+07        -0.31220E+08         0.00000E+00
    0.00000E+00         0.00000E+00        -0.98179E+07
 
   -0.16575E+08        -0.20538E+07         0.00000E+00
   -0.20538E+07        -0.31367E+08         0.00000E+00
    0.00000E+00         0.00000E+00        -0.95883E+07
 
   -0.15346E+08        -0.15357E+07         0.00000E+00
   -0.15357E+07        -0.31513E+08         0.00000E+00
    0.00000E+00         0.00000E+00        -0.93718E+07
 
   -0.14175E+08        -0.89031E+06         0.00000E+00
   -0.89031E+06        -0.31675E+08         0.00000E+00
    0.00000E+00         0.00000E+00        -0.91699E+07
 
   -0.13052E+08        -0.11552E+06         0.00000E+00
   -0.11552E+06        -0.31866E+08         0.00000E+00
    0.00000E+00         0.00000E+00        -0.89836E+07
 
   -0.11974E+08         0.80327E+06         0.00000E+00
    0.80327E+06        -0.32097E+08         0.00000E+00
    0.00000E+00         0.00000E+00        -0.88141E+07
 
   -0.10949E+08         0.18917E+07         0.00000E+00
    0.18917E+07        -0.32367E+08         0.00000E+00
    0.00000E+00         0.00000E+00        -0.86631E+07
 
   -0.10003E+08         0.31831E+07         0.00000E+00
    0.31831E+07        -0.32665E+08         0.00000E+00
    0.00000E+00         0.00000E+00        -0.85337E+07
 
   -0.91869E+07         0.47127E+07         0.00000E+00
    0.47127E+07        -0.32963E+08         0.00000E+00
    0.00000E+00         0.00000E+00        -0.84300E+07
 
   -0.85744E+07         0.65079E+07         0.00000E+00
    0.65079E+07        -0.33214E+08         0.00000E+00
    0.00000E+00         0.00000E+00        -0.83576E+07
 
   -0.28780E+08        -0.76389E+06         0.00000E+00
   -0.76389E+06        -0.33120E+08         0.00000E+00
    0.00000E+00         0.00000E+00        -0.12380E+08
 
   -0.27093E+08        -0.18777E+07         0.00000E+00
   -0.18777E+07        -0.33231E+08         0.00000E+00
    0.00000E+00         0.00000E+00        -0.12065E+08
 
   -0.25302E+08        -0.25059E+07         0.00000E+00
   -0.25059E+07        -0.33372E+08         0.00000E+00
    0.00000E+00         0.00000E+00        -0.11735E+08
 
   -0.23537E+08        -0.27517E+07         0.00000E+00
   -0.27517E+07        -0.33485E+08         0.00000E+00
    0.00000E+00         0.00000E+00        -0.11405E+08
 
   -0.21869E+08        -0.27163E+07         0.00000E+00
   -0.27163E+07        -0.33556E+08         0.00000E+00
    0.00000E+00         0.00000E+00        -0.11085E+08
 
   -0.20317E+08        -0.24798E+07         0.00000E+00
   -0.24798E+07        -0.33594E+08         0.00000E+00
    0.00000E+00         0.00000E+00        -0.10782E+08
 
   -0.18874E+08        -0.20956E+07         0.00000E+00
   -0.20956E+07        -0.33619E+08         0.00000E+00
    0.00000E+00         0.00000E+00        -0.10499E+08
 
   -0.17517E+08        -0.15936E+07         0.00000E+00
   -0.15936E+07        -0.33657E+08         0.00000E+00
    0.00000E+00         0.00000E+00        -0.10235E+08
 
   -0.16221E+08        -0.98430E+06         0.00000E+00
   -0.98430E+06        -0.33729E+08         0.00000E+00
    0.00000E+00         0.00000E+00        -0.99900E+07
 
   -0.14963E+08        -0.26192E+06         0.00000E+00
   -0.26192E+06        -0.33856E+08         0.00000E+00
    0.00000E+00         0.00000E+00        -0.97638E+07
 
   -0.13726E+08         0.59456E+06         0.00000E+00
    0.59456E+06        -0.34052E+08         0.00000E+00
    0.00000E+00         0.00000E+00        -0.95556E+07
 
   -0.12507E+08         0.16212E+07         0.00000E+00
    0.16212E+07        -0.34325E+08         0.00000E+00
    0.00000E+00         0.00000E+00        -0.93663E+07
 
   -0.11323E+08         0.28675E+07         0.00000E+00
    0.28675E+07        -0.34668E+08         0.00000E+00
    0.00000E+00         0.00000E+00        -0.91981E+07
 
   -0.10225E+08         0.43904E+07         0.00000E+00
    0.43904E+07        -0.35053E+08         0.00000E+00
    0.00000E+00         0.00000E+00        -0.90557E+07
 
   -0.93032E+07         0.62398E+07         0.00000E+00
    0.62398E+07        -0.35425E+08         0.00000E+00
    0.00000E+00         0.00000E+00        -0.89457E+07
 
   -0.33112E+08        -0.82673E+06         0.00000E+00
   -0.82673E+06        -0.36011E+08         0.00000E+00
    0.00000E+00         0.00000E+00        -0.13824E+08
 
   -0.30841E+08        -0.19774E+07         0.00000E+00
   -0.19774E+07        -0.36087E+08         0.00000E+00
    0.00000E+00         0.00000E+00        -0.13386E+08
 
   -0.28582E+08        -0.25640E+07         0.00000E+00
   -0.25640E+07        -0.36141E+08         0.00000E+00
    0.00000E+00         0.00000E+00        -0.12945E+08
 
   -0.26479E+08        -0.27436E+07         0.00000E+00
   -0.27436E+07        -0.36121E+08         0.00000E+00
    0.00000E+00         0.00000E+00        -0.12520E+08
 
   -0.24576E+08        -0.26548E+07         0.00000E+00
   -0.26548E+07        -0.36033E+08         0.00000E+00
    0.00000E+00         0.00000E+00        -0.12122E+08
 
   -0.22860E+08        -0.23934E+07         0.00000E+00
   -0.23934E+07        -0.35910E+08         0.00000E+00
    0.00000E+00         0.00000E+00        -0.11754E+08
 
   -0.21294E+08        -0.20154E+07         0.00000E+00
   -0.20154E+07        -0.35786E+08         0.00000E+00
    0.00000E+00         0.00000E+00        -0.11416E+08
 
   -0.19832E+08        -0.15480E+07         0.00000E+00
   -0.15480E+07        -0.35693E+08         0.00000E+00
    0.00000E+00         0.00000E+00        -0.11105E+08
 
   -0.18433E+08        -0.99809E+06         0.00000E+00
   -0.99809E+06        -0.35658E+08         0.00000E+00
    0.00000E+00         0.00000E+00        -0.10818E+08
 
   -0.17056E+08        -0.35628E+06         0.00000E+00
   -0.35628E+06        -0.35705E+08         0.00000E+00
    0.00000E+00         0.00000E+00        -0.10552E+08
 
   -0.15669E+08         0.40306E+06         0.00000E+00
    0.40306E+06        -0.35854E+08         0.00000E+00
    0.00000E+00         0.00000E+00        -0.10305E+08
 
   -0.14251E+08         0.13249E+07         0.00000E+00
    0.13249E+07        -0.36122E+08         0.00000E+00
    0.00000E+00         0.00000E+00        -0.10075E+08
 
   -0.12803E+08         0.24768E+07         0.00000E+00
    0.24768E+07        -0.36512E+08         0.00000E+00
    0.00000E+00         0.00000E+00        -0.98630E+07
 
   -0.11370E+08         0.39454E+07         0.00000E+00
    0.39454E+07        -0.37003E+08         0.00000E+00
    0.00000E+00         0.00000E+00        -0.96745E+07
 
   -0.10057E+08         0.58173E+07         0.00000E+00
    0.58173E+07        -0.37531E+08         0.00000E+00
    0.00000E+00         0.00000E+00        -0.95176E+07
 
   -0.37613E+08        -0.87756E+06         0.00000E+00
   -0.87756E+06        -0.38993E+08         0.00000E+00
    0.00000E+00         0.00000E+00        -0.15321E+08
 
   -0.34641E+08        -0.20060E+07         0.00000E+00
   -0.20060E+07        -0.39013E+08         0.00000E+00
    0.00000E+00         0.00000E+00        -0.14731E+08
 
   -0.31872E+08        -0.24865E+07         0.00000E+00
   -0.24865E+07        -0.38928E+08         0.00000E+00
    0.00000E+00         0.00000E+00        -0.14160E+08
 
   -0.29442E+08        -0.25636E+07         0.00000E+00
   -0.25636E+07        -0.38713E+08         0.00000E+00
    0.00000E+00         0.00000E+00        -0.13631E+08
 
   -0.27340E+08        -0.24161E+07         0.00000E+00
   -0.24161E+07        -0.38418E+08         0.00000E+00
    0.00000E+00         0.00000E+00        -0.13152E+08
 
   -0.25498E+08        -0.21433E+07         0.00000E+00
   -0.21433E+07        -0.38100E+08         0.00000E+00
    0.00000E+00         0.00000E+00        -0.12720E+08
 
   -0.23842E+08        -0.17928E+07         0.00000E+00
   -0.17928E+07        -0.37807E+08         0.00000E+00
    0.00000E+00         0.00000E+00        -0.12330E+08
 
   -0.22304E+08        -0.13840E+07         0.00000E+00
   -0.13840E+07        -0.37572E+08         0.00000E+00
    0.00000E+00         0.00000E+00        -0.11975E+08
 
   -0.20824E+08        -0.91900E+06         0.00000E+00
   -0.91900E+06        -0.37422E+08         0.00000E+00
    0.00000E+00         0.00000E+00        -0.11649E+08
 
   -0.19350E+08        -0.38629E+06         0.00000E+00
   -0.38629E+06        -0.37380E+08         0.00000E+00
    0.00000E+00         0.00000E+00        -0.11346E+08
 
   -0.17832E+08         0.24072E+06         0.00000E+00
    0.24072E+06        -0.37471E+08         0.00000E+00
    0.00000E+00         0.00000E+00        -0.11061E+08
 
   -0.16222E+08         0.10100E+07         0.00000E+00
    0.10100E+07        -0.37721E+08         0.00000E+00
    0.00000E+00         0.00000E+00        -0.10789E+08
 
   -0.14491E+08         0.20039E+07         0.00000E+00
    0.20039E+07        -0.38154E+08         0.00000E+00
    0.00000E+00         0.00000E+00        -0.10529E+08
 
   -0.12661E+08         0.33483E+07         0.00000E+00
    0.33483E+07        -0.38767E+08         0.00000E+00
    0.00000E+00         0.00000E+00        -0.10286E+08
 
   -0.10849E+08         0.51917E+07         0.00000E+00
    0.51917E+07        -0.39496E+08         0.00000E+00
    0.00000E+00         0.00000E+00        -0.10069E+08
 
   -0.42219E+08        -0.90664E+06         0.00000E+00
   -0.90664E+06        -0.42050E+08         0.00000E+00
    0.00000E+00         0.00000E+00        -0.16854E+08
 
   -0.38393E+08        -0.19050E+07         0.00000E+00
   -0.19050E+07        -0.41961E+08         0.00000E+00
    0.00000E+00         0.00000E+00        -0.16071E+08
 
   -0.35103E+08        -0.21927E+07         0.00000E+00
   -0.21927E+07        -0.41639E+08         0.00000E+00
    0.00000E+00         0.00000E+00        -0.15349E+08
 
   -0.32406E+08        -0.21493E+07         0.00000E+00
   -0.21493E+07        -0.41148E+08         0.00000E+00
    0.00000E+00         0.00000E+00        -0.14711E+08
 
   -0.30167E+08        -0.19649E+07         0.00000E+00
   -0.19649E+07        -0.40604E+08         0.00000E+00
    0.00000E+00         0.00000E+00        -0.14154E+08
 
   -0.28245E+08        -0.17126E+07         0.00000E+00
   -0.17126E+07        -0.40079E+08         0.00000E+00
    0.00000E+00         0.00000E+00        -0.13665E+08
 
   -0.26532E+08        -0.14208E+07         0.00000E+00
   -0.14208E+07        -0.39616E+08         0.00000E+00
    0.00000E+00         0.00000E+00        -0.13230E+08
 
   -0.24944E+08        -0.10987E+07         0.00000E+00
   -0.10987E+07        -0.39243E+08         0.00000E+00
    0.00000E+00         0.00000E+00        -0.12838E+08
 
   -0.23410E+08        -0.74404E+06         0.00000E+00
   -0.74404E+06        -0.38982E+08         0.00000E+00
    0.00000E+00         0.00000E+00        -0.12478E+08
 
   -0.21863E+08        -0.34549E+06         0.00000E+00
   -0.34549E+06        -0.38852E+08         0.00000E+00
    0.00000E+00         0.00000E+00        -0.12143E+08
 
   -0.20239E+08         0.11959E+06         0.00000E+00
    0.11959E+06        -0.38879E+08         0.00000E+00
    0.00000E+00         0.00000E+00        -0.11824E+08
 
   -0.18464E+08         0.69278E+06         0.00000E+00
    0.69278E+06        -0.39096E+08         0.00000E+00
    0.00000E+00         0.00000E+00        -0.11512E+08
 
   -0.16457E+08         0.14535E+07         0.00000E+00
    0.14535E+07        -0.39549E+08         0.00000E+00
    0.00000E+00         0.00000E+00        -0.11201E+08
 
   -0.14173E+08         0.25670E+07         0.00000E+00
    0.25670E+07        -0.40291E+08         0.00000E+00
    0.00000E+00         0.00000E+00        -0.10893E+08
 
   -0.11707E+08         0.42919E+07         0.00000E+00
    0.42919E+07        -0.41280E+08         0.00000E+00
    0.00000E+00         0.00000E+00        -0.10597E+08
 
   -0.46803E+08        -0.87810E+06         0.00000E+00
   -0.87810E+06        -0.45147E+08         0.00000E+00
    0.00000E+00         0.00000E+00        -0.18390E+08
 
   -0.41951E+08        -0.15314E+07         0.00000E+00
   -0.15314E+07        -0.44789E+08         0.00000E+00
    0.00000E+00         0.00000E+00        -0.17348E+08
 
   -0.38242E+08        -0.15689E+07         0.00000E+00
   -0.15689E+07        -0.44063E+08         0.00000E+00
    0.00000E+00         0.00000E+00        -0.16461E+08
 
   -0.35396E+08        -0.14567E+07         0.00000E+00
   -0.14567E+07        -0.43245E+08         0.00000E+00
    0.00000E+00         0.00000E+00        -0.15728E+08
 
   -0.33088E+08        -0.12945E+07         0.00000E+00
   -0.12945E+07        -0.42457E+08         0.00000E+00
    0.00000E+00         0.00000E+00        -0.15109E+08
 
   -0.31127E+08        -0.11107E+07         0.00000E+00
   -0.11107E+07        -0.41747E+08         0.00000E+00
    0.00000E+00         0.00000E+00        -0.14575E+08
 
   -0.29385E+08        -0.91456E+06         0.00000E+00
   -0.91456E+06        -0.41143E+08         0.00000E+00
    0.00000E+00         0.00000E+00        -0.14106E+08
 
   -0.27768E+08        -0.70702E+06         0.00000E+00
   -0.70702E+06        -0.40659E+08         0.00000E+00
    0.00000E+00         0.00000E+00        -0.13685E+08
 
   -0.26199E+08        -0.48439E+06         0.00000E+00
   -0.48439E+06        -0.40308E+08         0.00000E+00
    0.00000E+00         0.00000E+00        -0.13301E+08
 
   -0.24604E+08        -0.23838E+06         0.00000E+00
   -0.23838E+06        -0.40106E+08         0.00000E+00
    0.00000E+00         0.00000E+00        -0.12942E+08
 
   -0.22907E+08         0.45811E+05         0.00000E+00
    0.45811E+05        -0.40075E+08         0.00000E+00
    0.00000E+00         0.00000E+00        -0.12596E+08
 
   -0.21012E+08         0.39519E+06         0.00000E+00
    0.39519E+06        -0.40250E+08         0.00000E+00
    0.00000E+00         0.00000E+00        -0.12252E+08
 
   -0.18792E+08         0.86400E+06         0.00000E+00
    0.86400E+06        -0.40689E+08         0.00000E+00
    0.00000E+00         0.00000E+00        -0.11896E+08
 
   -0.16040E+08         0.15865E+07         0.00000E+00
    0.15865E+07        -0.41501E+08         0.00000E+00
    0.00000E+00         0.00000E+00        -0.11508E+08
 
   -0.12705E+08         0.29995E+07         0.00000E+00
    0.29995E+07        -0.42832E+08         0.00000E+00
    0.00000E+00         0.00000E+00        -0.11108E+08
 
   -0.51048E+08        -0.55017E+06         0.00000E+00
   -0.55017E+06        -0.47986E+08         0.00000E+00
    0.00000E+00         0.00000E+00        -0.19807E+08
 
   -0.45215E+08        -0.63189E+06         0.00000E+00
   -0.63189E+06        -0.46975E+08         0.00000E+00
    0.00000E+00         0.00000E+00        -0.18438E+08
 
   -0.41378E+08        -0.57954E+06         0.00000E+00
   -0.57954E+06        -0.45843E+08         0.00000E+00
    0.00000E+00         0.00000E+00        -0.17444E+08
 
   -0.38483E+08        -0.51887E+06         0.00000E+00
   -0.51887E+06        -0.44783E+08         0.00000E+00
    0.00000E+00         0.00000E+00        -0.16653E+08
 
   -0.36152E+08        -0.45284E+06         0.00000E+00
   -0.45284E+06        -0.43835E+08         0.00000E+00
    0.00000E+00         0.00000E+00        -0.15997E+08
 
   -0.34176E+08        -0.38483E+06         0.00000E+00
   -0.38483E+06        -0.43015E+08         0.00000E+00
    0.00000E+00         0.00000E+00        -0.15438E+08
 
   -0.32420E+08        -0.31528E+06         0.00000E+00
   -0.31528E+06        -0.42328E+08         0.00000E+00
    0.00000E+00         0.00000E+00        -0.14950E+08
 
   -0.30788E+08        -0.24343E+06         0.00000E+00
   -0.24343E+06        -0.41780E+08         0.00000E+00
    0.00000E+00         0.00000E+00        -0.14514E+08
 
   -0.29198E+08        -0.16750E+06         0.00000E+00
   -0.16750E+06        -0.41378E+08         0.00000E+00
    0.00000E+00         0.00000E+00        -0.14115E+08
 
   -0.27576E+08        -0.84462E+05         0.00000E+00
   -0.84462E+05        -0.41134E+08         0.00000E+00
    0.00000E+00         0.00000E+00        -0.13742E+08
 
   -0.25839E+08         0.10781E+05         0.00000E+00
    0.10781E+05        -0.41066E+08         0.00000E+00
    0.00000E+00         0.00000E+00        -0.13381E+08
 
   -0.23881E+08         0.12724E+06         0.00000E+00
    0.12724E+06        -0.41209E+08         0.00000E+00
    0.00000E+00         0.00000E+00        -0.13018E+08
 
   -0.21542E+08         0.28395E+06         0.00000E+00
    0.28395E+06        -0.41623E+08         0.00000E+00
    0.00000E+00         0.00000E+00        -0.12633E+08
 
   -0.18533E+08         0.52344E+06         0.00000E+00
    0.52344E+06        -0.42432E+08         0.00000E+00
    0.00000E+00         0.00000E+00        -0.12193E+08
 
   -0.14034E+08         0.11181E+07         0.00000E+00
    0.11181E+07        -0.43982E+08         0.00000E+00
    0.00000E+00         0.00000E+00        -0.11603E+08
 
TENSORS stresstot double 
   -0.34154E+08        -0.15678E+07         0.00000E+00
   -0.15678E+07        -0.61046E+08         0.00000E+00
    0.00000E+00         0.00000E+00        -0.69978E+08
 
   -0.42224E+08        -0.14026E+07         0.00000E+00
   -0.14026E+07        -0.63408E+08         0.00000E+00
    0.00000E+00         0.00000E+00        -0.72094E+08
 
   -0.46284E+08        -0.10506E+07         0.00000E+00
   -0.10506E+07        -0.65615E+08         0.00000E+00
    0.00000E+00         0.00000E+00        -0.73382E+08
 
   -0.49017E+08        -0.81362E+06         0.00000E+00
   -0.81362E+06        -0.67389E+08         0.00000E+00
    0.00000E+00         0.00000E+00        -0.74315E+08
 
   -0.51105E+08        -0.63652E+06         0.00000E+00
   -0.63652E+06        -0.68796E+08         0.00000E+00
    0.00000E+00         0.00000E+00        -0.75042E+08
 
   -0.52851E+08        -0.49985E+06         0.00000E+00
   -0.49985E+06        -0.69911E+08         0.00000E+00
    0.00000E+00         0.00000E+00        -0.75639E+08
 
   -0.54412E+08        -0.38929E+06         0.00000E+00
   -0.38929E+06        -0.70789E+08         0.00000E+00
    0.00000E+00         0.00000E+00        -0.76148E+08
 
   -0.55885E+08        -0.29513E+06         0.00000E+00
   -0.29513E+06        -0.71469E+08         0.00000E+00
    0.00000E+00         0.00000E+00        -0.76597E+08
 
   -0.57349E+08        -0.20982E+06         0.00000E+00
   -0.20982E+06        -0.71972E+08         0.00000E+00
    0.00000E+00         0.00000E+00        -0.77008E+08
 
   -0.58881E+08        -0.12616E+06         0.00000E+00
   -0.12616E+06        -0.72307E+08         0.00000E+00
    0.00000E+00         0.00000E+00        -0.77398E+08
 
   -0.60576E+08        -0.34893E+05         0.00000E+00
   -0.34893E+05        -0.72468E+08         0.00000E+00
    0.00000E+00         0.00000E+00        -0.77785E+08
 
   -0.62585E+08         0.79903E+05         0.00000E+00
    0.79903E+05        -0.72421E+08         0.00000E+00
    0.00000E+00         0.00000E+00        -0.78193E+08
 
   -0.65182E+08         0.25704E+06         0.00000E+00
    0.25704E+06        -0.72083E+08         0.00000E+00
    0.00000E+00         0.00000E+00        -0.78661E+08
 
   -0.68959E+08         0.59268E+06         0.00000E+00
    0.59268E+06        -0.71225E+08         0.00000E+00
    0.00000E+00         0.00000E+00        -0.79262E+08
 
   -0.76076E+08         0.18934E+07         0.00000E+00
    0.18934E+07        -0.69007E+08         0.00000E+00
    0.00000E+00         0.00000E+00        -0.80256E+08
 
   -0.36578E+08        -0.19949E+07         0.00000E+00
   -0.19949E+07        -0.59817E+08         0.00000E+00
    0.00000E+00         0.00000E+00        -0.65032E+08
 
   -0.41902E+08        -0.30664E+07         0.00000E+00
   -0.30664E+07        -0.60062E+08         0.00000E+00
    0.00000E+00         0.00000E+00        -0.66201E+08
 
   -0.45894E+08        -0.27068E+07         0.00000E+00
   -0.27068E+07        -0.61098E+08         0.00000E+00
    0.00000E+00         0.00000E+00        -0.67278E+08
 
   -0.48675E+08        -0.22230E+07         0.00000E+00
   -0.22230E+07        -0.62271E+08         0.00000E+00
    0.00000E+00         0.00000E+00        -0.68140E+08
 
   -0.50828E+08        -0.17959E+07         0.00000E+00
   -0.17959E+07        -0.63347E+08         0.00000E+00
    0.00000E+00         0.00000E+00        -0.68851E+08
 
   -0.52624E+08        -0.14373E+07         0.00000E+00
   -0.14373E+07        -0.64269E+08         0.00000E+00
    0.00000E+00         0.00000E+00        -0.69454E+08
 
   -0.54218E+08        -0.11329E+07         0.00000E+00
   -0.11329E+07        -0.65029E+08         0.00000E+00
    0.00000E+00         0.00000E+00        -0.69977E+08
 
   -0.55712E+08        -0.86494E+06         0.00000E+00
   -0.86494E+06        -0.65631E+08         0.00000E+00
    0.00000E+00         0.00000E+00        -0.70443E+08
 
   -0.57184E+08        -0.61605E+06         0.00000E+00
   -0.61605E+06        -0.66079E+08         0.00000E+00
    0.00000E+00         0.00000E+00        -0.70871E+08
 
   -0.58708E+08        -0.36677E+06         0.00000E+00
   -0.36677E+06        -0.66370E+08         0.00000E+00
    0.00000E+00         0.00000E+00        -0.71275E+08
 
   -0.60373E+08        -0.89817E+05         0.00000E+00
   -0.89817E+05        -0.66487E+08         0.00000E+00
    0.00000E+00         0.00000E+00        -0.71670E+08
 
   -0.62304E+08         0.26456E+06         0.00000E+00
    0.26456E+06        -0.66389E+08         0.00000E+00
    0.00000E+00         0.00000E+00        -0.72074E+08
 
   -0.64697E+08         0.80776E+06         0.00000E+00
    0.80776E+06        -0.65986E+08         0.00000E+00
    0.00000E+00         0.00000E+00        -0.72509E+08
 
   -0.67927E+08         0.18634E+07         0.00000E+00
    0.18634E+07        -0.65084E+08         0.00000E+00
    0.00000E+00         0.00000E+00        -0.73010E+08
 
   -0.71732E+08         0.46406E+07         0.00000E+00
    0.46406E+07        -0.63426E+08         0.00000E+00
    0.00000E+00         0.00000E+00        -0.73467E+08
 
   -0.39349E+08        -0.15742E+07         0.00000E+00
   -0.15742E+07        -0.59780E+08         0.00000E+00
    0.00000E+00         0.00000E+00        -0.61967E+08
 
   -0.42349E+08        -0.31822E+07         0.00000E+00
   -0.31822E+07        -0.59386E+08         0.00000E+00
    0.00000E+00         0.00000E+00        -0.62529E+08
 
   -0.45556E+08        -0.33871E+07         0.00000E+00
   -0.33871E+07        -0.59370E+08         0.00000E+00
    0.00000E+00         0.00000E+00        -0.63232E+08
 
   -0.48225E+08        -0.30507E+07         0.00000E+00
   -0.30507E+07        -0.59758E+08         0.00000E+00
    0.00000E+00         0.00000E+00        -0.63916E+08
 
   -0.50396E+08        -0.25960E+07         0.00000E+00
   -0.25960E+07        -0.60306E+08         0.00000E+00
    0.00000E+00         0.00000E+00        -0.64532E+08
 
   -0.52236E+08        -0.21432E+07         0.00000E+00
   -0.21432E+07        -0.60872E+08         0.00000E+00
    0.00000E+00         0.00000E+00        -0.65081E+08
 
   -0.53869E+08        -0.17197E+07         0.00000E+00
   -0.17197E+07        -0.61386E+08         0.00000E+00
    0.00000E+00         0.00000E+00        -0.65574E+08
 
   -0.55387E+08        -0.13217E+07         0.00000E+00
   -0.13217E+07        -0.61810E+08         0.00000E+00
    0.00000E+00         0.00000E+00        -0.66021E+08
 
   -0.56864E+08        -0.93311E+06         0.00000E+00
   -0.93311E+06        -0.62122E+08         0.00000E+00
    0.00000E+00         0.00000E+00        -0.66432E+08
 
   -0.58365E+08        -0.52822E+06         0.00000E+00
   -0.52822E+06        -0.62299E+08         0.00000E+00
    0.00000E+00         0.00000E+00        -0.66818E+08
 
   -0.59961E+08        -0.64994E+05         0.00000E+00
   -0.64994E+05        -0.62314E+08         0.00000E+00
    0.00000E+00         0.00000E+00        -0.67187E+08
 
   -0.61731E+08         0.53429E+06         0.00000E+00
    0.53429E+06        -0.62123E+08         0.00000E+00
    0.00000E+00         0.00000E+00        -0.67546E+08
 
   -0.63757E+08         0.14319E+07         0.00000E+00
    0.14319E+07        -0.61661E+08         0.00000E+00
    0.00000E+00         0.00000E+00        -0.67898E+08
 
   -0.65973E+08         0.30063E+07         0.00000E+00
    0.30063E+07        -0.60869E+08         0.00000E+00
    0.00000E+00         0.00000E+00        -0.68216E+08
 
   -0.67806E+08         0.58175E+07         0.00000E+00
    0.58175E+07        -0.60032E+08         0.00000E+00
    0.00000E+00         0.00000E+00        -0.68435E+08
 
   -0.41691E+08        -0.11619E+07         0.00000E+00
   -0.11619E+07        -0.59821E+08         0.00000E+00
    0.00000E+00         0.00000E+00        -0.59892E+08
 
   -0.43281E+08        -0.27191E+07         0.00000E+00
   -0.27191E+07        -0.59344E+08         0.00000E+00
    0.00000E+00         0.00000E+00        -0.60137E+08
 
   -0.45597E+08        -0.33024E+07         0.00000E+00
   -0.33024E+07        -0.58913E+08         0.00000E+00
    0.00000E+00         0.00000E+00        -0.60556E+08
 
   -0.47905E+08        -0.32689E+07         0.00000E+00
   -0.32689E+07        -0.58754E+08         0.00000E+00
    0.00000E+00         0.00000E+00        -0.61041E+08
 
   -0.49970E+08        -0.29515E+07         0.00000E+00
   -0.29515E+07        -0.58825E+08         0.00000E+00
    0.00000E+00         0.00000E+00        -0.61528E+08
 
   -0.51791E+08        -0.25285E+07         0.00000E+00
   -0.25285E+07        -0.59017E+08         0.00000E+00
    0.00000E+00         0.00000E+00        -0.61992E+08
 
   -0.53430E+08        -0.20708E+07         0.00000E+00
   -0.20708E+07        -0.59244E+08         0.00000E+00
    0.00000E+00         0.00000E+00        -0.62425E+08
 
   -0.54951E+08        -0.15986E+07         0.00000E+00
   -0.15986E+07        -0.59447E+08         0.00000E+00
    0.00000E+00         0.00000E+00        -0.62826E+08
 
   -0.56411E+08        -0.11060E+07         0.00000E+00
   -0.11060E+07        -0.59584E+08         0.00000E+00
    0.00000E+00         0.00000E+00        -0.63198E+08
 
   -0.57863E+08        -0.56807E+06         0.00000E+00
   -0.56807E+06        -0.59620E+08         0.00000E+00
    0.00000E+00         0.00000E+00        -0.63544E+08
 
   -0.59349E+08         0.63026E+05         0.00000E+00
    0.63026E+05        -0.59523E+08         0.00000E+00
    0.00000E+00         0.00000E+00        -0.63866E+08
 
   -0.60895E+08         0.87333E+06         0.00000E+00
    0.87333E+06        -0.59260E+08         0.00000E+00
    0.00000E+00         0.00000E+00        -0.64161E+08
 
   -0.62466E+08         0.20180E+07         0.00000E+00
    0.20180E+07        -0.58819E+08         0.00000E+00
    0.00000E+00         0.00000E+00        -0.64419E+08
 
   -0.63861E+08         0.37259E+07         0.00000E+00
    0.37259E+07        -0.58278E+08         0.00000E+00
    0.00000E+00         0.00000E+00        -0.64612E+08
 
   -0.64589E+08         0.61991E+07         0.00000E+00
    0.61991E+07        -0.57912E+08         0.00000E+00
    0.00000E+00         0.00000E+00        -0.64695E+08
 
   -0.43508E+08        -0.83699E+06         0.00000E+00
   -0.83699E+06        -0.59867E+08         0.00000E+00
    0.00000E+00         0.00000E+00        -0.58423E+08
 
   -0.44320E+08        -0.21566E+07         0.00000E+00
   -0.21566E+07        -0.59440E+08         0.00000E+00
    0.00000E+00         0.00000E+00        -0.58506E+08
 
   -0.45933E+08        -0.28717E+07         0.00000E+00
   -0.28717E+07        -0.58908E+08         0.00000E+00
    0.00000E+00         0.00000E+00        -0.58741E+08
 
   -0.47806E+08        -0.30694E+07         0.00000E+00
   -0.30694E+07        -0.58493E+08         0.00000E+00
    0.00000E+00         0.00000E+00        -0.59064E+08
 
   -0.49653E+08        -0.29314E+07         0.00000E+00
   -0.29314E+07        -0.58252E+08         0.00000E+00
    0.00000E+00         0.00000E+00        -0.59426E+08
 
   -0.51374E+08        -0.26052E+07         0.00000E+00
   -0.26052E+07        -0.58148E+08         0.00000E+00
    0.00000E+00         0.00000E+00        -0.59795E+08
 
   -0.52963E+08        -0.21754E+07         0.00000E+00
   -0.21754E+07        -0.58121E+08         0.00000E+00
    0.00000E+00         0.00000E+00        -0.60154E+08
 
   -0.54446E+08        -0.16790E+07         0.00000E+00
   -0.16790E+07        -0.58114E+08         0.00000E+00
    0.00000E+00         0.00000E+00        -0.60495E+08
 
   -0.55858E+08        -0.11214E+07         0.00000E+00
   -0.11214E+07        -0.58081E+08         0.00000E+00
    0.00000E+00         0.00000E+00        -0.60815E+08
 
   -0.57228E+08        -0.48438E+06         0.00000E+00
   -0.48438E+06        -0.57984E+08         0.00000E+00
    0.00000E+00         0.00000E+00        -0.61109E+08
 
   -0.58572E+08         0.27414E+06         0.00000E+00
    0.27414E+06        -0.57796E+08         0.00000E+00
    0.00000E+00         0.00000E+00        -0.61376E+08
 
   -0.59873E+08         0.12261E+07         0.00000E+00
    0.12261E+07        -0.57504E+08         0.00000E+00
    0.00000E+00         0.00000E+00        -0.61606E+08
 
   -0.61044E+08         0.24738E+07         0.00000E+00
    0.24738E+07        -0.57134E+08         0.00000E+00
    0.00000E+00         0.00000E+00        -0.61787E+08
 
   -0.61883E+08         0.41236E+07         0.00000E+00
    0.41236E+07        -0.56790E+08         0.00000E+00
    0.00000E+00         0.00000E+00        -0.61897E+08
 
   -0.62036E+08         0.62058E+07         0.00000E+00
    0.62058E+07        -0.56686E+08         0.00000E+00
    0.00000E+00         0.00000E+00        -0.61910E+08
 
   -0.44863E+08        -0.59271E+06         0.00000E+00
   -0.59271E+06        -0.59902E+08         0.00000E+00
    0.00000E+00         0.00000E+00        -0.57330E+08
 
   -0.45280E+08        -0.16428E+07         0.00000E+00
   -0.16428E+07        -0.59554E+08         0.00000E+00
    0.00000E+00         0.00000E+00        -0.57337E+08
 
   -0.46407E+08        -0.23447E+07         0.00000E+00
   -0.23447E+07        -0.59049E+08         0.00000E+00
    0.00000E+00         0.00000E+00        -0.57461E+08
 
   -0.47887E+08        -0.26624E+07         0.00000E+00
   -0.26624E+07        -0.58556E+08         0.00000E+00
    0.00000E+00         0.00000E+00        -0.57668E+08
 
   -0.49471E+08        -0.26661E+07         0.00000E+00
   -0.26661E+07        -0.58159E+08         0.00000E+00
    0.00000E+00         0.00000E+00        -0.57925E+08
 
   -0.51030E+08        -0.24465E+07         0.00000E+00
   -0.24465E+07        -0.57869E+08         0.00000E+00
    0.00000E+00         0.00000E+00        -0.58205E+08
 
   -0.52513E+08        -0.20734E+07         0.00000E+00
   -0.20734E+07        -0.57658E+08         0.00000E+00
    0.00000E+00         0.00000E+00        -0.58489E+08
 
   -0.53913E+08        -0.15865E+07         0.00000E+00
   -0.15865E+07        -0.57487E+08         0.00000E+00
    0.00000E+00         0.00000E+00        -0.58767E+08
 
   -0.55240E+08        -0.99889E+06         0.00000E+00
   -0.99889E+06        -0.57318E+08         0.00000E+00
    0.00000E+00         0.00000E+00        -0.59029E+08
 
   -0.56501E+08        -0.30162E+06         0.00000E+00
   -0.30162E+06        -0.57120E+08         0.00000E+00
    0.00000E+00         0.00000E+00        -0.59269E+08
 
   -0.57688E+08         0.53391E+06         0.00000E+00
    0.53391E+06        -0.56874E+08         0.00000E+00
    0.00000E+00         0.00000E+00        -0.59480E+08
 
   -0.58762E+08         0.15528E+07         0.00000E+00
    0.15528E+07        -0.56583E+08         0.00000E+00
    0.00000E+00         0.00000E+00        -0.59654E+08
 
   -0.59631E+08         0.28060E+07         0.00000E+00
    0.28060E+07        -0.56285E+08         0.00000E+00
    0.00000E+00         0.00000E+00        -0.59777E+08
 
   -0.60128E+08         0.43212E+07         0.00000E+00
    0.43212E+07        -0.56072E+08         0.00000E+00
    0.00000E+00         0.00000E+00        -0.59836E+08
 
   -0.60021E+08         0.60524E+07         0.00000E+00
    0.60524E+07        -0.56093E+08         0.00000E+00
    0.00000E+00         0.00000E+00        -0.59815E+08
 
   -0.45849E+08        -0.41191E+06         0.00000E+00
   -0.41191E+06        -0.59929E+08         0.00000E+00
    0.00000E+00         0.00000E+00        -0.56467E+08
 
   -0.46092E+08        -0.12163E+07         0.00000E+00
   -0.12163E+07        -0.59657E+08         0.00000E+00
    0.00000E+00         0.00000E+00        -0.56447E+08
 
   -0.46908E+08        -0.18369E+07         0.00000E+00
   -0.18369E+07        -0.59223E+08         0.00000E+00
    0.00000E+00         0.00000E+00        -0.56507E+08
 
   -0.48072E+08        -0.21898E+07         0.00000E+00
   -0.21898E+07        -0.58746E+08         0.00000E+00
    0.00000E+00         0.00000E+00        -0.56636E+08
 
   -0.49399E+08        -0.22781E+07         0.00000E+00
   -0.22781E+07        -0.58301E+08         0.00000E+00
    0.00000E+00         0.00000E+00        -0.56812E+08
 
   -0.50763E+08        -0.21429E+07         0.00000E+00
   -0.21429E+07        -0.57922E+08         0.00000E+00
    0.00000E+00         0.00000E+00        -0.57017E+08
 
   -0.52101E+08        -0.18289E+07         0.00000E+00
   -0.18289E+07        -0.57605E+08         0.00000E+00
    0.00000E+00         0.00000E+00        -0.57233E+08
 
   -0.53381E+08        -0.13684E+07         0.00000E+00
   -0.13684E+07        -0.57330E+08         0.00000E+00
    0.00000E+00         0.00000E+00        -0.57450E+08
 
   -0.54591E+08        -0.77699E+06         0.00000E+00
   -0.77699E+06        -0.57073E+08         0.00000E+00
    0.00000E+00         0.00000E+00        -0.57656E+08
 
   -0.55723E+08        -0.54403E+05         0.00000E+00
   -0.54403E+05        -0.56812E+08         0.00000E+00
    0.00000E+00         0.00000E+00        -0.57844E+08
 
   -0.56753E+08         0.81222E+06         0.00000E+00
    0.81222E+06        -0.56539E+08         0.00000E+00
    0.00000E+00         0.00000E+00        -0.58006E+08
 
   -0.57637E+08         0.18419E+07         0.00000E+00
    0.18419E+07        -0.56263E+08         0.00000E+00
    0.00000E+00         0.00000E+00        -0.58133E+08
 
   -0.58293E+08         0.30468E+07         0.00000E+00
    0.30468E+07        -0.56022E+08         0.00000E+00
    0.00000E+00         0.00000E+00        -0.58215E+08
 
   -0.58601E+08         0.44100E+07         0.00000E+00
    0.44100E+07        -0.55887E+08         0.00000E+00
    0.00000E+00         0.00000E+00        -0.58244E+08
 
   -0.58416E+08         0.58556E+07         0.00000E+00
    0.58556E+07        -0.55951E+08         0.00000E+00
    0.00000E+00         0.00000E+00        -0.58212E+08
 
   -0.46550E+08        -0.27974E+06         0.00000E+00
   -0.27974E+06        -0.59949E+08         0.00000E+00
    0.00000E+00         0.00000E+00        -0.55738E+08
 
   -0.46745E+08        -0.87904E+06         0.00000E+00
   -0.87904E+06        -0.59743E+08         0.00000E+00
    0.00000E+00         0.00000E+00        -0.55715E+08
 
   -0.47372E+08        -0.13955E+07         0.00000E+00
   -0.13955E+07        -0.59392E+08         0.00000E+00
    0.00000E+00         0.00000E+00        -0.55744E+08
 
   -0.48298E+08        -0.17321E+07         0.00000E+00
   -0.17321E+07        -0.58973E+08         0.00000E+00
    0.00000E+00         0.00000E+00        -0.55822E+08
 
   -0.49395E+08        -0.18565E+07         0.00000E+00
   -0.18565E+07        -0.58548E+08         0.00000E+00
    0.00000E+00         0.00000E+00        -0.55940E+08
 
   -0.50561E+08        -0.17748E+07         0.00000E+00
   -0.17748E+07        -0.58151E+08         0.00000E+00
    0.00000E+00         0.00000E+00        -0.56085E+08
 
   -0.51730E+08        -0.15083E+07         0.00000E+00
   -0.15083E+07        -0.57795E+08         0.00000E+00
    0.00000E+00         0.00000E+00        -0.56243E+08
 
   -0.52864E+08        -0.10783E+07         0.00000E+00
   -0.10783E+07        -0.57473E+08         0.00000E+00
    0.00000E+00         0.00000E+00        -0.56406E+08
 
   -0.53937E+08        -0.49915E+06         0.00000E+00
   -0.49915E+06        -0.57175E+08         0.00000E+00
    0.00000E+00         0.00000E+00        -0.56562E+08
 
   -0.54929E+08         0.22304E+06         0.00000E+00
    0.22304E+06        -0.56889E+08         0.00000E+00
    0.00000E+00         0.00000E+00        -0.56704E+08
 
   -0.55811E+08         0.10877E+07         0.00000E+00
    0.10877E+07        -0.56614E+08         0.00000E+00
    0.00000E+00         0.00000E+00        -0.56824E+08
 
   -0.56541E+08         0.20936E+07         0.00000E+00
    0.20936E+07        -0.56361E+08         0.00000E+00
    0.00000E+00         0.00000E+00        -0.56914E+08
 
   -0.57056E+08         0.32277E+07         0.00000E+00
    0.32277E+07        -0.56163E+08         0.00000E+00
    0.00000E+00         0.00000E+00        -0.56968E+08
 
   -0.57273E+08         0.44500E+07         0.00000E+00
    0.44500E+07        -0.56066E+08         0.00000E+00
    0.00000E+00         0.00000E+00        -0.56981E+08
 
   -0.57111E+08         0.56773E+07         0.00000E+00
    0.56773E+07        -0.56127E+08         0.00000E+00
    0.00000E+00         0.00000E+00        -0.56950E+08
 
   -0.47038E+08        -0.18512E+06         0.00000E+00
   -0.18512E+06        -0.59964E+08         0.00000E+00
    0.00000E+00         0.00000E+00        -0.55077E+08
 
   -0.47252E+08        -0.62270E+06         0.00000E+00
   -0.62270E+06        -0.59814E+08         0.00000E+00
    0.00000E+00         0.00000E+00        -0.55066E+08
 
   -0.47771E+08        -0.10364E+07         0.00000E+00
   -0.10364E+07        -0.59544E+08         0.00000E+00
    0.00000E+00         0.00000E+00        -0.55082E+08
 
   -0.48522E+08        -0.13312E+07         0.00000E+00
   -0.13312E+07        -0.59202E+08         0.00000E+00
    0.00000E+00         0.00000E+00        -0.55130E+08
 
   -0.49423E+08        -0.14585E+07         0.00000E+00
   -0.14585E+07        -0.58833E+08         0.00000E+00
    0.00000E+00         0.00000E+00        -0.55207E+08
 
   -0.50400E+08        -0.14029E+07         0.00000E+00
   -0.14029E+07        -0.58467E+08         0.00000E+00
    0.00000E+00         0.00000E+00        -0.55305E+08
 
   -0.51395E+08        -0.11681E+07         0.00000E+00
   -0.11681E+07        -0.58122E+08         0.00000E+00
    0.00000E+00         0.00000E+00        -0.55418E+08
 
   -0.52370E+08        -0.76505E+06         0.00000E+00
   -0.76505E+06        -0.57800E+08         0.00000E+00
    0.00000E+00         0.00000E+00        -0.55534E+08
 
   -0.53294E+08        -0.20513E+06         0.00000E+00
   -0.20513E+06        -0.57500E+08         0.00000E+00
    0.00000E+00         0.00000E+00        -0.55648E+08
 
   -0.54143E+08         0.50170E+06         0.00000E+00
    0.50170E+06        -0.57220E+08         0.00000E+00
    0.00000E+00         0.00000E+00        -0.55750E+08
 
   -0.54889E+08         0.13455E+07         0.00000E+00
    0.13455E+07        -0.56962E+08         0.00000E+00
    0.00000E+00         0.00000E+00        -0.55836E+08
 
   -0.55496E+08         0.23114E+07         0.00000E+00
    0.23114E+07        -0.56738E+08         0.00000E+00
    0.00000E+00         0.00000E+00        -0.55899E+08
 
   -0.55917E+08         0.33721E+07         0.00000E+00
    0.33721E+07        -0.56570E+08         0.00000E+00
    0.00000E+00         0.00000E+00        -0.55934E+08
 
   -0.56105E+08         0.44777E+07         0.00000E+00
    0.44777E+07        -0.56488E+08         0.00000E+00
    0.00000E+00         0.00000E+00        -0.55939E+08
 
   -0.56017E+08         0.55476E+07         0.00000E+00
    0.55476E+07        -0.56523E+08         0.00000E+00
    0.00000E+00         0.00000E+00        -0.55917E+08
 
   -0.47371E+08        -0.12019E+06         0.00000E+00
   -0.12019E+06        -0.59977E+08         0.00000E+00
    0.00000E+00         0.00000E+00        -0.54440E+08
 
   -0.47639E+08        -0.43715E+06         0.00000E+00
   -0.43715E+06        -0.59874E+08         0.00000E+00
    0.00000E+00         0.00000E+00        -0.54447E+08
 
   -0.48099E+08        -0.76162E+06         0.00000E+00
   -0.76162E+06        -0.59679E+08         0.00000E+00
    0.00000E+00         0.00000E+00        -0.54462E+08
 
   -0.48721E+08        -0.10064E+07         0.00000E+00
   -0.10064E+07        -0.59419E+08         0.00000E+00
    0.00000E+00         0.00000E+00        -0.54493E+08
 
   -0.49458E+08        -0.11175E+07         0.00000E+00
   -0.11175E+07        -0.59124E+08         0.00000E+00
    0.00000E+00         0.00000E+00        -0.54542E+08
 
   -0.50261E+08        -0.10682E+07         0.00000E+00
   -0.10682E+07        -0.58818E+08         0.00000E+00
    0.00000E+00         0.00000E+00        -0.54607E+08
 
   -0.51085E+08        -0.85041E+06         0.00000E+00
   -0.85041E+06        -0.58517E+08         0.00000E+00
    0.00000E+00         0.00000E+00        -0.54682E+08
 
   -0.51897E+08        -0.46716E+06         0.00000E+00
   -0.46716E+06        -0.58230E+08         0.00000E+00
    0.00000E+00         0.00000E+00        -0.54762E+08
 
   -0.52669E+08         0.73220E+05         0.00000E+00
    0.73220E+05        -0.57959E+08         0.00000E+00
    0.00000E+00         0.00000E+00        -0.54840E+08
 
   -0.53378E+08         0.75910E+06         0.00000E+00
    0.75910E+06        -0.57708E+08         0.00000E+00
    0.00000E+00         0.00000E+00        -0.54910E+08
 
   -0.53999E+08         0.15750E+07         0.00000E+00
    0.15750E+07        -0.57482E+08         0.00000E+00
    0.00000E+00         0.00000E+00        -0.54969E+08
 
   -0.54504E+08         0.24984E+07         0.00000E+00
    0.24984E+07        -0.57289E+08         0.00000E+00
    0.00000E+00         0.00000E+00        -0.55010E+08
 
   -0.54865E+08         0.34948E+07         0.00000E+00
    0.34948E+07        -0.57145E+08         0.00000E+00
    0.00000E+00         0.00000E+00        -0.55033E+08
 
   -0.55055E+08         0.45125E+07         0.00000E+00
    0.45125E+07        -0.57066E+08         0.00000E+00
    0.00000E+00         0.00000E+00        -0.55037E+08
 
   -0.55060E+08         0.54780E+07         0.00000E+00
    0.54780E+07        -0.57064E+08         0.00000E+00
    0.00000E+00         0.00000E+00        -0.55025E+08
 
   -0.47599E+08        -0.79500E+05         0.00000E+00
   -0.79500E+05        -0.59987E+08         0.00000E+00
    0.00000E+00         0.00000E+00        -0.53797E+08
 
   -0.47933E+08        -0.31332E+06         0.00000E+00
   -0.31332E+06        -0.59924E+08         0.00000E+00
    0.00000E+00         0.00000E+00        -0.53825E+08
 
   -0.48362E+08        -0.56764E+06         0.00000E+00
   -0.56764E+06        -0.59798E+08         0.00000E+00
    0.00000E+00         0.00000E+00        -0.53844E+08
 
   -0.48887E+08        -0.76488E+06         0.00000E+00
   -0.76488E+06        -0.59620E+08         0.00000E+00
    0.00000E+00         0.00000E+00        -0.53867E+08
 
   -0.49484E+08        -0.85147E+06         0.00000E+00
   -0.85147E+06        -0.59407E+08         0.00000E+00
    0.00000E+00         0.00000E+00        -0.53898E+08
 
   -0.50128E+08        -0.79580E+06         0.00000E+00
   -0.79580E+06        -0.59176E+08         0.00000E+00
    0.00000E+00         0.00000E+00        -0.53938E+08
 
   -0.50788E+08        -0.58343E+06         0.00000E+00
   -0.58343E+06        -0.58941E+08         0.00000E+00
    0.00000E+00         0.00000E+00        -0.53984E+08
 
   -0.51441E+08        -0.21195E+06         0.00000E+00
   -0.21195E+06        -0.58710E+08         0.00000E+00
    0.00000E+00         0.00000E+00        -0.54034E+08
 
   -0.52063E+08         0.31288E+06         0.00000E+00
    0.31288E+06        -0.58489E+08         0.00000E+00
    0.00000E+00         0.00000E+00        -0.54083E+08
 
   -0.52636E+08         0.97915E+06         0.00000E+00
    0.97915E+06        -0.58283E+08         0.00000E+00
    0.00000E+00         0.00000E+00        -0.54128E+08
 
   -0.53141E+08         0.17688E+07         0.00000E+00
    0.17688E+07        -0.58097E+08         0.00000E+00
    0.00000E+00         0.00000E+00        -0.54164E+08
 
   -0.53560E+08         0.26559E+07         0.00000E+00
    0.26559E+07        -0.57938E+08         0.00000E+00
    0.00000E+00         0.00000E+00        -0.54190E+08
 
   -0.53878E+08         0.36039E+07         0.00000E+00
    0.36039E+07        -0.57815E+08         0.00000E+00
    0.00000E+00         0.00000E+00        -0.54205E+08
 
   -0.54084E+08         0.45630E+07         0.00000E+00
    0.45630E+07        -0.57733E+08         0.00000E+00
    0.00000E+00         0.00000E+00        -0.54210E+08
 
   -0.54183E+08         0.54688E+07         0.00000E+00
    0.54688E+07        -0.57694E+08         0.00000E+00
    0.00000E+00         0.00000E+00        -0.54209E+08
 
   -0.47763E+08        -0.59239E+05         0.00000E+00
   -0.59239E+05        -0.59996E+08         0.00000E+00
    0.00000E+00         0.00000E+00        -0.53128E+08
 
   -0.48162E+08        -0.24364E+06         0.00000E+00
   -0.24364E+06        -0.59968E+08         0.00000E+00
    0.00000E+00         0.00000E+00        -0.53175E+08
 
   -0.48574E+08        -0.44891E+06         0.00000E+00
   -0.44891E+06        -0.59904E+08         0.00000E+00
    0.00000E+00         0.00000E+00        -0.53202E+08
 
   -0.49017E+08        -0.60700E+06         0.00000E+00
   -0.60700E+06        -0.59803E+08         0.00000E+00
    0.00000E+00         0.00000E+00        -0.53221E+08
 
   -0.49493E+08        -0.66794E+06         0.00000E+00
   -0.66794E+06        -0.59674E+08         0.00000E+00
    0.00000E+00         0.00000E+00        -0.53240E+08
 
   -0.49991E+08        -0.59937E+06         0.00000E+00
   -0.59937E+06        -0.59525E+08         0.00000E+00
    0.00000E+00         0.00000E+00        -0.53261E+08
 
   -0.50497E+08        -0.38405E+06         0.00000E+00
   -0.38405E+06        -0.59365E+08         0.00000E+00
    0.00000E+00         0.00000E+00        -0.53286E+08
 
   -0.50995E+08        -0.16641E+05         0.00000E+00
   -0.16641E+05        -0.59203E+08         0.00000E+00
    0.00000E+00         0.00000E+00        -0.53311E+08
 
   -0.51472E+08         0.49898E+06         0.00000E+00
    0.49898E+06        -0.59044E+08         0.00000E+00
    0.00000E+00         0.00000E+00        -0.53337E+08
 
   -0.51914E+08         0.11514E+07         0.00000E+00
    0.11514E+07        -0.58893E+08         0.00000E+00
    0.00000E+00         0.00000E+00        -0.53360E+08
 
   -0.52310E+08         0.19219E+07         0.00000E+00
    0.19219E+07        -0.58754E+08         0.00000E+00
    0.00000E+00         0.00000E+00        -0.53379E+08
 
   -0.52652E+08         0.27841E+07         0.00000E+00
    0.27841E+07        -0.58632E+08         0.00000E+00
    0.00000E+00         0.00000E+00        -0.53393E+08
 
   -0.52933E+08         0.37024E+07         0.00000E+00
    0.37024E+07        -0.58528E+08         0.00000E+00
    0.00000E+00         0.00000E+00        -0.53402E+08
 
   -0.53157E+08         0.46310E+07         0.00000E+00
    0.46310E+07        -0.58444E+08         0.00000E+00
    0.00000E+00         0.00000E+00        -0.53409E+08
 
   -0.53340E+08         0.55144E+07         0.00000E+00
    0.55144E+07        -0.58372E+08         0.00000E+00
    0.00000E+00         0.00000E+00        -0.53418E+08
 
   -0.47901E+08        -0.56680E+05         0.00000E+00
   -0.56680E+05        -0.60003E+08         0.00000E+00
    0.00000E+00         0.00000E+00        -0.52418E+08
 
   -0.48353E+08        -0.22193E+06         0.00000E+00
   -0.22193E+06        -0.60007E+08         0.00000E+00
    0.00000E+00         0.00000E+00        -0.52483E+08
 
   -0.48748E+08        -0.39924E+06         0.00000E+00
   -0.39924E+06        -0.59998E+08         0.00000E+00
    0.00000E+00         0.00000E+00        -0.52517E+08
 
   -0.49119E+08        -0.52957E+06         0.00000E+00
   -0.52957E+06        -0.59970E+08         0.00000E+00
    0.00000E+00         0.00000E+00        -0.52535E+08
 
   -0.49483E+08        -0.56806E+06         0.00000E+00
   -0.56806E+06        -0.59921E+08         0.00000E+00
    0.00000E+00         0.00000E+00        -0.52545E+08
 
   -0.49845E+08        -0.48418E+06         0.00000E+00
   -0.48418E+06        -0.59854E+08         0.00000E+00
    0.00000E+00         0.00000E+00        -0.52551E+08
 
   -0.50203E+08        -0.26041E+06         0.00000E+00
   -0.26041E+06        -0.59774E+08         0.00000E+00
    0.00000E+00         0.00000E+00        -0.52557E+08
 
   -0.50553E+08         0.10968E+06         0.00000E+00
    0.10968E+06        -0.59686E+08         0.00000E+00
    0.00000E+00         0.00000E+00        -0.52563E+08
 
   -0.50888E+08         0.62334E+06         0.00000E+00
    0.62334E+06        -0.59595E+08         0.00000E+00
    0.00000E+00         0.00000E+00        -0.52569E+08
 
   -0.51204E+08         0.12699E+07         0.00000E+00
    0.12699E+07        -0.59504E+08         0.00000E+00
    0.00000E+00         0.00000E+00        -0.52575E+08
 
   -0.51496E+08         0.20314E+07         0.00000E+00
    0.20314E+07        -0.59415E+08         0.00000E+00
    0.00000E+00         0.00000E+00        -0.52579E+08
 
   -0.51762E+08         0.28825E+07         0.00000E+00
    0.28825E+07        -0.59330E+08         0.00000E+00
    0.00000E+00         0.00000E+00        -0.52583E+08
 
   -0.52008E+08         0.37901E+07         0.00000E+00
    0.37901E+07        -0.59247E+08         0.00000E+00
    0.00000E+00         0.00000E+00        -0.52588E+08
 
   -0.52244E+08         0.47136E+07         0.00000E+00
    0.47136E+07        -0.59163E+08         0.00000E+00
    0.00000E+00         0.00000E+00        -0.52596E+08
 
   -0.52494E+08         0.56057E+07         0.00000E+00
    0.56057E+07        -0.59064E+08         0.00000E+00
    0.00000E+00         0.00000E+00        -0.52614E+08
 
   -0.48043E+08        -0.69737E+05         0.00000E+00
   -0.69737E+05        -0.60010E+08         0.00000E+00
    0.00000E+00         0.00000E+00        -0.51658E+08
 
   -0.48531E+08        -0.24294E+06         0.00000E+00
   -0.24294E+06        -0.60041E+08         0.00000E+00
    0.00000E+00         0.00000E+00        -0.51736E+08
 
   -0.48902E+08        -0.41231E+06         0.00000E+00
   -0.41231E+06        -0.60083E+08         0.00000E+00
    0.00000E+00         0.00000E+00        -0.51776E+08
 
   -0.49200E+08        -0.52727E+06         0.00000E+00
   -0.52727E+06        -0.60121E+08         0.00000E+00
    0.00000E+00         0.00000E+00        -0.51792E+08
 
   -0.49455E+08        -0.54883E+06         0.00000E+00
   -0.54883E+06        -0.60147E+08         0.00000E+00
    0.00000E+00         0.00000E+00        -0.51794E+08
 
   -0.49686E+08        -0.44984E+06         0.00000E+00
   -0.44984E+06        -0.60158E+08         0.00000E+00
    0.00000E+00         0.00000E+00        -0.51788E+08
 
   -0.49901E+08        -0.21425E+06         0.00000E+00
   -0.21425E+06        -0.60156E+08         0.00000E+00
    0.00000E+00         0.00000E+00        -0.51778E+08
 
   -0.50107E+08         0.16414E+06         0.00000E+00
    0.16414E+06        -0.60143E+08         0.00000E+00
    0.00000E+00         0.00000E+00        -0.51767E+08
 
   -0.50305E+08         0.68300E+06         0.00000E+00
    0.68300E+06        -0.60120E+08         0.00000E+00
    0.00000E+00         0.00000E+00        -0.51756E+08
 
   -0.50496E+08         0.13325E+07         0.00000E+00
    0.13325E+07        -0.60088E+08         0.00000E+00
    0.00000E+00         0.00000E+00        -0.51745E+08
 
   -0.50685E+08         0.20960E+07         0.00000E+00
    0.20960E+07        -0.60050E+08         0.00000E+00
    0.00000E+00         0.00000E+00        -0.51737E+08
 
   -0.50876E+08         0.29501E+07         0.00000E+00
    0.29501E+07        -0.60003E+08         0.00000E+00
    0.00000E+00         0.00000E+00        -0.51732E+08
 
   -0.51081E+08         0.38653E+07         0.00000E+00
    0.38653E+07        -0.59943E+08         0.00000E+00
    0.00000E+00         0.00000E+00        -0.51732E+08
 
   -0.51318E+08         0.48060E+07         0.00000E+00
    0.48060E+07        -0.59862E+08         0.00000E+00
    0.00000E+00         0.00000E+00        -0.51742E+08
 
   -0.51614E+08         0.57323E+07         0.00000E+00
    0.57323E+07        -0.59746E+08         0.00000E+00
    0.00000E+00         0.00000E+00        -0.51765E+08
 
   -0.48219E+08        -0.96687E+05         0.00000E+00
   -0.96687E+05        -0.60016E+08         0.00000E+00
    0.00000E+00         0.00000E+00        -0.50841E+08
 
   -0.48719E+08        -0.30197E+06         0.00000E+00
   -0.30197E+06        -0.60072E+08         0.00000E+00
    0.00000E+00         0.00000E+00        -0.50928E+08
 
   -0.49051E+08        -0.48170E+06         0.00000E+00
   -0.48170E+06        -0.60158E+08         0.00000E+00
    0.00000E+00         0.00000E+00        -0.50970E+08
 
   -0.49268E+08        -0.59342E+06         0.00000E+00
   -0.59342E+06        -0.60255E+08         0.00000E+00
    0.00000E+00         0.00000E+00        -0.50982E+08
 
   -0.49413E+08        -0.60446E+06         0.00000E+00
   -0.60446E+06        -0.60349E+08         0.00000E+00
    0.00000E+00         0.00000E+00        -0.50976E+08
 
   -0.49513E+08        -0.49203E+06         0.00000E+00
   -0.49203E+06        -0.60433E+08         0.00000E+00
    0.00000E+00         0.00000E+00        -0.50957E+08
 
   -0.49588E+08        -0.24273E+06         0.00000E+00
   -0.24273E+06        -0.60504E+08         0.00000E+00
    0.00000E+00         0.00000E+00        -0.50932E+08
 
   -0.49652E+08         0.14843E+06         0.00000E+00
    0.14843E+06        -0.60560E+08         0.00000E+00
    0.00000E+00         0.00000E+00        -0.50905E+08
 
   -0.49713E+08         0.67897E+06         0.00000E+00
    0.67897E+06        -0.60602E+08         0.00000E+00
    0.00000E+00         0.00000E+00        -0.50878E+08
 
   -0.49782E+08         0.13398E+07         0.00000E+00
    0.13398E+07        -0.60629E+08         0.00000E+00
    0.00000E+00         0.00000E+00        -0.50853E+08
 
   -0.49866E+08         0.21158E+07         0.00000E+00
    0.21158E+07        -0.60640E+08         0.00000E+00
    0.00000E+00         0.00000E+00        -0.50832E+08
 
   -0.49978E+08         0.29862E+07         0.00000E+00
    0.29862E+07        -0.60631E+08         0.00000E+00
    0.00000E+00         0.00000E+00        -0.50818E+08
 
   -0.50135E+08         0.39251E+07         0.00000E+00
    0.39251E+07        -0.60596E+08         0.00000E+00
    0.00000E+00         0.00000E+00        -0.50813E+08
 
   -0.50358E+08         0.49020E+07         0.00000E+00
    0.49020E+07        -0.60523E+08         0.00000E+00
    0.00000E+00         0.00000E+00        -0.50822E+08
 
   -0.50678E+08         0.58831E+07         0.00000E+00
    0.58831E+07        -0.60397E+08         0.00000E+00
    0.00000E+00         0.00000E+00        -0.50848E+08
 
   -0.48452E+08        -0.13596E+06         0.00000E+00
   -0.13596E+06        -0.60021E+08         0.00000E+00
    0.00000E+00         0.00000E+00        -0.49964E+08
 
   -0.48937E+08        -0.39454E+06         0.00000E+00
   -0.39454E+06        -0.60098E+08         0.00000E+00
    0.00000E+00         0.00000E+00        -0.50053E+08
 
   -0.49209E+08        -0.60084E+06         0.00000E+00
   -0.60084E+06        -0.60224E+08         0.00000E+00
    0.00000E+00         0.00000E+00        -0.50092E+08
 
   -0.49333E+08        -0.72039E+06         0.00000E+00
   -0.72039E+06        -0.60372E+08         0.00000E+00
    0.00000E+00         0.00000E+00        -0.50098E+08
 
   -0.49360E+08        -0.72720E+06         0.00000E+00
   -0.72720E+06        -0.60526E+08         0.00000E+00
    0.00000E+00         0.00000E+00        -0.50080E+08
 
   -0.49327E+08        -0.60360E+06         0.00000E+00
   -0.60360E+06        -0.60674E+08         0.00000E+00
    0.00000E+00         0.00000E+00        -0.50048E+08
 
   -0.49260E+08        -0.33964E+06         0.00000E+00
   -0.33964E+06        -0.60810E+08         0.00000E+00
    0.00000E+00         0.00000E+00        -0.50008E+08
 
   -0.49182E+08         0.67670E+05         0.00000E+00
    0.67670E+05        -0.60929E+08         0.00000E+00
    0.00000E+00         0.00000E+00        -0.49964E+08
 
   -0.49107E+08         0.61524E+06         0.00000E+00
    0.61524E+06        -0.61030E+08         0.00000E+00
    0.00000E+00         0.00000E+00        -0.49921E+08
 
   -0.49051E+08         0.12946E+07         0.00000E+00
    0.12946E+07        -0.61111E+08         0.00000E+00
    0.00000E+00         0.00000E+00        -0.49881E+08
 
   -0.49028E+08         0.20922E+07         0.00000E+00
    0.20922E+07        -0.61168E+08         0.00000E+00
    0.00000E+00         0.00000E+00        -0.49847E+08
 
   -0.49054E+08         0.29902E+07         0.00000E+00
    0.29902E+07        -0.61197E+08         0.00000E+00
    0.00000E+00         0.00000E+00        -0.49823E+08
 
   -0.49151E+08         0.39664E+07         0.00000E+00
    0.39664E+07        -0.61188E+08         0.00000E+00
    0.00000E+00         0.00000E+00        -0.49812E+08
 
   -0.49344E+08         0.49950E+07         0.00000E+00
    0.49950E+07        -0.61128E+08         0.00000E+00
    0.00000E+00         0.00000E+00        -0.49818E+08
 
   -0.49667E+08         0.60474E+07         0.00000E+00
    0.60474E+07        -0.61001E+08         0.00000E+00
    0.00000E+00         0.00000E+00        -0.49845E+08
 
   -0.48766E+08        -0.18604E+06         0.00000E+00
   -0.18604E+06        -0.60026E+08         0.00000E+00
    0.00000E+00         0.00000E+00        -0.49023E+08
 
   -0.49201E+08        -0.51620E+06         0.00000E+00
   -0.51620E+06        -0.60121E+08         0.00000E+00
    0.00000E+00         0.00000E+00        -0.49107E+08
 
   -0.49389E+08        -0.76283E+06         0.00000E+00
   -0.76283E+06        -0.60280E+08         0.00000E+00
    0.00000E+00         0.00000E+00        -0.49138E+08
 
   -0.49403E+08        -0.89962E+06         0.00000E+00
   -0.89962E+06        -0.60472E+08         0.00000E+00
    0.00000E+00         0.00000E+00        -0.49132E+08
 
   -0.49301E+08        -0.90770E+06         0.00000E+00
   -0.90770E+06        -0.60676E+08         0.00000E+00
    0.00000E+00         0.00000E+00        -0.49100E+08
 
   -0.49127E+08        -0.77515E+06         0.00000E+00
   -0.77515E+06        -0.60878E+08         0.00000E+00
    0.00000E+00         0.00000E+00        -0.49052E+08
 
   -0.48916E+08        -0.49620E+06         0.00000E+00
   -0.49620E+06        -0.61068E+08         0.00000E+00
    0.00000E+00         0.00000E+00        -0.48995E+08
 
   -0.48694E+08        -0.70404E+05         0.00000E+00
   -0.70404E+05        -0.61241E+08         0.00000E+00
    0.00000E+00         0.00000E+00        -0.48933E+08
 
   -0.48481E+08         0.49814E+06         0.00000E+00
    0.49814E+06        -0.61393E+08         0.00000E+00
    0.00000E+00         0.00000E+00        -0.48873E+08
 
   -0.48298E+08         0.12014E+07         0.00000E+00
    0.12014E+07        -0.61521E+08         0.00000E+00
    0.00000E+00         0.00000E+00        -0.48817E+08
 
   -0.48162E+08         0.20276E+07         0.00000E+00
    0.20276E+07        -0.61620E+08         0.00000E+00
    0.00000E+00         0.00000E+00        -0.48770E+08
 
   -0.48094E+08         0.29619E+07         0.00000E+00
    0.29619E+07        -0.61685E+08         0.00000E+00
    0.00000E+00         0.00000E+00        -0.48735E+08
 
   -0.48118E+08         0.39857E+07         0.00000E+00
    0.39857E+07        -0.61704E+08         0.00000E+00
    0.00000E+00         0.00000E+00        -0.48715E+08
 
   -0.48264E+08         0.50779E+07         0.00000E+00
    0.50779E+07        -0.61663E+08         0.00000E+00
    0.00000E+00         0.00000E+00        -0.48716E+08
 
   -0.48566E+08         0.62145E+07         0.00000E+00
    0.62145E+07        -0.61544E+08         0.00000E+00
    0.00000E+00         0.00000E+00        -0.48741E+08
 
   -0.49179E+08        -0.24535E+06         0.00000E+00
   -0.24535E+06        -0.60029E+08         0.00000E+00
    0.00000E+00         0.00000E+00        -0.48018E+08
 
   -0.49527E+08        -0.66227E+06         0.00000E+00
   -0.66227E+06        -0.60141E+08         0.00000E+00
    0.00000E+00         0.00000E+00        -0.48089E+08
 
   -0.49602E+08        -0.96028E+06         0.00000E+00
   -0.96028E+06        -0.60326E+08         0.00000E+00
    0.00000E+00         0.00000E+00        -0.48105E+08
 
   -0.49485E+08        -0.11216E+07         0.00000E+00
   -0.11216E+07        -0.60552E+08         0.00000E+00
    0.00000E+00         0.00000E+00        -0.48082E+08
 
   -0.49239E+08        -0.11352E+07         0.00000E+00
   -0.11352E+07        -0.60796E+08         0.00000E+00
    0.00000E+00         0.00000E+00        -0.48032E+08
 
   -0.48916E+08        -0.99539E+06         0.00000E+00
   -0.99539E+06        -0.61039E+08         0.00000E+00
    0.00000E+00         0.00000E+00        -0.47964E+08
 
   -0.48555E+08        -0.70140E+06         0.00000E+00
   -0.70140E+06        -0.61272E+08         0.00000E+00
    0.00000E+00         0.00000E+00        -0.47886E+08
 
   -0.48185E+08        -0.25582E+06         0.00000E+00
   -0.25582E+06        -0.61487E+08         0.00000E+00
    0.00000E+00         0.00000E+00        -0.47805E+08
 
   -0.47832E+08         0.33595E+06         0.00000E+00
    0.33595E+06        -0.61680E+08         0.00000E+00
    0.00000E+00         0.00000E+00        -0.47726E+08
 
   -0.47517E+08         0.10663E+07         0.00000E+00
    0.10663E+07        -0.61847E+08         0.00000E+00
    0.00000E+00         0.00000E+00        -0.47653E+08
 
   -0.47261E+08         0.19254E+07         0.00000E+00
    0.19254E+07        -0.61984E+08         0.00000E+00
    0.00000E+00         0.00000E+00        -0.47590E+08
 
   -0.47088E+08         0.29013E+07         0.00000E+00
    0.29013E+07        -0.62082E+08         0.00000E+00
    0.00000E+00         0.00000E+00        -0.47542E+08
 
   -0.47026E+08         0.39798E+07         0.00000E+00
    0.39798E+07        -0.62131E+08         0.00000E+00
    0.00000E+00         0.00000E+00        -0.47511E+08
 
   -0.47105E+08         0.51438E+07         0.00000E+00
    0.51438E+07        -0.62114E+08         0.00000E+00
    0.00000E+00         0.00000E+00        -0.47504E+08
 
   -0.47363E+08         0.63740E+07         0.00000E+00
    0.63740E+07        -0.62012E+08         0.00000E+00
    0.00000E+00         0.00000E+00        -0.47525E+08
 
   -0.49707E+08        -0.31222E+06         0.00000E+00
   -0.31222E+06        -0.60032E+08         0.00000E+00
    0.00000E+00         0.00000E+00        -0.46948E+08
 
   -0.49926E+08        -0.82778E+06         0.00000E+00
   -0.82778E+06        -0.60155E+08         0.00000E+00
    0.00000E+00         0.00000E+00        -0.46997E+08
 
   -0.49855E+08        -0.11851E+07         0.00000E+00
   -0.11851E+07        -0.60361E+08         0.00000E+00
    0.00000E+00         0.00000E+00        -0.46991E+08
 
   -0.49582E+08        -0.13758E+07         0.00000E+00
   -0.13758E+07        -0.60612E+08         0.00000E+00
    0.00000E+00         0.00000E+00        -0.46944E+08
 
   -0.49176E+08        -0.13972E+07         0.00000E+00
   -0.13972E+07        -0.60883E+08         0.00000E+00
    0.00000E+00         0.00000E+00        -0.46870E+08
 
   -0.48694E+08        -0.12511E+07         0.00000E+00
   -0.12511E+07        -0.61154E+08         0.00000E+00
    0.00000E+00         0.00000E+00        -0.46779E+08
 
   -0.48175E+08        -0.94216E+06         0.00000E+00
   -0.94216E+06        -0.61415E+08         0.00000E+00
    0.00000E+00         0.00000E+00        -0.46678E+08
 
   -0.47655E+08        -0.47657E+06         0.00000E+00
   -0.47657E+06        -0.61658E+08         0.00000E+00
    0.00000E+00         0.00000E+00        -0.46574E+08
 
   -0.47157E+08         0.13877E+06         0.00000E+00
    0.13877E+06        -0.61880E+08         0.00000E+00
    0.00000E+00         0.00000E+00        -0.46474E+08
 
   -0.46706E+08         0.89665E+06         0.00000E+00
    0.89665E+06        -0.62077E+08         0.00000E+00
    0.00000E+00         0.00000E+00        -0.46381E+08
 
   -0.46323E+08         0.17895E+07         0.00000E+00
    0.17895E+07        -0.62245E+08         0.00000E+00
    0.00000E+00         0.00000E+00        -0.46301E+08
 
   -0.46034E+08         0.28089E+07         0.00000E+00
    0.28089E+07        -0.62375E+08         0.00000E+00
    0.00000E+00         0.00000E+00        -0.46236E+08
 
   -0.45869E+08         0.39450E+07         0.00000E+00
    0.39450E+07        -0.62454E+08         0.00000E+00
    0.00000E+00         0.00000E+00        -0.46193E+08
 
   -0.45862E+08         0.51855E+07         0.00000E+00
    0.51855E+07        -0.62467E+08         0.00000E+00
    0.00000E+00         0.00000E+00        -0.46175E+08
 
   -0.46052E+08         0.65152E+07         0.00000E+00
    0.65152E+07        -0.62390E+08         0.00000E+00
    0.00000E+00         0.00000E+00        -0.46188E+08
 
   -0.50363E+08        -0.38486E+06         0.00000E+00
   -0.38486E+06        -0.60034E+08         0.00000E+00
    0.00000E+00         0.00000E+00        -0.45815E+08
 
   -0.50406E+08        -0.10073E+07         0.00000E+00
   -0.10073E+07        -0.60166E+08         0.00000E+00
    0.00000E+00         0.00000E+00        -0.45832E+08
 
   -0.50153E+08        -0.14285E+07         0.00000E+00
   -0.14285E+07        -0.60384E+08         0.00000E+00
    0.00000E+00         0.00000E+00        -0.45794E+08
 
   -0.49697E+08        -0.16503E+07         0.00000E+00
   -0.16503E+07        -0.60649E+08         0.00000E+00
    0.00000E+00         0.00000E+00        -0.45717E+08
 
   -0.49114E+08        -0.16797E+07         0.00000E+00
   -0.16797E+07        -0.60933E+08         0.00000E+00
    0.00000E+00         0.00000E+00        -0.45614E+08
 
   -0.48460E+08        -0.15270E+07         0.00000E+00
   -0.15270E+07        -0.61216E+08         0.00000E+00
    0.00000E+00         0.00000E+00        -0.45494E+08
 
   -0.47779E+08        -0.12032E+07         0.00000E+00
   -0.12032E+07        -0.61488E+08         0.00000E+00
    0.00000E+00         0.00000E+00        -0.45366E+08
 
   -0.47103E+08        -0.71852E+06         0.00000E+00
   -0.71852E+06        -0.61744E+08         0.00000E+00
    0.00000E+00         0.00000E+00        -0.45237E+08
 
   -0.46458E+08        -0.81521E+05         0.00000E+00
   -0.81521E+05        -0.61981E+08         0.00000E+00
    0.00000E+00         0.00000E+00        -0.45112E+08
 
   -0.45865E+08         0.70126E+06         0.00000E+00
    0.70126E+06        -0.62197E+08         0.00000E+00
    0.00000E+00         0.00000E+00        -0.44997E+08
 
   -0.45348E+08         0.16249E+07         0.00000E+00
    0.16249E+07        -0.62388E+08         0.00000E+00
    0.00000E+00         0.00000E+00        -0.44896E+08
 
   -0.44931E+08         0.26853E+07         0.00000E+00
    0.26853E+07        -0.62546E+08         0.00000E+00
    0.00000E+00         0.00000E+00        -0.44814E+08
 
   -0.44646E+08         0.38777E+07         0.00000E+00
    0.38777E+07        -0.62659E+08         0.00000E+00
    0.00000E+00         0.00000E+00        -0.44754E+08
 
   -0.44530E+08         0.51952E+07         0.00000E+00
    0.51952E+07        -0.62707E+08         0.00000E+00
    0.00000E+00         0.00000E+00        -0.44723E+08
 
   -0.44627E+08         0.66272E+07         0.00000E+00
    0.66272E+07        -0.62666E+08         0.00000E+00
    0.00000E+00         0.00000E+00        -0.44724E+08
 
   -0.51153E+08        -0.46137E+06         0.00000E+00
   -0.46137E+06        -0.60036E+08         0.00000E+00
    0.00000E+00         0.00000E+00        -0.44620E+08
 
   -0.50971E+08        -0.11949E+07         0.00000E+00
   -0.11949E+07        -0.60171E+08         0.00000E+00
    0.00000E+00         0.00000E+00        -0.44595E+08
 
   -0.50496E+08        -0.16804E+07         0.00000E+00
   -0.16804E+07        -0.60393E+08         0.00000E+00
    0.00000E+00         0.00000E+00        -0.44517E+08
 
   -0.49830E+08        -0.19314E+07         0.00000E+00
   -0.19314E+07        -0.60659E+08         0.00000E+00
    0.00000E+00         0.00000E+00        -0.44401E+08
 
   -0.49049E+08        -0.19664E+07         0.00000E+00
   -0.19664E+07        -0.60940E+08         0.00000E+00
    0.00000E+00         0.00000E+00        -0.44261E+08
 
   -0.48214E+08        -0.18054E+07         0.00000E+00
   -0.18054E+07        -0.61217E+08         0.00000E+00
    0.00000E+00         0.00000E+00        -0.44107E+08
 
   -0.47365E+08        -0.14668E+07         0.00000E+00
   -0.14668E+07        -0.61482E+08         0.00000E+00
    0.00000E+00         0.00000E+00        -0.43948E+08
 
   -0.46532E+08        -0.96532E+06         0.00000E+00
   -0.96532E+06        -0.61732E+08         0.00000E+00
    0.00000E+00         0.00000E+00        -0.43790E+08
 
   -0.45738E+08        -0.31118E+06         0.00000E+00
   -0.31118E+06        -0.61967E+08         0.00000E+00
    0.00000E+00         0.00000E+00        -0.43638E+08
 
   -0.45001E+08         0.49020E+06         0.00000E+00
    0.49020E+06        -0.62189E+08         0.00000E+00
    0.00000E+00         0.00000E+00        -0.43498E+08
 
   -0.44341E+08         0.14373E+07         0.00000E+00
    0.14373E+07        -0.62395E+08         0.00000E+00
    0.00000E+00         0.00000E+00        -0.43374E+08
 
   -0.43783E+08         0.25312E+07         0.00000E+00
    0.25312E+07        -0.62578E+08         0.00000E+00
    0.00000E+00         0.00000E+00        -0.43270E+08
 
   -0.43359E+08         0.37736E+07         0.00000E+00
    0.37736E+07        -0.62726E+08         0.00000E+00
    0.00000E+00         0.00000E+00        -0.43192E+08
 
   -0.43110E+08         0.51641E+07         0.00000E+00
    0.51641E+07        -0.62816E+08         0.00000E+00
    0.00000E+00         0.00000E+00        -0.43143E+08
 
   -0.43084E+08         0.66979E+07         0.00000E+00
    0.66979E+07        -0.62822E+08         0.00000E+00
    0.00000E+00         0.00000E+00        -0.43130E+08
 
   -0.52084E+08        -0.53971E+06         0.00000E+00
   -0.53971E+06        -0.60036E+08         0.00000E+00
    0.00000E+00         0.00000E+00        -0.43367E+08
 
   -0.51621E+08        -0.13841E+07         0.00000E+00
   -0.13841E+07        -0.60171E+08         0.00000E+00
    0.00000E+00         0.00000E+00        -0.43287E+08
 
   -0.50882E+08        -0.19293E+07         0.00000E+00
   -0.19293E+07        -0.60387E+08         0.00000E+00
    0.00000E+00         0.00000E+00        -0.43158E+08
 
   -0.49975E+08        -0.22033E+07         0.00000E+00
   -0.22033E+07        -0.60640E+08         0.00000E+00
    0.00000E+00         0.00000E+00        -0.42996E+08
 
   -0.48981E+08        -0.22382E+07         0.00000E+00
   -0.22382E+07        -0.60898E+08         0.00000E+00
    0.00000E+00         0.00000E+00        -0.42813E+08
 
   -0.47955E+08        -0.20656E+07         0.00000E+00
   -0.20656E+07        -0.61148E+08         0.00000E+00
    0.00000E+00         0.00000E+00        -0.42619E+08
 
   -0.46936E+08        -0.17124E+07         0.00000E+00
   -0.17124E+07        -0.61383E+08         0.00000E+00
    0.00000E+00         0.00000E+00        -0.42424E+08
 
   -0.45948E+08        -0.11982E+07         0.00000E+00
   -0.11982E+07        -0.61606E+08         0.00000E+00
    0.00000E+00         0.00000E+00        -0.42233E+08
 
   -0.45005E+08        -0.53449E+06         0.00000E+00
   -0.53449E+06        -0.61822E+08         0.00000E+00
    0.00000E+00         0.00000E+00        -0.42051E+08
 
   -0.44122E+08         0.27494E+06         0.00000E+00
    0.27494E+06        -0.62035E+08         0.00000E+00
    0.00000E+00         0.00000E+00        -0.41883E+08
 
   -0.43313E+08         0.12330E+07         0.00000E+00
    0.12330E+07        -0.62247E+08         0.00000E+00
    0.00000E+00         0.00000E+00        -0.41733E+08
 
   -0.42601E+08         0.23472E+07         0.00000E+00
    0.23472E+07        -0.62452E+08         0.00000E+00
    0.00000E+00         0.00000E+00        -0.41605E+08
 
   -0.42017E+08         0.36276E+07         0.00000E+00
    0.36276E+07        -0.62636E+08         0.00000E+00
    0.00000E+00         0.00000E+00        -0.41504E+08
 
   -0.41607E+08         0.50821E+07         0.00000E+00
    0.50821E+07        -0.62778E+08         0.00000E+00
    0.00000E+00         0.00000E+00        -0.41435E+08
 
   -0.41424E+08         0.67133E+07         0.00000E+00
    0.67133E+07        -0.62844E+08         0.00000E+00
    0.00000E+00         0.00000E+00        -0.41404E+08
 
   -0.53155E+08        -0.61776E+06         0.00000E+00
   -0.61776E+06        -0.60035E+08         0.00000E+00
    0.00000E+00         0.00000E+00        -0.42058E+08
 
   -0.52351E+08        -0.15672E+07         0.00000E+00
   -0.15672E+07        -0.60165E+08         0.00000E+00
    0.00000E+00         0.00000E+00        -0.41911E+08
 
   -0.51303E+08        -0.21619E+07         0.00000E+00
   -0.21619E+07        -0.60364E+08         0.00000E+00
    0.00000E+00         0.00000E+00        -0.41720E+08
 
   -0.50125E+08        -0.24472E+07         0.00000E+00
   -0.24472E+07        -0.60585E+08         0.00000E+00
    0.00000E+00         0.00000E+00        -0.41501E+08
 
   -0.48901E+08        -0.24726E+07         0.00000E+00
   -0.24726E+07        -0.60799E+08         0.00000E+00
    0.00000E+00         0.00000E+00        -0.41268E+08
 
   -0.47681E+08        -0.22838E+07         0.00000E+00
   -0.22838E+07        -0.60995E+08         0.00000E+00
    0.00000E+00         0.00000E+00        -0.41030E+08
 
   -0.46495E+08        -0.19168E+07         0.00000E+00
   -0.19168E+07        -0.61176E+08         0.00000E+00
    0.00000E+00         0.00000E+00        -0.40794E+08
 
   -0.45356E+08        -0.13961E+07         0.00000E+00
   -0.13961E+07        -0.61348E+08         0.00000E+00
    0.00000E+00         0.00000E+00        -0.40567E+08
 
   -0.44271E+08        -0.73389E+06         0.00000E+00
   -0.73389E+06        -0.61524E+08         0.00000E+00
    0.00000E+00         0.00000E+00        -0.40353E+08
 
   -0.43242E+08         0.68358E+05         0.00000E+00
    0.68358E+05        -0.61713E+08         0.00000E+00
    0.00000E+00         0.00000E+00        -0.40154E+08
 
   -0.42280E+08         0.10190E+07         0.00000E+00
    0.10190E+07        -0.61919E+08         0.00000E+00
    0.00000E+00         0.00000E+00        -0.39975E+08
 
   -0.41400E+08         0.21339E+07         0.00000E+00
    0.21339E+07        -0.62141E+08         0.00000E+00
    0.00000E+00         0.00000E+00        -0.39820E+08
 
   -0.40634E+08         0.34333E+07         0.00000E+00
    0.34333E+07        -0.62367E+08         0.00000E+00
    0.00000E+00         0.00000E+00        -0.39693E+08
 
   -0.40029E+08         0.49368E+07         0.00000E+00
    0.49368E+07        -0.62570E+08         0.00000E+00
    0.00000E+00         0.00000E+00        -0.39599E+08
 
   -0.39651E+08         0.66569E+07         0.00000E+00
    0.66569E+07        -0.62712E+08         0.00000E+00
    0.00000E+00         0.00000E+00        -0.39544E+08
 
   -0.54361E+08        -0.69329E+06         0.00000E+00
   -0.69329E+06        -0.60034E+08         0.00000E+00
    0.00000E+00         0.00000E+00        -0.40698E+08
 
   -0.53148E+08        -0.17355E+07         0.00000E+00
   -0.17355E+07        -0.60151E+08         0.00000E+00
    0.00000E+00         0.00000E+00        -0.40469E+08
 
   -0.51742E+08        -0.23614E+07         0.00000E+00
   -0.23614E+07        -0.60319E+08         0.00000E+00
    0.00000E+00         0.00000E+00        -0.40204E+08
 
   -0.50267E+08        -0.26399E+07         0.00000E+00
   -0.26399E+07        -0.60486E+08         0.00000E+00
    0.00000E+00         0.00000E+00        -0.39919E+08
 
   -0.48802E+08        -0.26428E+07         0.00000E+00
   -0.26428E+07        -0.60627E+08         0.00000E+00
    0.00000E+00         0.00000E+00        -0.39628E+08
 
   -0.47391E+08        -0.24322E+07         0.00000E+00
   -0.24322E+07        -0.60741E+08         0.00000E+00
    0.00000E+00         0.00000E+00        -0.39339E+08
 
   -0.46046E+08        -0.20538E+07         0.00000E+00
   -0.20538E+07        -0.60838E+08         0.00000E+00
    0.00000E+00         0.00000E+00        -0.39060E+08
 
   -0.44769E+08        -0.15357E+07         0.00000E+00
   -0.15357E+07        -0.60935E+08         0.00000E+00
    0.00000E+00         0.00000E+00        -0.38794E+08
 
   -0.43550E+08        -0.89031E+06         0.00000E+00
   -0.89031E+06        -0.61049E+08         0.00000E+00
    0.00000E+00         0.00000E+00        -0.38545E+08
 
   -0.42382E+08        -0.11552E+06         0.00000E+00
   -0.11552E+06        -0.61196E+08         0.00000E+00
    0.00000E+00         0.00000E+00        -0.38314E+08
 
   -0.41264E+08         0.80327E+06         0.00000E+00
    0.80327E+06        -0.61386E+08         0.00000E+00
    0.00000E+00         0.00000E+00        -0.38104E+08
 
   -0.40204E+08         0.18917E+07         0.00000E+00
    0.18917E+07        -0.61622E+08         0.00000E+00
    0.00000E+00         0.00000E+00        -0.37918E+08
 
   -0.39230E+08         0.31831E+07         0.00000E+00
    0.31831E+07        -0.61892E+08         0.00000E+00
    0.00000E+00         0.00000E+00        -0.37760E+08
 
   -0.38393E+08         0.47127E+07         0.00000E+00
    0.47127E+07        -0.62169E+08         0.00000E+00
    0.00000E+00         0.00000E+00        -0.37636E+08
 
   -0.37769E+08         0.65079E+07         0.00000E+00
    0.65079E+07        -0.62408E+08         0.00000E+00
    0.00000E+00         0.00000E+00        -0.37552E+08
 
   -0.55692E+08        -0.76389E+06         0.00000E+00
   -0.76389E+06        -0.60031E+08         0.00000E+00
    0.00000E+00         0.00000E+00        -0.39291E+08
 
   -0.53991E+08        -0.18777E+07         0.00000E+00
   -0.18777E+07        -0.60129E+08         0.00000E+00
    0.00000E+00         0.00000E+00        -0.38963E+08
 
   -0.52176E+08        -0.25059E+07         0.00000E+00
   -0.25059E+07        -0.60246E+08         0.00000E+00
    0.00000E+00         0.00000E+00        -0.38609E+08
 
   -0.50380E+08        -0.27517E+07         0.00000E+00
   -0.27517E+07        -0.60328E+08         0.00000E+00
    0.00000E+00         0.00000E+00        -0.38247E+08
 
   -0.48675E+08        -0.27163E+07         0.00000E+00
   -0.27163E+07        -0.60362E+08         0.00000E+00
    0.00000E+00         0.00000E+00        -0.37891E+08
 
   -0.47083E+08        -0.24798E+07         0.00000E+00
   -0.24798E+07        -0.60360E+08         0.00000E+00
    0.00000E+00         0.00000E+00        -0.37548E+08
 
   -0.45598E+08        -0.20956E+07         0.00000E+00
   -0.20956E+07        -0.60343E+08         0.00000E+00
    0.00000E+00         0.00000E+00        -0.37223E+08
 
   -0.44199E+08        -0.15936E+07         0.00000E+00
   -0.15936E+07        -0.60339E+08         0.00000E+00
    0.00000E+00         0.00000E+00        -0.36917E+08
 
   -0.42863E+08        -0.98430E+06         0.00000E+00
   -0.98430E+06        -0.60370E+08         0.00000E+00
    0.00000E+00         0.00000E+00        -0.36631E+08
 
   -0.41566E+08        -0.26192E+06         0.00000E+00
   -0.26192E+06        -0.60459E+08         0.00000E+00
    0.00000E+00         0.00000E+00        -0.36367E+08
 
   -0.40295E+08         0.59456E+06         0.00000E+00
    0.59456E+06        -0.60620E+08         0.00000E+00
    0.00000E+00         0.00000E+00        -0.36124E+08
 
   -0.39045E+08         0.16212E+07         0.00000E+00
    0.16212E+07        -0.60863E+08         0.00000E+00
    0.00000E+00         0.00000E+00        -0.35905E+08
 
   -0.37837E+08         0.28675E+07         0.00000E+00
    0.28675E+07        -0.61182E+08         0.00000E+00
    0.00000E+00         0.00000E+00        -0.35712E+08
 
   -0.36721E+08         0.43904E+07         0.00000E+00
    0.43904E+07        -0.61550E+08         0.00000E+00
    0.00000E+00         0.00000E+00        -0.35552E+08
 
   -0.35790E+08         0.62398E+07         0.00000E+00
    0.62398E+07        -0.61912E+08         0.00000E+00
    0.00000E+00         0.00000E+00        -0.35432E+08
 
   -0.57128E+08        -0.82673E+06         0.00000E+00
   -0.82673E+06        -0.60027E+08         0.00000E+00
    0.00000E+00         0.00000E+00        -0.37841E+08
 
   -0.54847E+08        -0.19774E+07         0.00000E+00
   -0.19774E+07        -0.60094E+08         0.00000E+00
    0.00000E+00         0.00000E+00        -0.37392E+08
 
   -0.52571E+08        -0.25640E+07         0.00000E+00
   -0.25640E+07        -0.60129E+08         0.00000E+00
    0.00000E+00         0.00000E+00        -0.36933E+08
 
   -0.50443E+08        -0.27436E+07         0.00000E+00
   -0.27436E+07        -0.60085E+08         0.00000E+00
    0.00000E+00         0.00000E+00        -0.36484E+08
 
   -0.48511E+08        -0.26548E+07         0.00000E+00
   -0.26548E+07        -0.59968E+08         0.00000E+00
    0.00000E+00         0.00000E+00        -0.36057E+08
 
   -0.46763E+08        -0.23934E+07         0.00000E+00
   -0.23934E+07        -0.59812E+08         0.00000E+00
    0.00000E+00         0.00000E+00        -0.35656E+08
 
   -0.45162E+08        -0.20154E+07         0.00000E+00
   -0.20154E+07        -0.59654E+08         0.00000E+00
    0.00000E+00         0.00000E+00        -0.35284E+08
 
   -0.43666E+08        -0.15480E+07         0.00000E+00
   -0.15480E+07        -0.59526E+08         0.00000E+00
    0.00000E+00         0.00000E+00        -0.34939E+08
 
   -0.42233E+08        -0.99809E+06         0.00000E+00
   -0.99809E+06        -0.59458E+08         0.00000E+00
    0.00000E+00         0.00000E+00        -0.34618E+08
 
   -0.40824E+08        -0.35628E+06         0.00000E+00
   -0.35628E+06        -0.59473E+08         0.00000E+00
    0.00000E+00         0.00000E+00        -0.34320E+08
 
   -0.39409E+08         0.40306E+06         0.00000E+00
    0.40306E+06        -0.59594E+08         0.00000E+00
    0.00000E+00         0.00000E+00        -0.34044E+08
 
   -0.37965E+08         0.13249E+07         0.00000E+00
    0.13249E+07        -0.59836E+08         0.00000E+00
    0.00000E+00         0.00000E+00        -0.33789E+08
 
   -0.36497E+08         0.24768E+07         0.00000E+00
    0.24768E+07        -0.60206E+08         0.00000E+00
    0.00000E+00         0.00000E+00        -0.33557E+08
 
   -0.35049E+08         0.39454E+07         0.00000E+00
    0.39454E+07        -0.60682E+08         0.00000E+00
    0.00000E+00         0.00000E+00        -0.33354E+08
 
   -0.33729E+08         0.58173E+07         0.00000E+00
    0.58173E+07        -0.61202E+08         0.00000E+00
    0.00000E+00         0.00000E+00        -0.33189E+08
 
   -0.58641E+08        -0.87756E+06         0.00000E+00
   -0.87756E+06        -0.60021E+08         0.00000E+00
    0.00000E+00         0.00000E+00        -0.36349E+08
 
   -0.55662E+08        -0.20060E+07         0.00000E+00
   -0.20060E+07        -0.60034E+08         0.00000E+00
    0.00000E+00         0.00000E+00        -0.35752E+08
 
   -0.52880E+08        -0.24865E+07         0.00000E+00
   -0.24865E+07        -0.59936E+08         0.00000E+00
    0.00000E+00         0.00000E+00        -0.35168E+08
 
   -0.50432E+08        -0.25636E+07         0.00000E+00
   -0.25636E+07        -0.59703E+08         0.00000E+00
    0.00000E+00         0.00000E+00        -0.34621E+08
 
   -0.48308E+08        -0.24161E+07         0.00000E+00
   -0.24161E+07        -0.59386E+08         0.00000E+00
    0.00000E+00         0.00000E+00        -0.34120E+08
 
   -0.46442E+08        -0.21433E+07         0.00000E+00
   -0.21433E+07        -0.59044E+08         0.00000E+00
    0.00000E+00         0.00000E+00        -0.33663E+08
 
   -0.44758E+08        -0.17928E+07         0.00000E+00
   -0.17928E+07        -0.58724E+08         0.00000E+00
    0.00000E+00         0.00000E+00        -0.33246E+08
 
   -0.43193E+08        -0.13840E+07         0.00000E+00
   -0.13840E+07        -0.58461E+08         0.00000E+00
    0.00000E+00         0.00000E+00        -0.32864E+08
 
   -0.41687E+08        -0.91900E+06         0.00000E+00
   -0.91900E+06        -0.58284E+08         0.00000E+00
    0.00000E+00         0.00000E+00        -0.32512E+08
 
   -0.40188E+08        -0.38629E+06         0.00000E+00
   -0.38629E+06        -0.58217E+08         0.00000E+00
    0.00000E+00         0.00000E+00        -0.32183E+08
 
   -0.38646E+08         0.24072E+06         0.00000E+00
    0.24072E+06        -0.58285E+08         0.00000E+00
    0.00000E+00         0.00000E+00        -0.31875E+08
 
   -0.37016E+08         0.10100E+07         0.00000E+00
    0.10100E+07        -0.58515E+08         0.00000E+00
    0.00000E+00         0.00000E+00        -0.31583E+08
 
   -0.35269E+08         0.20039E+07         0.00000E+00
    0.20039E+07        -0.58932E+08         0.00000E+00
    0.00000E+00         0.00000E+00        -0.31307E+08
 
   -0.33428E+08         0.33483E+07         0.00000E+00
    0.33483E+07        -0.59533E+08         0.00000E+00
    0.00000E+00         0.00000E+00        -0.31052E+08
 
   -0.31609E+08         0.51917E+07         0.00000E+00
    0.51917E+07        -0.60256E+08         0.00000E+00
    0.00000E+00         0.00000E+00        -0.30829E+08
 
   -0.60177E+08        -0.90664E+06         0.00000E+00
   -0.90664E+06        -0.60007E+08         0.00000E+00
    0.00000E+00         0.00000E+00        -0.34811E+08
 
   -0.56346E+08        -0.19050E+07         0.00000E+00
   -0.19050E+07        -0.59915E+08         0.00000E+00
    0.00000E+00         0.00000E+00        -0.34024E+08
 
   -0.53049E+08        -0.21927E+07         0.00000E+00
   -0.21927E+07        -0.59585E+08         0.00000E+00
    0.00000E+00         0.00000E+00        -0.33294E+08
 
   -0.50340E+08        -0.21493E+07         0.00000E+00
   -0.21493E+07        -0.59082E+08         0.00000E+00
    0.00000E+00         0.00000E+00        -0.32644E+08
 
   -0.48085E+08        -0.19649E+07         0.00000E+00
   -0.19649E+07        -0.58522E+08         0.00000E+00
    0.00000E+00         0.00000E+00        -0.32072E+08
 
   -0.46145E+08        -0.17126E+07         0.00000E+00
   -0.17126E+07        -0.57979E+08         0.00000E+00
    0.00000E+00         0.00000E+00        -0.31565E+08
 
   -0.44413E+08        -0.14208E+07         0.00000E+00
   -0.14208E+07        -0.57497E+08         0.00000E+00
    0.00000E+00         0.00000E+00        -0.31111E+08
 
   -0.42805E+08        -0.10987E+07         0.00000E+00
   -0.10987E+07        -0.57104E+08         0.00000E+00
    0.00000E+00         0.00000E+00        -0.30699E+08
 
   -0.41251E+08        -0.74404E+06         0.00000E+00
   -0.74404E+06        -0.56823E+08         0.00000E+00
    0.00000E+00         0.00000E+00        -0.30320E+08
 
   -0.39685E+08        -0.34549E+06         0.00000E+00
   -0.34549E+06        -0.56675E+08         0.00000E+00
    0.00000E+00         0.00000E+00        -0.29965E+08
 
   -0.38044E+08         0.11959E+06         0.00000E+00
    0.11959E+06        -0.56685E+08         0.00000E+00
    0.00000E+00         0.00000E+00        -0.29629E+08
 
   -0.36254E+08         0.69278E+06         0.00000E+00
    0.69278E+06        -0.56887E+08         0.00000E+00
    0.00000E+00         0.00000E+00        -0.29302E+08
 
   -0.34236E+08         0.14535E+07         0.00000E+00
    0.14535E+07        -0.57328E+08         0.00000E+00
    0.00000E+00         0.00000E+00        -0.28980E+08
 
   -0.31943E+08         0.25670E+07         0.00000E+00
    0.25670E+07        -0.58061E+08         0.00000E+00
    0.00000E+00         0.00000E+00        -0.28663E+08
 
   -0.29473E+08         0.42919E+07         0.00000E+00
    0.42919E+07        -0.59046E+08         0.00000E+00
    0.00000E+00         0.00000E+00        -0.28363E+08
 
   -0.61621E+08        -0.87810E+06         0.00000E+00
   -0.87810E+06        -0.59965E+08         0.00000E+00
    0.00000E+00         0.00000E+00        -0.33208E+08
 
   -0.56767E+08        -0.15314E+07         0.00000E+00
   -0.15314E+07        -0.59605E+08         0.00000E+00
    0.00000E+00         0.00000E+00        -0.32164E+08
 
   -0.53054E+08        -0.15689E+07         0.00000E+00
   -0.15689E+07        -0.58875E+08         0.00000E+00
    0.00000E+00         0.00000E+00        -0.31273E+08
 
   -0.50201E+08        -0.14567E+07         0.00000E+00
   -0.14567E+07        -0.58050E+08         0.00000E+00
    0.00000E+00         0.00000E+00        -0.30533E+08
 
   -0.47884E+08        -0.12945E+07         0.00000E+00
   -0.12945E+07        -0.57252E+08         0.00000E+00
    0.00000E+00         0.00000E+00        -0.29905E+08
 
   -0.45912E+08        -0.11107E+07         0.00000E+00
   -0.11107E+07        -0.56532E+08         0.00000E+00
    0.00000E+00         0.00000E+00        -0.29360E+08
 
   -0.44158E+08        -0.91456E+06         0.00000E+00
   -0.91456E+06        -0.55916E+08         0.00000E+00
    0.00000E+00         0.00000E+00        -0.28878E+08
 
   -0.42529E+08        -0.70702E+06         0.00000E+00
   -0.70702E+06        -0.55419E+08         0.00000E+00
    0.00000E+00         0.00000E+00        -0.28446E+08
 
   -0.40947E+08        -0.48439E+06         0.00000E+00
   -0.48439E+06        -0.55056E+08         0.00000E+00
    0.00000E+00         0.00000E+00        -0.28049E+08
 
   -0.39340E+08        -0.23838E+06         0.00000E+00
   -0.23838E+06        -0.54842E+08         0.00000E+00
    0.00000E+00         0.00000E+00        -0.27678E+08
 
   -0.37632E+08         0.45811E+05         0.00000E+00
    0.45811E+05        -0.54800E+08         0.00000E+00
    0.00000E+00         0.00000E+00        -0.27321E+08
 
   -0.35728E+08         0.39519E+06         0.00000E+00
    0.39519E+06        -0.54965E+08         0.00000E+00
    0.00000E+00         0.00000E+00        -0.26968E+08
 
   -0.33500E+08         0.86400E+06         0.00000E+00
    0.86400E+06        -0.55397E+08         0.00000E+00
    0.00000E+00         0.00000E+00        -0.26604E+08
 
   -0.30743E+08         0.15865E+07         0.00000E+00
    0.15865E+07        -0.56203E+08         0.00000E+00
    0.00000E+00         0.00000E+00        -0.26211E+08
 
   -0.27406E+08         0.29995E+07         0.00000E+00
    0.29995E+07        -0.57533E+08         0.00000E+00
    0.00000E+00         0.00000E+00        -0.25808E+08
 
   -0.62664E+08        -0.55017E+06         0.00000E+00
   -0.55017E+06        -0.59602E+08         0.00000E+00
    0.00000E+00         0.00000E+00        -0.31423E+08
 
   -0.56830E+08        -0.63189E+06         0.00000E+00
   -0.63189E+06        -0.58591E+08         0.00000E+00
    0.00000E+00         0.00000E+00        -0.30053E+08
 
   -0.52992E+08        -0.57954E+06         0.00000E+00
   -0.57954E+06        -0.57457E+08         0.00000E+00
    0.00000E+00         0.00000E+00        -0.29058E+08
 
   -0.50095E+08        -0.51887E+06         0.00000E+00
   -0.51887E+06        -0.56395E+08         0.00000E+00
    0.00000E+00         0.00000E+00        -0.28265E+08
 
   -0.47761E+08        -0.45284E+06         0.00000E+00
   -0.45284E+06        -0.55444E+08         0.00000E+00
    0.00000E+00         0.00000E+00        -0.27606E+08
 
   -0.45781E+08        -0.38483E+06         0.00000E+00
   -0.38483E+06        -0.54620E+08         0.00000E+00
    0.00000E+00         0.00000E+00        -0.27043E+08
 
   -0.44021E+08        -0.31528E+06         0.00000E+00
   -0.31528E+06        -0.53929E+08         0.00000E+00
    0.00000E+00         0.00000E+00        -0.26551E+08
 
   -0.42384E+08        -0.24343E+06         0.00000E+00
   -0.24343E+06        -0.53376E+08         0.00000E+00
    0.00000E+00         0.00000E+00        -0.26110E+08
 
   -0.40790E+08        -0.16750E+06         0.00000E+00
   -0.16750E+06        -0.52970E+08         0.00000E+00
    0.00000E+00         0.00000E+00        -0.25707E+08
 
   -0.39164E+08        -0.84462E+05         0.00000E+00
   -0.84462E+05        -0.52721E+08         0.00000E+00
    0.00000E+00         0.00000E+00        -0.25330E+08
 
   -0.37423E+08         0.10781E+05         0.00000E+00
    0.10781E+05        -0.52650E+08         0.00000E+00
    0.00000E+00         0.00000E+00        -0.24965E+08
 
   -0.35462E+08         0.12724E+06         0.00000E+00
    0.12724E+06        -0.52790E+08         0.00000E+00
    0.00000E+00         0.00000E+00        -0.24599E+08
 
   -0.33120E+08         0.28395E+06         0.00000E+00
    0.28395E+06        -0.53201E+08         0.00000E+00
    0.00000E+00         0.00000E+00        -0.24211E+08
 
   -0.30110E+08         0.52344E+06         0.00000E+00
    0.52344E+06        -0.54008E+08         0.00000E+00
    0.00000E+00         0.00000E+00        -0.23770E+08
 
   -0.25609E+08         0.11181E+07         0.00000E+00
    0.11181E+07        -0.55558E+08         0.00000E+00
    0.00000E+00         0.00000E+00        -0.23179E+08
 
SCALARS stressS double 
LOOKUP_TABLE default
  -55059412.9267080     
  -59241890.0028843     
  -61760581.9141310     
  -63573453.5292978     
  -64981014.1677477     
  -66133627.3633182     
  -67116261.0804605     
  -67983746.4954180     
  -68776277.0962762     
  -69528396.4302414     
  -70276229.7656374     
  -71066529.0277760     
  -71975320.9901197     
  -73148641.1763779     
  -75113022.3188923     
  -53808803.6093793     
  -56054963.4664758     
  -58090230.7122279     
  -59695475.0432105     
  -61008886.1584671     
  -62115355.3096327     
  -63074540.4563161     
  -63928890.4578966     
  -64711451.7774915     
  -65451067.8994238     
  -66176727.5823105     
  -66922545.4241746     
  -67731034.0519963     
  -68673504.8277456     
  -69541600.4029728     
  -53698641.2130499     
  -54754816.4449249     
  -56052850.3828140     
  -57299994.5462288     
  -58411477.0247553     
  -59396647.6597173     
  -60276410.1492533     
  -61072806.7154446     
  -61805944.7561582     
  -62494094.4497939     
  -63154080.0947321     
  -63799893.0553120     
  -64438708.1469027     
  -65019186.3783086     
  -65424148.6614064     
  -53801431.6335872     
  -54253984.1611488     
  -55021713.9307308     
  -55899865.9801383     
  -56774409.4761507     
  -57600021.9221183     
  -58366154.5681041     
  -59074485.4474099     
  -59731027.4244179     
  -60342258.2491731     
  -60912269.4996558     
  -61438778.0426891     
  -61901092.5019549     
  -62250396.0868462     
  -62398555.3791614     
  -53932290.3523567     
  -54088441.0894035     
  -54527277.8339182     
  -55121256.1760400     
  -55776960.5359778     
  -56438935.9732098     
  -57079143.0188426     
  -57685038.2892761     
  -58251126.5328715     
  -58773923.4162629     
  -59247972.8777240     
  -59660967.3019314     
  -59988694.8801031     
  -60190230.1877001     
  -60210638.2685444     
  -54031719.0679279     
  -54057054.9851256     
  -54305864.1846068     
  -54703872.6120977     
  -55185093.3958266     
  -55700997.6836492     
  -56219942.8895988     
  -56722389.1758030     
  -57195731.1521363     
  -57629980.2652638     
  -58014128.1424910     
  -58332925.8884619     
  -58564226.9459802     
  -58678618.6822448     
  -58642883.5965253     
  -54081766.8710052     
  -54065126.5925132     
  -54212867.7018413     
  -54484578.0270794     
  -54837301.7248399     
  -55234005.7573460     
  -55646282.1871570     
  -56053423.5706548     
  -56439960.0313390     
  -56792922.4653932     
  -57099363.4684100     
  -57344394.0684637     
  -57510238.3396391     
  -57577012.7158045     
  -57526121.6588642     
  -54079057.5647137     
  -54067617.0910839     
  -54169202.4915980     
  -54364449.6011414     
  -54627439.8820716     
  -54932262.4181484     
  -55256312.9453394     
  -55581060.1287711     
  -55891319.5553979     
  -56173914.0779708     
  -56416314.2689335     
  -56605692.9021057     
  -56728798.9718833     
  -56773094.1621498     
  -56729450.9969227     
  -54026366.4873400     
  -54044003.4588555     
  -54132240.0987370     
  -54284716.2575772     
  -54487563.6951537     
  -54724168.6928945     
  -54978141.3234837     
  -55234666.6195123     
  -55480720.9428947     
  -55704690.2366198     
  -55895855.5808227     
  -56044124.4816797     
  -56140328.1237844     
  -56177332.3447032     
  -56152079.7516534     
  -53929185.0992904     
  -53986442.6627799     
  -54079851.1146193     
  -54211165.2973226     
  -54374945.4737895     
  -54561932.7027553     
  -54761459.7804428     
  -54962879.9147958     
  -55156219.8027085     
  -55332362.0458561     
  -55483069.5944381     
  -55601129.7898089     
  -55680840.8194516     
  -55718988.2735430     
  -55716347.5680094     
  -53794261.1792087     
  -53893765.0560029     
  -54001500.9681490     
  -54124430.5391287     
  -54263070.8094479     
  -54413880.1983034     
  -54571137.5058735     
  -54728245.0043825     
  -54878532.6203365     
  -55015726.1677522     
  -55134272.3924838     
  -55229703.1368804     
  -55299183.5702610     
  -55342329.5375946     
  -55362298.4986549     
  -53628912.0076480     
  -53768302.2203731     
  -53893181.9338247     
  -54014023.1785886     
  -54135665.2887421     
  -54259022.0861428     
  -54382528.7249473     
  -54503260.0141835     
  -54617739.9847225     
  -54722524.0693264     
  -54814664.3875977     
  -54892168.6720632     
  -54954540.1465112     
  -55003444.2076806     
  -55043492.6934878     
  -53440661.4456078     
  -53614152.7642256     
  -53754489.3427005     
  -53874680.4089605     
  -53982821.7286602     
  -54083346.3053565     
  -54178144.4089987     
  -54267500.4790328     
  -54350843.8819634     
  -54427349.8913532     
  -54496449.1379264     
  -54558306.8753517     
  -54614319.7861912     
  -54667651.0983554     
  -54723788.7956631     
  -53237011.9781574     
  -53436205.1318854     
  -53586915.5375014     
  -53704136.2699518     
  -53798522.7751472     
  -53877339.2566501     
  -53945340.8604667     
  -54005556.0899001     
  -54059959.0454973     
  -54110043.8250798     
  -54157327.5268377     
  -54203811.3356280     
  -54252421.3824923     
  -54307434.3638667     
  -54374870.2727706     
  -53025274.6549140     
  -53239567.4945923     
  -53392842.9945908     
  -53501759.9509756     
  -53579067.7736975     
  -53634349.8429015     
  -53674736.5442500     
  -53705566.0832936     
  -53730981.4458720     
  -53754463.0979781     
  -53779304.7742015     
  -53809041.6683780     
  -53847836.0158267     
  -53900815.3030404     
  -53974344.9478316     
  -52812425.7279981     
  -53029219.2470874     
  -53174939.6370190     
  -53267719.0001451     
  -53322074.7185767     
  -53349515.5148695     
  -53359136.0525220     
  -53358187.9198345     
  -53352615.8387011     
  -53347551.4103295     
  -53347759.8004356     
  -53358035.6319642     
  -53383542.2275207     
  -53430083.4086575     
  -53504290.2050323     
  -52604977.2872403     
  -52809782.3675579     
  -52935782.5006312     
  -53002454.5831365     
  -53025839.9275482     
  -53019054.0015628     
  -52992799.2124921     
  -52955874.7993241     
  -52915672.5642425     
  -52878645.2913960     
  -52850734.5779689     
  -52837744.9854124     
  -52845650.9959657     
  -52880821.9577827     
  -52950148.2833506     
  -52408855.9031103     
  -52585353.9939391     
  -52677604.4169434     
  -52706333.8214927     
  -52688911.2624449     
  -52639784.8052366     
  -52570938.9642808     
  -52492370.0184112     
  -52412565.6199901     
  -52338969.2978534     
  -52278408.3731805     
  -52237464.0156369     
  -52222763.4843970     
  -52241176.4252590     
  -52299899.3071042     
  -52229285.3147394     
  -52359363.0268752     
  -52402095.2918040     
  -52379389.1928932     
  -52309776.1182206     
  -52208784.9128997     
  -52089364.3088182     
  -51962350.7227325     
  -51836961.3074772     
  -51721283.4517857     
  -51622729.3786295     
  -51548425.8251263     
  -51505512.2461495     
  -51501325.7828872     
  -51543457.3144835     
  -52070669.4057459     
  -52134422.4092707     
  -52110206.7650475     
  -52021078.1190363     
  -51886591.1077355     
  -51723108.2535779     
  -51544206.7826944     
  -51361171.6930734     
  -51183540.6677577     
  -51019656.7655411     
  -50877184.4838656     
  -50763549.1035192     
  -50686265.2128252     
  -50653127.7651594     
  -50672248.7539298     
  -51936470.6737749     
  -51912148.3228367     
  -51801911.7822991     
  -51630003.0366079     
  -51416891.6965460     
  -51179512.3807443     
  -50931683.4652143     
  -50684673.2766918     
  -50447850.5571305     
  -50229350.6911578     
  -50036697.1012919     
  -49877327.3591237     
  -49758981.8024764     
  -49689920.2351316     
  -49678945.1527806     
  -51829075.9274340     
  -51692906.9644422     
  -51475859.1018373     
  -51203525.3351979     
  -50897220.2696899     
  -50574142.4513010     
  -50247859.6844446     
  -49929028.5289388     
  -49626228.5088272     
  -49346806.1765004     
  -49097653.2592862     
  -48885864.1203200     
  -48719222.8974866     
  -48606473.0978535     
  -48557332.7953066     
  -51749631.6207931     
  -51475422.3851861     
  -51128831.5915642     
  -50737183.9164617     
  -50322602.8174364     
  -49902126.5318651     
  -49488384.7234440     
  -49090615.3859950     
  -48715795.9074982     
  -48369736.9733750     
  -48058067.6383781     
  -47787072.4463385     
  -47564333.8344026     
  -47399100.9622618     
  -47302313.2477907     
  -51697807.2626240     
  -51256118.4256658     
  -50754851.1347535     
  -50223785.9844672     
  -49685792.5248353     
  -49157046.6533800     
  -48648191.1107547     
  -48165912.9683596     
  -47714520.4505175     
  -47297337.4834794     
  -46917911.2932278     
  -46581078.4458644     
  -46293846.1310785     
  -46065972.5467241     
  -45910040.7253747     
  -51671388.1779008     
  -51027927.4060970     
  -50343639.2086875     
  -49651967.4862486     
  -48976199.3016381     
  -48330288.0823490     
  -47721184.6515636     
  -47151437.7366590     
  -46621348.0215555     
  -46130602.7699421     
  -45679630.8251989     
  -45270892.7786008     
  -44910198.8391860     
  -44607697.2059122     
  -44378225.3146898     
  -51665425.6852811     
  -50777968.4233441     
  -49877855.8631442     
  -49003936.2373452     
  -48178496.4748915     
  -47410375.1105800     
  -46700026.6935910     
  -46043752.4254237     
  -45436373.0218389     
  -44872728.2006746     
  -44348845.9057228     
  -43863480.0794333     
  -43419952.2625632     
  -43028408.7284028     
  -42706659.1106806     
  -51670254.1435641     
  -50482502.1007897     
  -49327994.6531778     
  -48252141.4988851     
  -47271187.0671989     
  -46382677.3883233     
  -45576182.9620577     
  -44839586.0681819     
  -44160978.2979517     
  -43529377.0091189     
  -42935206.8808625     
  -42371225.0199043     
  -41836075.5422353     
  -41337689.1841637     
  -40898268.4710429     
  -51665077.7410636     
  -50095111.9335288     
  -48642755.6060049     
  -47355380.4565916     
  -46226623.5766046     
  -45229994.3987169     
  -44340460.4674147     
  -43536081.1704448     
  -42797801.0181234     
  -42108562.7795551     
  -41452467.0908059     
  -40814526.5325022     
  -40181234.5971403     
  -39555695.4180992     
  -38960659.6483855     
  -51597765.8013572     
  -49511971.1583588     
  -47734042.1659677     
  -46261722.2883642     
  -45013599.7255000     
  -43934596.0558688     
  -42984097.7396786     
  -42131120.9753918     
  -41350409.1510878     
  -40619695.4933643     
  -39917394.4979746     
  -39220098.2259154     
  -38500383.7245585     
  -37718970.8888783     
  -36915395.4521804     
  -51229450.4536888     
  -48491473.1009907     
  -46502541.0645072     
  -44918245.8966455     
  -43603853.7270366     
  -42481415.0145343     
  -41500206.5530704     
  -40623597.3692560     
  -39822606.8436218     
  -39071853.7655253     
  -38346210.8222185     
  -37616864.8531730     
  -36844126.7957128     
  -35962592.8046861     
  -34781941.8920785     
SCALARS 2waySource double 
LOOKUP_TABLE default
 -9.034574047919275E-006
  7.184093911703773E-004
  1.099798518603223E-003
  1.352808548022479E-003
  1.533637182747148E-003
  1.670996637473795E-003
  1.780707408504303E-003
  1.872789893717574E-003
  1.954376877570533E-003
  2.031345167023446E-003
  2.109501796867252E-003
  2.195855893396000E-003
  2.300982123277148E-003
  2.442608028015474E-003
  2.688216732331492E-003
 -6.566665775710045E-005
  2.614795957063598E-004
  5.478758381037581E-004
  7.542403831819551E-004
  9.119252047929392E-004
  1.036489521463661E-003
  1.138620619820881E-003
  1.225703016709702E-003
  1.303338312365161E-003
  1.376241883072356E-003
  1.448940962540426E-003
  1.526503604888897E-003
  1.615204148624636E-003
  1.726283923807803E-003
  1.866209040949432E-003
  1.963718559447362E-005
  1.060868685512273E-004
  2.551018257430180E-004
  3.967242822715223E-004
  5.165278080496499E-004
  6.175895572214298E-004
  7.038693706540946E-004
  7.792046676054371E-004
  8.469304879754537E-004
  9.099839078603176E-004
  9.710414373790142E-004
  1.032560229939639E-003
  1.096889748589588E-003
  1.164198486511100E-003
  1.227522702814287E-003
  1.060938945124252E-004
  7.810370379476403E-005
  1.256379264300071E-004
  2.003001461244029E-004
  2.779230412430846E-004
  3.504190528821592E-004
  4.162129739379375E-004
  4.756644932302004E-004
  5.297766791435850E-004
  5.796315723498541E-004
  6.260921938060875E-004
  6.695134083931451E-004
  7.089956302638001E-004
  7.408188332634577E-004
  7.541222436652700E-004
  1.772019197419359E-004
  9.758123719048713E-005
  8.317522410504647E-005
  1.053385033319598E-004
  1.438447594388475E-004
  1.876401534300102E-004
  2.315840824486491E-004
  2.734790327520011E-004
  3.123934174107560E-004
  3.478410384278406E-004
  3.792619843563176E-004
  4.055247466472069E-004
  4.242342140731042E-004
  4.304573288439594E-004
  4.152433347021131E-004
  2.319622904607416E-004
  1.321333800091979E-004
  8.306850599483745E-005
  6.914993427680806E-005
  7.630631154258201E-005
  9.459426259525439E-005
  1.178735303914417E-004
  1.425365213763162E-004
  1.663739080709257E-004
  1.877949361431386E-004
  2.052800096021996E-004
  2.168985938675252E-004
  2.197539255726480E-004
  2.093700615853893E-004
  1.793097453496289E-004
  2.724053870530141E-004
  1.679934248951034E-004
  1.013129134542129E-004
  6.456110914890242E-005
  4.883506460318375E-005
  4.650412898297342E-005
  5.189670142621059E-005
  6.104147837836894E-005
  7.111480158660292E-005
  7.991016983567978E-005
  8.539752389060455E-005
  8.534178955899533E-005
  7.696143586764838E-005
  5.669117959145217E-005
  2.028104066525109E-005
  3.008643353434820E-004
  1.994442672343092E-004
  1.253452574298367E-004
  7.527381800117553E-005
  4.400801369493992E-005
  2.618414460432542E-005
  1.717410905582112E-005
  1.328511183801425E-005
  1.160504552940244E-005
  9.727155082192439E-006
  5.467997639817801E-006
 -3.378004815211331E-006
 -1.921412837674111E-005
 -4.467267961564810E-005
 -8.237257208779203E-005
  3.194325306257403E-004
  2.244137860203757E-004
  1.488288655470112E-004
  9.189894807294600E-005
  5.083980647984647E-005
  2.211613722779096E-005
  2.224868444265478E-006
 -1.195260518454198E-005
 -2.308825783133355E-005
 -3.349402259434119E-005
 -4.525778454224630E-005
 -6.036639875696507E-005
 -8.076525801758088E-005
 -1.082946080361895E-004
 -1.444310487012751E-004
  3.298810292300464E-004
  2.425314924871805E-004
  1.688049958237950E-004
  1.092629515096469E-004
  6.266422259082386E-005
  2.682305155779429E-005
 -7.696892781237414E-007
 -2.258311091003841E-005
 -4.088841459678261E-005
 -5.772970331186616E-005
 -7.495315304678584E-005
 -9.423860688620133E-005
 -1.170867284935624E-004
 -1.447175888807039E-004
 -1.778422252584741E-004
  3.336994906615855E-004
  2.542132359729629E-004
  1.841428464474343E-004
  1.247093971615562E-004
  7.561168175171783E-005
  3.560986784038041E-005
  2.994024442631487E-006
 -2.409575656930965E-005
 -4.748407169269516E-005
 -6.887134001721150E-005
 -8.979665362355611E-005
 -1.116107103595170E-004
 -1.354225068635110E-004
 -1.619894032582246E-004
 -1.915298472075068E-004
  3.321549739985035E-004
  2.602162298903014E-004
  1.946871483585489E-004
  1.370602030237309E-004
  8.758100090397516E-005
  4.564826845748749E-005
  1.015986839865082E-005
 -2.022419550809506E-005
 -4.690310472406599E-005
 -7.122330564860178E-005
 -9.440697576745591E-005
 -1.174930035964317E-004
 -1.412652338561626E-004
 -1.661481819166635E-004
 -1.920593603700001E-004
  3.263402151911319E-004
  2.614185432888986E-004
  2.007860168623330E-004
  1.459888009562513E-004
  9.756810286333036E-005
  5.533859492009132E-005
  1.864249235937341E-005
 -1.344179635284072E-005
 -4.194205604684272E-005
 -6.787865601658927E-005
 -9.218036686795202E-005
 -1.156123371511626E-004
 -1.387000374553699E-004
 -1.616370510600082E-004
 -1.841714742224505E-004
  3.172065462533617E-004
  2.587092212227748E-004
  2.030285236673794E-004
  1.516448281125772E-004
  1.052363650311032E-004
  6.387689108360366E-005
  2.722262132379101E-005
 -5.325334477507014E-006
 -3.448871288425965E-005
 -6.100793107348926E-005
 -8.555850969192965E-005
 -1.086781192708362E-004
 -1.306946212988092E-004
 -1.516482498670678E-004
 -1.712059556437687E-004
  3.055843960753266E-004
  2.529340295819343E-004
  2.020991153124210E-004
  1.544307185309216E-004
  1.106449376648441E-004
  7.096592757174082E-005
  3.526398625006671E-005
  3.180491487774038E-006
 -2.576471803958269E-005
 -5.208351480520167E-005
 -7.624372144002627E-005
 -9.860212434740191E-005
 -1.193410306559163E-004
 -1.384049518507830E-004
 -1.554372898000751E-004
  2.921958751759523E-004
  2.448697199224597E-004
  1.986975553819617E-004
  1.548694191345243E-004
  1.140781090335020E-004
  7.662395296953809E-005
  4.251688899295907E-005
  1.157143427973160E-005
 -1.650842261193364E-005
 -4.205511079888445E-005
 -6.537282851153452E-005
 -8.667989264354891E-005
 -1.060556293048437E-004
 -1.233905159030567E-004
 -1.383404357279999E-004
  2.776633381940762E-004
  2.352132681905743E-004
  1.934957411168397E-004
  1.535264346824611E-004
  1.159382953712691E-004
  8.105821718518890E-005
  4.898185027023071E-005
  1.964453760483147E-005
 -7.113392489684294E-006
 -3.148779093491487E-005
 -5.365809824863168E-005
 -7.374016965458490E-005
 -9.174371872604486E-005
 -1.075343288875868E-004
 -1.208013395548750E-004
  2.625166200858619E-004
  2.245792121553459E-004
  1.871152614973394E-004
  1.509640048217110E-004
  1.166785358799571E-004
  8.458062684722564E-005
  5.481408298403282E-005
  2.739609889469113E-005
  2.265711506892575E-006
 -2.067135898211593E-005
 -4.150181079837817E-005
 -6.026788633052592E-005
 -7.693467714739487E-005
 -9.136222869734434E-005
 -1.032838751952586E-004
  2.472005021560956E-004
  2.135014915350252E-004
  1.801165198982080E-004
  1.477140227142809E-004
  1.167591173169253E-004
  8.755031672469900E-005
  6.025521861300039E-005
  3.494552248653697E-005
  1.163105279513408E-005
 -9.707793979782078E-006
 -2.908978942938904E-005
 -4.650539968493588E-005
 -6.189278925267263E-005
 -7.511825790023469E-005
 -8.596249043502961E-005
  2.320830958085356E-004
  2.024377913080495E-004
  1.729941015138470E-004
  1.442615542455595E-004
  1.166185383925638E-004
  9.033300855381158E-005
  6.558286861538128E-005
  4.247696880837875E-005
  2.107674799371367E-005
  1.417977998411073E-006
 -1.646821770221975E-005
 -3.253601306479041E-005
 -4.670820876846928E-005
 -5.886335669809928E-005
 -6.882793344389050E-005
  2.174652592166696E-004
  1.917751382543616E-004
  1.661751504436497E-004
  1.410338559574125E-004
  1.166524647329353E-004
  9.327036026420189E-005
  7.107148500803506E-005
  5.019298968868513E-005
  3.073630207128903E-005
  1.277991115679206E-005
 -3.607262237563196E-006
 -1.835316180201345E-005
 -3.137180491607068E-005
 -4.255560245422062E-005
 -5.177190850465484E-005
  2.035908329479846E-004
  1.818357888695357E-004
  1.600185223949094E-004
  1.383913930284061E-004
  1.171962893193747E-004
  9.665455534806086E-005
  7.695987668770329E-005
  5.827592731411319E-005
  4.073867393716453E-005
  2.446208959159181E-005
  9.545635705617342E-006
 -3.918097401604862E-006
 -1.583702696887752E-005
 -2.611575245516309E-005
 -3.465528362931423E-005
  1.906573201913986E-004
  1.728823990947189E-004
  1.548126913768404E-004
  1.366179177127822E-004
  1.185078056865996E-004
  1.007044903580263E-004
  8.342189312034794E-005
  6.685390530344459E-005
  5.117015371506094E-005
  3.651687445844168E-005
  2.302043412763241E-005
  1.079154105084732E-005
 -7.141398513900200E-008
 -9.481155446590754E-006
 -1.736350418423284E-005
  1.788265600610782E-004
  1.651210073880446E-004
  1.507697968044757E-004
  1.359062953301142E-004
  1.207465474777061E-004
  1.055403547183145E-004
  9.053743602643589E-005
  7.596890766291320E-005
  6.203980216123981E-005
  4.892784822768444E-005
  3.678508882036156E-005
  2.574016684472398E-005
  1.589998823139970E-005
  7.349408444891003E-006
  1.478675649276484E-007
  1.682348578248448E-004
  1.586991017648670E-004
  1.480114483292028E-004
  1.363353367516217E-004
  1.239457209217367E-004
  1.111534543255710E-004
  9.826133810646115E-005
  8.554487714032030E-005
  7.324653338547516E-005
  6.157568175298067E-005
  5.071011576716930E-005
  4.079770113037413E-005
  3.195715638692394E-005
  2.427772448075315E-005
  1.781504077619046E-005
  1.590015900347714E-004
  1.536929611470119E-004
  1.465378578099449E-004
  1.378302187342730E-004
  1.279718002734924E-004
  1.173682718226991E-004
  1.063880385588653E-004
  9.535400220367384E-005
  8.454610170105043E-005
  7.420499044699331E-005
  6.453511370360338E-005
  5.570561759172647E-005
  4.785143336250630E-005
  4.107254284798971E-005
  3.543318529304414E-005
  1.512342964599443E-004
  1.500694057762201E-004
  1.461635636854065E-004
  1.400956489044846E-004
  1.324671623315047E-004
  1.237950251633418E-004
  1.145102279581302E-004
  1.049793068651742E-004
  9.551608190288278E-005
  8.639048102972055E-005
  7.783427340950924E-005
  7.004326324142359E-005
  6.317151432609972E-005
  5.733859315784330E-005
  5.262579283146117E-005
  1.450160416383753E-004
  1.475831889218380E-004
  1.463858510947275E-004
  1.425120013669976E-004
  1.367785259569666E-004
  1.297717446838021E-004
  1.219693911750272E-004
  1.137707650264135E-004
  1.055162531093351E-004
  9.750025676362589E-005
  8.998082532922402E-005
  8.318528306466380E-005
  7.730953393850359E-005
  7.247685465473136E-005
  6.881617124323866E-005
  1.403339279928366E-004
  1.454591598904807E-004
  1.461482089970815E-004
  1.440307768354993E-004
  1.398740467961770E-004
  1.342947257954782E-004
  1.277938416625215E-004
  1.207900245710127E-004
  1.136397588636958E-004
  1.066534765894213E-004
  1.001092445277676E-004
  9.426568145960146E-005
  8.937232773237186E-005
  8.567306765065144E-005
  8.315865229067822E-005
  1.360944900218101E-004
  1.416174587560549E-004
  1.437755508152797E-004
  1.430733009890052E-004
  1.402510045470349E-004
  1.359285460411016E-004
  1.306154652289886E-004
  1.247351649272113E-004
  1.186471182633508E-004
  1.126651912877751E-004
  1.070744083658167E-004
  1.021494868415665E-004
  9.818044621866538E-005
  9.552196737178914E-005
  9.463216976792453E-005
SCALARS poroP double 
LOOKUP_TABLE default
  0.000000000000000E+000
  0.000000000000000E+000
  0.000000000000000E+000
  0.000000000000000E+000
  0.000000000000000E+000
  0.000000000000000E+000
  0.000000000000000E+000
  0.000000000000000E+000
  0.000000000000000E+000
  0.000000000000000E+000
  0.000000000000000E+000
  0.000000000000000E+000
  0.000000000000000E+000
  0.000000000000000E+000
  0.000000000000000E+000
  0.000000000000000E+000
  0.000000000000000E+000
  0.000000000000000E+000
  0.000000000000000E+000
  0.000000000000000E+000
  0.000000000000000E+000
  0.000000000000000E+000
  0.000000000000000E+000
  0.000000000000000E+000
  0.000000000000000E+000
  0.000000000000000E+000
  0.000000000000000E+000
  0.000000000000000E+000
  0.000000000000000E+000
  0.000000000000000E+000
  0.000000000000000E+000
  0.000000000000000E+000
  0.000000000000000E+000
  0.000000000000000E+000
  0.000000000000000E+000
  0.000000000000000E+000
  0.000000000000000E+000
  0.000000000000000E+000
  0.000000000000000E+000
  0.000000000000000E+000
  0.000000000000000E+000
  0.000000000000000E+000
  0.000000000000000E+000
  0.000000000000000E+000
  0.000000000000000E+000
  0.000000000000000E+000
  0.000000000000000E+000
  0.000000000000000E+000
  0.000000000000000E+000
  0.000000000000000E+000
  0.000000000000000E+000
  0.000000000000000E+000
  0.000000000000000E+000
  0.000000000000000E+000
  0.000000000000000E+000
  0.000000000000000E+000
  0.000000000000000E+000
  0.000000000000000E+000
  0.000000000000000E+000
  0.000000000000000E+000
  0.000000000000000E+000
  0.000000000000000E+000
  0.000000000000000E+000
  0.000000000000000E+000
  0.000000000000000E+000
  0.000000000000000E+000
  0.000000000000000E+000
  0.000000000000000E+000
  0.000000000000000E+000
  0.000000000000000E+000
  0.000000000000000E+000
  0.000000000000000E+000
  0.000000000000000E+000
  0.000000000000000E+000
  0.000000000000000E+000
  0.000000000000000E+000
  0.000000000000000E+000
  0.000000000000000E+000
  0.000000000000000E+000
  0.000000000000000E+000
  0.000000000000000E+000
  0.000000000000000E+000
  0.000000000000000E+000
  0.000000000000000E+000
  0.000000000000000E+000
  0.000000000000000E+000
  0.000000000000000E+000
  0.000000000000000E+000
  0.000000000000000E+000
  0.000000000000000E+000
  0.000000000000000E+000
  0.000000000000000E+000
  0.000000000000000E+000
  0.000000000000000E+000
  0.000000000000000E+000
  0.000000000000000E+000
  0.000000000000000E+000
  0.000000000000000E+000
  0.000000000000000E+000
  0.000000000000000E+000
  0.000000000000000E+000
  0.000000000000000E+000
  0.000000000000000E+000
  0.000000000000000E+000
  0.000000000000000E+000
  0.000000000000000E+000
  0.000000000000000E+000
  0.000000000000000E+000
  0.000000000000000E+000
  0.000000000000000E+000
  0.000000000000000E+000
  0.000000000000000E+000
  0.000000000000000E+000
  0.000000000000000E+000
  0.000000000000000E+000
  0.000000000000000E+000
  0.000000000000000E+000
  0.000000000000000E+000
  0.000000000000000E+000
  0.000000000000000E+000
  0.000000000000000E+000
  0.000000000000000E+000
  0.000000000000000E+000
  0.000000000000000E+000
  0.000000000000000E+000
  0.000000000000000E+000
  0.000000000000000E+000
  0.000000000000000E+000
  0.000000000000000E+000
  0.000000000000000E+000
  0.000000000000000E+000
  0.000000000000000E+000
  0.000000000000000E+000
  0.000000000000000E+000
  0.000000000000000E+000
  0.000000000000000E+000
  0.000000000000000E+000
  0.000000000000000E+000
  0.000000000000000E+000
  0.000000000000000E+000
  0.000000000000000E+000
  0.000000000000000E+000
  0.000000000000000E+000
  0.000000000000000E+000
  0.000000000000000E+000
  0.000000000000000E+000
  0.000000000000000E+000
  0.000000000000000E+000
  0.000000000000000E+000
  0.000000000000000E+000
  0.000000000000000E+000
  0.000000000000000E+000
  0.000000000000000E+000
  0.000000000000000E+000
  0.000000000000000E+000
  0.000000000000000E+000
  0.000000000000000E+000
  0.000000000000000E+000
  0.000000000000000E+000
  0.000000000000000E+000
  0.000000000000000E+000
  0.000000000000000E+000
  0.000000000000000E+000
  0.000000000000000E+000
  0.000000000000000E+000
  0.000000000000000E+000
  0.000000000000000E+000
  0.000000000000000E+000
  0.000000000000000E+000
  0.000000000000000E+000
  0.000000000000000E+000
  0.000000000000000E+000
  0.000000000000000E+000
  0.000000000000000E+000
  0.000000000000000E+000
  0.000000000000000E+000
  0.000000000000000E+000
  0.000000000000000E+000
  0.000000000000000E+000
  0.000000000000000E+000
  0.000000000000000E+000
  0.000000000000000E+000
  0.000000000000000E+000
  0.000000000000000E+000
  0.000000000000000E+000
  0.000000000000000E+000
  0.000000000000000E+000
  0.000000000000000E+000
  0.000000000000000E+000
  0.000000000000000E+000
  0.000000000000000E+000
  0.000000000000000E+000
  0.000000000000000E+000
  0.000000000000000E+000
  0.000000000000000E+000
  0.000000000000000E+000
  0.000000000000000E+000
  0.000000000000000E+000
  0.000000000000000E+000
  0.000000000000000E+000
  0.000000000000000E+000
  0.000000000000000E+000
  0.000000000000000E+000
  0.000000000000000E+000
  0.000000000000000E+000
  0.000000000000000E+000
  0.000000000000000E+000
  0.000000000000000E+000
  0.000000000000000E+000
  0.000000000000000E+000
  0.000000000000000E+000
  0.000000000000000E+000
  0.000000000000000E+000
  0.000000000000000E+000
  0.000000000000000E+000
  0.000000000000000E+000
  0.000000000000000E+000
  0.000000000000000E+000
  0.000000000000000E+000
  0.000000000000000E+000
  0.000000000000000E+000
  0.000000000000000E+000
  0.000000000000000E+000
  0.000000000000000E+000
  0.000000000000000E+000
  0.000000000000000E+000
  0.000000000000000E+000
  0.000000000000000E+000
  0.000000000000000E+000
  0.000000000000000E+000
  0.000000000000000E+000
  0.000000000000000E+000
  0.000000000000000E+000
  0.000000000000000E+000
  0.000000000000000E+000
  0.000000000000000E+000
  0.000000000000000E+000
  0.000000000000000E+000
  0.000000000000000E+000
  0.000000000000000E+000
  0.000000000000000E+000
  0.000000000000000E+000
  0.000000000000000E+000
  0.000000000000000E+000
  0.000000000000000E+000
  0.000000000000000E+000
  0.000000000000000E+000
  0.000000000000000E+000
  0.000000000000000E+000
  0.000000000000000E+000
  0.000000000000000E+000
  0.000000000000000E+000
  0.000000000000000E+000
  0.000000000000000E+000
  0.000000000000000E+000
  0.000000000000000E+000
  0.000000000000000E+000
  0.000000000000000E+000
  0.000000000000000E+000
  0.000000000000000E+000
  0.000000000000000E+000
  0.000000000000000E+000
  0.000000000000000E+000
  0.000000000000000E+000
  0.000000000000000E+000
  0.000000000000000E+000
  0.000000000000000E+000
  0.000000000000000E+000
  0.000000000000000E+000
  0.000000000000000E+000
  0.000000000000000E+000
  0.000000000000000E+000
  0.000000000000000E+000
  0.000000000000000E+000
  0.000000000000000E+000
  0.000000000000000E+000
  0.000000000000000E+000
  0.000000000000000E+000
  0.000000000000000E+000
  0.000000000000000E+000
  0.000000000000000E+000
  0.000000000000000E+000
  0.000000000000000E+000
  0.000000000000000E+000
  0.000000000000000E+000
  0.000000000000000E+000
  0.000000000000000E+000
  0.000000000000000E+000
  0.000000000000000E+000
  0.000000000000000E+000
  0.000000000000000E+000
  0.000000000000000E+000
  0.000000000000000E+000
  0.000000000000000E+000
  0.000000000000000E+000
  0.000000000000000E+000
  0.000000000000000E+000
  0.000000000000000E+000
  0.000000000000000E+000
  0.000000000000000E+000
  0.000000000000000E+000
  0.000000000000000E+000
  0.000000000000000E+000
  0.000000000000000E+000
  0.000000000000000E+000
  0.000000000000000E+000
  0.000000000000000E+000
  0.000000000000000E+000
  0.000000000000000E+000
  0.000000000000000E+000
  0.000000000000000E+000
  0.000000000000000E+000
  0.000000000000000E+000
  0.000000000000000E+000
  0.000000000000000E+000
  0.000000000000000E+000
  0.000000000000000E+000
  0.000000000000000E+000
  0.000000000000000E+000
  0.000000000000000E+000
  0.000000000000000E+000
  0.000000000000000E+000
  0.000000000000000E+000
  0.000000000000000E+000
  0.000000000000000E+000
  0.000000000000000E+000
  0.000000000000000E+000
  0.000000000000000E+000
  0.000000000000000E+000
  0.000000000000000E+000
  0.000000000000000E+000
  0.000000000000000E+000
  0.000000000000000E+000
  0.000000000000000E+000
  0.000000000000000E+000
  0.000000000000000E+000
  0.000000000000000E+000
  0.000000000000000E+000
  0.000000000000000E+000
  0.000000000000000E+000
  0.000000000000000E+000
  0.000000000000000E+000
  0.000000000000000E+000
  0.000000000000000E+000
  0.000000000000000E+000
  0.000000000000000E+000
  0.000000000000000E+000
  0.000000000000000E+000
  0.000000000000000E+000
  0.000000000000000E+000
  0.000000000000000E+000
  0.000000000000000E+000
  0.000000000000000E+000
  0.000000000000000E+000
  0.000000000000000E+000
  0.000000000000000E+000
  0.000000000000000E+000
  0.000000000000000E+000
  0.000000000000000E+000
  0.000000000000000E+000
  0.000000000000000E+000
  0.000000000000000E+000
  0.000000000000000E+000
  0.000000000000000E+000
  0.000000000000000E+000
  0.000000000000000E+000
  0.000000000000000E+000
  0.000000000000000E+000
  0.000000000000000E+000
  0.000000000000000E+000
  0.000000000000000E+000
  0.000000000000000E+000
  0.000000000000000E+000
  0.000000000000000E+000
  0.000000000000000E+000
  0.000000000000000E+000
  0.000000000000000E+000
  0.000000000000000E+000
  0.000000000000000E+000
  0.000000000000000E+000
  0.000000000000000E+000
  0.000000000000000E+000
  0.000000000000000E+000
  0.000000000000000E+000
  0.000000000000000E+000
  0.000000000000000E+000
  0.000000000000000E+000
  0.000000000000000E+000
  0.000000000000000E+000
  0.000000000000000E+000
  0.000000000000000E+000
  0.000000000000000E+000
  0.000000000000000E+000
  0.000000000000000E+000
  0.000000000000000E+000
  0.000000000000000E+000
  0.000000000000000E+000
  0.000000000000000E+000
  0.000000000000000E+000
  0.000000000000000E+000
  0.000000000000000E+000
  0.000000000000000E+000
  0.000000000000000E+000
  0.000000000000000E+000
  0.000000000000000E+000
  0.000000000000000E+000
  0.000000000000000E+000
  0.000000000000000E+000
  0.000000000000000E+000
  0.000000000000000E+000
  0.000000000000000E+000
  0.000000000000000E+000
  0.000000000000000E+000
  0.000000000000000E+000
  0.000000000000000E+000
  0.000000000000000E+000
  0.000000000000000E+000
  0.000000000000000E+000
  0.000000000000000E+000
  0.000000000000000E+000
  0.000000000000000E+000
  0.000000000000000E+000
  0.000000000000000E+000
  0.000000000000000E+000
  0.000000000000000E+000
  0.000000000000000E+000
  0.000000000000000E+000
  0.000000000000000E+000
  0.000000000000000E+000
  0.000000000000000E+000
  0.000000000000000E+000
  0.000000000000000E+000
  0.000000000000000E+000
  0.000000000000000E+000
  0.000000000000000E+000
  0.000000000000000E+000
  0.000000000000000E+000
  0.000000000000000E+000
  0.000000000000000E+000
  0.000000000000000E+000
  0.000000000000000E+000
  0.000000000000000E+000
  0.000000000000000E+000
  0.000000000000000E+000
  0.000000000000000E+000
  0.000000000000000E+000
  0.000000000000000E+000
  0.000000000000000E+000
  0.000000000000000E+000
  0.000000000000000E+000
SCALARS elementIsPlast double 
LOOKUP_TABLE default
  0.000000000000000E+000
  0.000000000000000E+000
  0.000000000000000E+000
  0.000000000000000E+000
  0.000000000000000E+000
  0.000000000000000E+000
  0.000000000000000E+000
  0.000000000000000E+000
  0.000000000000000E+000
  0.000000000000000E+000
  0.000000000000000E+000
  0.000000000000000E+000
  0.000000000000000E+000
  0.000000000000000E+000
  0.000000000000000E+000
  0.000000000000000E+000
  0.000000000000000E+000
  0.000000000000000E+000
  0.000000000000000E+000
  0.000000000000000E+000
  0.000000000000000E+000
  0.000000000000000E+000
  0.000000000000000E+000
  0.000000000000000E+000
  0.000000000000000E+000
  0.000000000000000E+000
  0.000000000000000E+000
  0.000000000000000E+000
  0.000000000000000E+000
  0.000000000000000E+000
  0.000000000000000E+000
  0.000000000000000E+000
  0.000000000000000E+000
  0.000000000000000E+000
  0.000000000000000E+000
  0.000000000000000E+000
  0.000000000000000E+000
  0.000000000000000E+000
  0.000000000000000E+000
  0.000000000000000E+000
  0.000000000000000E+000
  0.000000000000000E+000
  0.000000000000000E+000
  0.000000000000000E+000
  0.000000000000000E+000
  0.000000000000000E+000
  0.000000000000000E+000
  0.000000000000000E+000
  0.000000000000000E+000
  0.000000000000000E+000
  0.000000000000000E+000
  0.000000000000000E+000
  0.000000000000000E+000
  0.000000000000000E+000
  0.000000000000000E+000
  0.000000000000000E+000
  0.000000000000000E+000
  0.000000000000000E+000
  0.000000000000000E+000
  0.000000000000000E+000
  0.000000000000000E+000
  0.000000000000000E+000
  0.000000000000000E+000
  0.000000000000000E+000
  0.000000000000000E+000
  0.000000000000000E+000
  0.000000000000000E+000
  0.000000000000000E+000
  0.000000000000000E+000
  0.000000000000000E+000
  0.000000000000000E+000
  0.000000000000000E+000
  0.000000000000000E+000
  0.000000000000000E+000
  0.000000000000000E+000
  0.000000000000000E+000
  0.000000000000000E+000
  0.000000000000000E+000
  0.000000000000000E+000
  0.000000000000000E+000
  0.000000000000000E+000
  0.000000000000000E+000
  0.000000000000000E+000
  0.000000000000000E+000
  0.000000000000000E+000
  0.000000000000000E+000
  0.000000000000000E+000
  0.000000000000000E+000
  0.000000000000000E+000
  0.000000000000000E+000
  0.000000000000000E+000
  0.000000000000000E+000
  0.000000000000000E+000
  0.000000000000000E+000
  0.000000000000000E+000
  0.000000000000000E+000
  0.000000000000000E+000
  0.000000000000000E+000
  0.000000000000000E+000
  0.000000000000000E+000
  0.000000000000000E+000
  0.000000000000000E+000
  0.000000000000000E+000
  0.000000000000000E+000
  0.000000000000000E+000
  0.000000000000000E+000
  0.000000000000000E+000
  0.000000000000000E+000
  0.000000000000000E+000
  0.000000000000000E+000
  0.000000000000000E+000
  0.000000000000000E+000
  0.000000000000000E+000
  0.000000000000000E+000
  0.000000000000000E+000
  0.000000000000000E+000
  0.000000000000000E+000
  0.000000000000000E+000
  0.000000000000000E+000
  0.000000000000000E+000
  0.000000000000000E+000
  0.000000000000000E+000
  0.000000000000000E+000
  0.000000000000000E+000
  0.000000000000000E+000
  0.000000000000000E+000
  0.000000000000000E+000
  0.000000000000000E+000
  0.000000000000000E+000
  0.000000000000000E+000
  0.000000000000000E+000
  0.000000000000000E+000
  0.000000000000000E+000
  0.000000000000000E+000
  0.000000000000000E+000
  0.000000000000000E+000
  0.000000000000000E+000
  0.000000000000000E+000
  0.000000000000000E+000
  0.000000000000000E+000
  0.000000000000000E+000
  0.000000000000000E+000
  0.000000000000000E+000
  0.000000000000000E+000
  0.000000000000000E+000
  0.000000000000000E+000
  0.000000000000000E+000
  0.000000000000000E+000
  0.000000000000000E+000
  0.000000000000000E+000
  0.000000000000000E+000
  0.000000000000000E+000
  0.000000000000000E+000
  0.000000000000000E+000
  0.000000000000000E+000
  0.000000000000000E+000
  0.000000000000000E+000
  0.000000000000000E+000
  0.000000000000000E+000
  0.000000000000000E+000
  0.000000000000000E+000
  0.000000000000000E+000
  0.000000000000000E+000
  0.000000000000000E+000
  0.000000000000000E+000
  0.000000000000000E+000
  0.000000000000000E+000
  0.000000000000000E+000
  0.000000000000000E+000
  0.000000000000000E+000
  0.000000000000000E+000
  0.000000000000000E+000
  0.000000000000000E+000
  0.000000000000000E+000
  0.000000000000000E+000
  0.000000000000000E+000
  0.000000000000000E+000
  0.000000000000000E+000
  0.000000000000000E+000
  0.000000000000000E+000
  0.000000000000000E+000
  0.000000000000000E+000
  0.000000000000000E+000
  0.000000000000000E+000
  0.000000000000000E+000
  0.000000000000000E+000
  0.000000000000000E+000
  0.000000000000000E+000
  0.000000000000000E+000
  0.000000000000000E+000
  0.000000000000000E+000
  0.000000000000000E+000
  0.000000000000000E+000
  0.000000000000000E+000
  0.000000000000000E+000
  0.000000000000000E+000
  0.000000000000000E+000
  0.000000000000000E+000
  0.000000000000000E+000
  0.000000000000000E+000
  0.000000000000000E+000
  0.000000000000000E+000
  0.000000000000000E+000
  0.000000000000000E+000
  0.000000000000000E+000
  0.000000000000000E+000
  0.000000000000000E+000
  0.000000000000000E+000
  0.000000000000000E+000
  0.000000000000000E+000
  0.000000000000000E+000
  0.000000000000000E+000
  0.000000000000000E+000
  0.000000000000000E+000
  0.000000000000000E+000
  0.000000000000000E+000
  0.000000000000000E+000
  0.000000000000000E+000
  0.000000000000000E+000
  0.000000000000000E+000
  0.000000000000000E+000
  0.000000000000000E+000
  0.000000000000000E+000
  0.000000000000000E+000
  0.000000000000000E+000
  0.000000000000000E+000
  0.000000000000000E+000
  0.000000000000000E+000
  0.000000000000000E+000
  0.000000000000000E+000
  0.000000000000000E+000
  0.000000000000000E+000
  0.000000000000000E+000
  0.000000000000000E+000
  0.000000000000000E+000
  0.000000000000000E+000
  0.000000000000000E+000
  0.000000000000000E+000
  0.000000000000000E+000
  0.000000000000000E+000
  0.000000000000000E+000
  0.000000000000000E+000
  0.000000000000000E+000
  0.000000000000000E+000
  0.000000000000000E+000
  0.000000000000000E+000
  0.000000000000000E+000
  0.000000000000000E+000
  0.000000000000000E+000
  0.000000000000000E+000
  0.000000000000000E+000
  0.000000000000000E+000
  0.000000000000000E+000
  0.000000000000000E+000
  0.000000000000000E+000
  0.000000000000000E+000
  0.000000000000000E+000
  0.000000000000000E+000
  0.000000000000000E+000
  0.000000000000000E+000
  0.000000000000000E+000
  0.000000000000000E+000
  0.000000000000000E+000
  0.000000000000000E+000
  0.000000000000000E+000
  0.000000000000000E+000
  0.000000000000000E+000
  0.000000000000000E+000
  0.000000000000000E+000
  0.000000000000000E+000
  0.000000000000000E+000
  0.000000000000000E+000
  0.000000000000000E+000
  0.000000000000000E+000
  0.000000000000000E+000
  0.000000000000000E+000
  0.000000000000000E+000
  0.000000000000000E+000
  0.000000000000000E+000
  0.000000000000000E+000
  0.000000000000000E+000
  0.000000000000000E+000
  0.000000000000000E+000
  0.000000000000000E+000
  0.000000000000000E+000
  0.000000000000000E+000
  0.000000000000000E+000
  0.000000000000000E+000
  0.000000000000000E+000
  0.000000000000000E+000
  0.000000000000000E+000
  0.000000000000000E+000
  0.000000000000000E+000
  0.000000000000000E+000
  0.000000000000000E+000
  0.000000000000000E+000
  0.000000000000000E+000
  0.000000000000000E+000
  0.000000000000000E+000
  0.000000000000000E+000
  0.000000000000000E+000
  0.000000000000000E+000
  0.000000000000000E+000
  0.000000000000000E+000
  0.000000000000000E+000
  0.000000000000000E+000
  0.000000000000000E+000
  0.000000000000000E+000
  0.000000000000000E+000
  0.000000000000000E+000
  0.000000000000000E+000
  0.000000000000000E+000
  0.000000000000000E+000
  0.000000000000000E+000
  0.000000000000000E+000
  0.000000000000000E+000
  0.000000000000000E+000
  0.000000000000000E+000
  0.000000000000000E+000
  0.000000000000000E+000
  0.000000000000000E+000
  0.000000000000000E+000
  0.000000000000000E+000
  0.000000000000000E+000
  0.000000000000000E+000
  0.000000000000000E+000
  0.000000000000000E+000
  0.000000000000000E+000
  0.000000000000000E+000
  0.000000000000000E+000
  0.000000000000000E+000
  0.000000000000000E+000
  0.000000000000000E+000
  0.000000000000000E+000
  0.000000000000000E+000
  0.000000000000000E+000
  0.000000000000000E+000
  0.000000000000000E+000
  0.000000000000000E+000
  0.000000000000000E+000
  0.000000000000000E+000
  0.000000000000000E+000
  0.000000000000000E+000
  0.000000000000000E+000
  0.000000000000000E+000
  0.000000000000000E+000
  0.000000000000000E+000
  0.000000000000000E+000
  0.000000000000000E+000
  0.000000000000000E+000
  0.000000000000000E+000
  0.000000000000000E+000
  0.000000000000000E+000
  0.000000000000000E+000
  0.000000000000000E+000
  0.000000000000000E+000
  0.000000000000000E+000
  0.000000000000000E+000
  0.000000000000000E+000
  0.000000000000000E+000
  0.000000000000000E+000
  0.000000000000000E+000
  0.000000000000000E+000
  0.000000000000000E+000
  0.000000000000000E+000
  0.000000000000000E+000
  0.000000000000000E+000
  0.000000000000000E+000
  0.000000000000000E+000
  0.000000000000000E+000
  0.000000000000000E+000
  0.000000000000000E+000
  0.000000000000000E+000
  0.000000000000000E+000
  0.000000000000000E+000
  0.000000000000000E+000
  0.000000000000000E+000
  0.000000000000000E+000
  0.000000000000000E+000
  0.000000000000000E+000
  0.000000000000000E+000
  0.000000000000000E+000
  0.000000000000000E+000
  0.000000000000000E+000
  0.000000000000000E+000
  0.000000000000000E+000
  0.000000000000000E+000
  0.000000000000000E+000
  0.000000000000000E+000
  0.000000000000000E+000
  0.000000000000000E+000
  0.000000000000000E+000
  0.000000000000000E+000
  0.000000000000000E+000
  0.000000000000000E+000
  0.000000000000000E+000
  0.000000000000000E+000
  0.000000000000000E+000
  0.000000000000000E+000
  0.000000000000000E+000
  0.000000000000000E+000
  0.000000000000000E+000
  0.000000000000000E+000
  0.000000000000000E+000
  0.000000000000000E+000
  0.000000000000000E+000
  0.000000000000000E+000
  0.000000000000000E+000
  0.000000000000000E+000
  0.000000000000000E+000
  0.000000000000000E+000
  0.000000000000000E+000
  0.000000000000000E+000
  0.000000000000000E+000
  0.000000000000000E+000
  0.000000000000000E+000
  0.000000000000000E+000
  0.000000000000000E+000
  0.000000000000000E+000
  0.000000000000000E+000
  0.000000000000000E+000
  0.000000000000000E+000
  0.000000000000000E+000
  0.000000000000000E+000
  0.000000000000000E+000
  0.000000000000000E+000
  0.000000000000000E+000
  0.000000000000000E+000
  0.000000000000000E+000
  0.000000000000000E+000
  0.000000000000000E+000
  0.000000000000000E+000
  0.000000000000000E+000
  0.000000000000000E+000
  0.000000000000000E+000
  0.000000000000000E+000
  0.000000000000000E+000
  0.000000000000000E+000
  0.000000000000000E+000
  0.000000000000000E+000
  0.000000000000000E+000
  0.000000000000000E+000
  0.000000000000000E+000
  0.000000000000000E+000
  0.000000000000000E+000
  0.000000000000000E+000
  0.000000000000000E+000
  0.000000000000000E+000
  0.000000000000000E+000
  0.000000000000000E+000
SCALARS poroL double 
LOOKUP_TABLE default
  0.156229518139696     
  0.156197721022721     
  0.156178789808631     
  0.156165253163391     
  0.156154783923463     
  0.156146229511368     
  0.156138944638754     
  0.156132516173021     
  0.156126643027134     
  0.156121066997488     
  0.156115517297088     
  0.156109640939390     
  0.156102858302594     
  0.156094045288915     
  0.156079127088596     
  0.156172665876985     
  0.156156090499365     
  0.156141356611053     
  0.156129921163186     
  0.156120655253269     
  0.156112894955906     
  0.156106189089513     
  0.156100224593508     
  0.156094761936602     
  0.156089593502376     
  0.156084509306019     
  0.156079257258670     
  0.156073513816939     
  0.156066715085042     
  0.156060387810995     
  0.156127206554631     
  0.156119609759147     
  0.156110454497828     
  0.156101790427442     
  0.156094164035846     
  0.156087459154486     
  0.156081501460366     
  0.156076122031525     
  0.156071172679882     
  0.156066520799769     
  0.156062043282476     
  0.156057633555900     
  0.156053225923201     
  0.156049180864654     
  0.156046319125350     
  0.156093699255676     
  0.156090501311193     
  0.156085138764003     
  0.156079089396579     
  0.156073137337180     
  0.156067571263519     
  0.156062439188676     
  0.156057711774227     
  0.156053335187185     
  0.156049255349863     
  0.156045435555663     
  0.156041882970244     
  0.156038736640164     
  0.156036338678817     
  0.156035332812700     
  0.156069082212710     
  0.156067954989835     
  0.156064822186499     
  0.156060662436565     
  0.156056141231537     
  0.156051631181034     
  0.156047306750787     
  0.156043235646492     
  0.156039439839414     
  0.156035930035627     
  0.156032732568182     
  0.156029924082020     
  0.156027669616678     
  0.156026265470156     
  0.156026141418126     
  0.156050741758337     
  0.156050464676525     
  0.156048541128367     
  0.156045605010200     
  0.156042152602934     
  0.156038521149726     
  0.156034915576136     
  0.156031452621247     
  0.156028201260543     
  0.156025214255618     
  0.156022554238010     
  0.156020317816583     
  0.156018658694174     
  0.156017800472900     
  0.156018033132426     
  0.156036701394429     
  0.156036638708907     
  0.156035300046202     
  0.156033097245564     
  0.156030382755418     
  0.156027425990978     
  0.156024416189923     
  0.156021480813169     
  0.156018708787423     
  0.156016172639369     
  0.156013947870526     
  0.156012129483620     
  0.156010843915013     
  0.156010253678356     
  0.156010550776590     
  0.156025522604057     
  0.156025348560623     
  0.156024226824209     
  0.156022426728738     
  0.156020192801312     
  0.156017727300170     
  0.156015186396225     
  0.156012686714203     
  0.156010317354978     
  0.156008153414275     
  0.156006268604653     
  0.156004745450628     
  0.156003681683296     
  0.156003191178548     
  0.156003398505704     
  0.156016162124782     
  0.156015720313650     
  0.156014607244882     
  0.156012999358798     
  0.156011062928330     
  0.156008943187965     
  0.156006759895757     
  0.156004608923317     
  0.156002567905412     
  0.156000703693500     
  0.155999079719086     
  0.155997761826325     
  0.155996821413268     
  0.155996335052898     
  0.155996380284403     
  0.156007857554633     
  0.156007086260608     
  0.156005873197970     
  0.156004332146476     
  0.156002572517625     
  0.156000693498879     
  0.155998780765362     
  0.155996906298261     
  0.155995130703854     
  0.155993506900145     
  0.155992083969486     
  0.155990910127514     
  0.155990034004315     
  0.155989503744494     
  0.155989363864227     
  0.156000043014696     
  0.155998935569288     
  0.155997577226545     
  0.155996037337390     
  0.155994383003384     
  0.155992676580237     
  0.155990973746907     
  0.155989322899006     
  0.155987765854373     
  0.155986339391432     
  0.155985076954140     
  0.155984009871933     
  0.155983167582439     
  0.155982576570094     
  0.155982258014288     
  0.155992289736723     
  0.155990873636690     
  0.155989366746038     
  0.155987804917868     
  0.155986222587249     
  0.155984652331496     
  0.155983124022135     
  0.155981664286229     
  0.155980296497715     
  0.155979041170416     
  0.155977916440270     
  0.155976938282026     
  0.155976120169228     
  0.155975472019462     
  0.155974998436374     
  0.155984265291301     
  0.155982591470651     
  0.155980962387740     
  0.155979386965820     
  0.155977873316344     
  0.155976429441903     
  0.155975063110697     
  0.155973781503491     
  0.155972590921420     
  0.155971496602636     
  0.155970502548527     
  0.155969611203700     
  0.155968822851215     
  0.155968134652421     
  0.155967539352335     
  0.155975706276666     
  0.155973843806121     
  0.155972141406372     
  0.155970585078077     
  0.155969160820275     
  0.155967855875276     
  0.155966659011710     
  0.155965560322783     
  0.155964550825870     
  0.155963621993121     
  0.155962765236341     
  0.155961971316448     
  0.155961229641085     
  0.155960527439909     
  0.155959848848075     
  0.155966400521667     
  0.155964434126104     
  0.155962725748820     
  0.155961241001600     
  0.155959946646168     
  0.155958812008870     
  0.155957809434961     
  0.155956914151356     
  0.155956103797486     
  0.155955357789022     
  0.155954656608251     
  0.155953981071578     
  0.155953311606488     
  0.155952627570491     
  0.155951906652951     
  0.155956175919460     
  0.155954204879968     
  0.155952573973913     
  0.155951230122357     
  0.155950122906991     
  0.155949205942237     
  0.155948437334153     
  0.155947779508191     
  0.155947198636930     
  0.155946663849944     
  0.155946146365303     
  0.155945618648890     
  0.155945053684035     
  0.155944424417390     
  0.155943703433044     
  0.155944893823254     
  0.155943031498450     
  0.155941576180902     
  0.155940457316495     
  0.155939608868810     
  0.155938970547623     
  0.155938488159995     
  0.155938113300974     
  0.155937802597175     
  0.155937516703616     
  0.155937219233333     
  0.155936875773466     
  0.155936453113336     
  0.155935918780450     
  0.155935240948756     
  0.155932445528827     
  0.155930819119651     
  0.155929651212109     
  0.155928854673666     
  0.155928349101796     
  0.155928061888050     
  0.155927928383676     
  0.155927891342302     
  0.155927899856389     
  0.155927908021496     
  0.155927873556643     
  0.155927756585777     
  0.155927518750650     
  0.155927122782676     
  0.155926532612797     
  0.155918750785398     
  0.155917501211485     
  0.155916745545513     
  0.155916380678225     
  0.155916312870376     
  0.155916458692356     
  0.155916744938411     
  0.155917107681558     
  0.155917490725640     
  0.155917843752691     
  0.155918120463131     
  0.155918276977466     
  0.155918270722348     
  0.155918059966656     
  0.155917604105695     
  0.155903757562484     
  0.155903039499282     
  0.155902833453700     
  0.155903020544865     
  0.155903494518542     
  0.155904162647133     
  0.155904945303378     
  0.155905774420923     
  0.155906591201278     
  0.155907343478551     
  0.155907983137696     
  0.155908463933171     
  0.155908739994325     
  0.155908765232660     
  0.155908493778475     
  0.155887442496847     
  0.155887424801960     
  0.155887918178748     
  0.155888787544071     
  0.155889914708947     
  0.155891199340396     
  0.155892558015236     
  0.155893921743029     
  0.155895232535236     
  0.155896439617907     
  0.155897495807724     
  0.155898354480408     
  0.155898967486979     
  0.155899284305278     
  0.155899252608689     
  0.155869811590462     
  0.155870678583762     
  0.155872034086003     
  0.155873725332340     
  0.155875622498635     
  0.155877619764469     
  0.155879633433249     
  0.155881597907239     
  0.155883460525677     
  0.155885176140458     
  0.155886702064627     
  0.155887993857467     
  0.155889002365290     
  0.155889672416186     
  0.155889943486425     
  0.155850900873366     
  0.155852855310256     
  0.155855250074443     
  0.155857911553878     
  0.155860698377838     
  0.155863502335929     
  0.155866244586654     
  0.155868868968086     
  0.155871334235568     
  0.155873606452261     
  0.155875652130799     
  0.155877432467684     
  0.155878899071939     
  0.155879991841912     
  0.155880639595185     
  0.155830776962894     
  0.155834046196313     
  0.155837675065915     
  0.155841463353118     
  0.155845258535474     
  0.155848955360415     
  0.155852487852943     
  0.155855817921979     
  0.155858923852790     
  0.155861790129866     
  0.155864398660210     
  0.155866721080616     
  0.155868712523511     
  0.155870307794021     
  0.155871421616483     
  0.155809537889431     
  0.155814386013227     
  0.155819467427803     
  0.155824545987975     
  0.155829460628248     
  0.155834119604253     
  0.155838482967034     
  0.155842542897128     
  0.155846307451442     
  0.155849788303459     
  0.155852990642963     
  0.155855903599262     
  0.155858490511750     
  0.155860681864318     
  0.155862373356727     
  0.155787315852309     
  0.155794067121554     
  0.155800852356702     
  0.155807386366538     
  0.155813510772881     
  0.155819169829967     
  0.155824371306358     
  0.155829153890907     
  0.155833566678171     
  0.155837657750210     
  0.155841465346983     
  0.155845006241928     
  0.155848261837880     
  0.155851161191471     
  0.155853575218139     
  0.155764286702093     
  0.155773372475451     
  0.155782155379960     
  0.155790293054143     
  0.155797669222874     
  0.155804312027646     
  0.155810310839663     
  0.155815767523643     
  0.155820781687282     
  0.155825445149367     
  0.155829838289431     
  0.155834023025418     
  0.155838015597586     
  0.155841760605851     
  0.155845093074406     
  0.155740710845900     
  0.155752758106620     
  0.155763868157267     
  0.155773678346299     
  0.155782242845403     
  0.155789772109489     
  0.155796465752614     
  0.155802499434576     
  0.155808026206897     
  0.155813183253647     
  0.155818098356313     
  0.155822891816427     
  0.155827672106879     
  0.155832419504956     
  0.155836962721227     
  0.155717076706988     
  0.155733108453618     
  0.155746752476979     
  0.155758025104284     
  0.155767555375586     
  0.155775771268657     
  0.155782989930501     
  0.155789454385150     
  0.155795363345202     
  0.155800892197330     
  0.155806210753810     
  0.155811502525193     
  0.155816981580775     
  0.155822952801388     
  0.155829114162115     
  0.155695279968045     
  0.155716338354580     
  0.155731628158155     
  0.155743797830754     
  0.155753884701314     
  0.155762489938243     
  0.155770005455268     
  0.155776714749747     
  0.155782842376003     
  0.155788585081056     
  0.155794137538648     
  0.155799722661737     
  0.155805646910056     
  0.155812414387305     
  0.155821489847045     
