# vtk DataFile Version 3.0
vtk output
ASCII
DATASET UNSTRUCTURED_GRID
POINTS       496 double 
  0.00000000E+00  3.00000000E+02  0.00000000E+00
  0.00000000E+00  2.80000000E+02  0.00000000E+00
  0.00000000E+00  2.60000000E+02  0.00000000E+00
  0.00000000E+00  2.40000000E+02  0.00000000E+00
  0.00000000E+00  2.20000000E+02  0.00000000E+00
  0.00000000E+00  2.00000000E+02  0.00000000E+00
  0.00000000E+00  1.80000000E+02  0.00000000E+00
  0.00000000E+00  1.60000000E+02  0.00000000E+00
  0.00000000E+00  1.40000000E+02  0.00000000E+00
  0.00000000E+00  1.20000000E+02  0.00000000E+00
  0.00000000E+00  1.00000000E+02  0.00000000E+00
  0.00000000E+00  8.00000000E+01  0.00000000E+00
  0.00000000E+00  6.00000000E+01  0.00000000E+00
  0.00000000E+00  4.00000000E+01  0.00000000E+00
  0.00000000E+00  2.00000000E+01  0.00000000E+00
  0.00000000E+00  4.99600361E-14  0.00000000E+00
  2.00000000E+01  3.00000000E+02  0.00000000E+00
  2.00000000E+01  2.80000000E+02  0.00000000E+00
  2.00000000E+01  2.60000000E+02  0.00000000E+00
  2.00000000E+01  2.40000000E+02  0.00000000E+00
  2.00000000E+01  2.20000000E+02  0.00000000E+00
  2.00000000E+01  2.00000000E+02  0.00000000E+00
  2.00000000E+01  1.80000000E+02  0.00000000E+00
  2.00000000E+01  1.60000000E+02  0.00000000E+00
  2.00000000E+01  1.40000000E+02  0.00000000E+00
  2.00000000E+01  1.20000000E+02  0.00000000E+00
  2.00000000E+01  1.00000000E+02  0.00000000E+00
  2.00000000E+01  8.00000000E+01  0.00000000E+00
  2.00000000E+01  6.00000000E+01  0.00000000E+00
  2.00000000E+01  4.00000000E+01  0.00000000E+00
  2.00000000E+01  2.00000000E+01  0.00000000E+00
  2.00000000E+01  4.99600361E-14  0.00000000E+00
  4.00000000E+01  3.00000000E+02  0.00000000E+00
  4.00000000E+01  2.80000000E+02  0.00000000E+00
  4.00000000E+01  2.60000000E+02  0.00000000E+00
  4.00000000E+01  2.40000000E+02  0.00000000E+00
  4.00000000E+01  2.20000000E+02  0.00000000E+00
  4.00000000E+01  2.00000000E+02  0.00000000E+00
  4.00000000E+01  1.80000000E+02  0.00000000E+00
  4.00000000E+01  1.60000000E+02  0.00000000E+00
  4.00000000E+01  1.40000000E+02  0.00000000E+00
  4.00000000E+01  1.20000000E+02  0.00000000E+00
  4.00000000E+01  1.00000000E+02  0.00000000E+00
  4.00000000E+01  8.00000000E+01  0.00000000E+00
  4.00000000E+01  6.00000000E+01  0.00000000E+00
  4.00000000E+01  4.00000000E+01  0.00000000E+00
  4.00000000E+01  2.00000000E+01  0.00000000E+00
  4.00000000E+01  4.99600361E-14  0.00000000E+00
  6.00000000E+01  3.00000000E+02  0.00000000E+00
  6.00000000E+01  2.80000000E+02  0.00000000E+00
  6.00000000E+01  2.60000000E+02  0.00000000E+00
  6.00000000E+01  2.40000000E+02  0.00000000E+00
  6.00000000E+01  2.20000000E+02  0.00000000E+00
  6.00000000E+01  2.00000000E+02  0.00000000E+00
  6.00000000E+01  1.80000000E+02  0.00000000E+00
  6.00000000E+01  1.60000000E+02  0.00000000E+00
  6.00000000E+01  1.40000000E+02  0.00000000E+00
  6.00000000E+01  1.20000000E+02  0.00000000E+00
  6.00000000E+01  1.00000000E+02  0.00000000E+00
  6.00000000E+01  8.00000000E+01  0.00000000E+00
  6.00000000E+01  6.00000000E+01  0.00000000E+00
  6.00000000E+01  4.00000000E+01  0.00000000E+00
  6.00000000E+01  2.00000000E+01  0.00000000E+00
  6.00000000E+01  4.99600361E-14  0.00000000E+00
  8.00000000E+01  3.00000000E+02  0.00000000E+00
  8.00000000E+01  2.80000000E+02  0.00000000E+00
  8.00000000E+01  2.60000000E+02  0.00000000E+00
  8.00000000E+01  2.40000000E+02  0.00000000E+00
  8.00000000E+01  2.20000000E+02  0.00000000E+00
  8.00000000E+01  2.00000000E+02  0.00000000E+00
  8.00000000E+01  1.80000000E+02  0.00000000E+00
  8.00000000E+01  1.60000000E+02  0.00000000E+00
  8.00000000E+01  1.40000000E+02  0.00000000E+00
  8.00000000E+01  1.20000000E+02  0.00000000E+00
  8.00000000E+01  1.00000000E+02  0.00000000E+00
  8.00000000E+01  8.00000000E+01  0.00000000E+00
  8.00000000E+01  6.00000000E+01  0.00000000E+00
  8.00000000E+01  4.00000000E+01  0.00000000E+00
  8.00000000E+01  2.00000000E+01  0.00000000E+00
  8.00000000E+01  4.99600361E-14  0.00000000E+00
  1.00000000E+02  3.00000000E+02  0.00000000E+00
  1.00000000E+02  2.80000000E+02  0.00000000E+00
  1.00000000E+02  2.60000000E+02  0.00000000E+00
  1.00000000E+02  2.40000000E+02  0.00000000E+00
  1.00000000E+02  2.20000000E+02  0.00000000E+00
  1.00000000E+02  2.00000000E+02  0.00000000E+00
  1.00000000E+02  1.80000000E+02  0.00000000E+00
  1.00000000E+02  1.60000000E+02  0.00000000E+00
  1.00000000E+02  1.40000000E+02  0.00000000E+00
  1.00000000E+02  1.20000000E+02  0.00000000E+00
  1.00000000E+02  1.00000000E+02  0.00000000E+00
  1.00000000E+02  8.00000000E+01  0.00000000E+00
  1.00000000E+02  6.00000000E+01  0.00000000E+00
  1.00000000E+02  4.00000000E+01  0.00000000E+00
  1.00000000E+02  2.00000000E+01  0.00000000E+00
  1.00000000E+02  4.99600361E-14  0.00000000E+00
  1.20000000E+02  3.00000000E+02  0.00000000E+00
  1.20000000E+02  2.80000000E+02  0.00000000E+00
  1.20000000E+02  2.60000000E+02  0.00000000E+00
  1.20000000E+02  2.40000000E+02  0.00000000E+00
  1.20000000E+02  2.20000000E+02  0.00000000E+00
  1.20000000E+02  2.00000000E+02  0.00000000E+00
  1.20000000E+02  1.80000000E+02  0.00000000E+00
  1.20000000E+02  1.60000000E+02  0.00000000E+00
  1.20000000E+02  1.40000000E+02  0.00000000E+00
  1.20000000E+02  1.20000000E+02  0.00000000E+00
  1.20000000E+02  1.00000000E+02  0.00000000E+00
  1.20000000E+02  8.00000000E+01  0.00000000E+00
  1.20000000E+02  6.00000000E+01  0.00000000E+00
  1.20000000E+02  4.00000000E+01  0.00000000E+00
  1.20000000E+02  2.00000000E+01  0.00000000E+00
  1.20000000E+02  4.99600361E-14  0.00000000E+00
  1.40000000E+02  3.00000000E+02  0.00000000E+00
  1.40000000E+02  2.80000000E+02  0.00000000E+00
  1.40000000E+02  2.60000000E+02  0.00000000E+00
  1.40000000E+02  2.40000000E+02  0.00000000E+00
  1.40000000E+02  2.20000000E+02  0.00000000E+00
  1.40000000E+02  2.00000000E+02  0.00000000E+00
  1.40000000E+02  1.80000000E+02  0.00000000E+00
  1.40000000E+02  1.60000000E+02  0.00000000E+00
  1.40000000E+02  1.40000000E+02  0.00000000E+00
  1.40000000E+02  1.20000000E+02  0.00000000E+00
  1.40000000E+02  1.00000000E+02  0.00000000E+00
  1.40000000E+02  8.00000000E+01  0.00000000E+00
  1.40000000E+02  6.00000000E+01  0.00000000E+00
  1.40000000E+02  4.00000000E+01  0.00000000E+00
  1.40000000E+02  2.00000000E+01  0.00000000E+00
  1.40000000E+02  4.99600361E-14  0.00000000E+00
  1.60000000E+02  3.00000000E+02  0.00000000E+00
  1.60000000E+02  2.80000000E+02  0.00000000E+00
  1.60000000E+02  2.60000000E+02  0.00000000E+00
  1.60000000E+02  2.40000000E+02  0.00000000E+00
  1.60000000E+02  2.20000000E+02  0.00000000E+00
  1.60000000E+02  2.00000000E+02  0.00000000E+00
  1.60000000E+02  1.80000000E+02  0.00000000E+00
  1.60000000E+02  1.60000000E+02  0.00000000E+00
  1.60000000E+02  1.40000000E+02  0.00000000E+00
  1.60000000E+02  1.20000000E+02  0.00000000E+00
  1.60000000E+02  1.00000000E+02  0.00000000E+00
  1.60000000E+02  8.00000000E+01  0.00000000E+00
  1.60000000E+02  6.00000000E+01  0.00000000E+00
  1.60000000E+02  4.00000000E+01  0.00000000E+00
  1.60000000E+02  2.00000000E+01  0.00000000E+00
  1.60000000E+02  4.99600361E-14  0.00000000E+00
  1.80000000E+02  3.00000000E+02  0.00000000E+00
  1.80000000E+02  2.80000000E+02  0.00000000E+00
  1.80000000E+02  2.60000000E+02  0.00000000E+00
  1.80000000E+02  2.40000000E+02  0.00000000E+00
  1.80000000E+02  2.20000000E+02  0.00000000E+00
  1.80000000E+02  2.00000000E+02  0.00000000E+00
  1.80000000E+02  1.80000000E+02  0.00000000E+00
  1.80000000E+02  1.60000000E+02  0.00000000E+00
  1.80000000E+02  1.40000000E+02  0.00000000E+00
  1.80000000E+02  1.20000000E+02  0.00000000E+00
  1.80000000E+02  1.00000000E+02  0.00000000E+00
  1.80000000E+02  8.00000000E+01  0.00000000E+00
  1.80000000E+02  6.00000000E+01  0.00000000E+00
  1.80000000E+02  4.00000000E+01  0.00000000E+00
  1.80000000E+02  2.00000000E+01  0.00000000E+00
  1.80000000E+02  4.99600361E-14  0.00000000E+00
  2.00000000E+02  3.00000000E+02  0.00000000E+00
  2.00000000E+02  2.80000000E+02  0.00000000E+00
  2.00000000E+02  2.60000000E+02  0.00000000E+00
  2.00000000E+02  2.40000000E+02  0.00000000E+00
  2.00000000E+02  2.20000000E+02  0.00000000E+00
  2.00000000E+02  2.00000000E+02  0.00000000E+00
  2.00000000E+02  1.80000000E+02  0.00000000E+00
  2.00000000E+02  1.60000000E+02  0.00000000E+00
  2.00000000E+02  1.40000000E+02  0.00000000E+00
  2.00000000E+02  1.20000000E+02  0.00000000E+00
  2.00000000E+02  1.00000000E+02  0.00000000E+00
  2.00000000E+02  8.00000000E+01  0.00000000E+00
  2.00000000E+02  6.00000000E+01  0.00000000E+00
  2.00000000E+02  4.00000000E+01  0.00000000E+00
  2.00000000E+02  2.00000000E+01  0.00000000E+00
  2.00000000E+02  4.99600361E-14  0.00000000E+00
  2.20000000E+02  3.00000000E+02  0.00000000E+00
  2.20000000E+02  2.80000000E+02  0.00000000E+00
  2.20000000E+02  2.60000000E+02  0.00000000E+00
  2.20000000E+02  2.40000000E+02  0.00000000E+00
  2.20000000E+02  2.20000000E+02  0.00000000E+00
  2.20000000E+02  2.00000000E+02  0.00000000E+00
  2.20000000E+02  1.80000000E+02  0.00000000E+00
  2.20000000E+02  1.60000000E+02  0.00000000E+00
  2.20000000E+02  1.40000000E+02  0.00000000E+00
  2.20000000E+02  1.20000000E+02  0.00000000E+00
  2.20000000E+02  1.00000000E+02  0.00000000E+00
  2.20000000E+02  8.00000000E+01  0.00000000E+00
  2.20000000E+02  6.00000000E+01  0.00000000E+00
  2.20000000E+02  4.00000000E+01  0.00000000E+00
  2.20000000E+02  2.00000000E+01  0.00000000E+00
  2.20000000E+02  4.99600361E-14  0.00000000E+00
  2.40000000E+02  3.00000000E+02  0.00000000E+00
  2.40000000E+02  2.80000000E+02  0.00000000E+00
  2.40000000E+02  2.60000000E+02  0.00000000E+00
  2.40000000E+02  2.40000000E+02  0.00000000E+00
  2.40000000E+02  2.20000000E+02  0.00000000E+00
  2.40000000E+02  2.00000000E+02  0.00000000E+00
  2.40000000E+02  1.80000000E+02  0.00000000E+00
  2.40000000E+02  1.60000000E+02  0.00000000E+00
  2.40000000E+02  1.40000000E+02  0.00000000E+00
  2.40000000E+02  1.20000000E+02  0.00000000E+00
  2.40000000E+02  1.00000000E+02  0.00000000E+00
  2.40000000E+02  8.00000000E+01  0.00000000E+00
  2.40000000E+02  6.00000000E+01  0.00000000E+00
  2.40000000E+02  4.00000000E+01  0.00000000E+00
  2.40000000E+02  2.00000000E+01  0.00000000E+00
  2.40000000E+02  4.99600361E-14  0.00000000E+00
  2.60000000E+02  3.00000000E+02  0.00000000E+00
  2.60000000E+02  2.80000000E+02  0.00000000E+00
  2.60000000E+02  2.60000000E+02  0.00000000E+00
  2.60000000E+02  2.40000000E+02  0.00000000E+00
  2.60000000E+02  2.20000000E+02  0.00000000E+00
  2.60000000E+02  2.00000000E+02  0.00000000E+00
  2.60000000E+02  1.80000000E+02  0.00000000E+00
  2.60000000E+02  1.60000000E+02  0.00000000E+00
  2.60000000E+02  1.40000000E+02  0.00000000E+00
  2.60000000E+02  1.20000000E+02  0.00000000E+00
  2.60000000E+02  1.00000000E+02  0.00000000E+00
  2.60000000E+02  8.00000000E+01  0.00000000E+00
  2.60000000E+02  6.00000000E+01  0.00000000E+00
  2.60000000E+02  4.00000000E+01  0.00000000E+00
  2.60000000E+02  2.00000000E+01  0.00000000E+00
  2.60000000E+02  4.99600361E-14  0.00000000E+00
  2.80000000E+02  3.00000000E+02  0.00000000E+00
  2.80000000E+02  2.80000000E+02  0.00000000E+00
  2.80000000E+02  2.60000000E+02  0.00000000E+00
  2.80000000E+02  2.40000000E+02  0.00000000E+00
  2.80000000E+02  2.20000000E+02  0.00000000E+00
  2.80000000E+02  2.00000000E+02  0.00000000E+00
  2.80000000E+02  1.80000000E+02  0.00000000E+00
  2.80000000E+02  1.60000000E+02  0.00000000E+00
  2.80000000E+02  1.40000000E+02  0.00000000E+00
  2.80000000E+02  1.20000000E+02  0.00000000E+00
  2.80000000E+02  1.00000000E+02  0.00000000E+00
  2.80000000E+02  8.00000000E+01  0.00000000E+00
  2.80000000E+02  6.00000000E+01  0.00000000E+00
  2.80000000E+02  4.00000000E+01  0.00000000E+00
  2.80000000E+02  2.00000000E+01  0.00000000E+00
  2.80000000E+02  4.99600361E-14  0.00000000E+00
  3.00000000E+02  3.00000000E+02  0.00000000E+00
  3.00000000E+02  2.80000000E+02  0.00000000E+00
  3.00000000E+02  2.60000000E+02  0.00000000E+00
  3.00000000E+02  2.40000000E+02  0.00000000E+00
  3.00000000E+02  2.20000000E+02  0.00000000E+00
  3.00000000E+02  2.00000000E+02  0.00000000E+00
  3.00000000E+02  1.80000000E+02  0.00000000E+00
  3.00000000E+02  1.60000000E+02  0.00000000E+00
  3.00000000E+02  1.40000000E+02  0.00000000E+00
  3.00000000E+02  1.20000000E+02  0.00000000E+00
  3.00000000E+02  1.00000000E+02  0.00000000E+00
  3.00000000E+02  8.00000000E+01  0.00000000E+00
  3.00000000E+02  6.00000000E+01  0.00000000E+00
  3.00000000E+02  4.00000000E+01  0.00000000E+00
  3.00000000E+02  2.00000000E+01  0.00000000E+00
  3.00000000E+02  4.99600361E-14  0.00000000E+00
  3.20000000E+02  3.00000000E+02  0.00000000E+00
  3.20000000E+02  2.80000000E+02  0.00000000E+00
  3.20000000E+02  2.60000000E+02  0.00000000E+00
  3.20000000E+02  2.40000000E+02  0.00000000E+00
  3.20000000E+02  2.20000000E+02  0.00000000E+00
  3.20000000E+02  2.00000000E+02  0.00000000E+00
  3.20000000E+02  1.80000000E+02  0.00000000E+00
  3.20000000E+02  1.60000000E+02  0.00000000E+00
  3.20000000E+02  1.40000000E+02  0.00000000E+00
  3.20000000E+02  1.20000000E+02  0.00000000E+00
  3.20000000E+02  1.00000000E+02  0.00000000E+00
  3.20000000E+02  8.00000000E+01  0.00000000E+00
  3.20000000E+02  6.00000000E+01  0.00000000E+00
  3.20000000E+02  4.00000000E+01  0.00000000E+00
  3.20000000E+02  2.00000000E+01  0.00000000E+00
  3.20000000E+02  4.99600361E-14  0.00000000E+00
  3.40000000E+02  3.00000000E+02  0.00000000E+00
  3.40000000E+02  2.80000000E+02  0.00000000E+00
  3.40000000E+02  2.60000000E+02  0.00000000E+00
  3.40000000E+02  2.40000000E+02  0.00000000E+00
  3.40000000E+02  2.20000000E+02  0.00000000E+00
  3.40000000E+02  2.00000000E+02  0.00000000E+00
  3.40000000E+02  1.80000000E+02  0.00000000E+00
  3.40000000E+02  1.60000000E+02  0.00000000E+00
  3.40000000E+02  1.40000000E+02  0.00000000E+00
  3.40000000E+02  1.20000000E+02  0.00000000E+00
  3.40000000E+02  1.00000000E+02  0.00000000E+00
  3.40000000E+02  8.00000000E+01  0.00000000E+00
  3.40000000E+02  6.00000000E+01  0.00000000E+00
  3.40000000E+02  4.00000000E+01  0.00000000E+00
  3.40000000E+02  2.00000000E+01  0.00000000E+00
  3.40000000E+02  4.99600361E-14  0.00000000E+00
  3.60000000E+02  3.00000000E+02  0.00000000E+00
  3.60000000E+02  2.80000000E+02  0.00000000E+00
  3.60000000E+02  2.60000000E+02  0.00000000E+00
  3.60000000E+02  2.40000000E+02  0.00000000E+00
  3.60000000E+02  2.20000000E+02  0.00000000E+00
  3.60000000E+02  2.00000000E+02  0.00000000E+00
  3.60000000E+02  1.80000000E+02  0.00000000E+00
  3.60000000E+02  1.60000000E+02  0.00000000E+00
  3.60000000E+02  1.40000000E+02  0.00000000E+00
  3.60000000E+02  1.20000000E+02  0.00000000E+00
  3.60000000E+02  1.00000000E+02  0.00000000E+00
  3.60000000E+02  8.00000000E+01  0.00000000E+00
  3.60000000E+02  6.00000000E+01  0.00000000E+00
  3.60000000E+02  4.00000000E+01  0.00000000E+00
  3.60000000E+02  2.00000000E+01  0.00000000E+00
  3.60000000E+02  4.99600361E-14  0.00000000E+00
  3.80000000E+02  3.00000000E+02  0.00000000E+00
  3.80000000E+02  2.80000000E+02  0.00000000E+00
  3.80000000E+02  2.60000000E+02  0.00000000E+00
  3.80000000E+02  2.40000000E+02  0.00000000E+00
  3.80000000E+02  2.20000000E+02  0.00000000E+00
  3.80000000E+02  2.00000000E+02  0.00000000E+00
  3.80000000E+02  1.80000000E+02  0.00000000E+00
  3.80000000E+02  1.60000000E+02  0.00000000E+00
  3.80000000E+02  1.40000000E+02  0.00000000E+00
  3.80000000E+02  1.20000000E+02  0.00000000E+00
  3.80000000E+02  1.00000000E+02  0.00000000E+00
  3.80000000E+02  8.00000000E+01  0.00000000E+00
  3.80000000E+02  6.00000000E+01  0.00000000E+00
  3.80000000E+02  4.00000000E+01  0.00000000E+00
  3.80000000E+02  2.00000000E+01  0.00000000E+00
  3.80000000E+02  4.99600361E-14  0.00000000E+00
  4.00000000E+02  3.00000000E+02  0.00000000E+00
  4.00000000E+02  2.80000000E+02  0.00000000E+00
  4.00000000E+02  2.60000000E+02  0.00000000E+00
  4.00000000E+02  2.40000000E+02  0.00000000E+00
  4.00000000E+02  2.20000000E+02  0.00000000E+00
  4.00000000E+02  2.00000000E+02  0.00000000E+00
  4.00000000E+02  1.80000000E+02  0.00000000E+00
  4.00000000E+02  1.60000000E+02  0.00000000E+00
  4.00000000E+02  1.40000000E+02  0.00000000E+00
  4.00000000E+02  1.20000000E+02  0.00000000E+00
  4.00000000E+02  1.00000000E+02  0.00000000E+00
  4.00000000E+02  8.00000000E+01  0.00000000E+00
  4.00000000E+02  6.00000000E+01  0.00000000E+00
  4.00000000E+02  4.00000000E+01  0.00000000E+00
  4.00000000E+02  2.00000000E+01  0.00000000E+00
  4.00000000E+02  4.99600361E-14  0.00000000E+00
  4.20000000E+02  3.00000000E+02  0.00000000E+00
  4.20000000E+02  2.80000000E+02  0.00000000E+00
  4.20000000E+02  2.60000000E+02  0.00000000E+00
  4.20000000E+02  2.40000000E+02  0.00000000E+00
  4.20000000E+02  2.20000000E+02  0.00000000E+00
  4.20000000E+02  2.00000000E+02  0.00000000E+00
  4.20000000E+02  1.80000000E+02  0.00000000E+00
  4.20000000E+02  1.60000000E+02  0.00000000E+00
  4.20000000E+02  1.40000000E+02  0.00000000E+00
  4.20000000E+02  1.20000000E+02  0.00000000E+00
  4.20000000E+02  1.00000000E+02  0.00000000E+00
  4.20000000E+02  8.00000000E+01  0.00000000E+00
  4.20000000E+02  6.00000000E+01  0.00000000E+00
  4.20000000E+02  4.00000000E+01  0.00000000E+00
  4.20000000E+02  2.00000000E+01  0.00000000E+00
  4.20000000E+02  4.99600361E-14  0.00000000E+00
  4.40000000E+02  3.00000000E+02  0.00000000E+00
  4.40000000E+02  2.80000000E+02  0.00000000E+00
  4.40000000E+02  2.60000000E+02  0.00000000E+00
  4.40000000E+02  2.40000000E+02  0.00000000E+00
  4.40000000E+02  2.20000000E+02  0.00000000E+00
  4.40000000E+02  2.00000000E+02  0.00000000E+00
  4.40000000E+02  1.80000000E+02  0.00000000E+00
  4.40000000E+02  1.60000000E+02  0.00000000E+00
  4.40000000E+02  1.40000000E+02  0.00000000E+00
  4.40000000E+02  1.20000000E+02  0.00000000E+00
  4.40000000E+02  1.00000000E+02  0.00000000E+00
  4.40000000E+02  8.00000000E+01  0.00000000E+00
  4.40000000E+02  6.00000000E+01  0.00000000E+00
  4.40000000E+02  4.00000000E+01  0.00000000E+00
  4.40000000E+02  2.00000000E+01  0.00000000E+00
  4.40000000E+02  4.99600361E-14  0.00000000E+00
  4.60000000E+02  3.00000000E+02  0.00000000E+00
  4.60000000E+02  2.80000000E+02  0.00000000E+00
  4.60000000E+02  2.60000000E+02  0.00000000E+00
  4.60000000E+02  2.40000000E+02  0.00000000E+00
  4.60000000E+02  2.20000000E+02  0.00000000E+00
  4.60000000E+02  2.00000000E+02  0.00000000E+00
  4.60000000E+02  1.80000000E+02  0.00000000E+00
  4.60000000E+02  1.60000000E+02  0.00000000E+00
  4.60000000E+02  1.40000000E+02  0.00000000E+00
  4.60000000E+02  1.20000000E+02  0.00000000E+00
  4.60000000E+02  1.00000000E+02  0.00000000E+00
  4.60000000E+02  8.00000000E+01  0.00000000E+00
  4.60000000E+02  6.00000000E+01  0.00000000E+00
  4.60000000E+02  4.00000000E+01  0.00000000E+00
  4.60000000E+02  2.00000000E+01  0.00000000E+00
  4.60000000E+02  4.99600361E-14  0.00000000E+00
  4.80000000E+02  3.00000000E+02  0.00000000E+00
  4.80000000E+02  2.80000000E+02  0.00000000E+00
  4.80000000E+02  2.60000000E+02  0.00000000E+00
  4.80000000E+02  2.40000000E+02  0.00000000E+00
  4.80000000E+02  2.20000000E+02  0.00000000E+00
  4.80000000E+02  2.00000000E+02  0.00000000E+00
  4.80000000E+02  1.80000000E+02  0.00000000E+00
  4.80000000E+02  1.60000000E+02  0.00000000E+00
  4.80000000E+02  1.40000000E+02  0.00000000E+00
  4.80000000E+02  1.20000000E+02  0.00000000E+00
  4.80000000E+02  1.00000000E+02  0.00000000E+00
  4.80000000E+02  8.00000000E+01  0.00000000E+00
  4.80000000E+02  6.00000000E+01  0.00000000E+00
  4.80000000E+02  4.00000000E+01  0.00000000E+00
  4.80000000E+02  2.00000000E+01  0.00000000E+00
  4.80000000E+02  4.99600361E-14  0.00000000E+00
  5.00000000E+02  3.00000000E+02  0.00000000E+00
  5.00000000E+02  2.80000000E+02  0.00000000E+00
  5.00000000E+02  2.60000000E+02  0.00000000E+00
  5.00000000E+02  2.40000000E+02  0.00000000E+00
  5.00000000E+02  2.20000000E+02  0.00000000E+00
  5.00000000E+02  2.00000000E+02  0.00000000E+00
  5.00000000E+02  1.80000000E+02  0.00000000E+00
  5.00000000E+02  1.60000000E+02  0.00000000E+00
  5.00000000E+02  1.40000000E+02  0.00000000E+00
  5.00000000E+02  1.20000000E+02  0.00000000E+00
  5.00000000E+02  1.00000000E+02  0.00000000E+00
  5.00000000E+02  8.00000000E+01  0.00000000E+00
  5.00000000E+02  6.00000000E+01  0.00000000E+00
  5.00000000E+02  4.00000000E+01  0.00000000E+00
  5.00000000E+02  2.00000000E+01  0.00000000E+00
  5.00000000E+02  4.99600361E-14  0.00000000E+00
  5.20000000E+02  3.00000000E+02  0.00000000E+00
  5.20000000E+02  2.80000000E+02  0.00000000E+00
  5.20000000E+02  2.60000000E+02  0.00000000E+00
  5.20000000E+02  2.40000000E+02  0.00000000E+00
  5.20000000E+02  2.20000000E+02  0.00000000E+00
  5.20000000E+02  2.00000000E+02  0.00000000E+00
  5.20000000E+02  1.80000000E+02  0.00000000E+00
  5.20000000E+02  1.60000000E+02  0.00000000E+00
  5.20000000E+02  1.40000000E+02  0.00000000E+00
  5.20000000E+02  1.20000000E+02  0.00000000E+00
  5.20000000E+02  1.00000000E+02  0.00000000E+00
  5.20000000E+02  8.00000000E+01  0.00000000E+00
  5.20000000E+02  6.00000000E+01  0.00000000E+00
  5.20000000E+02  4.00000000E+01  0.00000000E+00
  5.20000000E+02  2.00000000E+01  0.00000000E+00
  5.20000000E+02  4.99600361E-14  0.00000000E+00
  5.40000000E+02  3.00000000E+02  0.00000000E+00
  5.40000000E+02  2.80000000E+02  0.00000000E+00
  5.40000000E+02  2.60000000E+02  0.00000000E+00
  5.40000000E+02  2.40000000E+02  0.00000000E+00
  5.40000000E+02  2.20000000E+02  0.00000000E+00
  5.40000000E+02  2.00000000E+02  0.00000000E+00
  5.40000000E+02  1.80000000E+02  0.00000000E+00
  5.40000000E+02  1.60000000E+02  0.00000000E+00
  5.40000000E+02  1.40000000E+02  0.00000000E+00
  5.40000000E+02  1.20000000E+02  0.00000000E+00
  5.40000000E+02  1.00000000E+02  0.00000000E+00
  5.40000000E+02  8.00000000E+01  0.00000000E+00
  5.40000000E+02  6.00000000E+01  0.00000000E+00
  5.40000000E+02  4.00000000E+01  0.00000000E+00
  5.40000000E+02  2.00000000E+01  0.00000000E+00
  5.40000000E+02  4.99600361E-14  0.00000000E+00
  5.60000000E+02  3.00000000E+02  0.00000000E+00
  5.60000000E+02  2.80000000E+02  0.00000000E+00
  5.60000000E+02  2.60000000E+02  0.00000000E+00
  5.60000000E+02  2.40000000E+02  0.00000000E+00
  5.60000000E+02  2.20000000E+02  0.00000000E+00
  5.60000000E+02  2.00000000E+02  0.00000000E+00
  5.60000000E+02  1.80000000E+02  0.00000000E+00
  5.60000000E+02  1.60000000E+02  0.00000000E+00
  5.60000000E+02  1.40000000E+02  0.00000000E+00
  5.60000000E+02  1.20000000E+02  0.00000000E+00
  5.60000000E+02  1.00000000E+02  0.00000000E+00
  5.60000000E+02  8.00000000E+01  0.00000000E+00
  5.60000000E+02  6.00000000E+01  0.00000000E+00
  5.60000000E+02  4.00000000E+01  0.00000000E+00
  5.60000000E+02  2.00000000E+01  0.00000000E+00
  5.60000000E+02  4.99600361E-14  0.00000000E+00
  5.80000000E+02  3.00000000E+02  0.00000000E+00
  5.80000000E+02  2.80000000E+02  0.00000000E+00
  5.80000000E+02  2.60000000E+02  0.00000000E+00
  5.80000000E+02  2.40000000E+02  0.00000000E+00
  5.80000000E+02  2.20000000E+02  0.00000000E+00
  5.80000000E+02  2.00000000E+02  0.00000000E+00
  5.80000000E+02  1.80000000E+02  0.00000000E+00
  5.80000000E+02  1.60000000E+02  0.00000000E+00
  5.80000000E+02  1.40000000E+02  0.00000000E+00
  5.80000000E+02  1.20000000E+02  0.00000000E+00
  5.80000000E+02  1.00000000E+02  0.00000000E+00
  5.80000000E+02  8.00000000E+01  0.00000000E+00
  5.80000000E+02  6.00000000E+01  0.00000000E+00
  5.80000000E+02  4.00000000E+01  0.00000000E+00
  5.80000000E+02  2.00000000E+01  0.00000000E+00
  5.80000000E+02  4.99600361E-14  0.00000000E+00
  6.00000000E+02  3.00000000E+02  0.00000000E+00
  6.00000000E+02  2.80000000E+02  0.00000000E+00
  6.00000000E+02  2.60000000E+02  0.00000000E+00
  6.00000000E+02  2.40000000E+02  0.00000000E+00
  6.00000000E+02  2.20000000E+02  0.00000000E+00
  6.00000000E+02  2.00000000E+02  0.00000000E+00
  6.00000000E+02  1.80000000E+02  0.00000000E+00
  6.00000000E+02  1.60000000E+02  0.00000000E+00
  6.00000000E+02  1.40000000E+02  0.00000000E+00
  6.00000000E+02  1.20000000E+02  0.00000000E+00
  6.00000000E+02  1.00000000E+02  0.00000000E+00
  6.00000000E+02  8.00000000E+01  0.00000000E+00
  6.00000000E+02  6.00000000E+01  0.00000000E+00
  6.00000000E+02  4.00000000E+01  0.00000000E+00
  6.00000000E+02  2.00000000E+01  0.00000000E+00
  6.00000000E+02  4.99600361E-14  0.00000000E+00
CELLS       450      2250
         4           0           1          17          16
         4           1           2          18          17
         4           2           3          19          18
         4           3           4          20          19
         4           4           5          21          20
         4           5           6          22          21
         4           6           7          23          22
         4           7           8          24          23
         4           8           9          25          24
         4           9          10          26          25
         4          10          11          27          26
         4          11          12          28          27
         4          12          13          29          28
         4          13          14          30          29
         4          14          15          31          30
         4          16          17          33          32
         4          17          18          34          33
         4          18          19          35          34
         4          19          20          36          35
         4          20          21          37          36
         4          21          22          38          37
         4          22          23          39          38
         4          23          24          40          39
         4          24          25          41          40
         4          25          26          42          41
         4          26          27          43          42
         4          27          28          44          43
         4          28          29          45          44
         4          29          30          46          45
         4          30          31          47          46
         4          32          33          49          48
         4          33          34          50          49
         4          34          35          51          50
         4          35          36          52          51
         4          36          37          53          52
         4          37          38          54          53
         4          38          39          55          54
         4          39          40          56          55
         4          40          41          57          56
         4          41          42          58          57
         4          42          43          59          58
         4          43          44          60          59
         4          44          45          61          60
         4          45          46          62          61
         4          46          47          63          62
         4          48          49          65          64
         4          49          50          66          65
         4          50          51          67          66
         4          51          52          68          67
         4          52          53          69          68
         4          53          54          70          69
         4          54          55          71          70
         4          55          56          72          71
         4          56          57          73          72
         4          57          58          74          73
         4          58          59          75          74
         4          59          60          76          75
         4          60          61          77          76
         4          61          62          78          77
         4          62          63          79          78
         4          64          65          81          80
         4          65          66          82          81
         4          66          67          83          82
         4          67          68          84          83
         4          68          69          85          84
         4          69          70          86          85
         4          70          71          87          86
         4          71          72          88          87
         4          72          73          89          88
         4          73          74          90          89
         4          74          75          91          90
         4          75          76          92          91
         4          76          77          93          92
         4          77          78          94          93
         4          78          79          95          94
         4          80          81          97          96
         4          81          82          98          97
         4          82          83          99          98
         4          83          84         100          99
         4          84          85         101         100
         4          85          86         102         101
         4          86          87         103         102
         4          87          88         104         103
         4          88          89         105         104
         4          89          90         106         105
         4          90          91         107         106
         4          91          92         108         107
         4          92          93         109         108
         4          93          94         110         109
         4          94          95         111         110
         4          96          97         113         112
         4          97          98         114         113
         4          98          99         115         114
         4          99         100         116         115
         4         100         101         117         116
         4         101         102         118         117
         4         102         103         119         118
         4         103         104         120         119
         4         104         105         121         120
         4         105         106         122         121
         4         106         107         123         122
         4         107         108         124         123
         4         108         109         125         124
         4         109         110         126         125
         4         110         111         127         126
         4         112         113         129         128
         4         113         114         130         129
         4         114         115         131         130
         4         115         116         132         131
         4         116         117         133         132
         4         117         118         134         133
         4         118         119         135         134
         4         119         120         136         135
         4         120         121         137         136
         4         121         122         138         137
         4         122         123         139         138
         4         123         124         140         139
         4         124         125         141         140
         4         125         126         142         141
         4         126         127         143         142
         4         128         129         145         144
         4         129         130         146         145
         4         130         131         147         146
         4         131         132         148         147
         4         132         133         149         148
         4         133         134         150         149
         4         134         135         151         150
         4         135         136         152         151
         4         136         137         153         152
         4         137         138         154         153
         4         138         139         155         154
         4         139         140         156         155
         4         140         141         157         156
         4         141         142         158         157
         4         142         143         159         158
         4         144         145         161         160
         4         145         146         162         161
         4         146         147         163         162
         4         147         148         164         163
         4         148         149         165         164
         4         149         150         166         165
         4         150         151         167         166
         4         151         152         168         167
         4         152         153         169         168
         4         153         154         170         169
         4         154         155         171         170
         4         155         156         172         171
         4         156         157         173         172
         4         157         158         174         173
         4         158         159         175         174
         4         160         161         177         176
         4         161         162         178         177
         4         162         163         179         178
         4         163         164         180         179
         4         164         165         181         180
         4         165         166         182         181
         4         166         167         183         182
         4         167         168         184         183
         4         168         169         185         184
         4         169         170         186         185
         4         170         171         187         186
         4         171         172         188         187
         4         172         173         189         188
         4         173         174         190         189
         4         174         175         191         190
         4         176         177         193         192
         4         177         178         194         193
         4         178         179         195         194
         4         179         180         196         195
         4         180         181         197         196
         4         181         182         198         197
         4         182         183         199         198
         4         183         184         200         199
         4         184         185         201         200
         4         185         186         202         201
         4         186         187         203         202
         4         187         188         204         203
         4         188         189         205         204
         4         189         190         206         205
         4         190         191         207         206
         4         192         193         209         208
         4         193         194         210         209
         4         194         195         211         210
         4         195         196         212         211
         4         196         197         213         212
         4         197         198         214         213
         4         198         199         215         214
         4         199         200         216         215
         4         200         201         217         216
         4         201         202         218         217
         4         202         203         219         218
         4         203         204         220         219
         4         204         205         221         220
         4         205         206         222         221
         4         206         207         223         222
         4         208         209         225         224
         4         209         210         226         225
         4         210         211         227         226
         4         211         212         228         227
         4         212         213         229         228
         4         213         214         230         229
         4         214         215         231         230
         4         215         216         232         231
         4         216         217         233         232
         4         217         218         234         233
         4         218         219         235         234
         4         219         220         236         235
         4         220         221         237         236
         4         221         222         238         237
         4         222         223         239         238
         4         224         225         241         240
         4         225         226         242         241
         4         226         227         243         242
         4         227         228         244         243
         4         228         229         245         244
         4         229         230         246         245
         4         230         231         247         246
         4         231         232         248         247
         4         232         233         249         248
         4         233         234         250         249
         4         234         235         251         250
         4         235         236         252         251
         4         236         237         253         252
         4         237         238         254         253
         4         238         239         255         254
         4         240         241         257         256
         4         241         242         258         257
         4         242         243         259         258
         4         243         244         260         259
         4         244         245         261         260
         4         245         246         262         261
         4         246         247         263         262
         4         247         248         264         263
         4         248         249         265         264
         4         249         250         266         265
         4         250         251         267         266
         4         251         252         268         267
         4         252         253         269         268
         4         253         254         270         269
         4         254         255         271         270
         4         256         257         273         272
         4         257         258         274         273
         4         258         259         275         274
         4         259         260         276         275
         4         260         261         277         276
         4         261         262         278         277
         4         262         263         279         278
         4         263         264         280         279
         4         264         265         281         280
         4         265         266         282         281
         4         266         267         283         282
         4         267         268         284         283
         4         268         269         285         284
         4         269         270         286         285
         4         270         271         287         286
         4         272         273         289         288
         4         273         274         290         289
         4         274         275         291         290
         4         275         276         292         291
         4         276         277         293         292
         4         277         278         294         293
         4         278         279         295         294
         4         279         280         296         295
         4         280         281         297         296
         4         281         282         298         297
         4         282         283         299         298
         4         283         284         300         299
         4         284         285         301         300
         4         285         286         302         301
         4         286         287         303         302
         4         288         289         305         304
         4         289         290         306         305
         4         290         291         307         306
         4         291         292         308         307
         4         292         293         309         308
         4         293         294         310         309
         4         294         295         311         310
         4         295         296         312         311
         4         296         297         313         312
         4         297         298         314         313
         4         298         299         315         314
         4         299         300         316         315
         4         300         301         317         316
         4         301         302         318         317
         4         302         303         319         318
         4         304         305         321         320
         4         305         306         322         321
         4         306         307         323         322
         4         307         308         324         323
         4         308         309         325         324
         4         309         310         326         325
         4         310         311         327         326
         4         311         312         328         327
         4         312         313         329         328
         4         313         314         330         329
         4         314         315         331         330
         4         315         316         332         331
         4         316         317         333         332
         4         317         318         334         333
         4         318         319         335         334
         4         320         321         337         336
         4         321         322         338         337
         4         322         323         339         338
         4         323         324         340         339
         4         324         325         341         340
         4         325         326         342         341
         4         326         327         343         342
         4         327         328         344         343
         4         328         329         345         344
         4         329         330         346         345
         4         330         331         347         346
         4         331         332         348         347
         4         332         333         349         348
         4         333         334         350         349
         4         334         335         351         350
         4         336         337         353         352
         4         337         338         354         353
         4         338         339         355         354
         4         339         340         356         355
         4         340         341         357         356
         4         341         342         358         357
         4         342         343         359         358
         4         343         344         360         359
         4         344         345         361         360
         4         345         346         362         361
         4         346         347         363         362
         4         347         348         364         363
         4         348         349         365         364
         4         349         350         366         365
         4         350         351         367         366
         4         352         353         369         368
         4         353         354         370         369
         4         354         355         371         370
         4         355         356         372         371
         4         356         357         373         372
         4         357         358         374         373
         4         358         359         375         374
         4         359         360         376         375
         4         360         361         377         376
         4         361         362         378         377
         4         362         363         379         378
         4         363         364         380         379
         4         364         365         381         380
         4         365         366         382         381
         4         366         367         383         382
         4         368         369         385         384
         4         369         370         386         385
         4         370         371         387         386
         4         371         372         388         387
         4         372         373         389         388
         4         373         374         390         389
         4         374         375         391         390
         4         375         376         392         391
         4         376         377         393         392
         4         377         378         394         393
         4         378         379         395         394
         4         379         380         396         395
         4         380         381         397         396
         4         381         382         398         397
         4         382         383         399         398
         4         384         385         401         400
         4         385         386         402         401
         4         386         387         403         402
         4         387         388         404         403
         4         388         389         405         404
         4         389         390         406         405
         4         390         391         407         406
         4         391         392         408         407
         4         392         393         409         408
         4         393         394         410         409
         4         394         395         411         410
         4         395         396         412         411
         4         396         397         413         412
         4         397         398         414         413
         4         398         399         415         414
         4         400         401         417         416
         4         401         402         418         417
         4         402         403         419         418
         4         403         404         420         419
         4         404         405         421         420
         4         405         406         422         421
         4         406         407         423         422
         4         407         408         424         423
         4         408         409         425         424
         4         409         410         426         425
         4         410         411         427         426
         4         411         412         428         427
         4         412         413         429         428
         4         413         414         430         429
         4         414         415         431         430
         4         416         417         433         432
         4         417         418         434         433
         4         418         419         435         434
         4         419         420         436         435
         4         420         421         437         436
         4         421         422         438         437
         4         422         423         439         438
         4         423         424         440         439
         4         424         425         441         440
         4         425         426         442         441
         4         426         427         443         442
         4         427         428         444         443
         4         428         429         445         444
         4         429         430         446         445
         4         430         431         447         446
         4         432         433         449         448
         4         433         434         450         449
         4         434         435         451         450
         4         435         436         452         451
         4         436         437         453         452
         4         437         438         454         453
         4         438         439         455         454
         4         439         440         456         455
         4         440         441         457         456
         4         441         442         458         457
         4         442         443         459         458
         4         443         444         460         459
         4         444         445         461         460
         4         445         446         462         461
         4         446         447         463         462
         4         448         449         465         464
         4         449         450         466         465
         4         450         451         467         466
         4         451         452         468         467
         4         452         453         469         468
         4         453         454         470         469
         4         454         455         471         470
         4         455         456         472         471
         4         456         457         473         472
         4         457         458         474         473
         4         458         459         475         474
         4         459         460         476         475
         4         460         461         477         476
         4         461         462         478         477
         4         462         463         479         478
         4         464         465         481         480
         4         465         466         482         481
         4         466         467         483         482
         4         467         468         484         483
         4         468         469         485         484
         4         469         470         486         485
         4         470         471         487         486
         4         471         472         488         487
         4         472         473         489         488
         4         473         474         490         489
         4         474         475         491         490
         4         475         476         492         491
         4         476         477         493         492
         4         477         478         494         493
         4         478         479         495         494
CELL_TYPES        450
9
9
9
9
9
9
9
9
9
9
9
9
9
9
9
9
9
9
9
9
9
9
9
9
9
9
9
9
9
9
9
9
9
9
9
9
9
9
9
9
9
9
9
9
9
9
9
9
9
9
9
9
9
9
9
9
9
9
9
9
9
9
9
9
9
9
9
9
9
9
9
9
9
9
9
9
9
9
9
9
9
9
9
9
9
9
9
9
9
9
9
9
9
9
9
9
9
9
9
9
9
9
9
9
9
9
9
9
9
9
9
9
9
9
9
9
9
9
9
9
9
9
9
9
9
9
9
9
9
9
9
9
9
9
9
9
9
9
9
9
9
9
9
9
9
9
9
9
9
9
9
9
9
9
9
9
9
9
9
9
9
9
9
9
9
9
9
9
9
9
9
9
9
9
9
9
9
9
9
9
9
9
9
9
9
9
9
9
9
9
9
9
9
9
9
9
9
9
9
9
9
9
9
9
9
9
9
9
9
9
9
9
9
9
9
9
9
9
9
9
9
9
9
9
9
9
9
9
9
9
9
9
9
9
9
9
9
9
9
9
9
9
9
9
9
9
9
9
9
9
9
9
9
9
9
9
9
9
9
9
9
9
9
9
9
9
9
9
9
9
9
9
9
9
9
9
9
9
9
9
9
9
9
9
9
9
9
9
9
9
9
9
9
9
9
9
9
9
9
9
9
9
9
9
9
9
9
9
9
9
9
9
9
9
9
9
9
9
9
9
9
9
9
9
9
9
9
9
9
9
9
9
9
9
9
9
9
9
9
9
9
9
9
9
9
9
9
9
9
9
9
9
9
9
9
9
9
9
9
9
9
9
9
9
9
9
9
9
9
9
9
9
9
9
9
9
9
9
9
9
9
9
9
9
9
9
9
9
9
9
9
9
9
9
9
9
9
9
9
9
9
9
9
9
9
9
9
9
9
9
9
9
9
9
9
9
9
9
9
9
9
9
9
9
9
9
9
9
9
9
9
9
9
9
9
9
9
9
9
9
9
9
9
9
9
9
9
9
9
9
POINT_DATA       496
SCALARS p double 
LOOKUP_TABLE default
   60000000.0000000     
   60000000.0000000     
   60000000.0000000     
   60000000.0000000     
   60000000.0000000     
   60000000.0000000     
   60000000.0000000     
   60000000.0000000     
   60000000.0000000     
   60000000.0000000     
   60000000.0000000     
   60000000.0000000     
   60000000.0000000     
   60000000.0000000     
   60000000.0000000     
   60000000.0000000     
   59590161.6715222     
   59593756.5645579     
   59601746.9523934     
   59612136.8175131     
   59623867.9827287     
   59636264.1159117     
   59648853.1266859     
   59661284.5938321     
   59673283.6626581     
   59684621.2668267     
   59695091.9943936     
   59704494.5804431     
   59712610.4641236     
   59719172.9153459     
   59723807.5256812     
   59725873.6178920     
   59209508.7056827     
   59214751.4758689     
   59227587.6811366     
   59245110.1523524     
   59265433.5412963     
   59287271.6049527     
   59309694.8683179     
   59331997.7532314     
   59353617.7635687     
   59374080.8679463     
   59392959.8914308     
   59409837.6241705     
   59424267.1405391     
   59435718.5871469     
   59443492.8125812     
   59446540.0762554     
   58847857.7955797     
   58854084.1624944     
   58869909.0463709     
   58892158.7428462     
   58918489.3922067     
   58947173.6736657     
   58976906.9795992     
   59006670.3090161     
   59035635.3647458     
   59063095.6030482     
   59088411.7714224     
   59110963.5986212     
   59130100.3599277     
   59145082.9070664     
   59155008.0519648     
   59158743.3857636     
   58495969.0927230     
   58502751.9515995     
   58520345.2439598     
   58545529.3415419     
   58575759.6782828     
   58609046.4649471     
   58643821.8350395     
   58678824.1736441     
   58713006.5794690     
   58745464.7472507     
   58775377.6601068     
   58801955.0826212     
   58824386.9770775     
   58841791.6631637     
   58853167.2786811     
   58857362.8056117     
   58144395.8662946     
   58151416.1920057     
   58169852.2514207     
   58196554.2751197     
   58228932.0665233     
   58264877.0928688     
   58302669.1911029     
   58340885.8578840     
   58378322.7832566     
   58413926.7255507     
   58446738.2434699     
   58475841.0676958     
   58500315.6479241     
   58519196.9111105     
   58531440.5791956     
   58535906.9618988     
   57783081.9232059     
   57790072.2892294     
   57808581.6183220     
   57835610.3807035     
   57868630.0831450     
   57905523.9294645     
   57944517.3128741     
   57984107.4349553     
   58022998.1632936     
   58060042.3574189     
   58094191.3080899     
   58124449.9850667     
   58149837.2209971     
   58169351.4725062     
   58181944.8832268     
   58186509.5806268     
   57401095.4111445     
   57407815.1517242     
   57425715.6810660     
   57452019.2361026     
   57484344.7677059     
   57520656.7004457     
   57559210.0484760     
   57598495.7991592     
   57637189.7111840     
   57674106.0567638     
   57708156.4561815     
   57738313.3224552     
   57763577.5916753     
   57782951.1315676     
   57795414.9929684     
   57799914.7586183     
   56986435.7286175     
   56992658.3919448     
   57009319.8862163     
   57033936.9322875     
   57064352.9033144     
   57098690.6156169     
   57135307.7063286     
   57172755.0371459     
   57209738.7783704     
   57245086.4408162     
   57277716.6348602     
   57306612.0822588     
   57330795.4750369     
   57349308.0368485     
   57361190.8075418     
   57365468.4019505     
   56525890.2368803     
   56531397.6541507     
   56546224.3726945     
   56568259.3879002     
   56595644.5615235     
   56626730.9091832     
   56660043.0605836     
   56694249.8467825     
   56728139.6520510     
   56760599.4692230     
   56790596.6998334     
   56817162.8085297     
   56839378.0358593     
   56856356.4409232     
   56867230.4567256     
   56871133.7742444     
   56004937.5599533     
   56009518.2915578     
   56021943.8154573     
   56040559.1022067     
   56063877.7650863     
   56090543.6550105     
   56119305.4599751     
   56149000.2671297     
   56178543.0567325     
   56206919.8446293     
   56233182.6998233     
   56256445.1907156     
   56275876.9869968     
   56290696.3521849     
   56300159.0707870     
   56303541.9517568     
   55407703.4326517     
   55411154.7123149     
   55420646.2935358     
   55435067.5643969     
   55453376.1262102     
   55474568.3798337     
   55497667.0419577     
   55521719.8137475     
   55545804.7667152     
   55569039.1197960     
   55590588.9096463     
   55609677.5975532     
   55625591.9196637     
   55637683.2833542     
   55645362.7604788     
   55648087.2729635     
   54716980.8547370     
   54719113.6747429     
   54725184.8619490     
   54734718.5214319     
   54747185.5087986     
   54761988.3754548     
   54778465.9983616     
   54795910.5725340     
   54813591.3737690     
   54830781.1598549     
   54846782.1894782     
   54860949.5641609     
   54872709.9390524     
   54881573.6287736     
   54887137.8052678     
   54889077.9243762     
   53914330.2711743     
   53914977.4110951     
   53917208.1490464     
   53921268.8884279     
   53927206.6405812     
   53934875.2635959     
   53943962.5854132     
   53954029.7651749     
   53964556.4314613     
   53974986.9680838     
   53984774.7011364     
   53993421.6278202     
   54000511.7169240     
   54005735.7418671     
   54008905.1537600     
   54009951.7676563     
   52980277.9492860     
   52979304.7138453     
   52977368.0336114     
   52975515.1760323     
   52974421.1548126     
   52974424.6050649     
   52975583.6987365     
   52977742.4421466     
   52980600.4020380     
   52983781.1352442     
   52986896.2461081     
   52989603.0156255     
   52991653.9428076     
   52992936.3673077     
   52993499.6991614     
   52993566.7938948     
   51894631.4734341     
   51891948.7407523     
   51885642.7443903     
   51877623.1674533     
   51869227.9951151     
   51861298.5016804     
   51854270.8200679     
   51848273.8736430     
   51843226.7267304     
   51838931.0531294     
   51835156.3220605     
   51831716.4140118     
   51828536.7259932     
   51825710.4833842     
   51823542.0643382     
   51822573.8152682     
   50636929.9047998     
   50632508.8264898     
   50621792.0179826     
   50607586.5658460     
   50591904.8086825     
   50576088.5987571     
   50560943.4558539     
   50546872.4539662     
   50534003.5668466     
   50522307.2559723     
   50511703.1995039     
   50502156.2056804     
   50493761.5770481     
   50486819.5973356     
   50481897.5464995     
   50479875.8901134     
   49187042.1307558     
   49180929.4918648     
   49165956.6832722     
   49145825.8587522     
   49123204.2908713     
   49099908.1021390     
   49077085.3361620     
   49055389.0938290     
   49035135.9793124     
   49016448.5445763     
   48999382.6768306     
   48984041.9544994     
   48970681.0003530     
   48959798.9240737     
   48952222.2361019     
   48949174.3281559     
   47525919.7243602     
   47518252.5879081     
   47499407.6857742     
   47473931.1909373     
   47445087.9288929     
   47415113.9169398     
   47385453.2231683     
   47356971.8139065     
   47330146.2327804     
   47305228.7068602     
   47282392.5293224     
   47261862.4359295     
   47244034.3581941     
   47229587.5743318     
   47219590.0496726     
   47215594.8520109     
   45636499.8344868     
   45627517.6956604     
   45605438.7356196     
   45575542.2343353     
   45541588.8874281     
   45506149.5012696     
   45470897.9543523     
   45436864.4001673     
   45404650.5342407     
   45374612.6296124     
   45347020.0264247     
   45322197.1803614     
   45300656.5708061     
   45283227.9404841     
   45271186.5674701     
   45266379.6688028     
   43504739.0885464     
   43494791.3933540     
   43470382.3489249     
   43437343.8043097     
   43399781.8195302     
   43360485.4801672     
   43321274.3430724     
   43283285.6279539     
   43247208.7767316     
   43213478.6094756     
   43182439.4990351     
   43154492.5866149     
   43130236.6692500     
   43110611.1723262     
   43097046.4219955     
   43091622.1128278     
   41120741.5424191     
   41110288.1405451     
   41084711.3983888     
   41050138.6329443     
   41010820.5091439     
   40969618.8419627     
   40928401.1860907     
   40888351.1783129     
   40850210.5685377     
   40814471.2948018     
   40781535.3955500     
   40751858.7718704     
   40726092.7998812     
   40705235.5403719     
   40690801.0897493     
   40685010.7036120     
   38479923.3927544     
   38469525.3464949     
   38444168.3835781     
   38409939.1872466     
   38370985.3172221     
   38330073.5005656     
   38289015.7897100     
   38248984.9278183     
   38210746.7910879     
   38174836.9845136     
   38141704.6330581     
   38111842.4791115     
   38085919.9558663     
   38064934.4912752     
   38050394.1552251     
   38044539.7736907     
   35584136.4671150     
   35574434.6389779     
   35550844.2638651     
   35519000.2889605     
   35482662.8507336     
   35444326.5821873     
   35405650.6234577     
   35367751.3682011     
   35331402.8760355     
   35297181.6052390     
   35265581.9342472     
   35237122.0996067     
   35212457.8958686     
   35192522.5811842     
   35178712.6158260     
   35173135.4048867     
   32442654.6064922     
   32434333.4785154     
   32414110.4789850     
   32386695.6828423     
   32355162.0151377     
   32321567.9737298     
   32287345.1023772     
   32253528.7533881     
   32220900.1343322     
   32190083.7848266     
   32161625.4128625     
   32136065.2799845     
   32114021.3117258     
   32096301.8628793     
   32084076.9959144     
   32079139.6257813     
   29072916.5379319     
   29066650.2863504     
   29051294.8106359     
   29030126.7224952     
   29005255.6444685     
   28978187.9324852     
   28950095.9815498     
   28921936.1309216     
   28894507.5598621     
   28868493.6346358     
   28844499.5132119     
   28823090.3399543     
   28804834.7962152     
   28790370.6795771     
   28780531.3975510     
   28776594.0025329     
   25500922.0981336     
   25497297.4509278     
   25487986.2524642     
   25474340.4796209     
   25457326.6133551     
   25437882.0010900     
   25416949.3149652     
   25395430.2855996     
   25374151.5262865     
   25353854.4769457     
   25335201.0735958     
   25318782.8672311     
   25305124.9982765     
   25294683.5385708     
   25287878.3374242     
   25285266.4905835     
   21761205.3809957     
   21760606.0408023     
   21757852.6856946     
   21752022.9670178     
   21742992.2237809     
   21731269.2458019     
   21717650.7088889     
   21703004.9601855     
   21688167.0614273     
   21673901.0413177     
   21660892.0514169     
   21649742.0847719     
   21640946.2114460     
   21634829.7829492     
   21631411.3582525     
   21630372.5919016     
   17896384.8362073     
   17898773.5204385     
   17901834.5002316     
   17902502.0487232     
   17900087.8213258     
   17894948.4931324     
   17887806.7076089     
   17879458.2698334     
   17870662.6487882     
   17862111.5488604     
   17854427.0727306     
   17848161.3652214     
   17843772.4177023     
   17841533.7395338     
   17841318.9427784     
   17841931.5346244     
   13956451.4980968     
   13960852.3623334     
   13966375.6975771     
   13969856.1309774     
   13970935.2436035     
   13969990.8107072     
   13967575.8575781     
   13964245.8473530     
   13960508.4451237     
   13956817.6860343     
   13953582.8914926     
   13951177.3881551     
   13949932.8575805     
   13950092.7724341     
   13951637.0259789     
   13953770.1171862     
   10000000.0000000     
   10000000.0000000     
   10000000.0000000     
   10000000.0000000     
   10000000.0000000     
   10000000.0000000     
   10000000.0000000     
   10000000.0000000     
   10000000.0000000     
   10000000.0000000     
   10000000.0000000     
   10000000.0000000     
   10000000.0000000     
  10000000.00000000     
   10000000.0000000     
   10000000.0000000     
VECTORS u double 
    0.00000E+00        -0.18618E-02         0.00000E+00
    0.00000E+00        -0.15653E-02         0.00000E+00
    0.00000E+00        -0.12851E-02         0.00000E+00
    0.00000E+00        -0.10224E-02         0.00000E+00
    0.00000E+00        -0.78013E-03         0.00000E+00
    0.00000E+00        -0.56064E-03         0.00000E+00
    0.00000E+00        -0.36582E-03         0.00000E+00
    0.00000E+00        -0.19726E-03         0.00000E+00
    0.00000E+00        -0.56429E-04         0.00000E+00
    0.00000E+00         0.55231E-04         0.00000E+00
    0.00000E+00         0.13618E-03         0.00000E+00
    0.00000E+00         0.18470E-03         0.00000E+00
    0.00000E+00         0.19878E-03         0.00000E+00
    0.00000E+00         0.17588E-03         0.00000E+00
    0.00000E+00         0.11240E-03         0.00000E+00
    0.00000E+00         0.00000E+00         0.00000E+00
    0.12008E-02        -0.19355E-02         0.00000E+00
    0.10918E-02        -0.16220E-02         0.00000E+00
    0.10022E-02        -0.13324E-02         0.00000E+00
    0.91800E-03        -0.10636E-02         0.00000E+00
    0.83650E-03        -0.81682E-03         0.00000E+00
    0.75693E-03        -0.59353E-03         0.00000E+00
    0.67907E-03        -0.39532E-03         0.00000E+00
    0.60280E-03        -0.22359E-03         0.00000E+00
    0.52802E-03        -0.79685E-04         0.00000E+00
    0.45453E-03         0.35007E-04         0.00000E+00
    0.38208E-03         0.11897E-03         0.00000E+00
    0.31026E-03         0.17050E-03         0.00000E+00
    0.23847E-03         0.18756E-03         0.00000E+00
    0.16556E-03         0.16760E-03         0.00000E+00
    0.89135E-04         0.10701E-03         0.00000E+00
    0.00000E+00         0.00000E+00         0.00000E+00
    0.23635E-02        -0.21144E-02         0.00000E+00
    0.21602E-02        -0.17796E-02         0.00000E+00
    0.19807E-02        -0.14702E-02         0.00000E+00
    0.18119E-02        -0.11860E-02         0.00000E+00
    0.16489E-02        -0.92663E-03         0.00000E+00
    0.14901E-02        -0.69250E-03         0.00000E+00
    0.13350E-02        -0.48440E-03         0.00000E+00
    0.11832E-02        -0.30328E-03         0.00000E+00
    0.10345E-02        -0.15018E-03         0.00000E+00
    0.88840E-03        -0.26354E-04         0.00000E+00
    0.74437E-03         0.66778E-04         0.00000E+00
    0.60161E-03         0.12751E-03         0.00000E+00
    0.45894E-03         0.15382E-03         0.00000E+00
    0.31440E-03         0.14324E-03         0.00000E+00
    0.16399E-03         0.92730E-04         0.00000E+00
    0.00000E+00         0.00000E+00         0.00000E+00
    0.34931E-02        -0.23768E-02         0.00000E+00
    0.32061E-02        -0.20207E-02         0.00000E+00
    0.29398E-02        -0.16894E-02         0.00000E+00
    0.26864E-02        -0.13850E-02         0.00000E+00
    0.24417E-02        -0.11075E-02         0.00000E+00
    0.22036E-02        -0.85679E-03         0.00000E+00
    0.19716E-02        -0.63303E-03         0.00000E+00
    0.17449E-02        -0.43666E-03         0.00000E+00
    0.15230E-02        -0.26841E-03         0.00000E+00
    0.13052E-02        -0.12931E-03         0.00000E+00
    0.10906E-02        -0.20703E-04         0.00000E+00
    0.87788E-03         0.55757E-04         0.00000E+00
    0.66556E-03         0.98105E-04         0.00000E+00
    0.45124E-03         0.10413E-03         0.00000E+00
    0.23119E-03         0.71772E-04         0.00000E+00
    0.00000E+00         0.00000E+00         0.00000E+00
    0.45968E-02        -0.27146E-02         0.00000E+00
    0.42310E-02        -0.23367E-02         0.00000E+00
    0.38810E-02        -0.19829E-02         0.00000E+00
    0.35438E-02        -0.16562E-02         0.00000E+00
    0.32174E-02        -0.13571E-02         0.00000E+00
    0.29003E-02        -0.10854E-02         0.00000E+00
    0.25918E-02        -0.84098E-03         0.00000E+00
    0.22909E-02        -0.62395E-03         0.00000E+00
    0.19967E-02        -0.43475E-03         0.00000E+00
    0.17083E-02        -0.27424E-03         0.00000E+00
    0.14241E-02        -0.14368E-03         0.00000E+00
    0.11427E-02        -0.44671E-04         0.00000E+00
    0.86219E-03         0.20905E-04         0.00000E+00
    0.58029E-03         0.51103E-04         0.00000E+00
    0.29404E-03         0.44331E-04         0.00000E+00
    0.00000E+00         0.00000E+00         0.00000E+00
    0.56802E-02        -0.31255E-02         0.00000E+00
    0.52370E-02        -0.27248E-02         0.00000E+00
    0.48049E-02        -0.23478E-02         0.00000E+00
    0.43849E-02        -0.19973E-02         0.00000E+00
    0.39774E-02        -0.16740E-02         0.00000E+00
    0.35818E-02        -0.13778E-02         0.00000E+00
    0.31975E-02        -0.11083E-02         0.00000E+00
    0.28233E-02        -0.86556E-03         0.00000E+00
    0.24581E-02        -0.64977E-03         0.00000E+00
    0.21002E-02        -0.46169E-03         0.00000E+00
    0.17479E-02        -0.30254E-03         0.00000E+00
    0.13992E-02        -0.17393E-03         0.00000E+00
    0.10522E-02        -0.77724E-04         0.00000E+00
    0.70467E-03        -0.15801E-04         0.00000E+00
    0.35457E-03         0.10328E-04         0.00000E+00
    0.00000E+00         0.00000E+00         0.00000E+00
    0.67479E-02        -0.36105E-02         0.00000E+00
    0.62260E-02        -0.31856E-02         0.00000E+00
    0.57118E-02        -0.27842E-02         0.00000E+00
    0.52097E-02        -0.24083E-02         0.00000E+00
    0.47218E-02        -0.20584E-02         0.00000E+00
    0.42486E-02        -0.17344E-02         0.00000E+00
    0.37897E-02        -0.14359E-02         0.00000E+00
    0.33437E-02        -0.11624E-02         0.00000E+00
    0.29090E-02        -0.91442E-03         0.00000E+00
    0.24833E-02        -0.69252E-03         0.00000E+00
    0.20645E-02        -0.49800E-03         0.00000E+00
    0.16502E-02        -0.33256E-03         0.00000E+00
    0.12383E-02        -0.19819E-03         0.00000E+00
    0.82673E-03        -0.96918E-04         0.00000E+00
    0.41420E-03        -0.30495E-04         0.00000E+00
    0.00000E+00         0.00000E+00         0.00000E+00
    0.78027E-02        -0.41732E-02         0.00000E+00
    0.71989E-02        -0.37222E-02         0.00000E+00
    0.66015E-02        -0.32945E-02         0.00000E+00
    0.60172E-02        -0.28912E-02         0.00000E+00
    0.54498E-02        -0.25123E-02         0.00000E+00
    0.49003E-02        -0.21572E-02         0.00000E+00
    0.43685E-02        -0.18253E-02         0.00000E+00
    0.38526E-02        -0.15162E-02         0.00000E+00
    0.33504E-02        -0.12302E-02         0.00000E+00
    0.28591E-02        -0.96808E-03         0.00000E+00
    0.23759E-02        -0.73121E-03         0.00000E+00
    0.18978E-02        -0.52151E-03         0.00000E+00
    0.14226E-02        -0.34125E-03         0.00000E+00
    0.94829E-03        -0.19284E-03         0.00000E+00
    0.47400E-03        -0.78503E-04         0.00000E+00
    0.00000E+00         0.00000E+00         0.00000E+00
    0.88456E-02        -0.48191E-02         0.00000E+00
    0.81553E-02        -0.43396E-02         0.00000E+00
    0.74725E-02        -0.38832E-02         0.00000E+00
    0.68059E-02        -0.34500E-02         0.00000E+00
    0.61598E-02        -0.30389E-02         0.00000E+00
    0.55358E-02        -0.26489E-02         0.00000E+00
    0.49332E-02        -0.22791E-02         0.00000E+00
    0.43500E-02        -0.19292E-02         0.00000E+00
    0.37830E-02        -0.15992E-02         0.00000E+00
    0.32286E-02        -0.12902E-02         0.00000E+00
    0.26833E-02        -0.10037E-02         0.00000E+00
    0.21437E-02        -0.74208E-03         0.00000E+00
    0.16068E-02        -0.50797E-03         0.00000E+00
    0.10707E-02        -0.30434E-03         0.00000E+00
    0.53481E-03        -0.13414E-03         0.00000E+00
    0.00000E+00         0.00000E+00         0.00000E+00
    0.98757E-02        -0.55550E-02         0.00000E+00
    0.90933E-02        -0.50439E-02         0.00000E+00
    0.83226E-02        -0.45560E-02         0.00000E+00
    0.75729E-02        -0.40895E-02         0.00000E+00
    0.68492E-02        -0.36426E-02         0.00000E+00
    0.61528E-02        -0.32134E-02         0.00000E+00
    0.54823E-02        -0.28008E-02         0.00000E+00
    0.48348E-02        -0.24042E-02         0.00000E+00
    0.42063E-02        -0.20239E-02         0.00000E+00
    0.35921E-02        -0.16610E-02         0.00000E+00
    0.29877E-02        -0.13174E-02         0.00000E+00
    0.23888E-02        -0.99585E-03         0.00000E+00
    0.17920E-02        -0.69960E-03         0.00000E+00
    0.11950E-02        -0.43235E-03         0.00000E+00
    0.59726E-03        -0.19790E-03         0.00000E+00
    0.00000E+00         0.00000E+00         0.00000E+00
    0.10890E-01        -0.63886E-02         0.00000E+00
    0.10009E-01        -0.58424E-02         0.00000E+00
    0.91475E-02        -0.53192E-02         0.00000E+00
    0.83145E-02        -0.48156E-02         0.00000E+00
    0.75146E-02        -0.43284E-02         0.00000E+00
    0.67483E-02        -0.38552E-02         0.00000E+00
    0.60134E-02        -0.33942E-02         0.00000E+00
    0.53055E-02        -0.29448E-02         0.00000E+00
    0.46194E-02        -0.25073E-02         0.00000E+00
    0.39492E-02        -0.20830E-02         0.00000E+00
    0.32890E-02        -0.16744E-02         0.00000E+00
    0.26337E-02        -0.12846E-02         0.00000E+00
    0.19789E-02        -0.91754E-03         0.00000E+00
    0.13220E-02        -0.57784E-03         0.00000E+00
    0.66182E-03        -0.27034E-03         0.00000E+00
    0.00000E+00         0.00000E+00         0.00000E+00
    0.11883E-01        -0.73285E-02         0.00000E+00
    0.10897E-01        -0.67429E-02         0.00000E+00
    0.99418E-02        -0.61801E-02         0.00000E+00
    0.90254E-02        -0.56347E-02         0.00000E+00
    0.81512E-02        -0.51021E-02         0.00000E+00
    0.73184E-02        -0.45791E-02         0.00000E+00
    0.65231E-02        -0.40635E-02         0.00000E+00
    0.57595E-02        -0.35544E-02         0.00000E+00
    0.50205E-02        -0.30524E-02         0.00000E+00
    0.42988E-02        -0.25589E-02         0.00000E+00
    0.35870E-02        -0.20769E-02         0.00000E+00
    0.28785E-02        -0.16100E-02         0.00000E+00
    0.21680E-02        -0.11632E-02         0.00000E+00
    0.14519E-02        -0.74186E-03         0.00000E+00
    0.72883E-03        -0.35201E-03         0.00000E+00
    0.00000E+00         0.00000E+00         0.00000E+00
    0.12847E-01        -0.83833E-02         0.00000E+00
    0.11750E-01        -0.77535E-02         0.00000E+00
    0.10698E-01        -0.71459E-02         0.00000E+00
    0.96987E-02        -0.65530E-02         0.00000E+00
    0.87530E-02        -0.59691E-02         0.00000E+00
    0.78578E-02        -0.53899E-02         0.00000E+00
    0.70073E-02        -0.48127E-02         0.00000E+00
    0.61934E-02        -0.42366E-02         0.00000E+00
    0.54071E-02        -0.36621E-02         0.00000E+00
    0.46391E-02        -0.30911E-02         0.00000E+00
    0.38803E-02        -0.25269E-02         0.00000E+00
    0.31224E-02        -0.19740E-02         0.00000E+00
    0.23589E-02        -0.14380E-02         0.00000E+00
    0.15850E-02        -0.92537E-03         0.00000E+00
    0.79842E-03        -0.44343E-03         0.00000E+00
    0.00000E+00         0.00000E+00         0.00000E+00
    0.13770E-01        -0.95616E-02         0.00000E+00
    0.12556E-01        -0.88818E-02         0.00000E+00
    0.11407E-01        -0.82233E-02         0.00000E+00
    0.10326E-01        -0.75767E-02         0.00000E+00
    0.93125E-02        -0.69346E-02         0.00000E+00
    0.83602E-02        -0.62918E-02         0.00000E+00
    0.74605E-02        -0.56454E-02         0.00000E+00
    0.66028E-02        -0.49942E-02         0.00000E+00
    0.57757E-02        -0.43388E-02         0.00000E+00
    0.49675E-02        -0.36816E-02         0.00000E+00
    0.41671E-02        -0.30262E-02         0.00000E+00
    0.33644E-02        -0.23779E-02         0.00000E+00
    0.25511E-02        -0.17430E-02         0.00000E+00
    0.17209E-02        -0.11292E-02         0.00000E+00
    0.87059E-03        -0.54509E-03         0.00000E+00
    0.00000E+00         0.00000E+00         0.00000E+00
    0.14640E-01        -0.10871E-01         0.00000E+00
    0.13305E-01        -0.10135E-01         0.00000E+00
    0.12057E-01        -0.94185E-02         0.00000E+00
    0.10898E-01        -0.87108E-02         0.00000E+00
    0.98211E-02        -0.80027E-02         0.00000E+00
    0.88180E-02        -0.72884E-02         0.00000E+00
    0.78763E-02        -0.65644E-02         0.00000E+00
    0.69824E-02        -0.58295E-02         0.00000E+00
    0.61219E-02        -0.50844E-02         0.00000E+00
    0.52805E-02        -0.43318E-02         0.00000E+00
    0.44448E-02        -0.35759E-02         0.00000E+00
    0.36025E-02        -0.28226E-02         0.00000E+00
    0.27432E-02        -0.20791E-02         0.00000E+00
    0.18591E-02        -0.13541E-02         0.00000E+00
    0.94508E-03        -0.65736E-03         0.00000E+00
    0.00000E+00         0.00000E+00         0.00000E+00
    0.15439E-01        -0.12318E-01         0.00000E+00
    0.13979E-01        -0.11518E-01         0.00000E+00
    0.12635E-01        -0.10736E-01         0.00000E+00
    0.11401E-01        -0.99589E-02         0.00000E+00
    0.10268E-01        -0.91764E-02         0.00000E+00
    0.92223E-02        -0.83817E-02         0.00000E+00
    0.82471E-02        -0.75710E-02         0.00000E+00
    0.73255E-02        -0.67432E-02         0.00000E+00
    0.64400E-02        -0.58993E-02         0.00000E+00
    0.55735E-02        -0.50421E-02         0.00000E+00
    0.47096E-02        -0.41764E-02         0.00000E+00
    0.38339E-02        -0.33086E-02         0.00000E+00
    0.29334E-02        -0.24467E-02         0.00000E+00
    0.19982E-02        -0.16003E-02         0.00000E+00
    0.10214E-02        -0.78050E-03         0.00000E+00
    0.00000E+00         0.00000E+00         0.00000E+00
    0.16146E-01        -0.13906E-01         0.00000E+00
    0.14562E-01        -0.13034E-01         0.00000E+00
    0.13125E-01        -0.12178E-01         0.00000E+00
    0.11823E-01        -0.11323E-01         0.00000E+00
    0.10642E-01        -0.10456E-01         0.00000E+00
    0.95628E-02        -0.95716E-02         0.00000E+00
    0.85639E-02        -0.86648E-02         0.00000E+00
    0.76245E-02        -0.77347E-02         0.00000E+00
    0.67236E-02        -0.67825E-02         0.00000E+00
    0.58408E-02        -0.58116E-02         0.00000E+00
    0.49570E-02        -0.48268E-02         0.00000E+00
    0.40549E-02        -0.38353E-02         0.00000E+00
    0.31189E-02        -0.28454E-02         0.00000E+00
    0.21367E-02        -0.18677E-02         0.00000E+00
    0.10988E-02        -0.91454E-03         0.00000E+00
    0.00000E+00         0.00000E+00         0.00000E+00
    0.16740E-01        -0.15638E-01         0.00000E+00
    0.15033E-01        -0.14685E-01         0.00000E+00
    0.13509E-01        -0.13745E-01         0.00000E+00
    0.12149E-01        -0.12801E-01         0.00000E+00
    0.10930E-01        -0.11840E-01         0.00000E+00
    0.98281E-02        -0.10856E-01         0.00000E+00
    0.88167E-02        -0.98427E-02         0.00000E+00
    0.78705E-02        -0.88007E-02         0.00000E+00
    0.69647E-02        -0.77311E-02         0.00000E+00
    0.60757E-02        -0.66374E-02         0.00000E+00
    0.51811E-02        -0.55249E-02         0.00000E+00
    0.42607E-02        -0.44008E-02         0.00000E+00
    0.32962E-02        -0.32741E-02         0.00000E+00
    0.22720E-02        -0.21559E-02         0.00000E+00
    0.11760E-02        -0.10593E-02         0.00000E+00
    0.00000E+00         0.00000E+00         0.00000E+00
    0.17192E-01        -0.17510E-01         0.00000E+00
    0.15370E-01        -0.16467E-01         0.00000E+00
    0.13769E-01        -0.15433E-01         0.00000E+00
    0.12361E-01        -0.14390E-01         0.00000E+00
    0.11118E-01        -0.13324E-01         0.00000E+00
    0.10006E-01        -0.12228E-01         0.00000E+00
    0.89942E-02        -0.11099E-01         0.00000E+00
    0.80534E-02        -0.99356E-02         0.00000E+00
    0.71543E-02        -0.87397E-02         0.00000E+00
    0.62699E-02        -0.75149E-02         0.00000E+00
    0.53747E-02        -0.62667E-02         0.00000E+00
    0.44454E-02        -0.50023E-02         0.00000E+00
    0.34604E-02        -0.37307E-02         0.00000E+00
    0.24010E-02        -0.24634E-02         0.00000E+00
    0.12514E-02        -0.12143E-02         0.00000E+00
    0.00000E+00         0.00000E+00         0.00000E+00
    0.17475E-01        -0.19518E-01         0.00000E+00
    0.15547E-01        -0.18374E-01         0.00000E+00
    0.13883E-01        -0.17235E-01         0.00000E+00
    0.12443E-01        -0.16080E-01         0.00000E+00
    0.11189E-01        -0.14898E-01         0.00000E+00
    0.10081E-01        -0.13680E-01         0.00000E+00
    0.90841E-02        -0.12424E-01         0.00000E+00
    0.81617E-02        -0.11130E-01         0.00000E+00
    0.72818E-02        -0.97998E-02         0.00000E+00
    0.64137E-02        -0.84366E-02         0.00000E+00
    0.55291E-02        -0.70460E-02         0.00000E+00
    0.46014E-02        -0.56348E-02         0.00000E+00
    0.36057E-02        -0.42119E-02         0.00000E+00
    0.25196E-02        -0.27885E-02         0.00000E+00
    0.13230E-02        -0.13786E-02         0.00000E+00
    0.00000E+00         0.00000E+00         0.00000E+00
    0.17556E-01        -0.21650E-01         0.00000E+00
    0.15539E-01        -0.20393E-01         0.00000E+00
    0.13828E-01        -0.19136E-01         0.00000E+00
    0.12374E-01        -0.17858E-01         0.00000E+00
    0.11127E-01        -0.16547E-01         0.00000E+00
    0.10041E-01        -0.15197E-01         0.00000E+00
    0.90730E-02        -0.13805E-01         0.00000E+00
    0.81830E-02        -0.12372E-01         0.00000E+00
    0.73351E-02        -0.10900E-01         0.00000E+00
    0.64959E-02        -0.93924E-02         0.00000E+00
    0.56339E-02        -0.78544E-02         0.00000E+00
    0.47195E-02        -0.62920E-02         0.00000E+00
    0.37246E-02        -0.47131E-02         0.00000E+00
    0.26222E-02        -0.31282E-02         0.00000E+00
    0.13879E-02        -0.15512E-02         0.00000E+00
    0.00000E+00         0.00000E+00         0.00000E+00
    0.17401E-01        -0.23886E-01         0.00000E+00
    0.15317E-01        -0.22507E-01         0.00000E+00
    0.13584E-01        -0.21119E-01         0.00000E+00
    0.12137E-01        -0.19705E-01         0.00000E+00
    0.10917E-01        -0.18254E-01         0.00000E+00
    0.98701E-02        -0.16760E-01         0.00000E+00
    0.89468E-02        -0.15223E-01         0.00000E+00
    0.81035E-02        -0.13643E-01         0.00000E+00
    0.73010E-02        -0.12024E-01         0.00000E+00
    0.65033E-02        -0.10369E-01         0.00000E+00
    0.56767E-02        -0.86809E-02         0.00000E+00
    0.47888E-02        -0.69652E-02         0.00000E+00
    0.38078E-02        -0.52282E-02         0.00000E+00
    0.27024E-02        -0.34789E-02         0.00000E+00
    0.14425E-02        -0.17303E-02         0.00000E+00
    0.00000E+00         0.00000E+00         0.00000E+00
    0.16976E-01        -0.26203E-01         0.00000E+00
    0.14855E-01        -0.24688E-01         0.00000E+00
    0.13126E-01        -0.23158E-01         0.00000E+00
    0.11712E-01        -0.21596E-01         0.00000E+00
    0.10542E-01        -0.19992E-01         0.00000E+00
    0.95528E-02        -0.18345E-01         0.00000E+00
    0.86907E-02        -0.16654E-01         0.00000E+00
    0.79083E-02        -0.14923E-01         0.00000E+00
    0.71643E-02        -0.13154E-01         0.00000E+00
    0.64210E-02        -0.11349E-01         0.00000E+00
    0.56431E-02        -0.95116E-02         0.00000E+00
    0.47958E-02        -0.76436E-02         0.00000E+00
    0.38440E-02        -0.57495E-02         0.00000E+00
    0.27517E-02        -0.38359E-02         0.00000E+00
    0.14824E-02        -0.19138E-02         0.00000E+00
    0.00000E+00         0.00000E+00         0.00000E+00
    0.16245E-01        -0.28567E-01         0.00000E+00
    0.14123E-01        -0.26905E-01         0.00000E+00
    0.12433E-01        -0.25220E-01         0.00000E+00
    0.11082E-01        -0.23496E-01         0.00000E+00
    0.99856E-02        -0.21729E-01         0.00000E+00
    0.90744E-02        -0.19920E-01         0.00000E+00
    0.82894E-02        -0.18070E-01         0.00000E+00
    0.75815E-02        -0.16184E-01         0.00000E+00
    0.69082E-02        -0.14265E-01         0.00000E+00
    0.62317E-02        -0.12313E-01         0.00000E+00
    0.55158E-02        -0.10330E-01         0.00000E+00
    0.47244E-02        -0.83142E-02         0.00000E+00
    0.38195E-02        -0.62678E-02         0.00000E+00
    0.27599E-02        -0.41936E-02         0.00000E+00
    0.15019E-02        -0.20994E-02         0.00000E+00
    0.00000E+00         0.00000E+00         0.00000E+00
    0.15173E-01        -0.30935E-01         0.00000E+00
    0.13096E-01        -0.29116E-01         0.00000E+00
    0.11486E-01        -0.27262E-01         0.00000E+00
    0.10231E-01        -0.25365E-01         0.00000E+00
    0.92344E-02        -0.23426E-01         0.00000E+00
    0.84204E-02        -0.21447E-01         0.00000E+00
    0.77275E-02        -0.19436E-01         0.00000E+00
    0.71059E-02        -0.17396E-01         0.00000E+00
    0.65144E-02        -0.15330E-01         0.00000E+00
    0.59159E-02        -0.13237E-01         0.00000E+00
    0.52753E-02        -0.11115E-01         0.00000E+00
    0.45559E-02        -0.89615E-02         0.00000E+00
    0.37174E-02        -0.67720E-02         0.00000E+00
    0.27142E-02        -0.45451E-02         0.00000E+00
    0.14941E-02        -0.22841E-02         0.00000E+00
    0.00000E+00         0.00000E+00         0.00000E+00
    0.13727E-01        -0.33255E-01         0.00000E+00
    0.11752E-01        -0.31266E-01         0.00000E+00
    0.10269E-01        -0.29233E-01         0.00000E+00
    0.91461E-02        -0.27153E-01         0.00000E+00
    0.82759E-02        -0.25032E-01         0.00000E+00
    0.75773E-02        -0.22882E-01         0.00000E+00
    0.69889E-02        -0.20710E-01         0.00000E+00
    0.64634E-02        -0.18521E-01         0.00000E+00
    0.59623E-02        -0.16316E-01         0.00000E+00
    0.54517E-02        -0.14093E-01         0.00000E+00
    0.48985E-02        -0.11846E-01         0.00000E+00
    0.42675E-02        -0.95676E-02         0.00000E+00
    0.35175E-02        -0.72492E-02         0.00000E+00
    0.25987E-02        -0.48827E-02         0.00000E+00
    0.14499E-02        -0.24644E-02         0.00000E+00
    0.00000E+00         0.00000E+00         0.00000E+00
    0.11875E-01        -0.35459E-01         0.00000E+00
    0.10071E-01        -0.33292E-01         0.00000E+00
    0.87710E-02        -0.31068E-01         0.00000E+00
    0.78194E-02        -0.28796E-01         0.00000E+00
    0.71001E-02        -0.26493E-01         0.00000E+00
    0.65317E-02        -0.24173E-01         0.00000E+00
    0.60571E-02        -0.21848E-01         0.00000E+00
    0.56343E-02        -0.19521E-01         0.00000E+00
    0.52299E-02        -0.17190E-01         0.00000E+00
    0.48146E-02        -0.14852E-01         0.00000E+00
    0.43597E-02        -0.12497E-01         0.00000E+00
    0.38330E-02        -0.10113E-01         0.00000E+00
    0.31949E-02        -0.76847E-02         0.00000E+00
    0.23931E-02        -0.51971E-02         0.00000E+00
    0.13577E-02        -0.26365E-02         0.00000E+00
    0.00000E+00         0.00000E+00         0.00000E+00
    0.95911E-02        -0.37466E-01         0.00000E+00
    0.80431E-02        -0.35112E-01         0.00000E+00
    0.69888E-02        -0.32689E-01         0.00000E+00
    0.62466E-02        -0.30222E-01         0.00000E+00
    0.56980E-02        -0.27741E-01         0.00000E+00
    0.52697E-02        -0.25265E-01         0.00000E+00
    0.49140E-02        -0.22802E-01         0.00000E+00
    0.45972E-02        -0.20354E-01         0.00000E+00
    0.42930E-02        -0.17918E-01         0.00000E+00
    0.39784E-02        -0.15484E-01         0.00000E+00
    0.36304E-02        -0.13041E-01         0.00000E+00
    0.32223E-02        -0.10574E-01         0.00000E+00
    0.27194E-02        -0.80611E-02         0.00000E+00
    0.20714E-02        -0.54773E-02         0.00000E+00
    0.12017E-02        -0.27960E-02         0.00000E+00
    0.00000E+00         0.00000E+00         0.00000E+00
    0.68532E-02        -0.39171E-01         0.00000E+00
    0.56703E-02        -0.36623E-01         0.00000E+00
    0.49285E-02        -0.33996E-01         0.00000E+00
    0.44257E-02        -0.31345E-01         0.00000E+00
    0.40592E-02        -0.28707E-01         0.00000E+00
    0.37749E-02        -0.26099E-01         0.00000E+00
    0.35392E-02        -0.23526E-01         0.00000E+00
    0.33290E-02        -0.20983E-01         0.00000E+00
    0.31263E-02        -0.18465E-01         0.00000E+00
    0.29154E-02        -0.15960E-01         0.00000E+00
    0.26804E-02        -0.13454E-01         0.00000E+00
    0.24022E-02        -0.10928E-01         0.00000E+00
    0.20550E-02        -0.83574E-02         0.00000E+00
    0.15984E-02        -0.57087E-02         0.00000E+00
    0.95823E-03        -0.29368E-02         0.00000E+00
    0.00000E+00         0.00000E+00         0.00000E+00
    0.36476E-02        -0.40429E-01         0.00000E+00
    0.29756E-02        -0.37681E-01         0.00000E+00
    0.26012E-02        -0.34866E-01         0.00000E+00
    0.23499E-02        -0.32071E-01         0.00000E+00
    0.21678E-02        -0.29322E-01         0.00000E+00
    0.20267E-02        -0.26625E-01         0.00000E+00
    0.19096E-02        -0.23978E-01         0.00000E+00
    0.18050E-02        -0.21375E-01         0.00000E+00
    0.17038E-02        -0.18806E-01         0.00000E+00
    0.15981E-02        -0.16257E-01         0.00000E+00
    0.14797E-02        -0.13713E-01         0.00000E+00
    0.13388E-02        -0.11153E-01         0.00000E+00
    0.11617E-02        -0.85498E-02         0.00000E+00
    0.92560E-03        -0.58679E-02         0.00000E+00
    0.58686E-03        -0.30499E-02         0.00000E+00
    0.00000E+00         0.00000E+00         0.00000E+00
    0.00000E+00        -0.40985E-01         0.00000E+00
    0.00000E+00        -0.38079E-01         0.00000E+00
    0.00000E+00        -0.35176E-01         0.00000E+00
    0.00000E+00        -0.32324E-01         0.00000E+00
    0.00000E+00        -0.29533E-01         0.00000E+00
    0.00000E+00        -0.26804E-01         0.00000E+00
    0.00000E+00        -0.24132E-01         0.00000E+00
    0.00000E+00        -0.21508E-01         0.00000E+00
    0.00000E+00        -0.18922E-01         0.00000E+00
    0.00000E+00        -0.16358E-01         0.00000E+00
    0.00000E+00        -0.13801E-01         0.00000E+00
    0.00000E+00        -0.11229E-01         0.00000E+00
    0.00000E+00        -0.86169E-02         0.00000E+00
    0.00000E+00        -0.59257E-02         0.00000E+00
    0.00000E+00        -0.30983E-02         0.00000E+00
    0.00000E+00         0.00000E+00         0.00000E+00
CELL_DATA        450
VECTORS vDarcy double 
    0.29166E-08         0.12848E-10         0.00000E+00
    0.28750E-08         0.28555E-10         0.00000E+00
    0.28092E-08         0.37128E-10         0.00000E+00
    0.27300E-08         0.41919E-10         0.00000E+00
    0.26436E-08         0.44293E-10         0.00000E+00
    0.25543E-08         0.44980E-10         0.00000E+00
    0.24648E-08         0.44415E-10         0.00000E+00
    0.23774E-08         0.42869E-10         0.00000E+00
    0.22939E-08         0.40504E-10         0.00000E+00
    0.22159E-08         0.37406E-10         0.00000E+00
    0.21449E-08         0.33589E-10         0.00000E+00
    0.20822E-08         0.28991E-10         0.00000E+00
    0.20297E-08         0.23442E-10         0.00000E+00
    0.19897E-08         0.16555E-10         0.00000E+00
    0.19657E-08         0.73798E-11         0.00000E+00
    0.27148E-08         0.31584E-10         0.00000E+00
    0.26915E-08         0.74425E-10         0.00000E+00
    0.26485E-08         0.99741E-10         0.00000E+00
    0.25922E-08         0.11454E-09         0.00000E+00
    0.25277E-08         0.12232E-09         0.00000E+00
    0.24587E-08         0.12509E-09         0.00000E+00
    0.23882E-08         0.12410E-09         0.00000E+00
    0.23184E-08         0.12011E-09         0.00000E+00
    0.22514E-08         0.11361E-09         0.00000E+00
    0.21887E-08         0.10485E-09         0.00000E+00
    0.21319E-08         0.93879E-10         0.00000E+00
    0.20825E-08         0.80535E-10         0.00000E+00
    0.20425E-08         0.64346E-10         0.00000E+00
    0.20137E-08         0.44323E-10         0.00000E+00
    0.19990E-08         0.18264E-10         0.00000E+00
    0.25813E-08         0.40986E-10         0.00000E+00
    0.25670E-08         0.10242E-09         0.00000E+00
    0.25393E-08         0.14212E-09         0.00000E+00
    0.25008E-08         0.16670E-09         0.00000E+00
    0.24548E-08         0.18051E-09         0.00000E+00
    0.24041E-08         0.18634E-09         0.00000E+00
    0.23512E-08         0.18601E-09         0.00000E+00
    0.22982E-08         0.18072E-09         0.00000E+00
    0.22469E-08         0.17120E-09         0.00000E+00
    0.21988E-08         0.15788E-09         0.00000E+00
    0.21555E-08         0.14085E-09         0.00000E+00
    0.21184E-08         0.11990E-09         0.00000E+00
    0.20889E-08         0.94421E-10         0.00000E+00
    0.20685E-08         0.63220E-10         0.00000E+00
    0.20583E-08         0.24226E-10         0.00000E+00
    0.25129E-08         0.46488E-10         0.00000E+00
    0.25045E-08         0.11941E-09         0.00000E+00
    0.24876E-08         0.16949E-09         0.00000E+00
    0.24631E-08         0.20209E-09         0.00000E+00
    0.24326E-08         0.22141E-09         0.00000E+00
    0.23980E-08         0.23047E-09         0.00000E+00
    0.23612E-08         0.23138E-09         0.00000E+00
    0.23238E-08         0.22559E-09         0.00000E+00
    0.22872E-08         0.21405E-09         0.00000E+00
    0.22528E-08         0.19729E-09         0.00000E+00
    0.22220E-08         0.17549E-09         0.00000E+00
    0.21958E-08         0.14848E-09         0.00000E+00
    0.21753E-08         0.11568E-09         0.00000E+00
    0.21614E-08         0.76081E-10         0.00000E+00
    0.21545E-08         0.28327E-10         0.00000E+00
    0.25117E-08         0.49324E-10         0.00000E+00
    0.25078E-08         0.12874E-09         0.00000E+00
    0.24992E-08         0.18539E-09         0.00000E+00
    0.24860E-08         0.22369E-09         0.00000E+00
    0.24687E-08         0.24735E-09         0.00000E+00
    0.24484E-08         0.25925E-09         0.00000E+00
    0.24260E-08         0.26157E-09         0.00000E+00
    0.24028E-08         0.25585E-09         0.00000E+00
    0.23799E-08         0.24313E-09         0.00000E+00
    0.23582E-08         0.22406E-09         0.00000E+00
    0.23387E-08         0.19889E-09         0.00000E+00
    0.23224E-08         0.16754E-09         0.00000E+00
    0.23097E-08         0.12960E-09         0.00000E+00
    0.23013E-08         0.84360E-10         0.00000E+00
    0.22972E-08         0.30937E-10         0.00000E+00
    0.25822E-08         0.50064E-10         0.00000E+00
    0.25820E-08         0.13201E-09         0.00000E+00
    0.25804E-08         0.19198E-09         0.00000E+00
    0.25768E-08         0.23365E-09         0.00000E+00
    0.25710E-08         0.26022E-09         0.00000E+00
    0.25632E-08         0.27431E-09         0.00000E+00
    0.25540E-08         0.27795E-09         0.00000E+00
    0.25438E-08         0.27266E-09         0.00000E+00
    0.25333E-08         0.25950E-09         0.00000E+00
    0.25233E-08         0.23918E-09         0.00000E+00
    0.25143E-08         0.21203E-09         0.00000E+00
    0.25069E-08         0.17809E-09         0.00000E+00
    0.25013E-08         0.13714E-09         0.00000E+00
    0.24977E-08         0.88707E-10         0.00000E+00
    0.24961E-08         0.32254E-10         0.00000E+00
    0.27307E-08         0.48988E-10         0.00000E+00
    0.27337E-08         0.13009E-09         0.00000E+00
    0.27384E-08         0.19054E-09         0.00000E+00
    0.27433E-08         0.23345E-09         0.00000E+00
    0.27478E-08         0.26152E-09         0.00000E+00
    0.27513E-08         0.27702E-09         0.00000E+00
    0.27539E-08         0.28176E-09         0.00000E+00
    0.27555E-08         0.27714E-09         0.00000E+00
    0.27566E-08         0.26418E-09         0.00000E+00
    0.27573E-08         0.24359E-09         0.00000E+00
    0.27580E-08         0.21579E-09         0.00000E+00
    0.27587E-08         0.18091E-09         0.00000E+00
    0.27596E-08         0.13889E-09         0.00000E+00
    0.27605E-08         0.89490E-10         0.00000E+00
    0.27611E-08         0.32372E-10         0.00000E+00
    0.29649E-08         0.46243E-10         0.00000E+00
    0.29710E-08         0.12348E-09         0.00000E+00
    0.29813E-08         0.18192E-09         0.00000E+00
    0.29940E-08         0.22414E-09         0.00000E+00
    0.30077E-08         0.25238E-09         0.00000E+00
    0.30216E-08         0.26852E-09         0.00000E+00
    0.30349E-08         0.27409E-09         0.00000E+00
    0.30475E-08         0.27031E-09         0.00000E+00
    0.30591E-08         0.25811E-09         0.00000E+00
    0.30697E-08         0.23816E-09         0.00000E+00
    0.30792E-08         0.21091E-09         0.00000E+00
    0.30875E-08         0.17660E-09         0.00000E+00
    0.30943E-08         0.13530E-09         0.00000E+00
    0.30994E-08         0.86949E-10         0.00000E+00
    0.31022E-08         0.31346E-10         0.00000E+00
    0.32935E-08         0.41910E-10         0.00000E+00
    0.33024E-08         0.11250E-09         0.00000E+00
    0.33180E-08         0.16666E-09         0.00000E+00
    0.33379E-08         0.20648E-09         0.00000E+00
    0.33602E-08         0.23370E-09         0.00000E+00
    0.33835E-08         0.24979E-09         0.00000E+00
    0.34067E-08         0.25594E-09         0.00000E+00
    0.34292E-08         0.25314E-09         0.00000E+00
    0.34505E-08         0.24218E-09         0.00000E+00
    0.34701E-08         0.22367E-09         0.00000E+00
    0.34877E-08         0.19807E-09         0.00000E+00
    0.35030E-08         0.16570E-09         0.00000E+00
    0.35154E-08         0.12675E-09         0.00000E+00
    0.35244E-08         0.81267E-10         0.00000E+00
    0.35292E-08         0.29214E-10         0.00000E+00
    0.37257E-08         0.36042E-10         0.00000E+00
    0.37374E-08         0.97359E-10         0.00000E+00
    0.37580E-08         0.14522E-09         0.00000E+00
    0.37845E-08         0.18112E-09         0.00000E+00
    0.38147E-08         0.20629E-09         0.00000E+00
    0.38466E-08         0.22172E-09         0.00000E+00
    0.38788E-08         0.22823E-09         0.00000E+00
    0.39103E-08         0.22655E-09         0.00000E+00
    0.39402E-08         0.21727E-09         0.00000E+00
    0.39680E-08         0.20092E-09         0.00000E+00
    0.39931E-08         0.17795E-09         0.00000E+00
    0.40147E-08         0.14873E-09         0.00000E+00
    0.40322E-08         0.11355E-09         0.00000E+00
    0.40449E-08         0.72621E-10         0.00000E+00
    0.40517E-08         0.26018E-10         0.00000E+00
    0.42713E-08         0.28695E-10         0.00000E+00
    0.42856E-08         0.78295E-10         0.00000E+00
    0.43108E-08         0.11801E-09         0.00000E+00
    0.43434E-08         0.14869E-09         0.00000E+00
    0.43807E-08         0.17094E-09         0.00000E+00
    0.44202E-08         0.18522E-09         0.00000E+00
    0.44604E-08         0.19196E-09         0.00000E+00
    0.44999E-08         0.19152E-09         0.00000E+00
    0.45376E-08         0.18431E-09         0.00000E+00
    0.45727E-08         0.17074E-09         0.00000E+00
    0.46043E-08         0.15123E-09         0.00000E+00
    0.46316E-08         0.12622E-09         0.00000E+00
    0.46538E-08         0.96092E-10         0.00000E+00
    0.46698E-08         0.61209E-10         0.00000E+00
    0.46784E-08         0.21807E-10         0.00000E+00
    0.49397E-08         0.19948E-10         0.00000E+00
    0.49563E-08         0.55591E-10         0.00000E+00
    0.49856E-08         0.85564E-10         0.00000E+00
    0.50237E-08         0.10992E-09         0.00000E+00
    0.50671E-08         0.12856E-09         0.00000E+00
    0.51134E-08         0.14134E-09         0.00000E+00
    0.51604E-08         0.14819E-09         0.00000E+00
    0.52067E-08         0.14915E-09         0.00000E+00
    0.52510E-08         0.14435E-09         0.00000E+00
    0.52922E-08         0.13409E-09         0.00000E+00
    0.53294E-08         0.11875E-09         0.00000E+00
    0.53617E-08         0.98816E-10         0.00000E+00
    0.53879E-08         0.74821E-10         0.00000E+00
    0.54068E-08         0.47286E-10         0.00000E+00
    0.54171E-08         0.16654E-10         0.00000E+00
    0.57395E-08         0.99302E-11         0.00000E+00
    0.57581E-08         0.29653E-10         0.00000E+00
    0.57910E-08         0.48553E-10         0.00000E+00
    0.58336E-08         0.65730E-10         0.00000E+00
    0.58821E-08         0.80250E-10         0.00000E+00
    0.59337E-08         0.91293E-10         0.00000E+00
    0.59862E-08         0.98241E-10         0.00000E+00
    0.60379E-08         0.10072E-09         0.00000E+00
    0.60873E-08         0.98622E-10         0.00000E+00
    0.61335E-08         0.92080E-10         0.00000E+00
    0.61752E-08         0.81457E-10         0.00000E+00
    0.62114E-08         0.67303E-10         0.00000E+00
    0.62409E-08         0.50297E-10         0.00000E+00
    0.62623E-08         0.31180E-10         0.00000E+00
    0.62739E-08         0.10663E-10         0.00000E+00
    0.66781E-08        -0.11647E-11         0.00000E+00
    0.66983E-08         0.10502E-11         0.00000E+00
    0.67339E-08         0.78849E-11         0.00000E+00
    0.67797E-08         0.17297E-10         0.00000E+00
    0.68319E-08         0.27396E-10         0.00000E+00
    0.68873E-08         0.36587E-10         0.00000E+00
    0.69435E-08         0.43653E-10         0.00000E+00
    0.69989E-08         0.47789E-10         0.00000E+00
    0.70520E-08         0.48597E-10         0.00000E+00
    0.71015E-08         0.46066E-10         0.00000E+00
    0.71463E-08         0.40534E-10         0.00000E+00
    0.71853E-08         0.32634E-10         0.00000E+00
    0.72172E-08         0.23228E-10         0.00000E+00
    0.72404E-08         0.13325E-10         0.00000E+00
    0.72530E-08         0.39757E-11         0.00000E+00
    0.77605E-08        -0.13057E-10         0.00000E+00
    0.77816E-08        -0.29435E-10         0.00000E+00
    0.78188E-08        -0.35253E-10         0.00000E+00
    0.78664E-08        -0.33882E-10         0.00000E+00
    0.79204E-08        -0.28300E-10         0.00000E+00
    0.79776E-08        -0.20953E-10         0.00000E+00
    0.80357E-08        -0.13703E-10         0.00000E+00
    0.80928E-08        -0.78155E-11         0.00000E+00
    0.81474E-08        -0.39803E-11         0.00000E+00
    0.81985E-08        -0.23548E-11         0.00000E+00
    0.82448E-08        -0.26171E-11         0.00000E+00
    0.82853E-08        -0.40293E-11         0.00000E+00
    0.83184E-08        -0.55108E-11         0.00000E+00
    0.83426E-08        -0.57294E-11         0.00000E+00
    0.83558E-08        -0.32166E-11         0.00000E+00
    0.89884E-08        -0.25367E-10         0.00000E+00
    0.90097E-08        -0.60782E-10         0.00000E+00
    0.90469E-08        -0.79352E-10         0.00000E+00
    0.90945E-08        -0.85959E-10         0.00000E+00
    0.91483E-08        -0.84772E-10         0.00000E+00
    0.92050E-08        -0.79154E-10         0.00000E+00
    0.92625E-08        -0.71637E-10         0.00000E+00
    0.93190E-08        -0.63954E-10         0.00000E+00
    0.93731E-08        -0.57084E-10         0.00000E+00
    0.94237E-08        -0.51325E-10         0.00000E+00
    0.94696E-08        -0.46355E-10         0.00000E+00
    0.95098E-08        -0.41312E-10         0.00000E+00
    0.95429E-08        -0.34865E-10         0.00000E+00
    0.95672E-08        -0.25307E-10         0.00000E+00
    0.95805E-08        -0.10671E-10         0.00000E+00
    0.10359E-07        -0.37609E-10         0.00000E+00
    0.10380E-07        -0.91713E-10         0.00000E+00
    0.10415E-07        -0.12257E-09         0.00000E+00
    0.10461E-07        -0.13673E-09         0.00000E+00
    0.10512E-07        -0.13961E-09         0.00000E+00
    0.10565E-07        -0.13552E-09         0.00000E+00
    0.10620E-07        -0.12766E-09         0.00000E+00
    0.10673E-07        -0.11822E-09         0.00000E+00
    0.10724E-07        -0.10844E-09         0.00000E+00
    0.10772E-07        -0.98754E-10         0.00000E+00
    0.10815E-07        -0.88823E-10         0.00000E+00
    0.10854E-07        -0.77643E-10         0.00000E+00
    0.10885E-07        -0.63611E-10         0.00000E+00
    0.10908E-07        -0.44605E-10         0.00000E+00
    0.10921E-07        -0.18091E-10         0.00000E+00
    0.11865E-07        -0.49189E-10         0.00000E+00
    0.11883E-07        -0.12071E-09         0.00000E+00
    0.11916E-07        -0.16278E-09         0.00000E+00
    0.11956E-07        -0.18368E-09         0.00000E+00
    0.12002E-07        -0.19012E-09         0.00000E+00
    0.12050E-07        -0.18730E-09         0.00000E+00
    0.12098E-07        -0.17907E-09         0.00000E+00
    0.12146E-07        -0.16801E-09         0.00000E+00
    0.12191E-07        -0.15561E-09         0.00000E+00
    0.12234E-07        -0.14239E-09         0.00000E+00
    0.12273E-07        -0.12800E-09         0.00000E+00
    0.12307E-07        -0.11130E-09         0.00000E+00
    0.12335E-07        -0.90382E-10         0.00000E+00
    0.12356E-07        -0.62710E-10         0.00000E+00
    0.12368E-07        -0.25131E-10         0.00000E+00
    0.13491E-07        -0.59419E-10         0.00000E+00
    0.13506E-07        -0.14604E-09         0.00000E+00
    0.13533E-07        -0.19760E-09         0.00000E+00
    0.13566E-07        -0.22408E-09         0.00000E+00
    0.13604E-07        -0.23341E-09         0.00000E+00
    0.13643E-07        -0.23162E-09         0.00000E+00
    0.13682E-07        -0.22306E-09         0.00000E+00
    0.13721E-07        -0.21066E-09         0.00000E+00
    0.13759E-07        -0.19608E-09         0.00000E+00
    0.13794E-07        -0.17993E-09         0.00000E+00
    0.13826E-07        -0.16182E-09         0.00000E+00
    0.13854E-07        -0.14046E-09         0.00000E+00
    0.13878E-07        -0.11373E-09         0.00000E+00
    0.13896E-07        -0.78630E-10         0.00000E+00
    0.13906E-07        -0.31403E-10         0.00000E+00
    0.15216E-07        -0.67542E-10         0.00000E+00
    0.15227E-07        -0.16586E-09         0.00000E+00
    0.15246E-07        -0.22453E-09         0.00000E+00
    0.15269E-07        -0.25514E-09         0.00000E+00
    0.15296E-07        -0.26662E-09         0.00000E+00
    0.15323E-07        -0.26564E-09         0.00000E+00
    0.15351E-07        -0.25693E-09         0.00000E+00
    0.15379E-07        -0.24362E-09         0.00000E+00
    0.15406E-07        -0.22749E-09         0.00000E+00
    0.15432E-07        -0.20916E-09         0.00000E+00
    0.15455E-07        -0.18825E-09         0.00000E+00
    0.15476E-07        -0.16337E-09         0.00000E+00
    0.15493E-07        -0.13218E-09         0.00000E+00
    0.15506E-07        -0.91344E-10         0.00000E+00
    0.15513E-07        -0.36497E-10         0.00000E+00
    0.17009E-07        -0.72771E-10         0.00000E+00
    0.17014E-07        -0.17829E-09         0.00000E+00
    0.17024E-07        -0.24115E-09         0.00000E+00
    0.17035E-07        -0.27421E-09         0.00000E+00
    0.17048E-07        -0.28711E-09         0.00000E+00
    0.17062E-07        -0.28686E-09         0.00000E+00
    0.17077E-07        -0.27834E-09         0.00000E+00
    0.17091E-07        -0.26471E-09         0.00000E+00
    0.17106E-07        -0.24778E-09         0.00000E+00
    0.17120E-07        -0.22818E-09         0.00000E+00
    0.17133E-07        -0.20553E-09         0.00000E+00
    0.17145E-07        -0.17842E-09         0.00000E+00
    0.17154E-07        -0.14439E-09         0.00000E+00
    0.17162E-07        -0.99866E-10         0.00000E+00
    0.17166E-07        -0.39999E-10         0.00000E+00
    0.18833E-07        -0.74353E-10         0.00000E+00
    0.18832E-07        -0.18162E-09         0.00000E+00
    0.18830E-07        -0.24533E-09         0.00000E+00
    0.18827E-07        -0.27910E-09         0.00000E+00
    0.18825E-07        -0.29280E-09         0.00000E+00
    0.18824E-07        -0.29338E-09         0.00000E+00
    0.18823E-07        -0.28556E-09         0.00000E+00
    0.18824E-07        -0.27236E-09         0.00000E+00
    0.18825E-07        -0.25550E-09         0.00000E+00
    0.18827E-07        -0.23560E-09         0.00000E+00
    0.18829E-07        -0.21232E-09         0.00000E+00
    0.18830E-07        -0.18433E-09         0.00000E+00
    0.18831E-07        -0.14922E-09         0.00000E+00
    0.18832E-07        -0.10333E-09         0.00000E+00
    0.18832E-07        -0.41527E-10         0.00000E+00
    0.20642E-07        -0.71648E-10         0.00000E+00
    0.20633E-07        -0.17448E-09         0.00000E+00
    0.20619E-07        -0.23553E-09         0.00000E+00
    0.20601E-07        -0.26839E-09         0.00000E+00
    0.20583E-07        -0.28250E-09         0.00000E+00
    0.20566E-07        -0.28424E-09         0.00000E+00
    0.20551E-07        -0.27782E-09         0.00000E+00
    0.20537E-07        -0.26591E-09         0.00000E+00
    0.20525E-07        -0.25003E-09         0.00000E+00
    0.20514E-07        -0.23079E-09         0.00000E+00
    0.20504E-07        -0.20794E-09         0.00000E+00
    0.20495E-07        -0.18037E-09         0.00000E+00
    0.20487E-07        -0.14590E-09         0.00000E+00
    0.20481E-07        -0.10108E-09         0.00000E+00
    0.20477E-07        -0.40760E-10         0.00000E+00
    0.22383E-07        -0.64220E-10         0.00000E+00
    0.22366E-07        -0.15612E-09         0.00000E+00
    0.22339E-07        -0.21117E-09         0.00000E+00
    0.22308E-07        -0.24187E-09         0.00000E+00
    0.22275E-07        -0.25634E-09         0.00000E+00
    0.22243E-07        -0.25981E-09         0.00000E+00
    0.22213E-07        -0.25560E-09         0.00000E+00
    0.22187E-07        -0.24585E-09         0.00000E+00
    0.22162E-07        -0.23182E-09         0.00000E+00
    0.22140E-07        -0.21408E-09         0.00000E+00
    0.22119E-07        -0.19256E-09         0.00000E+00
    0.22100E-07        -0.16650E-09         0.00000E+00
    0.22083E-07        -0.13423E-09         0.00000E+00
    0.22070E-07        -0.92813E-10         0.00000E+00
    0.22062E-07        -0.37484E-10         0.00000E+00
    0.23997E-07        -0.51956E-10         0.00000E+00
    0.23974E-07        -0.12673E-09         0.00000E+00
    0.23936E-07        -0.17306E-09         0.00000E+00
    0.23891E-07        -0.20094E-09         0.00000E+00
    0.23846E-07        -0.21612E-09         0.00000E+00
    0.23803E-07        -0.22202E-09         0.00000E+00
    0.23762E-07        -0.22083E-09         0.00000E+00
    0.23725E-07        -0.21401E-09         0.00000E+00
    0.23691E-07        -0.20252E-09         0.00000E+00
    0.23659E-07        -0.18693E-09         0.00000E+00
    0.23629E-07        -0.16740E-09         0.00000E+00
    0.23602E-07        -0.14363E-09         0.00000E+00
    0.23578E-07        -0.11471E-09         0.00000E+00
    0.23558E-07        -0.78643E-10         0.00000E+00
    0.23547E-07        -0.31633E-10         0.00000E+00
    0.25424E-07        -0.35213E-10         0.00000E+00
    0.25396E-07        -0.87825E-10         0.00000E+00
    0.25350E-07        -0.12397E-09         0.00000E+00
    0.25298E-07        -0.14916E-09         0.00000E+00
    0.25245E-07        -0.16566E-09         0.00000E+00
    0.25195E-07        -0.17462E-09         0.00000E+00
    0.25148E-07        -0.17697E-09         0.00000E+00
    0.25104E-07        -0.17352E-09         0.00000E+00
    0.25064E-07        -0.16499E-09         0.00000E+00
    0.25026E-07        -0.15195E-09         0.00000E+00
    0.24990E-07        -0.13478E-09         0.00000E+00
    0.24958E-07        -0.11372E-09         0.00000E+00
    0.24928E-07        -0.88751E-10         0.00000E+00
    0.24904E-07        -0.59315E-10         0.00000E+00
    0.24889E-07        -0.23340E-10         0.00000E+00
    0.26604E-07        -0.15031E-10         0.00000E+00
    0.26574E-07        -0.42938E-10         0.00000E+00
    0.26527E-07        -0.69323E-10         0.00000E+00
    0.26475E-07        -0.92719E-10         0.00000E+00
    0.26422E-07        -0.11097E-09         0.00000E+00
    0.26371E-07        -0.12303E-09         0.00000E+00
    0.26323E-07        -0.12879E-09         0.00000E+00
    0.26278E-07        -0.12863E-09         0.00000E+00
    0.26236E-07        -0.12311E-09         0.00000E+00
    0.26196E-07        -0.11278E-09         0.00000E+00
    0.26159E-07        -0.98206E-10         0.00000E+00
    0.26125E-07        -0.79993E-10         0.00000E+00
    0.26094E-07        -0.58992E-10         0.00000E+00
    0.26068E-07        -0.36427E-10         0.00000E+00
    0.26052E-07        -0.13008E-10         0.00000E+00
    0.27481E-07         0.63641E-11         0.00000E+00
    0.27456E-07         0.10944E-11         0.00000E+00
    0.27418E-07        -0.18368E-10         0.00000E+00
    0.27376E-07        -0.40730E-10         0.00000E+00
    0.27333E-07        -0.60019E-10         0.00000E+00
    0.27290E-07        -0.73902E-10         0.00000E+00
    0.27248E-07        -0.81864E-10         0.00000E+00
    0.27206E-07        -0.84148E-10         0.00000E+00
    0.27167E-07        -0.81249E-10         0.00000E+00
    0.27130E-07        -0.73693E-10         0.00000E+00
    0.27096E-07        -0.62025E-10         0.00000E+00
    0.27065E-07        -0.46961E-10         0.00000E+00
    0.27038E-07        -0.29761E-10         0.00000E+00
    0.27015E-07        -0.12943E-10         0.00000E+00
    0.27000E-07        -0.15183E-11         0.00000E+00
    0.28005E-07         0.24137E-10         0.00000E+00
    0.27998E-07         0.30526E-10         0.00000E+00
    0.27986E-07         0.14754E-10         0.00000E+00
    0.27970E-07        -0.47499E-11         0.00000E+00
    0.27947E-07        -0.21648E-10         0.00000E+00
    0.27919E-07        -0.34010E-10         0.00000E+00
    0.27888E-07        -0.41566E-10         0.00000E+00
    0.27855E-07        -0.44613E-10         0.00000E+00
    0.27823E-07        -0.43580E-10         0.00000E+00
    0.27792E-07        -0.38876E-10         0.00000E+00
    0.27765E-07        -0.30875E-10         0.00000E+00
    0.27743E-07        -0.20060E-10         0.00000E+00
    0.27726E-07        -0.74031E-11         0.00000E+00
    0.27714E-07         0.47351E-11         0.00000E+00
    0.27705E-07         0.97803E-11         0.00000E+00
    0.28133E-07         0.15638E-10         0.00000E+00
    0.28180E-07         0.19634E-10         0.00000E+00
    0.28220E-07         0.12376E-10         0.00000E+00
    0.28242E-07         0.38380E-11         0.00000E+00
    0.28248E-07        -0.33596E-11         0.00000E+00
    0.28240E-07        -0.85919E-11         0.00000E+00
    0.28224E-07        -0.11849E-10         0.00000E+00
    0.28202E-07        -0.13300E-10         0.00000E+00
    0.28178E-07        -0.13136E-10         0.00000E+00
    0.28156E-07        -0.11514E-10         0.00000E+00
    0.28139E-07        -0.85629E-11         0.00000E+00
    0.28129E-07        -0.44306E-11         0.00000E+00
    0.28128E-07         0.56937E-12         0.00000E+00
    0.28137E-07         0.54989E-11         0.00000E+00
    0.28155E-07         0.75970E-11         0.00000E+00
POINT_DATA        496
VECTORS vDarcyNodal double 
    0.29294E-08         0.00000E+00         0.00000E+00
    0.29037E-08         0.00000E+00         0.00000E+00
    0.28464E-08         0.00000E+00         0.00000E+00
    0.27720E-08         0.00000E+00         0.00000E+00
    0.26880E-08         0.00000E+00         0.00000E+00
    0.25993E-08         0.00000E+00         0.00000E+00
    0.25092E-08         0.00000E+00         0.00000E+00
    0.24203E-08         0.00000E+00         0.00000E+00
    0.23345E-08         0.00000E+00         0.00000E+00
    0.22534E-08         0.00000E+00         0.00000E+00
    0.21785E-08         0.00000E+00         0.00000E+00
    0.21112E-08         0.00000E+00         0.00000E+00
    0.20532E-08        -0.33268E-22         0.00000E+00
    0.20062E-08        -0.93470E-27         0.00000E+00
    0.19731E-08         0.33267E-22         0.00000E+00
    0.19583E-08         0.00000E+00         0.00000E+00
    0.28251E-08         0.25695E-10         0.00000E+00
    0.28063E-08         0.41402E-10         0.00000E+00
    0.27602E-08         0.65682E-10         0.00000E+00
    0.26975E-08         0.79046E-10         0.00000E+00
    0.26247E-08         0.86211E-10         0.00000E+00
    0.25466E-08         0.89272E-10         0.00000E+00
    0.24664E-08         0.89394E-10         0.00000E+00
    0.23866E-08         0.87283E-10         0.00000E+00
    0.23092E-08         0.83372E-10         0.00000E+00
    0.22361E-08         0.77909E-10         0.00000E+00
    0.21685E-08         0.70994E-10         0.00000E+00
    0.21082E-08         0.62580E-10         0.00000E+00
    0.20566E-08         0.52433E-10         0.00000E+00
    0.20156E-08         0.39996E-10         0.00000E+00
    0.19878E-08         0.23934E-10         0.00000E+00
    0.19769E-08         0.14760E-10         0.00000E+00
    0.26528E-08         0.37472E-10         0.00000E+00
    0.26433E-08         0.64606E-10         0.00000E+00
    0.26152E-08         0.10848E-09         0.00000E+00
    0.25726E-08         0.13523E-09         0.00000E+00
    0.25204E-08         0.15065E-09         0.00000E+00
    0.24621E-08         0.15814E-09         0.00000E+00
    0.24007E-08         0.15980E-09         0.00000E+00
    0.23387E-08         0.15692E-09         0.00000E+00
    0.22780E-08         0.15034E-09         0.00000E+00
    0.22203E-08         0.14054E-09         0.00000E+00
    0.21672E-08         0.12773E-09         0.00000E+00
    0.21202E-08         0.11183E-09         0.00000E+00
    0.20807E-08         0.92448E-10         0.00000E+00
    0.20506E-08         0.68673E-10         0.00000E+00
    0.20317E-08         0.38653E-10         0.00000E+00
    0.20257E-08         0.21768E-10         0.00000E+00
    0.25499E-08         0.44500E-10         0.00000E+00
    0.25443E-08         0.78799E-10         0.00000E+00
    0.25272E-08         0.13605E-09         0.00000E+00
    0.24997E-08         0.17358E-09         0.00000E+00
    0.24642E-08         0.19657E-09         0.00000E+00
    0.24232E-08         0.20871E-09         0.00000E+00
    0.23789E-08         0.21256E-09         0.00000E+00
    0.23335E-08         0.20981E-09         0.00000E+00
    0.22885E-08         0.20157E-09         0.00000E+00
    0.22456E-08         0.18853E-09         0.00000E+00
    0.22061E-08         0.17099E-09         0.00000E+00
    0.21714E-08         0.14891E-09         0.00000E+00
    0.21427E-08         0.12187E-09         0.00000E+00
    0.21214E-08         0.88967E-10         0.00000E+00
    0.21085E-08         0.48792E-10         0.00000E+00
    0.21044E-08         0.26683E-10         0.00000E+00
    0.25138E-08         0.48476E-10         0.00000E+00
    0.25109E-08         0.87103E-10         0.00000E+00
    0.25014E-08         0.15285E-09         0.00000E+00
    0.24854E-08         0.19800E-09         0.00000E+00
    0.24637E-08         0.22694E-09         0.00000E+00
    0.24376E-08         0.24317E-09         0.00000E+00
    0.24087E-08         0.24928E-09         0.00000E+00
    0.23785E-08         0.24716E-09         0.00000E+00
    0.23481E-08         0.23806E-09         0.00000E+00
    0.23189E-08         0.22280E-09         0.00000E+00
    0.22921E-08         0.20179E-09         0.00000E+00
    0.22686E-08         0.17506E-09         0.00000E+00
    0.22495E-08         0.14229E-09         0.00000E+00
    0.22355E-08         0.10280E-09         0.00000E+00
    0.22272E-08         0.55615E-10         0.00000E+00
    0.22245E-08         0.29970E-10         0.00000E+00
    0.25474E-08         0.50171E-10         0.00000E+00
    0.25466E-08         0.90960E-10         0.00000E+00
    0.25432E-08         0.16128E-09         0.00000E+00
    0.25365E-08         0.21109E-09         0.00000E+00
    0.25264E-08         0.24410E-09         0.00000E+00
    0.25134E-08         0.26343E-09         0.00000E+00
    0.24982E-08         0.27154E-09         0.00000E+00
    0.24817E-08         0.27026E-09         0.00000E+00
    0.24648E-08         0.26091E-09         0.00000E+00
    0.24484E-08         0.24438E-09         0.00000E+00
    0.24332E-08         0.22115E-09         0.00000E+00
    0.24199E-08         0.19137E-09         0.00000E+00
    0.24093E-08         0.15486E-09         0.00000E+00
    0.24017E-08         0.11117E-09         0.00000E+00
    0.23973E-08         0.59682E-10         0.00000E+00
    0.23960E-08         0.31904E-10         0.00000E+00
    0.26559E-08         0.49956E-10         0.00000E+00
    0.26570E-08         0.91112E-10         0.00000E+00
    0.26587E-08         0.16270E-09         0.00000E+00
    0.26600E-08         0.21454E-09         0.00000E+00
    0.26601E-08         0.24977E-09         0.00000E+00
    0.26587E-08         0.27110E-09         0.00000E+00
    0.26559E-08         0.28072E-09         0.00000E+00
    0.26519E-08         0.28035E-09         0.00000E+00
    0.26474E-08         0.27124E-09         0.00000E+00
    0.26426E-08         0.25430E-09         0.00000E+00
    0.26381E-08         0.23005E-09         0.00000E+00
    0.26342E-08         0.19875E-09         0.00000E+00
    0.26313E-08         0.16037E-09         0.00000E+00
    0.26295E-08         0.11467E-09         0.00000E+00
    0.26287E-08         0.61280E-10         0.00000E+00
    0.26285E-08         0.32605E-10         0.00000E+00
    0.28465E-08         0.48020E-10         0.00000E+00
    0.28491E-08         0.87967E-10         0.00000E+00
    0.28556E-08         0.15793E-09         0.00000E+00
    0.28641E-08         0.20946E-09         0.00000E+00
    0.28733E-08         0.24520E-09         0.00000E+00
    0.28823E-08         0.26744E-09         0.00000E+00
    0.28906E-08         0.27805E-09         0.00000E+00
    0.28982E-08         0.27855E-09         0.00000E+00
    0.29049E-08         0.27007E-09         0.00000E+00
    0.29108E-08         0.25348E-09         0.00000E+00
    0.29162E-08         0.22933E-09         0.00000E+00
    0.29210E-08         0.19794E-09         0.00000E+00
    0.29252E-08         0.15942E-09         0.00000E+00
    0.29287E-08         0.11370E-09         0.00000E+00
    0.29312E-08         0.60583E-10         0.00000E+00
    0.29322E-08         0.32140E-10         0.00000E+00
    0.31270E-08         0.44466E-10         0.00000E+00
    0.31313E-08         0.81760E-10         0.00000E+00
    0.31421E-08         0.14747E-09         0.00000E+00
    0.31572E-08         0.19660E-09         0.00000E+00
    0.31747E-08         0.23132E-09         0.00000E+00
    0.31932E-08         0.25346E-09         0.00000E+00
    0.32118E-08         0.26456E-09         0.00000E+00
    0.32298E-08         0.26586E-09         0.00000E+00
    0.32469E-08         0.25835E-09         0.00000E+00
    0.32627E-08         0.24279E-09         0.00000E+00
    0.32771E-08         0.21974E-09         0.00000E+00
    0.32898E-08         0.18957E-09         0.00000E+00
    0.33006E-08         0.15248E-09         0.00000E+00
    0.33091E-08         0.10855E-09         0.00000E+00
    0.33147E-08         0.57711E-10         0.00000E+00
    0.33168E-08         0.30552E-10         0.00000E+00
    0.35067E-08         0.39354E-10         0.00000E+00
    0.35124E-08         0.72647E-10         0.00000E+00
    0.35274E-08         0.13169E-09         0.00000E+00
    0.35486E-08         0.17654E-09         0.00000E+00
    0.35738E-08         0.20887E-09         0.00000E+00
    0.36011E-08         0.23003E-09         0.00000E+00
    0.36290E-08         0.24117E-09         0.00000E+00
    0.36565E-08         0.24322E-09         0.00000E+00
    0.36830E-08         0.23697E-09         0.00000E+00
    0.37077E-08         0.22306E-09         0.00000E+00
    0.37304E-08         0.20201E-09         0.00000E+00
    0.37504E-08         0.17421E-09         0.00000E+00
    0.37673E-08         0.13997E-09         0.00000E+00
    0.37804E-08         0.99463E-10         0.00000E+00
    0.37889E-08         0.52770E-10         0.00000E+00
    0.37921E-08         0.27877E-10         0.00000E+00
    0.39949E-08         0.32730E-10         0.00000E+00
    0.40021E-08         0.60754E-10         0.00000E+00
    0.40209E-08         0.11089E-09         0.00000E+00
    0.40479E-08         0.14979E-09         0.00000E+00
    0.40801E-08         0.17854E-09         0.00000E+00
    0.41153E-08         0.19797E-09         0.00000E+00
    0.41516E-08         0.20878E-09         0.00000E+00
    0.41877E-08         0.21157E-09         0.00000E+00
    0.42225E-08         0.20685E-09         0.00000E+00
    0.42553E-08         0.19513E-09         0.00000E+00
    0.42854E-08         0.17686E-09         0.00000E+00
    0.43120E-08         0.15246E-09         0.00000E+00
    0.43343E-08         0.12231E-09         0.00000E+00
    0.43517E-08         0.86708E-10         0.00000E+00
    0.43630E-08         0.45869E-10         0.00000E+00
    0.43671E-08         0.24159E-10         0.00000E+00
    0.46011E-08         0.24659E-10         0.00000E+00
    0.46097E-08         0.46235E-10         0.00000E+00
    0.46321E-08         0.85418E-10         0.00000E+00
    0.46643E-08         0.11691E-09         0.00000E+00
    0.47028E-08         0.14108E-09         0.00000E+00
    0.47450E-08         0.15819E-09         0.00000E+00
    0.47886E-08         0.16840E-09         0.00000E+00
    0.48322E-08         0.17191E-09         0.00000E+00
    0.48744E-08         0.16898E-09         0.00000E+00
    0.49142E-08         0.15992E-09         0.00000E+00
    0.49507E-08         0.14512E-09         0.00000E+00
    0.49830E-08         0.12499E-09         0.00000E+00
    0.50103E-08         0.10000E-09         0.00000E+00
    0.50314E-08         0.70594E-10         0.00000E+00
    0.50452E-08         0.37148E-10         0.00000E+00
    0.50503E-08         0.19456E-10         0.00000E+00
    0.53346E-08         0.15238E-10         0.00000E+00
    0.53444E-08         0.29305E-10         0.00000E+00
    0.53700E-08         0.55737E-10         0.00000E+00
    0.54067E-08         0.78578E-10         0.00000E+00
    0.54506E-08         0.97392E-10         0.00000E+00
    0.54986E-08         0.11171E-09         0.00000E+00
    0.55484E-08         0.12114E-09         0.00000E+00
    0.55982E-08         0.12543E-09         0.00000E+00
    0.56464E-08         0.12452E-09         0.00000E+00
    0.56919E-08         0.11852E-09         0.00000E+00
    0.57337E-08         0.10772E-09         0.00000E+00
    0.57709E-08         0.92576E-10         0.00000E+00
    0.58022E-08         0.73637E-10         0.00000E+00
    0.58266E-08         0.51513E-10         0.00000E+00
    0.58426E-08         0.26792E-10         0.00000E+00
    0.58485E-08         0.13853E-10         0.00000E+00
    0.62033E-08         0.46230E-11         0.00000E+00
    0.62142E-08         0.10279E-10         0.00000E+00
    0.62423E-08         0.22470E-10         0.00000E+00
    0.62826E-08         0.35707E-10         0.00000E+00
    0.63307E-08         0.48590E-10         0.00000E+00
    0.63833E-08         0.59834E-10         0.00000E+00
    0.64377E-08         0.68397E-10         0.00000E+00
    0.64920E-08         0.73534E-10         0.00000E+00
    0.65447E-08         0.74829E-10         0.00000E+00
    0.65946E-08         0.72188E-10         0.00000E+00
    0.66404E-08         0.65818E-10         0.00000E+00
    0.66811E-08         0.56185E-10         0.00000E+00
    0.67156E-08         0.43963E-10         0.00000E+00
    0.67425E-08         0.29965E-10         0.00000E+00
    0.67602E-08         0.15051E-10         0.00000E+00
    0.67668E-08         0.74727E-11         0.00000E+00
    0.72134E-08        -0.69519E-11         0.00000E+00
    0.72250E-08        -0.10392E-10         0.00000E+00
    0.72550E-08        -0.13533E-10         0.00000E+00
    0.72977E-08        -0.10523E-10         0.00000E+00
    0.73485E-08        -0.38942E-11         0.00000E+00
    0.74038E-08         0.41509E-11         0.00000E+00
    0.74611E-08         0.11846E-10         0.00000E+00
    0.75182E-08         0.17911E-10         0.00000E+00
    0.75735E-08         0.21559E-10         0.00000E+00
    0.76259E-08         0.22477E-10         0.00000E+00
    0.76741E-08         0.20784E-10         0.00000E+00
    0.77171E-08         0.16985E-10         0.00000E+00
    0.77535E-08         0.11899E-10         0.00000E+00
    0.77821E-08         0.65889E-11         0.00000E+00
    0.78009E-08         0.22504E-11         0.00000E+00
    0.78080E-08         0.47900E-12         0.00000E+00
    0.83683E-08        -0.19161E-10         0.00000E+00
    0.83803E-08        -0.32098E-10         0.00000E+00
    0.84111E-08        -0.51152E-10         0.00000E+00
    0.84547E-08        -0.58609E-10         0.00000E+00
    0.85063E-08        -0.58284E-10         0.00000E+00
    0.85624E-08        -0.53400E-10         0.00000E+00
    0.86203E-08        -0.46498E-10         0.00000E+00
    0.86779E-08        -0.39426E-10         0.00000E+00
    0.87338E-08        -0.33352E-10         0.00000E+00
    0.87867E-08        -0.28809E-10         0.00000E+00
    0.88355E-08        -0.25754E-10         0.00000E+00
    0.88790E-08        -0.23629E-10         0.00000E+00
    0.89161E-08        -0.21438E-10         0.00000E+00
    0.89452E-08        -0.17828E-10         0.00000E+00
    0.89646E-08        -0.11196E-10         0.00000E+00
    0.89719E-08        -0.69118E-11         0.00000E+00
    0.96676E-08        -0.31572E-10         0.00000E+00
    0.96795E-08        -0.54048E-10         0.00000E+00
    0.97098E-08        -0.88977E-10         0.00000E+00
    0.97525E-08        -0.10670E-09         0.00000E+00
    0.98028E-08        -0.11244E-09         0.00000E+00
    0.98572E-08        -0.11052E-09         0.00000E+00
    0.99133E-08        -0.10429E-09         0.00000E+00
    0.99690E-08        -0.96161E-10         0.00000E+00
    0.10023E-07        -0.87682E-10         0.00000E+00
    0.10074E-07        -0.79596E-10         0.00000E+00
    0.10121E-07        -0.71923E-10         0.00000E+00
    0.10164E-07        -0.64036E-10         0.00000E+00
    0.10200E-07        -0.54737E-10         0.00000E+00
    0.10228E-07        -0.42342E-10         0.00000E+00
    0.10247E-07        -0.24781E-10         0.00000E+00
    0.10255E-07        -0.14430E-10         0.00000E+00
    0.11106E-07        -0.43644E-10         0.00000E+00
    0.11117E-07        -0.75271E-10         0.00000E+00
    0.11146E-07        -0.12531E-09         0.00000E+00
    0.11185E-07        -0.15260E-09         0.00000E+00
    0.11232E-07        -0.16389E-09         0.00000E+00
    0.11282E-07        -0.16460E-09         0.00000E+00
    0.11333E-07        -0.15889E-09         0.00000E+00
    0.11385E-07        -0.14971E-09         0.00000E+00
    0.11434E-07        -0.13897E-09         0.00000E+00
    0.11481E-07        -0.12760E-09         0.00000E+00
    0.11525E-07        -0.11565E-09         0.00000E+00
    0.11564E-07        -0.10243E-09         0.00000E+00
    0.11597E-07        -0.86514E-10         0.00000E+00
    0.11624E-07        -0.65871E-10         0.00000E+00
    0.11641E-07        -0.37914E-10         0.00000E+00
    0.11648E-07        -0.21752E-10         0.00000E+00
    0.12673E-07        -0.54732E-10         0.00000E+00
    0.12683E-07        -0.94624E-10         0.00000E+00
    0.12707E-07        -0.15818E-09         0.00000E+00
    0.12741E-07        -0.19385E-09         0.00000E+00
    0.12781E-07        -0.20990E-09         0.00000E+00
    0.12824E-07        -0.21281E-09         0.00000E+00
    0.12868E-07        -0.20748E-09         0.00000E+00
    0.12912E-07        -0.19736E-09         0.00000E+00
    0.12955E-07        -0.18464E-09         0.00000E+00
    0.12995E-07        -0.17040E-09         0.00000E+00
    0.13032E-07        -0.15474E-09         0.00000E+00
    0.13066E-07        -0.13687E-09         0.00000E+00
    0.13095E-07        -0.11516E-09         0.00000E+00
    0.13118E-07        -0.87219E-10         0.00000E+00
    0.13134E-07        -0.49926E-10         0.00000E+00
    0.13140E-07        -0.28509E-10         0.00000E+00
    0.14349E-07        -0.64104E-10         0.00000E+00
    0.14357E-07        -0.11084E-09         0.00000E+00
    0.14376E-07        -0.18546E-09         0.00000E+00
    0.14402E-07        -0.22782E-09         0.00000E+00
    0.14433E-07        -0.24759E-09         0.00000E+00
    0.14466E-07        -0.25221E-09         0.00000E+00
    0.14500E-07        -0.24719E-09         0.00000E+00
    0.14534E-07        -0.23635E-09         0.00000E+00
    0.14567E-07        -0.22210E-09         0.00000E+00
    0.14598E-07        -0.20561E-09         0.00000E+00
    0.14627E-07        -0.18700E-09         0.00000E+00
    0.14654E-07        -0.16541E-09         0.00000E+00
    0.14676E-07        -0.13903E-09         0.00000E+00
    0.14695E-07        -0.10514E-09         0.00000E+00
    0.14707E-07        -0.60106E-10         0.00000E+00
    0.14712E-07        -0.34297E-10         0.00000E+00
    0.16110E-07        -0.70977E-10         0.00000E+00
    0.16115E-07        -0.12256E-09         0.00000E+00
    0.16127E-07        -0.20493E-09         0.00000E+00
    0.16143E-07        -0.25184E-09         0.00000E+00
    0.16162E-07        -0.27416E-09         0.00000E+00
    0.16182E-07        -0.28004E-09         0.00000E+00
    0.16203E-07        -0.27538E-09         0.00000E+00
    0.16225E-07        -0.26420E-09         0.00000E+00
    0.16246E-07        -0.24901E-09         0.00000E+00
    0.16266E-07        -0.23104E-09         0.00000E+00
    0.16285E-07        -0.21041E-09         0.00000E+00
    0.16303E-07        -0.18621E-09         0.00000E+00
    0.16318E-07        -0.15653E-09         0.00000E+00
    0.16330E-07        -0.11839E-09         0.00000E+00
    0.16338E-07        -0.67734E-10         0.00000E+00
    0.16341E-07        -0.38696E-10         0.00000E+00
    0.17920E-07        -0.74563E-10         0.00000E+00
    0.17922E-07        -0.12850E-09         0.00000E+00
    0.17925E-07        -0.21451E-09         0.00000E+00
    0.17929E-07        -0.26351E-09         0.00000E+00
    0.17934E-07        -0.28715E-09         0.00000E+00
    0.17940E-07        -0.29393E-09         0.00000E+00
    0.17946E-07        -0.28982E-09         0.00000E+00
    0.17954E-07        -0.27885E-09         0.00000E+00
    0.17962E-07        -0.26348E-09         0.00000E+00
    0.17970E-07        -0.24492E-09         0.00000E+00
    0.17977E-07        -0.22330E-09         0.00000E+00
    0.17984E-07        -0.19773E-09         0.00000E+00
    0.17990E-07        -0.16628E-09         0.00000E+00
    0.17995E-07        -0.12587E-09         0.00000E+00
    0.17998E-07        -0.72130E-10         0.00000E+00
    0.18000E-07        -0.41302E-10         0.00000E+00
    0.19739E-07        -0.74143E-10         0.00000E+00
    0.19736E-07        -0.12747E-09         0.00000E+00
    0.19729E-07        -0.21244E-09         0.00000E+00
    0.19720E-07        -0.26091E-09         0.00000E+00
    0.19709E-07        -0.28474E-09         0.00000E+00
    0.19699E-07        -0.29225E-09         0.00000E+00
    0.19691E-07        -0.28911E-09         0.00000E+00
    0.19684E-07        -0.27907E-09         0.00000E+00
    0.19678E-07        -0.26438E-09         0.00000E+00
    0.19673E-07        -0.24618E-09         0.00000E+00
    0.19668E-07        -0.22462E-09         0.00000E+00
    0.19664E-07        -0.19892E-09         0.00000E+00
    0.19661E-07        -0.16727E-09         0.00000E+00
    0.19657E-07        -0.12668E-09         0.00000E+00
    0.19655E-07        -0.72724E-10         0.00000E+00
    0.19654E-07        -0.41752E-10         0.00000E+00
    0.21516E-07        -0.69153E-10         0.00000E+00
    0.21509E-07        -0.11865E-09         0.00000E+00
    0.21491E-07        -0.19757E-09         0.00000E+00
    0.21467E-07        -0.24301E-09         0.00000E+00
    0.21442E-07        -0.26615E-09         0.00000E+00
    0.21416E-07        -0.27450E-09         0.00000E+00
    0.21393E-07        -0.27295E-09         0.00000E+00
    0.21372E-07        -0.26467E-09         0.00000E+00
    0.21352E-07        -0.25156E-09         0.00000E+00
    0.21335E-07        -0.23464E-09         0.00000E+00
    0.21319E-07        -0.21411E-09         0.00000E+00
    0.21304E-07        -0.18939E-09         0.00000E+00
    0.21291E-07        -0.15900E-09         0.00000E+00
    0.21279E-07        -0.12031E-09         0.00000E+00
    0.21271E-07        -0.69120E-10         0.00000E+00
    0.21268E-07        -0.39768E-10         0.00000E+00
    0.23196E-07        -0.59287E-10         0.00000E+00
    0.23184E-07        -0.10169E-09         0.00000E+00
    0.23156E-07        -0.16972E-09         0.00000E+00
    0.23119E-07        -0.21003E-09         0.00000E+00
    0.23080E-07        -0.23206E-09         0.00000E+00
    0.23041E-07        -0.24166E-09         0.00000E+00
    0.23005E-07        -0.24246E-09         0.00000E+00
    0.22971E-07        -0.23679E-09         0.00000E+00
    0.22940E-07        -0.22611E-09         0.00000E+00
    0.22912E-07        -0.21126E-09         0.00000E+00
    0.22886E-07        -0.19253E-09         0.00000E+00
    0.22862E-07        -0.16968E-09         0.00000E+00
    0.22840E-07        -0.14174E-09         0.00000E+00
    0.22821E-07        -0.10674E-09         0.00000E+00
    0.22807E-07        -0.61177E-10         0.00000E+00
    0.22801E-07        -0.35200E-10         0.00000E+00
    0.24719E-07        -0.44627E-10         0.00000E+00
    0.24703E-07        -0.76998E-10         0.00000E+00
    0.24666E-07        -0.13007E-09         0.00000E+00
    0.24619E-07        -0.16398E-09         0.00000E+00
    0.24570E-07        -0.18501E-09         0.00000E+00
    0.24521E-07        -0.19649E-09         0.00000E+00
    0.24476E-07        -0.20040E-09         0.00000E+00
    0.24434E-07        -0.19805E-09         0.00000E+00
    0.24395E-07        -0.19042E-09         0.00000E+00
    0.24359E-07        -0.17819E-09         0.00000E+00
    0.24325E-07        -0.16179E-09         0.00000E+00
    0.24294E-07        -0.14135E-09         0.00000E+00
    0.24265E-07        -0.11661E-09         0.00000E+00
    0.24240E-07        -0.86615E-10         0.00000E+00
    0.24222E-07        -0.49100E-10         0.00000E+00
    0.24214E-07        -0.28066E-10         0.00000E+00
    0.26024E-07        -0.25802E-10         0.00000E+00
    0.26006E-07        -0.46046E-10         0.00000E+00
    0.25964E-07        -0.81727E-10         0.00000E+00
    0.25913E-07        -0.10916E-09         0.00000E+00
    0.25859E-07        -0.12982E-09         0.00000E+00
    0.25808E-07        -0.14379E-09         0.00000E+00
    0.25758E-07        -0.15119E-09         0.00000E+00
    0.25713E-07        -0.15244E-09         0.00000E+00
    0.25670E-07        -0.14810E-09         0.00000E+00
    0.25630E-07        -0.13876E-09         0.00000E+00
    0.25592E-07        -0.12495E-09         0.00000E+00
    0.25557E-07        -0.10716E-09         0.00000E+00
    0.25525E-07        -0.85867E-10         0.00000E+00
    0.25497E-07        -0.61454E-10         0.00000E+00
    0.25475E-07        -0.33556E-10         0.00000E+00
    0.25465E-07        -0.18615E-10         0.00000E+00
    0.27053E-07        -0.42644E-11         0.00000E+00
    0.27035E-07        -0.11929E-10         0.00000E+00
    0.26996E-07        -0.30544E-10         0.00000E+00
    0.26949E-07        -0.52891E-10         0.00000E+00
    0.26901E-07        -0.73877E-10         0.00000E+00
    0.26854E-07        -0.90219E-10         0.00000E+00
    0.26807E-07        -0.10064E-09         0.00000E+00
    0.26763E-07        -0.10499E-09         0.00000E+00
    0.26721E-07        -0.10364E-09         0.00000E+00
    0.26682E-07        -0.97139E-10         0.00000E+00
    0.26645E-07        -0.86048E-10         0.00000E+00
    0.26610E-07        -0.71047E-10         0.00000E+00
    0.26579E-07        -0.53122E-10         0.00000E+00
    0.26552E-07        -0.33968E-10         0.00000E+00
    0.26531E-07        -0.15880E-10         0.00000E+00
    0.26520E-07        -0.74021E-11         0.00000E+00
    0.27752E-07         0.16987E-10         0.00000E+00
    0.27738E-07         0.19381E-10         0.00000E+00
    0.27715E-07         0.13262E-10         0.00000E+00
    0.27688E-07        -0.62155E-11         0.00000E+00
    0.27657E-07        -0.26880E-10         0.00000E+00
    0.27623E-07        -0.43709E-10         0.00000E+00
    0.27586E-07        -0.55138E-10         0.00000E+00
    0.27549E-07        -0.61031E-10         0.00000E+00
    0.27512E-07        -0.61759E-10         0.00000E+00
    0.27477E-07        -0.57808E-10         0.00000E+00
    0.27445E-07        -0.49675E-10         0.00000E+00
    0.27416E-07        -0.37943E-10         0.00000E+00
    0.27392E-07        -0.23604E-10         0.00000E+00
    0.27372E-07        -0.87385E-11         0.00000E+00
    0.27357E-07         0.14172E-11         0.00000E+00
    0.27347E-07         0.43645E-11         0.00000E+00
    0.28065E-07         0.31283E-10         0.00000E+00
    0.28078E-07         0.35279E-10         0.00000E+00
    0.28098E-07         0.32016E-10         0.00000E+00
    0.28107E-07         0.16216E-10         0.00000E+00
    0.28104E-07         0.47849E-12         0.00000E+00
    0.28090E-07        -0.11953E-10         0.00000E+00
    0.28069E-07        -0.20444E-10         0.00000E+00
    0.28043E-07        -0.25153E-10         0.00000E+00
    0.28014E-07        -0.26439E-10         0.00000E+00
    0.27986E-07        -0.24653E-10         0.00000E+00
    0.27962E-07        -0.20079E-10         0.00000E+00
    0.27942E-07        -0.12995E-10         0.00000E+00
    0.27929E-07        -0.38617E-11         0.00000E+00
    0.27924E-07         0.60689E-11         0.00000E+00
    0.27927E-07         0.13097E-10         0.00000E+00
    0.27931E-07         0.15195E-10         0.00000E+00
    0.28117E-07         0.00000E+00         0.00000E+00
    0.28154E-07         0.00000E+00         0.00000E+00
    0.28203E-07        -0.78651E-22         0.00000E+00
    0.28235E-07         0.17564E-25         0.00000E+00
    0.28249E-07         0.82809E-22         0.00000E+00
    0.28247E-07         0.00000E+00         0.00000E+00
    0.28234E-07         0.00000E+00         0.00000E+00
    0.28213E-07        -0.78714E-22         0.00000E+00
    0.28190E-07        -0.78714E-22         0.00000E+00
    0.28166E-07         0.78730E-22         0.00000E+00
    0.28146E-07         0.82873E-22         0.00000E+00
    0.28132E-07        -0.82889E-22         0.00000E+00
    0.28126E-07        -0.41366E-23         0.00000E+00
    0.28130E-07         0.82899E-22         0.00000E+00
    0.28145E-07         0.82908E-23         0.00000E+00
    0.28163E-07         0.00000E+00         0.00000E+00
CELL_DATA        450
TENSORS stressef double 
    0.13911E+08        -0.52184E+05         0.00000E+00
   -0.52184E+05        -0.23880E+06         0.00000E+00
    0.00000E+00         0.00000E+00         0.27344E+07
 
    0.12685E+08        -0.35081E+05         0.00000E+00
   -0.35081E+05        -0.30155E+06         0.00000E+00
    0.00000E+00         0.00000E+00         0.24767E+07
 
    0.11618E+08        -0.10542E+05         0.00000E+00
   -0.10542E+05        -0.33403E+06         0.00000E+00
    0.00000E+00         0.00000E+00         0.22568E+07
 
    0.10610E+08         0.86296E+04         0.00000E+00
    0.86296E+04        -0.32794E+06         0.00000E+00
    0.00000E+00         0.00000E+00         0.20563E+07
 
    0.96378E+07         0.24334E+05         0.00000E+00
    0.24334E+05        -0.28867E+06         0.00000E+00
    0.00000E+00         0.00000E+00         0.18698E+07
 
    0.86953E+07         0.37720E+05         0.00000E+00
    0.37720E+05        -0.22121E+06         0.00000E+00
    0.00000E+00         0.00000E+00         0.16948E+07
 
    0.77792E+07         0.49822E+05         0.00000E+00
    0.49822E+05        -0.12886E+06         0.00000E+00
    0.00000E+00         0.00000E+00         0.15301E+07
 
    0.68876E+07         0.61434E+05         0.00000E+00
    0.61434E+05        -0.13227E+05         0.00000E+00
    0.00000E+00         0.00000E+00         0.13749E+07
 
    0.60187E+07         0.73140E+05         0.00000E+00
    0.73140E+05         0.12536E+06         0.00000E+00
    0.00000E+00         0.00000E+00         0.12288E+07
 
    0.51700E+07         0.85370E+05         0.00000E+00
    0.85370E+05         0.28754E+06         0.00000E+00
    0.00000E+00         0.00000E+00         0.10915E+07
 
    0.43376E+07         0.98502E+05         0.00000E+00
    0.98502E+05         0.47476E+06         0.00000E+00
    0.00000E+00         0.00000E+00         0.96248E+06
 
    0.35161E+07         0.11304E+06         0.00000E+00
    0.11304E+06         0.68930E+06         0.00000E+00
    0.00000E+00         0.00000E+00         0.84109E+06
 
    0.26958E+07         0.13019E+06         0.00000E+00
    0.13019E+06         0.93508E+06         0.00000E+00
    0.00000E+00         0.00000E+00         0.72618E+06
 
    0.18571E+07         0.15298E+06         0.00000E+00
    0.15298E+06         0.12203E+07         0.00000E+00
    0.00000E+00         0.00000E+00         0.61549E+06
 
    0.93593E+06         0.20412E+06         0.00000E+00
    0.20412E+06         0.15710E+07         0.00000E+00
    0.00000E+00         0.00000E+00         0.50139E+06
 
    0.13449E+08        -0.59063E+05         0.00000E+00
   -0.59063E+05        -0.58759E+06         0.00000E+00
    0.00000E+00         0.00000E+00         0.25722E+07
 
    0.12331E+08        -0.64086E+05         0.00000E+00
   -0.64086E+05        -0.56815E+06         0.00000E+00
    0.00000E+00         0.00000E+00         0.23525E+07
 
    0.11272E+08        -0.17433E+05         0.00000E+00
   -0.17433E+05        -0.55131E+06         0.00000E+00
    0.00000E+00         0.00000E+00         0.21441E+07
 
    0.10269E+08         0.30097E+05         0.00000E+00
    0.30097E+05        -0.51747E+06         0.00000E+00
    0.00000E+00         0.00000E+00         0.19502E+07
 
    0.93032E+07         0.72135E+05         0.00000E+00
    0.72135E+05        -0.46158E+06         0.00000E+00
    0.00000E+00         0.00000E+00         0.17683E+07
 
    0.83690E+07         0.10960E+06         0.00000E+00
    0.10960E+06        -0.38370E+06         0.00000E+00
    0.00000E+00         0.00000E+00         0.15971E+07
 
    0.74627E+07         0.14449E+06         0.00000E+00
    0.14449E+06        -0.28455E+06         0.00000E+00
    0.00000E+00         0.00000E+00         0.14356E+07
 
    0.65821E+07         0.17872E+06         0.00000E+00
    0.17872E+06        -0.16431E+06         0.00000E+00
    0.00000E+00         0.00000E+00         0.12836E+07
 
    0.57246E+07         0.21380E+06         0.00000E+00
    0.21380E+06        -0.22345E+05         0.00000E+00
    0.00000E+00         0.00000E+00         0.11404E+07
 
    0.48872E+07         0.25088E+06         0.00000E+00
    0.25088E+06         0.14262E+06         0.00000E+00
    0.00000E+00         0.00000E+00         0.10060E+07
 
    0.40662E+07         0.29102E+06         0.00000E+00
    0.29102E+06         0.33248E+06         0.00000E+00
    0.00000E+00         0.00000E+00         0.87974E+06
 
    0.32564E+07         0.33574E+06         0.00000E+00
    0.33574E+06         0.54984E+06         0.00000E+00
    0.00000E+00         0.00000E+00         0.76124E+06
 
    0.24501E+07         0.38839E+06         0.00000E+00
    0.38839E+06         0.79861E+06         0.00000E+00
    0.00000E+00         0.00000E+00         0.64975E+06
 
    0.16345E+07         0.45871E+06         0.00000E+00
    0.45871E+06         0.10856E+07         0.00000E+00
    0.00000E+00         0.00000E+00         0.54403E+06
 
    0.81112E+06         0.58217E+06         0.00000E+00
    0.58217E+06         0.14200E+07         0.00000E+00
    0.00000E+00         0.00000E+00         0.44621E+06
 
    0.13019E+08        -0.31950E+05         0.00000E+00
   -0.31950E+05        -0.95494E+06         0.00000E+00
    0.00000E+00         0.00000E+00         0.24127E+07
 
    0.11992E+08        -0.35231E+05         0.00000E+00
   -0.35231E+05        -0.90664E+06         0.00000E+00
    0.00000E+00         0.00000E+00         0.22170E+07
 
    0.10962E+08         0.96035E+04         0.00000E+00
    0.96035E+04        -0.84624E+06         0.00000E+00
    0.00000E+00         0.00000E+00         0.20232E+07
 
    0.99646E+07         0.68056E+05         0.00000E+00
    0.68056E+05        -0.78035E+06         0.00000E+00
    0.00000E+00         0.00000E+00         0.18368E+07
 
    0.90028E+07         0.12588E+06         0.00000E+00
    0.12588E+06        -0.70372E+06         0.00000E+00
    0.00000E+00         0.00000E+00         0.16598E+07
 
    0.80740E+07         0.18107E+06         0.00000E+00
    0.18107E+06        -0.61312E+06         0.00000E+00
    0.00000E+00         0.00000E+00         0.14922E+07
 
    0.71755E+07         0.23508E+06         0.00000E+00
    0.23508E+06        -0.50651E+06         0.00000E+00
    0.00000E+00         0.00000E+00         0.13338E+07
 
    0.63044E+07         0.29003E+06         0.00000E+00
    0.29003E+06        -0.38208E+06         0.00000E+00
    0.00000E+00         0.00000E+00         0.11845E+07
 
    0.54577E+07         0.34785E+06         0.00000E+00
    0.34785E+06        -0.23780E+06         0.00000E+00
    0.00000E+00         0.00000E+00         0.10440E+07
 
    0.46319E+07         0.41010E+06         0.00000E+00
    0.41010E+06        -0.71375E+05         0.00000E+00
    0.00000E+00         0.00000E+00         0.91211E+06
 
    0.38231E+07         0.47828E+06         0.00000E+00
    0.47828E+06         0.11976E+06         0.00000E+00
    0.00000E+00         0.00000E+00         0.78858E+06
 
    0.30272E+07         0.55458E+06         0.00000E+00
    0.55458E+06         0.33843E+06         0.00000E+00
    0.00000E+00         0.00000E+00         0.67313E+06
 
    0.22399E+07         0.64360E+06         0.00000E+00
    0.64360E+06         0.58775E+06         0.00000E+00
    0.00000E+00         0.00000E+00         0.56553E+06
 
    0.14609E+07         0.75658E+06         0.00000E+00
    0.75658E+06         0.87019E+06         0.00000E+00
    0.00000E+00         0.00000E+00         0.46623E+06
 
    0.70416E+06         0.91217E+06         0.00000E+00
    0.91217E+06         0.11785E+07         0.00000E+00
    0.00000E+00         0.00000E+00         0.37653E+06
 
    0.12643E+08        -0.25665E+04         0.00000E+00
   -0.25665E+04        -0.13120E+07         0.00000E+00
    0.00000E+00         0.00000E+00         0.22661E+07
 
    0.11666E+08         0.16593E+05         0.00000E+00
    0.16593E+05        -0.12577E+07         0.00000E+00
    0.00000E+00         0.00000E+00         0.20817E+07
 
    0.10665E+08         0.62778E+05         0.00000E+00
    0.62778E+05        -0.11799E+07         0.00000E+00
    0.00000E+00         0.00000E+00         0.18970E+07
 
    0.96785E+07         0.12286E+06         0.00000E+00
    0.12286E+06        -0.10942E+07         0.00000E+00
    0.00000E+00         0.00000E+00         0.17169E+07
 
    0.87220E+07         0.18747E+06         0.00000E+00
    0.18747E+06        -0.10028E+07         0.00000E+00
    0.00000E+00         0.00000E+00         0.15439E+07
 
    0.77990E+07         0.25376E+06         0.00000E+00
    0.25376E+06        -0.90311E+06         0.00000E+00
    0.00000E+00         0.00000E+00         0.13792E+07
 
    0.69083E+07         0.32256E+06         0.00000E+00
    0.32256E+06        -0.79209E+06         0.00000E+00
    0.00000E+00         0.00000E+00         0.12232E+07
 
    0.60472E+07         0.39579E+06         0.00000E+00
    0.39579E+06        -0.66640E+06         0.00000E+00
    0.00000E+00         0.00000E+00         0.10762E+07
 
    0.52120E+07         0.47536E+06         0.00000E+00
    0.47536E+06        -0.52272E+06         0.00000E+00
    0.00000E+00         0.00000E+00         0.93785E+06
 
    0.43988E+07         0.56287E+06         0.00000E+00
    0.56287E+06        -0.35774E+06         0.00000E+00
    0.00000E+00         0.00000E+00         0.80822E+06
 
    0.36039E+07         0.65981E+06         0.00000E+00
    0.65981E+06        -0.16831E+06         0.00000E+00
    0.00000E+00         0.00000E+00         0.68711E+06
 
    0.28239E+07         0.76826E+06         0.00000E+00
    0.76826E+06         0.48311E+05         0.00000E+00
    0.00000E+00         0.00000E+00         0.57444E+06
 
    0.20580E+07         0.89211E+06         0.00000E+00
    0.89211E+06         0.29377E+06         0.00000E+00
    0.00000E+00         0.00000E+00         0.47036E+06
 
    0.13109E+07         0.10379E+07         0.00000E+00
    0.10379E+07         0.56618E+06         0.00000E+00
    0.00000E+00         0.00000E+00         0.37542E+06
 
    0.59720E+06         0.12134E+07         0.00000E+00
    0.12134E+07         0.85680E+06         0.00000E+00
    0.00000E+00         0.00000E+00         0.29080E+06
 
    0.12316E+08         0.24178E+05         0.00000E+00
    0.24178E+05        -0.16653E+07         0.00000E+00
    0.00000E+00         0.00000E+00         0.21302E+07
 
    0.11357E+08         0.71364E+05         0.00000E+00
    0.71364E+05        -0.16134E+07         0.00000E+00
    0.00000E+00         0.00000E+00         0.19487E+07
 
    0.10372E+08         0.12458E+06         0.00000E+00
    0.12458E+06        -0.15342E+07         0.00000E+00
    0.00000E+00         0.00000E+00         0.17675E+07
 
    0.93958E+07         0.18521E+06         0.00000E+00
    0.18521E+06        -0.14441E+07         0.00000E+00
    0.00000E+00         0.00000E+00         0.15903E+07
 
    0.84468E+07         0.25195E+06         0.00000E+00
    0.25195E+06        -0.13489E+07         0.00000E+00
    0.00000E+00         0.00000E+00         0.14196E+07
 
    0.75317E+07         0.32467E+06         0.00000E+00
    0.32467E+06        -0.12482E+07         0.00000E+00
    0.00000E+00         0.00000E+00         0.12567E+07
 
    0.66510E+07         0.40476E+06         0.00000E+00
    0.40476E+06        -0.11391E+07         0.00000E+00
    0.00000E+00         0.00000E+00         0.11024E+07
 
    0.58019E+07         0.49413E+06         0.00000E+00
    0.49413E+06        -0.10175E+07         0.00000E+00
    0.00000E+00         0.00000E+00         0.95688E+06
 
    0.49803E+07         0.59457E+06         0.00000E+00
    0.59457E+06        -0.87913E+06         0.00000E+00
    0.00000E+00         0.00000E+00         0.82023E+06
 
    0.41818E+07         0.70738E+06         0.00000E+00
    0.70738E+06        -0.71999E+06         0.00000E+00
    0.00000E+00         0.00000E+00         0.69236E+06
 
    0.34024E+07         0.83355E+06         0.00000E+00
    0.83355E+06        -0.53645E+06         0.00000E+00
    0.00000E+00         0.00000E+00         0.57319E+06
 
    0.26396E+07         0.97414E+06         0.00000E+00
    0.97414E+06        -0.32595E+06         0.00000E+00
    0.00000E+00         0.00000E+00         0.46272E+06
 
    0.18937E+07         0.11307E+07         0.00000E+00
    0.11307E+07        -0.87928E+05         0.00000E+00
    0.00000E+00         0.00000E+00         0.36116E+06
 
    0.11704E+07         0.13051E+07         0.00000E+00
    0.13051E+07         0.17465E+06         0.00000E+00
    0.00000E+00         0.00000E+00         0.26902E+06
 
    0.48224E+06         0.14981E+07         0.00000E+00
    0.14981E+07         0.45364E+06         0.00000E+00
    0.00000E+00         0.00000E+00         0.18718E+06
 
    0.12027E+08         0.46661E+05         0.00000E+00
    0.46661E+05        -0.20239E+07         0.00000E+00
    0.00000E+00         0.00000E+00         0.20006E+07
 
    0.11059E+08         0.12010E+06         0.00000E+00
    0.12010E+06        -0.19788E+07         0.00000E+00
    0.00000E+00         0.00000E+00         0.18160E+07
 
    0.10075E+08         0.18210E+06         0.00000E+00
    0.18210E+06        -0.19079E+07         0.00000E+00
    0.00000E+00         0.00000E+00         0.16335E+07
 
    0.91053E+07         0.24375E+06         0.00000E+00
    0.24375E+06        -0.18256E+07         0.00000E+00
    0.00000E+00         0.00000E+00         0.14560E+07
 
    0.81647E+07         0.31098E+06         0.00000E+00
    0.31098E+06        -0.17381E+07         0.00000E+00
    0.00000E+00         0.00000E+00         0.12853E+07
 
    0.72605E+07         0.38769E+06         0.00000E+00
    0.38769E+06        -0.16462E+07         0.00000E+00
    0.00000E+00         0.00000E+00         0.11228E+07
 
    0.63930E+07         0.47694E+06         0.00000E+00
    0.47694E+06        -0.15472E+07         0.00000E+00
    0.00000E+00         0.00000E+00         0.96916E+06
 
    0.55593E+07         0.58118E+06         0.00000E+00
    0.58118E+06        -0.14366E+07         0.00000E+00
    0.00000E+00         0.00000E+00         0.82453E+06
 
    0.47545E+07         0.70212E+06         0.00000E+00
    0.70212E+06        -0.13097E+07         0.00000E+00
    0.00000E+00         0.00000E+00         0.68895E+06
 
    0.39735E+07         0.84059E+06         0.00000E+00
    0.84059E+06        -0.11618E+07         0.00000E+00
    0.00000E+00         0.00000E+00         0.56233E+06
 
    0.32117E+07         0.99665E+06         0.00000E+00
    0.99665E+06        -0.98895E+06         0.00000E+00
    0.00000E+00         0.00000E+00         0.44454E+06
 
    0.24663E+07         0.11698E+07         0.00000E+00
    0.11698E+07        -0.78848E+06         0.00000E+00
    0.00000E+00         0.00000E+00         0.33557E+06
 
    0.17378E+07         0.13588E+07         0.00000E+00
    0.13588E+07        -0.56001E+06         0.00000E+00
    0.00000E+00         0.00000E+00         0.23555E+06
 
    0.10306E+07         0.15617E+07         0.00000E+00
    0.15617E+07        -0.30633E+06         0.00000E+00
    0.00000E+00         0.00000E+00         0.14486E+06
 
    0.35482E+06         0.17744E+07         0.00000E+00
    0.17744E+07        -0.34191E+05         0.00000E+00
    0.00000E+00         0.00000E+00         0.64126E+05
 
    0.11756E+08         0.63894E+05         0.00000E+00
    0.63894E+05        -0.23983E+07         0.00000E+00
    0.00000E+00         0.00000E+00         0.18716E+07
 
    0.10759E+08         0.15776E+06         0.00000E+00
    0.15776E+06        -0.23628E+07         0.00000E+00
    0.00000E+00         0.00000E+00         0.16793E+07
 
    0.97655E+07         0.22673E+06         0.00000E+00
    0.22673E+06        -0.23069E+07         0.00000E+00
    0.00000E+00         0.00000E+00         0.14917E+07
 
    0.87966E+07         0.28878E+06         0.00000E+00
    0.28878E+06        -0.22416E+07         0.00000E+00
    0.00000E+00         0.00000E+00         0.13110E+07
 
    0.78646E+07         0.35572E+06         0.00000E+00
    0.35572E+06        -0.21721E+07         0.00000E+00
    0.00000E+00         0.00000E+00         0.11385E+07
 
    0.69739E+07         0.43536E+06         0.00000E+00
    0.43536E+06        -0.20987E+07         0.00000E+00
    0.00000E+00         0.00000E+00         0.97503E+06
 
    0.61237E+07         0.53294E+06         0.00000E+00
    0.53294E+06        -0.20185E+07         0.00000E+00
    0.00000E+00         0.00000E+00         0.82104E+06
 
    0.53097E+07         0.65178E+06         0.00000E+00
    0.65178E+06        -0.19268E+07         0.00000E+00
    0.00000E+00         0.00000E+00         0.67658E+06
 
    0.45258E+07         0.79362E+06         0.00000E+00
    0.79362E+06        -0.18181E+07         0.00000E+00
    0.00000E+00         0.00000E+00         0.54153E+06
 
    0.37657E+07         0.95874E+06         0.00000E+00
    0.95874E+06        -0.16874E+07         0.00000E+00
    0.00000E+00         0.00000E+00         0.41566E+06
 
    0.30237E+07         0.11461E+07         0.00000E+00
    0.11461E+07        -0.15301E+07         0.00000E+00
    0.00000E+00         0.00000E+00         0.29874E+06
 
    0.22963E+07         0.13533E+07         0.00000E+00
    0.13533E+07        -0.13432E+07         0.00000E+00
    0.00000E+00         0.00000E+00         0.19061E+06
 
    0.15824E+07         0.15766E+07         0.00000E+00
    0.15766E+07        -0.11259E+07         0.00000E+00
    0.00000E+00         0.00000E+00         0.91294E+05
 
    0.88507E+06         0.18108E+07         0.00000E+00
    0.18108E+07        -0.88023E+06         0.00000E+00
    0.00000E+00         0.00000E+00         0.96938E+03
 
    0.21160E+06         0.20480E+07         0.00000E+00
    0.20480E+07        -0.61131E+06         0.00000E+00
    0.00000E+00         0.00000E+00        -0.79941E+05
 
    0.11483E+08         0.75018E+05         0.00000E+00
    0.75018E+05        -0.27998E+07         0.00000E+00
    0.00000E+00         0.00000E+00         0.17367E+07
 
    0.10442E+08         0.18083E+06         0.00000E+00
    0.18083E+06        -0.27764E+07         0.00000E+00
    0.00000E+00         0.00000E+00         0.15331E+07
 
    0.94289E+07         0.25223E+06         0.00000E+00
    0.25223E+06        -0.27405E+07         0.00000E+00
    0.00000E+00         0.00000E+00         0.13377E+07
 
    0.84574E+07         0.31252E+06         0.00000E+00
    0.31252E+06        -0.26997E+07         0.00000E+00
    0.00000E+00         0.00000E+00         0.11515E+07
 
    0.75344E+07         0.37811E+06         0.00000E+00
    0.37811E+06        -0.26569E+07         0.00000E+00
    0.00000E+00         0.00000E+00         0.97551E+06
 
    0.66606E+07         0.46022E+06         0.00000E+00
    0.46022E+06        -0.26109E+07         0.00000E+00
    0.00000E+00         0.00000E+00         0.80994E+06
 
    0.58323E+07         0.56616E+06         0.00000E+00
    0.56616E+06        -0.25580E+07         0.00000E+00
    0.00000E+00         0.00000E+00         0.65486E+06
 
    0.50431E+07         0.70021E+06         0.00000E+00
    0.70021E+06        -0.24928E+07         0.00000E+00
    0.00000E+00         0.00000E+00         0.51005E+06
 
    0.42849E+07         0.86421E+06         0.00000E+00
    0.86421E+06        -0.24093E+07         0.00000E+00
    0.00000E+00         0.00000E+00         0.37513E+06
 
    0.35498E+07         0.10578E+07         0.00000E+00
    0.10578E+07        -0.23015E+07         0.00000E+00
    0.00000E+00         0.00000E+00         0.24966E+06
 
    0.28305E+07         0.12788E+07         0.00000E+00
    0.12788E+07        -0.21645E+07         0.00000E+00
    0.00000E+00         0.00000E+00         0.13320E+06
 
    0.21217E+07         0.15231E+07         0.00000E+00
    0.15231E+07        -0.19946E+07         0.00000E+00
    0.00000E+00         0.00000E+00         0.25428E+05
 
    0.14208E+07         0.17845E+07         0.00000E+00
    0.17845E+07        -0.17901E+07         0.00000E+00
    0.00000E+00         0.00000E+00        -0.73852E+05
 
    0.72857E+06         0.20549E+07         0.00000E+00
    0.20549E+07        -0.15518E+07         0.00000E+00
    0.00000E+00         0.00000E+00        -0.16464E+06
 
    0.49699E+05         0.23234E+07         0.00000E+00
    0.23234E+07        -0.12834E+07         0.00000E+00
    0.00000E+00         0.00000E+00        -0.24673E+06
 
    0.11183E+08         0.79197E+05         0.00000E+00
    0.79197E+05        -0.32411E+07         0.00000E+00
    0.00000E+00         0.00000E+00         0.15883E+07
 
    0.10088E+08         0.18644E+06         0.00000E+00
    0.18644E+06        -0.32320E+07         0.00000E+00
    0.00000E+00         0.00000E+00         0.13711E+07
 
    0.90490E+07         0.25375E+06         0.00000E+00
    0.25375E+06        -0.32204E+07         0.00000E+00
    0.00000E+00         0.00000E+00         0.11657E+07
 
    0.80733E+07         0.30866E+06         0.00000E+00
    0.30866E+06        -0.32102E+07         0.00000E+00
    0.00000E+00         0.00000E+00         0.97262E+06
 
    0.71611E+07         0.37124E+06         0.00000E+00
    0.37124E+06        -0.32013E+07         0.00000E+00
    0.00000E+00         0.00000E+00         0.79196E+06
 
    0.63082E+07         0.45542E+06         0.00000E+00
    0.45542E+06        -0.31905E+07         0.00000E+00
    0.00000E+00         0.00000E+00         0.62356E+06
 
    0.55073E+07         0.57025E+06         0.00000E+00
    0.57025E+06        -0.31726E+07         0.00000E+00
    0.00000E+00         0.00000E+00         0.46695E+06
 
    0.47488E+07         0.72084E+06         0.00000E+00
    0.72084E+06        -0.31412E+07         0.00000E+00
    0.00000E+00         0.00000E+00         0.32153E+06
 
    0.40221E+07         0.90904E+06         0.00000E+00
    0.90904E+06        -0.30892E+07         0.00000E+00
    0.00000E+00         0.00000E+00         0.18658E+06
 
    0.33169E+07         0.11339E+07         0.00000E+00
    0.11339E+07        -0.30101E+07         0.00000E+00
    0.00000E+00         0.00000E+00         0.61362E+05
 
    0.26238E+07         0.13921E+07         0.00000E+00
    0.13921E+07        -0.28978E+07         0.00000E+00
    0.00000E+00         0.00000E+00        -0.54816E+05
 
    0.19353E+07         0.16778E+07         0.00000E+00
    0.16778E+07        -0.27480E+07         0.00000E+00
    0.00000E+00         0.00000E+00        -0.16253E+06
 
    0.12467E+07         0.19826E+07         0.00000E+00
    0.19826E+07        -0.25578E+07         0.00000E+00
    0.00000E+00         0.00000E+00        -0.26220E+06
 
    0.55641E+06         0.22958E+07         0.00000E+00
    0.22958E+07        -0.23267E+07         0.00000E+00
    0.00000E+00         0.00000E+00        -0.35406E+06
 
   -0.13366E+06         0.26040E+07         0.00000E+00
    0.26040E+07        -0.20568E+07         0.00000E+00
    0.00000E+00         0.00000E+00        -0.43809E+06
 
    0.10828E+08         0.75602E+05         0.00000E+00
    0.75602E+05        -0.37360E+07         0.00000E+00
    0.00000E+00         0.00000E+00         0.14184E+07
 
    0.96725E+07         0.17212E+06         0.00000E+00
    0.17212E+06        -0.37431E+07         0.00000E+00
    0.00000E+00         0.00000E+00         0.11859E+07
 
    0.86063E+07         0.22725E+06         0.00000E+00
    0.22725E+06        -0.37597E+07         0.00000E+00
    0.00000E+00         0.00000E+00         0.96932E+06
 
    0.76275E+07         0.27202E+06         0.00000E+00
    0.27202E+06        -0.37853E+07         0.00000E+00
    0.00000E+00         0.00000E+00         0.76845E+06
 
    0.67299E+07         0.32928E+06         0.00000E+00
    0.32928E+06        -0.38164E+07         0.00000E+00
    0.00000E+00         0.00000E+00         0.58269E+06
 
    0.59036E+07         0.41503E+06         0.00000E+00
    0.41503E+06        -0.38474E+07         0.00000E+00
    0.00000E+00         0.00000E+00         0.41123E+06
 
    0.51366E+07         0.53957E+06         0.00000E+00
    0.53957E+06        -0.38712E+07         0.00000E+00
    0.00000E+00         0.00000E+00         0.25309E+06
 
    0.44157E+07         0.70854E+06         0.00000E+00
    0.70854E+06        -0.38798E+07         0.00000E+00
    0.00000E+00         0.00000E+00         0.10718E+06
 
    0.37270E+07         0.92369E+06         0.00000E+00
    0.92369E+06        -0.38652E+07         0.00000E+00
    0.00000E+00         0.00000E+00        -0.27631E+05
 
    0.30574E+07         0.11835E+07         0.00000E+00
    0.11835E+07        -0.38196E+07         0.00000E+00
    0.00000E+00         0.00000E+00        -0.15244E+06
 
    0.23950E+07         0.14833E+07         0.00000E+00
    0.14833E+07        -0.37362E+07         0.00000E+00
    0.00000E+00         0.00000E+00        -0.26825E+06
 
    0.17297E+07         0.18157E+07         0.00000E+00
    0.18157E+07        -0.36094E+07         0.00000E+00
    0.00000E+00         0.00000E+00        -0.37594E+06
 
    0.10541E+07         0.21706E+07         0.00000E+00
    0.21706E+07        -0.34351E+07         0.00000E+00
    0.00000E+00         0.00000E+00        -0.47619E+06
 
    0.36409E+06         0.25349E+07         0.00000E+00
    0.25349E+07        -0.32114E+07         0.00000E+00
    0.00000E+00         0.00000E+00        -0.56947E+06
 
   -0.34123E+06         0.28924E+07         0.00000E+00
    0.28924E+07        -0.29387E+07         0.00000E+00
    0.00000E+00         0.00000E+00        -0.65598E+06
 
    0.10388E+08         0.63424E+05         0.00000E+00
    0.63424E+05        -0.42997E+07         0.00000E+00
    0.00000E+00         0.00000E+00         0.12177E+07
 
    0.91710E+07         0.13562E+06         0.00000E+00
    0.13562E+06        -0.43249E+07         0.00000E+00
    0.00000E+00         0.00000E+00         0.96922E+06
 
    0.80789E+07         0.16933E+06         0.00000E+00
    0.16933E+06        -0.43729E+07         0.00000E+00
    0.00000E+00         0.00000E+00         0.74120E+06
 
    0.71013E+07         0.19834E+06         0.00000E+00
    0.19834E+06        -0.44386E+07         0.00000E+00
    0.00000E+00         0.00000E+00         0.53254E+06
 
    0.62243E+07         0.24751E+06         0.00000E+00
    0.24751E+06        -0.45148E+07         0.00000E+00
    0.00000E+00         0.00000E+00         0.34189E+06
 
    0.54320E+07         0.33420E+06         0.00000E+00
    0.33420E+06        -0.45930E+07         0.00000E+00
    0.00000E+00         0.00000E+00         0.16778E+06
 
    0.47070E+07         0.46942E+06         0.00000E+00
    0.46942E+06        -0.46639E+07         0.00000E+00
    0.00000E+00         0.00000E+00         0.86227E+04
 
    0.40317E+07         0.65899E+06         0.00000E+00
    0.65899E+06        -0.47177E+07         0.00000E+00
    0.00000E+00         0.00000E+00        -0.13721E+06
 
    0.33887E+07         0.90436E+06         0.00000E+00
    0.90436E+06        -0.47452E+07         0.00000E+00
    0.00000E+00         0.00000E+00        -0.27130E+06
 
    0.27615E+07         0.12032E+07         0.00000E+00
    0.12032E+07        -0.47374E+07         0.00000E+00
    0.00000E+00         0.00000E+00        -0.39517E+06
 
    0.21353E+07         0.15499E+07         0.00000E+00
    0.15499E+07        -0.46863E+07         0.00000E+00
    0.00000E+00         0.00000E+00        -0.51020E+06
 
    0.14972E+07         0.19356E+07         0.00000E+00
    0.19356E+07        -0.45851E+07         0.00000E+00
    0.00000E+00         0.00000E+00        -0.61759E+06
 
    0.83684E+06         0.23483E+07         0.00000E+00
    0.23483E+07        -0.44285E+07         0.00000E+00
    0.00000E+00         0.00000E+00        -0.71832E+06
 
    0.14710E+06         0.27728E+07         0.00000E+00
    0.27728E+07        -0.42127E+07         0.00000E+00
    0.00000E+00         0.00000E+00        -0.81312E+06
 
   -0.57580E+06         0.31907E+07         0.00000E+00
    0.31907E+07        -0.39364E+07         0.00000E+00
    0.00000E+00         0.00000E+00        -0.90244E+06
 
    0.98302E+07         0.41907E+05         0.00000E+00
    0.41907E+05        -0.49488E+07         0.00000E+00
    0.00000E+00         0.00000E+00         0.97628E+06
 
    0.85548E+07         0.75002E+05         0.00000E+00
    0.75002E+05        -0.49936E+07         0.00000E+00
    0.00000E+00         0.00000E+00         0.71223E+06
 
    0.74427E+07         0.77214E+05         0.00000E+00
    0.77214E+05        -0.50758E+07         0.00000E+00
    0.00000E+00         0.00000E+00         0.47339E+06
 
    0.64739E+07         0.84284E+05         0.00000E+00
    0.84284E+05        -0.51851E+07         0.00000E+00
    0.00000E+00         0.00000E+00         0.25776E+06
 
    0.56264E+07         0.12231E+06         0.00000E+00
    0.12231E+06        -0.53103E+07         0.00000E+00
    0.00000E+00         0.00000E+00         0.63226E+05
 
    0.48775E+07         0.20925E+06         0.00000E+00
    0.20925E+06        -0.54397E+07         0.00000E+00
    0.00000E+00         0.00000E+00        -0.11245E+06
 
    0.42041E+07         0.35626E+06         0.00000E+00
    0.35626E+06        -0.55616E+07         0.00000E+00
    0.00000E+00         0.00000E+00        -0.27150E+06
 
    0.35839E+07         0.56892E+06         0.00000E+00
    0.56892E+06        -0.56646E+07         0.00000E+00
    0.00000E+00         0.00000E+00        -0.41614E+06
 
    0.29954E+07         0.84813E+06         0.00000E+00
    0.84813E+06        -0.57377E+07         0.00000E+00
    0.00000E+00         0.00000E+00        -0.54846E+06
 
    0.24186E+07         0.11908E+07         0.00000E+00
    0.11908E+07        -0.57709E+07         0.00000E+00
    0.00000E+00         0.00000E+00        -0.67046E+06
 
    0.18354E+07         0.15901E+07         0.00000E+00
    0.15901E+07        -0.57549E+07         0.00000E+00
    0.00000E+00         0.00000E+00        -0.78390E+06
 
    0.12299E+07         0.20360E+07         0.00000E+00
    0.20360E+07        -0.56817E+07         0.00000E+00
    0.00000E+00         0.00000E+00        -0.89036E+06
 
    0.58848E+06         0.25148E+07         0.00000E+00
    0.25148E+07        -0.55443E+07         0.00000E+00
    0.00000E+00         0.00000E+00        -0.99115E+06
 
   -0.99209E+05         0.30097E+07         0.00000E+00
    0.30097E+07        -0.53373E+07         0.00000E+00
    0.00000E+00         0.00000E+00        -0.10873E+07
 
   -0.84020E+06         0.34998E+07         0.00000E+00
    0.34998E+07        -0.50572E+07         0.00000E+00
    0.00000E+00         0.00000E+00        -0.11795E+07
 
    0.91183E+07         0.10388E+05         0.00000E+00
    0.10388E+05        -0.57009E+07         0.00000E+00
    0.00000E+00         0.00000E+00         0.68349E+06
 
    0.77934E+07        -0.11299E+05         0.00000E+00
   -0.11299E+05        -0.57667E+07         0.00000E+00
    0.00000E+00         0.00000E+00         0.40533E+06
 
    0.66717E+07        -0.51191E+05         0.00000E+00
   -0.51191E+05        -0.58851E+07         0.00000E+00
    0.00000E+00         0.00000E+00         0.15732E+06
 
    0.57231E+07        -0.72477E+05         0.00000E+00
   -0.72477E+05        -0.60404E+07         0.00000E+00
    0.00000E+00         0.00000E+00        -0.63464E+05
 
    0.49170E+07        -0.48732E+05         0.00000E+00
   -0.48732E+05        -0.62172E+07         0.00000E+00
    0.00000E+00         0.00000E+00        -0.26004E+06
 
    0.42233E+07         0.37822E+05         0.00000E+00
    0.37822E+05        -0.64004E+07         0.00000E+00
    0.00000E+00         0.00000E+00        -0.43544E+06
 
    0.36129E+07         0.19786E+06         0.00000E+00
    0.19786E+06        -0.65758E+07         0.00000E+00
    0.00000E+00         0.00000E+00        -0.59258E+06
 
    0.30585E+07         0.43626E+06         0.00000E+00
    0.43626E+06        -0.67301E+07         0.00000E+00
    0.00000E+00         0.00000E+00        -0.73432E+06
 
    0.25346E+07         0.75310E+06         0.00000E+00
    0.75310E+06        -0.68511E+07         0.00000E+00
    0.00000E+00         0.00000E+00        -0.86330E+06
 
    0.20174E+07         0.11443E+07         0.00000E+00
    0.11443E+07        -0.69273E+07         0.00000E+00
    0.00000E+00         0.00000E+00        -0.98199E+06
 
    0.14854E+07         0.16023E+07         0.00000E+00
    0.16023E+07        -0.69485E+07         0.00000E+00
    0.00000E+00         0.00000E+00        -0.10926E+07
 
    0.91935E+06         0.21156E+07         0.00000E+00
    0.21156E+07        -0.69050E+07         0.00000E+00
    0.00000E+00         0.00000E+00        -0.11971E+07
 
    0.30232E+06         0.26695E+07         0.00000E+00
    0.26695E+07        -0.67884E+07         0.00000E+00
    0.00000E+00         0.00000E+00        -0.12972E+07
 
   -0.37967E+06         0.32453E+07         0.00000E+00
    0.32453E+07        -0.65914E+07         0.00000E+00
    0.00000E+00         0.00000E+00        -0.13942E+07
 
   -0.11373E+07         0.38204E+07         0.00000E+00
    0.38204E+07        -0.63081E+07         0.00000E+00
    0.00000E+00         0.00000E+00        -0.14891E+07
 
    0.82147E+07        -0.31653E+05         0.00000E+00
   -0.31653E+05        -0.65749E+07         0.00000E+00
    0.00000E+00         0.00000E+00         0.32794E+06
 
    0.68546E+07        -0.12439E+06         0.00000E+00
   -0.12439E+06        -0.66627E+07         0.00000E+00
    0.00000E+00         0.00000E+00         0.38386E+05
 
    0.57387E+07        -0.21715E+06         0.00000E+00
   -0.21715E+06        -0.68185E+07         0.00000E+00
    0.00000E+00         0.00000E+00        -0.21596E+06
 
    0.48257E+07        -0.27314E+06         0.00000E+00
   -0.27314E+06        -0.70211E+07         0.00000E+00
    0.00000E+00         0.00000E+00        -0.43907E+06
 
    0.40759E+07        -0.26664E+06         0.00000E+00
   -0.26664E+06        -0.72505E+07         0.00000E+00
    0.00000E+00         0.00000E+00        -0.63492E+06
 
    0.34514E+07        -0.18091E+06         0.00000E+00
   -0.18091E+06        -0.74882E+07         0.00000E+00
    0.00000E+00         0.00000E+00        -0.80736E+06
 
    0.29173E+07        -0.64674E+04         0.00000E+00
   -0.64674E+04        -0.77177E+07         0.00000E+00
    0.00000E+00         0.00000E+00        -0.96008E+06
 
    0.24411E+07         0.26037E+06         0.00000E+00
    0.26037E+06        -0.79238E+07         0.00000E+00
    0.00000E+00         0.00000E+00        -0.10966E+07
 
    0.19930E+07         0.61858E+06         0.00000E+00
    0.61858E+06        -0.80932E+07         0.00000E+00
    0.00000E+00         0.00000E+00        -0.12200E+07
 
    0.15458E+07         0.10632E+07         0.00000E+00
    0.10632E+07        -0.82132E+07         0.00000E+00
    0.00000E+00         0.00000E+00        -0.13335E+07
 
    0.10746E+07         0.15855E+07         0.00000E+00
    0.15855E+07        -0.82725E+07         0.00000E+00
    0.00000E+00         0.00000E+00        -0.14396E+07
 
    0.55647E+06         0.21735E+07         0.00000E+00
    0.21735E+07        -0.82601E+07         0.00000E+00
    0.00000E+00         0.00000E+00        -0.15407E+07
 
   -0.28889E+05         0.28112E+07         0.00000E+00
    0.28112E+07        -0.81658E+07         0.00000E+00
    0.00000E+00         0.00000E+00        -0.16389E+07
 
   -0.69938E+06         0.34788E+07         0.00000E+00
    0.34788E+07        -0.79801E+07         0.00000E+00
    0.00000E+00         0.00000E+00        -0.17359E+07
 
   -0.14698E+07         0.41520E+07         0.00000E+00
    0.41520E+07        -0.76949E+07         0.00000E+00
    0.00000E+00         0.00000E+00        -0.18329E+07
 
    0.70796E+07        -0.84540E+05         0.00000E+00
   -0.84540E+05        -0.75906E+07         0.00000E+00
    0.00000E+00         0.00000E+00        -0.10220E+06
 
    0.57054E+07        -0.26476E+06         0.00000E+00
   -0.26476E+06        -0.77006E+07         0.00000E+00
    0.00000E+00         0.00000E+00        -0.39904E+06
 
    0.46159E+07        -0.42091E+06         0.00000E+00
   -0.42091E+06        -0.78941E+07         0.00000E+00
    0.00000E+00         0.00000E+00        -0.65565E+06
 
    0.37580E+07        -0.51755E+06         0.00000E+00
   -0.51755E+06        -0.81438E+07         0.00000E+00
    0.00000E+00         0.00000E+00        -0.87714E+06
 
    0.30824E+07        -0.53081E+06         0.00000E+00
   -0.53081E+06        -0.84249E+07         0.00000E+00
    0.00000E+00         0.00000E+00        -0.10685E+07
 
    0.25437E+07        -0.44602E+06         0.00000E+00
   -0.44602E+06        -0.87158E+07         0.00000E+00
    0.00000E+00         0.00000E+00        -0.12344E+07
 
    0.21007E+07        -0.25566E+06         0.00000E+00
   -0.25566E+06        -0.89978E+07         0.00000E+00
    0.00000E+00         0.00000E+00        -0.13794E+07
 
    0.17162E+07         0.42235E+05         0.00000E+00
    0.42235E+05        -0.92542E+07         0.00000E+00
    0.00000E+00         0.00000E+00        -0.15076E+07
 
    0.13565E+07         0.44529E+06         0.00000E+00
    0.44529E+06        -0.94705E+07         0.00000E+00
    0.00000E+00         0.00000E+00        -0.16228E+07
 
    0.99093E+06         0.94748E+06         0.00000E+00
    0.94748E+06        -0.96335E+07         0.00000E+00
    0.00000E+00         0.00000E+00        -0.17285E+07
 
    0.59126E+06         0.15395E+07         0.00000E+00
    0.15395E+07        -0.97307E+07         0.00000E+00
    0.00000E+00         0.00000E+00        -0.18279E+07
 
    0.13136E+06         0.22087E+07         0.00000E+00
    0.22087E+07        -0.97500E+07         0.00000E+00
    0.00000E+00         0.00000E+00        -0.19237E+07
 
   -0.41294E+06         0.29386E+07         0.00000E+00
    0.29386E+07        -0.96794E+07         0.00000E+00
    0.00000E+00         0.00000E+00        -0.20185E+07
 
   -0.10637E+07         0.37086E+07         0.00000E+00
    0.37086E+07        -0.95072E+07         0.00000E+00
    0.00000E+00         0.00000E+00        -0.21142E+07
 
   -0.18404E+07         0.44932E+07         0.00000E+00
    0.44932E+07        -0.92221E+07         0.00000E+00
    0.00000E+00         0.00000E+00        -0.22125E+07
 
    0.56731E+07        -0.14833E+06         0.00000E+00
   -0.14833E+06        -0.87681E+07         0.00000E+00
    0.00000E+00         0.00000E+00        -0.61902E+06
 
    0.43126E+07        -0.43213E+06         0.00000E+00
   -0.43213E+06        -0.89001E+07         0.00000E+00
    0.00000E+00         0.00000E+00        -0.91751E+06
 
    0.32755E+07        -0.66150E+06         0.00000E+00
   -0.66150E+06        -0.91302E+07         0.00000E+00
    0.00000E+00         0.00000E+00        -0.11709E+07
 
    0.24965E+07        -0.80392E+06         0.00000E+00
   -0.80392E+06        -0.94248E+07         0.00000E+00
    0.00000E+00         0.00000E+00        -0.13857E+07
 
    0.19163E+07        -0.83877E+06         0.00000E+00
   -0.83877E+06        -0.97547E+07         0.00000E+00
    0.00000E+00         0.00000E+00        -0.15677E+07
 
    0.14818E+07        -0.75456E+06         0.00000E+00
   -0.75456E+06        -0.10095E+08         0.00000E+00
    0.00000E+00         0.00000E+00        -0.17227E+07
 
    0.11463E+07        -0.54661E+06         0.00000E+00
   -0.54661E+06        -0.10425E+08         0.00000E+00
    0.00000E+00         0.00000E+00        -0.18558E+07
 
    0.86815E+06        -0.21523E+06         0.00000E+00
   -0.21523E+06        -0.10728E+08         0.00000E+00
    0.00000E+00         0.00000E+00        -0.19720E+07
 
    0.61024E+06         0.23558E+06         0.00000E+00
    0.23558E+06        -0.10988E+08         0.00000E+00
    0.00000E+00         0.00000E+00        -0.20755E+07
 
    0.33892E+06         0.79881E+06         0.00000E+00
    0.79881E+06        -0.11191E+08         0.00000E+00
    0.00000E+00         0.00000E+00        -0.21704E+07
 
    0.23069E+05         0.14647E+07         0.00000E+00
    0.14647E+07        -0.11325E+08         0.00000E+00
    0.00000E+00         0.00000E+00        -0.22604E+07
 
   -0.36668E+06         0.22206E+07         0.00000E+00
    0.22206E+07        -0.11376E+08         0.00000E+00
    0.00000E+00         0.00000E+00        -0.23485E+07
 
   -0.85828E+06         0.30500E+07         0.00000E+00
    0.30500E+07        -0.11330E+08         0.00000E+00
    0.00000E+00         0.00000E+00        -0.24377E+07
 
   -0.14783E+07         0.39323E+07         0.00000E+00
    0.39323E+07        -0.11174E+08         0.00000E+00
    0.00000E+00         0.00000E+00        -0.25304E+07
 
   -0.22516E+07         0.48412E+07         0.00000E+00
    0.48412E+07        -0.10892E+08         0.00000E+00
    0.00000E+00         0.00000E+00        -0.26287E+07
 
    0.39552E+07        -0.22277E+06         0.00000E+00
   -0.22277E+06        -0.10128E+08         0.00000E+00
    0.00000E+00         0.00000E+00        -0.12345E+07
 
    0.26437E+07        -0.62528E+06         0.00000E+00
   -0.62528E+06        -0.10280E+08         0.00000E+00
    0.00000E+00         0.00000E+00        -0.15273E+07
 
    0.16910E+07        -0.93647E+06         0.00000E+00
   -0.93647E+06        -0.10544E+08         0.00000E+00
    0.00000E+00         0.00000E+00        -0.17707E+07
 
    0.10187E+07        -0.11286E+07         0.00000E+00
   -0.11286E+07        -0.10880E+08         0.00000E+00
    0.00000E+00         0.00000E+00        -0.19722E+07
 
    0.55782E+06        -0.11858E+07         0.00000E+00
   -0.11858E+07        -0.11253E+08         0.00000E+00
    0.00000E+00         0.00000E+00        -0.21390E+07
 
    0.24812E+06        -0.11012E+07         0.00000E+00
   -0.11012E+07        -0.11636E+08         0.00000E+00
    0.00000E+00         0.00000E+00        -0.22776E+07
 
    0.37579E+05        -0.87382E+06         0.00000E+00
   -0.87382E+06        -0.12008E+08         0.00000E+00
    0.00000E+00         0.00000E+00        -0.23941E+07
 
   -0.11893E+06        -0.50691E+06         0.00000E+00
   -0.50691E+06        -0.12350E+08         0.00000E+00
    0.00000E+00         0.00000E+00        -0.24937E+07
 
   -0.26110E+06        -0.63349E+04         0.00000E+00
   -0.63349E+04        -0.12647E+08         0.00000E+00
    0.00000E+00         0.00000E+00        -0.25816E+07
 
   -0.42479E+06         0.62004E+06         0.00000E+00
    0.62004E+06        -0.12886E+08         0.00000E+00
    0.00000E+00         0.00000E+00        -0.26622E+07
 
   -0.64345E+06         0.13624E+07         0.00000E+00
    0.13624E+07        -0.13053E+08         0.00000E+00
    0.00000E+00         0.00000E+00        -0.27394E+07
 
   -0.94930E+06         0.22087E+07         0.00000E+00
    0.22087E+07        -0.13135E+08         0.00000E+00
    0.00000E+00         0.00000E+00        -0.28169E+07
 
   -0.13741E+07         0.31434E+07         0.00000E+00
    0.31434E+07        -0.13116E+08         0.00000E+00
    0.00000E+00         0.00000E+00        -0.28979E+07
 
   -0.19492E+07         0.41464E+07         0.00000E+00
    0.41464E+07        -0.12978E+08         0.00000E+00
    0.00000E+00         0.00000E+00        -0.29855E+07
 
   -0.27055E+07         0.51919E+07         0.00000E+00
    0.51919E+07        -0.12704E+08         0.00000E+00
    0.00000E+00         0.00000E+00        -0.30820E+07
 
    0.18879E+07        -0.30719E+06         0.00000E+00
   -0.30719E+06        -0.11688E+08         0.00000E+00
    0.00000E+00         0.00000E+00        -0.19601E+07
 
    0.66870E+06        -0.84191E+06         0.00000E+00
   -0.84191E+06        -0.11860E+08         0.00000E+00
    0.00000E+00         0.00000E+00        -0.22382E+07
 
   -0.16198E+06        -0.12416E+07         0.00000E+00
   -0.12416E+07        -0.12154E+08         0.00000E+00
    0.00000E+00         0.00000E+00        -0.24631E+07
 
   -0.69549E+06        -0.14856E+07         0.00000E+00
   -0.14856E+07        -0.12523E+08         0.00000E+00
    0.00000E+00         0.00000E+00        -0.26437E+07
 
   -0.10105E+07        -0.15646E+07         0.00000E+00
   -0.15646E+07        -0.12931E+08         0.00000E+00
    0.00000E+00         0.00000E+00        -0.27882E+07
 
   -0.11737E+07        -0.14778E+07         0.00000E+00
   -0.14778E+07        -0.13347E+08         0.00000E+00
    0.00000E+00         0.00000E+00        -0.29042E+07
 
   -0.12413E+07        -0.12290E+07         0.00000E+00
   -0.12290E+07        -0.13750E+08         0.00000E+00
    0.00000E+00         0.00000E+00        -0.29982E+07
 
   -0.12608E+07        -0.82518E+06         0.00000E+00
   -0.82518E+06        -0.14121E+08         0.00000E+00
    0.00000E+00         0.00000E+00        -0.30764E+07
 
   -0.12732E+07        -0.27411E+06         0.00000E+00
   -0.27411E+06        -0.14447E+08         0.00000E+00
    0.00000E+00         0.00000E+00        -0.31440E+07
 
   -0.13156E+07         0.41564E+06         0.00000E+00
    0.41564E+06        -0.14714E+08         0.00000E+00
    0.00000E+00         0.00000E+00        -0.32060E+07
 
   -0.14227E+07         0.12349E+07         0.00000E+00
    0.12349E+07        -0.14911E+08         0.00000E+00
    0.00000E+00         0.00000E+00        -0.32667E+07
 
   -0.16292E+07         0.21728E+07         0.00000E+00
    0.21728E+07        -0.15021E+08         0.00000E+00
    0.00000E+00         0.00000E+00        -0.33301E+07
 
   -0.19703E+07         0.32160E+07         0.00000E+00
    0.32160E+07        -0.15030E+08         0.00000E+00
    0.00000E+00         0.00000E+00        -0.34000E+07
 
   -0.24827E+07         0.43463E+07         0.00000E+00
    0.43463E+07        -0.14915E+08         0.00000E+00
    0.00000E+00         0.00000E+00        -0.34796E+07
 
   -0.32040E+07         0.55391E+07         0.00000E+00
    0.55391E+07        -0.14655E+08         0.00000E+00
    0.00000E+00         0.00000E+00        -0.35719E+07
 
   -0.56345E+06        -0.40049E+06         0.00000E+00
   -0.40049E+06        -0.13468E+08         0.00000E+00
    0.00000E+00         0.00000E+00        -0.28063E+07
 
   -0.16388E+07        -0.10784E+07         0.00000E+00
   -0.10784E+07        -0.13655E+08         0.00000E+00
    0.00000E+00         0.00000E+00        -0.30588E+07
 
   -0.23039E+07        -0.15709E+07         0.00000E+00
   -0.15709E+07        -0.13972E+08         0.00000E+00
    0.00000E+00         0.00000E+00        -0.32552E+07
 
   -0.26629E+07        -0.18664E+07         0.00000E+00
   -0.18664E+07        -0.14366E+08         0.00000E+00
    0.00000E+00         0.00000E+00        -0.34058E+07
 
   -0.28035E+07        -0.19649E+07         0.00000E+00
   -0.19649E+07        -0.14797E+08         0.00000E+00
    0.00000E+00         0.00000E+00        -0.35200E+07
 
   -0.27979E+07        -0.18730E+07         0.00000E+00
   -0.18730E+07        -0.15233E+08         0.00000E+00
    0.00000E+00         0.00000E+00        -0.36061E+07
 
   -0.27049E+07        -0.16009E+07         0.00000E+00
   -0.16009E+07        -0.15652E+08         0.00000E+00
    0.00000E+00         0.00000E+00        -0.36713E+07
 
   -0.25727E+07        -0.11595E+07         0.00000E+00
   -0.11595E+07        -0.16039E+08         0.00000E+00
    0.00000E+00         0.00000E+00        -0.37223E+07
 
   -0.24421E+07        -0.55897E+06         0.00000E+00
   -0.55897E+06        -0.16381E+08         0.00000E+00
    0.00000E+00         0.00000E+00        -0.37646E+07
 
   -0.23496E+07         0.19187E+06         0.00000E+00
    0.19187E+06        -0.16668E+08         0.00000E+00
    0.00000E+00         0.00000E+00        -0.38034E+07
 
   -0.23303E+07         0.10852E+07         0.00000E+00
    0.10852E+07        -0.16887E+08         0.00000E+00
    0.00000E+00         0.00000E+00        -0.38434E+07
 
   -0.24201E+07         0.21128E+07         0.00000E+00
    0.21128E+07        -0.17024E+08         0.00000E+00
    0.00000E+00         0.00000E+00        -0.38889E+07
 
   -0.26578E+07         0.32646E+07         0.00000E+00
    0.32646E+07        -0.17061E+08         0.00000E+00
    0.00000E+00         0.00000E+00        -0.39438E+07
 
   -0.30855E+07         0.45258E+07         0.00000E+00
    0.45258E+07        -0.16975E+08         0.00000E+00
    0.00000E+00         0.00000E+00        -0.40121E+07
 
   -0.37483E+07         0.58746E+07         0.00000E+00
    0.58746E+07        -0.16737E+08         0.00000E+00
    0.00000E+00         0.00000E+00        -0.40971E+07
 
   -0.34280E+07        -0.50106E+06         0.00000E+00
   -0.50106E+06        -0.15482E+08         0.00000E+00
    0.00000E+00         0.00000E+00        -0.37820E+07
 
   -0.42998E+07        -0.13298E+07         0.00000E+00
   -0.13298E+07        -0.15680E+08         0.00000E+00
    0.00000E+00         0.00000E+00        -0.39961E+07
 
   -0.47498E+07        -0.19157E+07         0.00000E+00
   -0.19157E+07        -0.16012E+08         0.00000E+00
    0.00000E+00         0.00000E+00        -0.41523E+07
 
   -0.48952E+07        -0.22596E+07         0.00000E+00
   -0.22596E+07        -0.16418E+08         0.00000E+00
    0.00000E+00         0.00000E+00        -0.42627E+07
 
   -0.48317E+07        -0.23729E+07         0.00000E+00
   -0.23729E+07        -0.16855E+08         0.00000E+00
    0.00000E+00         0.00000E+00        -0.43374E+07
 
   -0.46353E+07        -0.22719E+07         0.00000E+00
   -0.22719E+07        -0.17293E+08         0.00000E+00
    0.00000E+00         0.00000E+00        -0.43856E+07
 
   -0.43654E+07        -0.19744E+07         0.00000E+00
   -0.19744E+07        -0.17711E+08         0.00000E+00
    0.00000E+00         0.00000E+00        -0.44152E+07
 
   -0.40688E+07        -0.14961E+07         0.00000E+00
   -0.14961E+07        -0.18095E+08         0.00000E+00
    0.00000E+00         0.00000E+00        -0.44328E+07
 
   -0.37835E+07        -0.84950E+06         0.00000E+00
   -0.84950E+06        -0.18439E+08         0.00000E+00
    0.00000E+00         0.00000E+00        -0.44444E+07
 
   -0.35437E+07        -0.43091E+05         0.00000E+00
   -0.43091E+05        -0.18732E+08         0.00000E+00
    0.00000E+00         0.00000E+00        -0.44551E+07
 
   -0.33828E+07         0.91764E+06         0.00000E+00
    0.91764E+06        -0.18966E+08         0.00000E+00
    0.00000E+00         0.00000E+00        -0.44697E+07
 
   -0.33373E+07         0.20286E+07         0.00000E+00
    0.20286E+07        -0.19127E+08         0.00000E+00
    0.00000E+00         0.00000E+00        -0.44928E+07
 
   -0.34486E+07         0.32848E+07         0.00000E+00
    0.32848E+07        -0.19194E+08         0.00000E+00
    0.00000E+00         0.00000E+00        -0.45286E+07
 
   -0.37646E+07         0.46767E+07         0.00000E+00
    0.46767E+07        -0.19143E+08         0.00000E+00
    0.00000E+00         0.00000E+00        -0.45814E+07
 
   -0.43393E+07         0.61872E+07         0.00000E+00
    0.61872E+07        -0.18938E+08         0.00000E+00
    0.00000E+00         0.00000E+00        -0.46555E+07
 
   -0.67278E+07        -0.60675E+06         0.00000E+00
   -0.60675E+06        -0.17742E+08         0.00000E+00
    0.00000E+00         0.00000E+00        -0.48940E+07
 
   -0.73274E+07        -0.15893E+07         0.00000E+00
   -0.15893E+07        -0.17946E+08         0.00000E+00
    0.00000E+00         0.00000E+00        -0.50547E+07
 
   -0.75074E+07        -0.22649E+07         0.00000E+00
   -0.22649E+07        -0.18281E+08         0.00000E+00
    0.00000E+00         0.00000E+00        -0.51577E+07
 
   -0.73975E+07        -0.26502E+07         0.00000E+00
   -0.26502E+07        -0.18683E+08         0.00000E+00
    0.00000E+00         0.00000E+00        -0.52161E+07
 
   -0.71002E+07        -0.27708E+07         0.00000E+00
   -0.27708E+07        -0.19107E+08         0.00000E+00
    0.00000E+00         0.00000E+00        -0.52414E+07
 
   -0.66929E+07        -0.26553E+07         0.00000E+00
   -0.26553E+07        -0.19523E+08         0.00000E+00
    0.00000E+00         0.00000E+00        -0.52432E+07
 
   -0.62327E+07        -0.23305E+07         0.00000E+00
   -0.23305E+07        -0.19916E+08         0.00000E+00
    0.00000E+00         0.00000E+00        -0.52298E+07
 
   -0.57619E+07        -0.18177E+07         0.00000E+00
   -0.18177E+07        -0.20277E+08         0.00000E+00
    0.00000E+00         0.00000E+00        -0.52078E+07
 
   -0.53132E+07        -0.11313E+07         0.00000E+00
   -0.11313E+07        -0.20602E+08         0.00000E+00
    0.00000E+00         0.00000E+00        -0.51830E+07
 
   -0.49154E+07        -0.27902E+06         0.00000E+00
   -0.27902E+06        -0.20887E+08         0.00000E+00
    0.00000E+00         0.00000E+00        -0.51605E+07
 
   -0.45985E+07         0.73752E+06         0.00000E+00
    0.73752E+06        -0.21126E+08         0.00000E+00
    0.00000E+00         0.00000E+00        -0.51449E+07
 
   -0.43976E+07         0.19201E+07         0.00000E+00
    0.19201E+07        -0.21306E+08         0.00000E+00
    0.00000E+00         0.00000E+00        -0.51407E+07
 
   -0.43562E+07         0.32709E+07         0.00000E+00
    0.32709E+07        -0.21407E+08         0.00000E+00
    0.00000E+00         0.00000E+00        -0.51526E+07
 
   -0.45281E+07         0.47884E+07         0.00000E+00
    0.47884E+07        -0.21398E+08         0.00000E+00
    0.00000E+00         0.00000E+00        -0.51852E+07
 
   -0.49773E+07         0.64625E+07         0.00000E+00
    0.64625E+07        -0.21240E+08         0.00000E+00
    0.00000E+00         0.00000E+00        -0.52435E+07
 
   -0.10475E+08        -0.71489E+06         0.00000E+00
   -0.71489E+06        -0.20255E+08         0.00000E+00
    0.00000E+00         0.00000E+00        -0.61461E+07
 
   -0.10725E+08        -0.18487E+07         0.00000E+00
   -0.18487E+07        -0.20458E+08         0.00000E+00
    0.00000E+00         0.00000E+00        -0.62366E+07
 
   -0.10575E+08        -0.26047E+07         0.00000E+00
   -0.26047E+07        -0.20782E+08         0.00000E+00
    0.00000E+00         0.00000E+00        -0.62713E+07
 
   -0.10167E+08        -0.30191E+07         0.00000E+00
   -0.30191E+07        -0.21159E+08         0.00000E+00
    0.00000E+00         0.00000E+00        -0.62651E+07
 
   -0.96072E+07        -0.31362E+07         0.00000E+00
   -0.31362E+07        -0.21544E+08         0.00000E+00
    0.00000E+00         0.00000E+00        -0.62302E+07
 
   -0.89724E+07        -0.29995E+07         0.00000E+00
   -0.29995E+07        -0.21912E+08         0.00000E+00
    0.00000E+00         0.00000E+00        -0.61769E+07
 
   -0.83133E+07        -0.26460E+07         0.00000E+00
   -0.26460E+07        -0.22252E+08         0.00000E+00
    0.00000E+00         0.00000E+00        -0.61131E+07
 
   -0.76634E+07        -0.21032E+07         0.00000E+00
   -0.21032E+07        -0.22563E+08         0.00000E+00
    0.00000E+00         0.00000E+00        -0.60453E+07
 
   -0.70466E+07        -0.13872E+07         0.00000E+00
   -0.13872E+07        -0.22847E+08         0.00000E+00
    0.00000E+00         0.00000E+00        -0.59787E+07
 
   -0.64833E+07        -0.50357E+06         0.00000E+00
   -0.50357E+06        -0.23106E+08         0.00000E+00
    0.00000E+00         0.00000E+00        -0.59178E+07
 
   -0.59972E+07         0.55114E+06         0.00000E+00
    0.55114E+06        -0.23338E+08         0.00000E+00
    0.00000E+00         0.00000E+00        -0.58670E+07
 
   -0.56199E+07         0.17868E+07         0.00000E+00
    0.17868E+07        -0.23532E+08         0.00000E+00
    0.00000E+00         0.00000E+00        -0.58305E+07
 
   -0.53960E+07         0.32157E+07         0.00000E+00
    0.32157E+07        -0.23669E+08         0.00000E+00
    0.00000E+00         0.00000E+00        -0.58131E+07
 
   -0.53850E+07         0.48473E+07         0.00000E+00
    0.48473E+07        -0.23715E+08         0.00000E+00
    0.00000E+00         0.00000E+00        -0.58200E+07
 
   -0.56624E+07         0.66819E+07         0.00000E+00
    0.66819E+07        -0.23622E+08         0.00000E+00
    0.00000E+00         0.00000E+00        -0.58568E+07
 
   -0.14670E+08        -0.82227E+06         0.00000E+00
   -0.82227E+06        -0.23022E+08         0.00000E+00
    0.00000E+00         0.00000E+00        -0.75384E+07
 
   -0.14484E+08        -0.20976E+07         0.00000E+00
   -0.20976E+07        -0.23215E+08         0.00000E+00
    0.00000E+00         0.00000E+00        -0.75397E+07
 
   -0.13939E+08        -0.29170E+07         0.00000E+00
   -0.29170E+07        -0.23510E+08         0.00000E+00
    0.00000E+00         0.00000E+00        -0.74899E+07
 
   -0.13189E+08        -0.33425E+07         0.00000E+00
   -0.33425E+07        -0.23837E+08         0.00000E+00
    0.00000E+00         0.00000E+00        -0.74052E+07
 
   -0.12343E+08        -0.34414E+07         0.00000E+00
   -0.34414E+07        -0.24153E+08         0.00000E+00
    0.00000E+00         0.00000E+00        -0.72991E+07
 
   -0.11470E+08        -0.32753E+07         0.00000E+00
   -0.32753E+07        -0.24438E+08         0.00000E+00
    0.00000E+00         0.00000E+00        -0.71817E+07
 
   -0.10610E+08        -0.28931E+07         0.00000E+00
   -0.28931E+07        -0.24693E+08         0.00000E+00
    0.00000E+00         0.00000E+00        -0.70606E+07
 
   -0.97828E+07        -0.23279E+07         0.00000E+00
   -0.23279E+07        -0.24923E+08         0.00000E+00
    0.00000E+00         0.00000E+00        -0.69412E+07
 
   -0.89989E+07        -0.15968E+07         0.00000E+00
   -0.15968E+07        -0.25140E+08         0.00000E+00
    0.00000E+00         0.00000E+00        -0.68279E+07
 
   -0.82670E+07        -0.70237E+06         0.00000E+00
   -0.70237E+06        -0.25353E+08         0.00000E+00
    0.00000E+00         0.00000E+00        -0.67240E+07
 
   -0.76010E+07         0.36584E+06         0.00000E+00
    0.36584E+06        -0.25565E+08         0.00000E+00
    0.00000E+00         0.00000E+00        -0.66332E+07
 
   -0.70263E+07         0.16280E+07         0.00000E+00
    0.16280E+07        -0.25770E+08         0.00000E+00
    0.00000E+00         0.00000E+00        -0.65592E+07
 
   -0.65862E+07         0.31100E+07         0.00000E+00
    0.31100E+07        -0.25947E+08         0.00000E+00
    0.00000E+00         0.00000E+00        -0.65066E+07
 
   -0.63461E+07         0.48363E+07         0.00000E+00
    0.48363E+07        -0.26060E+08         0.00000E+00
    0.00000E+00         0.00000E+00        -0.64813E+07
 
   -0.63945E+07         0.68219E+07         0.00000E+00
    0.68219E+07        -0.26054E+08         0.00000E+00
    0.00000E+00         0.00000E+00        -0.64898E+07
 
   -0.19298E+08        -0.92515E+06         0.00000E+00
   -0.92515E+06        -0.26038E+08         0.00000E+00
    0.00000E+00         0.00000E+00        -0.90672E+07
 
   -0.18579E+08        -0.23229E+07         0.00000E+00
   -0.23229E+07        -0.26210E+08         0.00000E+00
    0.00000E+00         0.00000E+00        -0.89578E+07
 
   -0.17571E+08        -0.31793E+07         0.00000E+00
   -0.31793E+07        -0.26455E+08         0.00000E+00
    0.00000E+00         0.00000E+00        -0.88051E+07
 
   -0.16439E+08        -0.35902E+07         0.00000E+00
   -0.35902E+07        -0.26699E+08         0.00000E+00
    0.00000E+00         0.00000E+00        -0.86276E+07
 
   -0.15289E+08        -0.36524E+07         0.00000E+00
   -0.36524E+07        -0.26907E+08         0.00000E+00
    0.00000E+00         0.00000E+00        -0.84392E+07
 
   -0.14177E+08        -0.34488E+07         0.00000E+00
   -0.34488E+07        -0.27071E+08         0.00000E+00
    0.00000E+00         0.00000E+00        -0.82495E+07
 
   -0.13123E+08        -0.30401E+07         0.00000E+00
   -0.30401E+07        -0.27202E+08         0.00000E+00
    0.00000E+00         0.00000E+00        -0.80650E+07
 
   -0.12128E+08        -0.24643E+07         0.00000E+00
   -0.24643E+07        -0.27320E+08         0.00000E+00
    0.00000E+00         0.00000E+00        -0.78896E+07
 
   -0.11185E+08        -0.17380E+07         0.00000E+00
   -0.17380E+07        -0.27443E+08         0.00000E+00
    0.00000E+00         0.00000E+00        -0.77256E+07
 
   -0.10287E+08        -0.85934E+06         0.00000E+00
   -0.85934E+06        -0.27588E+08         0.00000E+00
    0.00000E+00         0.00000E+00        -0.75750E+07
 
   -0.94346E+07         0.19002E+06         0.00000E+00
    0.19002E+06        -0.27765E+08         0.00000E+00
    0.00000E+00         0.00000E+00        -0.74399E+07
 
   -0.86424E+07         0.14429E+07         0.00000E+00
    0.14429E+07        -0.27973E+08         0.00000E+00
    0.00000E+00         0.00000E+00        -0.73232E+07
 
   -0.79495E+07         0.29422E+07         0.00000E+00
    0.29422E+07        -0.28197E+08         0.00000E+00
    0.00000E+00         0.00000E+00        -0.72293E+07
 
   -0.74254E+07         0.47335E+07         0.00000E+00
    0.47335E+07        -0.28396E+08         0.00000E+00
    0.00000E+00         0.00000E+00        -0.71642E+07
 
   -0.71742E+07         0.68528E+07         0.00000E+00
    0.68528E+07        -0.28505E+08         0.00000E+00
    0.00000E+00         0.00000E+00        -0.71359E+07
 
   -0.24330E+08        -0.10192E+07         0.00000E+00
   -0.10192E+07        -0.29287E+08         0.00000E+00
    0.00000E+00         0.00000E+00        -0.10723E+08
 
   -0.22967E+08        -0.25080E+07         0.00000E+00
   -0.25080E+07        -0.29426E+08         0.00000E+00
    0.00000E+00         0.00000E+00        -0.10479E+08
 
   -0.21424E+08        -0.33618E+07         0.00000E+00
   -0.33618E+07        -0.29592E+08         0.00000E+00
    0.00000E+00         0.00000E+00        -0.10203E+08
 
   -0.19878E+08        -0.37233E+07         0.00000E+00
   -0.37233E+07        -0.29712E+08         0.00000E+00
    0.00000E+00         0.00000E+00        -0.99178E+07
 
   -0.18419E+08        -0.37278E+07         0.00000E+00
   -0.37278E+07        -0.29764E+08         0.00000E+00
    0.00000E+00         0.00000E+00        -0.96367E+07
 
   -0.17079E+08        -0.34809E+07         0.00000E+00
   -0.34809E+07        -0.29762E+08         0.00000E+00
    0.00000E+00         0.00000E+00        -0.93682E+07
 
   -0.15849E+08        -0.30531E+07         0.00000E+00
   -0.30531E+07        -0.29732E+08         0.00000E+00
    0.00000E+00         0.00000E+00        -0.91162E+07
 
   -0.14705E+08        -0.24838E+07         0.00000E+00
   -0.24838E+07        -0.29704E+08         0.00000E+00
    0.00000E+00         0.00000E+00        -0.88819E+07
 
   -0.13619E+08        -0.17876E+07         0.00000E+00
   -0.17876E+07        -0.29706E+08         0.00000E+00
    0.00000E+00         0.00000E+00        -0.86651E+07
 
   -0.12565E+08        -0.95734E+06         0.00000E+00
   -0.95734E+06        -0.29762E+08         0.00000E+00
    0.00000E+00         0.00000E+00        -0.84654E+07
 
   -0.11525E+08         0.33381E+05         0.00000E+00
    0.33381E+05        -0.29889E+08         0.00000E+00
    0.00000E+00         0.00000E+00        -0.82828E+07
 
   -0.10499E+08         0.12308E+07         0.00000E+00
    0.12308E+07        -0.30095E+08         0.00000E+00
    0.00000E+00         0.00000E+00        -0.81188E+07
 
   -0.95147E+07         0.26990E+07         0.00000E+00
    0.26990E+07        -0.30370E+08         0.00000E+00
    0.00000E+00         0.00000E+00        -0.79769E+07
 
   -0.86422E+07         0.45118E+07         0.00000E+00
    0.45118E+07        -0.30675E+08         0.00000E+00
    0.00000E+00         0.00000E+00        -0.78635E+07
 
   -0.80034E+07         0.67364E+07         0.00000E+00
    0.67364E+07        -0.30937E+08         0.00000E+00
    0.00000E+00         0.00000E+00        -0.77880E+07
 
   -0.29713E+08        -0.10992E+07         0.00000E+00
   -0.10992E+07        -0.32750E+08         0.00000E+00
    0.00000E+00         0.00000E+00        -0.12492E+08
 
   -0.27580E+08        -0.26294E+07         0.00000E+00
   -0.26294E+07        -0.32837E+08         0.00000E+00
    0.00000E+00         0.00000E+00        -0.12083E+08
 
   -0.25433E+08        -0.34224E+07         0.00000E+00
   -0.34224E+07        -0.32881E+08         0.00000E+00
    0.00000E+00         0.00000E+00        -0.11663E+08
 
   -0.23454E+08        -0.36916E+07         0.00000E+00
   -0.36916E+07        -0.32820E+08         0.00000E+00
    0.00000E+00         0.00000E+00        -0.11255E+08
 
   -0.21702E+08        -0.36193E+07         0.00000E+00
   -0.36193E+07        -0.32662E+08         0.00000E+00
    0.00000E+00         0.00000E+00        -0.10873E+08
 
   -0.20161E+08        -0.33308E+07         0.00000E+00
   -0.33308E+07        -0.32446E+08         0.00000E+00
    0.00000E+00         0.00000E+00        -0.10522E+08
 
   -0.18785E+08        -0.28994E+07         0.00000E+00
   -0.28994E+07        -0.32218E+08         0.00000E+00
    0.00000E+00         0.00000E+00        -0.10201E+08
 
   -0.17520E+08        -0.23608E+07         0.00000E+00
   -0.23608E+07        -0.32017E+08         0.00000E+00
    0.00000E+00         0.00000E+00        -0.99076E+07
 
   -0.16315E+08        -0.17246E+07         0.00000E+00
   -0.17246E+07        -0.31877E+08         0.00000E+00
    0.00000E+00         0.00000E+00        -0.96383E+07
 
   -0.15122E+08        -0.97946E+06         0.00000E+00
   -0.97946E+06        -0.31825E+08         0.00000E+00
    0.00000E+00         0.00000E+00        -0.93893E+07
 
   -0.13903E+08        -0.92616E+05         0.00000E+00
   -0.92616E+05        -0.31887E+08         0.00000E+00
    0.00000E+00         0.00000E+00        -0.91578E+07
 
   -0.12634E+08         0.99356E+06         0.00000E+00
    0.99356E+06        -0.32080E+08         0.00000E+00
    0.00000E+00         0.00000E+00        -0.89428E+07
 
   -0.11321E+08         0.23661E+07         0.00000E+00
    0.23661E+07        -0.32410E+08         0.00000E+00
    0.00000E+00         0.00000E+00        -0.87462E+07
 
   -0.10026E+08         0.41378E+07         0.00000E+00
    0.41378E+07        -0.32847E+08         0.00000E+00
    0.00000E+00         0.00000E+00        -0.85745E+07
 
   -0.88881E+07         0.64239E+07         0.00000E+00
    0.64239E+07        -0.33306E+08         0.00000E+00
    0.00000E+00         0.00000E+00        -0.84387E+07
 
   -0.35371E+08        -0.11580E+07         0.00000E+00
   -0.11580E+07        -0.36393E+08         0.00000E+00
    0.00000E+00         0.00000E+00        -0.14353E+08
 
   -0.32315E+08        -0.26485E+07         0.00000E+00
   -0.26485E+07        -0.36397E+08         0.00000E+00
    0.00000E+00         0.00000E+00        -0.13742E+08
 
   -0.29508E+08        -0.32979E+07         0.00000E+00
   -0.32979E+07        -0.36252E+08         0.00000E+00
    0.00000E+00         0.00000E+00        -0.13152E+08
 
   -0.27112E+08        -0.34294E+07         0.00000E+00
   -0.34294E+07        -0.35932E+08         0.00000E+00
    0.00000E+00         0.00000E+00        -0.12609E+08
 
   -0.25110E+08        -0.32745E+07         0.00000E+00
   -0.32745E+07        -0.35501E+08         0.00000E+00
    0.00000E+00         0.00000E+00        -0.12122E+08
 
   -0.23414E+08        -0.29621E+07         0.00000E+00
   -0.29621E+07        -0.35031E+08         0.00000E+00
    0.00000E+00         0.00000E+00        -0.11689E+08
 
   -0.21931E+08        -0.25545E+07         0.00000E+00
   -0.25545E+07        -0.34582E+08         0.00000E+00
    0.00000E+00         0.00000E+00        -0.11303E+08
 
   -0.20577E+08        -0.20776E+07         0.00000E+00
   -0.20776E+07        -0.34194E+08         0.00000E+00
    0.00000E+00         0.00000E+00        -0.10954E+08
 
   -0.19280E+08        -0.15347E+07         0.00000E+00
   -0.15347E+07        -0.33900E+08         0.00000E+00
    0.00000E+00         0.00000E+00        -0.10636E+08
 
   -0.17973E+08        -0.91154E+06         0.00000E+00
   -0.91154E+06        -0.33730E+08         0.00000E+00
    0.00000E+00         0.00000E+00        -0.10341E+08
 
   -0.16594E+08        -0.17419E+06         0.00000E+00
   -0.17419E+06        -0.33713E+08         0.00000E+00
    0.00000E+00         0.00000E+00        -0.10061E+08
 
   -0.15089E+08         0.73881E+06         0.00000E+00
    0.73881E+06        -0.33880E+08         0.00000E+00
    0.00000E+00         0.00000E+00        -0.97937E+07
 
   -0.13423E+08         0.19335E+07         0.00000E+00
    0.19335E+07        -0.34259E+08         0.00000E+00
    0.00000E+00         0.00000E+00        -0.95364E+07
 
   -0.11623E+08         0.35722E+07         0.00000E+00
    0.35722E+07        -0.34848E+08         0.00000E+00
    0.00000E+00         0.00000E+00        -0.92943E+07
 
   -0.98422E+07         0.58498E+07         0.00000E+00
    0.58498E+07        -0.35565E+08         0.00000E+00
    0.00000E+00         0.00000E+00        -0.90815E+07
 
   -0.41187E+08        -0.11814E+07         0.00000E+00
   -0.11814E+07        -0.40172E+08         0.00000E+00
    0.00000E+00         0.00000E+00        -0.16272E+08
 
   -0.37021E+08        -0.24905E+07         0.00000E+00
   -0.24905E+07        -0.40027E+08         0.00000E+00
    0.00000E+00         0.00000E+00        -0.15410E+08
 
   -0.33544E+08        -0.28878E+07         0.00000E+00
   -0.28878E+07        -0.39572E+08         0.00000E+00
    0.00000E+00         0.00000E+00        -0.14623E+08
 
   -0.30806E+08        -0.28599E+07         0.00000E+00
   -0.28599E+07        -0.38894E+08         0.00000E+00
    0.00000E+00         0.00000E+00        -0.13940E+08
 
   -0.28630E+08        -0.26506E+07         0.00000E+00
   -0.26506E+07        -0.38140E+08         0.00000E+00
    0.00000E+00         0.00000E+00        -0.13354E+08
 
   -0.26837E+08        -0.23550E+07         0.00000E+00
   -0.23550E+07        -0.37400E+08         0.00000E+00
    0.00000E+00         0.00000E+00        -0.12847E+08
 
   -0.25288E+08        -0.20114E+07         0.00000E+00
   -0.20114E+07        -0.36730E+08         0.00000E+00
    0.00000E+00         0.00000E+00        -0.12404E+08
 
   -0.23878E+08        -0.16322E+07         0.00000E+00
   -0.16322E+07        -0.36162E+08         0.00000E+00
    0.00000E+00         0.00000E+00        -0.12008E+08
 
   -0.22518E+08        -0.12154E+07         0.00000E+00
   -0.12154E+07        -0.35723E+08         0.00000E+00
    0.00000E+00         0.00000E+00        -0.11648E+08
 
   -0.21126E+08        -0.74675E+06         0.00000E+00
   -0.74675E+06        -0.35437E+08         0.00000E+00
    0.00000E+00         0.00000E+00        -0.11313E+08
 
   -0.19620E+08        -0.19733E+06         0.00000E+00
   -0.19733E+06        -0.35335E+08         0.00000E+00
    0.00000E+00         0.00000E+00        -0.10991E+08
 
   -0.17911E+08         0.48622E+06         0.00000E+00
    0.48622E+06        -0.35456E+08         0.00000E+00
    0.00000E+00         0.00000E+00        -0.10673E+08
 
   -0.15896E+08         0.14058E+07         0.00000E+00
    0.14058E+07        -0.35859E+08         0.00000E+00
    0.00000E+00         0.00000E+00        -0.10351E+08
 
   -0.13518E+08         0.27734E+07         0.00000E+00
    0.27734E+07        -0.36610E+08         0.00000E+00
    0.00000E+00         0.00000E+00        -0.10026E+08
 
   -0.10898E+08         0.49217E+07         0.00000E+00
    0.49217E+07        -0.37659E+08         0.00000E+00
    0.00000E+00         0.00000E+00        -0.97114E+07
 
   -0.46959E+08        -0.11233E+07         0.00000E+00
   -0.11233E+07        -0.44015E+08         0.00000E+00
    0.00000E+00         0.00000E+00        -0.18195E+08
 
   -0.41484E+08        -0.19799E+07         0.00000E+00
   -0.19799E+07        -0.43525E+08         0.00000E+00
    0.00000E+00         0.00000E+00        -0.17002E+08
 
   -0.37471E+08        -0.20539E+07         0.00000E+00
   -0.20539E+07        -0.42558E+08         0.00000E+00
    0.00000E+00         0.00000E+00        -0.16006E+08
 
   -0.34541E+08        -0.19311E+07         0.00000E+00
   -0.19311E+07        -0.41464E+08         0.00000E+00
    0.00000E+00         0.00000E+00        -0.15201E+08
 
   -0.32278E+08        -0.17414E+07         0.00000E+00
   -0.17414E+07        -0.40397E+08         0.00000E+00
    0.00000E+00         0.00000E+00        -0.14535E+08
 
   -0.30439E+08        -0.15234E+07         0.00000E+00
   -0.15234E+07        -0.39421E+08         0.00000E+00
    0.00000E+00         0.00000E+00        -0.13972E+08
 
   -0.28859E+08        -0.12905E+07         0.00000E+00
   -0.12905E+07        -0.38567E+08         0.00000E+00
    0.00000E+00         0.00000E+00        -0.13485E+08
 
   -0.27419E+08        -0.10448E+07         0.00000E+00
   -0.10448E+07        -0.37855E+08         0.00000E+00
    0.00000E+00         0.00000E+00        -0.13055E+08
 
   -0.26021E+08        -0.78201E+06         0.00000E+00
   -0.78201E+06        -0.37300E+08         0.00000E+00
    0.00000E+00         0.00000E+00        -0.12664E+08
 
   -0.24574E+08        -0.49176E+06         0.00000E+00
   -0.49176E+06        -0.36920E+08         0.00000E+00
    0.00000E+00         0.00000E+00        -0.12299E+08
 
   -0.22982E+08        -0.15513E+06         0.00000E+00
   -0.15513E+06        -0.36741E+08         0.00000E+00
    0.00000E+00         0.00000E+00        -0.11945E+08
 
   -0.21125E+08         0.26262E+06         0.00000E+00
    0.26262E+06        -0.36808E+08         0.00000E+00
    0.00000E+00         0.00000E+00        -0.11587E+08
 
   -0.18842E+08         0.83123E+06         0.00000E+00
    0.83123E+06        -0.37193E+08         0.00000E+00
    0.00000E+00         0.00000E+00        -0.11207E+08
 
   -0.15871E+08         0.17224E+07         0.00000E+00
    0.17224E+07        -0.38032E+08         0.00000E+00
    0.00000E+00         0.00000E+00        -0.10781E+08
 
   -0.12142E+08         0.34904E+07         0.00000E+00
    0.34904E+07        -0.39517E+08         0.00000E+00
    0.00000E+00         0.00000E+00        -0.10332E+08
 
   -0.52240E+08        -0.68916E+06         0.00000E+00
   -0.68916E+06        -0.47518E+08         0.00000E+00
    0.00000E+00         0.00000E+00        -0.19952E+08
 
   -0.45540E+08        -0.81085E+06         0.00000E+00
   -0.81085E+06        -0.46225E+08         0.00000E+00
    0.00000E+00         0.00000E+00        -0.18353E+08
 
   -0.41359E+08        -0.75668E+06         0.00000E+00
   -0.75668E+06        -0.44752E+08         0.00000E+00
    0.00000E+00         0.00000E+00        -0.17222E+08
 
   -0.38368E+08        -0.68716E+06         0.00000E+00
   -0.68716E+06        -0.43353E+08         0.00000E+00
    0.00000E+00         0.00000E+00        -0.16344E+08
 
   -0.36082E+08        -0.60906E+06         0.00000E+00
   -0.60906E+06        -0.42085E+08         0.00000E+00
    0.00000E+00         0.00000E+00        -0.15633E+08
 
   -0.34229E+08        -0.52794E+06         0.00000E+00
   -0.52794E+06        -0.40967E+08         0.00000E+00
    0.00000E+00         0.00000E+00        -0.15039E+08
 
   -0.32638E+08        -0.44502E+06         0.00000E+00
   -0.44502E+06        -0.40009E+08         0.00000E+00
    0.00000E+00         0.00000E+00        -0.14529E+08
 
   -0.31186E+08        -0.35969E+06         0.00000E+00
   -0.35969E+06        -0.39216E+08         0.00000E+00
    0.00000E+00         0.00000E+00        -0.14080E+08
 
   -0.29770E+08        -0.26986E+06         0.00000E+00
   -0.26986E+06        -0.38595E+08         0.00000E+00
    0.00000E+00         0.00000E+00        -0.13673E+08
 
   -0.28296E+08        -0.17170E+06         0.00000E+00
   -0.17170E+06        -0.38161E+08         0.00000E+00
    0.00000E+00         0.00000E+00        -0.13291E+08
 
   -0.26660E+08        -0.58732E+05         0.00000E+00
   -0.58732E+05        -0.37937E+08         0.00000E+00
    0.00000E+00         0.00000E+00        -0.12919E+08
 
   -0.24728E+08         0.80674E+05         0.00000E+00
    0.80674E+05        -0.37963E+08         0.00000E+00
    0.00000E+00         0.00000E+00        -0.12538E+08
 
   -0.22298E+08         0.27104E+06         0.00000E+00
    0.27104E+06        -0.38316E+08         0.00000E+00
    0.00000E+00         0.00000E+00        -0.12123E+08
 
   -0.19005E+08         0.56695E+06         0.00000E+00
    0.56695E+06        -0.39154E+08         0.00000E+00
    0.00000E+00         0.00000E+00        -0.11632E+08
 
   -0.13805E+08         0.13126E+07         0.00000E+00
    0.13126E+07        -0.40917E+08         0.00000E+00
    0.00000E+00         0.00000E+00        -0.10944E+08
 
TENSORS stresstot double 
   -0.45885E+08        -0.52184E+05         0.00000E+00
   -0.52184E+05        -0.60035E+08         0.00000E+00
    0.00000E+00         0.00000E+00        -0.57062E+08
 
   -0.47114E+08        -0.35081E+05         0.00000E+00
   -0.35081E+05        -0.60100E+08         0.00000E+00
    0.00000E+00         0.00000E+00        -0.57322E+08
 
   -0.48186E+08        -0.10542E+05         0.00000E+00
   -0.10542E+05        -0.60138E+08         0.00000E+00
    0.00000E+00         0.00000E+00        -0.57547E+08
 
   -0.49199E+08         0.86296E+04         0.00000E+00
    0.86296E+04        -0.60137E+08         0.00000E+00
    0.00000E+00         0.00000E+00        -0.57753E+08
 
   -0.50177E+08         0.24334E+05         0.00000E+00
    0.24334E+05        -0.60104E+08         0.00000E+00
    0.00000E+00         0.00000E+00        -0.57945E+08
 
   -0.51126E+08         0.37720E+05         0.00000E+00
    0.37720E+05        -0.60042E+08         0.00000E+00
    0.00000E+00         0.00000E+00        -0.58126E+08
 
   -0.52048E+08         0.49822E+05         0.00000E+00
    0.49822E+05        -0.59956E+08         0.00000E+00
    0.00000E+00         0.00000E+00        -0.58297E+08
 
   -0.52946E+08         0.61434E+05         0.00000E+00
    0.61434E+05        -0.59847E+08         0.00000E+00
    0.00000E+00         0.00000E+00        -0.58459E+08
 
   -0.53821E+08         0.73140E+05         0.00000E+00
    0.73140E+05        -0.59714E+08         0.00000E+00
    0.00000E+00         0.00000E+00        -0.58611E+08
 
   -0.54675E+08         0.85370E+05         0.00000E+00
    0.85370E+05        -0.59557E+08         0.00000E+00
    0.00000E+00         0.00000E+00        -0.58753E+08
 
   -0.55512E+08         0.98502E+05         0.00000E+00
    0.98502E+05        -0.59375E+08         0.00000E+00
    0.00000E+00         0.00000E+00        -0.58887E+08
 
   -0.56338E+08         0.11304E+06         0.00000E+00
    0.11304E+06        -0.59165E+08         0.00000E+00
    0.00000E+00         0.00000E+00        -0.59013E+08
 
   -0.57162E+08         0.13019E+06         0.00000E+00
    0.13019E+06        -0.58923E+08         0.00000E+00
    0.00000E+00         0.00000E+00        -0.59132E+08
 
   -0.58004E+08         0.15298E+06         0.00000E+00
    0.15298E+06        -0.58640E+08         0.00000E+00
    0.00000E+00         0.00000E+00        -0.59245E+08
 
   -0.58926E+08         0.20412E+06         0.00000E+00
    0.20412E+06        -0.58291E+08         0.00000E+00
    0.00000E+00         0.00000E+00        -0.59361E+08
 
   -0.45953E+08        -0.59063E+05         0.00000E+00
   -0.59063E+05        -0.59990E+08         0.00000E+00
    0.00000E+00         0.00000E+00        -0.56830E+08
 
   -0.47079E+08        -0.64086E+05         0.00000E+00
   -0.64086E+05        -0.59978E+08         0.00000E+00
    0.00000E+00         0.00000E+00        -0.57057E+08
 
   -0.48150E+08        -0.17433E+05         0.00000E+00
   -0.17433E+05        -0.59973E+08         0.00000E+00
    0.00000E+00         0.00000E+00        -0.57278E+08
 
   -0.49168E+08         0.30097E+05         0.00000E+00
    0.30097E+05        -0.59954E+08         0.00000E+00
    0.00000E+00         0.00000E+00        -0.57486E+08
 
   -0.50150E+08         0.72135E+05         0.00000E+00
    0.72135E+05        -0.59915E+08         0.00000E+00
    0.00000E+00         0.00000E+00        -0.57685E+08
 
   -0.51102E+08         0.10960E+06         0.00000E+00
    0.10960E+06        -0.59854E+08         0.00000E+00
    0.00000E+00         0.00000E+00        -0.57873E+08
 
   -0.52025E+08         0.14449E+06         0.00000E+00
    0.14449E+06        -0.59773E+08         0.00000E+00
    0.00000E+00         0.00000E+00        -0.58052E+08
 
   -0.52923E+08         0.17872E+06         0.00000E+00
    0.17872E+06        -0.59669E+08         0.00000E+00
    0.00000E+00         0.00000E+00        -0.58221E+08
 
   -0.53797E+08         0.21380E+06         0.00000E+00
    0.21380E+06        -0.59544E+08         0.00000E+00
    0.00000E+00         0.00000E+00        -0.58381E+08
 
   -0.54649E+08         0.25088E+06         0.00000E+00
    0.25088E+06        -0.59394E+08         0.00000E+00
    0.00000E+00         0.00000E+00        -0.58531E+08
 
   -0.55484E+08         0.29102E+06         0.00000E+00
    0.29102E+06        -0.59218E+08         0.00000E+00
    0.00000E+00         0.00000E+00        -0.58671E+08
 
   -0.56306E+08         0.33574E+06         0.00000E+00
    0.33574E+06        -0.59013E+08         0.00000E+00
    0.00000E+00         0.00000E+00        -0.58802E+08
 
   -0.57123E+08         0.38839E+06         0.00000E+00
    0.38839E+06        -0.58774E+08         0.00000E+00
    0.00000E+00         0.00000E+00        -0.58923E+08
 
   -0.57946E+08         0.45871E+06         0.00000E+00
    0.45871E+06        -0.58495E+08         0.00000E+00
    0.00000E+00         0.00000E+00        -0.59037E+08
 
   -0.58774E+08         0.58217E+06         0.00000E+00
    0.58217E+06        -0.58165E+08         0.00000E+00
    0.00000E+00         0.00000E+00        -0.59139E+08
 
   -0.46013E+08        -0.31950E+05         0.00000E+00
   -0.31950E+05        -0.59986E+08         0.00000E+00
    0.00000E+00         0.00000E+00        -0.56619E+08
 
   -0.47050E+08        -0.35231E+05         0.00000E+00
   -0.35231E+05        -0.59948E+08         0.00000E+00
    0.00000E+00         0.00000E+00        -0.56825E+08
 
   -0.48097E+08         0.96035E+04         0.00000E+00
    0.96035E+04        -0.59905E+08         0.00000E+00
    0.00000E+00         0.00000E+00        -0.57036E+08
 
   -0.49116E+08         0.68056E+05         0.00000E+00
    0.68056E+05        -0.59861E+08         0.00000E+00
    0.00000E+00         0.00000E+00        -0.57243E+08
 
   -0.50102E+08         0.12588E+06         0.00000E+00
    0.12588E+06        -0.59808E+08         0.00000E+00
    0.00000E+00         0.00000E+00        -0.57445E+08
 
   -0.51056E+08         0.18107E+06         0.00000E+00
    0.18107E+06        -0.59743E+08         0.00000E+00
    0.00000E+00         0.00000E+00        -0.57638E+08
 
   -0.51981E+08         0.23508E+06         0.00000E+00
    0.23508E+06        -0.59663E+08         0.00000E+00
    0.00000E+00         0.00000E+00        -0.57823E+08
 
   -0.52878E+08         0.29003E+06         0.00000E+00
    0.29003E+06        -0.59564E+08         0.00000E+00
    0.00000E+00         0.00000E+00        -0.57998E+08
 
   -0.53749E+08         0.34785E+06         0.00000E+00
    0.34785E+06        -0.59444E+08         0.00000E+00
    0.00000E+00         0.00000E+00        -0.58163E+08
 
   -0.54598E+08         0.41010E+06         0.00000E+00
    0.41010E+06        -0.59301E+08         0.00000E+00
    0.00000E+00         0.00000E+00        -0.58318E+08
 
   -0.55427E+08         0.47828E+06         0.00000E+00
    0.47828E+06        -0.59131E+08         0.00000E+00
    0.00000E+00         0.00000E+00        -0.58462E+08
 
   -0.56242E+08         0.55458E+06         0.00000E+00
    0.55458E+06        -0.58930E+08         0.00000E+00
    0.00000E+00         0.00000E+00        -0.58596E+08
 
   -0.57044E+08         0.64360E+06         0.00000E+00
    0.64360E+06        -0.58696E+08         0.00000E+00
    0.00000E+00         0.00000E+00        -0.58718E+08
 
   -0.57834E+08         0.75658E+06         0.00000E+00
    0.75658E+06        -0.58425E+08         0.00000E+00
    0.00000E+00         0.00000E+00        -0.58829E+08
 
   -0.58597E+08         0.91217E+06         0.00000E+00
    0.91217E+06        -0.58122E+08         0.00000E+00
    0.00000E+00         0.00000E+00        -0.58924E+08
 
   -0.46033E+08        -0.25665E+04         0.00000E+00
   -0.25665E+04        -0.59987E+08         0.00000E+00
    0.00000E+00         0.00000E+00        -0.56409E+08
 
   -0.47021E+08         0.16593E+05         0.00000E+00
    0.16593E+05        -0.59945E+08         0.00000E+00
    0.00000E+00         0.00000E+00        -0.56605E+08
 
   -0.48042E+08         0.62778E+05         0.00000E+00
    0.62778E+05        -0.59887E+08         0.00000E+00
    0.00000E+00         0.00000E+00        -0.56810E+08
 
   -0.49054E+08         0.12286E+06         0.00000E+00
    0.12286E+06        -0.59827E+08         0.00000E+00
    0.00000E+00         0.00000E+00        -0.57016E+08
 
   -0.50041E+08         0.18747E+06         0.00000E+00
    0.18747E+06        -0.59765E+08         0.00000E+00
    0.00000E+00         0.00000E+00        -0.57219E+08
 
   -0.50995E+08         0.25376E+06         0.00000E+00
    0.25376E+06        -0.59697E+08         0.00000E+00
    0.00000E+00         0.00000E+00        -0.57415E+08
 
   -0.51918E+08         0.32256E+06         0.00000E+00
    0.32256E+06        -0.59619E+08         0.00000E+00
    0.00000E+00         0.00000E+00        -0.57603E+08
 
   -0.52811E+08         0.39579E+06         0.00000E+00
    0.39579E+06        -0.59525E+08         0.00000E+00
    0.00000E+00         0.00000E+00        -0.57782E+08
 
   -0.53677E+08         0.47536E+06         0.00000E+00
    0.47536E+06        -0.59412E+08         0.00000E+00
    0.00000E+00         0.00000E+00        -0.57951E+08
 
   -0.54519E+08         0.56287E+06         0.00000E+00
    0.56287E+06        -0.59276E+08         0.00000E+00
    0.00000E+00         0.00000E+00        -0.58110E+08
 
   -0.55340E+08         0.65981E+06         0.00000E+00
    0.65981E+06        -0.59112E+08         0.00000E+00
    0.00000E+00         0.00000E+00        -0.58257E+08
 
   -0.56143E+08         0.76826E+06         0.00000E+00
    0.76826E+06        -0.58919E+08         0.00000E+00
    0.00000E+00         0.00000E+00        -0.58392E+08
 
   -0.56927E+08         0.89211E+06         0.00000E+00
    0.89211E+06        -0.58692E+08         0.00000E+00
    0.00000E+00         0.00000E+00        -0.58515E+08
 
   -0.57688E+08         0.10379E+07         0.00000E+00
    0.10379E+07        -0.58433E+08         0.00000E+00
    0.00000E+00         0.00000E+00        -0.58623E+08
 
   -0.58409E+08         0.12134E+07         0.00000E+00
    0.12134E+07        -0.58149E+08         0.00000E+00
    0.00000E+00         0.00000E+00        -0.58715E+08
 
   -0.46007E+08         0.24178E+05         0.00000E+00
    0.24178E+05        -0.59989E+08         0.00000E+00
    0.00000E+00         0.00000E+00        -0.56193E+08
 
   -0.46979E+08         0.71364E+05         0.00000E+00
    0.71364E+05        -0.59949E+08         0.00000E+00
    0.00000E+00         0.00000E+00        -0.56387E+08
 
   -0.47986E+08         0.12458E+06         0.00000E+00
    0.12458E+06        -0.59892E+08         0.00000E+00
    0.00000E+00         0.00000E+00        -0.56591E+08
 
   -0.48991E+08         0.18521E+06         0.00000E+00
    0.18521E+06        -0.59831E+08         0.00000E+00
    0.00000E+00         0.00000E+00        -0.56796E+08
 
   -0.49973E+08         0.25195E+06         0.00000E+00
    0.25195E+06        -0.59769E+08         0.00000E+00
    0.00000E+00         0.00000E+00        -0.57000E+08
 
   -0.50923E+08         0.32467E+06         0.00000E+00
    0.32467E+06        -0.59703E+08         0.00000E+00
    0.00000E+00         0.00000E+00        -0.57198E+08
 
   -0.51841E+08         0.40476E+06         0.00000E+00
    0.40476E+06        -0.59631E+08         0.00000E+00
    0.00000E+00         0.00000E+00        -0.57389E+08
 
   -0.52726E+08         0.49413E+06         0.00000E+00
    0.49413E+06        -0.59545E+08         0.00000E+00
    0.00000E+00         0.00000E+00        -0.57571E+08
 
   -0.53582E+08         0.59457E+06         0.00000E+00
    0.59457E+06        -0.59442E+08         0.00000E+00
    0.00000E+00         0.00000E+00        -0.57742E+08
 
   -0.54414E+08         0.70738E+06         0.00000E+00
    0.70738E+06        -0.59315E+08         0.00000E+00
    0.00000E+00         0.00000E+00        -0.57903E+08
 
   -0.55223E+08         0.83355E+06         0.00000E+00
    0.83355E+06        -0.59161E+08         0.00000E+00
    0.00000E+00         0.00000E+00        -0.58052E+08
 
   -0.56011E+08         0.97414E+06         0.00000E+00
    0.97414E+06        -0.58977E+08         0.00000E+00
    0.00000E+00         0.00000E+00        -0.58188E+08
 
   -0.56778E+08         0.11307E+07         0.00000E+00
    0.11307E+07        -0.58759E+08         0.00000E+00
    0.00000E+00         0.00000E+00        -0.58310E+08
 
   -0.57516E+08         0.13051E+07         0.00000E+00
    0.13051E+07        -0.58512E+08         0.00000E+00
    0.00000E+00         0.00000E+00        -0.58417E+08
 
   -0.58212E+08         0.14981E+07         0.00000E+00
    0.14981E+07        -0.58241E+08         0.00000E+00
    0.00000E+00         0.00000E+00        -0.58507E+08
 
   -0.45940E+08         0.46661E+05         0.00000E+00
    0.46661E+05        -0.59991E+08         0.00000E+00
    0.00000E+00         0.00000E+00        -0.55967E+08
 
   -0.46921E+08         0.12010E+06         0.00000E+00
    0.12010E+06        -0.59959E+08         0.00000E+00
    0.00000E+00         0.00000E+00        -0.56164E+08
 
   -0.47927E+08         0.18210E+06         0.00000E+00
    0.18210E+06        -0.59911E+08         0.00000E+00
    0.00000E+00         0.00000E+00        -0.56369E+08
 
   -0.48927E+08         0.24375E+06         0.00000E+00
    0.24375E+06        -0.59858E+08         0.00000E+00
    0.00000E+00         0.00000E+00        -0.56576E+08
 
   -0.49902E+08         0.31098E+06         0.00000E+00
    0.31098E+06        -0.59805E+08         0.00000E+00
    0.00000E+00         0.00000E+00        -0.56782E+08
 
   -0.50844E+08         0.38769E+06         0.00000E+00
    0.38769E+06        -0.59751E+08         0.00000E+00
    0.00000E+00         0.00000E+00        -0.56982E+08
 
   -0.51750E+08         0.47694E+06         0.00000E+00
    0.47694E+06        -0.59690E+08         0.00000E+00
    0.00000E+00         0.00000E+00        -0.57174E+08
 
   -0.52622E+08         0.58118E+06         0.00000E+00
    0.58118E+06        -0.59618E+08         0.00000E+00
    0.00000E+00         0.00000E+00        -0.57357E+08
 
   -0.53464E+08         0.70212E+06         0.00000E+00
    0.70212E+06        -0.59529E+08         0.00000E+00
    0.00000E+00         0.00000E+00        -0.57530E+08
 
   -0.54280E+08         0.84059E+06         0.00000E+00
    0.84059E+06        -0.59416E+08         0.00000E+00
    0.00000E+00         0.00000E+00        -0.57691E+08
 
   -0.55074E+08         0.99665E+06         0.00000E+00
    0.99665E+06        -0.59274E+08         0.00000E+00
    0.00000E+00         0.00000E+00        -0.57841E+08
 
   -0.55846E+08         0.11698E+07         0.00000E+00
    0.11698E+07        -0.59101E+08         0.00000E+00
    0.00000E+00         0.00000E+00        -0.57977E+08
 
   -0.56597E+08         0.13588E+07         0.00000E+00
    0.13588E+07        -0.58895E+08         0.00000E+00
    0.00000E+00         0.00000E+00        -0.58099E+08
 
   -0.57320E+08         0.15617E+07         0.00000E+00
    0.15617E+07        -0.58657E+08         0.00000E+00
    0.00000E+00         0.00000E+00        -0.58206E+08
 
   -0.58004E+08         0.17744E+07         0.00000E+00
    0.17744E+07        -0.58393E+08         0.00000E+00
    0.00000E+00         0.00000E+00        -0.58295E+08
 
   -0.45839E+08         0.63894E+05         0.00000E+00
    0.63894E+05        -0.59994E+08         0.00000E+00
    0.00000E+00         0.00000E+00        -0.55724E+08
 
   -0.46849E+08         0.15776E+06         0.00000E+00
    0.15776E+06        -0.59971E+08         0.00000E+00
    0.00000E+00         0.00000E+00        -0.55929E+08
 
   -0.47865E+08         0.22673E+06         0.00000E+00
    0.22673E+06        -0.59937E+08         0.00000E+00
    0.00000E+00         0.00000E+00        -0.56139E+08
 
   -0.48864E+08         0.28878E+06         0.00000E+00
    0.28878E+06        -0.59902E+08         0.00000E+00
    0.00000E+00         0.00000E+00        -0.56349E+08
 
   -0.49830E+08         0.35572E+06         0.00000E+00
    0.35572E+06        -0.59867E+08         0.00000E+00
    0.00000E+00         0.00000E+00        -0.56556E+08
 
   -0.50759E+08         0.43536E+06         0.00000E+00
    0.43536E+06        -0.59831E+08         0.00000E+00
    0.00000E+00         0.00000E+00        -0.56757E+08
 
   -0.51648E+08         0.53294E+06         0.00000E+00
    0.53294E+06        -0.59790E+08         0.00000E+00
    0.00000E+00         0.00000E+00        -0.56951E+08
 
   -0.52501E+08         0.65178E+06         0.00000E+00
    0.65178E+06        -0.59737E+08         0.00000E+00
    0.00000E+00         0.00000E+00        -0.57134E+08
 
   -0.53323E+08         0.79362E+06         0.00000E+00
    0.79362E+06        -0.59667E+08         0.00000E+00
    0.00000E+00         0.00000E+00        -0.57307E+08
 
   -0.54118E+08         0.95874E+06         0.00000E+00
    0.95874E+06        -0.59572E+08         0.00000E+00
    0.00000E+00         0.00000E+00        -0.57468E+08
 
   -0.54893E+08         0.11461E+07         0.00000E+00
    0.11461E+07        -0.59446E+08         0.00000E+00
    0.00000E+00         0.00000E+00        -0.57618E+08
 
   -0.55648E+08         0.13533E+07         0.00000E+00
    0.13533E+07        -0.59287E+08         0.00000E+00
    0.00000E+00         0.00000E+00        -0.57753E+08
 
   -0.56384E+08         0.15766E+07         0.00000E+00
    0.15766E+07        -0.59092E+08         0.00000E+00
    0.00000E+00         0.00000E+00        -0.57875E+08
 
   -0.57097E+08         0.18108E+07         0.00000E+00
    0.18108E+07        -0.58863E+08         0.00000E+00
    0.00000E+00         0.00000E+00        -0.57981E+08
 
   -0.57779E+08         0.20480E+07         0.00000E+00
    0.20480E+07        -0.58602E+08         0.00000E+00
    0.00000E+00         0.00000E+00        -0.58071E+08
 
   -0.45714E+08         0.75018E+05         0.00000E+00
    0.75018E+05        -0.59997E+08         0.00000E+00
    0.00000E+00         0.00000E+00        -0.55460E+08
 
   -0.46767E+08         0.18083E+06         0.00000E+00
    0.18083E+06        -0.59985E+08         0.00000E+00
    0.00000E+00         0.00000E+00        -0.55676E+08
 
   -0.47801E+08         0.25223E+06         0.00000E+00
    0.25223E+06        -0.59971E+08         0.00000E+00
    0.00000E+00         0.00000E+00        -0.55893E+08
 
   -0.48801E+08         0.31252E+06         0.00000E+00
    0.31252E+06        -0.59958E+08         0.00000E+00
    0.00000E+00         0.00000E+00        -0.56107E+08
 
   -0.49758E+08         0.37811E+06         0.00000E+00
    0.37811E+06        -0.59949E+08         0.00000E+00
    0.00000E+00         0.00000E+00        -0.56317E+08
 
   -0.50668E+08         0.46022E+06         0.00000E+00
    0.46022E+06        -0.59939E+08         0.00000E+00
    0.00000E+00         0.00000E+00        -0.56519E+08
 
   -0.51534E+08         0.56616E+06         0.00000E+00
    0.56616E+06        -0.59924E+08         0.00000E+00
    0.00000E+00         0.00000E+00        -0.56712E+08
 
   -0.52361E+08         0.70021E+06         0.00000E+00
    0.70021E+06        -0.59897E+08         0.00000E+00
    0.00000E+00         0.00000E+00        -0.56894E+08
 
   -0.53157E+08         0.86421E+06         0.00000E+00
    0.86421E+06        -0.59851E+08         0.00000E+00
    0.00000E+00         0.00000E+00        -0.57066E+08
 
   -0.53926E+08         0.10578E+07         0.00000E+00
    0.10578E+07        -0.59778E+08         0.00000E+00
    0.00000E+00         0.00000E+00        -0.57227E+08
 
   -0.54677E+08         0.12788E+07         0.00000E+00
    0.12788E+07        -0.59672E+08         0.00000E+00
    0.00000E+00         0.00000E+00        -0.57374E+08
 
   -0.55413E+08         0.15231E+07         0.00000E+00
    0.15231E+07        -0.59529E+08         0.00000E+00
    0.00000E+00         0.00000E+00        -0.57509E+08
 
   -0.56136E+08         0.17845E+07         0.00000E+00
    0.17845E+07        -0.59347E+08         0.00000E+00
    0.00000E+00         0.00000E+00        -0.57631E+08
 
   -0.56844E+08         0.20549E+07         0.00000E+00
    0.20549E+07        -0.59124E+08         0.00000E+00
    0.00000E+00         0.00000E+00        -0.57737E+08
 
   -0.57531E+08         0.23234E+07         0.00000E+00
    0.23234E+07        -0.58864E+08         0.00000E+00
    0.00000E+00         0.00000E+00        -0.57827E+08
 
   -0.45576E+08         0.79197E+05         0.00000E+00
    0.79197E+05        -0.60000E+08         0.00000E+00
    0.00000E+00         0.00000E+00        -0.55171E+08
 
   -0.46682E+08         0.18644E+06         0.00000E+00
    0.18644E+06        -0.60002E+08         0.00000E+00
    0.00000E+00         0.00000E+00        -0.55399E+08
 
   -0.47740E+08         0.25375E+06         0.00000E+00
    0.25375E+06        -0.60010E+08         0.00000E+00
    0.00000E+00         0.00000E+00        -0.55624E+08
 
   -0.48742E+08         0.30866E+06         0.00000E+00
    0.30866E+06        -0.60026E+08         0.00000E+00
    0.00000E+00         0.00000E+00        -0.55843E+08
 
   -0.49685E+08         0.37124E+06         0.00000E+00
    0.37124E+06        -0.60048E+08         0.00000E+00
    0.00000E+00         0.00000E+00        -0.56054E+08
 
   -0.50572E+08         0.45542E+06         0.00000E+00
    0.45542E+06        -0.60071E+08         0.00000E+00
    0.00000E+00         0.00000E+00        -0.56257E+08
 
   -0.51408E+08         0.57025E+06         0.00000E+00
    0.57025E+06        -0.60088E+08         0.00000E+00
    0.00000E+00         0.00000E+00        -0.56449E+08
 
   -0.52202E+08         0.72084E+06         0.00000E+00
    0.72084E+06        -0.60092E+08         0.00000E+00
    0.00000E+00         0.00000E+00        -0.56630E+08
 
   -0.52964E+08         0.90904E+06         0.00000E+00
    0.90904E+06        -0.60075E+08         0.00000E+00
    0.00000E+00         0.00000E+00        -0.56799E+08
 
   -0.53702E+08         0.11339E+07         0.00000E+00
    0.11339E+07        -0.60029E+08         0.00000E+00
    0.00000E+00         0.00000E+00        -0.56957E+08
 
   -0.54424E+08         0.13921E+07         0.00000E+00
    0.13921E+07        -0.59946E+08         0.00000E+00
    0.00000E+00         0.00000E+00        -0.57103E+08
 
   -0.55138E+08         0.16778E+07         0.00000E+00
    0.16778E+07        -0.59821E+08         0.00000E+00
    0.00000E+00         0.00000E+00        -0.57236E+08
 
   -0.55847E+08         0.19826E+07         0.00000E+00
    0.19826E+07        -0.59652E+08         0.00000E+00
    0.00000E+00         0.00000E+00        -0.57356E+08
 
   -0.56552E+08         0.22958E+07         0.00000E+00
    0.22958E+07        -0.59435E+08         0.00000E+00
    0.00000E+00         0.00000E+00        -0.57463E+08
 
   -0.57250E+08         0.26040E+07         0.00000E+00
    0.26040E+07        -0.59173E+08         0.00000E+00
    0.00000E+00         0.00000E+00        -0.57554E+08
 
   -0.45440E+08         0.75602E+05         0.00000E+00
    0.75602E+05        -0.60004E+08         0.00000E+00
    0.00000E+00         0.00000E+00        -0.54850E+08
 
   -0.46605E+08         0.17212E+06         0.00000E+00
    0.17212E+06        -0.60020E+08         0.00000E+00
    0.00000E+00         0.00000E+00        -0.55091E+08
 
   -0.47688E+08         0.22725E+06         0.00000E+00
    0.22725E+06        -0.60054E+08         0.00000E+00
    0.00000E+00         0.00000E+00        -0.55325E+08
 
   -0.48690E+08         0.27202E+06         0.00000E+00
    0.27202E+06        -0.60102E+08         0.00000E+00
    0.00000E+00         0.00000E+00        -0.55549E+08
 
   -0.49614E+08         0.32928E+06         0.00000E+00
    0.32928E+06        -0.60161E+08         0.00000E+00
    0.00000E+00         0.00000E+00        -0.55762E+08
 
   -0.50471E+08         0.41503E+06         0.00000E+00
    0.41503E+06        -0.60222E+08         0.00000E+00
    0.00000E+00         0.00000E+00        -0.55963E+08
 
   -0.51269E+08         0.53957E+06         0.00000E+00
    0.53957E+06        -0.60277E+08         0.00000E+00
    0.00000E+00         0.00000E+00        -0.56153E+08
 
   -0.52022E+08         0.70854E+06         0.00000E+00
    0.70854E+06        -0.60317E+08         0.00000E+00
    0.00000E+00         0.00000E+00        -0.56330E+08
 
   -0.52742E+08         0.92369E+06         0.00000E+00
    0.92369E+06        -0.60334E+08         0.00000E+00
    0.00000E+00         0.00000E+00        -0.56496E+08
 
   -0.53440E+08         0.11835E+07         0.00000E+00
    0.11835E+07        -0.60317E+08         0.00000E+00
    0.00000E+00         0.00000E+00        -0.56650E+08
 
   -0.54129E+08         0.14833E+07         0.00000E+00
    0.14833E+07        -0.60261E+08         0.00000E+00
    0.00000E+00         0.00000E+00        -0.56793E+08
 
   -0.54818E+08         0.18157E+07         0.00000E+00
    0.18157E+07        -0.60157E+08         0.00000E+00
    0.00000E+00         0.00000E+00        -0.56923E+08
 
   -0.55511E+08         0.21706E+07         0.00000E+00
    0.21706E+07        -0.60001E+08         0.00000E+00
    0.00000E+00         0.00000E+00        -0.57042E+08
 
   -0.56215E+08         0.25349E+07         0.00000E+00
    0.25349E+07        -0.59790E+08         0.00000E+00
    0.00000E+00         0.00000E+00        -0.57148E+08
 
   -0.56927E+08         0.28924E+07         0.00000E+00
    0.28924E+07        -0.59524E+08         0.00000E+00
    0.00000E+00         0.00000E+00        -0.57242E+08
 
   -0.45320E+08         0.63424E+05         0.00000E+00
    0.63424E+05        -0.60008E+08         0.00000E+00
    0.00000E+00         0.00000E+00        -0.54491E+08
 
   -0.46545E+08         0.13562E+06         0.00000E+00
    0.13562E+06        -0.60041E+08         0.00000E+00
    0.00000E+00         0.00000E+00        -0.54747E+08
 
   -0.47651E+08         0.16933E+06         0.00000E+00
    0.16933E+06        -0.60102E+08         0.00000E+00
    0.00000E+00         0.00000E+00        -0.54988E+08
 
   -0.48647E+08         0.19834E+06         0.00000E+00
    0.19834E+06        -0.60187E+08         0.00000E+00
    0.00000E+00         0.00000E+00        -0.55216E+08
 
   -0.49546E+08         0.24751E+06         0.00000E+00
    0.24751E+06        -0.60285E+08         0.00000E+00
    0.00000E+00         0.00000E+00        -0.55429E+08
 
   -0.50364E+08         0.33420E+06         0.00000E+00
    0.33420E+06        -0.60389E+08         0.00000E+00
    0.00000E+00         0.00000E+00        -0.55628E+08
 
   -0.51115E+08         0.46942E+06         0.00000E+00
    0.46942E+06        -0.60486E+08         0.00000E+00
    0.00000E+00         0.00000E+00        -0.55813E+08
 
   -0.51817E+08         0.65899E+06         0.00000E+00
    0.65899E+06        -0.60566E+08         0.00000E+00
    0.00000E+00         0.00000E+00        -0.55986E+08
 
   -0.52486E+08         0.90436E+06         0.00000E+00
    0.90436E+06        -0.60620E+08         0.00000E+00
    0.00000E+00         0.00000E+00        -0.56146E+08
 
   -0.53138E+08         0.12032E+07         0.00000E+00
    0.12032E+07        -0.60637E+08         0.00000E+00
    0.00000E+00         0.00000E+00        -0.56295E+08
 
   -0.53787E+08         0.15499E+07         0.00000E+00
    0.15499E+07        -0.60609E+08         0.00000E+00
    0.00000E+00         0.00000E+00        -0.56433E+08
 
   -0.54445E+08         0.19356E+07         0.00000E+00
    0.19356E+07        -0.60527E+08         0.00000E+00
    0.00000E+00         0.00000E+00        -0.56559E+08
 
   -0.55121E+08         0.23483E+07         0.00000E+00
    0.23483E+07        -0.60386E+08         0.00000E+00
    0.00000E+00         0.00000E+00        -0.56676E+08
 
   -0.55821E+08         0.27728E+07         0.00000E+00
    0.27728E+07        -0.60181E+08         0.00000E+00
    0.00000E+00         0.00000E+00        -0.56782E+08
 
   -0.56550E+08         0.31907E+07         0.00000E+00
    0.31907E+07        -0.59911E+08         0.00000E+00
    0.00000E+00         0.00000E+00        -0.56877E+08
 
   -0.45234E+08         0.41907E+05         0.00000E+00
    0.41907E+05        -0.60013E+08         0.00000E+00
    0.00000E+00         0.00000E+00        -0.54087E+08
 
   -0.46514E+08         0.75002E+05         0.00000E+00
    0.75002E+05        -0.60063E+08         0.00000E+00
    0.00000E+00         0.00000E+00        -0.54357E+08
 
   -0.47636E+08         0.77214E+05         0.00000E+00
    0.77214E+05        -0.60155E+08         0.00000E+00
    0.00000E+00         0.00000E+00        -0.54606E+08
 
   -0.48619E+08         0.84284E+05         0.00000E+00
    0.84284E+05        -0.60278E+08         0.00000E+00
    0.00000E+00         0.00000E+00        -0.54835E+08
 
   -0.49483E+08         0.12231E+06         0.00000E+00
    0.12231E+06        -0.60420E+08         0.00000E+00
    0.00000E+00         0.00000E+00        -0.55046E+08
 
   -0.50251E+08         0.20925E+06         0.00000E+00
    0.20925E+06        -0.60568E+08         0.00000E+00
    0.00000E+00         0.00000E+00        -0.55241E+08
 
   -0.50944E+08         0.35626E+06         0.00000E+00
    0.35626E+06        -0.60710E+08         0.00000E+00
    0.00000E+00         0.00000E+00        -0.55420E+08
 
   -0.51585E+08         0.56892E+06         0.00000E+00
    0.56892E+06        -0.60834E+08         0.00000E+00
    0.00000E+00         0.00000E+00        -0.55585E+08
 
   -0.52194E+08         0.84813E+06         0.00000E+00
    0.84813E+06        -0.60927E+08         0.00000E+00
    0.00000E+00         0.00000E+00        -0.55738E+08
 
   -0.52791E+08         0.11908E+07         0.00000E+00
    0.11908E+07        -0.60980E+08         0.00000E+00
    0.00000E+00         0.00000E+00        -0.55880E+08
 
   -0.53392E+08         0.15901E+07         0.00000E+00
    0.15901E+07        -0.60982E+08         0.00000E+00
    0.00000E+00         0.00000E+00        -0.56011E+08
 
   -0.54012E+08         0.20360E+07         0.00000E+00
    0.20360E+07        -0.60924E+08         0.00000E+00
    0.00000E+00         0.00000E+00        -0.56133E+08
 
   -0.54666E+08         0.25148E+07         0.00000E+00
    0.25148E+07        -0.60799E+08         0.00000E+00
    0.00000E+00         0.00000E+00        -0.56246E+08
 
   -0.55362E+08         0.30097E+07         0.00000E+00
    0.30097E+07        -0.60600E+08         0.00000E+00
    0.00000E+00         0.00000E+00        -0.56350E+08
 
   -0.56108E+08         0.34998E+07         0.00000E+00
    0.34998E+07        -0.60325E+08         0.00000E+00
    0.00000E+00         0.00000E+00        -0.56447E+08
 
   -0.45198E+08         0.10388E+05         0.00000E+00
    0.10388E+05        -0.60017E+08         0.00000E+00
    0.00000E+00         0.00000E+00        -0.53633E+08
 
   -0.46526E+08        -0.11299E+05         0.00000E+00
   -0.11299E+05        -0.60086E+08         0.00000E+00
    0.00000E+00         0.00000E+00        -0.53914E+08
 
   -0.47653E+08        -0.51191E+05         0.00000E+00
   -0.51191E+05        -0.60210E+08         0.00000E+00
    0.00000E+00         0.00000E+00        -0.54167E+08
 
   -0.48609E+08        -0.72477E+05         0.00000E+00
   -0.72477E+05        -0.60373E+08         0.00000E+00
    0.00000E+00         0.00000E+00        -0.54396E+08
 
   -0.49426E+08        -0.48732E+05         0.00000E+00
   -0.48732E+05        -0.60560E+08         0.00000E+00
    0.00000E+00         0.00000E+00        -0.54603E+08
 
   -0.50132E+08         0.37822E+05         0.00000E+00
    0.37822E+05        -0.60755E+08         0.00000E+00
    0.00000E+00         0.00000E+00        -0.54790E+08
 
   -0.50755E+08         0.19786E+06         0.00000E+00
    0.19786E+06        -0.60944E+08         0.00000E+00
    0.00000E+00         0.00000E+00        -0.54961E+08
 
   -0.51323E+08         0.43626E+06         0.00000E+00
    0.43626E+06        -0.61112E+08         0.00000E+00
    0.00000E+00         0.00000E+00        -0.55116E+08
 
   -0.51861E+08         0.75310E+06         0.00000E+00
    0.75310E+06        -0.61247E+08         0.00000E+00
    0.00000E+00         0.00000E+00        -0.55259E+08
 
   -0.52392E+08         0.11443E+07         0.00000E+00
    0.11443E+07        -0.61337E+08         0.00000E+00
    0.00000E+00         0.00000E+00        -0.55391E+08
 
   -0.52936E+08         0.16023E+07         0.00000E+00
    0.16023E+07        -0.61370E+08         0.00000E+00
    0.00000E+00         0.00000E+00        -0.55514E+08
 
   -0.53513E+08         0.21156E+07         0.00000E+00
    0.21156E+07        -0.61337E+08         0.00000E+00
    0.00000E+00         0.00000E+00        -0.55629E+08
 
   -0.54138E+08         0.26695E+07         0.00000E+00
    0.26695E+07        -0.61229E+08         0.00000E+00
    0.00000E+00         0.00000E+00        -0.55737E+08
 
   -0.54826E+08         0.32453E+07         0.00000E+00
    0.32453E+07        -0.61037E+08         0.00000E+00
    0.00000E+00         0.00000E+00        -0.55840E+08
 
   -0.55586E+08         0.38204E+07         0.00000E+00
    0.38204E+07        -0.60757E+08         0.00000E+00
    0.00000E+00         0.00000E+00        -0.55938E+08
 
   -0.45233E+08        -0.31653E+05         0.00000E+00
   -0.31653E+05        -0.60022E+08         0.00000E+00
    0.00000E+00         0.00000E+00        -0.53119E+08
 
   -0.46593E+08        -0.12439E+06         0.00000E+00
   -0.12439E+06        -0.60110E+08         0.00000E+00
    0.00000E+00         0.00000E+00        -0.53409E+08
 
   -0.47709E+08        -0.21715E+06         0.00000E+00
   -0.21715E+06        -0.60266E+08         0.00000E+00
    0.00000E+00         0.00000E+00        -0.53664E+08
 
   -0.48624E+08        -0.27314E+06         0.00000E+00
   -0.27314E+06        -0.60471E+08         0.00000E+00
    0.00000E+00         0.00000E+00        -0.53889E+08
 
   -0.49377E+08        -0.26664E+06         0.00000E+00
   -0.26664E+06        -0.60703E+08         0.00000E+00
    0.00000E+00         0.00000E+00        -0.54088E+08
 
   -0.50006E+08        -0.18091E+06         0.00000E+00
   -0.18091E+06        -0.60945E+08         0.00000E+00
    0.00000E+00         0.00000E+00        -0.54265E+08
 
   -0.50546E+08        -0.64674E+04         0.00000E+00
   -0.64674E+04        -0.61181E+08         0.00000E+00
    0.00000E+00         0.00000E+00        -0.54423E+08
 
   -0.51028E+08         0.26037E+06         0.00000E+00
    0.26037E+06        -0.61393E+08         0.00000E+00
    0.00000E+00         0.00000E+00        -0.54566E+08
 
   -0.51483E+08         0.61858E+06         0.00000E+00
    0.61858E+06        -0.61569E+08         0.00000E+00
    0.00000E+00         0.00000E+00        -0.54696E+08
 
   -0.51937E+08         0.10632E+07         0.00000E+00
    0.10632E+07        -0.61696E+08         0.00000E+00
    0.00000E+00         0.00000E+00        -0.54816E+08
 
   -0.52414E+08         0.15855E+07         0.00000E+00
    0.15855E+07        -0.61761E+08         0.00000E+00
    0.00000E+00         0.00000E+00        -0.54928E+08
 
   -0.52937E+08         0.21735E+07         0.00000E+00
    0.21735E+07        -0.61754E+08         0.00000E+00
    0.00000E+00         0.00000E+00        -0.55035E+08
 
   -0.53527E+08         0.28112E+07         0.00000E+00
    0.28112E+07        -0.61663E+08         0.00000E+00
    0.00000E+00         0.00000E+00        -0.55137E+08
 
   -0.54200E+08         0.34788E+07         0.00000E+00
    0.34788E+07        -0.61480E+08         0.00000E+00
    0.00000E+00         0.00000E+00        -0.55236E+08
 
   -0.54971E+08         0.41520E+07         0.00000E+00
    0.41520E+07        -0.61196E+08         0.00000E+00
    0.00000E+00         0.00000E+00        -0.55334E+08
 
   -0.45357E+08        -0.84540E+05         0.00000E+00
   -0.84540E+05        -0.60027E+08         0.00000E+00
    0.00000E+00         0.00000E+00        -0.52539E+08
 
   -0.46728E+08        -0.26476E+06         0.00000E+00
   -0.26476E+06        -0.60134E+08         0.00000E+00
    0.00000E+00         0.00000E+00        -0.52833E+08
 
   -0.47813E+08        -0.42091E+06         0.00000E+00
   -0.42091E+06        -0.60323E+08         0.00000E+00
    0.00000E+00         0.00000E+00        -0.53085E+08
 
   -0.48666E+08        -0.51755E+06         0.00000E+00
   -0.51755E+06        -0.60568E+08         0.00000E+00
    0.00000E+00         0.00000E+00        -0.53301E+08
 
   -0.49337E+08        -0.53081E+06         0.00000E+00
   -0.53081E+06        -0.60845E+08         0.00000E+00
    0.00000E+00         0.00000E+00        -0.53488E+08
 
   -0.49873E+08        -0.44602E+06         0.00000E+00
   -0.44602E+06        -0.61132E+08         0.00000E+00
    0.00000E+00         0.00000E+00        -0.53651E+08
 
   -0.50313E+08        -0.25566E+06         0.00000E+00
   -0.25566E+06        -0.61412E+08         0.00000E+00
    0.00000E+00         0.00000E+00        -0.53793E+08
 
   -0.50696E+08         0.42235E+05         0.00000E+00
    0.42235E+05        -0.61667E+08         0.00000E+00
    0.00000E+00         0.00000E+00        -0.53920E+08
 
   -0.51055E+08         0.44529E+06         0.00000E+00
    0.44529E+06        -0.61882E+08         0.00000E+00
    0.00000E+00         0.00000E+00        -0.54034E+08
 
   -0.51420E+08         0.94748E+06         0.00000E+00
    0.94748E+06        -0.62045E+08         0.00000E+00
    0.00000E+00         0.00000E+00        -0.54140E+08
 
   -0.51820E+08         0.15395E+07         0.00000E+00
    0.15395E+07        -0.62142E+08         0.00000E+00
    0.00000E+00         0.00000E+00        -0.54239E+08
 
   -0.52279E+08         0.22087E+07         0.00000E+00
    0.22087E+07        -0.62160E+08         0.00000E+00
    0.00000E+00         0.00000E+00        -0.54334E+08
 
   -0.52823E+08         0.29386E+07         0.00000E+00
    0.29386E+07        -0.62089E+08         0.00000E+00
    0.00000E+00         0.00000E+00        -0.54428E+08
 
   -0.53473E+08         0.37086E+07         0.00000E+00
    0.37086E+07        -0.61916E+08         0.00000E+00
    0.00000E+00         0.00000E+00        -0.54523E+08
 
   -0.54249E+08         0.44932E+07         0.00000E+00
    0.44932E+07        -0.61630E+08         0.00000E+00
    0.00000E+00         0.00000E+00        -0.54621E+08
 
   -0.45591E+08        -0.14833E+06         0.00000E+00
   -0.14833E+06        -0.60032E+08         0.00000E+00
    0.00000E+00         0.00000E+00        -0.51883E+08
 
   -0.46945E+08        -0.43213E+06         0.00000E+00
   -0.43213E+06        -0.60158E+08         0.00000E+00
    0.00000E+00         0.00000E+00        -0.52175E+08
 
   -0.47973E+08        -0.66150E+06         0.00000E+00
   -0.66150E+06        -0.60378E+08         0.00000E+00
    0.00000E+00         0.00000E+00        -0.52419E+08
 
   -0.48740E+08        -0.80392E+06         0.00000E+00
   -0.80392E+06        -0.60661E+08         0.00000E+00
    0.00000E+00         0.00000E+00        -0.52622E+08
 
   -0.49308E+08        -0.83877E+06         0.00000E+00
   -0.83877E+06        -0.60979E+08         0.00000E+00
    0.00000E+00         0.00000E+00        -0.52792E+08
 
   -0.49731E+08        -0.75456E+06         0.00000E+00
   -0.75456E+06        -0.61308E+08         0.00000E+00
    0.00000E+00         0.00000E+00        -0.52936E+08
 
   -0.50056E+08        -0.54661E+06         0.00000E+00
   -0.54661E+06        -0.61628E+08         0.00000E+00
    0.00000E+00         0.00000E+00        -0.53058E+08
 
   -0.50325E+08        -0.21523E+06         0.00000E+00
   -0.21523E+06        -0.61921E+08         0.00000E+00
    0.00000E+00         0.00000E+00        -0.53165E+08
 
   -0.50574E+08         0.23558E+06         0.00000E+00
    0.23558E+06        -0.62172E+08         0.00000E+00
    0.00000E+00         0.00000E+00        -0.53260E+08
 
   -0.50838E+08         0.79881E+06         0.00000E+00
    0.79881E+06        -0.62368E+08         0.00000E+00
    0.00000E+00         0.00000E+00        -0.53347E+08
 
   -0.51147E+08         0.14647E+07         0.00000E+00
    0.14647E+07        -0.62495E+08         0.00000E+00
    0.00000E+00         0.00000E+00        -0.53431E+08
 
   -0.51531E+08         0.22206E+07         0.00000E+00
    0.22206E+07        -0.62540E+08         0.00000E+00
    0.00000E+00         0.00000E+00        -0.53513E+08
 
   -0.52017E+08         0.30500E+07         0.00000E+00
    0.30500E+07        -0.62489E+08         0.00000E+00
    0.00000E+00         0.00000E+00        -0.53596E+08
 
   -0.52633E+08         0.39323E+07         0.00000E+00
    0.39323E+07        -0.62328E+08         0.00000E+00
    0.00000E+00         0.00000E+00        -0.53685E+08
 
   -0.53404E+08         0.48412E+07         0.00000E+00
    0.48412E+07        -0.62044E+08         0.00000E+00
    0.00000E+00         0.00000E+00        -0.53781E+08
 
   -0.45954E+08        -0.22277E+06         0.00000E+00
   -0.22277E+06        -0.60037E+08         0.00000E+00
    0.00000E+00         0.00000E+00        -0.51144E+08
 
   -0.47257E+08        -0.62528E+06         0.00000E+00
   -0.62528E+06        -0.60181E+08         0.00000E+00
    0.00000E+00         0.00000E+00        -0.51428E+08
 
   -0.48194E+08        -0.93647E+06         0.00000E+00
   -0.93647E+06        -0.60430E+08         0.00000E+00
    0.00000E+00         0.00000E+00        -0.51656E+08
 
   -0.48848E+08        -0.11286E+07         0.00000E+00
   -0.11286E+07        -0.60747E+08         0.00000E+00
    0.00000E+00         0.00000E+00        -0.51839E+08
 
   -0.49290E+08        -0.11858E+07         0.00000E+00
   -0.11858E+07        -0.61101E+08         0.00000E+00
    0.00000E+00         0.00000E+00        -0.51987E+08
 
   -0.49580E+08        -0.11012E+07         0.00000E+00
   -0.11012E+07        -0.61465E+08         0.00000E+00
    0.00000E+00         0.00000E+00        -0.52106E+08
 
   -0.49772E+08        -0.87382E+06         0.00000E+00
   -0.87382E+06        -0.61818E+08         0.00000E+00
    0.00000E+00         0.00000E+00        -0.52204E+08
 
   -0.49912E+08        -0.50691E+06         0.00000E+00
   -0.50691E+06        -0.62143E+08         0.00000E+00
    0.00000E+00         0.00000E+00        -0.52287E+08
 
   -0.50038E+08        -0.63349E+04         0.00000E+00
   -0.63349E+04        -0.62424E+08         0.00000E+00
    0.00000E+00         0.00000E+00        -0.52359E+08
 
   -0.50187E+08         0.62004E+06         0.00000E+00
    0.62004E+06        -0.62648E+08         0.00000E+00
    0.00000E+00         0.00000E+00        -0.52425E+08
 
   -0.50393E+08         0.13624E+07         0.00000E+00
    0.13624E+07        -0.62803E+08         0.00000E+00
    0.00000E+00         0.00000E+00        -0.52489E+08
 
   -0.50687E+08         0.22087E+07         0.00000E+00
    0.22087E+07        -0.62873E+08         0.00000E+00
    0.00000E+00         0.00000E+00        -0.52555E+08
 
   -0.51102E+08         0.31434E+07         0.00000E+00
    0.31434E+07        -0.62843E+08         0.00000E+00
    0.00000E+00         0.00000E+00        -0.52626E+08
 
   -0.51669E+08         0.41464E+07         0.00000E+00
    0.41464E+07        -0.62698E+08         0.00000E+00
    0.00000E+00         0.00000E+00        -0.52706E+08
 
   -0.52421E+08         0.51919E+07         0.00000E+00
    0.51919E+07        -0.62420E+08         0.00000E+00
    0.00000E+00         0.00000E+00        -0.52798E+08
 
   -0.46465E+08        -0.30719E+06         0.00000E+00
   -0.30719E+06        -0.60041E+08         0.00000E+00
    0.00000E+00         0.00000E+00        -0.50313E+08
 
   -0.47672E+08        -0.84191E+06         0.00000E+00
   -0.84191E+06        -0.60201E+08         0.00000E+00
    0.00000E+00         0.00000E+00        -0.50579E+08
 
   -0.48483E+08        -0.12416E+07         0.00000E+00
   -0.12416E+07        -0.60475E+08         0.00000E+00
    0.00000E+00         0.00000E+00        -0.50784E+08
 
   -0.48993E+08        -0.14856E+07         0.00000E+00
   -0.14856E+07        -0.60820E+08         0.00000E+00
    0.00000E+00         0.00000E+00        -0.50941E+08
 
   -0.49281E+08        -0.15646E+07         0.00000E+00
   -0.15646E+07        -0.61202E+08         0.00000E+00
    0.00000E+00         0.00000E+00        -0.51059E+08
 
   -0.49418E+08        -0.14778E+07         0.00000E+00
   -0.14778E+07        -0.61592E+08         0.00000E+00
    0.00000E+00         0.00000E+00        -0.51149E+08
 
   -0.49460E+08        -0.12290E+07         0.00000E+00
   -0.12290E+07        -0.61968E+08         0.00000E+00
    0.00000E+00         0.00000E+00        -0.51217E+08
 
   -0.49455E+08        -0.82518E+06         0.00000E+00
   -0.82518E+06        -0.62315E+08         0.00000E+00
    0.00000E+00         0.00000E+00        -0.51271E+08
 
   -0.49445E+08        -0.27411E+06         0.00000E+00
   -0.27411E+06        -0.62618E+08         0.00000E+00
    0.00000E+00         0.00000E+00        -0.51316E+08
 
   -0.49466E+08         0.41564E+06         0.00000E+00
    0.41564E+06        -0.62865E+08         0.00000E+00
    0.00000E+00         0.00000E+00        -0.51357E+08
 
   -0.49555E+08         0.12349E+07         0.00000E+00
    0.12349E+07        -0.63043E+08         0.00000E+00
    0.00000E+00         0.00000E+00        -0.51399E+08
 
   -0.49744E+08         0.21728E+07         0.00000E+00
    0.21728E+07        -0.63137E+08         0.00000E+00
    0.00000E+00         0.00000E+00        -0.51445E+08
 
   -0.50071E+08         0.32160E+07         0.00000E+00
    0.32160E+07        -0.63131E+08         0.00000E+00
    0.00000E+00         0.00000E+00        -0.51501E+08
 
   -0.50573E+08         0.43463E+07         0.00000E+00
    0.43463E+07        -0.63005E+08         0.00000E+00
    0.00000E+00         0.00000E+00        -0.51570E+08
 
   -0.51288E+08         0.55391E+07         0.00000E+00
    0.55391E+07        -0.62740E+08         0.00000E+00
    0.00000E+00         0.00000E+00        -0.51656E+08
 
   -0.47140E+08        -0.40049E+06         0.00000E+00
   -0.40049E+06        -0.60045E+08         0.00000E+00
    0.00000E+00         0.00000E+00        -0.49383E+08
 
   -0.48201E+08        -0.10784E+07         0.00000E+00
   -0.10784E+07        -0.60218E+08         0.00000E+00
    0.00000E+00         0.00000E+00        -0.49621E+08
 
   -0.48842E+08        -0.15709E+07         0.00000E+00
   -0.15709E+07        -0.60511E+08         0.00000E+00
    0.00000E+00         0.00000E+00        -0.49794E+08
 
   -0.49172E+08        -0.18664E+07         0.00000E+00
   -0.18664E+07        -0.60875E+08         0.00000E+00
    0.00000E+00         0.00000E+00        -0.49915E+08
 
   -0.49280E+08        -0.19649E+07         0.00000E+00
   -0.19649E+07        -0.61274E+08         0.00000E+00
    0.00000E+00         0.00000E+00        -0.49997E+08
 
   -0.49242E+08        -0.18730E+07         0.00000E+00
   -0.18730E+07        -0.61677E+08         0.00000E+00
    0.00000E+00         0.00000E+00        -0.50050E+08
 
   -0.49117E+08        -0.16009E+07         0.00000E+00
   -0.16009E+07        -0.62064E+08         0.00000E+00
    0.00000E+00         0.00000E+00        -0.50084E+08
 
   -0.48955E+08        -0.11595E+07         0.00000E+00
   -0.11595E+07        -0.62421E+08         0.00000E+00
    0.00000E+00         0.00000E+00        -0.50104E+08
 
   -0.48796E+08        -0.55897E+06         0.00000E+00
   -0.55897E+06        -0.62735E+08         0.00000E+00
    0.00000E+00         0.00000E+00        -0.50118E+08
 
   -0.48677E+08         0.19187E+06         0.00000E+00
    0.19187E+06        -0.62995E+08         0.00000E+00
    0.00000E+00         0.00000E+00        -0.50131E+08
 
   -0.48634E+08         0.10852E+07         0.00000E+00
    0.10852E+07        -0.63190E+08         0.00000E+00
    0.00000E+00         0.00000E+00        -0.50147E+08
 
   -0.48702E+08         0.21128E+07         0.00000E+00
    0.21128E+07        -0.63306E+08         0.00000E+00
    0.00000E+00         0.00000E+00        -0.50171E+08
 
   -0.48922E+08         0.32646E+07         0.00000E+00
    0.32646E+07        -0.63326E+08         0.00000E+00
    0.00000E+00         0.00000E+00        -0.50208E+08
 
   -0.49336E+08         0.45258E+07         0.00000E+00
    0.45258E+07        -0.63226E+08         0.00000E+00
    0.00000E+00         0.00000E+00        -0.50263E+08
 
   -0.49991E+08         0.58746E+07         0.00000E+00
    0.58746E+07        -0.62981E+08         0.00000E+00
    0.00000E+00         0.00000E+00        -0.50340E+08
 
   -0.47994E+08        -0.50106E+06         0.00000E+00
   -0.50106E+06        -0.60048E+08         0.00000E+00
    0.00000E+00         0.00000E+00        -0.48348E+08
 
   -0.48849E+08        -0.13298E+07         0.00000E+00
   -0.13298E+07        -0.60230E+08         0.00000E+00
    0.00000E+00         0.00000E+00        -0.48546E+08
 
   -0.49272E+08        -0.19157E+07         0.00000E+00
   -0.19157E+07        -0.60534E+08         0.00000E+00
    0.00000E+00         0.00000E+00        -0.48675E+08
 
   -0.49384E+08        -0.22596E+07         0.00000E+00
   -0.22596E+07        -0.60907E+08         0.00000E+00
    0.00000E+00         0.00000E+00        -0.48751E+08
 
   -0.49284E+08        -0.23729E+07         0.00000E+00
   -0.23729E+07        -0.61307E+08         0.00000E+00
    0.00000E+00         0.00000E+00        -0.48789E+08
 
   -0.49050E+08        -0.22719E+07         0.00000E+00
   -0.22719E+07        -0.61708E+08         0.00000E+00
    0.00000E+00         0.00000E+00        -0.48800E+08
 
   -0.48744E+08        -0.19744E+07         0.00000E+00
   -0.19744E+07        -0.62089E+08         0.00000E+00
    0.00000E+00         0.00000E+00        -0.48793E+08
 
   -0.48412E+08        -0.14961E+07         0.00000E+00
   -0.14961E+07        -0.62438E+08         0.00000E+00
    0.00000E+00         0.00000E+00        -0.48776E+08
 
   -0.48093E+08        -0.84950E+06         0.00000E+00
   -0.84950E+06        -0.62749E+08         0.00000E+00
    0.00000E+00         0.00000E+00        -0.48754E+08
 
   -0.47823E+08        -0.43091E+05         0.00000E+00
   -0.43091E+05        -0.63011E+08         0.00000E+00
    0.00000E+00         0.00000E+00        -0.48735E+08
 
   -0.47634E+08         0.91764E+06         0.00000E+00
    0.91764E+06        -0.63217E+08         0.00000E+00
    0.00000E+00         0.00000E+00        -0.48721E+08
 
   -0.47564E+08         0.20286E+07         0.00000E+00
    0.20286E+07        -0.63353E+08         0.00000E+00
    0.00000E+00         0.00000E+00        -0.48720E+08
 
   -0.47655E+08         0.32848E+07         0.00000E+00
    0.32848E+07        -0.63400E+08         0.00000E+00
    0.00000E+00         0.00000E+00        -0.48735E+08
 
   -0.47955E+08         0.46767E+07         0.00000E+00
    0.46767E+07        -0.63333E+08         0.00000E+00
    0.00000E+00         0.00000E+00        -0.48772E+08
 
   -0.48521E+08         0.61872E+07         0.00000E+00
    0.61872E+07        -0.63120E+08         0.00000E+00
    0.00000E+00         0.00000E+00        -0.48837E+08
 
   -0.49035E+08        -0.60675E+06         0.00000E+00
   -0.60675E+06        -0.60050E+08         0.00000E+00
    0.00000E+00         0.00000E+00        -0.47202E+08
 
   -0.49617E+08        -0.15893E+07         0.00000E+00
   -0.15893E+07        -0.60236E+08         0.00000E+00
    0.00000E+00         0.00000E+00        -0.47345E+08
 
   -0.49768E+08        -0.22649E+07         0.00000E+00
   -0.22649E+07        -0.60542E+08         0.00000E+00
    0.00000E+00         0.00000E+00        -0.47418E+08
 
   -0.49622E+08        -0.26502E+07         0.00000E+00
   -0.26502E+07        -0.60907E+08         0.00000E+00
    0.00000E+00         0.00000E+00        -0.47441E+08
 
   -0.49285E+08        -0.27708E+07         0.00000E+00
   -0.27708E+07        -0.61292E+08         0.00000E+00
    0.00000E+00         0.00000E+00        -0.47427E+08
 
   -0.48838E+08        -0.26553E+07         0.00000E+00
   -0.26553E+07        -0.61668E+08         0.00000E+00
    0.00000E+00         0.00000E+00        -0.47388E+08
 
   -0.48338E+08        -0.23305E+07         0.00000E+00
   -0.23305E+07        -0.62022E+08         0.00000E+00
    0.00000E+00         0.00000E+00        -0.47335E+08
 
   -0.47829E+08        -0.18177E+07         0.00000E+00
   -0.18177E+07        -0.62344E+08         0.00000E+00
    0.00000E+00         0.00000E+00        -0.47275E+08
 
   -0.47345E+08        -0.11313E+07         0.00000E+00
   -0.11313E+07        -0.62633E+08         0.00000E+00
    0.00000E+00         0.00000E+00        -0.47214E+08
 
   -0.46913E+08        -0.27902E+06         0.00000E+00
   -0.27902E+06        -0.62885E+08         0.00000E+00
    0.00000E+00         0.00000E+00        -0.47158E+08
 
   -0.46566E+08         0.73752E+06         0.00000E+00
    0.73752E+06        -0.63093E+08         0.00000E+00
    0.00000E+00         0.00000E+00        -0.47112E+08
 
   -0.46338E+08         0.19201E+07         0.00000E+00
    0.19201E+07        -0.63247E+08         0.00000E+00
    0.00000E+00         0.00000E+00        -0.47081E+08
 
   -0.46274E+08         0.32709E+07         0.00000E+00
    0.32709E+07        -0.63325E+08         0.00000E+00
    0.00000E+00         0.00000E+00        -0.47071E+08
 
   -0.46429E+08         0.47884E+07         0.00000E+00
    0.47884E+07        -0.63299E+08         0.00000E+00
    0.00000E+00         0.00000E+00        -0.47086E+08
 
   -0.46868E+08         0.64625E+07         0.00000E+00
    0.64625E+07        -0.63132E+08         0.00000E+00
    0.00000E+00         0.00000E+00        -0.47135E+08
 
   -0.50270E+08        -0.71489E+06         0.00000E+00
   -0.71489E+06        -0.60050E+08         0.00000E+00
    0.00000E+00         0.00000E+00        -0.45941E+08
 
   -0.50502E+08        -0.18487E+07         0.00000E+00
   -0.18487E+07        -0.60235E+08         0.00000E+00
    0.00000E+00         0.00000E+00        -0.46014E+08
 
   -0.50322E+08        -0.26047E+07         0.00000E+00
   -0.26047E+07        -0.60529E+08         0.00000E+00
    0.00000E+00         0.00000E+00        -0.46019E+08
 
   -0.49877E+08        -0.30191E+07         0.00000E+00
   -0.30191E+07        -0.60869E+08         0.00000E+00
    0.00000E+00         0.00000E+00        -0.45976E+08
 
   -0.49278E+08        -0.31362E+07         0.00000E+00
   -0.31362E+07        -0.61214E+08         0.00000E+00
    0.00000E+00         0.00000E+00        -0.45901E+08
 
   -0.48602E+08        -0.29995E+07         0.00000E+00
   -0.29995E+07        -0.61541E+08         0.00000E+00
    0.00000E+00         0.00000E+00        -0.45806E+08
 
   -0.47902E+08        -0.26460E+07         0.00000E+00
   -0.26460E+07        -0.61841E+08         0.00000E+00
    0.00000E+00         0.00000E+00        -0.45702E+08
 
   -0.47213E+08        -0.21032E+07         0.00000E+00
   -0.21032E+07        -0.62112E+08         0.00000E+00
    0.00000E+00         0.00000E+00        -0.45595E+08
 
   -0.46559E+08        -0.13872E+07         0.00000E+00
   -0.13872E+07        -0.62359E+08         0.00000E+00
    0.00000E+00         0.00000E+00        -0.45491E+08
 
   -0.45961E+08        -0.50357E+06         0.00000E+00
   -0.50357E+06        -0.62584E+08         0.00000E+00
    0.00000E+00         0.00000E+00        -0.45396E+08
 
   -0.45444E+08         0.55114E+06         0.00000E+00
    0.55114E+06        -0.62784E+08         0.00000E+00
    0.00000E+00         0.00000E+00        -0.45314E+08
 
   -0.45039E+08         0.17868E+07         0.00000E+00
    0.17868E+07        -0.62951E+08         0.00000E+00
    0.00000E+00         0.00000E+00        -0.45249E+08
 
   -0.44792E+08         0.32157E+07         0.00000E+00
    0.32157E+07        -0.63065E+08         0.00000E+00
    0.00000E+00         0.00000E+00        -0.45209E+08
 
   -0.44763E+08         0.48473E+07         0.00000E+00
    0.48473E+07        -0.63093E+08         0.00000E+00
    0.00000E+00         0.00000E+00        -0.45198E+08
 
   -0.45030E+08         0.66819E+07         0.00000E+00
    0.66819E+07        -0.62990E+08         0.00000E+00
    0.00000E+00         0.00000E+00        -0.45225E+08
 
   -0.51697E+08        -0.82227E+06         0.00000E+00
   -0.82227E+06        -0.60049E+08         0.00000E+00
    0.00000E+00         0.00000E+00        -0.44565E+08
 
   -0.51494E+08        -0.20976E+07         0.00000E+00
   -0.20976E+07        -0.60224E+08         0.00000E+00
    0.00000E+00         0.00000E+00        -0.44549E+08
 
   -0.50920E+08        -0.29170E+07         0.00000E+00
   -0.29170E+07        -0.60491E+08         0.00000E+00
    0.00000E+00         0.00000E+00        -0.44471E+08
 
   -0.50135E+08        -0.33425E+07         0.00000E+00
   -0.33425E+07        -0.60783E+08         0.00000E+00
    0.00000E+00         0.00000E+00        -0.44351E+08
 
   -0.49250E+08        -0.34414E+07         0.00000E+00
   -0.34414E+07        -0.61060E+08         0.00000E+00
    0.00000E+00         0.00000E+00        -0.44206E+08
 
   -0.48337E+08        -0.32753E+07         0.00000E+00
   -0.32753E+07        -0.61306E+08         0.00000E+00
    0.00000E+00         0.00000E+00        -0.44049E+08
 
   -0.47438E+08        -0.28931E+07         0.00000E+00
   -0.28931E+07        -0.61521E+08         0.00000E+00
    0.00000E+00         0.00000E+00        -0.43888E+08
 
   -0.46573E+08        -0.23279E+07         0.00000E+00
   -0.23279E+07        -0.61713E+08         0.00000E+00
    0.00000E+00         0.00000E+00        -0.43731E+08
 
   -0.45752E+08        -0.15968E+07         0.00000E+00
   -0.15968E+07        -0.61894E+08         0.00000E+00
    0.00000E+00         0.00000E+00        -0.43581E+08
 
   -0.44987E+08        -0.70237E+06         0.00000E+00
   -0.70237E+06        -0.62073E+08         0.00000E+00
    0.00000E+00         0.00000E+00        -0.43444E+08
 
   -0.44290E+08         0.36584E+06         0.00000E+00
    0.36584E+06        -0.62254E+08         0.00000E+00
    0.00000E+00         0.00000E+00        -0.43322E+08
 
   -0.43688E+08         0.16280E+07         0.00000E+00
    0.16280E+07        -0.62431E+08         0.00000E+00
    0.00000E+00         0.00000E+00        -0.43221E+08
 
   -0.43225E+08         0.31100E+07         0.00000E+00
    0.31100E+07        -0.62586E+08         0.00000E+00
    0.00000E+00         0.00000E+00        -0.43146E+08
 
   -0.42968E+08         0.48363E+07         0.00000E+00
    0.48363E+07        -0.62682E+08         0.00000E+00
    0.00000E+00         0.00000E+00        -0.43103E+08
 
   -0.43006E+08         0.68219E+07         0.00000E+00
    0.68219E+07        -0.62666E+08         0.00000E+00
    0.00000E+00         0.00000E+00        -0.43101E+08
 
   -0.53307E+08        -0.92515E+06         0.00000E+00
   -0.92515E+06        -0.60046E+08         0.00000E+00
    0.00000E+00         0.00000E+00        -0.43076E+08
 
   -0.52573E+08        -0.23229E+07         0.00000E+00
   -0.23229E+07        -0.60203E+08         0.00000E+00
    0.00000E+00         0.00000E+00        -0.42951E+08
 
   -0.51538E+08        -0.31793E+07         0.00000E+00
   -0.31793E+07        -0.60422E+08         0.00000E+00
    0.00000E+00         0.00000E+00        -0.42773E+08
 
   -0.50375E+08        -0.35902E+07         0.00000E+00
   -0.35902E+07        -0.60635E+08         0.00000E+00
    0.00000E+00         0.00000E+00        -0.42563E+08
 
   -0.49190E+08        -0.36524E+07         0.00000E+00
   -0.36524E+07        -0.60807E+08         0.00000E+00
    0.00000E+00         0.00000E+00        -0.42340E+08
 
   -0.48042E+08        -0.34488E+07         0.00000E+00
   -0.34488E+07        -0.60936E+08         0.00000E+00
    0.00000E+00         0.00000E+00        -0.42114E+08
 
   -0.46951E+08        -0.30401E+07         0.00000E+00
   -0.30401E+07        -0.61031E+08         0.00000E+00
    0.00000E+00         0.00000E+00        -0.41894E+08
 
   -0.45921E+08        -0.24643E+07         0.00000E+00
   -0.24643E+07        -0.61113E+08         0.00000E+00
    0.00000E+00         0.00000E+00        -0.41683E+08
 
   -0.44945E+08        -0.17380E+07         0.00000E+00
   -0.17380E+07        -0.61203E+08         0.00000E+00
    0.00000E+00         0.00000E+00        -0.41485E+08
 
   -0.44016E+08        -0.85934E+06         0.00000E+00
   -0.85934E+06        -0.61316E+08         0.00000E+00
    0.00000E+00         0.00000E+00        -0.41304E+08
 
   -0.43135E+08         0.19002E+06         0.00000E+00
    0.19002E+06        -0.61465E+08         0.00000E+00
    0.00000E+00         0.00000E+00        -0.41140E+08
 
   -0.42317E+08         0.14429E+07         0.00000E+00
    0.14429E+07        -0.61648E+08         0.00000E+00
    0.00000E+00         0.00000E+00        -0.40998E+08
 
   -0.41603E+08         0.29422E+07         0.00000E+00
    0.29422E+07        -0.61851E+08         0.00000E+00
    0.00000E+00         0.00000E+00        -0.40883E+08
 
   -0.41063E+08         0.47335E+07         0.00000E+00
    0.47335E+07        -0.62034E+08         0.00000E+00
    0.00000E+00         0.00000E+00        -0.40802E+08
 
   -0.40803E+08         0.68528E+07         0.00000E+00
    0.68528E+07        -0.62134E+08         0.00000E+00
    0.00000E+00         0.00000E+00        -0.40765E+08
 
   -0.55084E+08        -0.10192E+07         0.00000E+00
   -0.10192E+07        -0.60041E+08         0.00000E+00
    0.00000E+00         0.00000E+00        -0.41478E+08
 
   -0.53709E+08        -0.25080E+07         0.00000E+00
   -0.25080E+07        -0.60168E+08         0.00000E+00
    0.00000E+00         0.00000E+00        -0.41220E+08
 
   -0.52145E+08        -0.33618E+07         0.00000E+00
   -0.33618E+07        -0.60312E+08         0.00000E+00
    0.00000E+00         0.00000E+00        -0.40924E+08
 
   -0.50572E+08        -0.37233E+07         0.00000E+00
   -0.37233E+07        -0.60406E+08         0.00000E+00
    0.00000E+00         0.00000E+00        -0.40612E+08
 
   -0.49084E+08        -0.37278E+07         0.00000E+00
   -0.37278E+07        -0.60429E+08         0.00000E+00
    0.00000E+00         0.00000E+00        -0.40302E+08
 
   -0.47713E+08        -0.34809E+07         0.00000E+00
   -0.34809E+07        -0.60397E+08         0.00000E+00
    0.00000E+00         0.00000E+00        -0.40003E+08
 
   -0.46452E+08        -0.30531E+07         0.00000E+00
   -0.30531E+07        -0.60335E+08         0.00000E+00
    0.00000E+00         0.00000E+00        -0.39719E+08
 
   -0.45278E+08        -0.24838E+07         0.00000E+00
   -0.24838E+07        -0.60277E+08         0.00000E+00
    0.00000E+00         0.00000E+00        -0.39455E+08
 
   -0.44163E+08        -0.17876E+07         0.00000E+00
   -0.17876E+07        -0.60249E+08         0.00000E+00
    0.00000E+00         0.00000E+00        -0.39209E+08
 
   -0.43081E+08        -0.95734E+06         0.00000E+00
   -0.95734E+06        -0.60278E+08         0.00000E+00
    0.00000E+00         0.00000E+00        -0.38982E+08
 
   -0.42017E+08         0.33381E+05         0.00000E+00
    0.33381E+05        -0.60380E+08         0.00000E+00
    0.00000E+00         0.00000E+00        -0.38774E+08
 
   -0.40969E+08         0.12308E+07         0.00000E+00
    0.12308E+07        -0.60564E+08         0.00000E+00
    0.00000E+00         0.00000E+00        -0.38588E+08
 
   -0.39966E+08         0.26990E+07         0.00000E+00
    0.26990E+07        -0.60821E+08         0.00000E+00
    0.00000E+00         0.00000E+00        -0.38428E+08
 
   -0.39080E+08         0.45118E+07         0.00000E+00
    0.45118E+07        -0.61113E+08         0.00000E+00
    0.00000E+00         0.00000E+00        -0.38301E+08
 
   -0.38434E+08         0.67364E+07         0.00000E+00
    0.67364E+07        -0.61367E+08         0.00000E+00
    0.00000E+00         0.00000E+00        -0.38218E+08
 
   -0.56997E+08        -0.10992E+07         0.00000E+00
   -0.10992E+07        -0.60034E+08         0.00000E+00
    0.00000E+00         0.00000E+00        -0.39777E+08
 
   -0.54856E+08        -0.26294E+07         0.00000E+00
   -0.26294E+07        -0.60112E+08         0.00000E+00
    0.00000E+00         0.00000E+00        -0.39359E+08
 
   -0.52694E+08        -0.34224E+07         0.00000E+00
   -0.34224E+07        -0.60142E+08         0.00000E+00
    0.00000E+00         0.00000E+00        -0.38924E+08
 
   -0.50696E+08        -0.36916E+07         0.00000E+00
   -0.36916E+07        -0.60062E+08         0.00000E+00
    0.00000E+00         0.00000E+00        -0.38497E+08
 
   -0.48922E+08        -0.36193E+07         0.00000E+00
   -0.36193E+07        -0.59881E+08         0.00000E+00
    0.00000E+00         0.00000E+00        -0.38092E+08
 
   -0.47357E+08        -0.33308E+07         0.00000E+00
   -0.33308E+07        -0.59642E+08         0.00000E+00
    0.00000E+00         0.00000E+00        -0.37717E+08
 
   -0.45956E+08        -0.28994E+07         0.00000E+00
   -0.28994E+07        -0.59389E+08         0.00000E+00
    0.00000E+00         0.00000E+00        -0.37372E+08
 
   -0.44667E+08        -0.23608E+07         0.00000E+00
   -0.23608E+07        -0.59164E+08         0.00000E+00
    0.00000E+00         0.00000E+00        -0.37054E+08
 
   -0.43437E+08        -0.17246E+07         0.00000E+00
   -0.17246E+07        -0.59000E+08         0.00000E+00
    0.00000E+00         0.00000E+00        -0.36761E+08
 
   -0.42222E+08        -0.97946E+06         0.00000E+00
   -0.97946E+06        -0.58925E+08         0.00000E+00
    0.00000E+00         0.00000E+00        -0.36490E+08
 
   -0.40983E+08        -0.92616E+05         0.00000E+00
   -0.92616E+05        -0.58967E+08         0.00000E+00
    0.00000E+00         0.00000E+00        -0.36238E+08
 
   -0.39697E+08         0.99356E+06         0.00000E+00
    0.99356E+06        -0.59143E+08         0.00000E+00
    0.00000E+00         0.00000E+00        -0.36006E+08
 
   -0.38370E+08         0.23661E+07         0.00000E+00
    0.23661E+07        -0.59459E+08         0.00000E+00
    0.00000E+00         0.00000E+00        -0.35795E+08
 
   -0.37064E+08         0.41378E+07         0.00000E+00
    0.41378E+07        -0.59885E+08         0.00000E+00
    0.00000E+00         0.00000E+00        -0.35613E+08
 
   -0.35921E+08         0.64239E+07         0.00000E+00
    0.64239E+07        -0.60338E+08         0.00000E+00
    0.00000E+00         0.00000E+00        -0.35471E+08
 
   -0.59001E+08        -0.11580E+07         0.00000E+00
   -0.11580E+07        -0.60023E+08         0.00000E+00
    0.00000E+00         0.00000E+00        -0.37983E+08
 
   -0.55941E+08        -0.26485E+07         0.00000E+00
   -0.26485E+07        -0.60023E+08         0.00000E+00
    0.00000E+00         0.00000E+00        -0.37368E+08
 
   -0.53126E+08        -0.32979E+07         0.00000E+00
   -0.32979E+07        -0.59870E+08         0.00000E+00
    0.00000E+00         0.00000E+00        -0.36770E+08
 
   -0.50718E+08        -0.34294E+07         0.00000E+00
   -0.34294E+07        -0.59539E+08         0.00000E+00
    0.00000E+00         0.00000E+00        -0.36216E+08
 
   -0.48702E+08        -0.32745E+07         0.00000E+00
   -0.32745E+07        -0.59093E+08         0.00000E+00
    0.00000E+00         0.00000E+00        -0.35714E+08
 
   -0.46990E+08        -0.29621E+07         0.00000E+00
   -0.29621E+07        -0.58607E+08         0.00000E+00
    0.00000E+00         0.00000E+00        -0.35265E+08
 
   -0.45489E+08        -0.25545E+07         0.00000E+00
   -0.25545E+07        -0.58140E+08         0.00000E+00
    0.00000E+00         0.00000E+00        -0.34861E+08
 
   -0.44118E+08        -0.20776E+07         0.00000E+00
   -0.20776E+07        -0.57734E+08         0.00000E+00
    0.00000E+00         0.00000E+00        -0.34494E+08
 
   -0.42802E+08        -0.15347E+07         0.00000E+00
   -0.15347E+07        -0.57423E+08         0.00000E+00
    0.00000E+00         0.00000E+00        -0.34159E+08
 
   -0.41479E+08        -0.91154E+06         0.00000E+00
   -0.91154E+06        -0.57236E+08         0.00000E+00
    0.00000E+00         0.00000E+00        -0.33846E+08
 
   -0.40085E+08        -0.17419E+06         0.00000E+00
   -0.17419E+06        -0.57204E+08         0.00000E+00
    0.00000E+00         0.00000E+00        -0.33553E+08
 
   -0.38568E+08         0.73881E+06         0.00000E+00
    0.73881E+06        -0.57358E+08         0.00000E+00
    0.00000E+00         0.00000E+00        -0.33272E+08
 
   -0.36891E+08         0.19335E+07         0.00000E+00
    0.19335E+07        -0.57728E+08         0.00000E+00
    0.00000E+00         0.00000E+00        -0.33005E+08
 
   -0.35085E+08         0.35722E+07         0.00000E+00
    0.35722E+07        -0.58311E+08         0.00000E+00
    0.00000E+00         0.00000E+00        -0.32757E+08
 
   -0.33301E+08         0.58498E+07         0.00000E+00
    0.58498E+07        -0.59024E+08         0.00000E+00
    0.00000E+00         0.00000E+00        -0.32540E+08
 
   -0.61016E+08        -0.11814E+07         0.00000E+00
   -0.11814E+07        -0.60001E+08         0.00000E+00
    0.00000E+00         0.00000E+00        -0.36101E+08
 
   -0.56851E+08        -0.24905E+07         0.00000E+00
   -0.24905E+07        -0.59857E+08         0.00000E+00
    0.00000E+00         0.00000E+00        -0.35239E+08
 
   -0.53373E+08        -0.28878E+07         0.00000E+00
   -0.28878E+07        -0.59401E+08         0.00000E+00
    0.00000E+00         0.00000E+00        -0.34452E+08
 
   -0.50631E+08        -0.28599E+07         0.00000E+00
   -0.28599E+07        -0.58718E+08         0.00000E+00
    0.00000E+00         0.00000E+00        -0.33764E+08
 
   -0.48448E+08        -0.26506E+07         0.00000E+00
   -0.26506E+07        -0.57957E+08         0.00000E+00
    0.00000E+00         0.00000E+00        -0.33171E+08
 
   -0.46645E+08        -0.23550E+07         0.00000E+00
   -0.23550E+07        -0.57208E+08         0.00000E+00
    0.00000E+00         0.00000E+00        -0.32655E+08
 
   -0.45085E+08        -0.20114E+07         0.00000E+00
   -0.20114E+07        -0.56527E+08         0.00000E+00
    0.00000E+00         0.00000E+00        -0.32201E+08
 
   -0.43664E+08        -0.16322E+07         0.00000E+00
   -0.16322E+07        -0.55948E+08         0.00000E+00
    0.00000E+00         0.00000E+00        -0.31793E+08
 
   -0.42291E+08        -0.12154E+07         0.00000E+00
   -0.12154E+07        -0.55497E+08         0.00000E+00
    0.00000E+00         0.00000E+00        -0.31422E+08
 
   -0.40888E+08        -0.74675E+06         0.00000E+00
   -0.74675E+06        -0.55200E+08         0.00000E+00
    0.00000E+00         0.00000E+00        -0.31075E+08
 
   -0.39373E+08        -0.19733E+06         0.00000E+00
   -0.19733E+06        -0.55088E+08         0.00000E+00
    0.00000E+00         0.00000E+00        -0.30744E+08
 
   -0.37656E+08         0.48622E+06         0.00000E+00
    0.48622E+06        -0.55202E+08         0.00000E+00
    0.00000E+00         0.00000E+00        -0.30419E+08
 
   -0.35637E+08         0.14058E+07         0.00000E+00
    0.14058E+07        -0.55600E+08         0.00000E+00
    0.00000E+00         0.00000E+00        -0.30091E+08
 
   -0.33256E+08         0.27734E+07         0.00000E+00
    0.27734E+07        -0.56348E+08         0.00000E+00
    0.00000E+00         0.00000E+00        -0.29763E+08
 
   -0.30634E+08         0.49217E+07         0.00000E+00
    0.49217E+07        -0.57395E+08         0.00000E+00
    0.00000E+00         0.00000E+00        -0.29448E+08
 
   -0.62887E+08        -0.11233E+07         0.00000E+00
   -0.11233E+07        -0.59943E+08         0.00000E+00
    0.00000E+00         0.00000E+00        -0.34123E+08
 
   -0.57416E+08        -0.19799E+07         0.00000E+00
   -0.19799E+07        -0.59457E+08         0.00000E+00
    0.00000E+00         0.00000E+00        -0.32934E+08
 
   -0.53406E+08        -0.20539E+07         0.00000E+00
   -0.20539E+07        -0.58493E+08         0.00000E+00
    0.00000E+00         0.00000E+00        -0.31941E+08
 
   -0.50477E+08        -0.19311E+07         0.00000E+00
   -0.19311E+07        -0.57400E+08         0.00000E+00
    0.00000E+00         0.00000E+00        -0.31137E+08
 
   -0.48212E+08        -0.17414E+07         0.00000E+00
   -0.17414E+07        -0.56331E+08         0.00000E+00
    0.00000E+00         0.00000E+00        -0.30469E+08
 
   -0.46369E+08        -0.15234E+07         0.00000E+00
   -0.15234E+07        -0.55351E+08         0.00000E+00
    0.00000E+00         0.00000E+00        -0.29902E+08
 
   -0.44784E+08        -0.12905E+07         0.00000E+00
   -0.12905E+07        -0.54492E+08         0.00000E+00
    0.00000E+00         0.00000E+00        -0.29410E+08
 
   -0.43338E+08        -0.10448E+07         0.00000E+00
   -0.10448E+07        -0.53774E+08         0.00000E+00
    0.00000E+00         0.00000E+00        -0.28974E+08
 
   -0.41933E+08        -0.78201E+06         0.00000E+00
   -0.78201E+06        -0.53212E+08         0.00000E+00
    0.00000E+00         0.00000E+00        -0.28577E+08
 
   -0.40481E+08        -0.49176E+06         0.00000E+00
   -0.49176E+06        -0.52826E+08         0.00000E+00
    0.00000E+00         0.00000E+00        -0.28206E+08
 
   -0.38884E+08        -0.15513E+06         0.00000E+00
   -0.15513E+06        -0.52643E+08         0.00000E+00
    0.00000E+00         0.00000E+00        -0.27846E+08
 
   -0.37023E+08         0.26262E+06         0.00000E+00
    0.26262E+06        -0.52706E+08         0.00000E+00
    0.00000E+00         0.00000E+00        -0.27485E+08
 
   -0.34738E+08         0.83123E+06         0.00000E+00
    0.83123E+06        -0.53089E+08         0.00000E+00
    0.00000E+00         0.00000E+00        -0.27103E+08
 
   -0.31767E+08         0.17224E+07         0.00000E+00
    0.17224E+07        -0.53928E+08         0.00000E+00
    0.00000E+00         0.00000E+00        -0.26677E+08
 
   -0.28039E+08         0.34904E+07         0.00000E+00
    0.34904E+07        -0.55414E+08         0.00000E+00
    0.00000E+00         0.00000E+00        -0.26229E+08
 
   -0.64219E+08        -0.68916E+06         0.00000E+00
   -0.68916E+06        -0.59498E+08         0.00000E+00
    0.00000E+00         0.00000E+00        -0.31931E+08
 
   -0.57522E+08        -0.81085E+06         0.00000E+00
   -0.81085E+06        -0.58207E+08         0.00000E+00
    0.00000E+00         0.00000E+00        -0.30335E+08
 
   -0.53343E+08        -0.75668E+06         0.00000E+00
   -0.75668E+06        -0.56736E+08         0.00000E+00
    0.00000E+00         0.00000E+00        -0.29206E+08
 
   -0.50353E+08        -0.68716E+06         0.00000E+00
   -0.68716E+06        -0.55338E+08         0.00000E+00
    0.00000E+00         0.00000E+00        -0.28329E+08
 
   -0.48067E+08        -0.60906E+06         0.00000E+00
   -0.60906E+06        -0.54070E+08         0.00000E+00
    0.00000E+00         0.00000E+00        -0.27619E+08
 
   -0.46213E+08        -0.52794E+06         0.00000E+00
   -0.52794E+06        -0.52952E+08         0.00000E+00
    0.00000E+00         0.00000E+00        -0.27024E+08
 
   -0.44621E+08        -0.44502E+06         0.00000E+00
   -0.44502E+06        -0.51992E+08         0.00000E+00
    0.00000E+00         0.00000E+00        -0.26512E+08
 
   -0.43167E+08        -0.35969E+06         0.00000E+00
   -0.35969E+06        -0.51197E+08         0.00000E+00
    0.00000E+00         0.00000E+00        -0.26061E+08
 
   -0.41749E+08        -0.26986E+06         0.00000E+00
   -0.26986E+06        -0.50575E+08         0.00000E+00
    0.00000E+00         0.00000E+00        -0.25652E+08
 
   -0.40273E+08        -0.17170E+06         0.00000E+00
   -0.17170E+06        -0.50139E+08         0.00000E+00
    0.00000E+00         0.00000E+00        -0.25269E+08
 
   -0.38636E+08        -0.58732E+05         0.00000E+00
   -0.58732E+05        -0.49913E+08         0.00000E+00
    0.00000E+00         0.00000E+00        -0.24895E+08
 
   -0.36703E+08         0.80674E+05         0.00000E+00
    0.80674E+05        -0.49938E+08         0.00000E+00
    0.00000E+00         0.00000E+00        -0.24513E+08
 
   -0.34273E+08         0.27104E+06         0.00000E+00
    0.27104E+06        -0.50291E+08         0.00000E+00
    0.00000E+00         0.00000E+00        -0.24098E+08
 
   -0.30980E+08         0.56695E+06         0.00000E+00
    0.56695E+06        -0.51129E+08         0.00000E+00
    0.00000E+00         0.00000E+00        -0.23607E+08
 
   -0.25782E+08         0.13126E+07         0.00000E+00
    0.13126E+07        -0.52893E+08         0.00000E+00
    0.00000E+00         0.00000E+00        -0.22921E+08
 
SCALARS stressS double 
LOOKUP_TABLE default
  -54327168.2844550     
  -54845401.9913692     
  -55289920.6589208     
  -55696368.5963634     
  -56075366.9753328     
  -56431631.4022379     
  -56767405.5748069     
  -57083886.3566778     
  -57381838.2872643     
  -57661923.7451415     
  -57924941.1419448     
  -58172103.0867064     
  -58405591.0125961     
  -58629766.2031878     
  -58859631.9218382     
  -54257570.9550602     
  -54704389.0888264     
  -55133383.0049165     
  -55536170.4049412     
  -55916574.2030009     
  -56276415.5566839     
  -56616692.2665132     
  -56937936.6175371     
  -57240504.7031917     
  -57524743.0391951     
  -57791111.3500152     
  -58040319.7647250     
  -58273437.7356525     
  -58492482.1699273     
  -58692499.1600332     
  -54206066.7968372     
  -54607621.8684811     
  -55012384.6886910     
  -55406611.3515088     
  -55784956.0003597     
  -56145909.0200494     
  -56488739.6672315     
  -56813058.5647737     
  -57118651.3252085     
  -57405427.0168904     
  -57673382.6448288     
  -57922527.1703755     
  -58152740.1104707     
  -58362375.5793846     
  -58547894.3624548     
  -54142937.6689388     
  -54523381.6142857     
  -54912930.4936324     
  -55299250.9861825     
  -55674906.1582138     
  -56035891.3635268     
  -56380079.9685097     
  -56706233.0393878     
  -57013592.1636224     
  -57301646.4521188     
  -57569958.9307893     
  -57817975.5984842     
  -58044620.8086135     
  -58247914.6325073     
  -58424469.1084299     
  -54063170.5429549     
  -54438593.9549931     
  -54822988.3177643     
  -55206041.2775163     
  -55580505.9215367     
  -55941713.9422813     
  -56286797.2609860     
  -56614003.4952911     
  -56922217.2376693     
  -57210649.3265808     
  -57478593.3746983     
  -57725175.8911321     
  -57949098.0688747     
  -58148358.1563902     
  -58320117.1928575     
  -53965998.6209750     
  -54348003.0614074     
  -54735646.1134870     
  -55120528.3409436     
  -55496348.0066305     
  -55858709.4079735     
  -56204715.1944212     
  -56532515.2688039     
  -56840916.4377087     
  -57129070.9976900     
  -57396220.4940300     
  -57641468.5060764     
  -57863569.9951575     
  -58060766.9265089     
  -58230699.2809430     
  -53852282.5647644     
  -54249521.3125110     
  -54647018.1081190     
  -55038138.3128965     
  -55417813.1697098     
  -55782415.6222447     
  -56129508.0352383     
  -56457535.2037349     
  -56765522.4191739     
  -57052806.8930086     
  -57318805.7681392     
  -57562815.2118799     
  -57783842.0124148     
  -57980476.8568318     
  -58150827.8502113     
  -53723689.1892094     
  -54142630.5287635     
  -54554897.6732795     
  -54955577.3790401     
  -55340994.5183450     
  -55708587.3962677     
  -56056716.7337241     
  -56384437.6089104     
  -56691264.9420044     
  -56976953.0298339     
  -57241298.3071655     
  -57483968.6080768     
  -57704361.7572414     
  -57901499.2860379     
  -58073961.1732486     
  -53582439.9688822     
  -54027679.4861546     
  -54458016.1805393     
  -54870310.9882161     
  -55262425.9938536     
  -55633081.2227566     
  -55981686.5856483     
  -56308157.7781859     
  -56612729.4068077     
  -56895776.7586929     
  -57157653.4680827     
  -57398549.0316164     
  -57618368.9154718     
  -57816639.7362154     
  -57992441.4388155     
  -53431196.9561822     
  -53905535.8726631     
  -54355610.6148806     
  -54780184.4744474     
  -55178813.6875292     
  -55551686.1381419     
  -55899463.2813646     
  -56223123.9683555     
  -56523813.1936073     
  -56802699.8182726     
  -57060846.4379839     
  -57299093.2826876     
  -57517957.1018704     
  -57717545.3898983     
  -57897485.5087135     
  -53272995.3339790     
  -53777379.6983221     
  -54247148.4253812     
  -54683149.8958002     
  -55086809.2273832     
  -55459956.4807091     
  -55804677.7900450     
  -56123182.3865211     
  -56417682.1285871     
  -56690282.0343920     
  -56942880.8765394     
  -57177080.8073069     
  -57394104.7077606     
  -57594719.6320618     
  -57779164.3064705     
  -53111185.6593953     
  -53644558.2656584     
  -54132132.9708204     
  -54577062.3602451     
  -54982827.4371475     
  -55353066.5038757     
  -55691441.2041461     
  -56001528.9548777     
  -56286734.0237623     
  -56550211.5282893     
  -56794799.7862475     
  -57022957.0403320     
  -57236698.8784490     
  -57437532.8261953     
  -57626386.6463355     
  -52949371.1472835     
  -53508467.2457945     
  -54009952.4304965     
  -54459522.0291265     
  -54862902.3528891     
  -55225693.7917033     
  -55553261.4160476     
  -55850659.5845720     
  -56122579.6051701     
  -56373311.3874952     
  -56606711.3644325     
  -56826169.9256854     
  -57034572.3576860     
  -57234247.9154885     
  -57426902.2005693     
  -52791332.8236131     
  -53370441.7045255     
  -53879753.9442893     
  -54327748.5961126     
  -54722576.7770568     
  -55071934.3372238     
  -55382989.3450985     
  -55662348.8751180     
  -55916051.6486210     
  -56149574.6608570     
  -56367843.2161720     
  -56575234.9492475     
  -56775569.5275906     
  -56972076.8353436     
  -57167337.5019790     
  -52640938.8525486     
  -53231649.6366756     
  -53740334.4035227     
  -54178481.6975456     
  -54556822.9857932     
  -54885251.4894238     
  -55172800.7195610     
  -55427665.9040715     
  -55657252.8300572     
  -55868239.6530485     
  -56066638.2711389     
  -56257843.1040989     
  -56446656.5896280     
  -56637282.3463466     
  -56833278.6274158     
  -52502036.1689966     
  -53092984.8076167     
  -53590044.0281106     
  -54007904.1981800     
  -54359993.6979770     
  -54658460.7683744     
  -54914218.3605744     
  -55137034.6571761     
  -55335651.9864498     
  -55517916.9437524     
  -55690905.1523920     
  -55861025.3981783     
  -56034089.7886648     
  -56215338.9232888     
  -56409413.5505790     
  -52378323.8284385     
  -52954957.5357387     
  -53426700.4795706     
  -53811586.0701149     
  -54125802.1346556     
  -54383751.4203254     
  -54598178.3836906     
  -54780345.1354662     
  -54940237.2176391     
  -55086778.5381248     
  -55228034.8424805     
  -55371386.5689074     
  -55523654.5268798     
  -55691165.1748753     
  -55879745.9298134     
  -52273208.5881541     
  -52817582.1131275     
  -53247510.2264188     
  -53584444.6137955     
  -53847327.4101874     
  -54052742.7705797     
  -54215141.0553666     
  -54347118.8818974     
  -54459732.4409583     
  -54562818.1574169     
  -54665294.3567325     
  -54775419.5966612     
  -54900987.0112114     
  -55049438.7889748     
  -55227890.2462598     
  -52189644.1724934     
  -52680257.6427932     
  -53048989.8028866     
  -53320711.5157573     
  -53517036.0047879     
  -53656568.3962686     
  -53755242.8416730     
  -53826729.4167803     
  -53882881.6390448     
  -53934190.0180650     
  -53990206.9403592     
  -54059911.5739437     
  -54151988.8565104     
  -54275003.2694947     
  -54437455.7624884     
  -52129956.0926633     
  -52541634.1958041     
  -52826871.2669278     
  -53013887.6004824     
  -53126800.9159319     
  -53185973.5160882     
  -53208480.3958153     
  -53208673.9655664     
  -53198802.3122967     
  -53189631.7934425     
  -53191027.4033314     
  -53212450.9094848     
  -53263344.2392166     
  -53353374.0573630     
  -53492523.8370637     
  -52095652.8647332     
  -52399446.2597576     
  -52575961.1907215     
  -52656650.2826018     
  -52667886.4079932     
  -52631400.7764153     
  -52564910.3135568     
  -52482888.4354514     
  -52397407.0050031     
  -52318976.2173426     
  -52257321.1675524     
  -52222046.5037014     
  -52223149.6476879     
  -52271350.6865362     
  -52378219.9297402     
  -52087219.9752030     
  -52250276.2277380     
  -52289896.4070453     
  -52240653.7478314     
  -52130847.3852158     
  -51983027.8030821     
  -51814841.9751563     
  -51640094.0421964     
  -51469889.7751696     
  -51313755.3534508     
  -51180657.0782218     
  -51079872.8085629     
  -51021669.7105290     
  -51017742.9195962     
  -51081378.6098395     
  -52103880.7751449     
  -52089173.0875453     
  -51960693.7373010     
  -51756123.1528858     
  -51505268.8300250     
  -51230710.0656576     
  -50948998.4779640     
  -50672163.2922901     
  -50409273.4200091     
  -50167901.2691028     
  -49955427.6558055     
  -49780162.5281588     
  -49652242.8053098     
  -49584225.3893179     
  -49591298.2921434     
  -52143278.2381431     
  -51908975.4190070     
  -51577906.3350248     
  -51191085.0962776     
  -50779247.4386413     
  -50363784.7912614     
  -49958630.5610998     
  -49572498.2310282     
  -49211010.8275135     
  -48878544.2906474     
  -48579813.8823747     
  -48321286.0649097     
  -48112383.2071599     
  -47966356.0287973     
  -47900584.4082718     
  -52200961.3597999     
  -51699018.3913796     
  -51127037.8415264     
  -50529990.2143081     
  -49938514.4116389     
  -49370731.4446399     
  -48835605.2299857     
  -48336426.1502777     
  -47873625.2939296     
  -47446890.0150789     
  -47056915.2341095     
  -46707080.3082974     
  -46405187.6574160     
  -46164839.9580930     
  -46006098.2000945     
  -52269351.1078111     
  -51442512.9912938     
  -50586528.3377712     
  -49751387.6593655     
  -48965187.1204700     
  -48238810.4010513     
  -47572577.1523579     
  -46961634.8553778     
  -46399332.6367693     
  -45879116.3553360     
  -45396009.9957073     
  -44948569.0281558     
  -44541239.5659347     
  -44187289.2727676     
  -43910056.5529507     
  -52335359.8271737     
  -51110704.7240797     
  -49921991.3759892     
  -48824364.3077235     
  -47836496.4766375     
  -46954136.6712248     
  -46163439.8220890     
  -45448677.2178046     
  -44794543.6600647     
  -44187011.9087467     
  -43613908.8229480     
  -43066055.9693193     
  -42541715.7626796     
  -42050879.1355302     
  -41621632.8435323     
  -52372710.6031092     
  -50649007.9428986     
  -49075156.9204116     
  -47704414.9630309     
  -46525308.2920751     
  -45502798.2375766     
  -44604316.8227891     
  -43801556.5131778     
  -43070063.1086890     
  -42388037.7540553     
  -41735217.2792207     
  -41092501.1562690     
  -40442587.2072548     
  -39788828.0251967     
  -39158981.6890645     
  -52317739.5387744     
  -49935861.0110216     
  -47946674.5860497     
  -46337722.2068072     
  -45003793.8799320     
  -43873720.7335492     
  -42895178.9408043     
  -42028345.5655695     
  -41240856.8206859     
  -40504266.7774754     
  -39791060.2792496     
  -39071414.5383239     
  -38310314.6105311     
  -37457509.4327873     
  -36560707.2932741     
  -51882633.4079150     
  -48687581.1230454     
  -46428507.4494771     
  -44673794.0856601     
  -43251868.9315840     
  -42062931.0755529     
  -41041876.6161895     
  -40141710.1753469     
  -39325328.6374945     
  -38560323.3306006     
  -37814676.0368234     
  -37051700.1100843     
  -36220865.7447093     
  -35238930.6457252     
  -33865083.7416409     
SCALARS 2waySource double 
LOOKUP_TABLE default
 -9.428996978590966E-005
 -8.133454221423684E-005
 -7.061053924318161E-005
 -6.133529440425993E-005
 -5.320670564219922E-005
 -4.601714354876279E-005
 -3.960603182614820E-005
 -3.383757827776540E-005
 -2.859131631808132E-005
 -2.375645888115153E-005
 -1.922716008788140E-005
 -1.489661546924573E-005
 -1.064517483969412E-005
 -6.321426754255815E-006
 -1.529290782420519E-006
 -9.459386210545042E-005
 -8.297416580377694E-005
 -7.274356439693379E-005
 -6.383885625630336E-005
 -5.602823995971142E-005
 -4.913625776853229E-005
 -4.301093434398058E-005
 -3.751794896240937E-005
 -3.253565546800397E-005
 -2.795187874238984E-005
 -2.366105990722172E-005
 -1.956075740109899E-005
 -1.554796815392274E-005
 -1.149948069864234E-005
 -7.316073262464165E-006
 -9.435785187553254E-005
 -8.379295400535251E-005
 -7.429482421620572E-005
 -6.591883158812046E-005
 -5.856422436587866E-005
 -5.208812101849761E-005
 -4.635262527010824E-005
 -4.122827786167204E-005
 -3.659520069048162E-005
 -3.234262229100949E-005
 -2.836812396872847E-005
 -2.457722080098849E-005
 -2.088247342053780E-005
 -1.721317752043578E-005
 -1.353953473229203E-005
 -9.399555855222553E-005
 -8.423554176783258E-005
 -7.548368976100556E-005
 -6.775037924666958E-005
 -6.096497310156121E-005
 -5.501251089048808E-005
 -4.976583893656200E-005
 -4.510045401339398E-005
 -4.089892146790904E-005
 -3.705260438645515E-005
 -3.346244459363591E-005
 -3.003984286501003E-005
 -2.671000769864333E-005
 -2.341987658901028E-005
 -2.016092339347288E-005
 -9.358804569959680E-005
 -8.453608121464893E-005
 -7.652395563946394E-005
 -6.950071615562431E-005
 -6.337959988641935E-005
 -5.804804195325223E-005
 -5.338308890536594E-005
 -4.926249801774285E-005
 -4.557041808693049E-005
 -4.219982627717371E-005
 -3.905382978378099E-005
 -3.604717536102086E-005
 -3.310917053594725E-005
 -3.019029636355396E-005
 -2.727144172480062E-005
 -9.316425403737386E-005
 -8.481660480831198E-005
 -7.757207649505352E-005
 -7.132224271193617E-005
 -6.594956733554522E-005
 -6.132871878735955E-005
 -5.733243936591530E-005
 -5.383734306540909E-005
 -5.072765071095009E-005
 -4.789705228456018E-005
 -4.524962746357438E-005
 -4.270076925835417E-005
 -4.017901030972436E-005
 -3.762902402193771E-005
 -3.501489936301965E-005
 -9.273677992616765E-005
 -8.515439951598395E-005
 -7.874380107774799E-005
 -7.334447481911787E-005
 -6.880482581537271E-005
 -6.498039805370906E-005
 -6.173460003289337E-005
 -5.894020771421914E-005
 -5.648041208851482E-005
 -5.424910007888852E-005
 -5.215065162457599E-005
 -5.009972839625565E-005
 -4.802140284952321E-005
 -4.585159632462775E-005
 -4.353700462072484E-005
 -9.231241302770423E-005
 -8.560710455019093E-005
 -8.013155334736909E-005
 -7.567774206787930E-005
 -7.206121534833361E-005
 -6.911738693494529E-005
 -6.669900090782433E-005
 -6.467433628966670E-005
 -6.292561250959321E-005
 -6.134731881336208E-005
 -5.984447882065408E-005
 -5.833098979954973E-005
 -5.672812144092882E-005
 -5.496302297007485E-005
 -5.296679388297071E-005
 -9.189652857711131E-005
 -8.622347792605130E-005
 -8.181386920440951E-005
 -7.841699905293885E-005
 -7.581931147975497E-005
 -7.383858745264991E-005
 -7.231869832274441E-005
 -7.112504865556628E-005
 -7.014055176388870E-005
 -6.926196609583206E-005
 -6.839650199123069E-005
 -6.745866225279679E-005
 -6.636725299907125E-005
 -6.504240857336978E-005
 -6.340238239479511E-005
 -9.149576074960554E-005
 -8.704788798932328E-005
 -8.385920049678030E-005
 -8.164274912297183E-005
 -8.016206015358319E-005
 -7.922260152978062E-005
 -7.866382917275543E-005
 -7.835209035601966E-005
 -7.817436964315346E-005
 -7.803274641114509E-005
 -7.783941470991068E-005
 -7.751212272681451E-005
 -7.696988178897089E-005
 -7.612877464482337E-005
 -7.489769853029602E-005
 -9.111984811510808E-005
 -8.812151952394323E-005
 -8.632579078689427E-005
 -8.541880597054101E-005
 -8.515017368089395E-005
 -8.532106793289819E-005
 -8.577340576698632E-005
 -8.638031783017258E-005
 -8.703786805680249E-005
 -8.765784468973246E-005
 -8.816139550582605E-005
 -8.847327222722106E-005
 -8.851645588717913E-005
 -8.820695304923769E-005
 -8.744859837934468E-005
 -9.078292503142579E-005
 -8.948138016046897E-005
 -8.925861724508067E-005
 -8.978719993355205E-005
 -9.081511766372463E-005
 -9.215002119313234E-005
 -9.364542760303496E-005
 -9.518890510378543E-005
 -9.669203874519354E-005
 -9.808187002416859E-005
 -9.929346498328752E-005
 -1.002632673798053E-004
 -1.009229168945621E-004
 -1.011932519089734E-004
 -1.009782784294493E-004
 -9.050430697548552E-005
 -9.115758435820868E-005
 -9.268399611829387E-005
 -9.476067878389145E-005
 -9.714995942918337E-005
 -9.967949780974447E-005
 -1.022256171805455E-004
 -1.046995076885925E-004
 -1.070358490900058E-004
 -1.091833465002035E-004
 -1.110966730771668E-004
 -1.127293432679247E-004
 -1.140270849730649E-004
 -1.149213338894685E-004
 -1.153225413940505E-004
 -9.030874203013684E-005
 -9.316919994179964E-005
 -9.660234340856960E-005
 -1.003133650044006E-004
 -1.040986482721484E-004
 -1.078219838976920E-004
 -1.113954399137366E-004
 -1.147641349625682E-004
 -1.178941273039976E-004
 -1.207626597443135E-004
 -1.233500600534710E-004
 -1.256326672556833E-004
 -1.275762252673804E-004
 -1.291292535487290E-004
 -1.302159730199044E-004
 -9.022608242887078E-005
 -9.551894004513695E-005
 -1.009796471677350E-004
 -1.063703108268495E-004
 -1.115445843218692E-004
 -1.164206450927862E-004
 -1.209604264976376E-004
 -1.251538260701885E-004
 -1.290067118682570E-004
 -1.325316798577062E-004
 -1.357406497032566E-004
 -1.386385080474554E-004
 -1.412171098837392E-004
 -1.434490289752624E-004
 -1.452805124438806E-004
 -9.029034629502833E-005
 -9.818708394096460E-005
 -1.057383824098790E-004
 -1.127969393077167E-004
 -1.192996406263920E-004
 -1.252386232351801E-004
 -1.306401688314269E-004
 -1.355495674552953E-004
 -1.400203565141473E-004
 -1.441065937495170E-004
 -1.478570419633844E-004
 -1.513103222728688E-004
 -1.544902276643239E-004
 -1.574004798969722E-004
 -1.600182667959067E-004
 -9.053817943983802E-005
 -1.011251740021011E-004
 -1.107488384214772E-004
 -1.193896449052455E-004
 -1.270951155804872E-004
 -1.339510078453088E-004
 -1.400616804879946E-004
 -1.455371958402468E-004
 -1.504851685330132E-004
 -1.550057480119683E-004
 -1.591884274764702E-004
 -1.631096116684680E-004
 -1.668300480997850E-004
 -1.703913280456610E-004
 -1.738107003994860E-004
 -9.100678301347302E-005
 -1.042502287658218E-004
 -1.158220800418278E-004
 -1.258690950351401E-004
 -1.345763571541951E-004
 -1.421413424510081E-004
 -1.487580477772193E-004
 -1.546082448881194E-004
 -1.598575494493069E-004
 -1.646544711210108E-004
 -1.691309930001140E-004
 -1.734035340424919E-004
 -1.775733665958376E-004
 -1.817256765157375E-004
 -1.859264641946636E-004
 -9.173143619113529E-005
 -1.074403874251598E-004
 -1.207059554315169E-004
 -1.318779380869868E-004
 -1.413029285749650E-004
 -1.493046235030668E-004
 -1.561743708980642E-004
 -1.621687449731608E-004
 -1.675116341980248E-004
 -1.723988439658781E-004
 -1.770036587314654E-004
 -1.814821970179278E-004
 -1.859776829218377E-004
 -1.906228976852753E-004
 -1.955400483979506E-004
 -9.274280019983108E-005
 -1.105329876662341E-004
 -1.250855826354912E-004
 -1.369845572003233E-004
 -1.467560542482123E-004
 -1.548585834490566E-004
 -1.616828117400379E-004
 -1.675577897138201E-004
 -1.727610107897052E-004
 -1.775301472462764E-004
 -1.820748158214945E-004
 -1.865872562708914E-004
 -1.912512243572963E-004
 -1.962485917576587E-004
 -2.017630591840768E-004
 -9.406421829522875E-005
 -1.133259666336846E-004
 -1.285894349138419E-004
 -1.406940408814316E-004
 -1.503545426217615E-004
 -1.581644984094383E-004
 -1.646080307925751E-004
 -1.700771604200096E-004
 -1.748919740331382E-004
 -1.793211633023886E-004
 -1.836011485763734E-004
 -1.879528167936184E-004
 -1.925955592794175E-004
 -1.977585662044806E-004
 -2.036891630956155E-004
 -9.570918803070166E-005
 -1.155829953382824E-004
 -1.308012673897761E-004
 -1.424664507667219E-004
 -1.514792687758475E-004
 -1.585577288820256E-004
 -1.642633522950805E-004
 -1.690324025326033E-004
 -1.732086725571310E-004
 -1.770745972136410E-004
 -1.808786836299009E-004
 -1.848586602321283E-004
 -1.892607241104944E-004
 -1.943557011320148E-004
 -2.004525661502635E-004
 -9.767901700843566E-005
 -1.170416323591111E-004
 -1.312763366923970E-004
 -1.417404826353272E-004
 -1.495045020497073E-004
 -1.553866992631360E-004
 -1.599966910871758E-004
 -1.637844954993637E-004
 -1.670892369196784E-004
 -1.701825809290387E-004
 -1.733049066709469E-004
 -1.766945036302263E-004
 -1.806114495564861E-004
 -1.853581448893901E-004
 -1.912983293717600E-004
 -9.996024486681287E-005
 -1.174215080298213E-004
 -1.295570526643780E-004
 -1.379574385925188E-004
 -1.438319673841848E-004
 -1.480573403303096E-004
 -1.512438636550036E-004
 -1.538097681187889E-004
 -1.560503273775923E-004
 -1.581945578808640E-004
 -1.604491503089645E-004
 -1.630324895198902E-004
 -1.662015402215030E-004
 -1.702757492867903E-004
 -1.756610168656473E-004
 -1.025205376970954E-004
 -1.164247960469207E-004
 -1.251772099966840E-004
 -1.305757915187542E-004
 -1.339212443171970E-004
 -1.360791063334176E-004
 -1.375859536518613E-004
 -1.387641305212119E-004
 -1.398155132862944E-004
 -1.408886796323564E-004
 -1.421267848215146E-004
 -1.437034856378322E-004
 -1.458523520472701E-004
 -1.488902323521816E-004
 -1.532466913499970E-004
 -1.052988522616042E-004
 -1.137108125068146E-004
 -1.176320982951486E-004
 -1.190612249924915E-004
 -1.193106365997998E-004
 -1.191104843696752E-004
 -1.188077998239596E-004
 -1.185459403894464E-004
 -1.183799963804601E-004
 -1.183395030872488E-004
 -1.184702816641691E-004
 -1.188728408466734E-004
 -1.197300069220737E-004
 -1.213354950864953E-004
 -1.241123655255287E-004
 -1.081804052279652E-004
 -1.087937340638290E-004
 -1.062697865343903E-004
 -1.028365540074247E-004
 -9.963315775116779E-005
 -9.701060744399771E-005
 -9.495477580145056E-005
 -9.334972499975427E-005
 -9.206084255714337E-005
 -9.096899827999643E-005
 -8.999104424092454E-005
 -8.910716216835334E-005
 -8.842470361981595E-005
 -8.817147950175881E-005
 -8.874419492584912E-005
 -1.108831036283330E-004
 -1.007256959247166E-004
 -9.001453872633184E-005
 -8.121182547569211E-005
 -7.467989005486864E-005
 -6.990448661095972E-005
 -6.638391844391968E-005
 -6.370033864680819E-005
 -6.151853813887170E-005
 -5.956368594013909E-005
 -5.760448442108896E-005
 -5.545432804417706E-005
 -5.300784389012156E-005
 -5.049555292391878E-005
 -4.812640250928239E-005
 -1.125496840036257E-004
 -8.693407009247190E-005
 -6.692542224182957E-005
 -5.359500105638042E-005
 -4.453446190916874E-005
 -3.826432512796499E-005
 -3.379764813491798E-005
 -3.045570046798892E-005
 -2.773709146843535E-005
 -2.523690422773676E-005
 -2.258914088204800E-005
 -1.942034740811092E-005
 -1.532380428730886E-005
 -9.883041178450627E-006
 -4.030717660141687E-006
 -1.065570429782895E-004
 -6.057361056280507E-005
 -3.548928624072054E-005
 -1.991068083668786E-005
 -9.775768955766659E-006
 -2.970561020258472E-006
  1.757938011822303E-006
  5.231552762049410E-006
  8.042177072820093E-006
  1.066803327386659E-005
  1.355712854665206E-005
  1.720913235670109E-005
  2.228711645415633E-005
  2.984493700309943E-005
  4.148707051960898E-005
SCALARS poroP double 
LOOKUP_TABLE default
  0.000000000000000E+000
  0.000000000000000E+000
  0.000000000000000E+000
  0.000000000000000E+000
  0.000000000000000E+000
  0.000000000000000E+000
  0.000000000000000E+000
  0.000000000000000E+000
  0.000000000000000E+000
  0.000000000000000E+000
  0.000000000000000E+000
  0.000000000000000E+000
  0.000000000000000E+000
  0.000000000000000E+000
  0.000000000000000E+000
  0.000000000000000E+000
  0.000000000000000E+000
  0.000000000000000E+000
  0.000000000000000E+000
  0.000000000000000E+000
  0.000000000000000E+000
  0.000000000000000E+000
  0.000000000000000E+000
  0.000000000000000E+000
  0.000000000000000E+000
  0.000000000000000E+000
  0.000000000000000E+000
  0.000000000000000E+000
  0.000000000000000E+000
  0.000000000000000E+000
  0.000000000000000E+000
  0.000000000000000E+000
  0.000000000000000E+000
  0.000000000000000E+000
  0.000000000000000E+000
  0.000000000000000E+000
  0.000000000000000E+000
  0.000000000000000E+000
  0.000000000000000E+000
  0.000000000000000E+000
  0.000000000000000E+000
  0.000000000000000E+000
  0.000000000000000E+000
  0.000000000000000E+000
  0.000000000000000E+000
  0.000000000000000E+000
  0.000000000000000E+000
  0.000000000000000E+000
  0.000000000000000E+000
  0.000000000000000E+000
  0.000000000000000E+000
  0.000000000000000E+000
  0.000000000000000E+000
  0.000000000000000E+000
  0.000000000000000E+000
  0.000000000000000E+000
  0.000000000000000E+000
  0.000000000000000E+000
  0.000000000000000E+000
  0.000000000000000E+000
  0.000000000000000E+000
  0.000000000000000E+000
  0.000000000000000E+000
  0.000000000000000E+000
  0.000000000000000E+000
  0.000000000000000E+000
  0.000000000000000E+000
  0.000000000000000E+000
  0.000000000000000E+000
  0.000000000000000E+000
  0.000000000000000E+000
  0.000000000000000E+000
  0.000000000000000E+000
  0.000000000000000E+000
  0.000000000000000E+000
  0.000000000000000E+000
  0.000000000000000E+000
  0.000000000000000E+000
  0.000000000000000E+000
  0.000000000000000E+000
  0.000000000000000E+000
  0.000000000000000E+000
  0.000000000000000E+000
  0.000000000000000E+000
  0.000000000000000E+000
  0.000000000000000E+000
  0.000000000000000E+000
  0.000000000000000E+000
  0.000000000000000E+000
  0.000000000000000E+000
  0.000000000000000E+000
  0.000000000000000E+000
  0.000000000000000E+000
  0.000000000000000E+000
  0.000000000000000E+000
  0.000000000000000E+000
  0.000000000000000E+000
  0.000000000000000E+000
  0.000000000000000E+000
  0.000000000000000E+000
  0.000000000000000E+000
  0.000000000000000E+000
  0.000000000000000E+000
  0.000000000000000E+000
  0.000000000000000E+000
  0.000000000000000E+000
  0.000000000000000E+000
  0.000000000000000E+000
  0.000000000000000E+000
  0.000000000000000E+000
  0.000000000000000E+000
  0.000000000000000E+000
  0.000000000000000E+000
  0.000000000000000E+000
  0.000000000000000E+000
  0.000000000000000E+000
  0.000000000000000E+000
  0.000000000000000E+000
  0.000000000000000E+000
  0.000000000000000E+000
  0.000000000000000E+000
  0.000000000000000E+000
  0.000000000000000E+000
  0.000000000000000E+000
  0.000000000000000E+000
  0.000000000000000E+000
  0.000000000000000E+000
  0.000000000000000E+000
  0.000000000000000E+000
  0.000000000000000E+000
  0.000000000000000E+000
  0.000000000000000E+000
  0.000000000000000E+000
  0.000000000000000E+000
  0.000000000000000E+000
  0.000000000000000E+000
  0.000000000000000E+000
  0.000000000000000E+000
  0.000000000000000E+000
  0.000000000000000E+000
  0.000000000000000E+000
  0.000000000000000E+000
  0.000000000000000E+000
  0.000000000000000E+000
  0.000000000000000E+000
  0.000000000000000E+000
  0.000000000000000E+000
  0.000000000000000E+000
  0.000000000000000E+000
  0.000000000000000E+000
  0.000000000000000E+000
  0.000000000000000E+000
  0.000000000000000E+000
  0.000000000000000E+000
  0.000000000000000E+000
  0.000000000000000E+000
  0.000000000000000E+000
  0.000000000000000E+000
  0.000000000000000E+000
  0.000000000000000E+000
  0.000000000000000E+000
  0.000000000000000E+000
  0.000000000000000E+000
  0.000000000000000E+000
  0.000000000000000E+000
  0.000000000000000E+000
  0.000000000000000E+000
  0.000000000000000E+000
  0.000000000000000E+000
  0.000000000000000E+000
  0.000000000000000E+000
  0.000000000000000E+000
  0.000000000000000E+000
  0.000000000000000E+000
  0.000000000000000E+000
  0.000000000000000E+000
  0.000000000000000E+000
  0.000000000000000E+000
  0.000000000000000E+000
  0.000000000000000E+000
  0.000000000000000E+000
  0.000000000000000E+000
  0.000000000000000E+000
  0.000000000000000E+000
  0.000000000000000E+000
  0.000000000000000E+000
  0.000000000000000E+000
  0.000000000000000E+000
  0.000000000000000E+000
  0.000000000000000E+000
  0.000000000000000E+000
  0.000000000000000E+000
  0.000000000000000E+000
  0.000000000000000E+000
  0.000000000000000E+000
  0.000000000000000E+000
  0.000000000000000E+000
  0.000000000000000E+000
  0.000000000000000E+000
  0.000000000000000E+000
  0.000000000000000E+000
  0.000000000000000E+000
  0.000000000000000E+000
  0.000000000000000E+000
  0.000000000000000E+000
  0.000000000000000E+000
  0.000000000000000E+000
  0.000000000000000E+000
  0.000000000000000E+000
  0.000000000000000E+000
  0.000000000000000E+000
  0.000000000000000E+000
  0.000000000000000E+000
  0.000000000000000E+000
  0.000000000000000E+000
  0.000000000000000E+000
  0.000000000000000E+000
  0.000000000000000E+000
  0.000000000000000E+000
  0.000000000000000E+000
  0.000000000000000E+000
  0.000000000000000E+000
  0.000000000000000E+000
  0.000000000000000E+000
  0.000000000000000E+000
  0.000000000000000E+000
  0.000000000000000E+000
  0.000000000000000E+000
  0.000000000000000E+000
  0.000000000000000E+000
  0.000000000000000E+000
  0.000000000000000E+000
  0.000000000000000E+000
  0.000000000000000E+000
  0.000000000000000E+000
  0.000000000000000E+000
  0.000000000000000E+000
  0.000000000000000E+000
  0.000000000000000E+000
  0.000000000000000E+000
  0.000000000000000E+000
  0.000000000000000E+000
  0.000000000000000E+000
  0.000000000000000E+000
  0.000000000000000E+000
  0.000000000000000E+000
  0.000000000000000E+000
  0.000000000000000E+000
  0.000000000000000E+000
  0.000000000000000E+000
  0.000000000000000E+000
  0.000000000000000E+000
  0.000000000000000E+000
  0.000000000000000E+000
  0.000000000000000E+000
  0.000000000000000E+000
  0.000000000000000E+000
  0.000000000000000E+000
  0.000000000000000E+000
  0.000000000000000E+000
  0.000000000000000E+000
  0.000000000000000E+000
  0.000000000000000E+000
  0.000000000000000E+000
  0.000000000000000E+000
  0.000000000000000E+000
  0.000000000000000E+000
  0.000000000000000E+000
  0.000000000000000E+000
  0.000000000000000E+000
  0.000000000000000E+000
  0.000000000000000E+000
  0.000000000000000E+000
  0.000000000000000E+000
  0.000000000000000E+000
  0.000000000000000E+000
  0.000000000000000E+000
  0.000000000000000E+000
  0.000000000000000E+000
  0.000000000000000E+000
  0.000000000000000E+000
  0.000000000000000E+000
  0.000000000000000E+000
  0.000000000000000E+000
  0.000000000000000E+000
  0.000000000000000E+000
  0.000000000000000E+000
  0.000000000000000E+000
  0.000000000000000E+000
  0.000000000000000E+000
  0.000000000000000E+000
  0.000000000000000E+000
  0.000000000000000E+000
  0.000000000000000E+000
  0.000000000000000E+000
  0.000000000000000E+000
  0.000000000000000E+000
  0.000000000000000E+000
  0.000000000000000E+000
  0.000000000000000E+000
  0.000000000000000E+000
  0.000000000000000E+000
  0.000000000000000E+000
  0.000000000000000E+000
  0.000000000000000E+000
  0.000000000000000E+000
  0.000000000000000E+000
  0.000000000000000E+000
  0.000000000000000E+000
  0.000000000000000E+000
  0.000000000000000E+000
  0.000000000000000E+000
  0.000000000000000E+000
  0.000000000000000E+000
  0.000000000000000E+000
  0.000000000000000E+000
  0.000000000000000E+000
  0.000000000000000E+000
  0.000000000000000E+000
  0.000000000000000E+000
  0.000000000000000E+000
  0.000000000000000E+000
  0.000000000000000E+000
  0.000000000000000E+000
  0.000000000000000E+000
  0.000000000000000E+000
  0.000000000000000E+000
  0.000000000000000E+000
  0.000000000000000E+000
  0.000000000000000E+000
  0.000000000000000E+000
  0.000000000000000E+000
  0.000000000000000E+000
  0.000000000000000E+000
  0.000000000000000E+000
  0.000000000000000E+000
  0.000000000000000E+000
  0.000000000000000E+000
  0.000000000000000E+000
  0.000000000000000E+000
  0.000000000000000E+000
  0.000000000000000E+000
  0.000000000000000E+000
  0.000000000000000E+000
  0.000000000000000E+000
  0.000000000000000E+000
  0.000000000000000E+000
  0.000000000000000E+000
  0.000000000000000E+000
  0.000000000000000E+000
  0.000000000000000E+000
  0.000000000000000E+000
  0.000000000000000E+000
  0.000000000000000E+000
  0.000000000000000E+000
  0.000000000000000E+000
  0.000000000000000E+000
  0.000000000000000E+000
  0.000000000000000E+000
  0.000000000000000E+000
  0.000000000000000E+000
  0.000000000000000E+000
  0.000000000000000E+000
  0.000000000000000E+000
  0.000000000000000E+000
  0.000000000000000E+000
  0.000000000000000E+000
  0.000000000000000E+000
  0.000000000000000E+000
  0.000000000000000E+000
  0.000000000000000E+000
  0.000000000000000E+000
  0.000000000000000E+000
  0.000000000000000E+000
  0.000000000000000E+000
  0.000000000000000E+000
  0.000000000000000E+000
  0.000000000000000E+000
  0.000000000000000E+000
  0.000000000000000E+000
  0.000000000000000E+000
  0.000000000000000E+000
  0.000000000000000E+000
  0.000000000000000E+000
  0.000000000000000E+000
  0.000000000000000E+000
  0.000000000000000E+000
  0.000000000000000E+000
  0.000000000000000E+000
  0.000000000000000E+000
  0.000000000000000E+000
  0.000000000000000E+000
  0.000000000000000E+000
  0.000000000000000E+000
  0.000000000000000E+000
  0.000000000000000E+000
  0.000000000000000E+000
  0.000000000000000E+000
  0.000000000000000E+000
  0.000000000000000E+000
  0.000000000000000E+000
  0.000000000000000E+000
  0.000000000000000E+000
  0.000000000000000E+000
  0.000000000000000E+000
  0.000000000000000E+000
  0.000000000000000E+000
  0.000000000000000E+000
  0.000000000000000E+000
  0.000000000000000E+000
  0.000000000000000E+000
  0.000000000000000E+000
  0.000000000000000E+000
  0.000000000000000E+000
  0.000000000000000E+000
  0.000000000000000E+000
  0.000000000000000E+000
  0.000000000000000E+000
  0.000000000000000E+000
  0.000000000000000E+000
  0.000000000000000E+000
  0.000000000000000E+000
  0.000000000000000E+000
  0.000000000000000E+000
  0.000000000000000E+000
  0.000000000000000E+000
  0.000000000000000E+000
  0.000000000000000E+000
  0.000000000000000E+000
  0.000000000000000E+000
  0.000000000000000E+000
  0.000000000000000E+000
  0.000000000000000E+000
  0.000000000000000E+000
  0.000000000000000E+000
  0.000000000000000E+000
  0.000000000000000E+000
  0.000000000000000E+000
  0.000000000000000E+000
  0.000000000000000E+000
  0.000000000000000E+000
  0.000000000000000E+000
  0.000000000000000E+000
  0.000000000000000E+000
  0.000000000000000E+000
  0.000000000000000E+000
  0.000000000000000E+000
  0.000000000000000E+000
  0.000000000000000E+000
  0.000000000000000E+000
SCALARS elementIsPlast double 
LOOKUP_TABLE default
  0.000000000000000E+000
  0.000000000000000E+000
  0.000000000000000E+000
  0.000000000000000E+000
  0.000000000000000E+000
  0.000000000000000E+000
  0.000000000000000E+000
  0.000000000000000E+000
  0.000000000000000E+000
  0.000000000000000E+000
  0.000000000000000E+000
  0.000000000000000E+000
  0.000000000000000E+000
  0.000000000000000E+000
  0.000000000000000E+000
  0.000000000000000E+000
  0.000000000000000E+000
  0.000000000000000E+000
  0.000000000000000E+000
  0.000000000000000E+000
  0.000000000000000E+000
  0.000000000000000E+000
  0.000000000000000E+000
  0.000000000000000E+000
  0.000000000000000E+000
  0.000000000000000E+000
  0.000000000000000E+000
  0.000000000000000E+000
  0.000000000000000E+000
  0.000000000000000E+000
  0.000000000000000E+000
  0.000000000000000E+000
  0.000000000000000E+000
  0.000000000000000E+000
  0.000000000000000E+000
  0.000000000000000E+000
  0.000000000000000E+000
  0.000000000000000E+000
  0.000000000000000E+000
  0.000000000000000E+000
  0.000000000000000E+000
  0.000000000000000E+000
  0.000000000000000E+000
  0.000000000000000E+000
  0.000000000000000E+000
  0.000000000000000E+000
  0.000000000000000E+000
  0.000000000000000E+000
  0.000000000000000E+000
  0.000000000000000E+000
  0.000000000000000E+000
  0.000000000000000E+000
  0.000000000000000E+000
  0.000000000000000E+000
  0.000000000000000E+000
  0.000000000000000E+000
  0.000000000000000E+000
  0.000000000000000E+000
  0.000000000000000E+000
  0.000000000000000E+000
  0.000000000000000E+000
  0.000000000000000E+000
  0.000000000000000E+000
  0.000000000000000E+000
  0.000000000000000E+000
  0.000000000000000E+000
  0.000000000000000E+000
  0.000000000000000E+000
  0.000000000000000E+000
  0.000000000000000E+000
  0.000000000000000E+000
  0.000000000000000E+000
  0.000000000000000E+000
  0.000000000000000E+000
  0.000000000000000E+000
  0.000000000000000E+000
  0.000000000000000E+000
  0.000000000000000E+000
  0.000000000000000E+000
  0.000000000000000E+000
  0.000000000000000E+000
  0.000000000000000E+000
  0.000000000000000E+000
  0.000000000000000E+000
  0.000000000000000E+000
  0.000000000000000E+000
  0.000000000000000E+000
  0.000000000000000E+000
  0.000000000000000E+000
  0.000000000000000E+000
  0.000000000000000E+000
  0.000000000000000E+000
  0.000000000000000E+000
  0.000000000000000E+000
  0.000000000000000E+000
  0.000000000000000E+000
  0.000000000000000E+000
  0.000000000000000E+000
  0.000000000000000E+000
  0.000000000000000E+000
  0.000000000000000E+000
  0.000000000000000E+000
  0.000000000000000E+000
  0.000000000000000E+000
  0.000000000000000E+000
  0.000000000000000E+000
  0.000000000000000E+000
  0.000000000000000E+000
  0.000000000000000E+000
  0.000000000000000E+000
  0.000000000000000E+000
  0.000000000000000E+000
  0.000000000000000E+000
  0.000000000000000E+000
  0.000000000000000E+000
  0.000000000000000E+000
  0.000000000000000E+000
  0.000000000000000E+000
  0.000000000000000E+000
  0.000000000000000E+000
  0.000000000000000E+000
  0.000000000000000E+000
  0.000000000000000E+000
  0.000000000000000E+000
  0.000000000000000E+000
  0.000000000000000E+000
  0.000000000000000E+000
  0.000000000000000E+000
  0.000000000000000E+000
  0.000000000000000E+000
  0.000000000000000E+000
  0.000000000000000E+000
  0.000000000000000E+000
  0.000000000000000E+000
  0.000000000000000E+000
  0.000000000000000E+000
  0.000000000000000E+000
  0.000000000000000E+000
  0.000000000000000E+000
  0.000000000000000E+000
  0.000000000000000E+000
  0.000000000000000E+000
  0.000000000000000E+000
  0.000000000000000E+000
  0.000000000000000E+000
  0.000000000000000E+000
  0.000000000000000E+000
  0.000000000000000E+000
  0.000000000000000E+000
  0.000000000000000E+000
  0.000000000000000E+000
  0.000000000000000E+000
  0.000000000000000E+000
  0.000000000000000E+000
  0.000000000000000E+000
  0.000000000000000E+000
  0.000000000000000E+000
  0.000000000000000E+000
  0.000000000000000E+000
  0.000000000000000E+000
  0.000000000000000E+000
  0.000000000000000E+000
  0.000000000000000E+000
  0.000000000000000E+000
  0.000000000000000E+000
  0.000000000000000E+000
  0.000000000000000E+000
  0.000000000000000E+000
  0.000000000000000E+000
  0.000000000000000E+000
  0.000000000000000E+000
  0.000000000000000E+000
  0.000000000000000E+000
  0.000000000000000E+000
  0.000000000000000E+000
  0.000000000000000E+000
  0.000000000000000E+000
  0.000000000000000E+000
  0.000000000000000E+000
  0.000000000000000E+000
  0.000000000000000E+000
  0.000000000000000E+000
  0.000000000000000E+000
  0.000000000000000E+000
  0.000000000000000E+000
  0.000000000000000E+000
  0.000000000000000E+000
  0.000000000000000E+000
  0.000000000000000E+000
  0.000000000000000E+000
  0.000000000000000E+000
  0.000000000000000E+000
  0.000000000000000E+000
  0.000000000000000E+000
  0.000000000000000E+000
  0.000000000000000E+000
  0.000000000000000E+000
  0.000000000000000E+000
  0.000000000000000E+000
  0.000000000000000E+000
  0.000000000000000E+000
  0.000000000000000E+000
  0.000000000000000E+000
  0.000000000000000E+000
  0.000000000000000E+000
  0.000000000000000E+000
  0.000000000000000E+000
  0.000000000000000E+000
  0.000000000000000E+000
  0.000000000000000E+000
  0.000000000000000E+000
  0.000000000000000E+000
  0.000000000000000E+000
  0.000000000000000E+000
  0.000000000000000E+000
  0.000000000000000E+000
  0.000000000000000E+000
  0.000000000000000E+000
  0.000000000000000E+000
  0.000000000000000E+000
  0.000000000000000E+000
  0.000000000000000E+000
  0.000000000000000E+000
  0.000000000000000E+000
  0.000000000000000E+000
  0.000000000000000E+000
  0.000000000000000E+000
  0.000000000000000E+000
  0.000000000000000E+000
  0.000000000000000E+000
  0.000000000000000E+000
  0.000000000000000E+000
  0.000000000000000E+000
  0.000000000000000E+000
  0.000000000000000E+000
  0.000000000000000E+000
  0.000000000000000E+000
  0.000000000000000E+000
  0.000000000000000E+000
  0.000000000000000E+000
  0.000000000000000E+000
  0.000000000000000E+000
  0.000000000000000E+000
  0.000000000000000E+000
  0.000000000000000E+000
  0.000000000000000E+000
  0.000000000000000E+000
  0.000000000000000E+000
  0.000000000000000E+000
  0.000000000000000E+000
  0.000000000000000E+000
  0.000000000000000E+000
  0.000000000000000E+000
  0.000000000000000E+000
  0.000000000000000E+000
  0.000000000000000E+000
  0.000000000000000E+000
  0.000000000000000E+000
  0.000000000000000E+000
  0.000000000000000E+000
  0.000000000000000E+000
  0.000000000000000E+000
  0.000000000000000E+000
  0.000000000000000E+000
  0.000000000000000E+000
  0.000000000000000E+000
  0.000000000000000E+000
  0.000000000000000E+000
  0.000000000000000E+000
  0.000000000000000E+000
  0.000000000000000E+000
  0.000000000000000E+000
  0.000000000000000E+000
  0.000000000000000E+000
  0.000000000000000E+000
  0.000000000000000E+000
  0.000000000000000E+000
  0.000000000000000E+000
  0.000000000000000E+000
  0.000000000000000E+000
  0.000000000000000E+000
  0.000000000000000E+000
  0.000000000000000E+000
  0.000000000000000E+000
  0.000000000000000E+000
  0.000000000000000E+000
  0.000000000000000E+000
  0.000000000000000E+000
  0.000000000000000E+000
  0.000000000000000E+000
  0.000000000000000E+000
  0.000000000000000E+000
  0.000000000000000E+000
  0.000000000000000E+000
  0.000000000000000E+000
  0.000000000000000E+000
  0.000000000000000E+000
  0.000000000000000E+000
  0.000000000000000E+000
  0.000000000000000E+000
  0.000000000000000E+000
  0.000000000000000E+000
  0.000000000000000E+000
  0.000000000000000E+000
  0.000000000000000E+000
  0.000000000000000E+000
  0.000000000000000E+000
  0.000000000000000E+000
  0.000000000000000E+000
  0.000000000000000E+000
  0.000000000000000E+000
  0.000000000000000E+000
  0.000000000000000E+000
  0.000000000000000E+000
  0.000000000000000E+000
  0.000000000000000E+000
  0.000000000000000E+000
  0.000000000000000E+000
  0.000000000000000E+000
  0.000000000000000E+000
  0.000000000000000E+000
  0.000000000000000E+000
  0.000000000000000E+000
  0.000000000000000E+000
  0.000000000000000E+000
  0.000000000000000E+000
  0.000000000000000E+000
  0.000000000000000E+000
  0.000000000000000E+000
  0.000000000000000E+000
  0.000000000000000E+000
  0.000000000000000E+000
  0.000000000000000E+000
  0.000000000000000E+000
  0.000000000000000E+000
  0.000000000000000E+000
  0.000000000000000E+000
  0.000000000000000E+000
  0.000000000000000E+000
  0.000000000000000E+000
  0.000000000000000E+000
  0.000000000000000E+000
  0.000000000000000E+000
  0.000000000000000E+000
  0.000000000000000E+000
  0.000000000000000E+000
  0.000000000000000E+000
  0.000000000000000E+000
  0.000000000000000E+000
  0.000000000000000E+000
  0.000000000000000E+000
  0.000000000000000E+000
  0.000000000000000E+000
  0.000000000000000E+000
  0.000000000000000E+000
  0.000000000000000E+000
  0.000000000000000E+000
  0.000000000000000E+000
  0.000000000000000E+000
  0.000000000000000E+000
  0.000000000000000E+000
  0.000000000000000E+000
  0.000000000000000E+000
  0.000000000000000E+000
  0.000000000000000E+000
  0.000000000000000E+000
  0.000000000000000E+000
  0.000000000000000E+000
  0.000000000000000E+000
  0.000000000000000E+000
  0.000000000000000E+000
  0.000000000000000E+000
  0.000000000000000E+000
  0.000000000000000E+000
  0.000000000000000E+000
  0.000000000000000E+000
  0.000000000000000E+000
  0.000000000000000E+000
  0.000000000000000E+000
  0.000000000000000E+000
  0.000000000000000E+000
  0.000000000000000E+000
  0.000000000000000E+000
  0.000000000000000E+000
  0.000000000000000E+000
  0.000000000000000E+000
  0.000000000000000E+000
  0.000000000000000E+000
  0.000000000000000E+000
  0.000000000000000E+000
  0.000000000000000E+000
  0.000000000000000E+000
  0.000000000000000E+000
  0.000000000000000E+000
  0.000000000000000E+000
  0.000000000000000E+000
  0.000000000000000E+000
  0.000000000000000E+000
  0.000000000000000E+000
  0.000000000000000E+000
  0.000000000000000E+000
  0.000000000000000E+000
  0.000000000000000E+000
  0.000000000000000E+000
  0.000000000000000E+000
  0.000000000000000E+000
  0.000000000000000E+000
  0.000000000000000E+000
  0.000000000000000E+000
  0.000000000000000E+000
  0.000000000000000E+000
  0.000000000000000E+000
  0.000000000000000E+000
  0.000000000000000E+000
  0.000000000000000E+000
  0.000000000000000E+000
  0.000000000000000E+000
  0.000000000000000E+000
  0.000000000000000E+000
  0.000000000000000E+000
  0.000000000000000E+000
  0.000000000000000E+000
  0.000000000000000E+000
  0.000000000000000E+000
  0.000000000000000E+000
  0.000000000000000E+000
  0.000000000000000E+000
  0.000000000000000E+000
  0.000000000000000E+000
  0.000000000000000E+000
  0.000000000000000E+000
  0.000000000000000E+000
  0.000000000000000E+000
  0.000000000000000E+000
  0.000000000000000E+000
  0.000000000000000E+000
  0.000000000000000E+000
  0.000000000000000E+000
  0.000000000000000E+000
  0.000000000000000E+000
  0.000000000000000E+000
  0.000000000000000E+000
  0.000000000000000E+000
  0.000000000000000E+000
  0.000000000000000E+000
  0.000000000000000E+000
  0.000000000000000E+000
  0.000000000000000E+000
  0.000000000000000E+000
  0.000000000000000E+000
SCALARS poroL double 
LOOKUP_TABLE default
  0.156042067779035     
  0.156038103645291     
  0.156034719617566     
  0.156031635635413     
  0.156028766661918     
  0.156026074214680     
  0.156023539452733     
  0.156021151966980     
  0.156018904907270     
  0.156016792342847     
  0.156014807350014     
  0.156012939793649     
  0.156011171960248     
  0.156009469068516     
  0.156007713756647     
  0.156039572874226     
  0.156036192858305     
  0.156032986633815     
  0.156030003590143     
  0.156027204885448     
  0.156024570041325     
  0.156022086656300     
  0.156019746994814     
  0.156017545355285     
  0.156015476503584     
  0.156013534497481     
  0.156011711405289     
  0.156009996188778     
  0.156008369736848     
  0.156006864841139     
  0.156037119105677     
  0.156034107394023     
  0.156031125436285     
  0.156028259127736     
  0.156025535661944     
  0.156022956559704     
  0.156020519829310     
  0.156018222474868     
  0.156016061200574     
  0.156014032384743     
  0.156012132004435     
  0.156010355884696     
  0.156008700401063     
  0.156007172692387     
  0.156005792705532     
  0.156034863292936     
  0.156032026084514     
  0.156029185039231     
  0.156026413333096     
  0.156023751624185     
  0.156021218045191     
  0.156018819045045     
  0.156016556162056     
  0.156014428526231     
  0.156012434161487     
  0.156010570908442     
  0.156008837506970     
  0.156007236305140     
  0.156005775752636     
  0.156004473855939     
  0.156032772790252     
  0.156029980749652     
  0.156027192938156     
  0.156024466558176     
  0.156021839599262     
  0.156019333766952     
  0.156016959638488     
  0.156014721202717     
  0.156012618945932     
  0.156010651750135     
  0.156008818343375     
  0.156007118836944     
  0.156005556344084     
  0.156004138776551     
  0.156002879632411     
  0.156030778791898     
  0.156027938288664     
  0.156025130796292     
  0.156022399256619     
  0.156019774175280     
  0.156017274519028     
  0.156014910228883     
  0.156012685102239     
  0.156010599277459     
  0.156008651182007     
  0.156006839112747     
  0.156005162634418     
  0.156003623887061     
  0.156002228588731     
  0.156000986547848     
  0.156028794104839     
  0.156025834806712     
  0.156022949720161     
  0.156020169329262     
  0.156017515197696     
  0.156015000472120     
  0.156012631343182     
  0.156010408942872     
  0.156008331243485     
  0.156006394747320     
  0.156004595938460     
  0.156002932533217     
  0.156001404518014     
  0.156000014913563     
  0.155998770140028     
  0.156026717784474     
  0.156023586513454     
  0.156020579617390     
  0.156017716046775     
  0.156015007820988     
  0.156012460606703     
  0.156010074810877     
  0.156007846978635     
  0.156005771271575     
  0.156003840872056     
  0.156002049240898     
  0.156000391200075     
  0.155998863817704     
  0.155997467053509     
  0.155996204123592     
  0.156024435811800     
  0.156021094004539     
  0.156017933992033     
  0.156014963365062     
  0.156012184067335     
  0.156009593168078     
  0.156007183864054     
  0.156004946638849     
  0.156002870474449     
  0.156000944023481     
  0.155999156681448     
  0.155997499523606     
  0.155995966081398     
  0.155994552936148     
  0.155993260110933     
  0.156021821069073     
  0.156018244116622     
  0.156014912585036     
  0.156011822313306     
  0.156008964504117     
  0.156006326689485     
  0.156003893741363     
  0.156001648917210     
  0.155999574902400     
  0.155997654806616     
  0.155995873080090     
  0.155994216326714     
  0.155992673998862     
  0.155991238963002     
  0.155989907929267     
  0.156018733332040     
  0.156014911046768     
  0.156011403121296     
  0.156008192848028     
  0.156005259863493     
  0.156002581266565     
  0.156000132656582     
  0.155997889112227     
  0.155995826112064     
  0.155993920389301     
  0.155992150713253     
  0.155990498593203     
  0.155988948903291     
  0.155987490428728     
  0.155986116334289     
  0.156015019634686     
  0.156010957435538     
  0.156007282856458     
  0.156003965573615     
  0.156000972708926     
  0.155998270045731     
  0.155995823074250     
  0.155993597905206     
  0.155991562077548     
  0.155989685279357     
  0.155987939998300     
  0.155986302117037     
  0.155984751467802     
  0.155983272358025     
  0.155981854075342     
  0.156010515226197     
  0.156006235798295     
  0.156002420328267     
  0.155999023637390     
  0.155995999319956     
  0.155993300994338     
  0.155990883313956     
  0.155988702788086     
  0.155986718456755     
  0.155984892460516     
  0.155983190543509     
  0.155981582525279     
  0.155980042772300     
  0.155978550693592     
  0.155977091276632     
  0.156005045305867     
  0.156000590560557     
  0.155996677585519     
  0.155993245033607     
  0.155990231962607     
  0.155987579055392     
  0.155985229540598     
  0.155983129872193     
  0.155981230227581     
  0.155979484885398     
  0.155977852543704     
  0.155976296635589     
  0.155974785691651     
  0.155973293787732     
  0.155971801102705     
  0.155998427706668     
  0.155993860895550     
  0.155989913099053     
  0.155986505501352     
  0.155983561692911     
  0.155981008791669     
  0.155978778207608     
  0.155976806115054     
  0.155975033707686     
  0.155973407319508     
  0.155971878497910     
  0.155970404110927     
  0.155968946559925     
  0.155967474152363     
  0.155965961668967     
  0.155990476681287     
  0.155985884525191     
  0.155981985516122     
  0.155978682164893     
  0.155975881817524     
  0.155973497612121     
  0.155971449013772     
  0.155969661996139     
  0.155968068962802     
  0.155966608519338     
  0.155965225214484     
  0.155963869364096     
  0.155962497056210     
  0.155961070411535     
  0.155959558144450     
  0.155981007913539     
  0.155976502609378     
  0.155972758383091     
  0.155969658033161     
  0.155967092110119     
  0.155964959653484     
  0.155963168416933     
  0.155961634654908     
  0.155960282589377     
  0.155959043706778     
  0.155957856047436     
  0.155956663643196     
  0.155955416236522     
  0.155954069380009     
  0.155952584973618     
  0.155969844826120     
  0.155965565803839     
  0.155962105924064     
  0.155959327443874     
  0.155957103854996     
  0.155955320364416     
  0.155953873721626     
  0.155952671476139     
  0.155951630826346     
  0.155950677268900     
  0.155949743273403     
  0.155948767194928     
  0.155947692603485     
  0.155946468160824     
  0.155945048116309     
  0.155956826179139     
  0.155952941511796     
  0.155949919924298     
  0.155947602508036     
  0.155945845761953     
  0.155944521809636     
  0.155943517723125     
  0.155942734067911     
  0.155942082906822     
  0.155941485565038     
  0.155940870470020     
  0.155940171354326     
  0.155939326059650     
  0.155938276113565     
  0.155936967169400     
  0.155941814853157     
  0.155938522294981     
  0.155936117734722     
  0.155934420589122     
  0.155933270773124     
  0.155932528679259     
  0.155932073847581     
  0.155931802525917     
  0.155931624502502     
  0.155931459660752     
  0.155931234691691     
  0.155930880344941     
  0.155930329529608     
  0.155929516492063     
  0.155928377191198     
  0.155924707593665     
  0.155922235362004     
  0.155920651406580     
  0.155919752853145     
  0.155919363771190     
  0.155919334955280     
  0.155919541675156     
  0.155919879812326     
  0.155920261040826     
  0.155920607730634     
  0.155920848156890     
  0.155920912490025     
  0.155920729956906     
  0.155920227483612     
  0.155919330001172     
  0.155905445381772     
  0.155904053054535     
  0.155903518023027     
  0.155903613978183     
  0.155904150208900     
  0.155904971150204     
  0.155905952663810     
  0.155906995994802     
  0.155908020589497     
  0.155908956782489     
  0.155909739063398     
  0.155910300428409     
  0.155910568276818     
  0.155910462295381     
  0.155909894675544     
  0.155884024032201     
  0.155884004385159     
  0.155884771494566     
  0.155886073259678     
  0.155887705717174     
  0.155889511973526     
  0.155891375786149     
  0.155893211986142     
  0.155894955912648     
  0.155896553269386     
  0.155897951039467     
  0.155899089792919     
  0.155899897814813     
  0.155900287812089     
  0.155900156901502     
  0.155860504704305     
  0.155862188117662     
  0.155864536587259     
  0.155867267654716     
  0.155870166787822     
  0.155873084136763     
  0.155875922603083     
  0.155878622288861     
  0.155881145240558     
  0.155883462106874     
  0.155885540652302     
  0.155887335619861     
  0.155888780328506     
  0.155889781134501     
  0.155890216782710     
  0.155835024441289     
  0.155838789068248     
  0.155843027069863     
  0.155847417844630     
  0.155851742530614     
  0.155855873598484     
  0.155859750932785     
  0.155863356092264     
  0.155866691315265     
  0.155869763735164     
  0.155872572345403     
  0.155875095558644     
  0.155877278419271     
  0.155879022925199     
  0.155880184517733     
  0.155807808426812     
  0.155814102263145     
  0.155820572374835     
  0.155826849036197     
  0.155832726737903     
  0.155838130526204     
  0.155843065582892     
  0.155847575934771     
  0.155851718608944     
  0.155855549198610     
  0.155859110641945     
  0.155862418378633     
  0.155865442414902     
  0.155868085205504     
  0.155870173161570     
  0.155779189599350     
  0.155788578699103     
  0.155797661994002     
  0.155806017740486     
  0.155813506700341     
  0.155820167701127     
  0.155826113992272     
  0.155831473163389     
  0.155836369037434     
  0.155840915001939     
  0.155845209582279     
  0.155849327639009     
  0.155853286002847     
  0.155857010166298     
  0.155860285379623     
  0.155749665629550     
  0.155762928913415     
  0.155775026124077     
  0.155785538356171     
  0.155794553970415     
  0.155802347081164     
  0.155809174333376     
  0.155815259744014     
  0.155820797288203     
  0.155825959962881     
  0.155830908372033     
  0.155835793495104     
  0.155840751410236     
  0.155845757272544     
  0.155850594437829     
  0.155720079815504     
  0.155738431523147     
  0.155753757442372     
  0.155766139408495     
  0.155776386128556     
  0.155785048921029     
  0.155792535328691     
  0.155799156717209     
  0.155805166678935     
  0.155810788215556     
  0.155816236745386     
  0.155821744972837     
  0.155827584756433     
  0.155834143355288     
  0.155841049670091     
  0.155693051481209     
  0.155717647891476     
  0.155735042696213     
  0.155748549259677     
  0.155759487404477     
  0.155768626619935     
  0.155776469837000     
  0.155783380603060     
  0.155789646176118     
  0.155795517513952     
  0.155801242415639     
  0.155807104441933     
  0.155813493389714     
  0.155821050013876     
  0.155831625138801     
