# vtk DataFile Version 3.0
vtk output
ASCII
DATASET UNSTRUCTURED_GRID
POINTS       496 double 
  0.00000000E+00  3.00000000E+02  0.00000000E+00
  0.00000000E+00  2.80000000E+02  0.00000000E+00
  0.00000000E+00  2.60000000E+02  0.00000000E+00
  0.00000000E+00  2.40000000E+02  0.00000000E+00
  0.00000000E+00  2.20000000E+02  0.00000000E+00
  0.00000000E+00  2.00000000E+02  0.00000000E+00
  0.00000000E+00  1.80000000E+02  0.00000000E+00
  0.00000000E+00  1.60000000E+02  0.00000000E+00
  0.00000000E+00  1.40000000E+02  0.00000000E+00
  0.00000000E+00  1.20000000E+02  0.00000000E+00
  0.00000000E+00  1.00000000E+02  0.00000000E+00
  0.00000000E+00  8.00000000E+01  0.00000000E+00
  0.00000000E+00  6.00000000E+01  0.00000000E+00
  0.00000000E+00  4.00000000E+01  0.00000000E+00
  0.00000000E+00  2.00000000E+01  0.00000000E+00
  0.00000000E+00  4.99600361E-14  0.00000000E+00
  2.00000000E+01  3.00000000E+02  0.00000000E+00
  2.00000000E+01  2.80000000E+02  0.00000000E+00
  2.00000000E+01  2.60000000E+02  0.00000000E+00
  2.00000000E+01  2.40000000E+02  0.00000000E+00
  2.00000000E+01  2.20000000E+02  0.00000000E+00
  2.00000000E+01  2.00000000E+02  0.00000000E+00
  2.00000000E+01  1.80000000E+02  0.00000000E+00
  2.00000000E+01  1.60000000E+02  0.00000000E+00
  2.00000000E+01  1.40000000E+02  0.00000000E+00
  2.00000000E+01  1.20000000E+02  0.00000000E+00
  2.00000000E+01  1.00000000E+02  0.00000000E+00
  2.00000000E+01  8.00000000E+01  0.00000000E+00
  2.00000000E+01  6.00000000E+01  0.00000000E+00
  2.00000000E+01  4.00000000E+01  0.00000000E+00
  2.00000000E+01  2.00000000E+01  0.00000000E+00
  2.00000000E+01  4.99600361E-14  0.00000000E+00
  4.00000000E+01  3.00000000E+02  0.00000000E+00
  4.00000000E+01  2.80000000E+02  0.00000000E+00
  4.00000000E+01  2.60000000E+02  0.00000000E+00
  4.00000000E+01  2.40000000E+02  0.00000000E+00
  4.00000000E+01  2.20000000E+02  0.00000000E+00
  4.00000000E+01  2.00000000E+02  0.00000000E+00
  4.00000000E+01  1.80000000E+02  0.00000000E+00
  4.00000000E+01  1.60000000E+02  0.00000000E+00
  4.00000000E+01  1.40000000E+02  0.00000000E+00
  4.00000000E+01  1.20000000E+02  0.00000000E+00
  4.00000000E+01  1.00000000E+02  0.00000000E+00
  4.00000000E+01  8.00000000E+01  0.00000000E+00
  4.00000000E+01  6.00000000E+01  0.00000000E+00
  4.00000000E+01  4.00000000E+01  0.00000000E+00
  4.00000000E+01  2.00000000E+01  0.00000000E+00
  4.00000000E+01  4.99600361E-14  0.00000000E+00
  6.00000000E+01  3.00000000E+02  0.00000000E+00
  6.00000000E+01  2.80000000E+02  0.00000000E+00
  6.00000000E+01  2.60000000E+02  0.00000000E+00
  6.00000000E+01  2.40000000E+02  0.00000000E+00
  6.00000000E+01  2.20000000E+02  0.00000000E+00
  6.00000000E+01  2.00000000E+02  0.00000000E+00
  6.00000000E+01  1.80000000E+02  0.00000000E+00
  6.00000000E+01  1.60000000E+02  0.00000000E+00
  6.00000000E+01  1.40000000E+02  0.00000000E+00
  6.00000000E+01  1.20000000E+02  0.00000000E+00
  6.00000000E+01  1.00000000E+02  0.00000000E+00
  6.00000000E+01  8.00000000E+01  0.00000000E+00
  6.00000000E+01  6.00000000E+01  0.00000000E+00
  6.00000000E+01  4.00000000E+01  0.00000000E+00
  6.00000000E+01  2.00000000E+01  0.00000000E+00
  6.00000000E+01  4.99600361E-14  0.00000000E+00
  8.00000000E+01  3.00000000E+02  0.00000000E+00
  8.00000000E+01  2.80000000E+02  0.00000000E+00
  8.00000000E+01  2.60000000E+02  0.00000000E+00
  8.00000000E+01  2.40000000E+02  0.00000000E+00
  8.00000000E+01  2.20000000E+02  0.00000000E+00
  8.00000000E+01  2.00000000E+02  0.00000000E+00
  8.00000000E+01  1.80000000E+02  0.00000000E+00
  8.00000000E+01  1.60000000E+02  0.00000000E+00
  8.00000000E+01  1.40000000E+02  0.00000000E+00
  8.00000000E+01  1.20000000E+02  0.00000000E+00
  8.00000000E+01  1.00000000E+02  0.00000000E+00
  8.00000000E+01  8.00000000E+01  0.00000000E+00
  8.00000000E+01  6.00000000E+01  0.00000000E+00
  8.00000000E+01  4.00000000E+01  0.00000000E+00
  8.00000000E+01  2.00000000E+01  0.00000000E+00
  8.00000000E+01  4.99600361E-14  0.00000000E+00
  1.00000000E+02  3.00000000E+02  0.00000000E+00
  1.00000000E+02  2.80000000E+02  0.00000000E+00
  1.00000000E+02  2.60000000E+02  0.00000000E+00
  1.00000000E+02  2.40000000E+02  0.00000000E+00
  1.00000000E+02  2.20000000E+02  0.00000000E+00
  1.00000000E+02  2.00000000E+02  0.00000000E+00
  1.00000000E+02  1.80000000E+02  0.00000000E+00
  1.00000000E+02  1.60000000E+02  0.00000000E+00
  1.00000000E+02  1.40000000E+02  0.00000000E+00
  1.00000000E+02  1.20000000E+02  0.00000000E+00
  1.00000000E+02  1.00000000E+02  0.00000000E+00
  1.00000000E+02  8.00000000E+01  0.00000000E+00
  1.00000000E+02  6.00000000E+01  0.00000000E+00
  1.00000000E+02  4.00000000E+01  0.00000000E+00
  1.00000000E+02  2.00000000E+01  0.00000000E+00
  1.00000000E+02  4.99600361E-14  0.00000000E+00
  1.20000000E+02  3.00000000E+02  0.00000000E+00
  1.20000000E+02  2.80000000E+02  0.00000000E+00
  1.20000000E+02  2.60000000E+02  0.00000000E+00
  1.20000000E+02  2.40000000E+02  0.00000000E+00
  1.20000000E+02  2.20000000E+02  0.00000000E+00
  1.20000000E+02  2.00000000E+02  0.00000000E+00
  1.20000000E+02  1.80000000E+02  0.00000000E+00
  1.20000000E+02  1.60000000E+02  0.00000000E+00
  1.20000000E+02  1.40000000E+02  0.00000000E+00
  1.20000000E+02  1.20000000E+02  0.00000000E+00
  1.20000000E+02  1.00000000E+02  0.00000000E+00
  1.20000000E+02  8.00000000E+01  0.00000000E+00
  1.20000000E+02  6.00000000E+01  0.00000000E+00
  1.20000000E+02  4.00000000E+01  0.00000000E+00
  1.20000000E+02  2.00000000E+01  0.00000000E+00
  1.20000000E+02  4.99600361E-14  0.00000000E+00
  1.40000000E+02  3.00000000E+02  0.00000000E+00
  1.40000000E+02  2.80000000E+02  0.00000000E+00
  1.40000000E+02  2.60000000E+02  0.00000000E+00
  1.40000000E+02  2.40000000E+02  0.00000000E+00
  1.40000000E+02  2.20000000E+02  0.00000000E+00
  1.40000000E+02  2.00000000E+02  0.00000000E+00
  1.40000000E+02  1.80000000E+02  0.00000000E+00
  1.40000000E+02  1.60000000E+02  0.00000000E+00
  1.40000000E+02  1.40000000E+02  0.00000000E+00
  1.40000000E+02  1.20000000E+02  0.00000000E+00
  1.40000000E+02  1.00000000E+02  0.00000000E+00
  1.40000000E+02  8.00000000E+01  0.00000000E+00
  1.40000000E+02  6.00000000E+01  0.00000000E+00
  1.40000000E+02  4.00000000E+01  0.00000000E+00
  1.40000000E+02  2.00000000E+01  0.00000000E+00
  1.40000000E+02  4.99600361E-14  0.00000000E+00
  1.60000000E+02  3.00000000E+02  0.00000000E+00
  1.60000000E+02  2.80000000E+02  0.00000000E+00
  1.60000000E+02  2.60000000E+02  0.00000000E+00
  1.60000000E+02  2.40000000E+02  0.00000000E+00
  1.60000000E+02  2.20000000E+02  0.00000000E+00
  1.60000000E+02  2.00000000E+02  0.00000000E+00
  1.60000000E+02  1.80000000E+02  0.00000000E+00
  1.60000000E+02  1.60000000E+02  0.00000000E+00
  1.60000000E+02  1.40000000E+02  0.00000000E+00
  1.60000000E+02  1.20000000E+02  0.00000000E+00
  1.60000000E+02  1.00000000E+02  0.00000000E+00
  1.60000000E+02  8.00000000E+01  0.00000000E+00
  1.60000000E+02  6.00000000E+01  0.00000000E+00
  1.60000000E+02  4.00000000E+01  0.00000000E+00
  1.60000000E+02  2.00000000E+01  0.00000000E+00
  1.60000000E+02  4.99600361E-14  0.00000000E+00
  1.80000000E+02  3.00000000E+02  0.00000000E+00
  1.80000000E+02  2.80000000E+02  0.00000000E+00
  1.80000000E+02  2.60000000E+02  0.00000000E+00
  1.80000000E+02  2.40000000E+02  0.00000000E+00
  1.80000000E+02  2.20000000E+02  0.00000000E+00
  1.80000000E+02  2.00000000E+02  0.00000000E+00
  1.80000000E+02  1.80000000E+02  0.00000000E+00
  1.80000000E+02  1.60000000E+02  0.00000000E+00
  1.80000000E+02  1.40000000E+02  0.00000000E+00
  1.80000000E+02  1.20000000E+02  0.00000000E+00
  1.80000000E+02  1.00000000E+02  0.00000000E+00
  1.80000000E+02  8.00000000E+01  0.00000000E+00
  1.80000000E+02  6.00000000E+01  0.00000000E+00
  1.80000000E+02  4.00000000E+01  0.00000000E+00
  1.80000000E+02  2.00000000E+01  0.00000000E+00
  1.80000000E+02  4.99600361E-14  0.00000000E+00
  2.00000000E+02  3.00000000E+02  0.00000000E+00
  2.00000000E+02  2.80000000E+02  0.00000000E+00
  2.00000000E+02  2.60000000E+02  0.00000000E+00
  2.00000000E+02  2.40000000E+02  0.00000000E+00
  2.00000000E+02  2.20000000E+02  0.00000000E+00
  2.00000000E+02  2.00000000E+02  0.00000000E+00
  2.00000000E+02  1.80000000E+02  0.00000000E+00
  2.00000000E+02  1.60000000E+02  0.00000000E+00
  2.00000000E+02  1.40000000E+02  0.00000000E+00
  2.00000000E+02  1.20000000E+02  0.00000000E+00
  2.00000000E+02  1.00000000E+02  0.00000000E+00
  2.00000000E+02  8.00000000E+01  0.00000000E+00
  2.00000000E+02  6.00000000E+01  0.00000000E+00
  2.00000000E+02  4.00000000E+01  0.00000000E+00
  2.00000000E+02  2.00000000E+01  0.00000000E+00
  2.00000000E+02  4.99600361E-14  0.00000000E+00
  2.20000000E+02  3.00000000E+02  0.00000000E+00
  2.20000000E+02  2.80000000E+02  0.00000000E+00
  2.20000000E+02  2.60000000E+02  0.00000000E+00
  2.20000000E+02  2.40000000E+02  0.00000000E+00
  2.20000000E+02  2.20000000E+02  0.00000000E+00
  2.20000000E+02  2.00000000E+02  0.00000000E+00
  2.20000000E+02  1.80000000E+02  0.00000000E+00
  2.20000000E+02  1.60000000E+02  0.00000000E+00
  2.20000000E+02  1.40000000E+02  0.00000000E+00
  2.20000000E+02  1.20000000E+02  0.00000000E+00
  2.20000000E+02  1.00000000E+02  0.00000000E+00
  2.20000000E+02  8.00000000E+01  0.00000000E+00
  2.20000000E+02  6.00000000E+01  0.00000000E+00
  2.20000000E+02  4.00000000E+01  0.00000000E+00
  2.20000000E+02  2.00000000E+01  0.00000000E+00
  2.20000000E+02  4.99600361E-14  0.00000000E+00
  2.40000000E+02  3.00000000E+02  0.00000000E+00
  2.40000000E+02  2.80000000E+02  0.00000000E+00
  2.40000000E+02  2.60000000E+02  0.00000000E+00
  2.40000000E+02  2.40000000E+02  0.00000000E+00
  2.40000000E+02  2.20000000E+02  0.00000000E+00
  2.40000000E+02  2.00000000E+02  0.00000000E+00
  2.40000000E+02  1.80000000E+02  0.00000000E+00
  2.40000000E+02  1.60000000E+02  0.00000000E+00
  2.40000000E+02  1.40000000E+02  0.00000000E+00
  2.40000000E+02  1.20000000E+02  0.00000000E+00
  2.40000000E+02  1.00000000E+02  0.00000000E+00
  2.40000000E+02  8.00000000E+01  0.00000000E+00
  2.40000000E+02  6.00000000E+01  0.00000000E+00
  2.40000000E+02  4.00000000E+01  0.00000000E+00
  2.40000000E+02  2.00000000E+01  0.00000000E+00
  2.40000000E+02  4.99600361E-14  0.00000000E+00
  2.60000000E+02  3.00000000E+02  0.00000000E+00
  2.60000000E+02  2.80000000E+02  0.00000000E+00
  2.60000000E+02  2.60000000E+02  0.00000000E+00
  2.60000000E+02  2.40000000E+02  0.00000000E+00
  2.60000000E+02  2.20000000E+02  0.00000000E+00
  2.60000000E+02  2.00000000E+02  0.00000000E+00
  2.60000000E+02  1.80000000E+02  0.00000000E+00
  2.60000000E+02  1.60000000E+02  0.00000000E+00
  2.60000000E+02  1.40000000E+02  0.00000000E+00
  2.60000000E+02  1.20000000E+02  0.00000000E+00
  2.60000000E+02  1.00000000E+02  0.00000000E+00
  2.60000000E+02  8.00000000E+01  0.00000000E+00
  2.60000000E+02  6.00000000E+01  0.00000000E+00
  2.60000000E+02  4.00000000E+01  0.00000000E+00
  2.60000000E+02  2.00000000E+01  0.00000000E+00
  2.60000000E+02  4.99600361E-14  0.00000000E+00
  2.80000000E+02  3.00000000E+02  0.00000000E+00
  2.80000000E+02  2.80000000E+02  0.00000000E+00
  2.80000000E+02  2.60000000E+02  0.00000000E+00
  2.80000000E+02  2.40000000E+02  0.00000000E+00
  2.80000000E+02  2.20000000E+02  0.00000000E+00
  2.80000000E+02  2.00000000E+02  0.00000000E+00
  2.80000000E+02  1.80000000E+02  0.00000000E+00
  2.80000000E+02  1.60000000E+02  0.00000000E+00
  2.80000000E+02  1.40000000E+02  0.00000000E+00
  2.80000000E+02  1.20000000E+02  0.00000000E+00
  2.80000000E+02  1.00000000E+02  0.00000000E+00
  2.80000000E+02  8.00000000E+01  0.00000000E+00
  2.80000000E+02  6.00000000E+01  0.00000000E+00
  2.80000000E+02  4.00000000E+01  0.00000000E+00
  2.80000000E+02  2.00000000E+01  0.00000000E+00
  2.80000000E+02  4.99600361E-14  0.00000000E+00
  3.00000000E+02  3.00000000E+02  0.00000000E+00
  3.00000000E+02  2.80000000E+02  0.00000000E+00
  3.00000000E+02  2.60000000E+02  0.00000000E+00
  3.00000000E+02  2.40000000E+02  0.00000000E+00
  3.00000000E+02  2.20000000E+02  0.00000000E+00
  3.00000000E+02  2.00000000E+02  0.00000000E+00
  3.00000000E+02  1.80000000E+02  0.00000000E+00
  3.00000000E+02  1.60000000E+02  0.00000000E+00
  3.00000000E+02  1.40000000E+02  0.00000000E+00
  3.00000000E+02  1.20000000E+02  0.00000000E+00
  3.00000000E+02  1.00000000E+02  0.00000000E+00
  3.00000000E+02  8.00000000E+01  0.00000000E+00
  3.00000000E+02  6.00000000E+01  0.00000000E+00
  3.00000000E+02  4.00000000E+01  0.00000000E+00
  3.00000000E+02  2.00000000E+01  0.00000000E+00
  3.00000000E+02  4.99600361E-14  0.00000000E+00
  3.20000000E+02  3.00000000E+02  0.00000000E+00
  3.20000000E+02  2.80000000E+02  0.00000000E+00
  3.20000000E+02  2.60000000E+02  0.00000000E+00
  3.20000000E+02  2.40000000E+02  0.00000000E+00
  3.20000000E+02  2.20000000E+02  0.00000000E+00
  3.20000000E+02  2.00000000E+02  0.00000000E+00
  3.20000000E+02  1.80000000E+02  0.00000000E+00
  3.20000000E+02  1.60000000E+02  0.00000000E+00
  3.20000000E+02  1.40000000E+02  0.00000000E+00
  3.20000000E+02  1.20000000E+02  0.00000000E+00
  3.20000000E+02  1.00000000E+02  0.00000000E+00
  3.20000000E+02  8.00000000E+01  0.00000000E+00
  3.20000000E+02  6.00000000E+01  0.00000000E+00
  3.20000000E+02  4.00000000E+01  0.00000000E+00
  3.20000000E+02  2.00000000E+01  0.00000000E+00
  3.20000000E+02  4.99600361E-14  0.00000000E+00
  3.40000000E+02  3.00000000E+02  0.00000000E+00
  3.40000000E+02  2.80000000E+02  0.00000000E+00
  3.40000000E+02  2.60000000E+02  0.00000000E+00
  3.40000000E+02  2.40000000E+02  0.00000000E+00
  3.40000000E+02  2.20000000E+02  0.00000000E+00
  3.40000000E+02  2.00000000E+02  0.00000000E+00
  3.40000000E+02  1.80000000E+02  0.00000000E+00
  3.40000000E+02  1.60000000E+02  0.00000000E+00
  3.40000000E+02  1.40000000E+02  0.00000000E+00
  3.40000000E+02  1.20000000E+02  0.00000000E+00
  3.40000000E+02  1.00000000E+02  0.00000000E+00
  3.40000000E+02  8.00000000E+01  0.00000000E+00
  3.40000000E+02  6.00000000E+01  0.00000000E+00
  3.40000000E+02  4.00000000E+01  0.00000000E+00
  3.40000000E+02  2.00000000E+01  0.00000000E+00
  3.40000000E+02  4.99600361E-14  0.00000000E+00
  3.60000000E+02  3.00000000E+02  0.00000000E+00
  3.60000000E+02  2.80000000E+02  0.00000000E+00
  3.60000000E+02  2.60000000E+02  0.00000000E+00
  3.60000000E+02  2.40000000E+02  0.00000000E+00
  3.60000000E+02  2.20000000E+02  0.00000000E+00
  3.60000000E+02  2.00000000E+02  0.00000000E+00
  3.60000000E+02  1.80000000E+02  0.00000000E+00
  3.60000000E+02  1.60000000E+02  0.00000000E+00
  3.60000000E+02  1.40000000E+02  0.00000000E+00
  3.60000000E+02  1.20000000E+02  0.00000000E+00
  3.60000000E+02  1.00000000E+02  0.00000000E+00
  3.60000000E+02  8.00000000E+01  0.00000000E+00
  3.60000000E+02  6.00000000E+01  0.00000000E+00
  3.60000000E+02  4.00000000E+01  0.00000000E+00
  3.60000000E+02  2.00000000E+01  0.00000000E+00
  3.60000000E+02  4.99600361E-14  0.00000000E+00
  3.80000000E+02  3.00000000E+02  0.00000000E+00
  3.80000000E+02  2.80000000E+02  0.00000000E+00
  3.80000000E+02  2.60000000E+02  0.00000000E+00
  3.80000000E+02  2.40000000E+02  0.00000000E+00
  3.80000000E+02  2.20000000E+02  0.00000000E+00
  3.80000000E+02  2.00000000E+02  0.00000000E+00
  3.80000000E+02  1.80000000E+02  0.00000000E+00
  3.80000000E+02  1.60000000E+02  0.00000000E+00
  3.80000000E+02  1.40000000E+02  0.00000000E+00
  3.80000000E+02  1.20000000E+02  0.00000000E+00
  3.80000000E+02  1.00000000E+02  0.00000000E+00
  3.80000000E+02  8.00000000E+01  0.00000000E+00
  3.80000000E+02  6.00000000E+01  0.00000000E+00
  3.80000000E+02  4.00000000E+01  0.00000000E+00
  3.80000000E+02  2.00000000E+01  0.00000000E+00
  3.80000000E+02  4.99600361E-14  0.00000000E+00
  4.00000000E+02  3.00000000E+02  0.00000000E+00
  4.00000000E+02  2.80000000E+02  0.00000000E+00
  4.00000000E+02  2.60000000E+02  0.00000000E+00
  4.00000000E+02  2.40000000E+02  0.00000000E+00
  4.00000000E+02  2.20000000E+02  0.00000000E+00
  4.00000000E+02  2.00000000E+02  0.00000000E+00
  4.00000000E+02  1.80000000E+02  0.00000000E+00
  4.00000000E+02  1.60000000E+02  0.00000000E+00
  4.00000000E+02  1.40000000E+02  0.00000000E+00
  4.00000000E+02  1.20000000E+02  0.00000000E+00
  4.00000000E+02  1.00000000E+02  0.00000000E+00
  4.00000000E+02  8.00000000E+01  0.00000000E+00
  4.00000000E+02  6.00000000E+01  0.00000000E+00
  4.00000000E+02  4.00000000E+01  0.00000000E+00
  4.00000000E+02  2.00000000E+01  0.00000000E+00
  4.00000000E+02  4.99600361E-14  0.00000000E+00
  4.20000000E+02  3.00000000E+02  0.00000000E+00
  4.20000000E+02  2.80000000E+02  0.00000000E+00
  4.20000000E+02  2.60000000E+02  0.00000000E+00
  4.20000000E+02  2.40000000E+02  0.00000000E+00
  4.20000000E+02  2.20000000E+02  0.00000000E+00
  4.20000000E+02  2.00000000E+02  0.00000000E+00
  4.20000000E+02  1.80000000E+02  0.00000000E+00
  4.20000000E+02  1.60000000E+02  0.00000000E+00
  4.20000000E+02  1.40000000E+02  0.00000000E+00
  4.20000000E+02  1.20000000E+02  0.00000000E+00
  4.20000000E+02  1.00000000E+02  0.00000000E+00
  4.20000000E+02  8.00000000E+01  0.00000000E+00
  4.20000000E+02  6.00000000E+01  0.00000000E+00
  4.20000000E+02  4.00000000E+01  0.00000000E+00
  4.20000000E+02  2.00000000E+01  0.00000000E+00
  4.20000000E+02  4.99600361E-14  0.00000000E+00
  4.40000000E+02  3.00000000E+02  0.00000000E+00
  4.40000000E+02  2.80000000E+02  0.00000000E+00
  4.40000000E+02  2.60000000E+02  0.00000000E+00
  4.40000000E+02  2.40000000E+02  0.00000000E+00
  4.40000000E+02  2.20000000E+02  0.00000000E+00
  4.40000000E+02  2.00000000E+02  0.00000000E+00
  4.40000000E+02  1.80000000E+02  0.00000000E+00
  4.40000000E+02  1.60000000E+02  0.00000000E+00
  4.40000000E+02  1.40000000E+02  0.00000000E+00
  4.40000000E+02  1.20000000E+02  0.00000000E+00
  4.40000000E+02  1.00000000E+02  0.00000000E+00
  4.40000000E+02  8.00000000E+01  0.00000000E+00
  4.40000000E+02  6.00000000E+01  0.00000000E+00
  4.40000000E+02  4.00000000E+01  0.00000000E+00
  4.40000000E+02  2.00000000E+01  0.00000000E+00
  4.40000000E+02  4.99600361E-14  0.00000000E+00
  4.60000000E+02  3.00000000E+02  0.00000000E+00
  4.60000000E+02  2.80000000E+02  0.00000000E+00
  4.60000000E+02  2.60000000E+02  0.00000000E+00
  4.60000000E+02  2.40000000E+02  0.00000000E+00
  4.60000000E+02  2.20000000E+02  0.00000000E+00
  4.60000000E+02  2.00000000E+02  0.00000000E+00
  4.60000000E+02  1.80000000E+02  0.00000000E+00
  4.60000000E+02  1.60000000E+02  0.00000000E+00
  4.60000000E+02  1.40000000E+02  0.00000000E+00
  4.60000000E+02  1.20000000E+02  0.00000000E+00
  4.60000000E+02  1.00000000E+02  0.00000000E+00
  4.60000000E+02  8.00000000E+01  0.00000000E+00
  4.60000000E+02  6.00000000E+01  0.00000000E+00
  4.60000000E+02  4.00000000E+01  0.00000000E+00
  4.60000000E+02  2.00000000E+01  0.00000000E+00
  4.60000000E+02  4.99600361E-14  0.00000000E+00
  4.80000000E+02  3.00000000E+02  0.00000000E+00
  4.80000000E+02  2.80000000E+02  0.00000000E+00
  4.80000000E+02  2.60000000E+02  0.00000000E+00
  4.80000000E+02  2.40000000E+02  0.00000000E+00
  4.80000000E+02  2.20000000E+02  0.00000000E+00
  4.80000000E+02  2.00000000E+02  0.00000000E+00
  4.80000000E+02  1.80000000E+02  0.00000000E+00
  4.80000000E+02  1.60000000E+02  0.00000000E+00
  4.80000000E+02  1.40000000E+02  0.00000000E+00
  4.80000000E+02  1.20000000E+02  0.00000000E+00
  4.80000000E+02  1.00000000E+02  0.00000000E+00
  4.80000000E+02  8.00000000E+01  0.00000000E+00
  4.80000000E+02  6.00000000E+01  0.00000000E+00
  4.80000000E+02  4.00000000E+01  0.00000000E+00
  4.80000000E+02  2.00000000E+01  0.00000000E+00
  4.80000000E+02  4.99600361E-14  0.00000000E+00
  5.00000000E+02  3.00000000E+02  0.00000000E+00
  5.00000000E+02  2.80000000E+02  0.00000000E+00
  5.00000000E+02  2.60000000E+02  0.00000000E+00
  5.00000000E+02  2.40000000E+02  0.00000000E+00
  5.00000000E+02  2.20000000E+02  0.00000000E+00
  5.00000000E+02  2.00000000E+02  0.00000000E+00
  5.00000000E+02  1.80000000E+02  0.00000000E+00
  5.00000000E+02  1.60000000E+02  0.00000000E+00
  5.00000000E+02  1.40000000E+02  0.00000000E+00
  5.00000000E+02  1.20000000E+02  0.00000000E+00
  5.00000000E+02  1.00000000E+02  0.00000000E+00
  5.00000000E+02  8.00000000E+01  0.00000000E+00
  5.00000000E+02  6.00000000E+01  0.00000000E+00
  5.00000000E+02  4.00000000E+01  0.00000000E+00
  5.00000000E+02  2.00000000E+01  0.00000000E+00
  5.00000000E+02  4.99600361E-14  0.00000000E+00
  5.20000000E+02  3.00000000E+02  0.00000000E+00
  5.20000000E+02  2.80000000E+02  0.00000000E+00
  5.20000000E+02  2.60000000E+02  0.00000000E+00
  5.20000000E+02  2.40000000E+02  0.00000000E+00
  5.20000000E+02  2.20000000E+02  0.00000000E+00
  5.20000000E+02  2.00000000E+02  0.00000000E+00
  5.20000000E+02  1.80000000E+02  0.00000000E+00
  5.20000000E+02  1.60000000E+02  0.00000000E+00
  5.20000000E+02  1.40000000E+02  0.00000000E+00
  5.20000000E+02  1.20000000E+02  0.00000000E+00
  5.20000000E+02  1.00000000E+02  0.00000000E+00
  5.20000000E+02  8.00000000E+01  0.00000000E+00
  5.20000000E+02  6.00000000E+01  0.00000000E+00
  5.20000000E+02  4.00000000E+01  0.00000000E+00
  5.20000000E+02  2.00000000E+01  0.00000000E+00
  5.20000000E+02  4.99600361E-14  0.00000000E+00
  5.40000000E+02  3.00000000E+02  0.00000000E+00
  5.40000000E+02  2.80000000E+02  0.00000000E+00
  5.40000000E+02  2.60000000E+02  0.00000000E+00
  5.40000000E+02  2.40000000E+02  0.00000000E+00
  5.40000000E+02  2.20000000E+02  0.00000000E+00
  5.40000000E+02  2.00000000E+02  0.00000000E+00
  5.40000000E+02  1.80000000E+02  0.00000000E+00
  5.40000000E+02  1.60000000E+02  0.00000000E+00
  5.40000000E+02  1.40000000E+02  0.00000000E+00
  5.40000000E+02  1.20000000E+02  0.00000000E+00
  5.40000000E+02  1.00000000E+02  0.00000000E+00
  5.40000000E+02  8.00000000E+01  0.00000000E+00
  5.40000000E+02  6.00000000E+01  0.00000000E+00
  5.40000000E+02  4.00000000E+01  0.00000000E+00
  5.40000000E+02  2.00000000E+01  0.00000000E+00
  5.40000000E+02  4.99600361E-14  0.00000000E+00
  5.60000000E+02  3.00000000E+02  0.00000000E+00
  5.60000000E+02  2.80000000E+02  0.00000000E+00
  5.60000000E+02  2.60000000E+02  0.00000000E+00
  5.60000000E+02  2.40000000E+02  0.00000000E+00
  5.60000000E+02  2.20000000E+02  0.00000000E+00
  5.60000000E+02  2.00000000E+02  0.00000000E+00
  5.60000000E+02  1.80000000E+02  0.00000000E+00
  5.60000000E+02  1.60000000E+02  0.00000000E+00
  5.60000000E+02  1.40000000E+02  0.00000000E+00
  5.60000000E+02  1.20000000E+02  0.00000000E+00
  5.60000000E+02  1.00000000E+02  0.00000000E+00
  5.60000000E+02  8.00000000E+01  0.00000000E+00
  5.60000000E+02  6.00000000E+01  0.00000000E+00
  5.60000000E+02  4.00000000E+01  0.00000000E+00
  5.60000000E+02  2.00000000E+01  0.00000000E+00
  5.60000000E+02  4.99600361E-14  0.00000000E+00
  5.80000000E+02  3.00000000E+02  0.00000000E+00
  5.80000000E+02  2.80000000E+02  0.00000000E+00
  5.80000000E+02  2.60000000E+02  0.00000000E+00
  5.80000000E+02  2.40000000E+02  0.00000000E+00
  5.80000000E+02  2.20000000E+02  0.00000000E+00
  5.80000000E+02  2.00000000E+02  0.00000000E+00
  5.80000000E+02  1.80000000E+02  0.00000000E+00
  5.80000000E+02  1.60000000E+02  0.00000000E+00
  5.80000000E+02  1.40000000E+02  0.00000000E+00
  5.80000000E+02  1.20000000E+02  0.00000000E+00
  5.80000000E+02  1.00000000E+02  0.00000000E+00
  5.80000000E+02  8.00000000E+01  0.00000000E+00
  5.80000000E+02  6.00000000E+01  0.00000000E+00
  5.80000000E+02  4.00000000E+01  0.00000000E+00
  5.80000000E+02  2.00000000E+01  0.00000000E+00
  5.80000000E+02  4.99600361E-14  0.00000000E+00
  6.00000000E+02  3.00000000E+02  0.00000000E+00
  6.00000000E+02  2.80000000E+02  0.00000000E+00
  6.00000000E+02  2.60000000E+02  0.00000000E+00
  6.00000000E+02  2.40000000E+02  0.00000000E+00
  6.00000000E+02  2.20000000E+02  0.00000000E+00
  6.00000000E+02  2.00000000E+02  0.00000000E+00
  6.00000000E+02  1.80000000E+02  0.00000000E+00
  6.00000000E+02  1.60000000E+02  0.00000000E+00
  6.00000000E+02  1.40000000E+02  0.00000000E+00
  6.00000000E+02  1.20000000E+02  0.00000000E+00
  6.00000000E+02  1.00000000E+02  0.00000000E+00
  6.00000000E+02  8.00000000E+01  0.00000000E+00
  6.00000000E+02  6.00000000E+01  0.00000000E+00
  6.00000000E+02  4.00000000E+01  0.00000000E+00
  6.00000000E+02  2.00000000E+01  0.00000000E+00
  6.00000000E+02  4.99600361E-14  0.00000000E+00
CELLS       450      2250
         4           0           1          17          16
         4           1           2          18          17
         4           2           3          19          18
         4           3           4          20          19
         4           4           5          21          20
         4           5           6          22          21
         4           6           7          23          22
         4           7           8          24          23
         4           8           9          25          24
         4           9          10          26          25
         4          10          11          27          26
         4          11          12          28          27
         4          12          13          29          28
         4          13          14          30          29
         4          14          15          31          30
         4          16          17          33          32
         4          17          18          34          33
         4          18          19          35          34
         4          19          20          36          35
         4          20          21          37          36
         4          21          22          38          37
         4          22          23          39          38
         4          23          24          40          39
         4          24          25          41          40
         4          25          26          42          41
         4          26          27          43          42
         4          27          28          44          43
         4          28          29          45          44
         4          29          30          46          45
         4          30          31          47          46
         4          32          33          49          48
         4          33          34          50          49
         4          34          35          51          50
         4          35          36          52          51
         4          36          37          53          52
         4          37          38          54          53
         4          38          39          55          54
         4          39          40          56          55
         4          40          41          57          56
         4          41          42          58          57
         4          42          43          59          58
         4          43          44          60          59
         4          44          45          61          60
         4          45          46          62          61
         4          46          47          63          62
         4          48          49          65          64
         4          49          50          66          65
         4          50          51          67          66
         4          51          52          68          67
         4          52          53          69          68
         4          53          54          70          69
         4          54          55          71          70
         4          55          56          72          71
         4          56          57          73          72
         4          57          58          74          73
         4          58          59          75          74
         4          59          60          76          75
         4          60          61          77          76
         4          61          62          78          77
         4          62          63          79          78
         4          64          65          81          80
         4          65          66          82          81
         4          66          67          83          82
         4          67          68          84          83
         4          68          69          85          84
         4          69          70          86          85
         4          70          71          87          86
         4          71          72          88          87
         4          72          73          89          88
         4          73          74          90          89
         4          74          75          91          90
         4          75          76          92          91
         4          76          77          93          92
         4          77          78          94          93
         4          78          79          95          94
         4          80          81          97          96
         4          81          82          98          97
         4          82          83          99          98
         4          83          84         100          99
         4          84          85         101         100
         4          85          86         102         101
         4          86          87         103         102
         4          87          88         104         103
         4          88          89         105         104
         4          89          90         106         105
         4          90          91         107         106
         4          91          92         108         107
         4          92          93         109         108
         4          93          94         110         109
         4          94          95         111         110
         4          96          97         113         112
         4          97          98         114         113
         4          98          99         115         114
         4          99         100         116         115
         4         100         101         117         116
         4         101         102         118         117
         4         102         103         119         118
         4         103         104         120         119
         4         104         105         121         120
         4         105         106         122         121
         4         106         107         123         122
         4         107         108         124         123
         4         108         109         125         124
         4         109         110         126         125
         4         110         111         127         126
         4         112         113         129         128
         4         113         114         130         129
         4         114         115         131         130
         4         115         116         132         131
         4         116         117         133         132
         4         117         118         134         133
         4         118         119         135         134
         4         119         120         136         135
         4         120         121         137         136
         4         121         122         138         137
         4         122         123         139         138
         4         123         124         140         139
         4         124         125         141         140
         4         125         126         142         141
         4         126         127         143         142
         4         128         129         145         144
         4         129         130         146         145
         4         130         131         147         146
         4         131         132         148         147
         4         132         133         149         148
         4         133         134         150         149
         4         134         135         151         150
         4         135         136         152         151
         4         136         137         153         152
         4         137         138         154         153
         4         138         139         155         154
         4         139         140         156         155
         4         140         141         157         156
         4         141         142         158         157
         4         142         143         159         158
         4         144         145         161         160
         4         145         146         162         161
         4         146         147         163         162
         4         147         148         164         163
         4         148         149         165         164
         4         149         150         166         165
         4         150         151         167         166
         4         151         152         168         167
         4         152         153         169         168
         4         153         154         170         169
         4         154         155         171         170
         4         155         156         172         171
         4         156         157         173         172
         4         157         158         174         173
         4         158         159         175         174
         4         160         161         177         176
         4         161         162         178         177
         4         162         163         179         178
         4         163         164         180         179
         4         164         165         181         180
         4         165         166         182         181
         4         166         167         183         182
         4         167         168         184         183
         4         168         169         185         184
         4         169         170         186         185
         4         170         171         187         186
         4         171         172         188         187
         4         172         173         189         188
         4         173         174         190         189
         4         174         175         191         190
         4         176         177         193         192
         4         177         178         194         193
         4         178         179         195         194
         4         179         180         196         195
         4         180         181         197         196
         4         181         182         198         197
         4         182         183         199         198
         4         183         184         200         199
         4         184         185         201         200
         4         185         186         202         201
         4         186         187         203         202
         4         187         188         204         203
         4         188         189         205         204
         4         189         190         206         205
         4         190         191         207         206
         4         192         193         209         208
         4         193         194         210         209
         4         194         195         211         210
         4         195         196         212         211
         4         196         197         213         212
         4         197         198         214         213
         4         198         199         215         214
         4         199         200         216         215
         4         200         201         217         216
         4         201         202         218         217
         4         202         203         219         218
         4         203         204         220         219
         4         204         205         221         220
         4         205         206         222         221
         4         206         207         223         222
         4         208         209         225         224
         4         209         210         226         225
         4         210         211         227         226
         4         211         212         228         227
         4         212         213         229         228
         4         213         214         230         229
         4         214         215         231         230
         4         215         216         232         231
         4         216         217         233         232
         4         217         218         234         233
         4         218         219         235         234
         4         219         220         236         235
         4         220         221         237         236
         4         221         222         238         237
         4         222         223         239         238
         4         224         225         241         240
         4         225         226         242         241
         4         226         227         243         242
         4         227         228         244         243
         4         228         229         245         244
         4         229         230         246         245
         4         230         231         247         246
         4         231         232         248         247
         4         232         233         249         248
         4         233         234         250         249
         4         234         235         251         250
         4         235         236         252         251
         4         236         237         253         252
         4         237         238         254         253
         4         238         239         255         254
         4         240         241         257         256
         4         241         242         258         257
         4         242         243         259         258
         4         243         244         260         259
         4         244         245         261         260
         4         245         246         262         261
         4         246         247         263         262
         4         247         248         264         263
         4         248         249         265         264
         4         249         250         266         265
         4         250         251         267         266
         4         251         252         268         267
         4         252         253         269         268
         4         253         254         270         269
         4         254         255         271         270
         4         256         257         273         272
         4         257         258         274         273
         4         258         259         275         274
         4         259         260         276         275
         4         260         261         277         276
         4         261         262         278         277
         4         262         263         279         278
         4         263         264         280         279
         4         264         265         281         280
         4         265         266         282         281
         4         266         267         283         282
         4         267         268         284         283
         4         268         269         285         284
         4         269         270         286         285
         4         270         271         287         286
         4         272         273         289         288
         4         273         274         290         289
         4         274         275         291         290
         4         275         276         292         291
         4         276         277         293         292
         4         277         278         294         293
         4         278         279         295         294
         4         279         280         296         295
         4         280         281         297         296
         4         281         282         298         297
         4         282         283         299         298
         4         283         284         300         299
         4         284         285         301         300
         4         285         286         302         301
         4         286         287         303         302
         4         288         289         305         304
         4         289         290         306         305
         4         290         291         307         306
         4         291         292         308         307
         4         292         293         309         308
         4         293         294         310         309
         4         294         295         311         310
         4         295         296         312         311
         4         296         297         313         312
         4         297         298         314         313
         4         298         299         315         314
         4         299         300         316         315
         4         300         301         317         316
         4         301         302         318         317
         4         302         303         319         318
         4         304         305         321         320
         4         305         306         322         321
         4         306         307         323         322
         4         307         308         324         323
         4         308         309         325         324
         4         309         310         326         325
         4         310         311         327         326
         4         311         312         328         327
         4         312         313         329         328
         4         313         314         330         329
         4         314         315         331         330
         4         315         316         332         331
         4         316         317         333         332
         4         317         318         334         333
         4         318         319         335         334
         4         320         321         337         336
         4         321         322         338         337
         4         322         323         339         338
         4         323         324         340         339
         4         324         325         341         340
         4         325         326         342         341
         4         326         327         343         342
         4         327         328         344         343
         4         328         329         345         344
         4         329         330         346         345
         4         330         331         347         346
         4         331         332         348         347
         4         332         333         349         348
         4         333         334         350         349
         4         334         335         351         350
         4         336         337         353         352
         4         337         338         354         353
         4         338         339         355         354
         4         339         340         356         355
         4         340         341         357         356
         4         341         342         358         357
         4         342         343         359         358
         4         343         344         360         359
         4         344         345         361         360
         4         345         346         362         361
         4         346         347         363         362
         4         347         348         364         363
         4         348         349         365         364
         4         349         350         366         365
         4         350         351         367         366
         4         352         353         369         368
         4         353         354         370         369
         4         354         355         371         370
         4         355         356         372         371
         4         356         357         373         372
         4         357         358         374         373
         4         358         359         375         374
         4         359         360         376         375
         4         360         361         377         376
         4         361         362         378         377
         4         362         363         379         378
         4         363         364         380         379
         4         364         365         381         380
         4         365         366         382         381
         4         366         367         383         382
         4         368         369         385         384
         4         369         370         386         385
         4         370         371         387         386
         4         371         372         388         387
         4         372         373         389         388
         4         373         374         390         389
         4         374         375         391         390
         4         375         376         392         391
         4         376         377         393         392
         4         377         378         394         393
         4         378         379         395         394
         4         379         380         396         395
         4         380         381         397         396
         4         381         382         398         397
         4         382         383         399         398
         4         384         385         401         400
         4         385         386         402         401
         4         386         387         403         402
         4         387         388         404         403
         4         388         389         405         404
         4         389         390         406         405
         4         390         391         407         406
         4         391         392         408         407
         4         392         393         409         408
         4         393         394         410         409
         4         394         395         411         410
         4         395         396         412         411
         4         396         397         413         412
         4         397         398         414         413
         4         398         399         415         414
         4         400         401         417         416
         4         401         402         418         417
         4         402         403         419         418
         4         403         404         420         419
         4         404         405         421         420
         4         405         406         422         421
         4         406         407         423         422
         4         407         408         424         423
         4         408         409         425         424
         4         409         410         426         425
         4         410         411         427         426
         4         411         412         428         427
         4         412         413         429         428
         4         413         414         430         429
         4         414         415         431         430
         4         416         417         433         432
         4         417         418         434         433
         4         418         419         435         434
         4         419         420         436         435
         4         420         421         437         436
         4         421         422         438         437
         4         422         423         439         438
         4         423         424         440         439
         4         424         425         441         440
         4         425         426         442         441
         4         426         427         443         442
         4         427         428         444         443
         4         428         429         445         444
         4         429         430         446         445
         4         430         431         447         446
         4         432         433         449         448
         4         433         434         450         449
         4         434         435         451         450
         4         435         436         452         451
         4         436         437         453         452
         4         437         438         454         453
         4         438         439         455         454
         4         439         440         456         455
         4         440         441         457         456
         4         441         442         458         457
         4         442         443         459         458
         4         443         444         460         459
         4         444         445         461         460
         4         445         446         462         461
         4         446         447         463         462
         4         448         449         465         464
         4         449         450         466         465
         4         450         451         467         466
         4         451         452         468         467
         4         452         453         469         468
         4         453         454         470         469
         4         454         455         471         470
         4         455         456         472         471
         4         456         457         473         472
         4         457         458         474         473
         4         458         459         475         474
         4         459         460         476         475
         4         460         461         477         476
         4         461         462         478         477
         4         462         463         479         478
         4         464         465         481         480
         4         465         466         482         481
         4         466         467         483         482
         4         467         468         484         483
         4         468         469         485         484
         4         469         470         486         485
         4         470         471         487         486
         4         471         472         488         487
         4         472         473         489         488
         4         473         474         490         489
         4         474         475         491         490
         4         475         476         492         491
         4         476         477         493         492
         4         477         478         494         493
         4         478         479         495         494
CELL_TYPES        450
9
9
9
9
9
9
9
9
9
9
9
9
9
9
9
9
9
9
9
9
9
9
9
9
9
9
9
9
9
9
9
9
9
9
9
9
9
9
9
9
9
9
9
9
9
9
9
9
9
9
9
9
9
9
9
9
9
9
9
9
9
9
9
9
9
9
9
9
9
9
9
9
9
9
9
9
9
9
9
9
9
9
9
9
9
9
9
9
9
9
9
9
9
9
9
9
9
9
9
9
9
9
9
9
9
9
9
9
9
9
9
9
9
9
9
9
9
9
9
9
9
9
9
9
9
9
9
9
9
9
9
9
9
9
9
9
9
9
9
9
9
9
9
9
9
9
9
9
9
9
9
9
9
9
9
9
9
9
9
9
9
9
9
9
9
9
9
9
9
9
9
9
9
9
9
9
9
9
9
9
9
9
9
9
9
9
9
9
9
9
9
9
9
9
9
9
9
9
9
9
9
9
9
9
9
9
9
9
9
9
9
9
9
9
9
9
9
9
9
9
9
9
9
9
9
9
9
9
9
9
9
9
9
9
9
9
9
9
9
9
9
9
9
9
9
9
9
9
9
9
9
9
9
9
9
9
9
9
9
9
9
9
9
9
9
9
9
9
9
9
9
9
9
9
9
9
9
9
9
9
9
9
9
9
9
9
9
9
9
9
9
9
9
9
9
9
9
9
9
9
9
9
9
9
9
9
9
9
9
9
9
9
9
9
9
9
9
9
9
9
9
9
9
9
9
9
9
9
9
9
9
9
9
9
9
9
9
9
9
9
9
9
9
9
9
9
9
9
9
9
9
9
9
9
9
9
9
9
9
9
9
9
9
9
9
9
9
9
9
9
9
9
9
9
9
9
9
9
9
9
9
9
9
9
9
9
9
9
9
9
9
9
9
9
9
9
9
9
9
9
9
9
9
9
9
9
9
9
9
9
9
9
9
9
9
9
9
9
9
9
9
9
9
9
9
9
9
9
9
9
9
9
9
9
9
9
9
9
9
9
9
9
9
9
9
9
9
9
9
9
POINT_DATA       496
SCALARS p double 
LOOKUP_TABLE default
   90000000.0000000     
   90000000.0000000     
   90000000.0000000     
   90000000.0000000     
   90000000.0000000     
   90000000.0000000     
   90000000.0000000     
   90000000.0000000     
   90000000.0000000     
   90000000.0000000     
   90000000.0000000     
   90000000.0000000     
   90000000.0000000     
   90000000.0000000     
   90000000.0000000     
   90000000.0000000     
   87104004.9346512     
   87103335.5364425     
   87102203.3112709     
   87101089.2568775     
   87100202.0911538     
   87099692.8360904     
   87099559.3623370     
   87099662.0398534     
   87099882.9502230     
   87100144.0308298     
   87100382.1667765     
   87100544.1319252     
   87100585.7998657     
   87100477.7287820     
   87100219.6837004     
   87099950.1876746     
   84205905.0964406     
   84205359.7407025     
   84204281.6013717     
   84203285.5976398     
   84202707.6690533     
   84202573.7969019     
   84202802.5024124     
   84203303.0009888     
   84203961.1980713     
   84204663.9824375     
   84205314.6276231     
   84205831.3368460     
   84206150.6594026     
   84206238.6238478     
   84206128.9524088     
   84206004.4547727     
   81312660.3412654     
   81312435.2017213     
   81312105.9372239     
   81312014.9887804     
   81312264.4029879     
   81312884.3137149     
   81313829.5350486     
   81315008.0733159     
   81316311.8697601     
   81317628.2760711     
   81318851.1695399     
   81319889.2857319     
   81320672.6890527     
   81321166.0626241     
   81321391.0230505     
   81321436.2168598     
   78430353.4751308     
   78430537.1624348     
   78431062.0851875     
   78431955.4870853     
   78433224.5470777     
   78434825.4632376     
   78436687.6437494     
   78438718.7351410     
   78440813.4286382     
   78442864.0285171     
   78444767.8812538     
   78446433.7575694     
   78447788.1221597     
   78448781.6747475     
   78449392.2919078     
   78449612.1559352     
   75563614.7132587     
   75564132.0162451     
   75565442.2446294     
   75567331.1039559     
   75569655.4189540     
   75572297.1823008     
   75575145.2765378     
   75578091.9076658     
   75581031.1180087     
   75583860.1180605     
   75586481.9253469     
   75588807.7050457     
   75590758.2278542     
   75592262.7077662     
   75593250.7765520     
   75593631.1007085     
   72716246.2577266     
   72717048.3035813     
   72719044.6767288     
   72721832.7046473     
   72725137.4352769     
   72728759.7609844     
   72732545.0440149     
   72736365.3555209     
   72740109.6707640     
   72743678.0869120     
   72746978.3679392     
   72749923.1473446     
   72752426.0083202     
   72754394.1964530     
   72755714.8282815     
   72756231.2790709     
   69891436.0328679     
   69892464.3569602     
   69895015.5426286     
   69898543.1507477     
   69902666.3109260     
   69907115.6958984     
   69911695.4164506     
   69916257.3555587     
   69920683.9765186     
   69924876.4961673     
   69928746.0469995     
   69932205.9289139     
   69935163.0356263     
   69937506.3632443     
   69939090.4235945     
   69939711.8303386     
   67091656.8521917     
   67092845.7230282     
   67095795.1476236     
   67099858.7733139     
   67104579.1143210     
   67109633.6317059     
   67114793.8002881     
   67119894.9126218     
   67124813.9729511     
   67129453.1433603     
   67133726.5658398     
   67137548.6412413     
   67140821.9755878     
   67143423.2731851     
   67145185.6672255     
   67145876.5326067     
   64318623.8775668     
   64319903.2689787     
   64323079.5462649     
   64327449.2131471     
   64332508.6730812     
   64337902.2396343     
   64343380.8332655     
   64348769.8101693     
   64353944.0214626     
   64358808.1453543     
   64363280.4439045     
   64367278.2559744     
   64370703.6868944     
   64373428.1368769     
   64375274.6104452     
   64375997.2468488     
   61573282.8897089     
   61574582.1839367     
   61577809.5266991     
   61582244.9611733     
   61587368.8926196     
   61592813.5461382     
   61598323.1416710     
   61603721.6717115     
   61608886.9056507     
   61613729.1336831     
   61618173.1786307     
   61622142.2942754     
   61625542.7094468     
   61628247.7780130     
   61630080.9892011     
   61630797.4987288     
   58855828.2682518     
   58857079.7300614     
   58860187.5706129     
   58864452.7367930     
   58869368.0023842     
   58874574.1223611     
   58879822.9175114     
   58884946.5127959     
   58889831.7536162     
   58894398.7102902     
   58898582.1566929     
   58902314.9605250     
   58905512.4384138     
   58908056.9098333     
   58909781.9351968     
   58910456.0402244     
   56165747.5871043     
   56166889.4442891     
   56169720.8563128     
   56173596.6079095     
   56178047.3468941     
   56182741.4163022     
   56187451.9509083     
   56192028.7523962     
   56196374.2984503     
   56200423.1347337     
   56204123.8585276     
   56207422.9285473     
   56210249.6231330     
   56212501.6152949     
   56214030.8331245     
   56214629.5146441     
   53501889.4121031     
   53502868.4074066     
   53505287.0869816     
   53508581.6740659     
   53512342.4540706     
   53516281.9880207     
   53520207.0268592     
   53523993.9054492     
   53527567.0569102     
   53530880.1879401     
   53533899.6070404     
   53536589.2041240     
   53538896.6405588     
   53540740.4189533     
   53541997.6538413     
   53542492.5436963     
   50862550.0696038     
   50863323.4123229     
   50865219.0601513     
   50867776.2979980     
   50870662.4290579     
   50873647.7887520     
   50876583.0038353     
   50879378.5176613     
   50881986.2713672     
   50884383.3324838     
   50886557.2067488     
   50888492.5596041     
   50890159.1102943     
   50891500.5392604     
   50892424.3604705     
   50892792.8418948     
   48245574.5998394     
   48246111.2813088     
   48247403.3091987     
   48249108.3123896     
   48250983.2082410     
   48252866.1553603     
   48254659.4214404     
   48256313.4037172     
   48257811.9068857     
   48259158.6829304     
   48260365.1746503     
   48261439.3818597     
   48262375.7851963     
   48263146.3130469     
   48263692.4151295     
   48263918.4016058     
   45648466.7875499     
   45648748.2595675     
   45649387.8243672     
   45650170.3159408     
   45650949.9140060     
   45651638.9083278     
   45652196.1964926     
   45652615.9379258     
   45652916.6488716     
   45653130.9187031     
   45653295.8588099     
   45653444.3613637     
   45653597.2445991     
   45653756.3900736     
   45653899.0298921     
   45653973.4103200     
   43068503.0963231     
   43068523.3427235     
   43068493.7875808     
   43068329.0991677     
   43067983.4777010     
   43067445.8650553     
   43066733.8780627     
   43065887.0360448     
   43064959.7094350     
   43064014.1085155     
   43063113.5574074     
   43062316.2561663     
   43061669.7204013     
   43061206.0998970     
   43060938.6110402     
   43060859.3669414     
   40502845.5007490     
   40502610.5594708     
   40501926.4112038     
   40500834.3877547     
   40499386.8362282     
   40497648.2056733     
   40495694.0400493     
   40493608.5528849     
   40491481.3118682     
   40489403.4530871     
   40487463.7692438     
   40485744.9690037     
   40484320.3820446     
   40483251.3837545     
   40482585.8326305     
   40482357.8492275     
   37948648.5799041     
   37948175.5953359     
   37946880.3253410     
   37944922.4327589     
   37942446.3341323     
   37939587.4372899     
   37936475.6776349     
   37933237.0843392     
   37929993.9618456     
   37926864.1683920     
   37923959.9017312     
   37921386.3544879     
   37919240.5728893     
   37917610.8418107     
   37916576.9271555     
   37916211.5338550     
   35403156.7665745     
   35402472.6698140     
   35400635.4739243     
   35397910.4784870     
   35394524.4476636     
   35390676.1672643     
   35386543.9155640     
   35382290.5786104     
   35378067.0038403     
   35374014.0966113     
   35370264.1053516     
   35366941.4982626     
   35364163.8014212     
   35362042.7466503     
   35360686.0747220     
   35360200.3615016     
   32863788.2951170     
   32862928.2239697     
   32860640.1161029     
   32857278.7633029     
   32853140.5563938     
   32848477.4855601     
   32843507.9015427     
   32838424.6993139     
   32833401.4705768     
   32828597.1141752     
   32824159.3622896     
   32820227.6499262     
   32816935.7164733     
   32814414.2894580     
   32812794.1810663     
   32812210.1455681     
   30328203.1119664     
   30327208.6951896     
   30324578.2457758     
   30320737.4196214     
   30316037.1889914     
   30310770.4401014     
   30305185.4170416     
   30299496.5115126     
   30293892.8291073     
   30288544.9714554     
   30283610.4967152     
   30279238.5125565     
   30275573.8042235     
   30272760.8260368     
   30270947.8305166     
   30270291.4169229     
   27794352.7613355     
   27793270.4069979     
   27790419.5006819     
   27786276.4055941     
   27781229.9361940     
   27775599.8421607     
   27769652.4635873     
   27763613.7506953     
   27757679.8761723     
   27752025.8111671     
   27746812.3580822     
   27742192.1575420     
   27738315.1023248     
   27735333.4451565     
   27733406.7548679     
   27732706.8512539     
   25260510.9874896     
   25259390.3416921     
   25256450.4011309     
   25252197.4022894     
   25247040.0417500     
   25241309.4456939     
   25235276.8538170     
   25229168.6566305     
   25223178.7058269     
   25217478.2360699     
   25212224.0175761     
   25207565.4039505     
   25203650.7964123     
   25200633.7612839     
   25198678.7475470     
   25197966.2173702     
   22725284.4457294     
   22724177.2457798     
   22721286.5167971     
   22717127.4492214     
   22712109.5607003     
   22706558.4019508     
   22700735.6341971     
   22694856.0822732     
   22689101.3336592     
   22683630.3982674     
   22678588.3685921     
   22674114.0293424     
   22670347.1016128     
   22667435.4045317     
   22665541.5565231     
   22664848.3963881     
   20187603.4038430     
   20186563.0850067     
   20183865.9154067     
   20180015.0319282     
   20175399.9608579     
   20170321.8006696     
   20165016.9584580     
   20159676.2873272     
   20154459.1977566     
   20149504.1366454     
   20144936.9995599     
   20140878.5939921     
   20137452.2684524     
   20134792.2039953     
   20133051.8892857     
   20132410.6750581     
   17646692.4266673     
   17645775.2320155     
   17643425.1515873     
   17640110.5666074     
   17636176.2488096     
   17631877.0142135     
   17627407.7231975     
   17622923.4693340     
   17618552.3533007     
   17614404.7392076     
   17610580.5663583     
   17607175.9003483     
   17604289.7322293     
   17602033.4201128     
   17600542.3389311     
   17599986.1493847     
   15102020.4551717     
   15101290.0174420     
   15099460.5156484     
   15096935.5471423     
   15093980.0016104     
   15090778.0538213     
   15087468.8471245     
   15084161.6423347     
   15080945.7441812     
   15077897.4441640     
   15075085.4814931     
   15072575.8711229     
   15070437.0925418     
   15068746.3972128     
   15067607.3509255     
   15067171.7303169     
   12553226.7348742     
   12552767.4772715     
   12551684.6097587     
   12550247.7643826     
   12548593.7896587     
   12546820.5316548     
   12545000.4912506     
   12543189.9640205     
   12541434.4275234     
   12539772.3759959     
   12538238.2921247     
   12536865.2522738     
   12535687.5296686     
   12534744.3872912     
   12534082.8953757     
   12533806.7681174     
   10000000.0000000     
   10000000.0000000     
   10000000.0000000     
   10000000.0000000     
   10000000.0000000     
   10000000.0000000     
   10000000.0000000     
   10000000.0000000     
   10000000.0000000     
   10000000.0000000     
   10000000.0000000     
   10000000.0000000     
   10000000.0000000     
  10000000.00000000     
   10000000.0000000     
   10000000.0000000     
VECTORS u double 
    0.00000E+00         0.21415E-01         0.00000E+00
    0.00000E+00         0.20685E-01         0.00000E+00
    0.00000E+00         0.19548E-01         0.00000E+00
    0.00000E+00         0.18164E-01         0.00000E+00
    0.00000E+00         0.16666E-01         0.00000E+00
    0.00000E+00         0.15169E-01         0.00000E+00
    0.00000E+00         0.13717E-01         0.00000E+00
    0.00000E+00         0.12309E-01         0.00000E+00
    0.00000E+00         0.10926E-01         0.00000E+00
    0.00000E+00         0.95485E-02         0.00000E+00
    0.00000E+00         0.81567E-02         0.00000E+00
    0.00000E+00         0.67302E-02         0.00000E+00
    0.00000E+00         0.52441E-02         0.00000E+00
    0.00000E+00         0.36667E-02         0.00000E+00
    0.00000E+00         0.19520E-02         0.00000E+00
    0.00000E+00         0.00000E+00         0.00000E+00
    0.58394E-02         0.20813E-01         0.00000E+00
    0.50174E-02         0.20015E-01         0.00000E+00
    0.41394E-02         0.18921E-01         0.00000E+00
    0.33875E-02         0.17635E-01         0.00000E+00
    0.27523E-02         0.16270E-01         0.00000E+00
    0.23570E-02         0.14886E-01         0.00000E+00
    0.21325E-02         0.13506E-01         0.00000E+00
    0.19516E-02         0.12141E-01         0.00000E+00
    0.17861E-02         0.10787E-01         0.00000E+00
    0.16236E-02         0.94317E-02         0.00000E+00
    0.14554E-02         0.80585E-02         0.00000E+00
    0.12729E-02         0.66481E-02         0.00000E+00
    0.10656E-02         0.51765E-02         0.00000E+00
    0.81708E-03         0.36127E-02         0.00000E+00
    0.49639E-03         0.19112E-02         0.00000E+00
    0.00000E+00         0.00000E+00         0.00000E+00
    0.10009E-01         0.19846E-01         0.00000E+00
    0.86173E-02         0.18809E-01         0.00000E+00
    0.72049E-02         0.17704E-01         0.00000E+00
    0.60151E-02         0.16551E-01         0.00000E+00
    0.51503E-02         0.15366E-01         0.00000E+00
    0.45351E-02         0.14155E-01         0.00000E+00
    0.40828E-02         0.12916E-01         0.00000E+00
    0.37136E-02         0.11655E-01         0.00000E+00
    0.33780E-02         0.10381E-01         0.00000E+00
    0.30509E-02         0.90893E-02         0.00000E+00
    0.27142E-02         0.77704E-02         0.00000E+00
    0.23510E-02         0.64080E-02         0.00000E+00
    0.19407E-02         0.49810E-02         0.00000E+00
    0.14541E-02         0.34613E-02         0.00000E+00
    0.83844E-03         0.18120E-02         0.00000E+00
    0.00000E+00         0.00000E+00         0.00000E+00
    0.13081E-01         0.18198E-01         0.00000E+00
    0.11269E-01         0.17215E-01         0.00000E+00
    0.97042E-02         0.16209E-01         0.00000E+00
    0.83915E-02         0.15205E-01         0.00000E+00
    0.73435E-02         0.14185E-01         0.00000E+00
    0.65238E-02         0.13128E-01         0.00000E+00
    0.58658E-02         0.12033E-01         0.00000E+00
    0.53072E-02         0.10902E-01         0.00000E+00
    0.47987E-02         0.97382E-02         0.00000E+00
    0.43056E-02         0.85430E-02         0.00000E+00
    0.38016E-02         0.73095E-02         0.00000E+00
    0.32617E-02         0.60258E-02         0.00000E+00
    0.26580E-02         0.46747E-02         0.00000E+00
    0.19528E-02         0.32344E-02         0.00000E+00
    0.10920E-02         0.16816E-02         0.00000E+00
    0.00000E+00         0.00000E+00         0.00000E+00
    0.15656E-01         0.16179E-01         0.00000E+00
    0.13684E-01         0.15362E-01         0.00000E+00
    0.11980E-01         0.14522E-01         0.00000E+00
    0.10533E-01         0.13664E-01         0.00000E+00
    0.93241E-02         0.12786E-01         0.00000E+00
    0.83224E-02         0.11876E-01         0.00000E+00
    0.74789E-02         0.10925E-01         0.00000E+00
    0.67413E-02         0.99316E-02         0.00000E+00
    0.60634E-02         0.88975E-02         0.00000E+00
    0.54069E-02         0.78216E-02         0.00000E+00
    0.47397E-02         0.66995E-02         0.00000E+00
    0.40309E-02         0.55223E-02         0.00000E+00
    0.32476E-02         0.42775E-02         0.00000E+00
    0.23498E-02         0.29502E-02         0.00000E+00
    0.12874E-02         0.15267E-02         0.00000E+00
    0.00000E+00         0.00000E+00         0.00000E+00
    0.18008E-01         0.13980E-01         0.00000E+00
    0.15880E-01         0.13326E-01         0.00000E+00
    0.14037E-01         0.12643E-01         0.00000E+00
    0.12452E-01         0.11937E-01         0.00000E+00
    0.11095E-01         0.11205E-01         0.00000E+00
    0.99323E-02         0.10439E-01         0.00000E+00
    0.89224E-02         0.96348E-02         0.00000E+00
    0.80202E-02         0.87869E-02         0.00000E+00
    0.71822E-02         0.78943E-02         0.00000E+00
    0.63697E-02         0.69550E-02         0.00000E+00
    0.55472E-02         0.59653E-02         0.00000E+00
    0.46808E-02         0.49187E-02         0.00000E+00
    0.37348E-02         0.38069E-02         0.00000E+00
    0.26700E-02         0.26204E-02         0.00000E+00
    0.14414E-02         0.13521E-02         0.00000E+00
    0.00000E+00         0.00000E+00         0.00000E+00
    0.20121E-01         0.11620E-01         0.00000E+00
    0.17851E-01         0.11124E-01         0.00000E+00
    0.15875E-01         0.10598E-01         0.00000E+00
    0.14158E-01         0.10046E-01         0.00000E+00
    0.12664E-01         0.94649E-02         0.00000E+00
    0.11358E-01         0.88500E-02         0.00000E+00
    0.10200E-01         0.81965E-02         0.00000E+00
    0.91483E-02         0.75005E-02         0.00000E+00
    0.81632E-02         0.67592E-02         0.00000E+00
    0.72058E-02         0.59701E-02         0.00000E+00
    0.62396E-02         0.51300E-02         0.00000E+00
    0.52293E-02         0.42342E-02         0.00000E+00
    0.41388E-02         0.32773E-02         0.00000E+00
    0.29305E-02         0.22540E-02         0.00000E+00
    0.15645E-02         0.11612E-02         0.00000E+00
    0.00000E+00         0.00000E+00         0.00000E+00
    0.21987E-01         0.91207E-02         0.00000E+00
    0.19592E-01         0.87809E-02         0.00000E+00
    0.17496E-01         0.84132E-02         0.00000E+00
    0.15658E-01         0.80174E-02         0.00000E+00
    0.14040E-01         0.75917E-02         0.00000E+00
    0.12606E-01         0.71325E-02         0.00000E+00
    0.11316E-01         0.66359E-02         0.00000E+00
    0.10131E-01         0.60986E-02         0.00000E+00
    0.90137E-02         0.55176E-02         0.00000E+00
    0.79251E-02         0.48902E-02         0.00000E+00
    0.68292E-02         0.42138E-02         0.00000E+00
    0.56905E-02         0.34850E-02         0.00000E+00
    0.44737E-02         0.27007E-02         0.00000E+00
    0.31433E-02         0.18582E-02         0.00000E+00
    0.16636E-02         0.95709E-03         0.00000E+00
    0.00000E+00         0.00000E+00         0.00000E+00
    0.23603E-01         0.65067E-02         0.00000E+00
    0.21104E-01         0.63219E-02         0.00000E+00
    0.18903E-01         0.61118E-02         0.00000E+00
    0.16958E-01         0.58746E-02         0.00000E+00
    0.15230E-01         0.56080E-02         0.00000E+00
    0.13682E-01         0.53093E-02         0.00000E+00
    0.12277E-01         0.49754E-02         0.00000E+00
    0.10975E-01         0.46033E-02         0.00000E+00
    0.97408E-02         0.41905E-02         0.00000E+00
    0.85363E-02         0.37346E-02         0.00000E+00
    0.73260E-02         0.32334E-02         0.00000E+00
    0.60752E-02         0.26848E-02         0.00000E+00
    0.47498E-02         0.20870E-02         0.00000E+00
    0.33166E-02         0.14392E-02         0.00000E+00
    0.17433E-02         0.74236E-03         0.00000E+00
    0.00000E+00         0.00000E+00         0.00000E+00
    0.24972E-01         0.38009E-02         0.00000E+00
    0.22388E-01         0.37701E-02         0.00000E+00
    0.20098E-01         0.37175E-02         0.00000E+00
    0.18061E-01         0.36401E-02         0.00000E+00
    0.16239E-01         0.35354E-02         0.00000E+00
    0.14594E-01         0.34011E-02         0.00000E+00
    0.13089E-01         0.32346E-02         0.00000E+00
    0.11687E-01         0.30336E-02         0.00000E+00
    0.10351E-01         0.27958E-02         0.00000E+00
    0.90465E-02         0.25195E-02         0.00000E+00
    0.77379E-02         0.22029E-02         0.00000E+00
    0.63915E-02         0.18448E-02         0.00000E+00
    0.49747E-02         0.14444E-02         0.00000E+00
    0.34563E-02         0.10020E-02         0.00000E+00
    0.18070E-02         0.51925E-03         0.00000E+00
    0.00000E+00         0.00000E+00         0.00000E+00
    0.26097E-01         0.10244E-02         0.00000E+00
    0.23448E-01         0.11467E-02         0.00000E+00
    0.21086E-01         0.12511E-02         0.00000E+00
    0.18974E-01         0.13340E-02         0.00000E+00
    0.17072E-01         0.13931E-02         0.00000E+00
    0.15345E-01         0.14261E-02         0.00000E+00
    0.13757E-01         0.14309E-02         0.00000E+00
    0.12270E-01         0.14057E-02         0.00000E+00
    0.10850E-01         0.13487E-02         0.00000E+00
    0.94621E-02         0.12586E-02         0.00000E+00
    0.80715E-02         0.11341E-02         0.00000E+00
    0.66459E-02         0.97453E-03         0.00000E+00
    0.51541E-02         0.77984E-03         0.00000E+00
    0.35667E-02         0.55087E-03         0.00000E+00
    0.18567E-02         0.28972E-03         0.00000E+00
    0.00000E+00         0.00000E+00         0.00000E+00
    0.26984E-01        -0.18043E-02         0.00000E+00
    0.24287E-01        -0.15297E-02         0.00000E+00
    0.21870E-01        -0.12689E-02         0.00000E+00
    0.19698E-01        -0.10254E-02         0.00000E+00
    0.17733E-01        -0.80149E-03         0.00000E+00
    0.15941E-01        -0.59921E-03         0.00000E+00
    0.14286E-01        -0.42018E-03         0.00000E+00
    0.12732E-01        -0.26590E-03         0.00000E+00
    0.11244E-01        -0.13767E-03         0.00000E+00
    0.97883E-02        -0.36546E-04         0.00000E+00
    0.83320E-02         0.36720E-04         0.00000E+00
    0.68432E-02         0.81829E-04         0.00000E+00
    0.52922E-02         0.99081E-04         0.00000E+00
    0.36509E-02         0.89582E-04         0.00000E+00
    0.18942E-02         0.55452E-04         0.00000E+00
    0.00000E+00         0.00000E+00         0.00000E+00
    0.27638E-01        -0.46686E-02         0.00000E+00
    0.24909E-01        -0.42426E-02         0.00000E+00
    0.22453E-01        -0.38261E-02         0.00000E+00
    0.20237E-01        -0.34222E-02         0.00000E+00
    0.18226E-01        -0.30330E-02         0.00000E+00
    0.16386E-01        -0.26602E-02         0.00000E+00
    0.14680E-01        -0.23050E-02         0.00000E+00
    0.13075E-01        -0.19686E-02         0.00000E+00
    0.11536E-01        -0.16519E-02         0.00000E+00
    0.10030E-01        -0.13558E-02         0.00000E+00
    0.85236E-02        -0.10806E-02         0.00000E+00
    0.69874E-02        -0.82649E-03         0.00000E+00
    0.53921E-02        -0.59291E-03         0.00000E+00
    0.37112E-02        -0.37874E-03         0.00000E+00
    0.19207E-02        -0.18206E-03         0.00000E+00
    0.00000E+00         0.00000E+00         0.00000E+00
    0.28065E-01        -0.75539E-02         0.00000E+00
    0.25318E-01        -0.69774E-02         0.00000E+00
    0.22839E-01        -0.64060E-02         0.00000E+00
    0.20596E-01        -0.58423E-02         0.00000E+00
    0.18555E-01        -0.52878E-02         0.00000E+00
    0.16682E-01        -0.47438E-02         0.00000E+00
    0.14943E-01        -0.42113E-02         0.00000E+00
    0.13304E-01        -0.36910E-02         0.00000E+00
    0.11730E-01        -0.31839E-02         0.00000E+00
    0.10189E-01        -0.26903E-02         0.00000E+00
    0.86496E-02        -0.22105E-02         0.00000E+00
    0.70813E-02        -0.17445E-02         0.00000E+00
    0.54564E-02        -0.12918E-02         0.00000E+00
    0.37493E-02        -0.85130E-03         0.00000E+00
    0.19370E-02        -0.42148E-03         0.00000E+00
    0.00000E+00         0.00000E+00         0.00000E+00
    0.28269E-01        -0.10447E-01         0.00000E+00
    0.25517E-01        -0.97210E-02         0.00000E+00
    0.23030E-01        -0.89958E-02         0.00000E+00
    0.20775E-01        -0.82730E-02         0.00000E+00
    0.18721E-01        -0.75535E-02         0.00000E+00
    0.16833E-01        -0.68383E-02         0.00000E+00
    0.15078E-01        -0.61280E-02         0.00000E+00
    0.13421E-01        -0.54231E-02         0.00000E+00
    0.11829E-01        -0.47244E-02         0.00000E+00
    0.10270E-01        -0.40320E-02         0.00000E+00
    0.87126E-02        -0.33462E-02         0.00000E+00
    0.71273E-02        -0.26668E-02         0.00000E+00
    0.54869E-02        -0.19936E-02         0.00000E+00
    0.37663E-02        -0.13256E-02         0.00000E+00
    0.19437E-02        -0.66160E-03         0.00000E+00
    0.00000E+00         0.00000E+00         0.00000E+00
    0.28253E-01        -0.13336E-01         0.00000E+00
    0.25510E-01        -0.12462E-01         0.00000E+00
    0.23029E-01        -0.11584E-01         0.00000E+00
    0.20778E-01        -0.10702E-01         0.00000E+00
    0.18727E-01        -0.98188E-02         0.00000E+00
    0.16841E-01        -0.89328E-02         0.00000E+00
    0.15086E-01        -0.80448E-02         0.00000E+00
    0.13429E-01        -0.71554E-02         0.00000E+00
    0.11835E-01        -0.62648E-02         0.00000E+00
    0.10274E-01        -0.53735E-02         0.00000E+00
    0.87145E-02        -0.44814E-02         0.00000E+00
    0.71269E-02        -0.35886E-02         0.00000E+00
    0.54847E-02        -0.26947E-02         0.00000E+00
    0.37634E-02        -0.17992E-02         0.00000E+00
    0.19412E-02        -0.90131E-03         0.00000E+00
    0.00000E+00         0.00000E+00         0.00000E+00
    0.28019E-01        -0.16210E-01         0.00000E+00
    0.25297E-01        -0.15188E-01         0.00000E+00
    0.22836E-01        -0.14158E-01         0.00000E+00
    0.20607E-01        -0.13120E-01         0.00000E+00
    0.18575E-01        -0.12073E-01         0.00000E+00
    0.16707E-01        -0.11017E-01         0.00000E+00
    0.14970E-01        -0.99520E-02         0.00000E+00
    0.13329E-01        -0.88787E-02         0.00000E+00
    0.11751E-01        -0.77972E-02         0.00000E+00
    0.10203E-01        -0.67077E-02         0.00000E+00
    0.86565E-02        -0.56103E-02         0.00000E+00
    0.70812E-02        -0.45050E-02         0.00000E+00
    0.54508E-02        -0.33916E-02         0.00000E+00
    0.37408E-02        -0.22699E-02         0.00000E+00
    0.19300E-02        -0.11395E-02         0.00000E+00
    0.00000E+00         0.00000E+00         0.00000E+00
    0.27568E-01        -0.19057E-01         0.00000E+00
    0.24880E-01        -0.17889E-01         0.00000E+00
    0.22455E-01        -0.16708E-01         0.00000E+00
    0.20261E-01        -0.15514E-01         0.00000E+00
    0.18265E-01        -0.14305E-01         0.00000E+00
    0.16434E-01        -0.13080E-01         0.00000E+00
    0.14731E-01        -0.11840E-01         0.00000E+00
    0.13122E-01        -0.10584E-01         0.00000E+00
    0.11575E-01        -0.93131E-02         0.00000E+00
    0.10058E-01        -0.80274E-02         0.00000E+00
    0.85394E-02        -0.67268E-02         0.00000E+00
    0.69908E-02        -0.54113E-02         0.00000E+00
    0.53854E-02        -0.40809E-02         0.00000E+00
    0.36990E-02        -0.27355E-02         0.00000E+00
    0.19100E-02        -0.13751E-02         0.00000E+00
    0.00000E+00         0.00000E+00         0.00000E+00
    0.26899E-01        -0.21865E-01         0.00000E+00
    0.24258E-01        -0.20553E-01         0.00000E+00
    0.21883E-01        -0.19223E-01         0.00000E+00
    0.19742E-01        -0.17875E-01         0.00000E+00
    0.17799E-01        -0.16504E-01         0.00000E+00
    0.16020E-01        -0.15112E-01         0.00000E+00
    0.14369E-01        -0.13698E-01         0.00000E+00
    0.12810E-01        -0.12262E-01         0.00000E+00
    0.11311E-01        -0.10804E-01         0.00000E+00
    0.98385E-02        -0.93252E-02         0.00000E+00
    0.83631E-02        -0.78247E-02         0.00000E+00
    0.68554E-02        -0.63026E-02         0.00000E+00
    0.52885E-02        -0.47589E-02         0.00000E+00
    0.36378E-02        -0.31936E-02         0.00000E+00
    0.18812E-02        -0.16070E-02         0.00000E+00
    0.00000E+00         0.00000E+00         0.00000E+00
    0.26010E-01        -0.24624E-01         0.00000E+00
    0.23429E-01        -0.23168E-01         0.00000E+00
    0.21121E-01        -0.21691E-01         0.00000E+00
    0.19049E-01        -0.20189E-01         0.00000E+00
    0.17177E-01        -0.18659E-01         0.00000E+00
    0.15468E-01        -0.17101E-01         0.00000E+00
    0.13884E-01        -0.15516E-01         0.00000E+00
    0.12392E-01        -0.13902E-01         0.00000E+00
    0.10956E-01        -0.12261E-01         0.00000E+00
    0.95444E-02        -0.10593E-01         0.00000E+00
    0.81269E-02        -0.88973E-02         0.00000E+00
    0.66743E-02        -0.71737E-02         0.00000E+00
    0.51592E-02        -0.54218E-02         0.00000E+00
    0.35565E-02        -0.36418E-02         0.00000E+00
    0.18433E-02        -0.18341E-02         0.00000E+00
    0.00000E+00         0.00000E+00         0.00000E+00
    0.24898E-01        -0.27320E-01         0.00000E+00
    0.22393E-01        -0.25722E-01         0.00000E+00
    0.20167E-01        -0.24098E-01         0.00000E+00
    0.18183E-01        -0.22444E-01         0.00000E+00
    0.16399E-01        -0.20756E-01         0.00000E+00
    0.14777E-01        -0.19035E-01         0.00000E+00
    0.13278E-01        -0.17281E-01         0.00000E+00
    0.11867E-01        -0.15494E-01         0.00000E+00
    0.10510E-01        -0.13674E-01         0.00000E+00
    0.91743E-02        -0.11822E-01         0.00000E+00
    0.78292E-02        -0.99373E-02         0.00000E+00
    0.64458E-02        -0.80186E-02         0.00000E+00
    0.49961E-02        -0.60654E-02         0.00000E+00
    0.34541E-02        -0.40774E-02         0.00000E+00
    0.17958E-02        -0.20551E-02         0.00000E+00
    0.00000E+00         0.00000E+00         0.00000E+00
    0.23557E-01        -0.29936E-01         0.00000E+00
    0.21145E-01        -0.28199E-01         0.00000E+00
    0.19021E-01        -0.26430E-01         0.00000E+00
    0.17142E-01        -0.24625E-01         0.00000E+00
    0.15464E-01        -0.22781E-01         0.00000E+00
    0.13946E-01        -0.20899E-01         0.00000E+00
    0.12549E-01        -0.18980E-01         0.00000E+00
    0.11235E-01        -0.17024E-01         0.00000E+00
    0.99715E-02        -0.15032E-01         0.00000E+00
    0.87258E-02        -0.13003E-01         0.00000E+00
    0.74675E-02        -0.10936E-01         0.00000E+00
    0.61672E-02        -0.88309E-02         0.00000E+00
    0.47966E-02        -0.66850E-02         0.00000E+00
    0.33287E-02        -0.44976E-02         0.00000E+00
    0.17376E-02        -0.22687E-02         0.00000E+00
    0.00000E+00         0.00000E+00         0.00000E+00
    0.21982E-01        -0.32457E-01         0.00000E+00
    0.19682E-01        -0.30582E-01         0.00000E+00
    0.17680E-01        -0.28669E-01         0.00000E+00
    0.15926E-01        -0.26714E-01         0.00000E+00
    0.14373E-01        -0.24716E-01         0.00000E+00
    0.12976E-01        -0.22677E-01         0.00000E+00
    0.11695E-01        -0.20597E-01         0.00000E+00
    0.10494E-01        -0.18478E-01         0.00000E+00
    0.93376E-02        -0.16320E-01         0.00000E+00
    0.81955E-02        -0.14123E-01         0.00000E+00
    0.70376E-02        -0.11885E-01         0.00000E+00
    0.58344E-02        -0.96034E-02         0.00000E+00
    0.45573E-02        -0.72754E-02         0.00000E+00
    0.31776E-02        -0.48990E-02         0.00000E+00
    0.16672E-02        -0.24734E-02         0.00000E+00
    0.00000E+00         0.00000E+00         0.00000E+00
    0.20166E-01        -0.34863E-01         0.00000E+00
    0.18000E-01        -0.32850E-01         0.00000E+00
    0.16142E-01        -0.30794E-01         0.00000E+00
    0.14534E-01        -0.28691E-01         0.00000E+00
    0.13125E-01        -0.26542E-01         0.00000E+00
    0.11866E-01        -0.24348E-01         0.00000E+00
    0.10716E-01        -0.22113E-01         0.00000E+00
    0.96401E-02        -0.19838E-01         0.00000E+00
    0.86043E-02        -0.17525E-01         0.00000E+00
    0.75785E-02        -0.15170E-01         0.00000E+00
    0.65340E-02        -0.12773E-01         0.00000E+00
    0.54418E-02        -0.10328E-01         0.00000E+00
    0.42728E-02        -0.78308E-02         0.00000E+00
    0.29968E-02        -0.52782E-02         0.00000E+00
    0.15826E-02        -0.26677E-02         0.00000E+00
    0.00000E+00         0.00000E+00         0.00000E+00
    0.18100E-01        -0.37128E-01         0.00000E+00
    0.16096E-01        -0.34980E-01         0.00000E+00
    0.14407E-01        -0.32782E-01         0.00000E+00
    0.12968E-01        -0.30533E-01         0.00000E+00
    0.11720E-01        -0.28235E-01         0.00000E+00
    0.10615E-01        -0.25892E-01         0.00000E+00
    0.96101E-02        -0.23508E-01         0.00000E+00
    0.86709E-02        -0.21087E-01         0.00000E+00
    0.77663E-02        -0.18628E-01         0.00000E+00
    0.68681E-02        -0.16130E-01         0.00000E+00
    0.59490E-02        -0.13587E-01         0.00000E+00
    0.49815E-02        -0.10994E-01         0.00000E+00
    0.39360E-02        -0.83444E-02         0.00000E+00
    0.27806E-02        -0.56311E-02         0.00000E+00
    0.14807E-02        -0.28498E-02         0.00000E+00
    0.00000E+00         0.00000E+00         0.00000E+00
    0.15776E-01        -0.39224E-01         0.00000E+00
    0.13965E-01        -0.36943E-01         0.00000E+00
    0.12474E-01        -0.34604E-01         0.00000E+00
    0.11227E-01        -0.32210E-01         0.00000E+00
    0.10160E-01        -0.29766E-01         0.00000E+00
    0.92222E-02        -0.27280E-01         0.00000E+00
    0.83734E-02        -0.24758E-01         0.00000E+00
    0.75808E-02        -0.22202E-01         0.00000E+00
    0.68165E-02        -0.19613E-01         0.00000E+00
    0.60554E-02        -0.16986E-01         0.00000E+00
    0.52729E-02        -0.14315E-01         0.00000E+00
    0.44430E-02        -0.11593E-01         0.00000E+00
    0.35370E-02        -0.88089E-02         0.00000E+00
    0.25214E-02        -0.59532E-02         0.00000E+00
    0.13569E-02        -0.30180E-02         0.00000E+00
    0.00000E+00         0.00000E+00         0.00000E+00
    0.13186E-01        -0.41117E-01         0.00000E+00
    0.11605E-01        -0.38703E-01         0.00000E+00
    0.10345E-01        -0.36224E-01         0.00000E+00
    0.93143E-02        -0.33687E-01         0.00000E+00
    0.84451E-02        -0.31104E-01         0.00000E+00
    0.76866E-02        -0.28485E-01         0.00000E+00
    0.70021E-02        -0.25836E-01         0.00000E+00
    0.63630E-02        -0.23161E-01         0.00000E+00
    0.57460E-02        -0.20458E-01         0.00000E+00
    0.51296E-02        -0.17720E-01         0.00000E+00
    0.44928E-02        -0.14942E-01         0.00000E+00
    0.38129E-02        -0.12111E-01         0.00000E+00
    0.30627E-02        -0.92155E-02         0.00000E+00
    0.22080E-02        -0.62395E-02         0.00000E+00
    0.12051E-02        -0.31701E-02         0.00000E+00
    0.00000E+00         0.00000E+00         0.00000E+00
    0.10320E-01        -0.42763E-01         0.00000E+00
    0.90173E-02        -0.40217E-01         0.00000E+00
    0.80246E-02        -0.37599E-01         0.00000E+00
    0.72346E-02        -0.34924E-01         0.00000E+00
    0.65764E-02        -0.32210E-01         0.00000E+00
    0.60049E-02        -0.29472E-01         0.00000E+00
    0.54898E-02        -0.26715E-01         0.00000E+00
    0.50088E-02        -0.23940E-01         0.00000E+00
    0.45434E-02        -0.21142E-01         0.00000E+00
    0.40773E-02        -0.18316E-01         0.00000E+00
    0.35937E-02        -0.15452E-01         0.00000E+00
    0.30742E-02        -0.12537E-01         0.00000E+00
    0.24956E-02        -0.95543E-02         0.00000E+00
    0.18253E-02        -0.64835E-02         0.00000E+00
    0.10158E-02        -0.33038E-02         0.00000E+00
    0.00000E+00         0.00000E+00         0.00000E+00
    0.71681E-02        -0.44103E-01         0.00000E+00
    0.62077E-02        -0.41426E-01         0.00000E+00
    0.55227E-02        -0.38670E-01         0.00000E+00
    0.49914E-02        -0.35868E-01         0.00000E+00
    0.45518E-02        -0.33045E-01         0.00000E+00
    0.41709E-02        -0.30210E-01         0.00000E+00
    0.38276E-02        -0.27368E-01         0.00000E+00
    0.35066E-02        -0.24515E-01         0.00000E+00
    0.31955E-02        -0.21648E-01         0.00000E+00
    0.28831E-02        -0.18757E-01         0.00000E+00
    0.25580E-02        -0.15831E-01         0.00000E+00
    0.22072E-02        -0.12856E-01         0.00000E+00
    0.18136E-02        -0.98128E-02         0.00000E+00
    0.13514E-02        -0.66769E-02         0.00000E+00
    0.77447E-03        -0.34158E-02         0.00000E+00
    0.00000E+00         0.00000E+00         0.00000E+00
    0.37237E-02        -0.45053E-01         0.00000E+00
    0.31932E-02        -0.42245E-01         0.00000E+00
    0.28491E-02        -0.39366E-01         0.00000E+00
    0.25836E-02        -0.36467E-01         0.00000E+00
    0.23644E-02        -0.33566E-01         0.00000E+00
    0.21743E-02        -0.30667E-01         0.00000E+00
    0.20029E-02        -0.27770E-01         0.00000E+00
    0.18424E-02        -0.24869E-01         0.00000E+00
    0.16866E-02        -0.21958E-01         0.00000E+00
    0.15300E-02        -0.19028E-01         0.00000E+00
    0.13667E-02        -0.16065E-01         0.00000E+00
    0.11900E-02        -0.13054E-01         0.00000E+00
    0.99084E-03        -0.99768E-02         0.00000E+00
    0.75487E-03        -0.68055E-02         0.00000E+00
    0.45489E-03        -0.35009E-02         0.00000E+00
    0.00000E+00         0.00000E+00         0.00000E+00
    0.00000E+00        -0.45458E-01         0.00000E+00
    0.00000E+00        -0.42547E-01         0.00000E+00
    0.00000E+00        -0.39609E-01         0.00000E+00
    0.00000E+00        -0.36673E-01         0.00000E+00
    0.00000E+00        -0.33743E-01         0.00000E+00
    0.00000E+00        -0.30822E-01         0.00000E+00
    0.00000E+00        -0.27906E-01         0.00000E+00
    0.00000E+00        -0.24989E-01         0.00000E+00
    0.00000E+00        -0.22063E-01         0.00000E+00
    0.00000E+00        -0.19119E-01         0.00000E+00
    0.00000E+00        -0.16144E-01         0.00000E+00
    0.00000E+00        -0.13122E-01         0.00000E+00
    0.00000E+00        -0.10033E-01         0.00000E+00
    0.00000E+00        -0.68512E-02         0.00000E+00
    0.00000E+00        -0.35360E-02         0.00000E+00
    0.00000E+00         0.00000E+00         0.00000E+00
CELL_DATA        450
VECTORS vDarcy double 
    0.20794E-07        -0.24029E-11         0.00000E+00
    0.20792E-07        -0.40627E-11         0.00000E+00
    0.20790E-07        -0.39955E-11         0.00000E+00
    0.20787E-07        -0.31802E-11         0.00000E+00
    0.20783E-07        -0.18248E-11         0.00000E+00
    0.20780E-07        -0.47813E-12         0.00000E+00
    0.20776E-07         0.36774E-12         0.00000E+00
    0.20771E-07         0.79107E-12         0.00000E+00
    0.20767E-07         0.93480E-12         0.00000E+00
    0.20762E-07         0.85254E-12         0.00000E+00
    0.20759E-07         0.57978E-12         0.00000E+00
    0.20756E-07         0.14914E-12         0.00000E+00
    0.20753E-07        -0.38677E-12         0.00000E+00
    0.20752E-07        -0.92339E-12         0.00000E+00
    0.20751E-07        -0.96422E-12         0.00000E+00
    0.20782E-07        -0.43556E-11         0.00000E+00
    0.20775E-07        -0.79231E-11         0.00000E+00
    0.20769E-07        -0.75612E-11         0.00000E+00
    0.20762E-07        -0.52488E-11         0.00000E+00
    0.20756E-07        -0.23037E-11         0.00000E+00
    0.20750E-07         0.34106E-12         0.00000E+00
    0.20744E-07         0.21598E-11         0.00000E+00
    0.20738E-07         0.31474E-11         0.00000E+00
    0.20732E-07         0.34504E-11         0.00000E+00
    0.20726E-07         0.31813E-11         0.00000E+00
    0.20721E-07         0.24289E-11         0.00000E+00
    0.20717E-07         0.12918E-11         0.00000E+00
    0.20713E-07        -0.71946E-13         0.00000E+00
    0.20710E-07        -0.13156E-11         0.00000E+00
    0.20706E-07        -0.14095E-11         0.00000E+00
    0.20731E-07        -0.27606E-11         0.00000E+00
    0.20723E-07        -0.50415E-11         0.00000E+00
    0.20715E-07        -0.38932E-11         0.00000E+00
    0.20707E-07        -0.11765E-11         0.00000E+00
    0.20698E-07         0.17405E-11         0.00000E+00
    0.20690E-07         0.42032E-11         0.00000E+00
    0.20682E-07         0.60108E-11         0.00000E+00
    0.20675E-07         0.70229E-11         0.00000E+00
    0.20668E-07         0.72268E-11         0.00000E+00
    0.20661E-07         0.67047E-11         0.00000E+00
    0.20655E-07         0.55636E-11         0.00000E+00
    0.20650E-07         0.39455E-11         0.00000E+00
    0.20645E-07         0.20798E-11         0.00000E+00
    0.20640E-07         0.41242E-12         0.00000E+00
    0.20637E-07        -0.28367E-12         0.00000E+00
    0.20644E-07        -0.14846E-12         0.00000E+00
    0.20637E-07         0.70067E-12         0.00000E+00
    0.20629E-07         0.28733E-11         0.00000E+00
    0.20619E-07         0.54366E-11         0.00000E+00
    0.20610E-07         0.79503E-11         0.00000E+00
    0.20601E-07         0.10049E-10         0.00000E+00
    0.20592E-07         0.11487E-10         0.00000E+00
    0.20584E-07         0.12162E-10         0.00000E+00
    0.20576E-07         0.12048E-10         0.00000E+00
    0.20569E-07         0.11187E-10         0.00000E+00
    0.20562E-07         0.96737E-11         0.00000E+00
    0.20556E-07         0.76473E-11         0.00000E+00
    0.20551E-07         0.53187E-11         0.00000E+00
    0.20546E-07         0.29886E-11         0.00000E+00
    0.20542E-07         0.94796E-12         0.00000E+00
    0.20526E-07         0.25098E-11         0.00000E+00
    0.20520E-07         0.65697E-11         0.00000E+00
    0.20512E-07         0.99594E-11         0.00000E+00
    0.20503E-07         0.12862E-10         0.00000E+00
    0.20493E-07         0.15184E-10         0.00000E+00
    0.20484E-07         0.16856E-10         0.00000E+00
    0.20475E-07         0.17811E-10         0.00000E+00
    0.20466E-07         0.18010E-10         0.00000E+00
    0.20459E-07         0.17457E-10         0.00000E+00
    0.20452E-07         0.16189E-10         0.00000E+00
    0.20445E-07         0.14278E-10         0.00000E+00
    0.20439E-07         0.11820E-10         0.00000E+00
    0.20433E-07         0.89338E-11         0.00000E+00
    0.20429E-07         0.57171E-11         0.00000E+00
    0.20426E-07         0.21462E-11         0.00000E+00
    0.20381E-07         0.47221E-11         0.00000E+00
    0.20376E-07         0.11834E-10         0.00000E+00
    0.20368E-07         0.16736E-10         0.00000E+00
    0.20360E-07         0.20142E-10         0.00000E+00
    0.20351E-07         0.22412E-10         0.00000E+00
    0.20343E-07         0.23731E-10         0.00000E+00
    0.20334E-07         0.24207E-10         0.00000E+00
    0.20327E-07         0.23907E-10         0.00000E+00
    0.20319E-07         0.22881E-10         0.00000E+00
    0.20313E-07         0.21180E-10         0.00000E+00
    0.20307E-07         0.18848E-10         0.00000E+00
    0.20301E-07         0.15925E-10         0.00000E+00
    0.20296E-07         0.12417E-10         0.00000E+00
    0.20292E-07         0.82547E-11         0.00000E+00
    0.20290E-07         0.32063E-11         0.00000E+00
    0.20213E-07         0.65490E-11         0.00000E+00
    0.20209E-07         0.16270E-10         0.00000E+00
    0.20203E-07         0.22594E-10         0.00000E+00
    0.20196E-07         0.26571E-10         0.00000E+00
    0.20188E-07         0.28872E-10         0.00000E+00
    0.20181E-07         0.29918E-10         0.00000E+00
    0.20174E-07         0.29978E-10         0.00000E+00
    0.20167E-07         0.29220E-10         0.00000E+00
    0.20161E-07         0.27752E-10         0.00000E+00
    0.20156E-07         0.25636E-10         0.00000E+00
    0.20151E-07         0.22899E-10         0.00000E+00
    0.20146E-07         0.19520E-10         0.00000E+00
    0.20142E-07         0.15414E-10         0.00000E+00
    0.20139E-07         0.10384E-10         0.00000E+00
    0.20137E-07         0.40675E-11         0.00000E+00
    0.20028E-07         0.79305E-11         0.00000E+00
    0.20025E-07         0.19673E-10         0.00000E+00
    0.20020E-07         0.27149E-10         0.00000E+00
    0.20015E-07         0.31625E-10         0.00000E+00
    0.20009E-07         0.33985E-10         0.00000E+00
    0.20004E-07         0.34826E-10         0.00000E+00
    0.19998E-07         0.34550E-10         0.00000E+00
    0.19993E-07         0.33413E-10         0.00000E+00
    0.19989E-07         0.31573E-10         0.00000E+00
    0.19985E-07         0.29109E-10         0.00000E+00
    0.19981E-07         0.26030E-10         0.00000E+00
    0.19978E-07         0.22270E-10         0.00000E+00
    0.19975E-07         0.17674E-10         0.00000E+00
    0.19972E-07         0.11961E-10         0.00000E+00
    0.19971E-07         0.46901E-11         0.00000E+00
    0.19831E-07         0.88257E-11         0.00000E+00
    0.19828E-07         0.21902E-10         0.00000E+00
    0.19825E-07         0.30151E-10         0.00000E+00
    0.19822E-07         0.34964E-10         0.00000E+00
    0.19819E-07         0.37351E-10         0.00000E+00
    0.19815E-07         0.38030E-10         0.00000E+00
    0.19812E-07         0.37497E-10         0.00000E+00
    0.19809E-07         0.36077E-10         0.00000E+00
    0.19806E-07         0.33966E-10         0.00000E+00
    0.19804E-07         0.31257E-10         0.00000E+00
    0.19802E-07         0.27947E-10         0.00000E+00
    0.19800E-07         0.23939E-10         0.00000E+00
    0.19798E-07         0.19032E-10         0.00000E+00
    0.19797E-07         0.12896E-10         0.00000E+00
    0.19796E-07         0.50510E-11         0.00000E+00
    0.19626E-07         0.92175E-11         0.00000E+00
    0.19625E-07         0.22889E-10         0.00000E+00
    0.19624E-07         0.31471E-10         0.00000E+00
    0.19623E-07         0.36396E-10         0.00000E+00
    0.19622E-07         0.38735E-10         0.00000E+00
    0.19620E-07         0.39269E-10         0.00000E+00
    0.19619E-07         0.38550E-10         0.00000E+00
    0.19619E-07         0.36948E-10         0.00000E+00
    0.19618E-07         0.34684E-10         0.00000E+00
    0.19617E-07         0.31860E-10         0.00000E+00
    0.19617E-07         0.28466E-10         0.00000E+00
    0.19617E-07         0.24388E-10         0.00000E+00
    0.19616E-07         0.19399E-10         0.00000E+00
    0.19616E-07         0.13147E-10         0.00000E+00
    0.19615E-07         0.51416E-11         0.00000E+00
    0.19421E-07         0.91148E-11         0.00000E+00
    0.19421E-07         0.22637E-10         0.00000E+00
    0.19422E-07         0.31089E-10         0.00000E+00
    0.19422E-07         0.35871E-10         0.00000E+00
    0.19423E-07         0.38055E-10         0.00000E+00
    0.19424E-07         0.38438E-10         0.00000E+00
    0.19426E-07         0.37592E-10         0.00000E+00
    0.19427E-07         0.35906E-10         0.00000E+00
    0.19428E-07         0.33614E-10         0.00000E+00
    0.19430E-07         0.30821E-10         0.00000E+00
    0.19431E-07         0.27513E-10         0.00000E+00
    0.19432E-07         0.23569E-10         0.00000E+00
    0.19433E-07         0.18752E-10         0.00000E+00
    0.19434E-07         0.12710E-10         0.00000E+00
    0.19434E-07         0.49673E-11         0.00000E+00
    0.19220E-07         0.85496E-11         0.00000E+00
    0.19221E-07         0.21216E-10         0.00000E+00
    0.19223E-07         0.29080E-10         0.00000E+00
    0.19225E-07         0.33456E-10         0.00000E+00
    0.19228E-07         0.35363E-10         0.00000E+00
    0.19232E-07         0.35574E-10         0.00000E+00
    0.19235E-07         0.34648E-10         0.00000E+00
    0.19239E-07         0.32970E-10         0.00000E+00
    0.19242E-07         0.30772E-10         0.00000E+00
    0.19245E-07         0.28159E-10         0.00000E+00
    0.19248E-07         0.25114E-10         0.00000E+00
    0.19250E-07         0.21515E-10         0.00000E+00
    0.19253E-07         0.17130E-10         0.00000E+00
    0.19254E-07         0.11622E-10         0.00000E+00
    0.19255E-07         0.45455E-11         0.00000E+00
    0.19027E-07         0.75740E-11         0.00000E+00
    0.19029E-07         0.18749E-10         0.00000E+00
    0.19032E-07         0.25606E-10         0.00000E+00
    0.19036E-07         0.29324E-10         0.00000E+00
    0.19041E-07         0.30831E-10         0.00000E+00
    0.19046E-07         0.30837E-10         0.00000E+00
    0.19052E-07         0.29866E-10         0.00000E+00
    0.19057E-07         0.28276E-10         0.00000E+00
    0.19062E-07         0.26288E-10         0.00000E+00
    0.19067E-07         0.23996E-10         0.00000E+00
    0.19071E-07         0.21384E-10         0.00000E+00
    0.19075E-07         0.18332E-10         0.00000E+00
    0.19078E-07         0.14624E-10         0.00000E+00
    0.19080E-07         0.99493E-11         0.00000E+00
    0.19082E-07         0.39047E-11         0.00000E+00
    0.18846E-07         0.62560E-11         0.00000E+00
    0.18849E-07         0.15403E-10         0.00000E+00
    0.18853E-07         0.20891E-10         0.00000E+00
    0.18859E-07         0.23730E-10         0.00000E+00
    0.18865E-07         0.24722E-10         0.00000E+00
    0.18872E-07         0.24491E-10         0.00000E+00
    0.18879E-07         0.23499E-10         0.00000E+00
    0.18886E-07         0.22066E-10         0.00000E+00
    0.18892E-07         0.20385E-10         0.00000E+00
    0.18899E-07         0.18540E-10         0.00000E+00
    0.18904E-07         0.16511E-10         0.00000E+00
    0.18909E-07         0.14187E-10         0.00000E+00
    0.18913E-07         0.11371E-10         0.00000E+00
    0.18916E-07         0.77860E-11         0.00000E+00
    0.18918E-07         0.30821E-11         0.00000E+00
    0.18681E-07         0.46755E-11         0.00000E+00
    0.18684E-07         0.11377E-10         0.00000E+00
    0.18689E-07         0.15212E-10         0.00000E+00
    0.18696E-07         0.16992E-10         0.00000E+00
    0.18704E-07         0.17375E-10         0.00000E+00
    0.18712E-07         0.16876E-10         0.00000E+00
    0.18720E-07         0.15881E-10         0.00000E+00
    0.18728E-07         0.14656E-10         0.00000E+00
    0.18736E-07         0.13362E-10         0.00000E+00
    0.18743E-07         0.12065E-10         0.00000E+00
    0.18749E-07         0.10741E-10         0.00000E+00
    0.18755E-07         0.92902E-11         0.00000E+00
    0.18760E-07         0.75378E-11         0.00000E+00
    0.18763E-07         0.52463E-11         0.00000E+00
    0.18765E-07         0.21217E-11         0.00000E+00
    0.18534E-07         0.29192E-11         0.00000E+00
    0.18537E-07         0.68920E-11         0.00000E+00
    0.18543E-07         0.88755E-11         0.00000E+00
    0.18550E-07         0.94715E-11         0.00000E+00
    0.18559E-07         0.91771E-11         0.00000E+00
    0.18568E-07         0.83872E-11         0.00000E+00
    0.18577E-07         0.73995E-11         0.00000E+00
    0.18586E-07         0.64200E-11         0.00000E+00
    0.18594E-07         0.55703E-11         0.00000E+00
    0.18602E-07         0.48937E-11         0.00000E+00
    0.18609E-07         0.43630E-11         0.00000E+00
    0.18615E-07         0.38870E-11         0.00000E+00
    0.18620E-07         0.33174E-11         0.00000E+00
    0.18624E-07         0.24577E-11         0.00000E+00
    0.18626E-07         0.10718E-11         0.00000E+00
    0.18406E-07         0.10762E-11         0.00000E+00
    0.18410E-07         0.21759E-11         0.00000E+00
    0.18416E-07         0.22037E-11         0.00000E+00
    0.18424E-07         0.15481E-11         0.00000E+00
    0.18432E-07         0.54001E-12         0.00000E+00
    0.18442E-07        -0.55185E-12         0.00000E+00
    0.18451E-07        -0.15236E-11         0.00000E+00
    0.18460E-07        -0.22354E-11         0.00000E+00
    0.18469E-07        -0.26090E-11         0.00000E+00
    0.18477E-07        -0.26243E-11         0.00000E+00
    0.18485E-07        -0.23146E-11         0.00000E+00
    0.18491E-07        -0.17612E-11         0.00000E+00
    0.18496E-07        -0.10863E-11         0.00000E+00
    0.18500E-07        -0.44542E-12         0.00000E+00
    0.18502E-07        -0.17352E-13         0.00000E+00
    0.18299E-07        -0.76558E-12         0.00000E+00
    0.18302E-07        -0.25450E-11         0.00000E+00
    0.18308E-07        -0.44815E-11         0.00000E+00
    0.18316E-07        -0.63948E-11         0.00000E+00
    0.18325E-07        -0.81177E-11         0.00000E+00
    0.18334E-07        -0.95085E-11         0.00000E+00
    0.18343E-07        -0.10458E-10         0.00000E+00
    0.18353E-07        -0.10894E-10         0.00000E+00
    0.18361E-07        -0.10784E-10         0.00000E+00
    0.18370E-07        -0.10130E-10         0.00000E+00
    0.18377E-07        -0.89744E-11         0.00000E+00
    0.18383E-07        -0.73874E-11         0.00000E+00
    0.18388E-07        -0.54667E-11         0.00000E+00
    0.18392E-07        -0.33281E-11         0.00000E+00
    0.18394E-07        -0.10959E-11         0.00000E+00
    0.18211E-07        -0.25236E-11         0.00000E+00
    0.18215E-07        -0.70565E-11         0.00000E+00
    0.18221E-07        -0.10873E-10         0.00000E+00
    0.18228E-07        -0.13989E-10         0.00000E+00
    0.18237E-07        -0.16392E-10         0.00000E+00
    0.18246E-07        -0.18062E-10         0.00000E+00
    0.18254E-07        -0.18984E-10         0.00000E+00
    0.18263E-07        -0.19149E-10         0.00000E+00
    0.18271E-07        -0.18570E-10         0.00000E+00
    0.18279E-07        -0.17273E-10         0.00000E+00
    0.18286E-07        -0.15307E-10         0.00000E+00
    0.18292E-07        -0.12732E-10         0.00000E+00
    0.18297E-07        -0.96242E-11         0.00000E+00
    0.18301E-07        -0.60607E-11         0.00000E+00
    0.18303E-07        -0.21162E-11         0.00000E+00
    0.18144E-07        -0.41236E-11         0.00000E+00
    0.18147E-07        -0.11164E-10         0.00000E+00
    0.18153E-07        -0.16690E-10         0.00000E+00
    0.18160E-07        -0.20894E-10         0.00000E+00
    0.18167E-07        -0.23907E-10         0.00000E+00
    0.18175E-07        -0.25822E-10         0.00000E+00
    0.18183E-07        -0.26707E-10         0.00000E+00
    0.18191E-07        -0.26618E-10         0.00000E+00
    0.18199E-07        -0.25607E-10         0.00000E+00
    0.18206E-07        -0.23724E-10         0.00000E+00
    0.18212E-07        -0.21022E-10         0.00000E+00
    0.18217E-07        -0.17554E-10         0.00000E+00
    0.18222E-07        -0.13373E-10         0.00000E+00
    0.18225E-07        -0.85238E-11         0.00000E+00
    0.18227E-07        -0.30347E-11         0.00000E+00
    0.18095E-07        -0.55014E-11         0.00000E+00
    0.18098E-07        -0.14698E-10         0.00000E+00
    0.18103E-07        -0.21686E-10         0.00000E+00
    0.18109E-07        -0.26811E-10         0.00000E+00
    0.18115E-07        -0.30330E-10         0.00000E+00
    0.18122E-07        -0.32436E-10         0.00000E+00
    0.18129E-07        -0.33275E-10         0.00000E+00
    0.18136E-07        -0.32956E-10         0.00000E+00
    0.18142E-07        -0.31570E-10         0.00000E+00
    0.18148E-07        -0.29185E-10         0.00000E+00
    0.18154E-07        -0.25858E-10         0.00000E+00
    0.18158E-07        -0.21636E-10         0.00000E+00
    0.18162E-07        -0.16550E-10         0.00000E+00
    0.18165E-07        -0.10612E-10         0.00000E+00
    0.18167E-07        -0.38136E-11         0.00000E+00
    0.18062E-07        -0.66050E-11         0.00000E+00
    0.18065E-07        -0.17519E-10         0.00000E+00
    0.18069E-07        -0.25655E-10         0.00000E+00
    0.18074E-07        -0.31486E-10         0.00000E+00
    0.18080E-07        -0.35376E-10         0.00000E+00
    0.18085E-07        -0.37605E-10         0.00000E+00
    0.18091E-07        -0.38382E-10         0.00000E+00
    0.18096E-07        -0.37867E-10         0.00000E+00
    0.18101E-07        -0.36177E-10         0.00000E+00
    0.18106E-07        -0.33400E-10         0.00000E+00
    0.18110E-07        -0.29593E-10         0.00000E+00
    0.18113E-07        -0.24793E-10         0.00000E+00
    0.18117E-07        -0.19013E-10         0.00000E+00
    0.18119E-07        -0.12236E-10         0.00000E+00
    0.18120E-07        -0.44214E-11         0.00000E+00
    0.18044E-07        -0.73945E-11         0.00000E+00
    0.18047E-07        -0.19518E-10         0.00000E+00
    0.18050E-07        -0.28432E-10         0.00000E+00
    0.18054E-07        -0.34712E-10         0.00000E+00
    0.18058E-07        -0.38812E-10         0.00000E+00
    0.18062E-07        -0.41078E-10         0.00000E+00
    0.18066E-07        -0.41777E-10         0.00000E+00
    0.18069E-07        -0.41103E-10         0.00000E+00
    0.18073E-07        -0.39197E-10         0.00000E+00
    0.18076E-07        -0.36157E-10         0.00000E+00
    0.18079E-07        -0.32041E-10         0.00000E+00
    0.18081E-07        -0.26874E-10         0.00000E+00
    0.18084E-07        -0.20649E-10         0.00000E+00
    0.18085E-07        -0.13327E-10         0.00000E+00
    0.18086E-07        -0.48336E-11         0.00000E+00
    0.18038E-07        -0.78415E-11         0.00000E+00
    0.18041E-07        -0.20614E-10         0.00000E+00
    0.18043E-07        -0.29891E-10         0.00000E+00
    0.18046E-07        -0.36331E-10         0.00000E+00
    0.18048E-07        -0.40454E-10         0.00000E+00
    0.18050E-07        -0.42663E-10         0.00000E+00
    0.18052E-07        -0.43261E-10         0.00000E+00
    0.18054E-07        -0.42470E-10         0.00000E+00
    0.18056E-07        -0.40445E-10         0.00000E+00
    0.18058E-07        -0.37288E-10         0.00000E+00
    0.18059E-07        -0.33056E-10         0.00000E+00
    0.18060E-07        -0.27759E-10         0.00000E+00
    0.18061E-07        -0.21373E-10         0.00000E+00
    0.18062E-07        -0.13831E-10         0.00000E+00
    0.18063E-07        -0.50327E-11         0.00000E+00
    0.18042E-07        -0.79275E-11         0.00000E+00
    0.18044E-07        -0.20750E-10         0.00000E+00
    0.18046E-07        -0.29940E-10         0.00000E+00
    0.18047E-07        -0.36220E-10         0.00000E+00
    0.18048E-07        -0.40163E-10         0.00000E+00
    0.18048E-07        -0.42209E-10         0.00000E+00
    0.18049E-07        -0.42685E-10         0.00000E+00
    0.18049E-07        -0.41823E-10         0.00000E+00
    0.18048E-07        -0.39785E-10         0.00000E+00
    0.18048E-07        -0.36671E-10         0.00000E+00
    0.18048E-07        -0.32530E-10         0.00000E+00
    0.18048E-07        -0.27362E-10         0.00000E+00
    0.18048E-07        -0.21120E-10         0.00000E+00
    0.18049E-07        -0.13711E-10         0.00000E+00
    0.18049E-07        -0.50079E-11         0.00000E+00
    0.18054E-07        -0.76392E-11         0.00000E+00
    0.18056E-07        -0.19880E-10         0.00000E+00
    0.18056E-07        -0.28501E-10         0.00000E+00
    0.18056E-07        -0.34281E-10         0.00000E+00
    0.18055E-07        -0.37831E-10         0.00000E+00
    0.18054E-07        -0.39609E-10         0.00000E+00
    0.18052E-07        -0.39943E-10         0.00000E+00
    0.18050E-07        -0.39063E-10         0.00000E+00
    0.18048E-07        -0.37123E-10         0.00000E+00
    0.18046E-07        -0.34217E-10         0.00000E+00
    0.18044E-07        -0.30387E-10         0.00000E+00
    0.18043E-07        -0.25618E-10         0.00000E+00
    0.18042E-07        -0.19845E-10         0.00000E+00
    0.18042E-07        -0.12945E-10         0.00000E+00
    0.18042E-07        -0.47532E-11         0.00000E+00
    0.18071E-07        -0.69611E-11         0.00000E+00
    0.18072E-07        -0.17952E-10         0.00000E+00
    0.18072E-07        -0.25490E-10         0.00000E+00
    0.18071E-07        -0.30417E-10         0.00000E+00
    0.18068E-07        -0.33368E-10         0.00000E+00
    0.18065E-07        -0.34784E-10         0.00000E+00
    0.18061E-07        -0.34969E-10         0.00000E+00
    0.18056E-07        -0.34130E-10         0.00000E+00
    0.18052E-07        -0.32405E-10         0.00000E+00
    0.18049E-07        -0.29875E-10         0.00000E+00
    0.18045E-07        -0.26573E-10         0.00000E+00
    0.18042E-07        -0.22478E-10         0.00000E+00
    0.18040E-07        -0.17508E-10         0.00000E+00
    0.18039E-07        -0.11508E-10         0.00000E+00
    0.18039E-07        -0.42647E-11         0.00000E+00
    0.18092E-07        -0.58573E-11         0.00000E+00
    0.18093E-07        -0.14861E-10         0.00000E+00
    0.18092E-07        -0.20768E-10         0.00000E+00
    0.18089E-07        -0.24507E-10         0.00000E+00
    0.18084E-07        -0.26686E-10         0.00000E+00
    0.18079E-07        -0.27676E-10         0.00000E+00
    0.18072E-07        -0.27726E-10         0.00000E+00
    0.18066E-07        -0.27001E-10         0.00000E+00
    0.18060E-07        -0.25612E-10         0.00000E+00
    0.18054E-07        -0.23622E-10         0.00000E+00
    0.18049E-07        -0.21055E-10         0.00000E+00
    0.18045E-07        -0.17890E-10         0.00000E+00
    0.18042E-07        -0.14054E-10         0.00000E+00
    0.18040E-07        -0.93656E-11         0.00000E+00
    0.18040E-07        -0.35320E-11         0.00000E+00
    0.18115E-07        -0.42280E-11         0.00000E+00
    0.18116E-07        -0.10353E-10         0.00000E+00
    0.18114E-07        -0.14086E-10         0.00000E+00
    0.18109E-07        -0.16393E-10         0.00000E+00
    0.18102E-07        -0.17696E-10         0.00000E+00
    0.18094E-07        -0.18247E-10         0.00000E+00
    0.18086E-07        -0.18208E-10         0.00000E+00
    0.18078E-07        -0.17690E-10         0.00000E+00
    0.18070E-07        -0.16762E-10         0.00000E+00
    0.18062E-07        -0.15468E-10         0.00000E+00
    0.18055E-07        -0.13820E-10         0.00000E+00
    0.18049E-07        -0.11806E-10         0.00000E+00
    0.18045E-07        -0.93766E-11         0.00000E+00
    0.18042E-07        -0.64107E-11         0.00000E+00
    0.18042E-07        -0.25344E-11         0.00000E+00
    0.18141E-07        -0.16317E-11         0.00000E+00
    0.18141E-07        -0.38485E-11         0.00000E+00
    0.18137E-07        -0.51078E-11         0.00000E+00
    0.18129E-07        -0.58808E-11         0.00000E+00
    0.18120E-07        -0.63060E-11         0.00000E+00
    0.18110E-07        -0.64734E-11         0.00000E+00
    0.18100E-07        -0.64404E-11         0.00000E+00
    0.18089E-07        -0.62456E-11         0.00000E+00
    0.18079E-07        -0.59137E-11         0.00000E+00
    0.18070E-07        -0.54589E-11         0.00000E+00
    0.18061E-07        -0.48864E-11         0.00000E+00
    0.18054E-07        -0.41917E-11         0.00000E+00
    0.18048E-07        -0.33571E-11         0.00000E+00
    0.18045E-07        -0.23548E-11         0.00000E+00
    0.18044E-07        -0.98312E-12         0.00000E+00
POINT_DATA        496
VECTORS vDarcyNodal double 
    0.20792E-07         0.00000E+00         0.00000E+00
    0.20792E-07         0.00000E+00         0.00000E+00
    0.20791E-07         0.00000E+00         0.00000E+00
    0.20789E-07         0.00000E+00         0.00000E+00
    0.20786E-07         0.00000E+00         0.00000E+00
    0.20782E-07         0.00000E+00         0.00000E+00
    0.20778E-07         0.00000E+00         0.00000E+00
    0.20774E-07         0.00000E+00         0.00000E+00
    0.20769E-07         0.00000E+00         0.00000E+00
    0.20765E-07         0.00000E+00         0.00000E+00
    0.20760E-07         0.00000E+00         0.00000E+00
    0.20757E-07         0.00000E+00         0.00000E+00
    0.20754E-07        -0.66661E-22         0.00000E+00
    0.20753E-07        -0.80883E-26         0.00000E+00
    0.20752E-07         0.66653E-22         0.00000E+00
    0.20752E-07         0.00000E+00         0.00000E+00
    0.20787E-07        -0.48031E-11         0.00000E+00
    0.20785E-07        -0.64621E-11         0.00000E+00
    0.20781E-07        -0.80544E-11         0.00000E+00
    0.20777E-07        -0.71731E-11         0.00000E+00
    0.20772E-07        -0.50038E-11         0.00000E+00
    0.20768E-07        -0.23025E-11         0.00000E+00
    0.20763E-07        -0.11037E-12         0.00000E+00
    0.20757E-07         0.11587E-11         0.00000E+00
    0.20752E-07         0.17257E-11         0.00000E+00
    0.20747E-07         0.17872E-11         0.00000E+00
    0.20742E-07         0.14322E-11         0.00000E+00
    0.20738E-07         0.72885E-12         0.00000E+00
    0.20735E-07        -0.23761E-12         0.00000E+00
    0.20732E-07        -0.13100E-11         0.00000E+00
    0.20730E-07        -0.18875E-11         0.00000E+00
    0.20729E-07        -0.19283E-11         0.00000E+00
    0.20757E-07        -0.39093E-11         0.00000E+00
    0.20753E-07        -0.58180E-11         0.00000E+00
    0.20746E-07        -0.74316E-11         0.00000E+00
    0.20738E-07        -0.56384E-11         0.00000E+00
    0.20731E-07        -0.25496E-11         0.00000E+00
    0.20724E-07         0.33951E-12         0.00000E+00
    0.20717E-07         0.26109E-11         0.00000E+00
    0.20710E-07         0.41482E-11         0.00000E+00
    0.20703E-07         0.48718E-11         0.00000E+00
    0.20697E-07         0.48442E-11         0.00000E+00
    0.20691E-07         0.41778E-11         0.00000E+00
    0.20686E-07         0.29917E-11         0.00000E+00
    0.20681E-07         0.14573E-11         0.00000E+00
    0.20677E-07        -0.77626E-13         0.00000E+00
    0.20673E-07        -0.83770E-12         0.00000E+00
    0.20671E-07        -0.89070E-12         0.00000E+00
    0.20689E-07        -0.16130E-11         0.00000E+00
    0.20685E-07        -0.19858E-11         0.00000E+00
    0.20676E-07        -0.15050E-11         0.00000E+00
    0.20667E-07         0.56741E-12         0.00000E+00
    0.20658E-07         0.31127E-11         0.00000E+00
    0.20650E-07         0.56034E-11         0.00000E+00
    0.20641E-07         0.76024E-11         0.00000E+00
    0.20633E-07         0.88849E-11         0.00000E+00
    0.20625E-07         0.93773E-11         0.00000E+00
    0.20618E-07         0.90868E-11         0.00000E+00
    0.20612E-07         0.80901E-11         0.00000E+00
    0.20606E-07         0.65170E-11         0.00000E+00
    0.20600E-07         0.45676E-11         0.00000E+00
    0.20595E-07         0.25696E-11         0.00000E+00
    0.20591E-07         0.96632E-12         0.00000E+00
    0.20589E-07         0.32329E-12         0.00000E+00
    0.20587E-07         0.13155E-11         0.00000E+00
    0.20583E-07         0.25372E-11         0.00000E+00
    0.20575E-07         0.50780E-11         0.00000E+00
    0.20566E-07         0.77415E-11         0.00000E+00
    0.20556E-07         0.10273E-10         0.00000E+00
    0.20547E-07         0.12395E-10         0.00000E+00
    0.20538E-07         0.13933E-10         0.00000E+00
    0.20529E-07         0.14764E-10         0.00000E+00
    0.20521E-07         0.14832E-10         0.00000E+00
    0.20514E-07         0.14148E-10         0.00000E+00
    0.20507E-07         0.12770E-10         0.00000E+00
    0.20500E-07         0.10804E-10         0.00000E+00
    0.20495E-07         0.83980E-11         0.00000E+00
    0.20490E-07         0.57374E-11         0.00000E+00
    0.20485E-07         0.29701E-11         0.00000E+00
    0.20484E-07         0.15725E-11         0.00000E+00
    0.20455E-07         0.37036E-11         0.00000E+00
    0.20452E-07         0.65416E-11         0.00000E+00
    0.20445E-07         0.11450E-10         0.00000E+00
    0.20436E-07         0.15078E-10         0.00000E+00
    0.20427E-07         0.17771E-10         0.00000E+00
    0.20418E-07         0.19644E-10         0.00000E+00
    0.20409E-07         0.20733E-10         0.00000E+00
    0.20400E-07         0.21057E-10         0.00000E+00
    0.20393E-07         0.20634E-10         0.00000E+00
    0.20385E-07         0.19497E-10         0.00000E+00
    0.20379E-07         0.17696E-10         0.00000E+00
    0.20373E-07         0.15294E-10         0.00000E+00
    0.20367E-07         0.12356E-10         0.00000E+00
    0.20363E-07         0.89131E-11         0.00000E+00
    0.20359E-07         0.48930E-11         0.00000E+00
    0.20357E-07         0.27198E-11         0.00000E+00
    0.20298E-07         0.57403E-11         0.00000E+00
    0.20296E-07         0.10014E-10         0.00000E+00
    0.20289E-07         0.17119E-10         0.00000E+00
    0.20282E-07         0.21799E-10         0.00000E+00
    0.20274E-07         0.24782E-10         0.00000E+00
    0.20266E-07         0.26499E-10         0.00000E+00
    0.20258E-07         0.27205E-10         0.00000E+00
    0.20250E-07         0.27056E-10         0.00000E+00
    0.20244E-07         0.26153E-10         0.00000E+00
    0.20237E-07         0.24563E-10         0.00000E+00
    0.20231E-07         0.22332E-10         0.00000E+00
    0.20226E-07         0.19479E-10         0.00000E+00
    0.20221E-07         0.15986E-10         0.00000E+00
    0.20217E-07         0.11758E-10         0.00000E+00
    0.20214E-07         0.65678E-11         0.00000E+00
    0.20213E-07         0.36926E-11         0.00000E+00
    0.20121E-07         0.73574E-11         0.00000E+00
    0.20119E-07         0.12805E-10         0.00000E+00
    0.20114E-07         0.21744E-10         0.00000E+00
    0.20108E-07         0.27365E-10         0.00000E+00
    0.20102E-07         0.30660E-10         0.00000E+00
    0.20095E-07         0.32290E-10         0.00000E+00
    0.20089E-07         0.32691E-10         0.00000E+00
    0.20083E-07         0.32141E-10         0.00000E+00
    0.20078E-07         0.30818E-10         0.00000E+00
    0.20073E-07         0.28824E-10         0.00000E+00
    0.20068E-07         0.26203E-10         0.00000E+00
    0.20064E-07         0.22940E-10         0.00000E+00
    0.20060E-07         0.18948E-10         0.00000E+00
    0.20057E-07         0.14039E-10         0.00000E+00
    0.20054E-07         0.78833E-11         0.00000E+00
    0.20054E-07         0.44423E-11         0.00000E+00
    0.19930E-07         0.85034E-11         0.00000E+00
    0.19928E-07         0.14799E-10         0.00000E+00
    0.19925E-07         0.25078E-10         0.00000E+00
    0.19921E-07         0.31409E-10         0.00000E+00
    0.19916E-07         0.34950E-10         0.00000E+00
    0.19912E-07         0.36520E-10         0.00000E+00
    0.19907E-07         0.36685E-10         0.00000E+00
    0.19903E-07         0.35821E-10         0.00000E+00
    0.19899E-07         0.34168E-10         0.00000E+00
    0.19896E-07         0.31858E-10         0.00000E+00
    0.19893E-07         0.28936E-10         0.00000E+00
    0.19890E-07         0.25360E-10         0.00000E+00
    0.19887E-07         0.20996E-10         0.00000E+00
    0.19885E-07         0.15595E-10         0.00000E+00
    0.19884E-07         0.87674E-11         0.00000E+00
    0.19883E-07         0.49379E-11         0.00000E+00
    0.19729E-07         0.91479E-11         0.00000E+00
    0.19728E-07         0.15929E-10         0.00000E+00
    0.19726E-07         0.26975E-10         0.00000E+00
    0.19724E-07         0.33706E-10         0.00000E+00
    0.19721E-07         0.37364E-10         0.00000E+00
    0.19719E-07         0.38861E-10         0.00000E+00
    0.19717E-07         0.38842E-10         0.00000E+00
    0.19715E-07         0.37753E-10         0.00000E+00
    0.19713E-07         0.35875E-10         0.00000E+00
    0.19711E-07         0.33365E-10         0.00000E+00
    0.19710E-07         0.30268E-10         0.00000E+00
    0.19709E-07         0.26526E-10         0.00000E+00
    0.19708E-07         0.21975E-10         0.00000E+00
    0.19707E-07         0.16333E-10         0.00000E+00
    0.19706E-07         0.91797E-11         0.00000E+00
    0.19706E-07         0.51640E-11         0.00000E+00
    0.19524E-07         0.92872E-11         0.00000E+00
    0.19524E-07         0.16178E-10         0.00000E+00
    0.19523E-07         0.27385E-10         0.00000E+00
    0.19523E-07         0.34162E-10         0.00000E+00
    0.19523E-07         0.37767E-10         0.00000E+00
    0.19522E-07         0.39143E-10         0.00000E+00
    0.19523E-07         0.38977E-10         0.00000E+00
    0.19523E-07         0.37745E-10         0.00000E+00
    0.19523E-07         0.35756E-10         0.00000E+00
    0.19523E-07         0.33178E-10         0.00000E+00
    0.19524E-07         0.30058E-10         0.00000E+00
    0.19524E-07         0.26329E-10         0.00000E+00
    0.19525E-07         0.21812E-10         0.00000E+00
    0.19525E-07         0.16213E-10         0.00000E+00
    0.19525E-07         0.91086E-11         0.00000E+00
    0.19525E-07         0.51192E-11         0.00000E+00
    0.19320E-07         0.89425E-11         0.00000E+00
    0.19321E-07         0.15575E-10         0.00000E+00
    0.19321E-07         0.26341E-10         0.00000E+00
    0.19323E-07         0.32798E-10         0.00000E+00
    0.19325E-07         0.36159E-10         0.00000E+00
    0.19327E-07         0.37349E-10         0.00000E+00
    0.19329E-07         0.37053E-10         0.00000E+00
    0.19332E-07         0.35754E-10         0.00000E+00
    0.19334E-07         0.33764E-10         0.00000E+00
    0.19336E-07         0.31257E-10         0.00000E+00
    0.19339E-07         0.28276E-10         0.00000E+00
    0.19341E-07         0.24754E-10         0.00000E+00
    0.19342E-07         0.20509E-10         0.00000E+00
    0.19343E-07         0.15249E-10         0.00000E+00
    0.19344E-07         0.85689E-11         0.00000E+00
    0.19345E-07         0.48153E-11         0.00000E+00
    0.19123E-07         0.81568E-11         0.00000E+00
    0.19124E-07         0.14191E-10         0.00000E+00
    0.19126E-07         0.23956E-10         0.00000E+00
    0.19129E-07         0.29739E-10         0.00000E+00
    0.19133E-07         0.32661E-10         0.00000E+00
    0.19137E-07         0.33588E-10         0.00000E+00
    0.19141E-07         0.33169E-10         0.00000E+00
    0.19146E-07         0.31864E-10         0.00000E+00
    0.19150E-07         0.29978E-10         0.00000E+00
    0.19154E-07         0.27675E-10         0.00000E+00
    0.19158E-07         0.24997E-10         0.00000E+00
    0.19161E-07         0.21875E-10         0.00000E+00
    0.19164E-07         0.18136E-10         0.00000E+00
    0.19167E-07         0.13503E-10         0.00000E+00
    0.19168E-07         0.75986E-11         0.00000E+00
    0.19169E-07         0.42757E-11         0.00000E+00
    0.18936E-07         0.69913E-11         0.00000E+00
    0.18937E-07         0.12132E-10         0.00000E+00
    0.18940E-07         0.20400E-10         0.00000E+00
    0.18945E-07         0.25192E-10         0.00000E+00
    0.18950E-07         0.27494E-10         0.00000E+00
    0.18956E-07         0.28080E-10         0.00000E+00
    0.18962E-07         0.27535E-10         0.00000E+00
    0.18968E-07         0.26278E-10         0.00000E+00
    0.18974E-07         0.24587E-10         0.00000E+00
    0.18980E-07         0.22609E-10         0.00000E+00
    0.18985E-07         0.20383E-10         0.00000E+00
    0.18990E-07         0.17841E-10         0.00000E+00
    0.18994E-07         0.14821E-10         0.00000E+00
    0.18997E-07         0.11071E-10         0.00000E+00
    0.18999E-07         0.62555E-11         0.00000E+00
    0.19000E-07         0.35337E-11         0.00000E+00
    0.18763E-07         0.55210E-11         0.00000E+00
    0.18764E-07         0.95272E-11         0.00000E+00
    0.18768E-07         0.15895E-10         0.00000E+00
    0.18774E-07         0.19430E-10         0.00000E+00
    0.18781E-07         0.20959E-10         0.00000E+00
    0.18788E-07         0.21134E-10         0.00000E+00
    0.18796E-07         0.20456E-10         0.00000E+00
    0.18803E-07         0.19287E-10         0.00000E+00
    0.18811E-07         0.17865E-10         0.00000E+00
    0.18818E-07         0.16316E-10         0.00000E+00
    0.18824E-07         0.14668E-10         0.00000E+00
    0.18830E-07         0.12857E-10         0.00000E+00
    0.18835E-07         0.10737E-10         0.00000E+00
    0.18838E-07         0.80858E-11         0.00000E+00
    0.18841E-07         0.46129E-11         0.00000E+00
    0.18842E-07         0.26306E-11         0.00000E+00
    0.18607E-07         0.38303E-11         0.00000E+00
    0.18608E-07         0.65258E-11         0.00000E+00
    0.18613E-07         0.10695E-10         0.00000E+00
    0.18619E-07         0.12775E-10         0.00000E+00
    0.18627E-07         0.13410E-10         0.00000E+00
    0.18635E-07         0.13119E-10         0.00000E+00
    0.18644E-07         0.12302E-10         0.00000E+00
    0.18653E-07         0.11250E-10         0.00000E+00
    0.18661E-07         0.10154E-10         0.00000E+00
    0.18669E-07         0.91119E-11         0.00000E+00
    0.18676E-07         0.81392E-11         0.00000E+00
    0.18682E-07         0.71753E-11         0.00000E+00
    0.18688E-07         0.60916E-11         0.00000E+00
    0.18692E-07         0.46987E-11         0.00000E+00
    0.18695E-07         0.27554E-11         0.00000E+00
    0.18696E-07         0.16130E-11         0.00000E+00
    0.18469E-07         0.20083E-11         0.00000E+00
    0.18471E-07         0.32858E-11         0.00000E+00
    0.18476E-07         0.50732E-11         0.00000E+00
    0.18483E-07         0.55729E-11         0.00000E+00
    0.18491E-07         0.52394E-11         0.00000E+00
    0.18500E-07         0.44464E-11         0.00000E+00
    0.18509E-07         0.34858E-11         0.00000E+00
    0.18518E-07         0.25704E-11         0.00000E+00
    0.18527E-07         0.18374E-11         0.00000E+00
    0.18536E-07         0.13530E-11         0.00000E+00
    0.18543E-07         0.11183E-11         0.00000E+00
    0.18550E-07         0.10753E-11         0.00000E+00
    0.18556E-07         0.11133E-11         0.00000E+00
    0.18561E-07         0.10768E-11         0.00000E+00
    0.18564E-07         0.77434E-12         0.00000E+00
    0.18565E-07         0.53079E-12         0.00000E+00
    0.18351E-07         0.14441E-12         0.00000E+00
    0.18353E-07        -0.33201E-13         0.00000E+00
    0.18359E-07        -0.69278E-12         0.00000E+00
    0.18366E-07        -0.18201E-11         0.00000E+00
    0.18374E-07        -0.31502E-11         0.00000E+00
    0.18383E-07        -0.44571E-11         0.00000E+00
    0.18393E-07        -0.55601E-11         0.00000E+00
    0.18402E-07        -0.63284E-11         0.00000E+00
    0.18411E-07        -0.66808E-11         0.00000E+00
    0.18419E-07        -0.65854E-11         0.00000E+00
    0.18427E-07        -0.60565E-11         0.00000E+00
    0.18434E-07        -0.51505E-11         0.00000E+00
    0.18440E-07        -0.39602E-11         0.00000E+00
    0.18445E-07        -0.26081E-11         0.00000E+00
    0.18448E-07        -0.12369E-11         0.00000E+00
    0.18449E-07        -0.56538E-12         0.00000E+00
    0.18254E-07        -0.16753E-11         0.00000E+00
    0.18256E-07        -0.32770E-11         0.00000E+00
    0.18261E-07        -0.63330E-11         0.00000E+00
    0.18268E-07        -0.90552E-11         0.00000E+00
    0.18276E-07        -0.11361E-10         0.00000E+00
    0.18285E-07        -0.13168E-10         0.00000E+00
    0.18294E-07        -0.14405E-10         0.00000E+00
    0.18304E-07        -0.15023E-10         0.00000E+00
    0.18312E-07        -0.14996E-10         0.00000E+00
    0.18321E-07        -0.14328E-10         0.00000E+00
    0.18328E-07        -0.13048E-10         0.00000E+00
    0.18335E-07        -0.11211E-10         0.00000E+00
    0.18341E-07        -0.88934E-11         0.00000E+00
    0.18345E-07        -0.61864E-11         0.00000E+00
    0.18348E-07        -0.31869E-11         0.00000E+00
    0.18349E-07        -0.16263E-11         0.00000E+00
    0.18177E-07        -0.33717E-11         0.00000E+00
    0.18179E-07        -0.63028E-11         0.00000E+00
    0.18184E-07        -0.11596E-10         0.00000E+00
    0.18190E-07        -0.15806E-10         0.00000E+00
    0.18198E-07        -0.19018E-10         0.00000E+00
    0.18206E-07        -0.21285E-10         0.00000E+00
    0.18215E-07        -0.22640E-10         0.00000E+00
    0.18223E-07        -0.23109E-10         0.00000E+00
    0.18231E-07        -0.22722E-10         0.00000E+00
    0.18239E-07        -0.21514E-10         0.00000E+00
    0.18246E-07        -0.19532E-10         0.00000E+00
    0.18252E-07        -0.16828E-10         0.00000E+00
    0.18257E-07        -0.13463E-10         0.00000E+00
    0.18262E-07        -0.94982E-11         0.00000E+00
    0.18264E-07        -0.49898E-11         0.00000E+00
    0.18265E-07        -0.26060E-11         0.00000E+00
    0.18119E-07        -0.48752E-11         0.00000E+00
    0.18120E-07        -0.89843E-11         0.00000E+00
    0.18125E-07        -0.16258E-10         0.00000E+00
    0.18131E-07        -0.21778E-10         0.00000E+00
    0.18138E-07        -0.25782E-10         0.00000E+00
    0.18145E-07        -0.28443E-10         0.00000E+00
    0.18153E-07        -0.29888E-10         0.00000E+00
    0.18160E-07        -0.30215E-10         0.00000E+00
    0.18167E-07        -0.29502E-10         0.00000E+00
    0.18174E-07        -0.27815E-10         0.00000E+00
    0.18180E-07        -0.25213E-10         0.00000E+00
    0.18186E-07        -0.21747E-10         0.00000E+00
    0.18190E-07        -0.17464E-10         0.00000E+00
    0.18194E-07        -0.12399E-10         0.00000E+00
    0.18196E-07        -0.65686E-11         0.00000E+00
    0.18197E-07        -0.34634E-11         0.00000E+00
    0.18078E-07        -0.61274E-11         0.00000E+00
    0.18080E-07        -0.11215E-10         0.00000E+00
    0.18083E-07        -0.20126E-10         0.00000E+00
    0.18089E-07        -0.26719E-10         0.00000E+00
    0.18094E-07        -0.31359E-10         0.00000E+00
    0.18101E-07        -0.34323E-10         0.00000E+00
    0.18107E-07        -0.35822E-10         0.00000E+00
    0.18113E-07        -0.36015E-10         0.00000E+00
    0.18119E-07        -0.35023E-10         0.00000E+00
    0.18124E-07        -0.32938E-10         0.00000E+00
    0.18129E-07        -0.29830E-10         0.00000E+00
    0.18134E-07        -0.25747E-10         0.00000E+00
    0.18138E-07        -0.20721E-10         0.00000E+00
    0.18141E-07        -0.14763E-10         0.00000E+00
    0.18143E-07        -0.78569E-11         0.00000E+00
    0.18144E-07        -0.41638E-11         0.00000E+00
    0.18053E-07        -0.70824E-11         0.00000E+00
    0.18054E-07        -0.12909E-10         0.00000E+00
    0.18058E-07        -0.23048E-10         0.00000E+00
    0.18062E-07        -0.30421E-10         0.00000E+00
    0.18066E-07        -0.35503E-10         0.00000E+00
    0.18071E-07        -0.38657E-10         0.00000E+00
    0.18076E-07        -0.40164E-10         0.00000E+00
    0.18080E-07        -0.40233E-10         0.00000E+00
    0.18085E-07        -0.39020E-10         0.00000E+00
    0.18089E-07        -0.36638E-10         0.00000E+00
    0.18093E-07        -0.33163E-10         0.00000E+00
    0.18096E-07        -0.28639E-10         0.00000E+00
    0.18099E-07        -0.23085E-10         0.00000E+00
    0.18101E-07        -0.16486E-10         0.00000E+00
    0.18103E-07        -0.88009E-11         0.00000E+00
    0.18104E-07        -0.46790E-11         0.00000E+00
    0.18041E-07        -0.77064E-11         0.00000E+00
    0.18042E-07        -0.14003E-10         0.00000E+00
    0.18045E-07        -0.24902E-10         0.00000E+00
    0.18048E-07        -0.32722E-10         0.00000E+00
    0.18051E-07        -0.38021E-10         0.00000E+00
    0.18055E-07        -0.41232E-10         0.00000E+00
    0.18058E-07        -0.42691E-10         0.00000E+00
    0.18060E-07        -0.42646E-10         0.00000E+00
    0.18063E-07        -0.41279E-10         0.00000E+00
    0.18066E-07        -0.38715E-10         0.00000E+00
    0.18068E-07        -0.35034E-10         0.00000E+00
    0.18070E-07        -0.30275E-10         0.00000E+00
    0.18072E-07        -0.24438E-10         0.00000E+00
    0.18073E-07        -0.17490E-10         0.00000E+00
    0.18074E-07        -0.93595E-11         0.00000E+00
    0.18075E-07        -0.49881E-11         0.00000E+00
    0.18040E-07        -0.79765E-11         0.00000E+00
    0.18041E-07        -0.14452E-10         0.00000E+00
    0.18043E-07        -0.25603E-10         0.00000E+00
    0.18045E-07        -0.33500E-10         0.00000E+00
    0.18047E-07        -0.38764E-10         0.00000E+00
    0.18049E-07        -0.41884E-10         0.00000E+00
    0.18050E-07        -0.43232E-10         0.00000E+00
    0.18051E-07        -0.43084E-10         0.00000E+00
    0.18052E-07        -0.41635E-10         0.00000E+00
    0.18052E-07        -0.39018E-10         0.00000E+00
    0.18053E-07        -0.35310E-10         0.00000E+00
    0.18054E-07        -0.30540E-10         0.00000E+00
    0.18054E-07        -0.24694E-10         0.00000E+00
    0.18055E-07        -0.17714E-10         0.00000E+00
    0.18056E-07        -0.95039E-11         0.00000E+00
    0.18056E-07        -0.50773E-11         0.00000E+00
    0.18048E-07        -0.78784E-11         0.00000E+00
    0.18049E-07        -0.14225E-10         0.00000E+00
    0.18051E-07        -0.25087E-10         0.00000E+00
    0.18052E-07        -0.32660E-10         0.00000E+00
    0.18052E-07        -0.37619E-10         0.00000E+00
    0.18051E-07        -0.40488E-10         0.00000E+00
    0.18051E-07        -0.41662E-10         0.00000E+00
    0.18050E-07        -0.41423E-10         0.00000E+00
    0.18049E-07        -0.39972E-10         0.00000E+00
    0.18047E-07        -0.37438E-10         0.00000E+00
    0.18046E-07        -0.33891E-10         0.00000E+00
    0.18046E-07        -0.29352E-10         0.00000E+00
    0.18045E-07        -0.23788E-10         0.00000E+00
    0.18045E-07        -0.17118E-10         0.00000E+00
    0.18045E-07        -0.92155E-11         0.00000E+00
    0.18045E-07        -0.49386E-11         0.00000E+00
    0.18063E-07        -0.74001E-11         0.00000E+00
    0.18064E-07        -0.13294E-10         0.00000E+00
    0.18064E-07        -0.23295E-10         0.00000E+00
    0.18064E-07        -0.30122E-10         0.00000E+00
    0.18063E-07        -0.34493E-10         0.00000E+00
    0.18060E-07        -0.36953E-10         0.00000E+00
    0.18058E-07        -0.37891E-10         0.00000E+00
    0.18055E-07        -0.37583E-10         0.00000E+00
    0.18052E-07        -0.36214E-10         0.00000E+00
    0.18049E-07        -0.33903E-10         0.00000E+00
    0.18046E-07        -0.30713E-10         0.00000E+00
    0.18043E-07        -0.26653E-10         0.00000E+00
    0.18042E-07        -0.21675E-10         0.00000E+00
    0.18041E-07        -0.15672E-10         0.00000E+00
    0.18040E-07        -0.84823E-11         0.00000E+00
    0.18040E-07        -0.45678E-11         0.00000E+00
    0.18082E-07        -0.65222E-11         0.00000E+00
    0.18083E-07        -0.11618E-10         0.00000E+00
    0.18083E-07        -0.20147E-10         0.00000E+00
    0.18081E-07        -0.25785E-10         0.00000E+00
    0.18078E-07        -0.29292E-10         0.00000E+00
    0.18074E-07        -0.31200E-10         0.00000E+00
    0.18069E-07        -0.31862E-10         0.00000E+00
    0.18064E-07        -0.31517E-10         0.00000E+00
    0.18059E-07        -0.30322E-10         0.00000E+00
    0.18054E-07        -0.28378E-10         0.00000E+00
    0.18049E-07        -0.25735E-10         0.00000E+00
    0.18045E-07        -0.22398E-10         0.00000E+00
    0.18042E-07        -0.18311E-10         0.00000E+00
    0.18040E-07        -0.13344E-10         0.00000E+00
    0.18039E-07        -0.72908E-11         0.00000E+00
    0.18039E-07        -0.39616E-11         0.00000E+00
    0.18104E-07        -0.51926E-11         0.00000E+00
    0.18105E-07        -0.91006E-11         0.00000E+00
    0.18104E-07        -0.15483E-10         0.00000E+00
    0.18101E-07        -0.19490E-10         0.00000E+00
    0.18096E-07        -0.21902E-10         0.00000E+00
    0.18090E-07        -0.23163E-10         0.00000E+00
    0.18083E-07        -0.23541E-10         0.00000E+00
    0.18076E-07        -0.23212E-10         0.00000E+00
    0.18068E-07        -0.22293E-10         0.00000E+00
    0.18061E-07        -0.20857E-10         0.00000E+00
    0.18055E-07        -0.18942E-10         0.00000E+00
    0.18049E-07        -0.16547E-10         0.00000E+00
    0.18045E-07        -0.13633E-10         0.00000E+00
    0.18042E-07        -0.10075E-10         0.00000E+00
    0.18041E-07        -0.56070E-11         0.00000E+00
    0.18041E-07        -0.31025E-11         0.00000E+00
    0.18129E-07        -0.32638E-11         0.00000E+00
    0.18129E-07        -0.54808E-11         0.00000E+00
    0.18128E-07        -0.89572E-11         0.00000E+00
    0.18122E-07        -0.10990E-10         0.00000E+00
    0.18115E-07        -0.12188E-10         0.00000E+00
    0.18107E-07        -0.12781E-10         0.00000E+00
    0.18098E-07        -0.12915E-10         0.00000E+00
    0.18088E-07        -0.12687E-10         0.00000E+00
    0.18079E-07        -0.12160E-10         0.00000E+00
    0.18070E-07        -0.11374E-10         0.00000E+00
    0.18062E-07        -0.10346E-10         0.00000E+00
    0.18055E-07        -0.90788E-11         0.00000E+00
    0.18049E-07        -0.75494E-11         0.00000E+00
    0.18045E-07        -0.57124E-11         0.00000E+00
    0.18043E-07        -0.33382E-11         0.00000E+00
    0.18042E-07        -0.19664E-11         0.00000E+00
    0.18142E-07         0.00000E+00         0.00000E+00
    0.18142E-07         0.00000E+00         0.00000E+00
    0.18139E-07        -0.49661E-22         0.00000E+00
    0.18133E-07         0.10051E-25         0.00000E+00
    0.18125E-07         0.53810E-22         0.00000E+00
    0.18115E-07         0.00000E+00         0.00000E+00
    0.18105E-07         0.00000E+00         0.00000E+00
    0.18094E-07        -0.49700E-22         0.00000E+00
    0.18084E-07        -0.49700E-22         0.00000E+00
    0.18074E-07         0.49711E-22         0.00000E+00
    0.18065E-07         0.53853E-22         0.00000E+00
    0.18057E-07        -0.53864E-22         0.00000E+00
    0.18051E-07        -0.41387E-23         0.00000E+00
    0.18046E-07         0.53870E-22         0.00000E+00
    0.18043E-07         0.82885E-23         0.00000E+00
    0.18043E-07         0.00000E+00         0.00000E+00
CELL_DATA        450
TENSORS stressef double 
    0.43768E+08         0.25143E+06         0.00000E+00
    0.25143E+06         0.29740E+08         0.00000E+00
    0.00000E+00         0.00000E+00         0.26958E+08
 
    0.43733E+08        -0.34673E+04         0.00000E+00
   -0.34673E+04         0.29668E+08         0.00000E+00
    0.00000E+00         0.00000E+00         0.24071E+08
 
    0.42070E+08        -0.37542E+06         0.00000E+00
   -0.37542E+06         0.29078E+08         0.00000E+00
    0.00000E+00         0.00000E+00         0.20329E+08
 
    0.39809E+08        -0.44736E+06         0.00000E+00
   -0.44736E+06         0.28060E+08         0.00000E+00
    0.00000E+00         0.00000E+00         0.16466E+08
 
    0.37280E+08        -0.65279E+06         0.00000E+00
   -0.65279E+06         0.26925E+08         0.00000E+00
    0.00000E+00         0.00000E+00         0.13252E+08
 
    0.33785E+08        -0.65557E+06         0.00000E+00
   -0.65557E+06         0.25709E+08         0.00000E+00
    0.00000E+00         0.00000E+00         0.11899E+08
 
    0.31052E+08        -0.48453E+06         0.00000E+00
   -0.48453E+06         0.24657E+08         0.00000E+00
    0.00000E+00         0.00000E+00         0.11142E+08
 
    0.28742E+08        -0.34790E+06         0.00000E+00
   -0.34790E+06         0.23863E+08         0.00000E+00
    0.00000E+00         0.00000E+00         0.10521E+08
 
    0.26604E+08        -0.22864E+06         0.00000E+00
   -0.22864E+06         0.23306E+08         0.00000E+00
    0.00000E+00         0.00000E+00         0.99821E+07
 
    0.24506E+08        -0.11417E+06         0.00000E+00
   -0.11417E+06         0.22975E+08         0.00000E+00
    0.00000E+00         0.00000E+00         0.94963E+07
 
    0.22344E+08         0.53871E+04         0.00000E+00
    0.53871E+04         0.22874E+08         0.00000E+00
    0.00000E+00         0.00000E+00         0.90436E+07
 
    0.20007E+08         0.14060E+06         0.00000E+00
    0.14060E+06         0.23025E+08         0.00000E+00
    0.00000E+00         0.00000E+00         0.86064E+07
 
    0.17342E+08         0.30959E+06         0.00000E+00
    0.30959E+06         0.23478E+08         0.00000E+00
    0.00000E+00         0.00000E+00         0.81640E+07
 
    0.14089E+08         0.55059E+06         0.00000E+00
    0.55059E+06         0.24339E+08         0.00000E+00
    0.00000E+00         0.00000E+00         0.76856E+07
 
    0.95043E+07         0.11104E+07         0.00000E+00
    0.11104E+07         0.25918E+08         0.00000E+00
    0.00000E+00         0.00000E+00         0.70844E+07
 
    0.41161E+08         0.37592E+06         0.00000E+00
    0.37592E+06         0.24851E+08         0.00000E+00
    0.00000E+00         0.00000E+00         0.19047E+08
 
    0.40276E+08        -0.73248E+04         0.00000E+00
   -0.73248E+04         0.24772E+08         0.00000E+00
    0.00000E+00         0.00000E+00         0.16685E+08
 
    0.38782E+08        -0.70439E+06         0.00000E+00
   -0.70439E+06         0.24811E+08         0.00000E+00
    0.00000E+00         0.00000E+00         0.14094E+08
 
    0.36771E+08        -0.11854E+07         0.00000E+00
   -0.11854E+07         0.24732E+08         0.00000E+00
    0.00000E+00         0.00000E+00         0.12329E+08
 
    0.33961E+08        -0.15234E+07         0.00000E+00
   -0.15234E+07         0.24304E+08         0.00000E+00
    0.00000E+00         0.00000E+00         0.11653E+08
 
    0.31091E+08        -0.15696E+07         0.00000E+00
   -0.15696E+07         0.23735E+08         0.00000E+00
    0.00000E+00         0.00000E+00         0.10965E+08
 
    0.28398E+08        -0.12794E+07         0.00000E+00
   -0.12794E+07         0.23102E+08         0.00000E+00
    0.00000E+00         0.00000E+00         0.10300E+08
 
    0.26072E+08        -0.95201E+06         0.00000E+00
   -0.95201E+06         0.22534E+08         0.00000E+00
    0.00000E+00         0.00000E+00         0.97212E+07
 
    0.23926E+08        -0.63146E+06         0.00000E+00
   -0.63146E+06         0.22110E+08         0.00000E+00
    0.00000E+00         0.00000E+00         0.92071E+07
 
    0.21834E+08        -0.30642E+06         0.00000E+00
   -0.30642E+06         0.21863E+08         0.00000E+00
    0.00000E+00         0.00000E+00         0.87395E+07
 
    0.19695E+08         0.42519E+05         0.00000E+00
    0.42519E+05         0.21820E+08         0.00000E+00
    0.00000E+00         0.00000E+00         0.83032E+07
 
    0.17406E+08         0.44339E+06         0.00000E+00
    0.44339E+06         0.22015E+08         0.00000E+00
    0.00000E+00         0.00000E+00         0.78842E+07
 
    0.14840E+08         0.94626E+06         0.00000E+00
    0.94626E+06         0.22500E+08         0.00000E+00
    0.00000E+00         0.00000E+00         0.74680E+07
 
    0.11809E+08         0.16714E+07         0.00000E+00
    0.16714E+07         0.23371E+08         0.00000E+00
    0.00000E+00         0.00000E+00         0.70359E+07
 
    0.82736E+07         0.30119E+07         0.00000E+00
    0.30119E+07         0.24757E+08         0.00000E+00
    0.00000E+00         0.00000E+00         0.66061E+07
 
    0.38434E+08        -0.54474E+05         0.00000E+00
   -0.54474E+05         0.22289E+08         0.00000E+00
    0.00000E+00         0.00000E+00         0.13313E+08
 
    0.36912E+08        -0.27396E+06         0.00000E+00
   -0.27396E+06         0.22092E+08         0.00000E+00
    0.00000E+00         0.00000E+00         0.11801E+08
 
    0.35197E+08        -0.82594E+06         0.00000E+00
   -0.82594E+06         0.21942E+08         0.00000E+00
    0.00000E+00         0.00000E+00         0.11428E+08
 
    0.33286E+08        -0.14989E+07         0.00000E+00
   -0.14989E+07         0.21762E+08         0.00000E+00
    0.00000E+00         0.00000E+00         0.11010E+08
 
    0.30866E+08        -0.18847E+07         0.00000E+00
   -0.18847E+07         0.21533E+08         0.00000E+00
    0.00000E+00         0.00000E+00         0.10480E+08
 
    0.28309E+08        -0.19490E+07         0.00000E+00
   -0.19490E+07         0.21301E+08         0.00000E+00
    0.00000E+00         0.00000E+00         0.99220E+07
 
    0.25836E+08        -0.17277E+07         0.00000E+00
   -0.17277E+07         0.21037E+08         0.00000E+00
    0.00000E+00         0.00000E+00         0.93746E+07
 
    0.23554E+08        -0.13450E+07         0.00000E+00
   -0.13450E+07         0.20745E+08         0.00000E+00
    0.00000E+00         0.00000E+00         0.88600E+07
 
    0.21431E+08        -0.89824E+06         0.00000E+00
   -0.89824E+06         0.20511E+08         0.00000E+00
    0.00000E+00         0.00000E+00         0.83884E+07
 
    0.19371E+08        -0.40570E+06         0.00000E+00
   -0.40570E+06         0.20396E+08         0.00000E+00
    0.00000E+00         0.00000E+00         0.79534E+07
 
    0.17287E+08         0.14631E+06         0.00000E+00
    0.14631E+06         0.20446E+08         0.00000E+00
    0.00000E+00         0.00000E+00         0.75467E+07
 
    0.15097E+08         0.79347E+06         0.00000E+00
    0.79347E+06         0.20704E+08         0.00000E+00
    0.00000E+00         0.00000E+00         0.71600E+07
 
    0.12714E+08         0.16055E+07         0.00000E+00
    0.16055E+07         0.21217E+08         0.00000E+00
    0.00000E+00         0.00000E+00         0.67861E+07
 
    0.10093E+08         0.27281E+07         0.00000E+00
    0.27281E+07         0.22035E+08         0.00000E+00
    0.00000E+00         0.00000E+00         0.64258E+07
 
    0.73255E+07         0.43877E+07         0.00000E+00
    0.43877E+07         0.23121E+08         0.00000E+00
    0.00000E+00         0.00000E+00         0.60892E+07
 
    0.35363E+08        -0.21647E+06         0.00000E+00
   -0.21647E+06         0.19811E+08         0.00000E+00
    0.00000E+00         0.00000E+00         0.11035E+08
 
    0.33494E+08        -0.66311E+06         0.00000E+00
   -0.66311E+06         0.19623E+08         0.00000E+00
    0.00000E+00         0.00000E+00         0.10623E+08
 
    0.31739E+08        -0.11394E+07         0.00000E+00
   -0.11394E+07         0.19278E+08         0.00000E+00
    0.00000E+00         0.00000E+00         0.10203E+08
 
    0.29878E+08        -0.16638E+07         0.00000E+00
   -0.16638E+07         0.19039E+08         0.00000E+00
    0.00000E+00         0.00000E+00         0.97834E+07
 
    0.27761E+08        -0.20229E+07         0.00000E+00
   -0.20229E+07         0.18926E+08         0.00000E+00
    0.00000E+00         0.00000E+00         0.93373E+07
 
    0.25501E+08        -0.20962E+07         0.00000E+00
   -0.20962E+07         0.18845E+08         0.00000E+00
    0.00000E+00         0.00000E+00         0.88693E+07
 
    0.23259E+08        -0.19072E+07         0.00000E+00
   -0.19072E+07         0.18760E+08         0.00000E+00
    0.00000E+00         0.00000E+00         0.84038E+07
 
    0.21113E+08        -0.15221E+07         0.00000E+00
   -0.15221E+07         0.18670E+08         0.00000E+00
    0.00000E+00         0.00000E+00         0.79566E+07
 
    0.19070E+08        -0.10058E+07         0.00000E+00
   -0.10058E+07         0.18607E+08         0.00000E+00
    0.00000E+00         0.00000E+00         0.75354E+07
 
    0.17084E+08        -0.39013E+06         0.00000E+00
   -0.39013E+06         0.18625E+08         0.00000E+00
    0.00000E+00         0.00000E+00         0.71418E+07
 
    0.15096E+08         0.32915E+06         0.00000E+00
    0.32915E+06         0.18770E+08         0.00000E+00
    0.00000E+00         0.00000E+00         0.67732E+07
 
    0.13051E+08         0.11855E+07         0.00000E+00
    0.11855E+07         0.19082E+08         0.00000E+00
    0.00000E+00         0.00000E+00         0.64264E+07
 
    0.10910E+08         0.22464E+07         0.00000E+00
    0.22464E+07         0.19593E+08         0.00000E+00
    0.00000E+00         0.00000E+00         0.61006E+07
 
    0.86864E+07         0.36176E+07         0.00000E+00
    0.36176E+07         0.20308E+08         0.00000E+00
    0.00000E+00         0.00000E+00         0.57989E+07
 
    0.64835E+07         0.54223E+07         0.00000E+00
    0.54223E+07         0.21172E+08         0.00000E+00
    0.00000E+00         0.00000E+00         0.55311E+07
 
    0.31957E+08        -0.32799E+06         0.00000E+00
   -0.32799E+06         0.16957E+08         0.00000E+00
    0.00000E+00         0.00000E+00         0.97827E+07
 
    0.30121E+08        -0.89907E+06         0.00000E+00
   -0.89907E+06         0.16810E+08         0.00000E+00
    0.00000E+00         0.00000E+00         0.93862E+07
 
    0.28383E+08        -0.13965E+07         0.00000E+00
   -0.13965E+07         0.16623E+08         0.00000E+00
    0.00000E+00         0.00000E+00         0.90011E+07
 
    0.26598E+08        -0.18119E+07         0.00000E+00
   -0.18119E+07         0.16463E+08         0.00000E+00
    0.00000E+00         0.00000E+00         0.86121E+07
 
    0.24696E+08        -0.20806E+07         0.00000E+00
   -0.20806E+07         0.16386E+08         0.00000E+00
    0.00000E+00         0.00000E+00         0.82163E+07
 
    0.22700E+08        -0.21270E+07         0.00000E+00
   -0.21270E+07         0.16374E+08         0.00000E+00
    0.00000E+00         0.00000E+00         0.78147E+07
 
    0.20687E+08        -0.19366E+07         0.00000E+00
   -0.19366E+07         0.16389E+08         0.00000E+00
    0.00000E+00         0.00000E+00         0.74151E+07
 
    0.18716E+08        -0.15404E+07         0.00000E+00
   -0.15404E+07         0.16420E+08         0.00000E+00
    0.00000E+00         0.00000E+00         0.70271E+07
 
    0.16805E+08        -0.97721E+06         0.00000E+00
   -0.97721E+06         0.16481E+08         0.00000E+00
    0.00000E+00         0.00000E+00         0.66573E+07
 
    0.14939E+08        -0.27090E+06         0.00000E+00
   -0.27090E+06         0.16604E+08         0.00000E+00
    0.00000E+00         0.00000E+00         0.63085E+07
 
    0.13087E+08         0.57852E+06         0.00000E+00
    0.57852E+06         0.16822E+08         0.00000E+00
    0.00000E+00         0.00000E+00         0.59817E+07
 
    0.11221E+08         0.15966E+07         0.00000E+00
    0.15966E+07         0.17166E+08         0.00000E+00
    0.00000E+00         0.00000E+00         0.56774E+07
 
    0.93331E+07         0.28330E+07         0.00000E+00
    0.28330E+07         0.17652E+08         0.00000E+00
    0.00000E+00         0.00000E+00         0.53969E+07
 
    0.74563E+07         0.43546E+07         0.00000E+00
    0.43546E+07         0.18267E+08         0.00000E+00
    0.00000E+00         0.00000E+00         0.51447E+07
 
    0.56790E+07         0.62257E+07         0.00000E+00
    0.62257E+07         0.18963E+08         0.00000E+00
    0.00000E+00         0.00000E+00         0.49283E+07
 
    0.28413E+08        -0.39821E+06         0.00000E+00
   -0.39821E+06         0.14118E+08         0.00000E+00
    0.00000E+00         0.00000E+00         0.85062E+07
 
    0.26716E+08        -0.10431E+07         0.00000E+00
   -0.10431E+07         0.14041E+08         0.00000E+00
    0.00000E+00         0.00000E+00         0.81514E+07
 
    0.25081E+08        -0.15401E+07         0.00000E+00
   -0.15401E+07         0.13937E+08         0.00000E+00
    0.00000E+00         0.00000E+00         0.78037E+07
 
    0.23427E+08        -0.19008E+07         0.00000E+00
   -0.19008E+07         0.13861E+08         0.00000E+00
    0.00000E+00         0.00000E+00         0.74574E+07
 
    0.21711E+08        -0.20973E+07         0.00000E+00
   -0.20973E+07         0.13838E+08         0.00000E+00
    0.00000E+00         0.00000E+00         0.71096E+07
 
    0.19938E+08        -0.20953E+07         0.00000E+00
   -0.20953E+07         0.13870E+08         0.00000E+00
    0.00000E+00         0.00000E+00         0.67617E+07
 
    0.18144E+08        -0.18794E+07         0.00000E+00
   -0.18794E+07         0.13944E+08         0.00000E+00
    0.00000E+00         0.00000E+00         0.64175E+07
 
    0.16365E+08        -0.14588E+07         0.00000E+00
   -0.14588E+07         0.14048E+08         0.00000E+00
    0.00000E+00         0.00000E+00         0.60825E+07
 
    0.14619E+08        -0.85315E+06         0.00000E+00
   -0.85315E+06         0.14187E+08         0.00000E+00
    0.00000E+00         0.00000E+00         0.57613E+07
 
    0.12909E+08        -0.76794E+05         0.00000E+00
   -0.76794E+05         0.14378E+08         0.00000E+00
    0.00000E+00         0.00000E+00         0.54573E+07
 
    0.11222E+08         0.87008E+06         0.00000E+00
    0.87008E+06         0.14641E+08         0.00000E+00
    0.00000E+00         0.00000E+00         0.51727E+07
 
    0.95533E+07         0.20042E+07         0.00000E+00
    0.20042E+07         0.14995E+08         0.00000E+00
    0.00000E+00         0.00000E+00         0.49096E+07
 
    0.79105E+07         0.33568E+07         0.00000E+00
    0.33568E+07         0.15443E+08         0.00000E+00
    0.00000E+00         0.00000E+00         0.46708E+07
 
    0.63306E+07         0.49659E+07         0.00000E+00
    0.49659E+07         0.15971E+08         0.00000E+00
    0.00000E+00         0.00000E+00         0.44603E+07
 
    0.48842E+07         0.68615E+07         0.00000E+00
    0.68615E+07         0.16536E+08         0.00000E+00
    0.00000E+00         0.00000E+00         0.42841E+07
 
    0.24804E+08        -0.43013E+06         0.00000E+00
   -0.43013E+06         0.11297E+08         0.00000E+00
    0.00000E+00         0.00000E+00         0.72202E+07
 
    0.23306E+08        -0.11131E+07         0.00000E+00
   -0.11131E+07         0.11268E+08         0.00000E+00
    0.00000E+00         0.00000E+00         0.69149E+07
 
    0.21828E+08        -0.16053E+07         0.00000E+00
   -0.16053E+07         0.11234E+08         0.00000E+00
    0.00000E+00         0.00000E+00         0.66123E+07
 
    0.20334E+08        -0.19272E+07         0.00000E+00
   -0.19272E+07         0.11220E+08         0.00000E+00
    0.00000E+00         0.00000E+00         0.63108E+07
 
    0.18803E+08        -0.20718E+07         0.00000E+00
   -0.20718E+07         0.11246E+08         0.00000E+00
    0.00000E+00         0.00000E+00         0.60097E+07
 
    0.17235E+08        -0.20230E+07         0.00000E+00
   -0.20230E+07         0.11317E+08         0.00000E+00
    0.00000E+00         0.00000E+00         0.57104E+07
 
    0.15649E+08        -0.17713E+07         0.00000E+00
   -0.17713E+07         0.11428E+08         0.00000E+00
    0.00000E+00         0.00000E+00         0.54155E+07
 
    0.14067E+08        -0.13180E+07         0.00000E+00
   -0.13180E+07         0.11575E+08         0.00000E+00
    0.00000E+00         0.00000E+00         0.51284E+07
 
    0.12506E+08        -0.67161E+06         0.00000E+00
   -0.67161E+06         0.11758E+08         0.00000E+00
    0.00000E+00         0.00000E+00         0.48527E+07
 
    0.10973E+08         0.16066E+06         0.00000E+00
    0.16066E+06         0.11985E+08         0.00000E+00
    0.00000E+00         0.00000E+00         0.45915E+07
 
    0.94702E+07         0.11788E+07         0.00000E+00
    0.11788E+07         0.12267E+08         0.00000E+00
    0.00000E+00         0.00000E+00         0.43475E+07
 
    0.80043E+07         0.23923E+07         0.00000E+00
    0.23923E+07         0.12612E+08         0.00000E+00
    0.00000E+00         0.00000E+00         0.41232E+07
 
    0.65916E+07         0.38180E+07         0.00000E+00
    0.38180E+07         0.13017E+08         0.00000E+00
    0.00000E+00         0.00000E+00         0.39218E+07
 
    0.52673E+07         0.54743E+07         0.00000E+00
    0.54743E+07         0.13467E+08         0.00000E+00
    0.00000E+00         0.00000E+00         0.37469E+07
 
    0.40863E+07         0.73709E+07         0.00000E+00
    0.73709E+07         0.13930E+08         0.00000E+00
    0.00000E+00         0.00000E+00         0.36032E+07
 
    0.21185E+08        -0.43660E+06         0.00000E+00
   -0.43660E+06         0.84934E+07         0.00000E+00
    0.00000E+00         0.00000E+00         0.59357E+07
 
    0.19911E+08        -0.11288E+07         0.00000E+00
   -0.11288E+07         0.84986E+07         0.00000E+00
    0.00000E+00         0.00000E+00         0.56819E+07
 
    0.18620E+08        -0.16113E+07         0.00000E+00
   -0.16113E+07         0.85120E+07         0.00000E+00
    0.00000E+00         0.00000E+00         0.54264E+07
 
    0.17306E+08        -0.19043E+07         0.00000E+00
   -0.19043E+07         0.85453E+07         0.00000E+00
    0.00000E+00         0.00000E+00         0.51703E+07
 
    0.15964E+08        -0.20095E+07         0.00000E+00
   -0.20095E+07         0.86095E+07         0.00000E+00
    0.00000E+00         0.00000E+00         0.49146E+07
 
    0.14595E+08        -0.19209E+07         0.00000E+00
   -0.19209E+07         0.87094E+07         0.00000E+00
    0.00000E+00         0.00000E+00         0.46608E+07
 
    0.13211E+08        -0.16332E+07         0.00000E+00
   -0.16332E+07         0.88446E+07         0.00000E+00
    0.00000E+00         0.00000E+00         0.44111E+07
 
    0.11828E+08        -0.11457E+07         0.00000E+00
   -0.11457E+07         0.90133E+07         0.00000E+00
    0.00000E+00         0.00000E+00         0.41682E+07
 
    0.10459E+08        -0.46185E+06         0.00000E+00
   -0.46185E+06         0.92157E+07         0.00000E+00
    0.00000E+00         0.00000E+00         0.39349E+07
 
    0.91149E+07         0.41494E+06         0.00000E+00
    0.41494E+06         0.94551E+07         0.00000E+00
    0.00000E+00         0.00000E+00         0.37140E+07
 
    0.78049E+07         0.14843E+07         0.00000E+00
    0.14843E+07         0.97353E+07         0.00000E+00
    0.00000E+00         0.00000E+00         0.35080E+07
 
    0.65409E+07         0.27501E+07         0.00000E+00
    0.27501E+07         0.10058E+08         0.00000E+00
    0.00000E+00         0.00000E+00         0.33197E+07
 
    0.53428E+07         0.42191E+07         0.00000E+00
    0.42191E+07         0.10417E+08         0.00000E+00
    0.00000E+00         0.00000E+00         0.31519E+07
 
    0.42415E+07         0.58968E+07         0.00000E+00
    0.58968E+07         0.10798E+08         0.00000E+00
    0.00000E+00         0.00000E+00         0.30079E+07
 
    0.32800E+07         0.77810E+07         0.00000E+00
    0.77810E+07         0.11176E+08         0.00000E+00
    0.00000E+00         0.00000E+00         0.28912E+07
 
    0.17594E+08        -0.42758E+06         0.00000E+00
   -0.42758E+06         0.57122E+07         0.00000E+00
    0.00000E+00         0.00000E+00         0.46612E+07
 
    0.16547E+08        -0.11087E+07         0.00000E+00
   -0.11087E+07         0.57376E+07         0.00000E+00
    0.00000E+00         0.00000E+00         0.44569E+07
 
    0.15457E+08        -0.15766E+07         0.00000E+00
   -0.15766E+07         0.57816E+07         0.00000E+00
    0.00000E+00         0.00000E+00         0.42478E+07
 
    0.14336E+08        -0.18458E+07         0.00000E+00
   -0.18458E+07         0.58459E+07         0.00000E+00
    0.00000E+00         0.00000E+00         0.40363E+07
 
    0.13186E+08        -0.19206E+07         0.00000E+00
   -0.19206E+07         0.59353E+07         0.00000E+00
    0.00000E+00         0.00000E+00         0.38243E+07
 
    0.12014E+08        -0.17994E+07         0.00000E+00
   -0.17994E+07         0.60531E+07         0.00000E+00
    0.00000E+00         0.00000E+00         0.36135E+07
 
    0.10831E+08        -0.14799E+07         0.00000E+00
   -0.14799E+07         0.62000E+07         0.00000E+00
    0.00000E+00         0.00000E+00         0.34061E+07
 
    0.96463E+07        -0.96126E+06         0.00000E+00
   -0.96126E+06         0.63758E+07         0.00000E+00
    0.00000E+00         0.00000E+00         0.32044E+07
 
    0.84733E+07        -0.24514E+06         0.00000E+00
   -0.24514E+06         0.65803E+07         0.00000E+00
    0.00000E+00         0.00000E+00         0.30107E+07
 
    0.73230E+07         0.66625E+06         0.00000E+00
    0.66625E+06         0.68140E+07         0.00000E+00
    0.00000E+00         0.00000E+00         0.28274E+07
 
    0.62072E+07         0.17715E+07         0.00000E+00
    0.17715E+07         0.70774E+07         0.00000E+00
    0.00000E+00         0.00000E+00         0.26569E+07
 
    0.51402E+07         0.30703E+07         0.00000E+00
    0.30703E+07         0.73680E+07         0.00000E+00
    0.00000E+00         0.00000E+00         0.25016E+07
 
    0.41418E+07         0.45626E+07         0.00000E+00
    0.45626E+07         0.76790E+07         0.00000E+00
    0.00000E+00         0.00000E+00         0.23642E+07
 
    0.32386E+07         0.62457E+07         0.00000E+00
    0.62457E+07         0.79974E+07         0.00000E+00
    0.00000E+00         0.00000E+00         0.22472E+07
 
    0.24637E+07         0.81100E+07         0.00000E+00
    0.81100E+07         0.83038E+07         0.00000E+00
    0.00000E+00         0.00000E+00         0.21535E+07
 
    0.14053E+08        -0.41019E+06         0.00000E+00
   -0.41019E+06         0.29556E+07         0.00000E+00
    0.00000E+00         0.00000E+00         0.34016E+07
 
    0.13226E+08        -0.10681E+07         0.00000E+00
   -0.10681E+07         0.29912E+07         0.00000E+00
    0.00000E+00         0.00000E+00         0.32434E+07
 
    0.12341E+08        -0.15174E+07         0.00000E+00
   -0.15174E+07         0.30512E+07         0.00000E+00
    0.00000E+00         0.00000E+00         0.30784E+07
 
    0.11416E+08        -0.17659E+07         0.00000E+00
   -0.17659E+07         0.31318E+07         0.00000E+00
    0.00000E+00         0.00000E+00         0.29096E+07
 
    0.10463E+08        -0.18166E+07         0.00000E+00
   -0.18166E+07         0.32335E+07         0.00000E+00
    0.00000E+00         0.00000E+00         0.27393E+07
 
    0.94896E+07        -0.16695E+07         0.00000E+00
   -0.16695E+07         0.33576E+07         0.00000E+00
    0.00000E+00         0.00000E+00         0.25694E+07
 
    0.85049E+07        -0.13236E+07         0.00000E+00
   -0.13236E+07         0.35049E+07         0.00000E+00
    0.00000E+00         0.00000E+00         0.24020E+07
 
    0.75191E+07        -0.77894E+06         0.00000E+00
   -0.77894E+06         0.36755E+07         0.00000E+00
    0.00000E+00         0.00000E+00         0.22389E+07
 
    0.65426E+07        -0.36785E+05         0.00000E+00
   -0.36785E+05         0.38689E+07         0.00000E+00
    0.00000E+00         0.00000E+00         0.20823E+07
 
    0.55865E+07         0.90049E+06         0.00000E+00
    0.90049E+06         0.40844E+07         0.00000E+00
    0.00000E+00         0.00000E+00         0.19342E+07
 
    0.46630E+07         0.20300E+07         0.00000E+00
    0.20300E+07         0.43204E+07         0.00000E+00
    0.00000E+00         0.00000E+00         0.17967E+07
 
    0.37864E+07         0.33484E+07         0.00000E+00
    0.33484E+07         0.45730E+07         0.00000E+00
    0.00000E+00         0.00000E+00         0.16719E+07
 
    0.29746E+07         0.48509E+07         0.00000E+00
    0.48509E+07         0.48351E+07         0.00000E+00
    0.00000E+00         0.00000E+00         0.15619E+07
 
    0.22499E+07         0.65295E+07         0.00000E+00
    0.65295E+07         0.50954E+07         0.00000E+00
    0.00000E+00         0.00000E+00         0.14691E+07
 
    0.16380E+07         0.83707E+07         0.00000E+00
    0.83707E+07         0.53391E+07         0.00000E+00
    0.00000E+00         0.00000E+00         0.13954E+07
 
    0.10573E+08        -0.38946E+06         0.00000E+00
   -0.38946E+06         0.22478E+06         0.00000E+00
    0.00000E+00         0.00000E+00         0.21596E+07
 
    0.99535E+07        -0.10186E+07         0.00000E+00
   -0.10186E+07         0.26317E+06         0.00000E+00
    0.00000E+00         0.00000E+00         0.20433E+07
 
    0.92705E+07        -0.14476E+07         0.00000E+00
   -0.14476E+07         0.32774E+06         0.00000E+00
    0.00000E+00         0.00000E+00         0.19197E+07
 
    0.85448E+07        -0.16776E+07         0.00000E+00
   -0.16776E+07         0.41193E+06         0.00000E+00
    0.00000E+00         0.00000E+00         0.17913E+07
 
    0.77896E+07        -0.17091E+07         0.00000E+00
   -0.17091E+07         0.51381E+06         0.00000E+00
    0.00000E+00         0.00000E+00         0.16607E+07
 
    0.70148E+07        -0.15417E+07         0.00000E+00
   -0.15417E+07         0.63333E+06         0.00000E+00
    0.00000E+00         0.00000E+00         0.15296E+07
 
    0.62290E+07        -0.11751E+07         0.00000E+00
   -0.11751E+07         0.77074E+06         0.00000E+00
    0.00000E+00         0.00000E+00         0.13999E+07
 
    0.54411E+07        -0.60993E+06         0.00000E+00
   -0.60993E+06         0.92594E+06         0.00000E+00
    0.00000E+00         0.00000E+00         0.12734E+07
 
    0.46604E+07         0.15209E+06         0.00000E+00
    0.15209E+06         0.10983E+07         0.00000E+00
    0.00000E+00         0.00000E+00         0.11517E+07
 
    0.38969E+07         0.11078E+07         0.00000E+00
    0.11078E+07         0.12864E+07         0.00000E+00
    0.00000E+00         0.00000E+00         0.10367E+07
 
    0.31619E+07         0.22529E+07         0.00000E+00
    0.22529E+07         0.14879E+07         0.00000E+00
    0.00000E+00         0.00000E+00         0.92997E+06
 
    0.24685E+07         0.35816E+07         0.00000E+00
    0.35816E+07         0.16984E+07         0.00000E+00
    0.00000E+00         0.00000E+00         0.83338E+06
 
    0.18322E+07         0.50860E+07         0.00000E+00
    0.50860E+07         0.19112E+07         0.00000E+00
    0.00000E+00         0.00000E+00         0.74869E+06
 
    0.12710E+07         0.67547E+07         0.00000E+00
    0.67547E+07         0.21171E+07         0.00000E+00
    0.00000E+00         0.00000E+00         0.67762E+06
 
    0.80478E+06         0.85720E+07         0.00000E+00
    0.85720E+07         0.23046E+07         0.00000E+00
    0.00000E+00         0.00000E+00         0.62187E+06
 
    0.71580E+07        -0.36893E+06         0.00000E+00
   -0.36893E+06        -0.24798E+07         0.00000E+00
    0.00000E+00         0.00000E+00         0.93565E+06
 
    0.67324E+07        -0.96908E+06         0.00000E+00
   -0.96908E+06        -0.24440E+07         0.00000E+00
    0.00000E+00         0.00000E+00         0.85768E+06
 
    0.62457E+07        -0.13783E+07         0.00000E+00
   -0.13783E+07        -0.23839E+07         0.00000E+00
    0.00000E+00         0.00000E+00         0.77236E+06
 
    0.57174E+07        -0.15923E+07         0.00000E+00
   -0.15923E+07        -0.23065E+07         0.00000E+00
    0.00000E+00         0.00000E+00         0.68217E+06
 
    0.51604E+07        -0.16085E+07         0.00000E+00
   -0.16085E+07        -0.22147E+07         0.00000E+00
    0.00000E+00         0.00000E+00         0.58915E+06
 
    0.45844E+07        -0.14257E+07         0.00000E+00
   -0.14257E+07        -0.21094E+07         0.00000E+00
    0.00000E+00         0.00000E+00         0.49500E+06
 
    0.39973E+07        -0.10435E+07         0.00000E+00
   -0.10435E+07        -0.19909E+07         0.00000E+00
    0.00000E+00         0.00000E+00         0.40128E+06
 
    0.34065E+07        -0.46301E+06         0.00000E+00
   -0.46301E+06        -0.18593E+07         0.00000E+00
    0.00000E+00         0.00000E+00         0.30944E+06
 
    0.28202E+07         0.31330E+06         0.00000E+00
    0.31330E+06        -0.17157E+07         0.00000E+00
    0.00000E+00         0.00000E+00         0.22089E+06
 
    0.22468E+07         0.12814E+07         0.00000E+00
    0.12814E+07        -0.15615E+07         0.00000E+00
    0.00000E+00         0.00000E+00         0.13705E+06
 
    0.16961E+07         0.24357E+07         0.00000E+00
    0.24357E+07        -0.13995E+07         0.00000E+00
    0.00000E+00         0.00000E+00         0.59322E+05
 
    0.11793E+07         0.37684E+07         0.00000E+00
    0.37684E+07        -0.12337E+07         0.00000E+00
    0.00000E+00         0.00000E+00        -0.10889E+05
 
    0.70898E+06         0.52696E+07         0.00000E+00
    0.52696E+07        -0.10699E+07         0.00000E+00
    0.00000E+00         0.00000E+00        -0.72189E+05
 
    0.29957E+06         0.69258E+07         0.00000E+00
    0.69258E+07        -0.91570E+06         0.00000E+00
    0.00000E+00         0.00000E+00        -0.12323E+06
 
   -0.33759E+05         0.87200E+07         0.00000E+00
    0.87200E+07        -0.77993E+06         0.00000E+00
    0.00000E+00         0.00000E+00        -0.16274E+06
 
    0.38041E+07        -0.35118E+06         0.00000E+00
   -0.35118E+06        -0.51585E+07         0.00000E+00
    0.00000E+00         0.00000E+00        -0.27086E+06
 
    0.35601E+07        -0.92589E+06         0.00000E+00
   -0.92589E+06        -0.51294E+07         0.00000E+00
    0.00000E+00         0.00000E+00        -0.31386E+06
 
    0.32634E+07        -0.13181E+07         0.00000E+00
   -0.13181E+07        -0.50805E+07         0.00000E+00
    0.00000E+00         0.00000E+00        -0.36343E+06
 
    0.29299E+07        -0.15191E+07         0.00000E+00
   -0.15191E+07        -0.50180E+07         0.00000E+00
    0.00000E+00         0.00000E+00        -0.41761E+06
 
    0.25706E+07        -0.15238E+07         0.00000E+00
   -0.15238E+07        -0.49446E+07         0.00000E+00
    0.00000E+00         0.00000E+00        -0.47480E+06
 
    0.21933E+07        -0.13296E+07         0.00000E+00
   -0.13296E+07        -0.48615E+07         0.00000E+00
    0.00000E+00         0.00000E+00        -0.53364E+06
 
    0.18043E+07        -0.93624E+06         0.00000E+00
   -0.93624E+06        -0.47690E+07         0.00000E+00
    0.00000E+00         0.00000E+00        -0.59294E+06
 
    0.14098E+07        -0.34501E+06         0.00000E+00
   -0.34501E+06        -0.46677E+07         0.00000E+00
    0.00000E+00         0.00000E+00        -0.65158E+06
 
    0.10160E+07         0.44092E+06         0.00000E+00
    0.44092E+06        -0.45585E+07         0.00000E+00
    0.00000E+00         0.00000E+00        -0.70848E+06
 
    0.62997E+06         0.14166E+07         0.00000E+00
    0.14166E+07        -0.44429E+07         0.00000E+00
    0.00000E+00         0.00000E+00        -0.76258E+06
 
    0.25942E+06         0.25753E+07         0.00000E+00
    0.25753E+07        -0.43235E+07         0.00000E+00
    0.00000E+00         0.00000E+00        -0.81281E+06
 
   -0.86726E+05         0.39080E+07         0.00000E+00
    0.39080E+07        -0.42038E+07         0.00000E+00
    0.00000E+00         0.00000E+00        -0.85811E+06
 
   -0.39851E+06         0.54032E+07         0.00000E+00
    0.54032E+07        -0.40888E+07         0.00000E+00
    0.00000E+00         0.00000E+00        -0.89745E+06
 
   -0.66507E+06         0.70464E+07         0.00000E+00
    0.70464E+07        -0.39841E+07         0.00000E+00
    0.00000E+00         0.00000E+00        -0.92983E+06
 
   -0.87506E+06         0.88195E+07         0.00000E+00
    0.88195E+07        -0.38965E+07         0.00000E+00
    0.00000E+00         0.00000E+00        -0.95432E+06
 
    0.50358E+06        -0.33798E+06         0.00000E+00
   -0.33798E+06        -0.78125E+07         0.00000E+00
    0.00000E+00         0.00000E+00        -0.14618E+07
 
    0.43093E+06        -0.89379E+06         0.00000E+00
   -0.89379E+06        -0.77929E+07         0.00000E+00
    0.00000E+00         0.00000E+00        -0.14724E+07
 
    0.31873E+06        -0.12736E+07         0.00000E+00
   -0.12736E+07        -0.77602E+07         0.00000E+00
    0.00000E+00         0.00000E+00        -0.14883E+07
 
    0.17770E+06        -0.14653E+07         0.00000E+00
   -0.14653E+07        -0.77185E+07         0.00000E+00
    0.00000E+00         0.00000E+00        -0.15082E+07
 
    0.15073E+05        -0.14619E+07         0.00000E+00
   -0.14619E+07        -0.76698E+07         0.00000E+00
    0.00000E+00         0.00000E+00        -0.15309E+07
 
   -0.16397E+06        -0.12600E+07         0.00000E+00
   -0.12600E+07        -0.76148E+07         0.00000E+00
    0.00000E+00         0.00000E+00        -0.15558E+07
 
   -0.35520E+06        -0.85909E+06         0.00000E+00
   -0.85909E+06        -0.75539E+07         0.00000E+00
    0.00000E+00         0.00000E+00        -0.15818E+07
 
   -0.55451E+06        -0.26088E+06         0.00000E+00
   -0.26088E+06        -0.74875E+07         0.00000E+00
    0.00000E+00         0.00000E+00        -0.16084E+07
 
   -0.75741E+06         0.53086E+06         0.00000E+00
    0.53086E+06        -0.74165E+07         0.00000E+00
    0.00000E+00         0.00000E+00        -0.16348E+07
 
   -0.95883E+06         0.15105E+07         0.00000E+00
    0.15105E+07        -0.73424E+07         0.00000E+00
    0.00000E+00         0.00000E+00        -0.16603E+07
 
   -0.11529E+07         0.26702E+07         0.00000E+00
    0.26702E+07        -0.72675E+07         0.00000E+00
    0.00000E+00         0.00000E+00        -0.16841E+07
 
   -0.13332E+07         0.40003E+07         0.00000E+00
    0.40003E+07        -0.71948E+07         0.00000E+00
    0.00000E+00         0.00000E+00        -0.17056E+07
 
   -0.14924E+07         0.54884E+07         0.00000E+00
    0.54884E+07        -0.71278E+07         0.00000E+00
    0.00000E+00         0.00000E+00        -0.17241E+07
 
   -0.16228E+07         0.71190E+07         0.00000E+00
    0.71190E+07        -0.70710E+07         0.00000E+00
    0.00000E+00         0.00000E+00        -0.17388E+07
 
   -0.17165E+07         0.88737E+07         0.00000E+00
    0.88737E+07        -0.70291E+07         0.00000E+00
    0.00000E+00         0.00000E+00        -0.17491E+07
 
   -0.27550E+07        -0.33059E+06         0.00000E+00
   -0.33059E+06        -0.10444E+08         0.00000E+00
    0.00000E+00         0.00000E+00        -0.26397E+07
 
   -0.26632E+07        -0.87607E+06         0.00000E+00
   -0.87607E+06        -0.10435E+08         0.00000E+00
    0.00000E+00         0.00000E+00        -0.26197E+07
 
   -0.25946E+07        -0.12492E+07         0.00000E+00
   -0.12492E+07        -0.10422E+08         0.00000E+00
    0.00000E+00         0.00000E+00        -0.26033E+07
 
   -0.25448E+07        -0.14359E+07         0.00000E+00
   -0.14359E+07        -0.10405E+08         0.00000E+00
    0.00000E+00         0.00000E+00        -0.25900E+07
 
   -0.25113E+07        -0.14279E+07         0.00000E+00
   -0.14279E+07        -0.10385E+08         0.00000E+00
    0.00000E+00         0.00000E+00        -0.25794E+07
 
   -0.24923E+07        -0.12214E+07         0.00000E+00
   -0.12214E+07        -0.10363E+08         0.00000E+00
    0.00000E+00         0.00000E+00        -0.25710E+07
 
   -0.24864E+07        -0.81596E+06         0.00000E+00
   -0.81596E+06        -0.10337E+08         0.00000E+00
    0.00000E+00         0.00000E+00        -0.25646E+07
 
   -0.24915E+07        -0.21384E+06         0.00000E+00
   -0.21384E+06        -0.10308E+08         0.00000E+00
    0.00000E+00         0.00000E+00        -0.25599E+07
 
   -0.25052E+07         0.58067E+06         0.00000E+00
    0.58067E+06        -0.10277E+08         0.00000E+00
    0.00000E+00         0.00000E+00        -0.25565E+07
 
   -0.25243E+07         0.15613E+07         0.00000E+00
    0.15613E+07        -0.10246E+08         0.00000E+00
    0.00000E+00         0.00000E+00        -0.25541E+07
 
   -0.25450E+07         0.27197E+07         0.00000E+00
    0.27197E+07        -0.10217E+08         0.00000E+00
    0.00000E+00         0.00000E+00        -0.25523E+07
 
   -0.25632E+07         0.40457E+07         0.00000E+00
    0.40457E+07        -0.10191E+08         0.00000E+00
    0.00000E+00         0.00000E+00        -0.25508E+07
 
   -0.25742E+07         0.55261E+07         0.00000E+00
    0.55261E+07        -0.10171E+08         0.00000E+00
    0.00000E+00         0.00000E+00        -0.25491E+07
 
   -0.25732E+07         0.71455E+07         0.00000E+00
    0.71455E+07        -0.10161E+08         0.00000E+00
    0.00000E+00         0.00000E+00        -0.25468E+07
 
   -0.25555E+07         0.88851E+07         0.00000E+00
    0.88851E+07        -0.10163E+08         0.00000E+00
    0.00000E+00         0.00000E+00        -0.25437E+07
 
   -0.59853E+07        -0.32978E+06         0.00000E+00
   -0.32978E+06        -0.13054E+08         0.00000E+00
    0.00000E+00         0.00000E+00        -0.38078E+07
 
   -0.57320E+07        -0.87479E+06         0.00000E+00
   -0.87479E+06        -0.13058E+08         0.00000E+00
    0.00000E+00         0.00000E+00        -0.37580E+07
 
   -0.54840E+07        -0.12479E+07         0.00000E+00
   -0.12479E+07        -0.13066E+08         0.00000E+00
    0.00000E+00         0.00000E+00        -0.37100E+07
 
   -0.52436E+07        -0.14340E+07         0.00000E+00
   -0.14340E+07        -0.13076E+08         0.00000E+00
    0.00000E+00         0.00000E+00        -0.36640E+07
 
   -0.50138E+07        -0.14246E+07         0.00000E+00
   -0.14246E+07        -0.13088E+08         0.00000E+00
    0.00000E+00         0.00000E+00        -0.36203E+07
 
   -0.47968E+07        -0.12162E+07         0.00000E+00
   -0.12162E+07        -0.13099E+08         0.00000E+00
    0.00000E+00         0.00000E+00        -0.35791E+07
 
   -0.45940E+07        -0.80880E+06         0.00000E+00
   -0.80880E+06        -0.13109E+08         0.00000E+00
    0.00000E+00         0.00000E+00        -0.35406E+07
 
   -0.44059E+07        -0.20527E+06         0.00000E+00
   -0.20527E+06        -0.13119E+08         0.00000E+00
    0.00000E+00         0.00000E+00        -0.35049E+07
 
   -0.42320E+07         0.58950E+06         0.00000E+00
    0.58950E+06        -0.13129E+08         0.00000E+00
    0.00000E+00         0.00000E+00        -0.34722E+07
 
   -0.40708E+07         0.15688E+07         0.00000E+00
    0.15688E+07        -0.13141E+08         0.00000E+00
    0.00000E+00         0.00000E+00        -0.34423E+07
 
   -0.39206E+07         0.27240E+07         0.00000E+00
    0.27240E+07        -0.13156E+08         0.00000E+00
    0.00000E+00         0.00000E+00        -0.34153E+07
 
   -0.37793E+07         0.40446E+07         0.00000E+00
    0.40446E+07        -0.13177E+08         0.00000E+00
    0.00000E+00         0.00000E+00        -0.33912E+07
 
   -0.36449E+07         0.55176E+07         0.00000E+00
    0.55176E+07        -0.13204E+08         0.00000E+00
    0.00000E+00         0.00000E+00        -0.33697E+07
 
   -0.35156E+07         0.71275E+07         0.00000E+00
    0.71275E+07        -0.13239E+08         0.00000E+00
    0.00000E+00         0.00000E+00        -0.33509E+07
 
   -0.33895E+07         0.88554E+07         0.00000E+00
    0.88554E+07        -0.13284E+08         0.00000E+00
    0.00000E+00         0.00000E+00        -0.33346E+07
 
   -0.92023E+07        -0.33597E+06         0.00000E+00
   -0.33597E+06        -0.15646E+08         0.00000E+00
    0.00000E+00         0.00000E+00        -0.49696E+07
 
   -0.87866E+07        -0.89099E+06         0.00000E+00
   -0.89099E+06        -0.15663E+08         0.00000E+00
    0.00000E+00         0.00000E+00        -0.48899E+07
 
   -0.83574E+07        -0.12708E+07         0.00000E+00
   -0.12708E+07        -0.15693E+08         0.00000E+00
    0.00000E+00         0.00000E+00        -0.48101E+07
 
   -0.79249E+07        -0.14607E+07         0.00000E+00
   -0.14607E+07        -0.15731E+08         0.00000E+00
    0.00000E+00         0.00000E+00        -0.47311E+07
 
   -0.74976E+07        -0.14530E+07         0.00000E+00
   -0.14530E+07        -0.15773E+08         0.00000E+00
    0.00000E+00         0.00000E+00        -0.46542E+07
 
   -0.70820E+07        -0.12449E+07         0.00000E+00
   -0.12449E+07        -0.15818E+08         0.00000E+00
    0.00000E+00         0.00000E+00        -0.45799E+07
 
   -0.66827E+07        -0.83752E+06         0.00000E+00
   -0.83752E+06        -0.15863E+08         0.00000E+00
    0.00000E+00         0.00000E+00        -0.45092E+07
 
   -0.63024E+07        -0.23469E+06         0.00000E+00
   -0.23469E+06        -0.15910E+08         0.00000E+00
    0.00000E+00         0.00000E+00        -0.44426E+07
 
   -0.59423E+07         0.55810E+06         0.00000E+00
    0.55810E+06        -0.15960E+08         0.00000E+00
    0.00000E+00         0.00000E+00        -0.43804E+07
 
   -0.56026E+07         0.15338E+07         0.00000E+00
    0.15338E+07        -0.16013E+08         0.00000E+00
    0.00000E+00         0.00000E+00        -0.43232E+07
 
   -0.52831E+07         0.26838E+07         0.00000E+00
    0.26838E+07        -0.16072E+08         0.00000E+00
    0.00000E+00         0.00000E+00        -0.42711E+07
 
   -0.49840E+07         0.39980E+07         0.00000E+00
    0.39980E+07        -0.16138E+08         0.00000E+00
    0.00000E+00         0.00000E+00        -0.42244E+07
 
   -0.47057E+07         0.54637E+07         0.00000E+00
    0.54637E+07        -0.16211E+08         0.00000E+00
    0.00000E+00         0.00000E+00        -0.41833E+07
 
   -0.44493E+07         0.70657E+07         0.00000E+00
    0.70657E+07        -0.16291E+08         0.00000E+00
    0.00000E+00         0.00000E+00        -0.41480E+07
 
   -0.42162E+07         0.87856E+07         0.00000E+00
    0.87856E+07        -0.16377E+08         0.00000E+00
    0.00000E+00         0.00000E+00        -0.41187E+07
 
   -0.12422E+08        -0.34925E+06         0.00000E+00
   -0.34925E+06        -0.18222E+08         0.00000E+00
    0.00000E+00         0.00000E+00        -0.61287E+07
 
   -0.11838E+08        -0.92476E+06         0.00000E+00
   -0.92476E+06        -0.18252E+08         0.00000E+00
    0.00000E+00         0.00000E+00        -0.60179E+07
 
   -0.11223E+08        -0.13180E+07         0.00000E+00
   -0.13180E+07        -0.18303E+08         0.00000E+00
    0.00000E+00         0.00000E+00        -0.59052E+07
 
   -0.10595E+08        -0.15156E+07         0.00000E+00
   -0.15156E+07        -0.18367E+08         0.00000E+00
    0.00000E+00         0.00000E+00        -0.57924E+07
 
   -0.99674E+07        -0.15117E+07         0.00000E+00
   -0.15117E+07        -0.18439E+08         0.00000E+00
    0.00000E+00         0.00000E+00        -0.56813E+07
 
   -0.93524E+07        -0.13056E+07         0.00000E+00
   -0.13056E+07        -0.18514E+08         0.00000E+00
    0.00000E+00         0.00000E+00        -0.55734E+07
 
   -0.87569E+07        -0.89988E+06         0.00000E+00
   -0.89988E+06        -0.18592E+08         0.00000E+00
    0.00000E+00         0.00000E+00        -0.54698E+07
 
   -0.81855E+07        -0.29963E+06         0.00000E+00
   -0.29963E+06        -0.18673E+08         0.00000E+00
    0.00000E+00         0.00000E+00        -0.53717E+07
 
   -0.76408E+07         0.48890E+06         0.00000E+00
    0.48890E+06        -0.18758E+08         0.00000E+00
    0.00000E+00         0.00000E+00        -0.52799E+07
 
   -0.71242E+07         0.14585E+07         0.00000E+00
    0.14585E+07        -0.18850E+08         0.00000E+00
    0.00000E+00         0.00000E+00        -0.51949E+07
 
   -0.66369E+07         0.26011E+07         0.00000E+00
    0.26011E+07        -0.18950E+08         0.00000E+00
    0.00000E+00         0.00000E+00        -0.51174E+07
 
   -0.61806E+07         0.39071E+07         0.00000E+00
    0.39071E+07        -0.19059E+08         0.00000E+00
    0.00000E+00         0.00000E+00        -0.50480E+07
 
   -0.57583E+07         0.53650E+07         0.00000E+00
    0.53650E+07        -0.19177E+08         0.00000E+00
    0.00000E+00         0.00000E+00        -0.49871E+07
 
   -0.53741E+07         0.69605E+07         0.00000E+00
    0.69605E+07        -0.19302E+08         0.00000E+00
    0.00000E+00         0.00000E+00        -0.49351E+07
 
   -0.50330E+07         0.86757E+07         0.00000E+00
    0.86757E+07        -0.19431E+08         0.00000E+00
    0.00000E+00         0.00000E+00        -0.48927E+07
 
   -0.15659E+08        -0.36941E+06         0.00000E+00
   -0.36941E+06        -0.20785E+08         0.00000E+00
    0.00000E+00         0.00000E+00        -0.72887E+07
 
   -0.14897E+08        -0.97535E+06         0.00000E+00
   -0.97535E+06        -0.20827E+08         0.00000E+00
    0.00000E+00         0.00000E+00        -0.71448E+07
 
   -0.14088E+08        -0.13877E+07         0.00000E+00
   -0.13877E+07        -0.20898E+08         0.00000E+00
    0.00000E+00         0.00000E+00        -0.69971E+07
 
   -0.13258E+08        -0.15961E+07         0.00000E+00
   -0.15961E+07        -0.20986E+08         0.00000E+00
    0.00000E+00         0.00000E+00        -0.68487E+07
 
   -0.12427E+08        -0.15975E+07         0.00000E+00
   -0.15975E+07        -0.21082E+08         0.00000E+00
    0.00000E+00         0.00000E+00        -0.67019E+07
 
   -0.11612E+08        -0.13942E+07         0.00000E+00
   -0.13942E+07        -0.21183E+08         0.00000E+00
    0.00000E+00         0.00000E+00        -0.65590E+07
 
   -0.10821E+08        -0.99130E+06         0.00000E+00
   -0.99130E+06        -0.21288E+08         0.00000E+00
    0.00000E+00         0.00000E+00        -0.64217E+07
 
   -0.10060E+08        -0.39550E+06         0.00000E+00
   -0.39550E+06        -0.21397E+08         0.00000E+00
    0.00000E+00         0.00000E+00        -0.62913E+07
 
   -0.93328E+07         0.38613E+06         0.00000E+00
    0.38613E+06        -0.21512E+08         0.00000E+00
    0.00000E+00         0.00000E+00        -0.61690E+07
 
   -0.86411E+07         0.13465E+07         0.00000E+00
    0.13465E+07        -0.21638E+08         0.00000E+00
    0.00000E+00         0.00000E+00        -0.60558E+07
 
   -0.79867E+07         0.24782E+07         0.00000E+00
    0.24782E+07        -0.21775E+08         0.00000E+00
    0.00000E+00         0.00000E+00        -0.59524E+07
 
   -0.73729E+07         0.37733E+07         0.00000E+00
    0.37733E+07        -0.21925E+08         0.00000E+00
    0.00000E+00         0.00000E+00        -0.58597E+07
 
   -0.68049E+07         0.52220E+07         0.00000E+00
    0.52220E+07        -0.22087E+08         0.00000E+00
    0.00000E+00         0.00000E+00        -0.57784E+07
 
   -0.62902E+07         0.68115E+07         0.00000E+00
    0.68115E+07        -0.22256E+08         0.00000E+00
    0.00000E+00         0.00000E+00        -0.57093E+07
 
   -0.58380E+07         0.85250E+07         0.00000E+00
    0.85250E+07        -0.22429E+08         0.00000E+00
    0.00000E+00         0.00000E+00        -0.56533E+07
 
   -0.18929E+08        -0.39600E+06         0.00000E+00
   -0.39600E+06        -0.23337E+08         0.00000E+00
    0.00000E+00         0.00000E+00        -0.84532E+07
 
   -0.17974E+08        -0.10411E+07         0.00000E+00
   -0.10411E+07        -0.23390E+08         0.00000E+00
    0.00000E+00         0.00000E+00        -0.82728E+07
 
   -0.16959E+08        -0.14770E+07         0.00000E+00
   -0.14770E+07        -0.23478E+08         0.00000E+00
    0.00000E+00         0.00000E+00        -0.80873E+07
 
   -0.15919E+08        -0.16976E+07         0.00000E+00
   -0.16976E+07        -0.23584E+08         0.00000E+00
    0.00000E+00         0.00000E+00        -0.79006E+07
 
   -0.14881E+08        -0.17045E+07         0.00000E+00
   -0.17045E+07        -0.23700E+08         0.00000E+00
    0.00000E+00         0.00000E+00        -0.77161E+07
 
   -0.13863E+08        -0.15040E+07         0.00000E+00
   -0.15040E+07        -0.23819E+08         0.00000E+00
    0.00000E+00         0.00000E+00        -0.75364E+07
 
   -0.12878E+08        -0.11046E+07         0.00000E+00
   -0.11046E+07        -0.23941E+08         0.00000E+00
    0.00000E+00         0.00000E+00        -0.73638E+07
 
   -0.11931E+08        -0.51535E+06         0.00000E+00
   -0.51535E+06        -0.24070E+08         0.00000E+00
    0.00000E+00         0.00000E+00        -0.72000E+07
 
   -0.11024E+08         0.25596E+06         0.00000E+00
    0.25596E+06        -0.24208E+08         0.00000E+00
    0.00000E+00         0.00000E+00        -0.70464E+07
 
   -0.10160E+08         0.12026E+07         0.00000E+00
    0.12026E+07        -0.24360E+08         0.00000E+00
    0.00000E+00         0.00000E+00        -0.69040E+07
 
   -0.93389E+07         0.23186E+07         0.00000E+00
    0.23186E+07        -0.24531E+08         0.00000E+00
    0.00000E+00         0.00000E+00        -0.67739E+07
 
   -0.85663E+07         0.35984E+07         0.00000E+00
    0.35984E+07        -0.24719E+08         0.00000E+00
    0.00000E+00         0.00000E+00        -0.66571E+07
 
   -0.78491E+07         0.50347E+07         0.00000E+00
    0.50347E+07        -0.24924E+08         0.00000E+00
    0.00000E+00         0.00000E+00        -0.65546E+07
 
   -0.71987E+07         0.66174E+07         0.00000E+00
    0.66174E+07        -0.25139E+08         0.00000E+00
    0.00000E+00         0.00000E+00        -0.64675E+07
 
   -0.66290E+07         0.83316E+07         0.00000E+00
    0.83316E+07        -0.25357E+08         0.00000E+00
    0.00000E+00         0.00000E+00        -0.63972E+07
 
   -0.22245E+08        -0.42833E+06         0.00000E+00
   -0.42833E+06        -0.25882E+08         0.00000E+00
    0.00000E+00         0.00000E+00        -0.96254E+07
 
   -0.21076E+08        -0.11197E+07         0.00000E+00
   -0.11197E+07        -0.25944E+08         0.00000E+00
    0.00000E+00         0.00000E+00        -0.94040E+07
 
   -0.19840E+08        -0.15813E+07         0.00000E+00
   -0.15813E+07        -0.26044E+08         0.00000E+00
    0.00000E+00         0.00000E+00        -0.91767E+07
 
   -0.18580E+08        -0.18135E+07         0.00000E+00
   -0.18135E+07        -0.26162E+08         0.00000E+00
    0.00000E+00         0.00000E+00        -0.89484E+07
 
   -0.17329E+08        -0.18241E+07         0.00000E+00
   -0.18241E+07        -0.26287E+08         0.00000E+00
    0.00000E+00         0.00000E+00        -0.87233E+07
 
   -0.16109E+08        -0.16253E+07         0.00000E+00
   -0.16253E+07        -0.26414E+08         0.00000E+00
    0.00000E+00         0.00000E+00        -0.85046E+07
 
   -0.14933E+08        -0.12300E+07         0.00000E+00
   -0.12300E+07        -0.26543E+08         0.00000E+00
    0.00000E+00         0.00000E+00        -0.82950E+07
 
   -0.13803E+08        -0.64971E+06         0.00000E+00
   -0.64971E+06        -0.26679E+08         0.00000E+00
    0.00000E+00         0.00000E+00        -0.80964E+07
 
   -0.12722E+08         0.10669E+06         0.00000E+00
    0.10669E+06        -0.26830E+08         0.00000E+00
    0.00000E+00         0.00000E+00        -0.79102E+07
 
   -0.11688E+08         0.10333E+07         0.00000E+00
    0.10333E+07        -0.27001E+08         0.00000E+00
    0.00000E+00         0.00000E+00        -0.77377E+07
 
   -0.10702E+08         0.21265E+07         0.00000E+00
    0.21265E+07        -0.27197E+08         0.00000E+00
    0.00000E+00         0.00000E+00        -0.75798E+07
 
   -0.97681E+07         0.33839E+07         0.00000E+00
    0.33839E+07        -0.27421E+08         0.00000E+00
    0.00000E+00         0.00000E+00        -0.74378E+07
 
   -0.88963E+07         0.48024E+07         0.00000E+00
    0.48024E+07        -0.27668E+08         0.00000E+00
    0.00000E+00         0.00000E+00        -0.73129E+07
 
   -0.81016E+07         0.63757E+07         0.00000E+00
    0.63757E+07        -0.27932E+08         0.00000E+00
    0.00000E+00         0.00000E+00        -0.72066E+07
 
   -0.74044E+07         0.80919E+07         0.00000E+00
    0.80919E+07        -0.28199E+08         0.00000E+00
    0.00000E+00         0.00000E+00        -0.71206E+07
 
   -0.25618E+08        -0.46548E+06         0.00000E+00
   -0.46548E+06        -0.28422E+08         0.00000E+00
    0.00000E+00         0.00000E+00        -0.10808E+08
 
   -0.24209E+08        -0.12076E+07         0.00000E+00
   -0.12076E+07        -0.28490E+08         0.00000E+00
    0.00000E+00         0.00000E+00        -0.10540E+08
 
   -0.22732E+08        -0.16943E+07         0.00000E+00
   -0.16943E+07        -0.28596E+08         0.00000E+00
    0.00000E+00         0.00000E+00        -0.10266E+08
 
   -0.21240E+08        -0.19344E+07         0.00000E+00
   -0.19344E+07        -0.28717E+08         0.00000E+00
    0.00000E+00         0.00000E+00        -0.99915E+07
 
   -0.19773E+08        -0.19448E+07         0.00000E+00
   -0.19448E+07        -0.28839E+08         0.00000E+00
    0.00000E+00         0.00000E+00        -0.97224E+07
 
   -0.18352E+08        -0.17453E+07         0.00000E+00
   -0.17453E+07        -0.28959E+08         0.00000E+00
    0.00000E+00         0.00000E+00        -0.94622E+07
 
   -0.16988E+08        -0.13543E+07         0.00000E+00
   -0.13543E+07        -0.29080E+08         0.00000E+00
    0.00000E+00         0.00000E+00        -0.92136E+07
 
   -0.15684E+08        -0.78636E+06         0.00000E+00
   -0.78636E+06        -0.29210E+08         0.00000E+00
    0.00000E+00         0.00000E+00        -0.89787E+07
 
   -0.14434E+08        -0.51177E+05         0.00000E+00
   -0.51177E+05        -0.29360E+08         0.00000E+00
    0.00000E+00         0.00000E+00        -0.87588E+07
 
   -0.13236E+08         0.84670E+06         0.00000E+00
    0.84670E+06        -0.29539E+08         0.00000E+00
    0.00000E+00         0.00000E+00        -0.85550E+07
 
   -0.12086E+08         0.19069E+07         0.00000E+00
    0.19069E+07        -0.29755E+08         0.00000E+00
    0.00000E+00         0.00000E+00        -0.83682E+07
 
   -0.10988E+08         0.31317E+07         0.00000E+00
    0.31317E+07        -0.30010E+08         0.00000E+00
    0.00000E+00         0.00000E+00        -0.81996E+07
 
   -0.99542E+07         0.45236E+07         0.00000E+00
    0.45236E+07        -0.30300E+08         0.00000E+00
    0.00000E+00         0.00000E+00        -0.80508E+07
 
   -0.90030E+07         0.60822E+07         0.00000E+00
    0.60822E+07        -0.30615E+08         0.00000E+00
    0.00000E+00         0.00000E+00        -0.79235E+07
 
   -0.81629E+07         0.78002E+07         0.00000E+00
    0.78002E+07        -0.30937E+08         0.00000E+00
    0.00000E+00         0.00000E+00        -0.78201E+07
 
   -0.29057E+08        -0.50632E+06         0.00000E+00
   -0.50632E+06        -0.30958E+08         0.00000E+00
    0.00000E+00         0.00000E+00        -0.12003E+08
 
   -0.27376E+08        -0.13003E+07         0.00000E+00
   -0.13003E+07        -0.31029E+08         0.00000E+00
    0.00000E+00         0.00000E+00        -0.11681E+08
 
   -0.25634E+08        -0.18072E+07         0.00000E+00
   -0.18072E+07        -0.31134E+08         0.00000E+00
    0.00000E+00         0.00000E+00        -0.11354E+08
 
   -0.23897E+08        -0.20479E+07         0.00000E+00
   -0.20479E+07        -0.31245E+08         0.00000E+00
    0.00000E+00         0.00000E+00        -0.11028E+08
 
   -0.22209E+08        -0.20514E+07         0.00000E+00
   -0.20514E+07        -0.31349E+08         0.00000E+00
    0.00000E+00         0.00000E+00        -0.10711E+08
 
   -0.20591E+08        -0.18475E+07         0.00000E+00
   -0.18475E+07        -0.31443E+08         0.00000E+00
    0.00000E+00         0.00000E+00        -0.10407E+08
 
   -0.19050E+08        -0.14612E+07         0.00000E+00
   -0.14612E+07        -0.31537E+08         0.00000E+00
    0.00000E+00         0.00000E+00        -0.10117E+08
 
   -0.17580E+08        -0.91038E+06         0.00000E+00
   -0.91038E+06        -0.31644E+08         0.00000E+00
    0.00000E+00         0.00000E+00        -0.98448E+07
 
   -0.16173E+08        -0.20495E+06         0.00000E+00
   -0.20495E+06        -0.31778E+08         0.00000E+00
    0.00000E+00         0.00000E+00        -0.95902E+07
 
   -0.14817E+08         0.65251E+06         0.00000E+00
    0.65251E+06        -0.31953E+08         0.00000E+00
    0.00000E+00         0.00000E+00        -0.93540E+07
 
   -0.13506E+08         0.16658E+07         0.00000E+00
    0.16658E+07        -0.32179E+08         0.00000E+00
    0.00000E+00         0.00000E+00        -0.91371E+07
 
   -0.12241E+08         0.28435E+07         0.00000E+00
    0.28435E+07        -0.32461E+08         0.00000E+00
    0.00000E+00         0.00000E+00        -0.89404E+07
 
   -0.11034E+08         0.41957E+07         0.00000E+00
    0.41957E+07        -0.32795E+08         0.00000E+00
    0.00000E+00         0.00000E+00        -0.87657E+07
 
   -0.99090E+07         0.57305E+07         0.00000E+00
    0.57305E+07        -0.33167E+08         0.00000E+00
    0.00000E+00         0.00000E+00        -0.86151E+07
 
   -0.89041E+07         0.74480E+07         0.00000E+00
    0.74480E+07        -0.33554E+08         0.00000E+00
    0.00000E+00         0.00000E+00        -0.84917E+07
 
   -0.32569E+08        -0.54951E+06         0.00000E+00
   -0.54951E+06        -0.33493E+08         0.00000E+00
    0.00000E+00         0.00000E+00        -0.13212E+08
 
   -0.30572E+08        -0.13919E+07         0.00000E+00
   -0.13919E+07        -0.33562E+08         0.00000E+00
    0.00000E+00         0.00000E+00        -0.12827E+08
 
   -0.28537E+08        -0.19083E+07         0.00000E+00
   -0.19083E+07        -0.33656E+08         0.00000E+00
    0.00000E+00         0.00000E+00        -0.12439E+08
 
   -0.26542E+08        -0.21370E+07         0.00000E+00
   -0.21370E+07        -0.33740E+08         0.00000E+00
    0.00000E+00         0.00000E+00        -0.12056E+08
 
   -0.24633E+08        -0.21241E+07         0.00000E+00
   -0.21241E+07        -0.33803E+08         0.00000E+00
    0.00000E+00         0.00000E+00        -0.11687E+08
 
   -0.22827E+08        -0.19116E+07         0.00000E+00
   -0.19116E+07        -0.33850E+08         0.00000E+00
    0.00000E+00         0.00000E+00        -0.11335E+08
 
   -0.21122E+08        -0.15315E+07         0.00000E+00
   -0.15315E+07        -0.33896E+08         0.00000E+00
    0.00000E+00         0.00000E+00        -0.11003E+08
 
   -0.19503E+08        -0.10044E+07         0.00000E+00
   -0.10044E+07        -0.33959E+08         0.00000E+00
    0.00000E+00         0.00000E+00        -0.10692E+08
 
   -0.17951E+08        -0.34006E+06         0.00000E+00
   -0.34006E+06        -0.34060E+08         0.00000E+00
    0.00000E+00         0.00000E+00        -0.10402E+08
 
   -0.16448E+08         0.46184E+06         0.00000E+00
    0.46184E+06        -0.34218E+08         0.00000E+00
    0.00000E+00         0.00000E+00        -0.10133E+08
 
   -0.14981E+08         0.14101E+07         0.00000E+00
    0.14101E+07        -0.34445E+08         0.00000E+00
    0.00000E+00         0.00000E+00        -0.98850E+07
 
   -0.13545E+08         0.25208E+07         0.00000E+00
    0.25208E+07        -0.34749E+08         0.00000E+00
    0.00000E+00         0.00000E+00        -0.96587E+07
 
   -0.12151E+08         0.38146E+07         0.00000E+00
    0.38146E+07        -0.35127E+08         0.00000E+00
    0.00000E+00         0.00000E+00        -0.94556E+07
 
   -0.10829E+08         0.53114E+07         0.00000E+00
    0.53114E+07        -0.35564E+08         0.00000E+00
    0.00000E+00         0.00000E+00        -0.92787E+07
 
   -0.96287E+07         0.70228E+07         0.00000E+00
    0.70228E+07        -0.36029E+08         0.00000E+00
    0.00000E+00         0.00000E+00        -0.91316E+07
 
   -0.36153E+08        -0.59340E+06         0.00000E+00
   -0.59340E+06        -0.36027E+08         0.00000E+00
    0.00000E+00         0.00000E+00        -0.14436E+08
 
   -0.33789E+08        -0.14741E+07         0.00000E+00
   -0.14741E+07        -0.36090E+08         0.00000E+00
    0.00000E+00         0.00000E+00        -0.13976E+08
 
   -0.31428E+08        -0.19809E+07         0.00000E+00
   -0.19809E+07        -0.36156E+08         0.00000E+00
    0.00000E+00         0.00000E+00        -0.13517E+08
 
   -0.29163E+08        -0.21793E+07         0.00000E+00
   -0.21793E+07        -0.36189E+08         0.00000E+00
    0.00000E+00         0.00000E+00        -0.13071E+08
 
   -0.27039E+08        -0.21381E+07         0.00000E+00
   -0.21381E+07        -0.36185E+08         0.00000E+00
    0.00000E+00         0.00000E+00        -0.12645E+08
 
   -0.25061E+08        -0.19134E+07         0.00000E+00
   -0.19134E+07        -0.36157E+08         0.00000E+00
    0.00000E+00         0.00000E+00        -0.12244E+08
 
   -0.23211E+08        -0.15435E+07         0.00000E+00
   -0.15435E+07        -0.36130E+08         0.00000E+00
    0.00000E+00         0.00000E+00        -0.11868E+08
 
   -0.21463E+08        -0.10499E+07         0.00000E+00
   -0.10499E+07        -0.36130E+08         0.00000E+00
    0.00000E+00         0.00000E+00        -0.11518E+08
 
   -0.19785E+08        -0.44090E+06         0.00000E+00
   -0.44090E+06        -0.36181E+08         0.00000E+00
    0.00000E+00         0.00000E+00        -0.11193E+08
 
   -0.18149E+08         0.28695E+06         0.00000E+00
    0.28695E+06        -0.36306E+08         0.00000E+00
    0.00000E+00         0.00000E+00        -0.10891E+08
 
   -0.16533E+08         0.11476E+07         0.00000E+00
    0.11476E+07        -0.36523E+08         0.00000E+00
    0.00000E+00         0.00000E+00        -0.10611E+08
 
   -0.14924E+08         0.21657E+07         0.00000E+00
    0.21657E+07        -0.36843E+08         0.00000E+00
    0.00000E+00         0.00000E+00        -0.10353E+08
 
   -0.13328E+08         0.33747E+07         0.00000E+00
    0.33747E+07        -0.37268E+08         0.00000E+00
    0.00000E+00         0.00000E+00        -0.10119E+08
 
   -0.11779E+08         0.48119E+07         0.00000E+00
    0.48119E+07        -0.37780E+08         0.00000E+00
    0.00000E+00         0.00000E+00        -0.99119E+07
 
   -0.10339E+08         0.65067E+07         0.00000E+00
    0.65067E+07        -0.38341E+08         0.00000E+00
    0.00000E+00         0.00000E+00        -0.97362E+07
 
   -0.39804E+08        -0.63579E+06         0.00000E+00
   -0.63579E+06        -0.38563E+08         0.00000E+00
    0.00000E+00         0.00000E+00        -0.15673E+08
 
   -0.37005E+08        -0.15337E+07         0.00000E+00
   -0.15337E+07        -0.38608E+08         0.00000E+00
    0.00000E+00         0.00000E+00        -0.15123E+08
 
   -0.34282E+08        -0.20001E+07         0.00000E+00
   -0.20001E+07        -0.38623E+08         0.00000E+00
    0.00000E+00         0.00000E+00        -0.14581E+08
 
   -0.31745E+08        -0.21434E+07         0.00000E+00
   -0.21434E+07        -0.38571E+08         0.00000E+00
    0.00000E+00         0.00000E+00        -0.14063E+08
 
   -0.29423E+08        -0.20626E+07         0.00000E+00
   -0.20626E+07        -0.38464E+08         0.00000E+00
    0.00000E+00         0.00000E+00        -0.13577E+08
 
   -0.27297E+08        -0.18265E+07         0.00000E+00
   -0.18265E+07        -0.38331E+08         0.00000E+00
    0.00000E+00         0.00000E+00        -0.13126E+08
 
   -0.25329E+08        -0.14754E+07         0.00000E+00
   -0.14754E+07        -0.38208E+08         0.00000E+00
    0.00000E+00         0.00000E+00        -0.12707E+08
 
   -0.23475E+08        -0.10290E+07         0.00000E+00
   -0.10290E+07        -0.38125E+08         0.00000E+00
    0.00000E+00         0.00000E+00        -0.12320E+08
 
   -0.21693E+08        -0.49250E+06         0.00000E+00
   -0.49250E+06        -0.38111E+08         0.00000E+00
    0.00000E+00         0.00000E+00        -0.11961E+08
 
   -0.19943E+08         0.14046E+06         0.00000E+00
    0.14046E+06        -0.38190E+08         0.00000E+00
    0.00000E+00         0.00000E+00        -0.11627E+08
 
   -0.18190E+08         0.88782E+06         0.00000E+00
    0.88782E+06        -0.38385E+08         0.00000E+00
    0.00000E+00         0.00000E+00        -0.11315E+08
 
   -0.16409E+08         0.17816E+07         0.00000E+00
    0.17816E+07        -0.38714E+08         0.00000E+00
    0.00000E+00         0.00000E+00        -0.11025E+08
 
   -0.14596E+08         0.28700E+07         0.00000E+00
    0.28700E+07        -0.39186E+08         0.00000E+00
    0.00000E+00         0.00000E+00        -0.10756E+08
 
   -0.12781E+08         0.42146E+07         0.00000E+00
    0.42146E+07        -0.39786E+08         0.00000E+00
    0.00000E+00         0.00000E+00        -0.10513E+08
 
   -0.11043E+08         0.58740E+07         0.00000E+00
    0.58740E+07        -0.40469E+08         0.00000E+00
    0.00000E+00         0.00000E+00        -0.10302E+08
 
   -0.43510E+08        -0.67313E+06         0.00000E+00
   -0.67313E+06        -0.41099E+08         0.00000E+00
    0.00000E+00         0.00000E+00        -0.16922E+08
 
   -0.40183E+08        -0.15478E+07         0.00000E+00
   -0.15478E+07        -0.41109E+08         0.00000E+00
    0.00000E+00         0.00000E+00        -0.16258E+08
 
   -0.37068E+08        -0.19262E+07         0.00000E+00
   -0.19262E+07        -0.41030E+08         0.00000E+00
    0.00000E+00         0.00000E+00        -0.15619E+08
 
   -0.34272E+08        -0.19875E+07         0.00000E+00
   -0.19875E+07        -0.40843E+08         0.00000E+00
    0.00000E+00         0.00000E+00        -0.15023E+08
 
   -0.31784E+08        -0.18631E+07         0.00000E+00
   -0.18631E+07        -0.40592E+08         0.00000E+00
    0.00000E+00         0.00000E+00        -0.14475E+08
 
   -0.29545E+08        -0.16258E+07         0.00000E+00
   -0.16258E+07        -0.40326E+08         0.00000E+00
    0.00000E+00         0.00000E+00        -0.13974E+08
 
   -0.27490E+08        -0.13095E+07         0.00000E+00
   -0.13095E+07        -0.40088E+08         0.00000E+00
    0.00000E+00         0.00000E+00        -0.13516E+08
 
   -0.25558E+08        -0.92820E+06         0.00000E+00
   -0.92820E+06        -0.39911E+08         0.00000E+00
    0.00000E+00         0.00000E+00        -0.13094E+08
 
   -0.23696E+08        -0.48316E+06         0.00000E+00
   -0.48316E+06        -0.39823E+08         0.00000E+00
    0.00000E+00         0.00000E+00        -0.12704E+08
 
   -0.21853E+08         0.33810E+05         0.00000E+00
    0.33810E+05        -0.39847E+08         0.00000E+00
    0.00000E+00         0.00000E+00        -0.12340E+08
 
   -0.19982E+08         0.64177E+06         0.00000E+00
    0.64177E+06        -0.40009E+08         0.00000E+00
    0.00000E+00         0.00000E+00        -0.11998E+08
 
   -0.18041E+08         0.13756E+07         0.00000E+00
    0.13756E+07        -0.40335E+08         0.00000E+00
    0.00000E+00         0.00000E+00        -0.11675E+08
 
   -0.16000E+08         0.22963E+07         0.00000E+00
    0.22963E+07        -0.40848E+08         0.00000E+00
    0.00000E+00         0.00000E+00        -0.11369E+08
 
   -0.13872E+08         0.34972E+07         0.00000E+00
    0.34972E+07        -0.41548E+08         0.00000E+00
    0.00000E+00         0.00000E+00        -0.11084E+08
 
   -0.11750E+08         0.50875E+07         0.00000E+00
    0.50875E+07        -0.42388E+08         0.00000E+00
    0.00000E+00         0.00000E+00        -0.10828E+08
 
   -0.47234E+08        -0.69723E+06         0.00000E+00
   -0.69723E+06        -0.43633E+08         0.00000E+00
    0.00000E+00         0.00000E+00        -0.18173E+08
 
   -0.43259E+08        -0.14690E+07         0.00000E+00
   -0.14690E+07        -0.43565E+08         0.00000E+00
    0.00000E+00         0.00000E+00        -0.17365E+08
 
   -0.39744E+08        -0.16940E+07         0.00000E+00
   -0.16940E+07        -0.43313E+08         0.00000E+00
    0.00000E+00         0.00000E+00        -0.16611E+08
 
   -0.36738E+08        -0.16601E+07         0.00000E+00
   -0.16601E+07        -0.42924E+08         0.00000E+00
    0.00000E+00         0.00000E+00        -0.15932E+08
 
   -0.34136E+08        -0.15096E+07         0.00000E+00
   -0.15096E+07        -0.42492E+08         0.00000E+00
    0.00000E+00         0.00000E+00        -0.15326E+08
 
   -0.31825E+08        -0.12955E+07         0.00000E+00
   -0.12955E+07        -0.42079E+08         0.00000E+00
    0.00000E+00         0.00000E+00        -0.14781E+08
 
   -0.29714E+08        -0.10380E+07         0.00000E+00
   -0.10380E+07        -0.41723E+08         0.00000E+00
    0.00000E+00         0.00000E+00        -0.14288E+08
 
   -0.27731E+08        -0.74284E+06         0.00000E+00
   -0.74284E+06        -0.41453E+08         0.00000E+00
    0.00000E+00         0.00000E+00        -0.13837E+08
 
   -0.25814E+08        -0.40815E+06         0.00000E+00
   -0.40815E+06        -0.41290E+08         0.00000E+00
    0.00000E+00         0.00000E+00        -0.13421E+08
 
   -0.23903E+08        -0.25657E+05         0.00000E+00
   -0.25657E+05        -0.41257E+08         0.00000E+00
    0.00000E+00         0.00000E+00        -0.13032E+08
 
   -0.21939E+08         0.42107E+06         0.00000E+00
    0.42107E+06        -0.41379E+08         0.00000E+00
    0.00000E+00         0.00000E+00        -0.12664E+08
 
   -0.19861E+08         0.96260E+06         0.00000E+00
    0.96260E+06        -0.41687E+08         0.00000E+00
    0.00000E+00         0.00000E+00        -0.12310E+08
 
   -0.17599E+08         0.16584E+07         0.00000E+00
    0.16584E+07        -0.42222E+08         0.00000E+00
    0.00000E+00         0.00000E+00        -0.11964E+08
 
   -0.15115E+08         0.26351E+07         0.00000E+00
    0.26351E+07        -0.43027E+08         0.00000E+00
    0.00000E+00         0.00000E+00        -0.11629E+08
 
   -0.12488E+08         0.40909E+07         0.00000E+00
    0.40909E+07        -0.44070E+08         0.00000E+00
    0.00000E+00         0.00000E+00        -0.11312E+08
 
   -0.50895E+08        -0.67904E+06         0.00000E+00
   -0.67904E+06        -0.46147E+08         0.00000E+00
    0.00000E+00         0.00000E+00        -0.19408E+08
 
   -0.46131E+08        -0.11832E+07         0.00000E+00
   -0.11832E+07        -0.45873E+08         0.00000E+00
    0.00000E+00         0.00000E+00        -0.18401E+08
 
   -0.42294E+08        -0.12116E+07         0.00000E+00
   -0.12116E+07        -0.45312E+08         0.00000E+00
    0.00000E+00         0.00000E+00        -0.17521E+08
 
   -0.39172E+08        -0.11237E+07         0.00000E+00
   -0.11237E+07        -0.44678E+08         0.00000E+00
    0.00000E+00         0.00000E+00        -0.16770E+08
 
   -0.36513E+08        -0.99321E+06         0.00000E+00
   -0.99321E+06        -0.44066E+08         0.00000E+00
    0.00000E+00         0.00000E+00        -0.16116E+08
 
   -0.34166E+08        -0.83985E+06         0.00000E+00
   -0.83985E+06        -0.43519E+08         0.00000E+00
    0.00000E+00         0.00000E+00        -0.15537E+08
 
   -0.32026E+08        -0.66920E+06         0.00000E+00
   -0.66920E+06        -0.43063E+08         0.00000E+00
    0.00000E+00         0.00000E+00        -0.15018E+08
 
   -0.30014E+08        -0.48133E+06         0.00000E+00
   -0.48133E+06        -0.42715E+08         0.00000E+00
    0.00000E+00         0.00000E+00        -0.14546E+08
 
   -0.28063E+08        -0.27318E+06         0.00000E+00
   -0.27318E+06        -0.42491E+08         0.00000E+00
    0.00000E+00         0.00000E+00        -0.14111E+08
 
   -0.26108E+08        -0.38630E+05         0.00000E+00
   -0.38630E+05        -0.42410E+08         0.00000E+00
    0.00000E+00         0.00000E+00        -0.13704E+08
 
   -0.24082E+08         0.23307E+06         0.00000E+00
    0.23307E+06        -0.42494E+08         0.00000E+00
    0.00000E+00         0.00000E+00        -0.13315E+08
 
   -0.21906E+08         0.56182E+06         0.00000E+00
    0.56182E+06        -0.42775E+08         0.00000E+00
    0.00000E+00         0.00000E+00        -0.12936E+08
 
   -0.19475E+08         0.98845E+06         0.00000E+00
    0.98845E+06        -0.43304E+08         0.00000E+00
    0.00000E+00         0.00000E+00        -0.12556E+08
 
   -0.16624E+08         0.16165E+07         0.00000E+00
    0.16165E+07        -0.44165E+08         0.00000E+00
    0.00000E+00         0.00000E+00        -0.12158E+08
 
   -0.13317E+08         0.27891E+07         0.00000E+00
    0.27891E+07        -0.45478E+08         0.00000E+00
    0.00000E+00         0.00000E+00        -0.11759E+08
 
   -0.54253E+08        -0.42790E+06         0.00000E+00
   -0.42790E+06        -0.48414E+08         0.00000E+00
    0.00000E+00         0.00000E+00        -0.20533E+08
 
   -0.48728E+08        -0.48907E+06         0.00000E+00
   -0.48907E+06        -0.47631E+08         0.00000E+00
    0.00000E+00         0.00000E+00        -0.19272E+08
 
   -0.44794E+08        -0.44774E+06         0.00000E+00
   -0.44774E+06        -0.46756E+08         0.00000E+00
    0.00000E+00         0.00000E+00        -0.18310E+08
 
   -0.41636E+08        -0.40030E+06         0.00000E+00
   -0.40030E+06        -0.45936E+08         0.00000E+00
    0.00000E+00         0.00000E+00        -0.17514E+08
 
   -0.38959E+08        -0.34758E+06         0.00000E+00
   -0.34758E+06        -0.45206E+08         0.00000E+00
    0.00000E+00         0.00000E+00        -0.16833E+08
 
   -0.36600E+08        -0.29131E+06         0.00000E+00
   -0.29131E+06        -0.44578E+08         0.00000E+00
    0.00000E+00         0.00000E+00        -0.16236E+08
 
   -0.34448E+08        -0.23129E+06         0.00000E+00
   -0.23129E+06        -0.44064E+08         0.00000E+00
    0.00000E+00         0.00000E+00        -0.15702E+08
 
   -0.32423E+08        -0.16667E+06         0.00000E+00
   -0.16667E+06        -0.43672E+08         0.00000E+00
    0.00000E+00         0.00000E+00        -0.15219E+08
 
   -0.30455E+08        -0.96004E+05         0.00000E+00
   -0.96004E+05        -0.43414E+08         0.00000E+00
    0.00000E+00         0.00000E+00        -0.14774E+08
 
   -0.28478E+08        -0.17042E+05         0.00000E+00
   -0.17042E+05        -0.43304E+08         0.00000E+00
    0.00000E+00         0.00000E+00        -0.14356E+08
 
   -0.26421E+08         0.73912E+05         0.00000E+00
    0.73912E+05        -0.43364E+08         0.00000E+00
    0.00000E+00         0.00000E+00        -0.13957E+08
 
   -0.24195E+08         0.18347E+06         0.00000E+00
    0.18347E+06        -0.43623E+08         0.00000E+00
    0.00000E+00         0.00000E+00        -0.13564E+08
 
   -0.21671E+08         0.32600E+06         0.00000E+00
    0.32600E+06        -0.44134E+08         0.00000E+00
    0.00000E+00         0.00000E+00        -0.13161E+08
 
   -0.18621E+08         0.53416E+06         0.00000E+00
    0.53416E+06        -0.44994E+08         0.00000E+00
    0.00000E+00         0.00000E+00        -0.12723E+08
 
   -0.14392E+08         0.10233E+07         0.00000E+00
    0.10233E+07        -0.46479E+08         0.00000E+00
    0.00000E+00         0.00000E+00        -0.12174E+08
 
TENSORS stresstot double 
   -0.44784E+08         0.25143E+06         0.00000E+00
    0.25143E+06        -0.58812E+08         0.00000E+00
    0.00000E+00         0.00000E+00        -0.61594E+08
 
   -0.44818E+08        -0.34673E+04         0.00000E+00
   -0.34673E+04        -0.58883E+08         0.00000E+00
    0.00000E+00         0.00000E+00        -0.64480E+08
 
   -0.46481E+08        -0.37542E+06         0.00000E+00
   -0.37542E+06        -0.59472E+08         0.00000E+00
    0.00000E+00         0.00000E+00        -0.68222E+08
 
   -0.48741E+08        -0.44736E+06         0.00000E+00
   -0.44736E+06        -0.60490E+08         0.00000E+00
    0.00000E+00         0.00000E+00        -0.72084E+08
 
   -0.51270E+08        -0.65279E+06         0.00000E+00
   -0.65279E+06        -0.61625E+08         0.00000E+00
    0.00000E+00         0.00000E+00        -0.75298E+08
 
   -0.54764E+08        -0.65557E+06         0.00000E+00
   -0.65557E+06        -0.62841E+08         0.00000E+00
    0.00000E+00         0.00000E+00        -0.76651E+08
 
   -0.57498E+08        -0.48453E+06         0.00000E+00
   -0.48453E+06        -0.63893E+08         0.00000E+00
    0.00000E+00         0.00000E+00        -0.77408E+08
 
   -0.59808E+08        -0.34790E+06         0.00000E+00
   -0.34790E+06        -0.64687E+08         0.00000E+00
    0.00000E+00         0.00000E+00        -0.78029E+08
 
   -0.61946E+08        -0.22864E+06         0.00000E+00
   -0.22864E+06        -0.65244E+08         0.00000E+00
    0.00000E+00         0.00000E+00        -0.78568E+08
 
   -0.64044E+08        -0.11417E+06         0.00000E+00
   -0.11417E+06        -0.65575E+08         0.00000E+00
    0.00000E+00         0.00000E+00        -0.79054E+08
 
   -0.66206E+08         0.53871E+04         0.00000E+00
    0.53871E+04        -0.65676E+08         0.00000E+00
    0.00000E+00         0.00000E+00        -0.79507E+08
 
   -0.68543E+08         0.14060E+06         0.00000E+00
    0.14060E+06        -0.65525E+08         0.00000E+00
    0.00000E+00         0.00000E+00        -0.79944E+08
 
   -0.71208E+08         0.30959E+06         0.00000E+00
    0.30959E+06        -0.65073E+08         0.00000E+00
    0.00000E+00         0.00000E+00        -0.80386E+08
 
   -0.74461E+08         0.55059E+06         0.00000E+00
    0.55059E+06        -0.64211E+08         0.00000E+00
    0.00000E+00         0.00000E+00        -0.80865E+08
 
   -0.79046E+08         0.11104E+07         0.00000E+00
    0.11104E+07        -0.62632E+08         0.00000E+00
    0.00000E+00         0.00000E+00        -0.81466E+08
 
   -0.44494E+08         0.37592E+06         0.00000E+00
    0.37592E+06        -0.60804E+08         0.00000E+00
    0.00000E+00         0.00000E+00        -0.66608E+08
 
   -0.45378E+08        -0.73248E+04         0.00000E+00
   -0.73248E+04        -0.60881E+08         0.00000E+00
    0.00000E+00         0.00000E+00        -0.68969E+08
 
   -0.46870E+08        -0.70439E+06         0.00000E+00
   -0.70439E+06        -0.60842E+08         0.00000E+00
    0.00000E+00         0.00000E+00        -0.71558E+08
 
   -0.48881E+08        -0.11854E+07         0.00000E+00
   -0.11854E+07        -0.60920E+08         0.00000E+00
    0.00000E+00         0.00000E+00        -0.73323E+08
 
   -0.51690E+08        -0.15234E+07         0.00000E+00
   -0.15234E+07        -0.61348E+08         0.00000E+00
    0.00000E+00         0.00000E+00        -0.73998E+08
 
   -0.54560E+08        -0.15696E+07         0.00000E+00
   -0.15696E+07        -0.61916E+08         0.00000E+00
    0.00000E+00         0.00000E+00        -0.74686E+08
 
   -0.57254E+08        -0.12794E+07         0.00000E+00
   -0.12794E+07        -0.62549E+08         0.00000E+00
    0.00000E+00         0.00000E+00        -0.75351E+08
 
   -0.59580E+08        -0.95201E+06         0.00000E+00
   -0.95201E+06        -0.63118E+08         0.00000E+00
    0.00000E+00         0.00000E+00        -0.75931E+08
 
   -0.61726E+08        -0.63146E+06         0.00000E+00
   -0.63146E+06        -0.63543E+08         0.00000E+00
    0.00000E+00         0.00000E+00        -0.76445E+08
 
   -0.63818E+08        -0.30642E+06         0.00000E+00
   -0.30642E+06        -0.63790E+08         0.00000E+00
    0.00000E+00         0.00000E+00        -0.76913E+08
 
   -0.65958E+08         0.42519E+05         0.00000E+00
    0.42519E+05        -0.63833E+08         0.00000E+00
    0.00000E+00         0.00000E+00        -0.77350E+08
 
   -0.68248E+08         0.44339E+06         0.00000E+00
    0.44339E+06        -0.63638E+08         0.00000E+00
    0.00000E+00         0.00000E+00        -0.77769E+08
 
   -0.70814E+08         0.94626E+06         0.00000E+00
    0.94626E+06        -0.63153E+08         0.00000E+00
    0.00000E+00         0.00000E+00        -0.78185E+08
 
   -0.73844E+08         0.16714E+07         0.00000E+00
    0.16714E+07        -0.62283E+08         0.00000E+00
    0.00000E+00         0.00000E+00        -0.78617E+08
 
   -0.77380E+08         0.30119E+07         0.00000E+00
    0.30119E+07        -0.60896E+08         0.00000E+00
    0.00000E+00         0.00000E+00        -0.79047E+08
 
   -0.44325E+08        -0.54474E+05         0.00000E+00
   -0.54474E+05        -0.60470E+08         0.00000E+00
    0.00000E+00         0.00000E+00        -0.69446E+08
 
   -0.45847E+08        -0.27396E+06         0.00000E+00
   -0.27396E+06        -0.60666E+08         0.00000E+00
    0.00000E+00         0.00000E+00        -0.70958E+08
 
   -0.47561E+08        -0.82594E+06         0.00000E+00
   -0.82594E+06        -0.60816E+08         0.00000E+00
    0.00000E+00         0.00000E+00        -0.71330E+08
 
   -0.49471E+08        -0.14989E+07         0.00000E+00
   -0.14989E+07        -0.60996E+08         0.00000E+00
    0.00000E+00         0.00000E+00        -0.71748E+08
 
   -0.51891E+08        -0.18847E+07         0.00000E+00
   -0.18847E+07        -0.61225E+08         0.00000E+00
    0.00000E+00         0.00000E+00        -0.72278E+08
 
   -0.54449E+08        -0.19490E+07         0.00000E+00
   -0.19490E+07        -0.61457E+08         0.00000E+00
    0.00000E+00         0.00000E+00        -0.72836E+08
 
   -0.56923E+08        -0.17277E+07         0.00000E+00
   -0.17277E+07        -0.61722E+08         0.00000E+00
    0.00000E+00         0.00000E+00        -0.73384E+08
 
   -0.59205E+08        -0.13450E+07         0.00000E+00
   -0.13450E+07        -0.62014E+08         0.00000E+00
    0.00000E+00         0.00000E+00        -0.73900E+08
 
   -0.61330E+08        -0.89824E+06         0.00000E+00
   -0.89824E+06        -0.62250E+08         0.00000E+00
    0.00000E+00         0.00000E+00        -0.74372E+08
 
   -0.63390E+08        -0.40570E+06         0.00000E+00
   -0.40570E+06        -0.62366E+08         0.00000E+00
    0.00000E+00         0.00000E+00        -0.74808E+08
 
   -0.65475E+08         0.14631E+06         0.00000E+00
    0.14631E+06        -0.62316E+08         0.00000E+00
    0.00000E+00         0.00000E+00        -0.75216E+08
 
   -0.67667E+08         0.79347E+06         0.00000E+00
    0.79347E+06        -0.62060E+08         0.00000E+00
    0.00000E+00         0.00000E+00        -0.75603E+08
 
   -0.70050E+08         0.16055E+07         0.00000E+00
    0.16055E+07        -0.61547E+08         0.00000E+00
    0.00000E+00         0.00000E+00        -0.75977E+08
 
   -0.72670E+08         0.27281E+07         0.00000E+00
    0.27281E+07        -0.60728E+08         0.00000E+00
    0.00000E+00         0.00000E+00        -0.76338E+08
 
   -0.75438E+08         0.43877E+07         0.00000E+00
    0.43877E+07        -0.59643E+08         0.00000E+00
    0.00000E+00         0.00000E+00        -0.76675E+08
 
   -0.44508E+08        -0.21647E+06         0.00000E+00
   -0.21647E+06        -0.60060E+08         0.00000E+00
    0.00000E+00         0.00000E+00        -0.68837E+08
 
   -0.46378E+08        -0.66311E+06         0.00000E+00
   -0.66311E+06        -0.60248E+08         0.00000E+00
    0.00000E+00         0.00000E+00        -0.69248E+08
 
   -0.48133E+08        -0.11394E+07         0.00000E+00
   -0.11394E+07        -0.60594E+08         0.00000E+00
    0.00000E+00         0.00000E+00        -0.69668E+08
 
   -0.49995E+08        -0.16638E+07         0.00000E+00
   -0.16638E+07        -0.60833E+08         0.00000E+00
    0.00000E+00         0.00000E+00        -0.70089E+08
 
   -0.52112E+08        -0.20229E+07         0.00000E+00
   -0.20229E+07        -0.60948E+08         0.00000E+00
    0.00000E+00         0.00000E+00        -0.70536E+08
 
   -0.54373E+08        -0.20962E+07         0.00000E+00
   -0.20962E+07        -0.61029E+08         0.00000E+00
    0.00000E+00         0.00000E+00        -0.71005E+08
 
   -0.56617E+08        -0.19072E+07         0.00000E+00
   -0.19072E+07        -0.61116E+08         0.00000E+00
    0.00000E+00         0.00000E+00        -0.71472E+08
 
   -0.58764E+08        -0.15221E+07         0.00000E+00
   -0.15221E+07        -0.61208E+08         0.00000E+00
    0.00000E+00         0.00000E+00        -0.71921E+08
 
   -0.60810E+08        -0.10058E+07         0.00000E+00
   -0.10058E+07        -0.61272E+08         0.00000E+00
    0.00000E+00         0.00000E+00        -0.72344E+08
 
   -0.62797E+08        -0.39013E+06         0.00000E+00
   -0.39013E+06        -0.61256E+08         0.00000E+00
    0.00000E+00         0.00000E+00        -0.72739E+08
 
   -0.64786E+08         0.32915E+06         0.00000E+00
    0.32915E+06        -0.61113E+08         0.00000E+00
    0.00000E+00         0.00000E+00        -0.73109E+08
 
   -0.66833E+08         0.11855E+07         0.00000E+00
    0.11855E+07        -0.60802E+08         0.00000E+00
    0.00000E+00         0.00000E+00        -0.73457E+08
 
   -0.68975E+08         0.22464E+07         0.00000E+00
    0.22464E+07        -0.60292E+08         0.00000E+00
    0.00000E+00         0.00000E+00        -0.73784E+08
 
   -0.71199E+08         0.36176E+07         0.00000E+00
    0.36176E+07        -0.59577E+08         0.00000E+00
    0.00000E+00         0.00000E+00        -0.74086E+08
 
   -0.73402E+08         0.54223E+07         0.00000E+00
    0.54223E+07        -0.58714E+08         0.00000E+00
    0.00000E+00         0.00000E+00        -0.74354E+08
 
   -0.45040E+08        -0.32799E+06         0.00000E+00
   -0.32799E+06        -0.60040E+08         0.00000E+00
    0.00000E+00         0.00000E+00        -0.67214E+08
 
   -0.46877E+08        -0.89907E+06         0.00000E+00
   -0.89907E+06        -0.60188E+08         0.00000E+00
    0.00000E+00         0.00000E+00        -0.67612E+08
 
   -0.48616E+08        -0.13965E+07         0.00000E+00
   -0.13965E+07        -0.60376E+08         0.00000E+00
    0.00000E+00         0.00000E+00        -0.67998E+08
 
   -0.50403E+08        -0.18119E+07         0.00000E+00
   -0.18119E+07        -0.60538E+08         0.00000E+00
    0.00000E+00         0.00000E+00        -0.68388E+08
 
   -0.52306E+08        -0.20806E+07         0.00000E+00
   -0.20806E+07        -0.60617E+08         0.00000E+00
    0.00000E+00         0.00000E+00        -0.68786E+08
 
   -0.54305E+08        -0.21270E+07         0.00000E+00
   -0.21270E+07        -0.60631E+08         0.00000E+00
    0.00000E+00         0.00000E+00        -0.69190E+08
 
   -0.56321E+08        -0.19366E+07         0.00000E+00
   -0.19366E+07        -0.60618E+08         0.00000E+00
    0.00000E+00         0.00000E+00        -0.69592E+08
 
   -0.58294E+08        -0.15404E+07         0.00000E+00
   -0.15404E+07        -0.60590E+08         0.00000E+00
    0.00000E+00         0.00000E+00        -0.69983E+08
 
   -0.60207E+08        -0.97721E+06         0.00000E+00
   -0.97721E+06        -0.60531E+08         0.00000E+00
    0.00000E+00         0.00000E+00        -0.70355E+08
 
   -0.62076E+08        -0.27090E+06         0.00000E+00
   -0.27090E+06        -0.60411E+08         0.00000E+00
    0.00000E+00         0.00000E+00        -0.70706E+08
 
   -0.63930E+08         0.57852E+06         0.00000E+00
    0.57852E+06        -0.60195E+08         0.00000E+00
    0.00000E+00         0.00000E+00        -0.71035E+08
 
   -0.65798E+08         0.15966E+07         0.00000E+00
    0.15966E+07        -0.59852E+08         0.00000E+00
    0.00000E+00         0.00000E+00        -0.71341E+08
 
   -0.67687E+08         0.28330E+07         0.00000E+00
    0.28330E+07        -0.59368E+08         0.00000E+00
    0.00000E+00         0.00000E+00        -0.71623E+08
 
   -0.69565E+08         0.43546E+07         0.00000E+00
    0.43546E+07        -0.58754E+08         0.00000E+00
    0.00000E+00         0.00000E+00        -0.71876E+08
 
   -0.71342E+08         0.62257E+07         0.00000E+00
    0.62257E+07        -0.58059E+08         0.00000E+00
    0.00000E+00         0.00000E+00        -0.72093E+08
 
   -0.45727E+08        -0.39821E+06         0.00000E+00
   -0.39821E+06        -0.60022E+08         0.00000E+00
    0.00000E+00         0.00000E+00        -0.65634E+08
 
   -0.47425E+08        -0.10431E+07         0.00000E+00
   -0.10431E+07        -0.60101E+08         0.00000E+00
    0.00000E+00         0.00000E+00        -0.65990E+08
 
   -0.49062E+08        -0.15401E+07         0.00000E+00
   -0.15401E+07        -0.60206E+08         0.00000E+00
    0.00000E+00         0.00000E+00        -0.66340E+08
 
   -0.50719E+08        -0.19008E+07         0.00000E+00
   -0.19008E+07        -0.60285E+08         0.00000E+00
    0.00000E+00         0.00000E+00        -0.66689E+08
 
   -0.52438E+08        -0.20973E+07         0.00000E+00
   -0.20973E+07        -0.60311E+08         0.00000E+00
    0.00000E+00         0.00000E+00        -0.67039E+08
 
   -0.54214E+08        -0.20953E+07         0.00000E+00
   -0.20953E+07        -0.60282E+08         0.00000E+00
    0.00000E+00         0.00000E+00        -0.67391E+08
 
   -0.56012E+08        -0.18794E+07         0.00000E+00
   -0.18794E+07        -0.60212E+08         0.00000E+00
    0.00000E+00         0.00000E+00        -0.67738E+08
 
   -0.57794E+08        -0.14588E+07         0.00000E+00
   -0.14588E+07        -0.60111E+08         0.00000E+00
    0.00000E+00         0.00000E+00        -0.68076E+08
 
   -0.59543E+08        -0.85315E+06         0.00000E+00
   -0.85315E+06        -0.59975E+08         0.00000E+00
    0.00000E+00         0.00000E+00        -0.68401E+08
 
   -0.61257E+08        -0.76794E+05         0.00000E+00
   -0.76794E+05        -0.59787E+08         0.00000E+00
    0.00000E+00         0.00000E+00        -0.68708E+08
 
   -0.62946E+08         0.87008E+06         0.00000E+00
    0.87008E+06        -0.59527E+08         0.00000E+00
    0.00000E+00         0.00000E+00        -0.68995E+08
 
   -0.64617E+08         0.20042E+07         0.00000E+00
    0.20042E+07        -0.59176E+08         0.00000E+00
    0.00000E+00         0.00000E+00        -0.69261E+08
 
   -0.66262E+08         0.33568E+07         0.00000E+00
    0.33568E+07        -0.58729E+08         0.00000E+00
    0.00000E+00         0.00000E+00        -0.69502E+08
 
   -0.67843E+08         0.49659E+07         0.00000E+00
    0.49659E+07        -0.58203E+08         0.00000E+00
    0.00000E+00         0.00000E+00        -0.69714E+08
 
   -0.69290E+08         0.68615E+07         0.00000E+00
    0.68615E+07        -0.57638E+08         0.00000E+00
    0.00000E+00         0.00000E+00        -0.69891E+08
 
   -0.46500E+08        -0.43013E+06         0.00000E+00
   -0.43013E+06        -0.60008E+08         0.00000E+00
    0.00000E+00         0.00000E+00        -0.64084E+08
 
   -0.48000E+08        -0.11131E+07         0.00000E+00
   -0.11131E+07        -0.60037E+08         0.00000E+00
    0.00000E+00         0.00000E+00        -0.64391E+08
 
   -0.49481E+08        -0.16053E+07         0.00000E+00
   -0.16053E+07        -0.60075E+08         0.00000E+00
    0.00000E+00         0.00000E+00        -0.64696E+08
 
   -0.50978E+08        -0.19272E+07         0.00000E+00
   -0.19272E+07        -0.60092E+08         0.00000E+00
    0.00000E+00         0.00000E+00        -0.65001E+08
 
   -0.52513E+08        -0.20718E+07         0.00000E+00
   -0.20718E+07        -0.60070E+08         0.00000E+00
    0.00000E+00         0.00000E+00        -0.65306E+08
 
   -0.54085E+08        -0.20230E+07         0.00000E+00
   -0.20230E+07        -0.60003E+08         0.00000E+00
    0.00000E+00         0.00000E+00        -0.65610E+08
 
   -0.55675E+08        -0.17713E+07         0.00000E+00
   -0.17713E+07        -0.59896E+08         0.00000E+00
    0.00000E+00         0.00000E+00        -0.65909E+08
 
   -0.57261E+08        -0.13180E+07         0.00000E+00
   -0.13180E+07        -0.59754E+08         0.00000E+00
    0.00000E+00         0.00000E+00        -0.66200E+08
 
   -0.58827E+08        -0.67161E+06         0.00000E+00
   -0.67161E+06        -0.59575E+08         0.00000E+00
    0.00000E+00         0.00000E+00        -0.66480E+08
 
   -0.60363E+08         0.16066E+06         0.00000E+00
    0.16066E+06        -0.59351E+08         0.00000E+00
    0.00000E+00         0.00000E+00        -0.66745E+08
 
   -0.61869E+08         0.11788E+07         0.00000E+00
    0.11788E+07        -0.59072E+08         0.00000E+00
    0.00000E+00         0.00000E+00        -0.66992E+08
 
   -0.63338E+08         0.23923E+07         0.00000E+00
    0.23923E+07        -0.58731E+08         0.00000E+00
    0.00000E+00         0.00000E+00        -0.67219E+08
 
   -0.64753E+08         0.38180E+07         0.00000E+00
    0.38180E+07        -0.58328E+08         0.00000E+00
    0.00000E+00         0.00000E+00        -0.67423E+08
 
   -0.66079E+08         0.54743E+07         0.00000E+00
    0.54743E+07        -0.57879E+08         0.00000E+00
    0.00000E+00         0.00000E+00        -0.67600E+08
 
   -0.67261E+08         0.73709E+07         0.00000E+00
    0.73709E+07        -0.57418E+08         0.00000E+00
    0.00000E+00         0.00000E+00        -0.67744E+08
 
   -0.47307E+08        -0.43660E+06         0.00000E+00
   -0.43660E+06        -0.59999E+08         0.00000E+00
    0.00000E+00         0.00000E+00        -0.62556E+08
 
   -0.48583E+08        -0.11288E+07         0.00000E+00
   -0.11288E+07        -0.59995E+08         0.00000E+00
    0.00000E+00         0.00000E+00        -0.62812E+08
 
   -0.49877E+08        -0.16113E+07         0.00000E+00
   -0.16113E+07        -0.59985E+08         0.00000E+00
    0.00000E+00         0.00000E+00        -0.63071E+08
 
   -0.51195E+08        -0.19043E+07         0.00000E+00
   -0.19043E+07        -0.59956E+08         0.00000E+00
    0.00000E+00         0.00000E+00        -0.63331E+08
 
   -0.52542E+08        -0.20095E+07         0.00000E+00
   -0.20095E+07        -0.59897E+08         0.00000E+00
    0.00000E+00         0.00000E+00        -0.63591E+08
 
   -0.53916E+08        -0.19209E+07         0.00000E+00
   -0.19209E+07        -0.59801E+08         0.00000E+00
    0.00000E+00         0.00000E+00        -0.63850E+08
 
   -0.55305E+08        -0.16332E+07         0.00000E+00
   -0.16332E+07        -0.59671E+08         0.00000E+00
    0.00000E+00         0.00000E+00        -0.64105E+08
 
   -0.56693E+08        -0.11457E+07         0.00000E+00
   -0.11457E+07        -0.59507E+08         0.00000E+00
    0.00000E+00         0.00000E+00        -0.64352E+08
 
   -0.58066E+08        -0.46185E+06         0.00000E+00
   -0.46185E+06        -0.59309E+08         0.00000E+00
    0.00000E+00         0.00000E+00        -0.64590E+08
 
   -0.59414E+08         0.41494E+06         0.00000E+00
    0.41494E+06        -0.59074E+08         0.00000E+00
    0.00000E+00         0.00000E+00        -0.64815E+08
 
   -0.60728E+08         0.14843E+07         0.00000E+00
    0.14843E+07        -0.58798E+08         0.00000E+00
    0.00000E+00         0.00000E+00        -0.65025E+08
 
   -0.61996E+08         0.27501E+07         0.00000E+00
    0.27501E+07        -0.58479E+08         0.00000E+00
    0.00000E+00         0.00000E+00        -0.65217E+08
 
   -0.63196E+08         0.42191E+07         0.00000E+00
    0.42191E+07        -0.58122E+08         0.00000E+00
    0.00000E+00         0.00000E+00        -0.65387E+08
 
   -0.64300E+08         0.58968E+07         0.00000E+00
    0.58968E+07        -0.57743E+08         0.00000E+00
    0.00000E+00         0.00000E+00        -0.65533E+08
 
   -0.65262E+08         0.77810E+07         0.00000E+00
    0.77810E+07        -0.57366E+08         0.00000E+00
    0.00000E+00         0.00000E+00        -0.65651E+08
 
   -0.48112E+08        -0.42758E+06         0.00000E+00
   -0.42758E+06        -0.59994E+08         0.00000E+00
    0.00000E+00         0.00000E+00        -0.61045E+08
 
   -0.49161E+08        -0.11087E+07         0.00000E+00
   -0.11087E+07        -0.59970E+08         0.00000E+00
    0.00000E+00         0.00000E+00        -0.61251E+08
 
   -0.50254E+08        -0.15766E+07         0.00000E+00
   -0.15766E+07        -0.59930E+08         0.00000E+00
    0.00000E+00         0.00000E+00        -0.61464E+08
 
   -0.51380E+08        -0.18458E+07         0.00000E+00
   -0.18458E+07        -0.59870E+08         0.00000E+00
    0.00000E+00         0.00000E+00        -0.61680E+08
 
   -0.52535E+08        -0.19206E+07         0.00000E+00
   -0.19206E+07        -0.59786E+08         0.00000E+00
    0.00000E+00         0.00000E+00        -0.61897E+08
 
   -0.53712E+08        -0.17994E+07         0.00000E+00
   -0.17994E+07        -0.59673E+08         0.00000E+00
    0.00000E+00         0.00000E+00        -0.62113E+08
 
   -0.54901E+08        -0.14799E+07         0.00000E+00
   -0.14799E+07        -0.59532E+08         0.00000E+00
    0.00000E+00         0.00000E+00        -0.62326E+08
 
   -0.56091E+08        -0.96126E+06         0.00000E+00
   -0.96126E+06        -0.59361E+08         0.00000E+00
    0.00000E+00         0.00000E+00        -0.62532E+08
 
   -0.57268E+08        -0.24514E+06         0.00000E+00
   -0.24514E+06        -0.59161E+08         0.00000E+00
    0.00000E+00         0.00000E+00        -0.62731E+08
 
   -0.58423E+08         0.66625E+06         0.00000E+00
    0.66625E+06        -0.58932E+08         0.00000E+00
    0.00000E+00         0.00000E+00        -0.62919E+08
 
   -0.59543E+08         0.17715E+07         0.00000E+00
    0.17715E+07        -0.58673E+08         0.00000E+00
    0.00000E+00         0.00000E+00        -0.63094E+08
 
   -0.60614E+08         0.30703E+07         0.00000E+00
    0.30703E+07        -0.58386E+08         0.00000E+00
    0.00000E+00         0.00000E+00        -0.63252E+08
 
   -0.61615E+08         0.45626E+07         0.00000E+00
    0.45626E+07        -0.58078E+08         0.00000E+00
    0.00000E+00         0.00000E+00        -0.63393E+08
 
   -0.62521E+08         0.62457E+07         0.00000E+00
    0.62457E+07        -0.57762E+08         0.00000E+00
    0.00000E+00         0.00000E+00        -0.63512E+08
 
   -0.63297E+08         0.81100E+07         0.00000E+00
    0.81100E+07        -0.57457E+08         0.00000E+00
    0.00000E+00         0.00000E+00        -0.63607E+08
 
   -0.48894E+08        -0.41019E+06         0.00000E+00
   -0.41019E+06        -0.59991E+08         0.00000E+00
    0.00000E+00         0.00000E+00        -0.59545E+08
 
   -0.49723E+08        -0.10681E+07         0.00000E+00
   -0.10681E+07        -0.59958E+08         0.00000E+00
    0.00000E+00         0.00000E+00        -0.59705E+08
 
   -0.50612E+08        -0.15174E+07         0.00000E+00
   -0.15174E+07        -0.59901E+08         0.00000E+00
    0.00000E+00         0.00000E+00        -0.59874E+08
 
   -0.51541E+08        -0.17659E+07         0.00000E+00
   -0.17659E+07        -0.59826E+08         0.00000E+00
    0.00000E+00         0.00000E+00        -0.60048E+08
 
   -0.52500E+08        -0.18166E+07         0.00000E+00
   -0.18166E+07        -0.59729E+08         0.00000E+00
    0.00000E+00         0.00000E+00        -0.60223E+08
 
   -0.53478E+08        -0.16695E+07         0.00000E+00
   -0.16695E+07        -0.59611E+08         0.00000E+00
    0.00000E+00         0.00000E+00        -0.60399E+08
 
   -0.54469E+08        -0.13236E+07         0.00000E+00
   -0.13236E+07        -0.59469E+08         0.00000E+00
    0.00000E+00         0.00000E+00        -0.60572E+08
 
   -0.55460E+08        -0.77894E+06         0.00000E+00
   -0.77894E+06        -0.59303E+08         0.00000E+00
    0.00000E+00         0.00000E+00        -0.60740E+08
 
   -0.56441E+08        -0.36785E+05         0.00000E+00
   -0.36785E+05        -0.59115E+08         0.00000E+00
    0.00000E+00         0.00000E+00        -0.60902E+08
 
   -0.57402E+08         0.90049E+06         0.00000E+00
    0.90049E+06        -0.58904E+08         0.00000E+00
    0.00000E+00         0.00000E+00        -0.61054E+08
 
   -0.58330E+08         0.20300E+07         0.00000E+00
    0.20300E+07        -0.58672E+08         0.00000E+00
    0.00000E+00         0.00000E+00        -0.61196E+08
 
   -0.59210E+08         0.33484E+07         0.00000E+00
    0.33484E+07        -0.58423E+08         0.00000E+00
    0.00000E+00         0.00000E+00        -0.61325E+08
 
   -0.60025E+08         0.48509E+07         0.00000E+00
    0.48509E+07        -0.58164E+08         0.00000E+00
    0.00000E+00         0.00000E+00        -0.61438E+08
 
   -0.60752E+08         0.65295E+07         0.00000E+00
    0.65295E+07        -0.57906E+08         0.00000E+00
    0.00000E+00         0.00000E+00        -0.61533E+08
 
   -0.61365E+08         0.83707E+07         0.00000E+00
    0.83707E+07        -0.57664E+08         0.00000E+00
    0.00000E+00         0.00000E+00        -0.61608E+08
 
   -0.49642E+08        -0.38946E+06         0.00000E+00
   -0.38946E+06        -0.59990E+08         0.00000E+00
    0.00000E+00         0.00000E+00        -0.58056E+08
 
   -0.50264E+08        -0.10186E+07         0.00000E+00
   -0.10186E+07        -0.59954E+08         0.00000E+00
    0.00000E+00         0.00000E+00        -0.58174E+08
 
   -0.50951E+08        -0.14476E+07         0.00000E+00
   -0.14476E+07        -0.59893E+08         0.00000E+00
    0.00000E+00         0.00000E+00        -0.58302E+08
 
   -0.51681E+08        -0.16776E+07         0.00000E+00
   -0.16776E+07        -0.59814E+08         0.00000E+00
    0.00000E+00         0.00000E+00        -0.58435E+08
 
   -0.52441E+08        -0.17091E+07         0.00000E+00
   -0.17091E+07        -0.59717E+08         0.00000E+00
    0.00000E+00         0.00000E+00        -0.58570E+08
 
   -0.53222E+08        -0.15417E+07         0.00000E+00
   -0.15417E+07        -0.59603E+08         0.00000E+00
    0.00000E+00         0.00000E+00        -0.58707E+08
 
   -0.54013E+08        -0.11751E+07         0.00000E+00
   -0.11751E+07        -0.59471E+08         0.00000E+00
    0.00000E+00         0.00000E+00        -0.58842E+08
 
   -0.54806E+08        -0.60993E+06         0.00000E+00
   -0.60993E+06        -0.59321E+08         0.00000E+00
    0.00000E+00         0.00000E+00        -0.58973E+08
 
   -0.55591E+08         0.15209E+06         0.00000E+00
    0.15209E+06        -0.59153E+08         0.00000E+00
    0.00000E+00         0.00000E+00        -0.59100E+08
 
   -0.56359E+08         0.11078E+07         0.00000E+00
    0.11078E+07        -0.58970E+08         0.00000E+00
    0.00000E+00         0.00000E+00        -0.59220E+08
 
   -0.57098E+08         0.22529E+07         0.00000E+00
    0.22529E+07        -0.58772E+08         0.00000E+00
    0.00000E+00         0.00000E+00        -0.59330E+08
 
   -0.57795E+08         0.35816E+07         0.00000E+00
    0.35816E+07        -0.58566E+08         0.00000E+00
    0.00000E+00         0.00000E+00        -0.59430E+08
 
   -0.58435E+08         0.50860E+07         0.00000E+00
    0.50860E+07        -0.58356E+08         0.00000E+00
    0.00000E+00         0.00000E+00        -0.59518E+08
 
   -0.58998E+08         0.67547E+07         0.00000E+00
    0.67547E+07        -0.58152E+08         0.00000E+00
    0.00000E+00         0.00000E+00        -0.59591E+08
 
   -0.59465E+08         0.85720E+07         0.00000E+00
    0.85720E+07        -0.57966E+08         0.00000E+00
    0.00000E+00         0.00000E+00        -0.59648E+08
 
   -0.50353E+08        -0.36893E+06         0.00000E+00
   -0.36893E+06        -0.59991E+08         0.00000E+00
    0.00000E+00         0.00000E+00        -0.56576E+08
 
   -0.50781E+08        -0.96908E+06         0.00000E+00
   -0.96908E+06        -0.59958E+08         0.00000E+00
    0.00000E+00         0.00000E+00        -0.56656E+08
 
   -0.51271E+08        -0.13783E+07         0.00000E+00
   -0.13783E+07        -0.59901E+08         0.00000E+00
    0.00000E+00         0.00000E+00        -0.56745E+08
 
   -0.51804E+08        -0.15923E+07         0.00000E+00
   -0.15923E+07        -0.59828E+08         0.00000E+00
    0.00000E+00         0.00000E+00        -0.56839E+08
 
   -0.52366E+08        -0.16085E+07         0.00000E+00
   -0.16085E+07        -0.59741E+08         0.00000E+00
    0.00000E+00         0.00000E+00        -0.56937E+08
 
   -0.52947E+08        -0.14257E+07         0.00000E+00
   -0.14257E+07        -0.59641E+08         0.00000E+00
    0.00000E+00         0.00000E+00        -0.57036E+08
 
   -0.53539E+08        -0.10435E+07         0.00000E+00
   -0.10435E+07        -0.59527E+08         0.00000E+00
    0.00000E+00         0.00000E+00        -0.57135E+08
 
   -0.54134E+08        -0.46301E+06         0.00000E+00
   -0.46301E+06        -0.59400E+08         0.00000E+00
    0.00000E+00         0.00000E+00        -0.57231E+08
 
   -0.54725E+08         0.31330E+06         0.00000E+00
    0.31330E+06        -0.59261E+08         0.00000E+00
    0.00000E+00         0.00000E+00        -0.57324E+08
 
   -0.55303E+08         0.12814E+07         0.00000E+00
    0.12814E+07        -0.59111E+08         0.00000E+00
    0.00000E+00         0.00000E+00        -0.57412E+08
 
   -0.55857E+08         0.24357E+07         0.00000E+00
    0.24357E+07        -0.58953E+08         0.00000E+00
    0.00000E+00         0.00000E+00        -0.57494E+08
 
   -0.56377E+08         0.37684E+07         0.00000E+00
    0.37684E+07        -0.58790E+08         0.00000E+00
    0.00000E+00         0.00000E+00        -0.57567E+08
 
   -0.56850E+08         0.52696E+07         0.00000E+00
    0.52696E+07        -0.58629E+08         0.00000E+00
    0.00000E+00         0.00000E+00        -0.57631E+08
 
   -0.57262E+08         0.69258E+07         0.00000E+00
    0.69258E+07        -0.58477E+08         0.00000E+00
    0.00000E+00         0.00000E+00        -0.57684E+08
 
   -0.57596E+08         0.87200E+07         0.00000E+00
    0.87200E+07        -0.58342E+08         0.00000E+00
    0.00000E+00         0.00000E+00        -0.57725E+08
 
   -0.51030E+08        -0.35118E+06         0.00000E+00
   -0.35118E+06        -0.59993E+08         0.00000E+00
    0.00000E+00         0.00000E+00        -0.55105E+08
 
   -0.51276E+08        -0.92589E+06         0.00000E+00
   -0.92589E+06        -0.59966E+08         0.00000E+00
    0.00000E+00         0.00000E+00        -0.55150E+08
 
   -0.51576E+08        -0.13181E+07         0.00000E+00
   -0.13181E+07        -0.59920E+08         0.00000E+00
    0.00000E+00         0.00000E+00        -0.55203E+08
 
   -0.51913E+08        -0.15191E+07         0.00000E+00
   -0.15191E+07        -0.59861E+08         0.00000E+00
    0.00000E+00         0.00000E+00        -0.55261E+08
 
   -0.52277E+08        -0.15238E+07         0.00000E+00
   -0.15238E+07        -0.59792E+08         0.00000E+00
    0.00000E+00         0.00000E+00        -0.55322E+08
 
   -0.52658E+08        -0.13296E+07         0.00000E+00
   -0.13296E+07        -0.59713E+08         0.00000E+00
    0.00000E+00         0.00000E+00        -0.55385E+08
 
   -0.53052E+08        -0.93624E+06         0.00000E+00
   -0.93624E+06        -0.59625E+08         0.00000E+00
    0.00000E+00         0.00000E+00        -0.55449E+08
 
   -0.53450E+08        -0.34501E+06         0.00000E+00
   -0.34501E+06        -0.59528E+08         0.00000E+00
    0.00000E+00         0.00000E+00        -0.55512E+08
 
   -0.53848E+08         0.44092E+06         0.00000E+00
    0.44092E+06        -0.59422E+08         0.00000E+00
    0.00000E+00         0.00000E+00        -0.55572E+08
 
   -0.54237E+08         0.14166E+07         0.00000E+00
    0.14166E+07        -0.59310E+08         0.00000E+00
    0.00000E+00         0.00000E+00        -0.55630E+08
 
   -0.54611E+08         0.25753E+07         0.00000E+00
    0.25753E+07        -0.59194E+08         0.00000E+00
    0.00000E+00         0.00000E+00        -0.55683E+08
 
   -0.54960E+08         0.39080E+07         0.00000E+00
    0.39080E+07        -0.59077E+08         0.00000E+00
    0.00000E+00         0.00000E+00        -0.55731E+08
 
   -0.55274E+08         0.54032E+07         0.00000E+00
    0.54032E+07        -0.58964E+08         0.00000E+00
    0.00000E+00         0.00000E+00        -0.55773E+08
 
   -0.55542E+08         0.70464E+07         0.00000E+00
    0.70464E+07        -0.58861E+08         0.00000E+00
    0.00000E+00         0.00000E+00        -0.55807E+08
 
   -0.55753E+08         0.88195E+07         0.00000E+00
    0.88195E+07        -0.58775E+08         0.00000E+00
    0.00000E+00         0.00000E+00        -0.55833E+08
 
   -0.51679E+08        -0.33798E+06         0.00000E+00
   -0.33798E+06        -0.59995E+08         0.00000E+00
    0.00000E+00         0.00000E+00        -0.53644E+08
 
   -0.51753E+08        -0.89379E+06         0.00000E+00
   -0.89379E+06        -0.59977E+08         0.00000E+00
    0.00000E+00         0.00000E+00        -0.53657E+08
 
   -0.51868E+08        -0.12736E+07         0.00000E+00
   -0.12736E+07        -0.59947E+08         0.00000E+00
    0.00000E+00         0.00000E+00        -0.53675E+08
 
   -0.52012E+08        -0.14653E+07         0.00000E+00
   -0.14653E+07        -0.59908E+08         0.00000E+00
    0.00000E+00         0.00000E+00        -0.53698E+08
 
   -0.52178E+08        -0.14619E+07         0.00000E+00
   -0.14619E+07        -0.59863E+08         0.00000E+00
    0.00000E+00         0.00000E+00        -0.53724E+08
 
   -0.52361E+08        -0.12600E+07         0.00000E+00
   -0.12600E+07        -0.59811E+08         0.00000E+00
    0.00000E+00         0.00000E+00        -0.53752E+08
 
   -0.52555E+08        -0.85909E+06         0.00000E+00
   -0.85909E+06        -0.59754E+08         0.00000E+00
    0.00000E+00         0.00000E+00        -0.53782E+08
 
   -0.52758E+08        -0.26088E+06         0.00000E+00
   -0.26088E+06        -0.59691E+08         0.00000E+00
    0.00000E+00         0.00000E+00        -0.53812E+08
 
   -0.52964E+08         0.53086E+06         0.00000E+00
    0.53086E+06        -0.59623E+08         0.00000E+00
    0.00000E+00         0.00000E+00        -0.53841E+08
 
   -0.53168E+08         0.15105E+07         0.00000E+00
    0.15105E+07        -0.59551E+08         0.00000E+00
    0.00000E+00         0.00000E+00        -0.53869E+08
 
   -0.53364E+08         0.26702E+07         0.00000E+00
    0.26702E+07        -0.59479E+08         0.00000E+00
    0.00000E+00         0.00000E+00        -0.53895E+08
 
   -0.53547E+08         0.40003E+07         0.00000E+00
    0.40003E+07        -0.59408E+08         0.00000E+00
    0.00000E+00         0.00000E+00        -0.53919E+08
 
   -0.53708E+08         0.54884E+07         0.00000E+00
    0.54884E+07        -0.59343E+08         0.00000E+00
    0.00000E+00         0.00000E+00        -0.53939E+08
 
   -0.53840E+08         0.71190E+07         0.00000E+00
    0.71190E+07        -0.59288E+08         0.00000E+00
    0.00000E+00         0.00000E+00        -0.53955E+08
 
   -0.53934E+08         0.88737E+07         0.00000E+00
    0.88737E+07        -0.59247E+08         0.00000E+00
    0.00000E+00         0.00000E+00        -0.53967E+08
 
   -0.52309E+08        -0.33059E+06         0.00000E+00
   -0.33059E+06        -0.59998E+08         0.00000E+00
    0.00000E+00         0.00000E+00        -0.52194E+08
 
   -0.52219E+08        -0.87607E+06         0.00000E+00
   -0.87607E+06        -0.59991E+08         0.00000E+00
    0.00000E+00         0.00000E+00        -0.52175E+08
 
   -0.52152E+08        -0.12492E+07         0.00000E+00
   -0.12492E+07        -0.59979E+08         0.00000E+00
    0.00000E+00         0.00000E+00        -0.52161E+08
 
   -0.52104E+08        -0.14359E+07         0.00000E+00
   -0.14359E+07        -0.59965E+08         0.00000E+00
    0.00000E+00         0.00000E+00        -0.52150E+08
 
   -0.52073E+08        -0.14279E+07         0.00000E+00
   -0.14279E+07        -0.59948E+08         0.00000E+00
    0.00000E+00         0.00000E+00        -0.52141E+08
 
   -0.52057E+08        -0.12214E+07         0.00000E+00
   -0.12214E+07        -0.59927E+08         0.00000E+00
    0.00000E+00         0.00000E+00        -0.52135E+08
 
   -0.52053E+08        -0.81596E+06         0.00000E+00
   -0.81596E+06        -0.59903E+08         0.00000E+00
    0.00000E+00         0.00000E+00        -0.52131E+08
 
   -0.52060E+08        -0.21384E+06         0.00000E+00
   -0.21384E+06        -0.59877E+08         0.00000E+00
    0.00000E+00         0.00000E+00        -0.52129E+08
 
   -0.52076E+08         0.58067E+06         0.00000E+00
    0.58067E+06        -0.59848E+08         0.00000E+00
    0.00000E+00         0.00000E+00        -0.52127E+08
 
   -0.52097E+08         0.15613E+07         0.00000E+00
    0.15613E+07        -0.59819E+08         0.00000E+00
    0.00000E+00         0.00000E+00        -0.52127E+08
 
   -0.52119E+08         0.27197E+07         0.00000E+00
    0.27197E+07        -0.59791E+08         0.00000E+00
    0.00000E+00         0.00000E+00        -0.52127E+08
 
   -0.52139E+08         0.40457E+07         0.00000E+00
    0.40457E+07        -0.59766E+08         0.00000E+00
    0.00000E+00         0.00000E+00        -0.52126E+08
 
   -0.52151E+08         0.55261E+07         0.00000E+00
    0.55261E+07        -0.59748E+08         0.00000E+00
    0.00000E+00         0.00000E+00        -0.52126E+08
 
   -0.52151E+08         0.71455E+07         0.00000E+00
    0.71455E+07        -0.59739E+08         0.00000E+00
    0.00000E+00         0.00000E+00        -0.52125E+08
 
   -0.52134E+08         0.88851E+07         0.00000E+00
    0.88851E+07        -0.59741E+08         0.00000E+00
    0.00000E+00         0.00000E+00        -0.52122E+08
 
   -0.52933E+08        -0.32978E+06         0.00000E+00
   -0.32978E+06        -0.60001E+08         0.00000E+00
    0.00000E+00         0.00000E+00        -0.50755E+08
 
   -0.52680E+08        -0.87479E+06         0.00000E+00
   -0.87479E+06        -0.60006E+08         0.00000E+00
    0.00000E+00         0.00000E+00        -0.50706E+08
 
   -0.52433E+08        -0.12479E+07         0.00000E+00
   -0.12479E+07        -0.60015E+08         0.00000E+00
    0.00000E+00         0.00000E+00        -0.50659E+08
 
   -0.52194E+08        -0.14340E+07         0.00000E+00
   -0.14340E+07        -0.60027E+08         0.00000E+00
    0.00000E+00         0.00000E+00        -0.50614E+08
 
   -0.51965E+08        -0.14246E+07         0.00000E+00
   -0.14246E+07        -0.60039E+08         0.00000E+00
    0.00000E+00         0.00000E+00        -0.50572E+08
 
   -0.51750E+08        -0.12162E+07         0.00000E+00
   -0.12162E+07        -0.60052E+08         0.00000E+00
    0.00000E+00         0.00000E+00        -0.50532E+08
 
   -0.51548E+08        -0.80880E+06         0.00000E+00
   -0.80880E+06        -0.60063E+08         0.00000E+00
    0.00000E+00         0.00000E+00        -0.50495E+08
 
   -0.51361E+08        -0.20527E+06         0.00000E+00
   -0.20527E+06        -0.60074E+08         0.00000E+00
    0.00000E+00         0.00000E+00        -0.50460E+08
 
   -0.51188E+08         0.58950E+06         0.00000E+00
    0.58950E+06        -0.60085E+08         0.00000E+00
    0.00000E+00         0.00000E+00        -0.50428E+08
 
   -0.51027E+08         0.15688E+07         0.00000E+00
    0.15688E+07        -0.60097E+08         0.00000E+00
    0.00000E+00         0.00000E+00        -0.50399E+08
 
   -0.50878E+08         0.27240E+07         0.00000E+00
    0.27240E+07        -0.60113E+08         0.00000E+00
    0.00000E+00         0.00000E+00        -0.50372E+08
 
   -0.50737E+08         0.40446E+07         0.00000E+00
    0.40446E+07        -0.60134E+08         0.00000E+00
    0.00000E+00         0.00000E+00        -0.50349E+08
 
   -0.50603E+08         0.55176E+07         0.00000E+00
    0.55176E+07        -0.60162E+08         0.00000E+00
    0.00000E+00         0.00000E+00        -0.50328E+08
 
   -0.50474E+08         0.71275E+07         0.00000E+00
    0.71275E+07        -0.60198E+08         0.00000E+00
    0.00000E+00         0.00000E+00        -0.50310E+08
 
   -0.50348E+08         0.88554E+07         0.00000E+00
    0.88554E+07        -0.60242E+08         0.00000E+00
    0.00000E+00         0.00000E+00        -0.50293E+08
 
   -0.53561E+08        -0.33597E+06         0.00000E+00
   -0.33597E+06        -0.60004E+08         0.00000E+00
    0.00000E+00         0.00000E+00        -0.49328E+08
 
   -0.53145E+08        -0.89099E+06         0.00000E+00
   -0.89099E+06        -0.60022E+08         0.00000E+00
    0.00000E+00         0.00000E+00        -0.49249E+08
 
   -0.52716E+08        -0.12708E+07         0.00000E+00
   -0.12708E+07        -0.60052E+08         0.00000E+00
    0.00000E+00         0.00000E+00        -0.49169E+08
 
   -0.52284E+08        -0.14607E+07         0.00000E+00
   -0.14607E+07        -0.60090E+08         0.00000E+00
    0.00000E+00         0.00000E+00        -0.49091E+08
 
   -0.51857E+08        -0.14530E+07         0.00000E+00
   -0.14530E+07        -0.60133E+08         0.00000E+00
    0.00000E+00         0.00000E+00        -0.49014E+08
 
   -0.51442E+08        -0.12449E+07         0.00000E+00
   -0.12449E+07        -0.60177E+08         0.00000E+00
    0.00000E+00         0.00000E+00        -0.48939E+08
 
   -0.51042E+08        -0.83752E+06         0.00000E+00
   -0.83752E+06        -0.60223E+08         0.00000E+00
    0.00000E+00         0.00000E+00        -0.48869E+08
 
   -0.50662E+08        -0.23469E+06         0.00000E+00
   -0.23469E+06        -0.60269E+08         0.00000E+00
    0.00000E+00         0.00000E+00        -0.48802E+08
 
   -0.50301E+08         0.55810E+06         0.00000E+00
    0.55810E+06        -0.60319E+08         0.00000E+00
    0.00000E+00         0.00000E+00        -0.48739E+08
 
   -0.49961E+08         0.15338E+07         0.00000E+00
    0.15338E+07        -0.60372E+08         0.00000E+00
    0.00000E+00         0.00000E+00        -0.48682E+08
 
   -0.49641E+08         0.26838E+07         0.00000E+00
    0.26838E+07        -0.60430E+08         0.00000E+00
    0.00000E+00         0.00000E+00        -0.48629E+08
 
   -0.49342E+08         0.39980E+07         0.00000E+00
    0.39980E+07        -0.60496E+08         0.00000E+00
    0.00000E+00         0.00000E+00        -0.48582E+08
 
   -0.49063E+08         0.54637E+07         0.00000E+00
    0.54637E+07        -0.60568E+08         0.00000E+00
    0.00000E+00         0.00000E+00        -0.48541E+08
 
   -0.48807E+08         0.70657E+07         0.00000E+00
    0.70657E+07        -0.60648E+08         0.00000E+00
    0.00000E+00         0.00000E+00        -0.48505E+08
 
   -0.48574E+08         0.87856E+07         0.00000E+00
    0.87856E+07        -0.60735E+08         0.00000E+00
    0.00000E+00         0.00000E+00        -0.48476E+08
 
   -0.54207E+08        -0.34925E+06         0.00000E+00
   -0.34925E+06        -0.60007E+08         0.00000E+00
    0.00000E+00         0.00000E+00        -0.47914E+08
 
   -0.53623E+08        -0.92476E+06         0.00000E+00
   -0.92476E+06        -0.60037E+08         0.00000E+00
    0.00000E+00         0.00000E+00        -0.47803E+08
 
   -0.53008E+08        -0.13180E+07         0.00000E+00
   -0.13180E+07        -0.60088E+08         0.00000E+00
    0.00000E+00         0.00000E+00        -0.47690E+08
 
   -0.52379E+08        -0.15156E+07         0.00000E+00
   -0.15156E+07        -0.60152E+08         0.00000E+00
    0.00000E+00         0.00000E+00        -0.47577E+08
 
   -0.51751E+08        -0.15117E+07         0.00000E+00
   -0.15117E+07        -0.60222E+08         0.00000E+00
    0.00000E+00         0.00000E+00        -0.47464E+08
 
   -0.51134E+08        -0.13056E+07         0.00000E+00
   -0.13056E+07        -0.60296E+08         0.00000E+00
    0.00000E+00         0.00000E+00        -0.47355E+08
 
   -0.50537E+08        -0.89988E+06         0.00000E+00
   -0.89988E+06        -0.60373E+08         0.00000E+00
    0.00000E+00         0.00000E+00        -0.47250E+08
 
   -0.49965E+08        -0.29963E+06         0.00000E+00
   -0.29963E+06        -0.60452E+08         0.00000E+00
    0.00000E+00         0.00000E+00        -0.47151E+08
 
   -0.49418E+08         0.48890E+06         0.00000E+00
    0.48890E+06        -0.60536E+08         0.00000E+00
    0.00000E+00         0.00000E+00        -0.47057E+08
 
   -0.48900E+08         0.14585E+07         0.00000E+00
    0.14585E+07        -0.60626E+08         0.00000E+00
    0.00000E+00         0.00000E+00        -0.46971E+08
 
   -0.48412E+08         0.26011E+07         0.00000E+00
    0.26011E+07        -0.60725E+08         0.00000E+00
    0.00000E+00         0.00000E+00        -0.46892E+08
 
   -0.47954E+08         0.39071E+07         0.00000E+00
    0.39071E+07        -0.60833E+08         0.00000E+00
    0.00000E+00         0.00000E+00        -0.46821E+08
 
   -0.47531E+08         0.53650E+07         0.00000E+00
    0.53650E+07        -0.60950E+08         0.00000E+00
    0.00000E+00         0.00000E+00        -0.46760E+08
 
   -0.47146E+08         0.69605E+07         0.00000E+00
    0.69605E+07        -0.61074E+08         0.00000E+00
    0.00000E+00         0.00000E+00        -0.46707E+08
 
   -0.46805E+08         0.86757E+07         0.00000E+00
    0.86757E+07        -0.61202E+08         0.00000E+00
    0.00000E+00         0.00000E+00        -0.46664E+08
 
   -0.54884E+08        -0.36941E+06         0.00000E+00
   -0.36941E+06        -0.60010E+08         0.00000E+00
    0.00000E+00         0.00000E+00        -0.46514E+08
 
   -0.54122E+08        -0.97535E+06         0.00000E+00
   -0.97535E+06        -0.60052E+08         0.00000E+00
    0.00000E+00         0.00000E+00        -0.46370E+08
 
   -0.53312E+08        -0.13877E+07         0.00000E+00
   -0.13877E+07        -0.60121E+08         0.00000E+00
    0.00000E+00         0.00000E+00        -0.46221E+08
 
   -0.52480E+08        -0.15961E+07         0.00000E+00
   -0.15961E+07        -0.60207E+08         0.00000E+00
    0.00000E+00         0.00000E+00        -0.46071E+08
 
   -0.51647E+08        -0.15975E+07         0.00000E+00
   -0.15975E+07        -0.60302E+08         0.00000E+00
    0.00000E+00         0.00000E+00        -0.45922E+08
 
   -0.50829E+08        -0.13942E+07         0.00000E+00
   -0.13942E+07        -0.60401E+08         0.00000E+00
    0.00000E+00         0.00000E+00        -0.45776E+08
 
   -0.50035E+08        -0.99130E+06         0.00000E+00
   -0.99130E+06        -0.60503E+08         0.00000E+00
    0.00000E+00         0.00000E+00        -0.45636E+08
 
   -0.49272E+08        -0.39550E+06         0.00000E+00
   -0.39550E+06        -0.60609E+08         0.00000E+00
    0.00000E+00         0.00000E+00        -0.45503E+08
 
   -0.48542E+08         0.38613E+06         0.00000E+00
    0.38613E+06        -0.60722E+08         0.00000E+00
    0.00000E+00         0.00000E+00        -0.45378E+08
 
   -0.47848E+08         0.13465E+07         0.00000E+00
    0.13465E+07        -0.60845E+08         0.00000E+00
    0.00000E+00         0.00000E+00        -0.45263E+08
 
   -0.47191E+08         0.24782E+07         0.00000E+00
    0.24782E+07        -0.60980E+08         0.00000E+00
    0.00000E+00         0.00000E+00        -0.45157E+08
 
   -0.46576E+08         0.37733E+07         0.00000E+00
    0.37733E+07        -0.61128E+08         0.00000E+00
    0.00000E+00         0.00000E+00        -0.45062E+08
 
   -0.46006E+08         0.52220E+07         0.00000E+00
    0.52220E+07        -0.61288E+08         0.00000E+00
    0.00000E+00         0.00000E+00        -0.44979E+08
 
   -0.45490E+08         0.68115E+07         0.00000E+00
    0.68115E+07        -0.61456E+08         0.00000E+00
    0.00000E+00         0.00000E+00        -0.44909E+08
 
   -0.45037E+08         0.85250E+07         0.00000E+00
    0.85250E+07        -0.61628E+08         0.00000E+00
    0.00000E+00         0.00000E+00        -0.44853E+08
 
   -0.55604E+08        -0.39600E+06         0.00000E+00
   -0.39600E+06        -0.60013E+08         0.00000E+00
    0.00000E+00         0.00000E+00        -0.45129E+08
 
   -0.54648E+08        -0.10411E+07         0.00000E+00
   -0.10411E+07        -0.60065E+08         0.00000E+00
    0.00000E+00         0.00000E+00        -0.44947E+08
 
   -0.53631E+08        -0.14770E+07         0.00000E+00
   -0.14770E+07        -0.60150E+08         0.00000E+00
    0.00000E+00         0.00000E+00        -0.44760E+08
 
   -0.52589E+08        -0.16976E+07         0.00000E+00
   -0.16976E+07        -0.60254E+08         0.00000E+00
    0.00000E+00         0.00000E+00        -0.44571E+08
 
   -0.51548E+08        -0.17045E+07         0.00000E+00
   -0.17045E+07        -0.60366E+08         0.00000E+00
    0.00000E+00         0.00000E+00        -0.44383E+08
 
   -0.50527E+08        -0.15040E+07         0.00000E+00
   -0.15040E+07        -0.60482E+08         0.00000E+00
    0.00000E+00         0.00000E+00        -0.44200E+08
 
   -0.49537E+08        -0.11046E+07         0.00000E+00
   -0.11046E+07        -0.60601E+08         0.00000E+00
    0.00000E+00         0.00000E+00        -0.44023E+08
 
   -0.48586E+08        -0.51535E+06         0.00000E+00
   -0.51535E+06        -0.60726E+08         0.00000E+00
    0.00000E+00         0.00000E+00        -0.43856E+08
 
   -0.47676E+08         0.25596E+06         0.00000E+00
    0.25596E+06        -0.60860E+08         0.00000E+00
    0.00000E+00         0.00000E+00        -0.43699E+08
 
   -0.46808E+08         0.12026E+07         0.00000E+00
    0.12026E+07        -0.61009E+08         0.00000E+00
    0.00000E+00         0.00000E+00        -0.43553E+08
 
   -0.45985E+08         0.23186E+07         0.00000E+00
    0.23186E+07        -0.61176E+08         0.00000E+00
    0.00000E+00         0.00000E+00        -0.43420E+08
 
   -0.45209E+08         0.35984E+07         0.00000E+00
    0.35984E+07        -0.61362E+08         0.00000E+00
    0.00000E+00         0.00000E+00        -0.43300E+08
 
   -0.44490E+08         0.50347E+07         0.00000E+00
    0.50347E+07        -0.61564E+08         0.00000E+00
    0.00000E+00         0.00000E+00        -0.43195E+08
 
   -0.43838E+08         0.66174E+07         0.00000E+00
    0.66174E+07        -0.61778E+08         0.00000E+00
    0.00000E+00         0.00000E+00        -0.43107E+08
 
   -0.43267E+08         0.83316E+07         0.00000E+00
    0.83316E+07        -0.61995E+08         0.00000E+00
    0.00000E+00         0.00000E+00        -0.43036E+08
 
   -0.56378E+08        -0.42833E+06         0.00000E+00
   -0.42833E+06        -0.60015E+08         0.00000E+00
    0.00000E+00         0.00000E+00        -0.43758E+08
 
   -0.55208E+08        -0.11197E+07         0.00000E+00
   -0.11197E+07        -0.60076E+08         0.00000E+00
    0.00000E+00         0.00000E+00        -0.43536E+08
 
   -0.53969E+08        -0.15813E+07         0.00000E+00
   -0.15813E+07        -0.60173E+08         0.00000E+00
    0.00000E+00         0.00000E+00        -0.43306E+08
 
   -0.52706E+08        -0.18135E+07         0.00000E+00
   -0.18135E+07        -0.60288E+08         0.00000E+00
    0.00000E+00         0.00000E+00        -0.43074E+08
 
   -0.51451E+08        -0.18241E+07         0.00000E+00
   -0.18241E+07        -0.60409E+08         0.00000E+00
    0.00000E+00         0.00000E+00        -0.42845E+08
 
   -0.50227E+08        -0.16253E+07         0.00000E+00
   -0.16253E+07        -0.60531E+08         0.00000E+00
    0.00000E+00         0.00000E+00        -0.42622E+08
 
   -0.49045E+08        -0.12300E+07         0.00000E+00
   -0.12300E+07        -0.60655E+08         0.00000E+00
    0.00000E+00         0.00000E+00        -0.42408E+08
 
   -0.47911E+08        -0.64971E+06         0.00000E+00
   -0.64971E+06        -0.60787E+08         0.00000E+00
    0.00000E+00         0.00000E+00        -0.42204E+08
 
   -0.46825E+08         0.10669E+06         0.00000E+00
    0.10669E+06        -0.60933E+08         0.00000E+00
    0.00000E+00         0.00000E+00        -0.42014E+08
 
   -0.45787E+08         0.10333E+07         0.00000E+00
    0.10333E+07        -0.61100E+08         0.00000E+00
    0.00000E+00         0.00000E+00        -0.41837E+08
 
   -0.44797E+08         0.21265E+07         0.00000E+00
    0.21265E+07        -0.61293E+08         0.00000E+00
    0.00000E+00         0.00000E+00        -0.41675E+08
 
   -0.43860E+08         0.33839E+07         0.00000E+00
    0.33839E+07        -0.61513E+08         0.00000E+00
    0.00000E+00         0.00000E+00        -0.41530E+08
 
   -0.42986E+08         0.48024E+07         0.00000E+00
    0.48024E+07        -0.61758E+08         0.00000E+00
    0.00000E+00         0.00000E+00        -0.41402E+08
 
   -0.42189E+08         0.63757E+07         0.00000E+00
    0.63757E+07        -0.62019E+08         0.00000E+00
    0.00000E+00         0.00000E+00        -0.41294E+08
 
   -0.41491E+08         0.80919E+07         0.00000E+00
    0.80919E+07        -0.62285E+08         0.00000E+00
    0.00000E+00         0.00000E+00        -0.41207E+08
 
   -0.57213E+08        -0.46548E+06         0.00000E+00
   -0.46548E+06        -0.60017E+08         0.00000E+00
    0.00000E+00         0.00000E+00        -0.42403E+08
 
   -0.55803E+08        -0.12076E+07         0.00000E+00
   -0.12076E+07        -0.60084E+08         0.00000E+00
    0.00000E+00         0.00000E+00        -0.42134E+08
 
   -0.54323E+08        -0.16943E+07         0.00000E+00
   -0.16943E+07        -0.60187E+08         0.00000E+00
    0.00000E+00         0.00000E+00        -0.41856E+08
 
   -0.52827E+08        -0.19344E+07         0.00000E+00
   -0.19344E+07        -0.60304E+08         0.00000E+00
    0.00000E+00         0.00000E+00        -0.41578E+08
 
   -0.51355E+08        -0.19448E+07         0.00000E+00
   -0.19448E+07        -0.60421E+08         0.00000E+00
    0.00000E+00         0.00000E+00        -0.41304E+08
 
   -0.49929E+08        -0.17453E+07         0.00000E+00
   -0.17453E+07        -0.60536E+08         0.00000E+00
    0.00000E+00         0.00000E+00        -0.41039E+08
 
   -0.48560E+08        -0.13543E+07         0.00000E+00
   -0.13543E+07        -0.60651E+08         0.00000E+00
    0.00000E+00         0.00000E+00        -0.40785E+08
 
   -0.47250E+08        -0.78636E+06         0.00000E+00
   -0.78636E+06        -0.60776E+08         0.00000E+00
    0.00000E+00         0.00000E+00        -0.40545E+08
 
   -0.45995E+08        -0.51177E+05         0.00000E+00
   -0.51177E+05        -0.60921E+08         0.00000E+00
    0.00000E+00         0.00000E+00        -0.40320E+08
 
   -0.44792E+08         0.84670E+06         0.00000E+00
    0.84670E+06        -0.61095E+08         0.00000E+00
    0.00000E+00         0.00000E+00        -0.40111E+08
 
   -0.43638E+08         0.19069E+07         0.00000E+00
    0.19069E+07        -0.61307E+08         0.00000E+00
    0.00000E+00         0.00000E+00        -0.39920E+08
 
   -0.42536E+08         0.31317E+07         0.00000E+00
    0.31317E+07        -0.61558E+08         0.00000E+00
    0.00000E+00         0.00000E+00        -0.39748E+08
 
   -0.41499E+08         0.45236E+07         0.00000E+00
    0.45236E+07        -0.61845E+08         0.00000E+00
    0.00000E+00         0.00000E+00        -0.39596E+08
 
   -0.40546E+08         0.60822E+07         0.00000E+00
    0.60822E+07        -0.62157E+08         0.00000E+00
    0.00000E+00         0.00000E+00        -0.39466E+08
 
   -0.39704E+08         0.78002E+07         0.00000E+00
    0.78002E+07        -0.62479E+08         0.00000E+00
    0.00000E+00         0.00000E+00        -0.39362E+08
 
   -0.58118E+08        -0.50632E+06         0.00000E+00
   -0.50632E+06        -0.60019E+08         0.00000E+00
    0.00000E+00         0.00000E+00        -0.41064E+08
 
   -0.56435E+08        -0.13003E+07         0.00000E+00
   -0.13003E+07        -0.60088E+08         0.00000E+00
    0.00000E+00         0.00000E+00        -0.40740E+08
 
   -0.54689E+08        -0.18072E+07         0.00000E+00
   -0.18072E+07        -0.60190E+08         0.00000E+00
    0.00000E+00         0.00000E+00        -0.40409E+08
 
   -0.52948E+08        -0.20479E+07         0.00000E+00
   -0.20479E+07        -0.60296E+08         0.00000E+00
    0.00000E+00         0.00000E+00        -0.40079E+08
 
   -0.51254E+08        -0.20514E+07         0.00000E+00
   -0.20514E+07        -0.60394E+08         0.00000E+00
    0.00000E+00         0.00000E+00        -0.39757E+08
 
   -0.49631E+08        -0.18475E+07         0.00000E+00
   -0.18475E+07        -0.60483E+08         0.00000E+00
    0.00000E+00         0.00000E+00        -0.39447E+08
 
   -0.48084E+08        -0.14612E+07         0.00000E+00
   -0.14612E+07        -0.60572E+08         0.00000E+00
    0.00000E+00         0.00000E+00        -0.39152E+08
 
   -0.46609E+08        -0.91038E+06         0.00000E+00
   -0.91038E+06        -0.60672E+08         0.00000E+00
    0.00000E+00         0.00000E+00        -0.38874E+08
 
   -0.45196E+08        -0.20495E+06         0.00000E+00
   -0.20495E+06        -0.60801E+08         0.00000E+00
    0.00000E+00         0.00000E+00        -0.38613E+08
 
   -0.43835E+08         0.65251E+06         0.00000E+00
    0.65251E+06        -0.60971E+08         0.00000E+00
    0.00000E+00         0.00000E+00        -0.38372E+08
 
   -0.42519E+08         0.16658E+07         0.00000E+00
    0.16658E+07        -0.61192E+08         0.00000E+00
    0.00000E+00         0.00000E+00        -0.38150E+08
 
   -0.41250E+08         0.28435E+07         0.00000E+00
    0.28435E+07        -0.61470E+08         0.00000E+00
    0.00000E+00         0.00000E+00        -0.37949E+08
 
   -0.40039E+08         0.41957E+07         0.00000E+00
    0.41957E+07        -0.61800E+08         0.00000E+00
    0.00000E+00         0.00000E+00        -0.37771E+08
 
   -0.38912E+08         0.57305E+07         0.00000E+00
    0.57305E+07        -0.62170E+08         0.00000E+00
    0.00000E+00         0.00000E+00        -0.37618E+08
 
   -0.37906E+08         0.74480E+07         0.00000E+00
    0.74480E+07        -0.62556E+08         0.00000E+00
    0.00000E+00         0.00000E+00        -0.37493E+08
 
   -0.59095E+08        -0.54951E+06         0.00000E+00
   -0.54951E+06        -0.60020E+08         0.00000E+00
    0.00000E+00         0.00000E+00        -0.39739E+08
 
   -0.57097E+08        -0.13919E+07         0.00000E+00
   -0.13919E+07        -0.60087E+08         0.00000E+00
    0.00000E+00         0.00000E+00        -0.39352E+08
 
   -0.55058E+08        -0.19083E+07         0.00000E+00
   -0.19083E+07        -0.60177E+08         0.00000E+00
    0.00000E+00         0.00000E+00        -0.38960E+08
 
   -0.53059E+08        -0.21370E+07         0.00000E+00
   -0.21370E+07        -0.60257E+08         0.00000E+00
    0.00000E+00         0.00000E+00        -0.38573E+08
 
   -0.51144E+08        -0.21241E+07         0.00000E+00
   -0.21241E+07        -0.60314E+08         0.00000E+00
    0.00000E+00         0.00000E+00        -0.38198E+08
 
   -0.49332E+08        -0.19116E+07         0.00000E+00
   -0.19116E+07        -0.60356E+08         0.00000E+00
    0.00000E+00         0.00000E+00        -0.37841E+08
 
   -0.47621E+08        -0.15315E+07         0.00000E+00
   -0.15315E+07        -0.60395E+08         0.00000E+00
    0.00000E+00         0.00000E+00        -0.37503E+08
 
   -0.45996E+08        -0.10044E+07         0.00000E+00
   -0.10044E+07        -0.60452E+08         0.00000E+00
    0.00000E+00         0.00000E+00        -0.37186E+08
 
   -0.44439E+08        -0.34006E+06         0.00000E+00
   -0.34006E+06        -0.60548E+08         0.00000E+00
    0.00000E+00         0.00000E+00        -0.36890E+08
 
   -0.42930E+08         0.46184E+06         0.00000E+00
    0.46184E+06        -0.60700E+08         0.00000E+00
    0.00000E+00         0.00000E+00        -0.36615E+08
 
   -0.41458E+08         0.14101E+07         0.00000E+00
    0.14101E+07        -0.60922E+08         0.00000E+00
    0.00000E+00         0.00000E+00        -0.36362E+08
 
   -0.40018E+08         0.25208E+07         0.00000E+00
    0.25208E+07        -0.61222E+08         0.00000E+00
    0.00000E+00         0.00000E+00        -0.36132E+08
 
   -0.38621E+08         0.38146E+07         0.00000E+00
    0.38146E+07        -0.61596E+08         0.00000E+00
    0.00000E+00         0.00000E+00        -0.35925E+08
 
   -0.37296E+08         0.53114E+07         0.00000E+00
    0.53114E+07        -0.62031E+08         0.00000E+00
    0.00000E+00         0.00000E+00        -0.35746E+08
 
   -0.36094E+08         0.70228E+07         0.00000E+00
    0.70228E+07        -0.62495E+08         0.00000E+00
    0.00000E+00         0.00000E+00        -0.35597E+08
 
   -0.60145E+08        -0.59340E+06         0.00000E+00
   -0.59340E+06        -0.60020E+08         0.00000E+00
    0.00000E+00         0.00000E+00        -0.38428E+08
 
   -0.57779E+08        -0.14741E+07         0.00000E+00
   -0.14741E+07        -0.60080E+08         0.00000E+00
    0.00000E+00         0.00000E+00        -0.37966E+08
 
   -0.55415E+08        -0.19809E+07         0.00000E+00
   -0.19809E+07        -0.60143E+08         0.00000E+00
    0.00000E+00         0.00000E+00        -0.37503E+08
 
   -0.53145E+08        -0.21793E+07         0.00000E+00
   -0.21793E+07        -0.60172E+08         0.00000E+00
    0.00000E+00         0.00000E+00        -0.37053E+08
 
   -0.51016E+08        -0.21381E+07         0.00000E+00
   -0.21381E+07        -0.60162E+08         0.00000E+00
    0.00000E+00         0.00000E+00        -0.36622E+08
 
   -0.49032E+08        -0.19134E+07         0.00000E+00
   -0.19134E+07        -0.60128E+08         0.00000E+00
    0.00000E+00         0.00000E+00        -0.36215E+08
 
   -0.47176E+08        -0.15435E+07         0.00000E+00
   -0.15435E+07        -0.60095E+08         0.00000E+00
    0.00000E+00         0.00000E+00        -0.35833E+08
 
   -0.45422E+08        -0.10499E+07         0.00000E+00
   -0.10499E+07        -0.60089E+08         0.00000E+00
    0.00000E+00         0.00000E+00        -0.35478E+08
 
   -0.43738E+08        -0.44090E+06         0.00000E+00
   -0.44090E+06        -0.60134E+08         0.00000E+00
    0.00000E+00         0.00000E+00        -0.35146E+08
 
   -0.42097E+08         0.28695E+06         0.00000E+00
    0.28695E+06        -0.60254E+08         0.00000E+00
    0.00000E+00         0.00000E+00        -0.34839E+08
 
   -0.40476E+08         0.11476E+07         0.00000E+00
    0.11476E+07        -0.60466E+08         0.00000E+00
    0.00000E+00         0.00000E+00        -0.34554E+08
 
   -0.38863E+08         0.21657E+07         0.00000E+00
    0.21657E+07        -0.60782E+08         0.00000E+00
    0.00000E+00         0.00000E+00        -0.34292E+08
 
   -0.37264E+08         0.33747E+07         0.00000E+00
    0.33747E+07        -0.61203E+08         0.00000E+00
    0.00000E+00         0.00000E+00        -0.34055E+08
 
   -0.35712E+08         0.48119E+07         0.00000E+00
    0.48119E+07        -0.61713E+08         0.00000E+00
    0.00000E+00         0.00000E+00        -0.33845E+08
 
   -0.34271E+08         0.65067E+07         0.00000E+00
    0.65067E+07        -0.62273E+08         0.00000E+00
    0.00000E+00         0.00000E+00        -0.33668E+08
 
   -0.61260E+08        -0.63579E+06         0.00000E+00
   -0.63579E+06        -0.60019E+08         0.00000E+00
    0.00000E+00         0.00000E+00        -0.37129E+08
 
   -0.58459E+08        -0.15337E+07         0.00000E+00
   -0.15337E+07        -0.60062E+08         0.00000E+00
    0.00000E+00         0.00000E+00        -0.36577E+08
 
   -0.55733E+08        -0.20001E+07         0.00000E+00
   -0.20001E+07        -0.60073E+08         0.00000E+00
    0.00000E+00         0.00000E+00        -0.36032E+08
 
   -0.53191E+08        -0.21434E+07         0.00000E+00
   -0.21434E+07        -0.60018E+08         0.00000E+00
    0.00000E+00         0.00000E+00        -0.35510E+08
 
   -0.50864E+08        -0.20626E+07         0.00000E+00
   -0.20626E+07        -0.59905E+08         0.00000E+00
    0.00000E+00         0.00000E+00        -0.35018E+08
 
   -0.48733E+08        -0.18265E+07         0.00000E+00
   -0.18265E+07        -0.59767E+08         0.00000E+00
    0.00000E+00         0.00000E+00        -0.34561E+08
 
   -0.46759E+08        -0.14754E+07         0.00000E+00
   -0.14754E+07        -0.59638E+08         0.00000E+00
    0.00000E+00         0.00000E+00        -0.34137E+08
 
   -0.44900E+08        -0.10290E+07         0.00000E+00
   -0.10290E+07        -0.59550E+08         0.00000E+00
    0.00000E+00         0.00000E+00        -0.33745E+08
 
   -0.43112E+08        -0.49250E+06         0.00000E+00
   -0.49250E+06        -0.59530E+08         0.00000E+00
    0.00000E+00         0.00000E+00        -0.33380E+08
 
   -0.41357E+08         0.14046E+06         0.00000E+00
    0.14046E+06        -0.59604E+08         0.00000E+00
    0.00000E+00         0.00000E+00        -0.33041E+08
 
   -0.39599E+08         0.88782E+06         0.00000E+00
    0.88782E+06        -0.59795E+08         0.00000E+00
    0.00000E+00         0.00000E+00        -0.32725E+08
 
   -0.37815E+08         0.17816E+07         0.00000E+00
    0.17816E+07        -0.60120E+08         0.00000E+00
    0.00000E+00         0.00000E+00        -0.32430E+08
 
   -0.35999E+08         0.28700E+07         0.00000E+00
    0.28700E+07        -0.60588E+08         0.00000E+00
    0.00000E+00         0.00000E+00        -0.32159E+08
 
   -0.34181E+08         0.42146E+07         0.00000E+00
    0.42146E+07        -0.61186E+08         0.00000E+00
    0.00000E+00         0.00000E+00        -0.31914E+08
 
   -0.32441E+08         0.58740E+07         0.00000E+00
    0.58740E+07        -0.61868E+08         0.00000E+00
    0.00000E+00         0.00000E+00        -0.31701E+08
 
   -0.62426E+08        -0.67313E+06         0.00000E+00
   -0.67313E+06        -0.60016E+08         0.00000E+00
    0.00000E+00         0.00000E+00        -0.35838E+08
 
   -0.59097E+08        -0.15478E+07         0.00000E+00
   -0.15478E+07        -0.60024E+08         0.00000E+00
    0.00000E+00         0.00000E+00        -0.35173E+08
 
   -0.55979E+08        -0.19262E+07         0.00000E+00
   -0.19262E+07        -0.59942E+08         0.00000E+00
    0.00000E+00         0.00000E+00        -0.34531E+08
 
   -0.53180E+08        -0.19875E+07         0.00000E+00
   -0.19875E+07        -0.59751E+08         0.00000E+00
    0.00000E+00         0.00000E+00        -0.33931E+08
 
   -0.50687E+08        -0.18631E+07         0.00000E+00
   -0.18631E+07        -0.59495E+08         0.00000E+00
    0.00000E+00         0.00000E+00        -0.33379E+08
 
   -0.48443E+08        -0.16258E+07         0.00000E+00
   -0.16258E+07        -0.59225E+08         0.00000E+00
    0.00000E+00         0.00000E+00        -0.32873E+08
 
   -0.46383E+08        -0.13095E+07         0.00000E+00
   -0.13095E+07        -0.58982E+08         0.00000E+00
    0.00000E+00         0.00000E+00        -0.32409E+08
 
   -0.44447E+08        -0.92820E+06         0.00000E+00
   -0.92820E+06        -0.58800E+08         0.00000E+00
    0.00000E+00         0.00000E+00        -0.31983E+08
 
   -0.42580E+08        -0.48316E+06         0.00000E+00
   -0.48316E+06        -0.58707E+08         0.00000E+00
    0.00000E+00         0.00000E+00        -0.31588E+08
 
   -0.40733E+08         0.33810E+05         0.00000E+00
    0.33810E+05        -0.58727E+08         0.00000E+00
    0.00000E+00         0.00000E+00        -0.31220E+08
 
   -0.38858E+08         0.64177E+06         0.00000E+00
    0.64177E+06        -0.58885E+08         0.00000E+00
    0.00000E+00         0.00000E+00        -0.30874E+08
 
   -0.36913E+08         0.13756E+07         0.00000E+00
    0.13756E+07        -0.59207E+08         0.00000E+00
    0.00000E+00         0.00000E+00        -0.30548E+08
 
   -0.34869E+08         0.22963E+07         0.00000E+00
    0.22963E+07        -0.59717E+08         0.00000E+00
    0.00000E+00         0.00000E+00        -0.30239E+08
 
   -0.32740E+08         0.34972E+07         0.00000E+00
    0.34972E+07        -0.60416E+08         0.00000E+00
    0.00000E+00         0.00000E+00        -0.29952E+08
 
   -0.30617E+08         0.50875E+07         0.00000E+00
    0.50875E+07        -0.61254E+08         0.00000E+00
    0.00000E+00         0.00000E+00        -0.29694E+08
 
   -0.63608E+08        -0.69723E+06         0.00000E+00
   -0.69723E+06        -0.60007E+08         0.00000E+00
    0.00000E+00         0.00000E+00        -0.34547E+08
 
   -0.59631E+08        -0.14690E+07         0.00000E+00
   -0.14690E+07        -0.59937E+08         0.00000E+00
    0.00000E+00         0.00000E+00        -0.33737E+08
 
   -0.56114E+08        -0.16940E+07         0.00000E+00
   -0.16940E+07        -0.59683E+08         0.00000E+00
    0.00000E+00         0.00000E+00        -0.32981E+08
 
   -0.53105E+08        -0.16601E+07         0.00000E+00
   -0.16601E+07        -0.59291E+08         0.00000E+00
    0.00000E+00         0.00000E+00        -0.32299E+08
 
   -0.50499E+08        -0.15096E+07         0.00000E+00
   -0.15096E+07        -0.58856E+08         0.00000E+00
    0.00000E+00         0.00000E+00        -0.31689E+08
 
   -0.48184E+08        -0.12955E+07         0.00000E+00
   -0.12955E+07        -0.58439E+08         0.00000E+00
    0.00000E+00         0.00000E+00        -0.31140E+08
 
   -0.46070E+08        -0.10380E+07         0.00000E+00
   -0.10380E+07        -0.58079E+08         0.00000E+00
    0.00000E+00         0.00000E+00        -0.30643E+08
 
   -0.44083E+08        -0.74284E+06         0.00000E+00
   -0.74284E+06        -0.57804E+08         0.00000E+00
    0.00000E+00         0.00000E+00        -0.30188E+08
 
   -0.42162E+08        -0.40815E+06         0.00000E+00
   -0.40815E+06        -0.57638E+08         0.00000E+00
    0.00000E+00         0.00000E+00        -0.29769E+08
 
   -0.40247E+08        -0.25657E+05         0.00000E+00
   -0.25657E+05        -0.57601E+08         0.00000E+00
    0.00000E+00         0.00000E+00        -0.29376E+08
 
   -0.38281E+08         0.42107E+06         0.00000E+00
    0.42107E+06        -0.57720E+08         0.00000E+00
    0.00000E+00         0.00000E+00        -0.29005E+08
 
   -0.36200E+08         0.96260E+06         0.00000E+00
    0.96260E+06        -0.58026E+08         0.00000E+00
    0.00000E+00         0.00000E+00        -0.28648E+08
 
   -0.33936E+08         0.16584E+07         0.00000E+00
    0.16584E+07        -0.58558E+08         0.00000E+00
    0.00000E+00         0.00000E+00        -0.28301E+08
 
   -0.31450E+08         0.26351E+07         0.00000E+00
    0.26351E+07        -0.59362E+08         0.00000E+00
    0.00000E+00         0.00000E+00        -0.27963E+08
 
   -0.28822E+08         0.40909E+07         0.00000E+00
    0.40909E+07        -0.60403E+08         0.00000E+00
    0.00000E+00         0.00000E+00        -0.27645E+08
 
   -0.64723E+08        -0.67904E+06         0.00000E+00
   -0.67904E+06        -0.59974E+08         0.00000E+00
    0.00000E+00         0.00000E+00        -0.33236E+08
 
   -0.59957E+08        -0.11832E+07         0.00000E+00
   -0.11832E+07        -0.59700E+08         0.00000E+00
    0.00000E+00         0.00000E+00        -0.32227E+08
 
   -0.56118E+08        -0.12116E+07         0.00000E+00
   -0.12116E+07        -0.59137E+08         0.00000E+00
    0.00000E+00         0.00000E+00        -0.31346E+08
 
   -0.52994E+08        -0.11237E+07         0.00000E+00
   -0.11237E+07        -0.58500E+08         0.00000E+00
    0.00000E+00         0.00000E+00        -0.30592E+08
 
   -0.50333E+08        -0.99321E+06         0.00000E+00
   -0.99321E+06        -0.57886E+08         0.00000E+00
    0.00000E+00         0.00000E+00        -0.29936E+08
 
   -0.47983E+08        -0.83985E+06         0.00000E+00
   -0.83985E+06        -0.57337E+08         0.00000E+00
    0.00000E+00         0.00000E+00        -0.29354E+08
 
   -0.45841E+08        -0.66920E+06         0.00000E+00
   -0.66920E+06        -0.56878E+08         0.00000E+00
    0.00000E+00         0.00000E+00        -0.28833E+08
 
   -0.43827E+08        -0.48133E+06         0.00000E+00
   -0.48133E+06        -0.56527E+08         0.00000E+00
    0.00000E+00         0.00000E+00        -0.28358E+08
 
   -0.41873E+08        -0.27318E+06         0.00000E+00
   -0.27318E+06        -0.56301E+08         0.00000E+00
    0.00000E+00         0.00000E+00        -0.27921E+08
 
   -0.39915E+08        -0.38630E+05         0.00000E+00
   -0.38630E+05        -0.56218E+08         0.00000E+00
    0.00000E+00         0.00000E+00        -0.27511E+08
 
   -0.37888E+08         0.23307E+06         0.00000E+00
    0.23307E+06        -0.56300E+08         0.00000E+00
    0.00000E+00         0.00000E+00        -0.27121E+08
 
   -0.35710E+08         0.56182E+06         0.00000E+00
    0.56182E+06        -0.56579E+08         0.00000E+00
    0.00000E+00         0.00000E+00        -0.26740E+08
 
   -0.33277E+08         0.98845E+06         0.00000E+00
    0.98845E+06        -0.57106E+08         0.00000E+00
    0.00000E+00         0.00000E+00        -0.26358E+08
 
   -0.30425E+08         0.16165E+07         0.00000E+00
    0.16165E+07        -0.57967E+08         0.00000E+00
    0.00000E+00         0.00000E+00        -0.25959E+08
 
   -0.27118E+08         0.27891E+07         0.00000E+00
    0.27891E+07        -0.59279E+08         0.00000E+00
    0.00000E+00         0.00000E+00        -0.25560E+08
 
   -0.65530E+08        -0.42790E+06         0.00000E+00
   -0.42790E+06        -0.59690E+08         0.00000E+00
    0.00000E+00         0.00000E+00        -0.31810E+08
 
   -0.60004E+08        -0.48907E+06         0.00000E+00
   -0.48907E+06        -0.58907E+08         0.00000E+00
    0.00000E+00         0.00000E+00        -0.30548E+08
 
   -0.56070E+08        -0.44774E+06         0.00000E+00
   -0.44774E+06        -0.58032E+08         0.00000E+00
    0.00000E+00         0.00000E+00        -0.29586E+08
 
   -0.52910E+08        -0.40030E+06         0.00000E+00
   -0.40030E+06        -0.57211E+08         0.00000E+00
    0.00000E+00         0.00000E+00        -0.28789E+08
 
   -0.50233E+08        -0.34758E+06         0.00000E+00
   -0.34758E+06        -0.56480E+08         0.00000E+00
    0.00000E+00         0.00000E+00        -0.28107E+08
 
   -0.47872E+08        -0.29131E+06         0.00000E+00
   -0.29131E+06        -0.55851E+08         0.00000E+00
    0.00000E+00         0.00000E+00        -0.27508E+08
 
   -0.45720E+08        -0.23129E+06         0.00000E+00
   -0.23129E+06        -0.55336E+08         0.00000E+00
    0.00000E+00         0.00000E+00        -0.26974E+08
 
   -0.43694E+08        -0.16667E+06         0.00000E+00
   -0.16667E+06        -0.54943E+08         0.00000E+00
    0.00000E+00         0.00000E+00        -0.26490E+08
 
   -0.41725E+08        -0.96004E+05         0.00000E+00
   -0.96004E+05        -0.54684E+08         0.00000E+00
    0.00000E+00         0.00000E+00        -0.26044E+08
 
   -0.39747E+08        -0.17042E+05         0.00000E+00
   -0.17042E+05        -0.54574E+08         0.00000E+00
    0.00000E+00         0.00000E+00        -0.25626E+08
 
   -0.37690E+08         0.73912E+05         0.00000E+00
    0.73912E+05        -0.54633E+08         0.00000E+00
    0.00000E+00         0.00000E+00        -0.25226E+08
 
   -0.35464E+08         0.18347E+06         0.00000E+00
    0.18347E+06        -0.54892E+08         0.00000E+00
    0.00000E+00         0.00000E+00        -0.24832E+08
 
   -0.32939E+08         0.32600E+06         0.00000E+00
    0.32600E+06        -0.55402E+08         0.00000E+00
    0.00000E+00         0.00000E+00        -0.24429E+08
 
   -0.29888E+08         0.53416E+06         0.00000E+00
    0.53416E+06        -0.56262E+08         0.00000E+00
    0.00000E+00         0.00000E+00        -0.23990E+08
 
   -0.25659E+08         0.10233E+07         0.00000E+00
    0.10233E+07        -0.57746E+08         0.00000E+00
    0.00000E+00         0.00000E+00        -0.23441E+08
 
SCALARS stressS double 
LOOKUP_TABLE default
  -55063203.0819982     
  -56060699.5997917     
  -58058486.2772749     
  -60438461.4106589     
  -62730907.6017792     
  -64752138.5504421     
  -66266435.5232543     
  -67508022.5360746     
  -68585877.3332897     
  -69557577.2093275     
  -70462978.6273546     
  -71337514.0776522     
  -72222275.0107835     
  -73179016.1675452     
  -74381266.7010291     
  -57301874.8377078     
  -58409494.5742787     
  -59756900.2813109     
  -61041382.2221832     
  -62345352.3846190     
  -63720723.5425244     
  -65051517.3847437     
  -66209386.9679789     
  -67238049.7534868     
  -68173692.4642952     
  -69046689.8125754     
  -69884943.1832503     
  -70717299.1211006     
  -71581376.0005625     
  -72440959.9393105     
  -58080484.9651856     
  -59156910.4962658     
  -59902200.4842571     
  -60738284.6078826     
  -61797925.9480575     
  -62914001.5791083     
  -64009616.8917729     
  -65039670.3222503     
  -65983824.0901491     
  -66854774.7800546     
  -67669042.0289235     
  -68443066.5134748     
  -69191322.8624459     
  -69912219.4036144     
  -70585267.3911541     
  -57801573.8344703     
  -58624711.8716712     
  -59465148.6009507     
  -60305639.1294534     
  -61198663.8288396     
  -62135944.7589989     
  -63068502.9761796     
  -63964565.6326574     
  -64808651.0599027     
  -65597474.8248587     
  -66336145.5662510     
  -67030830.3652031     
  -67683401.3692634     
  -68287423.8211034     
  -68823290.6385767     
  -57431669.4361358     
  -58225394.2457743     
  -58996689.1017280     
  -59776358.7735515     
  -60569808.8990844     
  -61375240.4566739     
  -62176936.7928641     
  -62955390.3484292     
  -63697640.9793157     
  -64397509.7931266     
  -65053133.1641683     
  -65663723.7221079     
  -66226040.8468301     
  -66731451.2959379     
  -67164789.9120532     
  -57127831.8324177     
  -57838653.0673402     
  -58536089.8491474     
  -59231133.2090957     
  -59929710.9287672     
  -60628842.5518909     
  -61320438.8210303     
  -61993879.2493589     
  -62639543.3651845     
  -63250645.5528478     
  -63822574.7746516     
  -64351198.3471180     
  -64830952.5967697     
  -65253362.7503921     
  -65606460.3541014     
  -56863975.6464249     
  -57476080.5871224     
  -58083986.1960743     
  -58690544.5632309     
  -59296445.7547310     
  -59899228.8217367     
  -60493305.5987931     
  -61071590.2041486     
  -61626940.8610809     
  -62153064.4933677     
  -62644520.5661580     
  -63095990.0908600     
  -63501334.7622346     
  -63852872.5175485     
  -64141204.4783962     
  -56620662.6978446     
  -57130184.6096995     
  -57644434.6700616     
  -58160715.8000060     
  -58676745.1450846     
  -59189183.2552197     
  -59693426.5484045     
  -60183979.2654596     
  -60655097.4474667     
  -61101210.7981867     
  -61516975.1116021     
  -61896993.2782978     
  -62235400.2189634     
  -62525563.1943360     
  -62760087.5231818     
  -56383330.3245307     
  -56794079.5718655     
  -57215904.7982583     
  -57643479.4308295     
  -58072649.1744594     
  -58499409.9092567     
  -58919429.2147733     
  -59328027.4101436     
  -59720345.0088604     
  -60091505.4758205     
  -60436643.3835049     
  -60750797.6168660     
  -61028753.6068866     
  -61264954.6554944     
  -61453588.4698106     
  -56143309.2410830     
  -56462132.8748633     
  -56795848.7051350     
  -57138129.9914195     
  -57484031.4509089     
  -57829237.5395101     
  -58169614.0549883     
  -58501015.7614566     
  -58819255.2108994     
  -59120119.0407242     
  -59399363.4923448     
  -59652672.4866885     
  -59875610.9139370     
  -60063629.3366623     
  -60212172.0478248     
  -55896063.2807578     
  -56130741.2276465     
  -56381868.4214279     
  -56643168.2032355     
  -56909663.4159694     
  -57177150.3076565     
  -57441821.9518704     
  -57700045.2763627     
  -57948250.5359226     
  -58182882.2342071     
  -58400371.3000804     
  -58597114.3410712     
  -58769469.6645355     
  -58913793.7009529     
  -59026540.8397049     
  -55640095.2529084     
  -55798106.7517288     
  -55972272.6951690     
  -56157021.6408869     
  -56347887.7410926     
  -56541142.0981848     
  -56733500.4531971     
  -56921920.0392230     
  -57103474.1645595     
  -57275281.2842571     
  -57434467.6759704     
  -57578152.7754930     
  -57703457.8294945     
  -57807545.7067713     
  -57887699.8906142     
  -55376078.6985952     
  -55463914.1130739     
  -55566155.3879848     
  -55678358.2678441     
  -55796946.1313092     
  -55918952.9118946     
  -56041805.1339687     
  -56163157.4072340     
  -56280780.7150067     
  -56392494.2131281     
  -56496129.4184233     
  -56589518.9146970     
  -56670506.5690705     
  -56736979.7766151     
  -56786924.5642049     
  -55106229.3352238     
  -55128982.1231769     
  -55163306.0869644     
  -55206160.2386404     
  -55255119.3611082     
  -55308195.6310012     
  -55363682.2501635     
  -55420031.1551358     
  -55475767.6150557     
  -55529437.9561764     
  -55579583.7995960     
  -55624736.4039016     
  -55663426.4887059     
  -55694206.6261482     
  -55715683.8307746     
  -54833831.5204427     
  -54794948.8031613     
  -54764050.5791053     
  -54739683.1226789     
  -54720753.0610842     
  -54706405.0190560     
  -54695915.1066279     
  -54688609.5279518     
  -54683810.9990459     
  -54680810.4281742     
  -54678858.2724435     
  -54677169.0883847     
  -54674933.3514791     
  -54671331.7563484     
  -54665548.2273918     
  -54562870.4047713     
  -54463993.4459892     
  -54369069.2457889     
  -54278356.5533197     
  -54192216.7338180     
  -54111031.0622709     
  -54035134.8594700     
  -53964775.0949940     
  -53900092.2770624     
  -53841122.6824302     
  -53787813.9821595     
  -53740046.1871452     
  -53697650.2159994     
  -53660417.7267120     
  -53628097.6441648     
  -54297733.7416231     
  -54138589.3290780     
  -53979208.8011847     
  -53821652.7375974     
  -53667820.0058889     
  -53519391.9136286     
  -53377800.4279892     
  -53244224.5684107     
  -53119612.6015765     
  -53004722.6488823     
  -52900171.3521317     
  -52806479.3537090     
  -52724103.1939340     
  -52653445.3341287     
  -52594836.9116120     
  -54042959.5245034     
  -53821276.4063811     
  -53595288.8441652     
  -53368931.2786928     
  -53145696.2692003     
  -52928594.2419845     
  -52720151.9552021     
  -52522450.8256928     
  -52337197.8006091     
  -52165815.6404049     
  -52009536.6389433     
  -51869483.5988913     
  -51746723.7230129     
  -51642284.4377025     
  -51557124.5666004     
  -53803013.1750654     
  -53514442.1123960     
  -53217896.4955686     
  -52919257.9176807     
  -52623654.0012419     
  -52335422.6059263     
  -52058140.1580614     
  -51794710.5128798     
  -51547498.9762249     
  -51318489.3589789     
  -51109439.7859435     
  -50922014.1475878     
  -50757869.4580934     
  -50618684.3705941     
  -50506120.4555439     
  -53582082.7822651     
  -53220096.6130453     
  -52847155.7106029     
  -52471186.0039333     
  -52098987.9894314     
  -51736193.9181042     
  -51387331.4434983     
  -51055980.7336956     
  -50744995.7316376     
  -50456753.5556085     
  -50193396.3017917     
  -49957033.3542592     
  -49749877.5892877     
  -49574295.5027873     
  -49432759.8476573     
  -53383883.2145990     
  -52939624.4372894     
  -52482449.1172880     
  -52022479.6446337     
  -51568234.4049559     
  -51126567.7911651     
  -50702786.5131241     
  -50300908.6414113     
  -49924010.9489692     
  -49574607.4805116     
  -49255009.5230863     
  -48967625.7605318     
  -48715168.3302555     
  -48500737.0623793     
  -48327764.7871215     
  -53211459.2057785     
  -52673484.3817304     
  -52122055.5828175     
  -51569743.4882244     
  -51026843.8045978     
  -50501298.7051414     
  -49998909.2782575     
  -49523759.2024886     
  -49078748.7637697     
  -48666152.0842457     
  -48288134.6827678     
  -47947185.6508324     
  -47646422.9195939     
  -47389732.0343754     
  -47181707.1464553     
  -53066971.4247166     
  -52420807.8146697     
  -51762639.8087819     
  -51107902.1173982     
  -50468734.2485132     
  -49853913.2669223     
  -49269265.3686617     
  -48718370.0801741     
  -48203370.8804206     
  -47725767.9106354     
  -47287132.6996690     
  -46889710.7690250     
  -46536871.5667047     
  -46233339.1487695     
  -45985142.4429211     
  -52951431.5189611     
  -52178798.6094260     
  -51398478.2406895     
  -50629436.9810204     
  -49885675.2436711     
  -49176301.1881923     
  -48506380.0036568     
  -47878129.9912086     
  -47292128.6817288     
  -46748381.6677321     
  -46247247.4277840     
  -45790250.7257443     
  -45380745.5906555     
  -45024329.6952573     
  -44728839.6655440     
  -52864307.9861049     
  -51941729.5363906     
  -51020202.5827742     
  -50123235.0905869     
  -49266454.1892436     
  -48458237.8585988     
  -47701552.3637338     
  -46996008.1447241     
  -46339565.9649474     
  -45729834.1018912     
  -45165144.7042916     
  -44645576.1555425     
  -44173989.9983866     
  -43756789.9120036     
  -43404147.7363219     
  -52802790.0601073     
  -51699075.0854983     
  -50612622.3903498     
  -49572841.5745355     
  -48595836.1900306     
  -47686940.5129389     
  -46844781.8841693     
  -46064675.0532753     
  -45340781.1635190     
  -44667336.4605037     
  -44039615.9351889     
  -43455185.8676941     
  -42915388.5009234     
  -42427139.3629409     
  -42003559.1178125     
  -52760171.4424997     
  -51431547.8643682     
  -50150769.9140689     
  -48953939.4845332     
  -47853560.9280018     
  -46846978.5445218     
  -45924960.0620587     
  -45076759.2487039     
  -44291707.4264049     
  -43559859.2174639     
  -42872443.9861468     
  -42222663.4427770     
  -41608578.2807695     
  -41035852.4819731     
  -40521725.6762725     
  -52720780.6070551     
  -51101897.3000479     
  -49592499.2483396     
  -48231491.5425738     
  -47014575.3369808     
  -45920958.5682175     
  -44930520.2843519     
  -44025268.3163944     
  -43189310.3280915     
  -42408264.1958335     
  -41668688.7999506     
  -40957979.3902205     
  -40264908.6966639     
  -39591783.1006716     
  -38956913.2603117     
  -52644157.5933606     
  -50627891.7027876     
  -48867033.8688965     
  -47362372.3439344     
  -46051411.7152998     
  -44891463.2671366     
  -43850618.7294219     
  -42904156.1915965     
  -42031628.7387134     
  -41214835.0211715     
  -40436105.6550757     
  -39676422.2454418     
  -38913786.7785839     
  -38117099.9398840     
  -37318685.6488105     
  -52343464.4040276     
  -49819822.3869655     
  -47895554.9739898     
  -46303537.5677241     
  -44939796.8362372     
  -43744035.2248936     
  -42676714.7362528     
  -41708952.0857496     
  -40817617.1859670     
  -39982276.1689239     
  -39182664.9917008     
  -38395676.5722744     
  -37589760.2737095     
  -36713250.7807392     
  -35615474.0803333     
SCALARS 2waySource double 
LOOKUP_TABLE default
  1.331505836372483E-005
  8.828855633451550E-006
  6.255476579055550E-006
  4.581254110476079E-006
  3.452866276861319E-006
  2.669647033294923E-006
  2.108130588797812E-006
  1.684737081880482E-006
  1.337885154682389E-006
  1.017210119897350E-006
  6.755782345538248E-007
  2.611429684183189E-007
 -2.949479797657103E-007
 -1.097011854032586E-006
 -2.448699156355190E-006
  1.365849244835894E-005
  1.087697211076660E-005
  8.844733337772915E-006
  7.471628267114687E-006
  6.517895263317556E-006
  5.843308103380326E-006
  5.352226911286956E-006
  4.977325002359090E-006
  4.667775877756255E-006
  4.381697600164468E-006
  4.080340091687369E-006
  3.722448391687133E-006
  3.258390387071022E-006
  2.611574489024838E-006
  1.703576700661432E-006
  1.336808752176800E-005
  1.198871172470935E-005
  1.076959133757380E-005
  9.840379820909395E-006
  9.164883229507422E-006
  8.672678550836214E-006
  8.307626941450174E-006
  8.025637477700971E-006
  7.791733071659518E-006
  7.576607817994762E-006
  7.353706226107766E-006
  7.096870357693594E-006
  6.777555929810399E-006
  6.369228549692466E-006
  5.861712604747344E-006
  1.291993152220007E-005
  1.259615080996713E-005
  1.214771486323656E-005
  1.172571237652875E-005
  1.138299096913272E-005
  1.111941506120480E-005
  1.091816104739441E-005
  1.076072413099455E-005
  1.063002978117340E-005
  1.051102296244669E-005
  1.039049523997900E-005
  1.025701334624759E-005
  1.010259017636353E-005
  9.927639731094746E-006
  9.757149048880109E-006
  1.240821560997768E-005
  1.290911182812329E-005
  1.311596963262770E-005
  1.317652581729102E-005
  1.317752672329539E-005
  1.316060795888841E-005
  1.314217533543097E-005
  1.312706499092184E-005
  1.311552683594539E-005
  1.310642170668633E-005
  1.309908849464539E-005
  1.309514526614351E-005
  1.310124615947762E-005
  1.313464851671075E-005
  1.323128326939513E-005
  1.187335065137067E-005
  1.302010119366596E-005
  1.376201032464547E-005
  1.424276071283066E-005
  1.456282277979344E-005
  1.478638354067849E-005
  1.495230121002377E-005
  1.508402842561101E-005
  1.519657121944323E-005
  1.530094100211369E-005
  1.540722856735020E-005
  1.552731858528100E-005
  1.567811563041074E-005
  1.588571815189415E-005
  1.619022309907647E-005
  1.134039846715901E-005
  1.297800850375865E-005
  1.413889068903290E-005
  1.496358678021453E-005
  1.555789612948713E-005
  1.599751256062151E-005
  1.633492914127500E-005
  1.660652850567747E-005
  1.683852085073517E-005
  1.705147685954391E-005
  1.726384588073503E-005
  1.749502555913401E-005
  1.776844288514420E-005
  1.811482865761353E-005
  1.857530419318725E-005
  1.082809569419414E-005
  1.281392694571994E-005
  1.428260045871502E-005
  1.537055333729189E-005
  1.618416806132489E-005
  1.680390536984561E-005
  1.728942616115841E-005
  1.768494403867521E-005
  1.802411291029920E-005
  1.833416049021631E-005
  1.863934396264660E-005
  1.896397135149304E-005
  1.933521233059034E-005
  1.978574765913334E-005
  2.035606776664531E-005
  1.035106901926136E-005
  1.255148306594230E-005
  1.422198087039882E-005
  1.549249448809416E-005
  1.646627991415945E-005
  1.722387694659102E-005
  1.782733234194223E-005
  1.832447787540659E-005
  1.875295927992021E-005
  1.914383039869641E-005
  1.952469294329713E-005
  1.992246566265769E-005
  2.036587158690464E-005
  2.088765801187889E-005
  2.152646082669145E-005
  9.920525683943769E-006
  1.221110547347571E-005
  1.398379876565825E-005
  1.535893186829206E-005
  1.643331201853525E-005
  1.728391642846160E-005
  1.797149778895087E-005
  1.854410414704289E-005
  1.904040752530867E-005
  1.949274695422923E-005
  1.992985277422059E-005
  2.037926933597762E-005
  2.086950353088024E-005
  2.143189965781795E-005
  2.210220551486910E-005
  9.544495103719706E-006
  1.181180616927792E-005
  1.359507347628847E-005
  1.500181972295060E-005
  1.611941372107746E-005
  1.701830146581868E-005
  1.775503443754626E-005
  1.837515294654059E-005
  1.891590397736335E-005
  1.940875290502043E-005
  1.988166291419709E-005
  2.036113599436789E-005
  2.087401692089967E-005
  2.144905522213395E-005
  2.211821150127297E-005
  9.227987828389437E-006
  1.137181482721956E-005
  1.308388164575239E-005
  1.445603825190614E-005
  1.556366564867936E-005
  1.646827965186163E-005
  1.721994386466589E-005
  1.785954780401792E-005
  1.842095521900525E-005
  1.893300468188948E-005
  1.942134231193313E-005
  1.991007239869030E-005
  2.042321622573675E-005
  2.098597026358902E-005
  2.162575636683543E-005
  8.973192001648940E-006
  1.090865820838502E-005
  1.247930259779726E-005
  1.375904346307919E-005
  1.480928758546663E-005
  1.568078798570047E-005
  1.641539442444102E-005
  1.704772646483264E-005
  1.760677047720128E-005
  1.811738557304348E-005
  1.860169815966587E-005
  1.908036587753710E-005
  1.957369466004126E-005
  2.010259584817336E-005
  2.068937484454550E-005
  8.779741904311774E-006
  1.043897186213010E-005
  1.181088547865162E-005
  1.294998779607567E-005
  1.390237855640789E-005
  1.470680190706106E-005
  1.539570674189102E-005
  1.599631405375262E-005
  1.653167613562742E-005
  1.702170455610206E-005
  1.748414086448195E-005
  1.793544479338390E-005
  1.839157759479072E-005
  1.886866212935260E-005
  1.938350655097043E-005
  8.645056591950960E-006
  9.978197548773836E-006
  1.110787196771891E-005
  1.206854433012739E-005
  1.289037408263866E-005
  1.359944819135693E-005
  1.421815274064705E-005
  1.476564719012938E-005
  1.525840543084173E-005
  1.571078750276259E-005
  1.613560673232710E-005
  1.654465949555629E-005
  1.694918846400596E-005
  1.736025469846716E-005
  1.778899922508122E-005
  8.564731588308088E-006
  9.540253807783118E-006
  1.039832673859343E-005
  1.115360700938196E-005
  1.182038186238489E-005
  1.241202064298052E-005
  1.294068898631253E-005
  1.341726095478090E-005
  1.385137304740291E-005
  1.425156962981883E-005
  1.462549394873966E-005
  1.498008345208230E-005
  1.532173293986856E-005
  1.565639415590101E-005
  1.598958574875058E-005
  8.532961127893370E-006
  9.137231005599233E-006
  9.708278043287774E-006
  1.024199458005539E-005
  1.073752826415507E-005
  1.119602463455543E-005
  1.161974178089803E-005
  1.201144995306877E-005
  1.237404265949723E-005
  1.271029547975458E-005
  1.302271634084372E-005
  1.331343745486864E-005
  1.358410506402514E-005
  1.383572884368488E-005
  1.406845832926934E-005
  8.542967550394090E-006
  8.779140221224601E-006
  9.060937244451192E-006
  9.367251209639157E-006
  9.683419326376172E-006
  9.999356044248501E-006
  1.030814743403699E-005
  1.060500417344615E-005
  1.088648619643766E-005
  1.114992415071194E-005
  1.139297223958067E-005
  1.161323482657172E-005
  1.180791602106998E-005
  1.197344772671091E-005
  1.210505747231591E-005
  8.587415762076294E-006
  8.473730740729755E-006
  8.476041666564999E-006
  8.558608745462562E-006
  8.694793210812207E-006
  8.864697016906566E-006
  9.053331771675389E-006
  9.249203738192772E-006
  9.443218724664239E-006
  9.627823820872812E-006
  9.796313275711191E-006
  9.942234266098312E-006
  1.005883562054795E-005
  1.013850920886756E-005
  1.017217992481514E-005
  8.658793098371364E-006
  8.226380840526169E-006
  7.969346645249163E-006
  7.840152728597109E-006
  7.802417119430109E-006
  7.828187939779847E-006
  7.895791596493646E-006
  7.988136981518366E-006
  8.091374565799199E-006
  8.193822460758943E-006
  8.285081720224093E-006
  8.355271389262260E-006
  8.394321027138032E-006
  8.391265225322149E-006
  8.333491202380833E-006
  8.749737947397395E-006
  8.040059811808514E-006
  7.552278958059607E-006
  7.230216150668297E-006
  7.030261198642490E-006
  6.918413692311062E-006
  6.867919606140342E-006
  6.857385726032292E-006
  6.869270557248189E-006
  6.888662761758388E-006
  6.902266800621431E-006
  6.897522177436649E-006
  6.861789181091386E-006
  6.781540747715361E-006
  6.641506964571239E-006
  8.853303937003174E-006
  7.915355623447258E-006
  7.231754882605289E-006
  6.741011751755053E-006
  6.394965465457305E-006
  6.155723467371553E-006
  5.993194345690501E-006
  5.883101503811072E-006
  5.805382665942461E-006
  5.742890285422683E-006
  5.680311965739855E-006
  5.603233310614189E-006
  5.497270745819952E-006
  5.347209061546861E-006
  5.136085509498839E-006
  8.963150339439157E-006
  7.850562931541423E-006
  7.010162961594618E-006
  6.378506226272417E-006
  5.905603606464601E-006
  5.551887281672553E-006
  5.285738262631899E-006
  5.081477292752670E-006
  4.917743424564038E-006
  4.776185869506421E-006
  4.640387816024597E-006
  4.494937371283277E-006
  4.324566183992228E-006
  4.113284796557210E-006
  3.843453032540639E-006
  9.073654093900600E-006
  7.841832645162801E-006
  6.885517255777225E-006
  6.142539557892108E-006
  5.563739135770859E-006
  5.110077213849934E-006
  4.750228656935276E-006
  4.458600921159242E-006
  4.213750304441615E-006
  3.997137443129118E-006
  3.792130471347937E-006
  3.583156765762439E-006
  3.354910287074300E-006
  3.091541804031260E-006
  2.775765945595681E-006
  9.179945293306032E-006
  7.883405088397161E-006
  6.851808890850663E-006
  6.027202186142633E-006
  5.363761304437447E-006
  4.825142551660496E-006
  4.382125903306491E-006
  4.010657986389099E-006
  3.690359939879166E-006
  3.403432779798995E-006
  3.133834037779587E-006
  2.866589526223039E-006
  2.587142790194692E-006
  2.280653178732663E-006
  1.931203371068306E-006
  9.277886596681931E-006
  7.968005081823355E-006
  6.899644515286260E-006
  6.021499396056134E-006
  5.293465181821971E-006
  4.684115598311504E-006
  4.168157623069735E-006
  3.724436882574898E-006
  3.334629496561129E-006
  2.982444873897752E-006
  2.653075550664676E-006
  2.332768646267535E-006
  2.008377100961548E-006
  1.666854138782648E-006
  1.294579775805193E-006
  9.364050006645470E-006
  8.087683250346514E-006
  7.017391658136302E-006
  6.110322643349555E-006
  5.334759122680679E-006
  4.666816275687220E-006
  4.086983642002383E-006
  3.578080786499216E-006
  3.124557969431802E-006
  2.712162965615819E-006
  2.327754232191141E-006
  1.959172156166835E-006
  1.595190571250490E-006
  1.225123773996833E-006
  8.385008593723937E-007
  9.436175964118828E-006
  8.235957692256322E-006
  7.193342706763472E-006
  6.275501837715177E-006
  5.464067886772019E-006
  4.746428610044598E-006
  4.109975205438820E-006
  3.542043503843836E-006
  3.030176518643025E-006
  2.562406987249109E-006
  2.127451116504969E-006
  1.714869230720207E-006
  1.315262903625342E-006
  9.210663197761834E-007
  5.250826358848870E-007
  9.495523409643250E-006
  8.415453463982401E-006
  7.418755665226234E-006
  6.494829849558164E-006
  5.652257372541198E-006
  4.889978765159826E-006
  4.202111824555467E-006
  3.580233455596723E-006
  3.014849097682579E-006
  2.496241303634735E-006
  2.014988149131802E-006
  1.562306754056028E-006
  1.130376783966275E-006
  7.127943449831151E-007
  3.091594191902254E-007
  9.581633847741357E-006
  8.655071265381055E-006
  7.678653644937337E-006
  6.739772115870331E-006
  5.864115514864438E-006
  5.058925222554498E-006
  4.323064798873564E-006
  3.651362906385003E-006
  3.036766088273349E-006
  2.471542687082107E-006
  1.948005794082198E-006
  1.458975353216500E-006
  9.980765858926833E-007
  5.597562628825853E-007
  1.397056691948530E-007
SCALARS poroP double 
LOOKUP_TABLE default
  5.202765729064762E-005
  3.478438222233338E-005
  2.033922206311786E-005
  8.815568906826070E-006
  1.165087325194126E-006
  0.000000000000000E+000
  0.000000000000000E+000
  0.000000000000000E+000
  0.000000000000000E+000
  0.000000000000000E+000
  0.000000000000000E+000
  0.000000000000000E+000
  0.000000000000000E+000
  0.000000000000000E+000
  0.000000000000000E+000
  2.200123869729448E-005
  1.205615367026657E-005
  4.092008344561555E-006
  7.643721887685024E-008
  0.000000000000000E+000
  0.000000000000000E+000
  0.000000000000000E+000
  0.000000000000000E+000
  0.000000000000000E+000
  0.000000000000000E+000
  0.000000000000000E+000
  0.000000000000000E+000
  0.000000000000000E+000
  0.000000000000000E+000
  0.000000000000000E+000
  3.735757183731499E-006
  0.000000000000000E+000
  0.000000000000000E+000
  0.000000000000000E+000
  0.000000000000000E+000
  0.000000000000000E+000
  0.000000000000000E+000
  0.000000000000000E+000
  0.000000000000000E+000
  0.000000000000000E+000
  0.000000000000000E+000
  0.000000000000000E+000
  0.000000000000000E+000
  0.000000000000000E+000
  0.000000000000000E+000
  0.000000000000000E+000
  0.000000000000000E+000
  0.000000000000000E+000
  0.000000000000000E+000
  0.000000000000000E+000
  0.000000000000000E+000
  0.000000000000000E+000
  0.000000000000000E+000
  0.000000000000000E+000
  0.000000000000000E+000
  0.000000000000000E+000
  0.000000000000000E+000
  0.000000000000000E+000
  0.000000000000000E+000
  0.000000000000000E+000
  0.000000000000000E+000
  0.000000000000000E+000
  0.000000000000000E+000
  0.000000000000000E+000
  0.000000000000000E+000
  0.000000000000000E+000
  0.000000000000000E+000
  0.000000000000000E+000
  0.000000000000000E+000
  0.000000000000000E+000
  0.000000000000000E+000
  0.000000000000000E+000
  0.000000000000000E+000
  0.000000000000000E+000
  0.000000000000000E+000
  0.000000000000000E+000
  0.000000000000000E+000
  0.000000000000000E+000
  0.000000000000000E+000
  0.000000000000000E+000
  0.000000000000000E+000
  0.000000000000000E+000
  0.000000000000000E+000
  0.000000000000000E+000
  0.000000000000000E+000
  0.000000000000000E+000
  0.000000000000000E+000
  0.000000000000000E+000
  0.000000000000000E+000
  0.000000000000000E+000
  0.000000000000000E+000
  0.000000000000000E+000
  0.000000000000000E+000
  0.000000000000000E+000
  0.000000000000000E+000
  0.000000000000000E+000
  0.000000000000000E+000
  0.000000000000000E+000
  0.000000000000000E+000
  0.000000000000000E+000
  0.000000000000000E+000
  0.000000000000000E+000
  0.000000000000000E+000
  0.000000000000000E+000
  0.000000000000000E+000
  0.000000000000000E+000
  0.000000000000000E+000
  0.000000000000000E+000
  0.000000000000000E+000
  0.000000000000000E+000
  0.000000000000000E+000
  0.000000000000000E+000
  0.000000000000000E+000
  0.000000000000000E+000
  0.000000000000000E+000
  0.000000000000000E+000
  0.000000000000000E+000
  0.000000000000000E+000
  0.000000000000000E+000
  0.000000000000000E+000
  0.000000000000000E+000
  0.000000000000000E+000
  0.000000000000000E+000
  0.000000000000000E+000
  0.000000000000000E+000
  0.000000000000000E+000
  0.000000000000000E+000
  0.000000000000000E+000
  0.000000000000000E+000
  0.000000000000000E+000
  0.000000000000000E+000
  0.000000000000000E+000
  0.000000000000000E+000
  0.000000000000000E+000
  0.000000000000000E+000
  0.000000000000000E+000
  0.000000000000000E+000
  0.000000000000000E+000
  0.000000000000000E+000
  0.000000000000000E+000
  0.000000000000000E+000
  0.000000000000000E+000
  0.000000000000000E+000
  0.000000000000000E+000
  0.000000000000000E+000
  0.000000000000000E+000
  0.000000000000000E+000
  0.000000000000000E+000
  0.000000000000000E+000
  0.000000000000000E+000
  0.000000000000000E+000
  0.000000000000000E+000
  0.000000000000000E+000
  0.000000000000000E+000
  0.000000000000000E+000
  0.000000000000000E+000
  0.000000000000000E+000
  0.000000000000000E+000
  0.000000000000000E+000
  0.000000000000000E+000
  0.000000000000000E+000
  0.000000000000000E+000
  0.000000000000000E+000
  0.000000000000000E+000
  0.000000000000000E+000
  0.000000000000000E+000
  0.000000000000000E+000
  0.000000000000000E+000
  0.000000000000000E+000
  0.000000000000000E+000
  0.000000000000000E+000
  0.000000000000000E+000
  0.000000000000000E+000
  0.000000000000000E+000
  0.000000000000000E+000
  0.000000000000000E+000
  0.000000000000000E+000
  0.000000000000000E+000
  0.000000000000000E+000
  0.000000000000000E+000
  0.000000000000000E+000
  0.000000000000000E+000
  0.000000000000000E+000
  0.000000000000000E+000
  0.000000000000000E+000
  0.000000000000000E+000
  0.000000000000000E+000
  0.000000000000000E+000
  0.000000000000000E+000
  0.000000000000000E+000
  0.000000000000000E+000
  0.000000000000000E+000
  0.000000000000000E+000
  0.000000000000000E+000
  0.000000000000000E+000
  0.000000000000000E+000
  0.000000000000000E+000
  0.000000000000000E+000
  0.000000000000000E+000
  0.000000000000000E+000
  0.000000000000000E+000
  0.000000000000000E+000
  0.000000000000000E+000
  0.000000000000000E+000
  0.000000000000000E+000
  0.000000000000000E+000
  0.000000000000000E+000
  0.000000000000000E+000
  0.000000000000000E+000
  0.000000000000000E+000
  0.000000000000000E+000
  0.000000000000000E+000
  0.000000000000000E+000
  0.000000000000000E+000
  0.000000000000000E+000
  0.000000000000000E+000
  0.000000000000000E+000
  0.000000000000000E+000
  0.000000000000000E+000
  0.000000000000000E+000
  0.000000000000000E+000
  0.000000000000000E+000
  0.000000000000000E+000
  0.000000000000000E+000
  0.000000000000000E+000
  0.000000000000000E+000
  0.000000000000000E+000
  0.000000000000000E+000
  0.000000000000000E+000
  0.000000000000000E+000
  0.000000000000000E+000
  0.000000000000000E+000
  0.000000000000000E+000
  0.000000000000000E+000
  0.000000000000000E+000
  0.000000000000000E+000
  0.000000000000000E+000
  0.000000000000000E+000
  0.000000000000000E+000
  0.000000000000000E+000
  0.000000000000000E+000
  0.000000000000000E+000
  0.000000000000000E+000
  0.000000000000000E+000
  0.000000000000000E+000
  0.000000000000000E+000
  0.000000000000000E+000
  0.000000000000000E+000
  0.000000000000000E+000
  0.000000000000000E+000
  0.000000000000000E+000
  0.000000000000000E+000
  0.000000000000000E+000
  0.000000000000000E+000
  0.000000000000000E+000
  0.000000000000000E+000
  0.000000000000000E+000
  0.000000000000000E+000
  0.000000000000000E+000
  0.000000000000000E+000
  0.000000000000000E+000
  0.000000000000000E+000
  0.000000000000000E+000
  0.000000000000000E+000
  0.000000000000000E+000
  0.000000000000000E+000
  0.000000000000000E+000
  0.000000000000000E+000
  0.000000000000000E+000
  0.000000000000000E+000
  0.000000000000000E+000
  0.000000000000000E+000
  0.000000000000000E+000
  0.000000000000000E+000
  0.000000000000000E+000
  0.000000000000000E+000
  0.000000000000000E+000
  0.000000000000000E+000
  0.000000000000000E+000
  0.000000000000000E+000
  0.000000000000000E+000
  0.000000000000000E+000
  0.000000000000000E+000
  0.000000000000000E+000
  0.000000000000000E+000
  0.000000000000000E+000
  0.000000000000000E+000
  0.000000000000000E+000
  0.000000000000000E+000
  0.000000000000000E+000
  0.000000000000000E+000
  0.000000000000000E+000
  0.000000000000000E+000
  0.000000000000000E+000
  0.000000000000000E+000
  0.000000000000000E+000
  0.000000000000000E+000
  0.000000000000000E+000
  0.000000000000000E+000
  0.000000000000000E+000
  0.000000000000000E+000
  0.000000000000000E+000
  0.000000000000000E+000
  0.000000000000000E+000
  0.000000000000000E+000
  0.000000000000000E+000
  0.000000000000000E+000
  0.000000000000000E+000
  0.000000000000000E+000
  0.000000000000000E+000
  0.000000000000000E+000
  0.000000000000000E+000
  0.000000000000000E+000
  0.000000000000000E+000
  0.000000000000000E+000
  0.000000000000000E+000
  0.000000000000000E+000
  0.000000000000000E+000
  0.000000000000000E+000
  0.000000000000000E+000
  0.000000000000000E+000
  0.000000000000000E+000
  0.000000000000000E+000
  0.000000000000000E+000
  0.000000000000000E+000
  0.000000000000000E+000
  0.000000000000000E+000
  0.000000000000000E+000
  0.000000000000000E+000
  0.000000000000000E+000
  0.000000000000000E+000
  0.000000000000000E+000
  0.000000000000000E+000
  0.000000000000000E+000
  0.000000000000000E+000
  0.000000000000000E+000
  0.000000000000000E+000
  0.000000000000000E+000
  0.000000000000000E+000
  0.000000000000000E+000
  0.000000000000000E+000
  0.000000000000000E+000
  0.000000000000000E+000
  0.000000000000000E+000
  0.000000000000000E+000
  0.000000000000000E+000
  0.000000000000000E+000
  0.000000000000000E+000
  0.000000000000000E+000
  0.000000000000000E+000
  0.000000000000000E+000
  0.000000000000000E+000
  0.000000000000000E+000
  0.000000000000000E+000
  0.000000000000000E+000
  0.000000000000000E+000
  0.000000000000000E+000
  0.000000000000000E+000
  0.000000000000000E+000
  0.000000000000000E+000
  0.000000000000000E+000
  0.000000000000000E+000
  0.000000000000000E+000
  0.000000000000000E+000
  0.000000000000000E+000
  0.000000000000000E+000
  0.000000000000000E+000
  0.000000000000000E+000
  0.000000000000000E+000
  0.000000000000000E+000
  0.000000000000000E+000
  0.000000000000000E+000
  0.000000000000000E+000
  0.000000000000000E+000
  0.000000000000000E+000
  0.000000000000000E+000
  0.000000000000000E+000
  0.000000000000000E+000
  0.000000000000000E+000
  0.000000000000000E+000
  0.000000000000000E+000
  0.000000000000000E+000
  0.000000000000000E+000
  0.000000000000000E+000
  0.000000000000000E+000
  0.000000000000000E+000
  0.000000000000000E+000
  0.000000000000000E+000
  0.000000000000000E+000
  0.000000000000000E+000
  0.000000000000000E+000
  0.000000000000000E+000
  0.000000000000000E+000
  0.000000000000000E+000
  0.000000000000000E+000
  0.000000000000000E+000
  0.000000000000000E+000
  0.000000000000000E+000
  0.000000000000000E+000
  0.000000000000000E+000
  0.000000000000000E+000
  0.000000000000000E+000
  0.000000000000000E+000
  0.000000000000000E+000
  0.000000000000000E+000
  0.000000000000000E+000
  0.000000000000000E+000
  0.000000000000000E+000
  0.000000000000000E+000
  0.000000000000000E+000
  0.000000000000000E+000
  0.000000000000000E+000
  0.000000000000000E+000
  0.000000000000000E+000
  0.000000000000000E+000
  0.000000000000000E+000
  0.000000000000000E+000
  0.000000000000000E+000
  0.000000000000000E+000
  0.000000000000000E+000
  0.000000000000000E+000
  0.000000000000000E+000
  0.000000000000000E+000
  0.000000000000000E+000
  0.000000000000000E+000
  0.000000000000000E+000
  0.000000000000000E+000
  0.000000000000000E+000
  0.000000000000000E+000
  0.000000000000000E+000
  0.000000000000000E+000
  0.000000000000000E+000
  0.000000000000000E+000
  0.000000000000000E+000
  0.000000000000000E+000
  0.000000000000000E+000
  0.000000000000000E+000
  0.000000000000000E+000
  0.000000000000000E+000
  0.000000000000000E+000
  0.000000000000000E+000
  0.000000000000000E+000
  0.000000000000000E+000
  0.000000000000000E+000
  0.000000000000000E+000
  0.000000000000000E+000
  0.000000000000000E+000
  0.000000000000000E+000
  0.000000000000000E+000
  0.000000000000000E+000
SCALARS elementIsPlast double 
LOOKUP_TABLE default
  0.000000000000000E+000
  0.000000000000000E+000
  0.000000000000000E+000
  0.000000000000000E+000
  0.000000000000000E+000
  0.000000000000000E+000
  0.000000000000000E+000
  0.000000000000000E+000
  0.000000000000000E+000
  0.000000000000000E+000
  0.000000000000000E+000
  0.000000000000000E+000
  0.000000000000000E+000
  0.000000000000000E+000
  0.000000000000000E+000
  0.000000000000000E+000
  0.000000000000000E+000
  0.000000000000000E+000
  0.000000000000000E+000
  0.000000000000000E+000
  0.000000000000000E+000
  0.000000000000000E+000
  0.000000000000000E+000
  0.000000000000000E+000
  0.000000000000000E+000
  0.000000000000000E+000
  0.000000000000000E+000
  0.000000000000000E+000
  0.000000000000000E+000
  0.000000000000000E+000
  0.000000000000000E+000
  0.000000000000000E+000
  0.000000000000000E+000
  0.000000000000000E+000
  0.000000000000000E+000
  0.000000000000000E+000
  0.000000000000000E+000
  0.000000000000000E+000
  0.000000000000000E+000
  0.000000000000000E+000
  0.000000000000000E+000
  0.000000000000000E+000
  0.000000000000000E+000
  0.000000000000000E+000
  0.000000000000000E+000
  0.000000000000000E+000
  0.000000000000000E+000
  0.000000000000000E+000
  0.000000000000000E+000
  0.000000000000000E+000
  0.000000000000000E+000
  0.000000000000000E+000
  0.000000000000000E+000
  0.000000000000000E+000
  0.000000000000000E+000
  0.000000000000000E+000
  0.000000000000000E+000
  0.000000000000000E+000
  0.000000000000000E+000
  0.000000000000000E+000
  0.000000000000000E+000
  0.000000000000000E+000
  0.000000000000000E+000
  0.000000000000000E+000
  0.000000000000000E+000
  0.000000000000000E+000
  0.000000000000000E+000
  0.000000000000000E+000
  0.000000000000000E+000
  0.000000000000000E+000
  0.000000000000000E+000
  0.000000000000000E+000
  0.000000000000000E+000
  0.000000000000000E+000
  0.000000000000000E+000
  0.000000000000000E+000
  0.000000000000000E+000
  0.000000000000000E+000
  0.000000000000000E+000
  0.000000000000000E+000
  0.000000000000000E+000
  0.000000000000000E+000
  0.000000000000000E+000
  0.000000000000000E+000
  0.000000000000000E+000
  0.000000000000000E+000
  0.000000000000000E+000
  0.000000000000000E+000
  0.000000000000000E+000
  0.000000000000000E+000
  0.000000000000000E+000
  0.000000000000000E+000
  0.000000000000000E+000
  0.000000000000000E+000
  0.000000000000000E+000
  0.000000000000000E+000
  0.000000000000000E+000
  0.000000000000000E+000
  0.000000000000000E+000
  0.000000000000000E+000
  0.000000000000000E+000
  0.000000000000000E+000
  0.000000000000000E+000
  0.000000000000000E+000
  0.000000000000000E+000
  0.000000000000000E+000
  0.000000000000000E+000
  0.000000000000000E+000
  0.000000000000000E+000
  0.000000000000000E+000
  0.000000000000000E+000
  0.000000000000000E+000
  0.000000000000000E+000
  0.000000000000000E+000
  0.000000000000000E+000
  0.000000000000000E+000
  0.000000000000000E+000
  0.000000000000000E+000
  0.000000000000000E+000
  0.000000000000000E+000
  0.000000000000000E+000
  0.000000000000000E+000
  0.000000000000000E+000
  0.000000000000000E+000
  0.000000000000000E+000
  0.000000000000000E+000
  0.000000000000000E+000
  0.000000000000000E+000
  0.000000000000000E+000
  0.000000000000000E+000
  0.000000000000000E+000
  0.000000000000000E+000
  0.000000000000000E+000
  0.000000000000000E+000
  0.000000000000000E+000
  0.000000000000000E+000
  0.000000000000000E+000
  0.000000000000000E+000
  0.000000000000000E+000
  0.000000000000000E+000
  0.000000000000000E+000
  0.000000000000000E+000
  0.000000000000000E+000
  0.000000000000000E+000
  0.000000000000000E+000
  0.000000000000000E+000
  0.000000000000000E+000
  0.000000000000000E+000
  0.000000000000000E+000
  0.000000000000000E+000
  0.000000000000000E+000
  0.000000000000000E+000
  0.000000000000000E+000
  0.000000000000000E+000
  0.000000000000000E+000
  0.000000000000000E+000
  0.000000000000000E+000
  0.000000000000000E+000
  0.000000000000000E+000
  0.000000000000000E+000
  0.000000000000000E+000
  0.000000000000000E+000
  0.000000000000000E+000
  0.000000000000000E+000
  0.000000000000000E+000
  0.000000000000000E+000
  0.000000000000000E+000
  0.000000000000000E+000
  0.000000000000000E+000
  0.000000000000000E+000
  0.000000000000000E+000
  0.000000000000000E+000
  0.000000000000000E+000
  0.000000000000000E+000
  0.000000000000000E+000
  0.000000000000000E+000
  0.000000000000000E+000
  0.000000000000000E+000
  0.000000000000000E+000
  0.000000000000000E+000
  0.000000000000000E+000
  0.000000000000000E+000
  0.000000000000000E+000
  0.000000000000000E+000
  0.000000000000000E+000
  0.000000000000000E+000
  0.000000000000000E+000
  0.000000000000000E+000
  0.000000000000000E+000
  0.000000000000000E+000
  0.000000000000000E+000
  0.000000000000000E+000
  0.000000000000000E+000
  0.000000000000000E+000
  0.000000000000000E+000
  0.000000000000000E+000
  0.000000000000000E+000
  0.000000000000000E+000
  0.000000000000000E+000
  0.000000000000000E+000
  0.000000000000000E+000
  0.000000000000000E+000
  0.000000000000000E+000
  0.000000000000000E+000
  0.000000000000000E+000
  0.000000000000000E+000
  0.000000000000000E+000
  0.000000000000000E+000
  0.000000000000000E+000
  0.000000000000000E+000
  0.000000000000000E+000
  0.000000000000000E+000
  0.000000000000000E+000
  0.000000000000000E+000
  0.000000000000000E+000
  0.000000000000000E+000
  0.000000000000000E+000
  0.000000000000000E+000
  0.000000000000000E+000
  0.000000000000000E+000
  0.000000000000000E+000
  0.000000000000000E+000
  0.000000000000000E+000
  0.000000000000000E+000
  0.000000000000000E+000
  0.000000000000000E+000
  0.000000000000000E+000
  0.000000000000000E+000
  0.000000000000000E+000
  0.000000000000000E+000
  0.000000000000000E+000
  0.000000000000000E+000
  0.000000000000000E+000
  0.000000000000000E+000
  0.000000000000000E+000
  0.000000000000000E+000
  0.000000000000000E+000
  0.000000000000000E+000
  0.000000000000000E+000
  0.000000000000000E+000
  0.000000000000000E+000
  0.000000000000000E+000
  0.000000000000000E+000
  0.000000000000000E+000
  0.000000000000000E+000
  0.000000000000000E+000
  0.000000000000000E+000
  0.000000000000000E+000
  0.000000000000000E+000
  0.000000000000000E+000
  0.000000000000000E+000
  0.000000000000000E+000
  0.000000000000000E+000
  0.000000000000000E+000
  0.000000000000000E+000
  0.000000000000000E+000
  0.000000000000000E+000
  0.000000000000000E+000
  0.000000000000000E+000
  0.000000000000000E+000
  0.000000000000000E+000
  0.000000000000000E+000
  0.000000000000000E+000
  0.000000000000000E+000
  0.000000000000000E+000
  0.000000000000000E+000
  0.000000000000000E+000
  0.000000000000000E+000
  0.000000000000000E+000
  0.000000000000000E+000
  0.000000000000000E+000
  0.000000000000000E+000
  0.000000000000000E+000
  0.000000000000000E+000
  0.000000000000000E+000
  0.000000000000000E+000
  0.000000000000000E+000
  0.000000000000000E+000
  0.000000000000000E+000
  0.000000000000000E+000
  0.000000000000000E+000
  0.000000000000000E+000
  0.000000000000000E+000
  0.000000000000000E+000
  0.000000000000000E+000
  0.000000000000000E+000
  0.000000000000000E+000
  0.000000000000000E+000
  0.000000000000000E+000
  0.000000000000000E+000
  0.000000000000000E+000
  0.000000000000000E+000
  0.000000000000000E+000
  0.000000000000000E+000
  0.000000000000000E+000
  0.000000000000000E+000
  0.000000000000000E+000
  0.000000000000000E+000
  0.000000000000000E+000
  0.000000000000000E+000
  0.000000000000000E+000
  0.000000000000000E+000
  0.000000000000000E+000
  0.000000000000000E+000
  0.000000000000000E+000
  0.000000000000000E+000
  0.000000000000000E+000
  0.000000000000000E+000
  0.000000000000000E+000
  0.000000000000000E+000
  0.000000000000000E+000
  0.000000000000000E+000
  0.000000000000000E+000
  0.000000000000000E+000
  0.000000000000000E+000
  0.000000000000000E+000
  0.000000000000000E+000
  0.000000000000000E+000
  0.000000000000000E+000
  0.000000000000000E+000
  0.000000000000000E+000
  0.000000000000000E+000
  0.000000000000000E+000
  0.000000000000000E+000
  0.000000000000000E+000
  0.000000000000000E+000
  0.000000000000000E+000
  0.000000000000000E+000
  0.000000000000000E+000
  0.000000000000000E+000
  0.000000000000000E+000
  0.000000000000000E+000
  0.000000000000000E+000
  0.000000000000000E+000
  0.000000000000000E+000
  0.000000000000000E+000
  0.000000000000000E+000
  0.000000000000000E+000
  0.000000000000000E+000
  0.000000000000000E+000
  0.000000000000000E+000
  0.000000000000000E+000
  0.000000000000000E+000
  0.000000000000000E+000
  0.000000000000000E+000
  0.000000000000000E+000
  0.000000000000000E+000
  0.000000000000000E+000
  0.000000000000000E+000
  0.000000000000000E+000
  0.000000000000000E+000
  0.000000000000000E+000
  0.000000000000000E+000
  0.000000000000000E+000
  0.000000000000000E+000
  0.000000000000000E+000
  0.000000000000000E+000
  0.000000000000000E+000
  0.000000000000000E+000
  0.000000000000000E+000
  0.000000000000000E+000
  0.000000000000000E+000
  0.000000000000000E+000
  0.000000000000000E+000
  0.000000000000000E+000
  0.000000000000000E+000
  0.000000000000000E+000
  0.000000000000000E+000
  0.000000000000000E+000
  0.000000000000000E+000
  0.000000000000000E+000
  0.000000000000000E+000
  0.000000000000000E+000
  0.000000000000000E+000
  0.000000000000000E+000
  0.000000000000000E+000
  0.000000000000000E+000
  0.000000000000000E+000
  0.000000000000000E+000
  0.000000000000000E+000
  0.000000000000000E+000
  0.000000000000000E+000
  0.000000000000000E+000
  0.000000000000000E+000
  0.000000000000000E+000
  0.000000000000000E+000
  0.000000000000000E+000
  0.000000000000000E+000
  0.000000000000000E+000
  0.000000000000000E+000
  0.000000000000000E+000
  0.000000000000000E+000
  0.000000000000000E+000
  0.000000000000000E+000
  0.000000000000000E+000
  0.000000000000000E+000
  0.000000000000000E+000
  0.000000000000000E+000
  0.000000000000000E+000
  0.000000000000000E+000
  0.000000000000000E+000
  0.000000000000000E+000
  0.000000000000000E+000
  0.000000000000000E+000
  0.000000000000000E+000
  0.000000000000000E+000
  0.000000000000000E+000
  0.000000000000000E+000
  0.000000000000000E+000
  0.000000000000000E+000
  0.000000000000000E+000
  0.000000000000000E+000
  0.000000000000000E+000
  0.000000000000000E+000
  0.000000000000000E+000
  0.000000000000000E+000
  0.000000000000000E+000
  0.000000000000000E+000
  0.000000000000000E+000
  0.000000000000000E+000
  0.000000000000000E+000
  0.000000000000000E+000
  0.000000000000000E+000
  0.000000000000000E+000
  0.000000000000000E+000
  0.000000000000000E+000
  0.000000000000000E+000
  0.000000000000000E+000
  0.000000000000000E+000
  0.000000000000000E+000
  0.000000000000000E+000
  0.000000000000000E+000
  0.000000000000000E+000
  0.000000000000000E+000
  0.000000000000000E+000
  0.000000000000000E+000
  0.000000000000000E+000
  0.000000000000000E+000
  0.000000000000000E+000
  0.000000000000000E+000
  0.000000000000000E+000
  0.000000000000000E+000
  0.000000000000000E+000
  0.000000000000000E+000
  0.000000000000000E+000
  0.000000000000000E+000
  0.000000000000000E+000
  0.000000000000000E+000
  0.000000000000000E+000
  0.000000000000000E+000
SCALARS poroL double 
LOOKUP_TABLE default
  0.156309632519104     
  0.156284712729239     
  0.156254895659484     
  0.156225060656802     
  0.156199773288325     
  0.156183059034609     
  0.156171410537133     
  0.156161860490088     
  0.156153570226246     
  0.156146096571847     
  0.156139132714979     
  0.156132405910810     
  0.156125599929780     
  0.156118239678351     
  0.156108990582822     
  0.156240099519385     
  0.156221627695772     
  0.156203290582656     
  0.156189387505923     
  0.156179276474721     
  0.156168695642938     
  0.156158460110320     
  0.156149556271764     
  0.156141647025284     
  0.156134453336443     
  0.156127740986563     
  0.156121294883067     
  0.156114892800630     
  0.156108245309589     
  0.156101631660618     
  0.156193571181259     
  0.156181551039415     
  0.156175813242669     
  0.156169379104283     
  0.156161228319982     
  0.156152646315061     
  0.156144223991432     
  0.156136307505487     
  0.156129052440319     
  0.156122360305645     
  0.156116103304431     
  0.156110154380610     
  0.156104401801125     
  0.156098857782784     
  0.156093680559774     
  0.156169768636236     
  0.156163437101731     
  0.156156974123259     
  0.156150513274823     
  0.156143651045022     
  0.156136450861384     
  0.156129288907851     
  0.156122408826108     
  0.156115928871853     
  0.156109873484723     
  0.156104202615056     
  0.156098868196911     
  0.156093855390522     
  0.156089213530323     
  0.156085093594487     
  0.156150503768505     
  0.156144403070241     
  0.156138478912527     
  0.156132493714352     
  0.156126405321183     
  0.156120226911037     
  0.156114078646907     
  0.156108109795761     
  0.156102419239954     
  0.156097053720732     
  0.156092026843486     
  0.156087344024854     
  0.156083029667972     
  0.156079149773591     
  0.156075820628225     
  0.156130864834541     
  0.156125405874946     
  0.156120056329487     
  0.156114729661205     
  0.156109378857851     
  0.156104025725108     
  0.156098731523653     
  0.156093577078951     
  0.156088635587563     
  0.156083958492859     
  0.156079580561629     
  0.156075532926346     
  0.156071857751449     
  0.156068619560591     
  0.156065909589554     
  0.156111079408395     
  0.156106383174099     
  0.156101727867866     
  0.156097088464132     
  0.156092457492662     
  0.156087852308905     
  0.156083314693801     
  0.156078898183734     
  0.156074656893819     
  0.156070638501970     
  0.156066884175436     
  0.156063434149532     
  0.156060334904913     
  0.156057644645656     
  0.156055434481630     
  0.156091318754180     
  0.156087414196791     
  0.156083483603719     
  0.156079543815672     
  0.156075609642639     
  0.156071704818314     
  0.156067863337099     
  0.156064126409915     
  0.156060537380383     
  0.156057138382807     
  0.156053969859109     
  0.156051072627823     
  0.156048490988023     
  0.156046274909519     
  0.156044479835310     
  0.156071710977738     
  0.156068567894997     
  0.156065351083629     
  0.156062097073174     
  0.156058834667232     
  0.156055592443977     
  0.156052402158649     
  0.156049298678994     
  0.156046318537015     
  0.156043498550760     
  0.156040875500717     
  0.156038486850177     
  0.156036371851240     
  0.156034572102050     
  0.156033130731111     
  0.156052332990877     
  0.156049897775051     
  0.156047359977744     
  0.156044763561104     
  0.156042143206823     
  0.156039529749236     
  0.156036953344686     
  0.156034444729545     
  0.156032035283390     
  0.156029756759113     
  0.156027641192699     
  0.156025721109615     
  0.156024029766645     
  0.156022600988784     
  0.156021468196450     
  0.156033224076825     
  0.156031435950194     
  0.156029533117518     
  0.156027559157269     
  0.156025548982499     
  0.156023532562494     
  0.156021537550839     
  0.156019590780266     
  0.156017718931461     
  0.156015948758159     
  0.156014307168057     
  0.156012821259689     
  0.156011518233034     
  0.156010424986170     
  0.156009567217509     
  0.156014394546189     
  0.156013195097297     
  0.156011882436521     
  0.156010494957943     
  0.156009063807545     
  0.156007615426951     
  0.156006173554463     
  0.156004760579155     
  0.156003398329305     
  0.156002108466775     
  0.156000912640770     
  0.155999832478555     
  0.155998889402440     
  0.155998104208589     
  0.155997496343771     
  0.155995832846263     
  0.155995171364121     
  0.155994408778218     
  0.155993575259638     
  0.155992695439769     
  0.155991790136028     
  0.155990877809807     
  0.155989975643047     
  0.155989100234265     
  0.155988267980646     
  0.155987495226778     
  0.155986798236034     
  0.155986193003888     
  0.155985694906567     
  0.155985318177478     
  0.155977510988386     
  0.155977347633604     
  0.155977103153406     
  0.155976797542117     
  0.155976447033107     
  0.155976065264007     
  0.155975664295102     
  0.155975255386790     
  0.155974849512286     
  0.155974457631749     
  0.155974090775729     
  0.155973759984421     
  0.155973476136066     
  0.155973249685515     
  0.155973090330917     
  0.155959388910156     
  0.155959696657405     
  0.155959948662814     
  0.155960153457225     
  0.155960317591033     
  0.155960446415948     
  0.155960544757539     
  0.155960617407669     
  0.155960669415764     
  0.155960706197469     
  0.155960733502371     
  0.155960757289391     
  0.155960783554504     
  0.155960818147313     
  0.155960866605980     
  0.155941418114056     
  0.155942183994020     
  0.155942922678421     
  0.155943630356803     
  0.155944303021636     
  0.155944936993139     
  0.155945529318311     
  0.155946077995226     
  0.155946582017402     
  0.155947041269049     
  0.155947456324708     
  0.155947828215432     
  0.155948158220902     
  0.155948447737002     
  0.155948698255154     
  0.155923544820230     
  0.155924770761342     
  0.155925999126581     
  0.155927213118955     
  0.155928397573349     
  0.155929539321526     
  0.155930627367955     
  0.155931652848190     
  0.155932608790345     
  0.155933489738169     
  0.155934291316587     
  0.155935009827246     
  0.155935641955152     
  0.155936184651528     
  0.155936635236100     
  0.155905712777695     
  0.155907416247068     
  0.155909150823671     
  0.155910886170550     
  0.155912595537130     
  0.155914256048117     
  0.155915848684012     
  0.155917357948668     
  0.155918771283424     
  0.155920078331397     
  0.155921270176915     
  0.155922338686408     
  0.155923276062873     
  0.155924074700339     
  0.155924727391141     
  0.155887865822183     
  0.155890080431619     
  0.155892351879952     
  0.155894635689077     
  0.155896893178478     
  0.155899091759494     
  0.155901204720620     
  0.155903210536268     
  0.155905091821135     
  0.155906834103570     
  0.155908424607405     
  0.155909851222477     
  0.155911101817977     
  0.155912164014429     
  0.155913025481386     
  0.155869950235543     
  0.155872726495408     
  0.155875580242054     
  0.155878452037841     
  0.155881290927747     
  0.155884054822164     
  0.155886710041312     
  0.155889230126334     
  0.155891594146739     
  0.155893784784711     
  0.155895786474332     
  0.155897583843865     
  0.155899160668472     
  0.155900499489575     
  0.155901581991359     
  0.155851916948264     
  0.155855323420644     
  0.155858820516082     
  0.155862332568591     
  0.155865795925071     
  0.155869159489049     
  0.155872383886620     
  0.155875439517667     
  0.155878303915172     
  0.155880958855301     
  0.155883387604853     
  0.155885572626200     
  0.155887494006217     
  0.155889128825081     
  0.155890451599258     
  0.155833723637506     
  0.155837848880296     
  0.155842067331180     
  0.155846285038414     
  0.155850425097024     
  0.155854428358507     
  0.155858251879647     
  0.155861865728270     
  0.155865248925635     
  0.155868385199245     
  0.155871259033251     
  0.155873852371307     
  0.155876142294150     
  0.155878099978826     
  0.155879691182670     
  0.155815336825532     
  0.155820292779981     
  0.155825329716032     
  0.155830332062463     
  0.155835209039257     
  0.155839895298260     
  0.155844347858977     
  0.155848540774321     
  0.155852458961474     
  0.155856092157682     
  0.155859429466781     
  0.155862454762501     
  0.155865143263290     
  0.155867459792811     
  0.155869359198234     
  0.155796734227734     
  0.155802662185025     
  0.155808637366821     
  0.155814517299734     
  0.155820197073637     
  0.155825608911255     
  0.155830715753289     
  0.155835502155816     
  0.155839965092120     
  0.155844105795677     
  0.155847922700435     
  0.155851405231841     
  0.155854528751428     
  0.155857251411400     
  0.155859514230594     
  0.155777907944377     
  0.155784989204538     
  0.155792050483535     
  0.155798914488638     
  0.155805463847487     
  0.155811636401733     
  0.155817411207254     
  0.155822792831153     
  0.155827798316950     
  0.155832447278102     
  0.155836753678851     
  0.155840718024441     
  0.155844319436674     
  0.155847509865042     
  0.155850212392255     
  0.155758870130654     
  0.155767345370040     
  0.155775676548754     
  0.155783640934047     
  0.155791117394162     
  0.155798067059122     
  0.155804502225818     
  0.155810460370554     
  0.155815987635408     
  0.155821129450117     
  0.155825923181251     
  0.155830388554851     
  0.155834516294182     
  0.155838254353082     
  0.155841503107781     
  0.155739665285341     
  0.155749871996013     
  0.155759700648095     
  0.155768876815135     
  0.155777306790986     
  0.155785012902535     
  0.155792067661904     
  0.155798554950602     
  0.155804557866772     
  0.155810153826100     
  0.155815411146376     
  0.155820382966777     
  0.155825085104811     
  0.155829475019085     
  0.155833421323745     
  0.155720408953275     
  0.155732850695609     
  0.155744442182284     
  0.155754886992681     
  0.155764220211482     
  0.155772603264164     
  0.155780192077970     
  0.155787125980661     
  0.155793527998016     
  0.155799509445092     
  0.155805174351191     
  0.155810620309683     
  0.155815934368953     
  0.155821099609816     
  0.155825976258708     
  0.155701408989060     
  0.155716910838094     
  0.155730442678772     
  0.155742000514860     
  0.155752066395222     
  0.155760969643953     
  0.155768956434667     
  0.155776217513484     
  0.155782910644302     
  0.155789176256748     
  0.155795150658224     
  0.155800980532238     
  0.155806835515947     
  0.155812955348599     
  0.155819092165672     
  0.155684100262685     
  0.155703509927960     
  0.155718307139381     
  0.155730547483237     
  0.155741031205724     
  0.155750222461776     
  0.155758425637520     
  0.155765863107786     
  0.155772712957807     
  0.155779132511524     
  0.155785277776111     
  0.155791326627871     
  0.155797521905427     
  0.155804261200307     
  0.155812703833350     
