# vtk DataFile Version 3.0
vtk output
ASCII
DATASET UNSTRUCTURED_GRID
POINTS       496 double 
  0.00000000E+00  3.00000000E+02  0.00000000E+00
  0.00000000E+00  2.80000000E+02  0.00000000E+00
  0.00000000E+00  2.60000000E+02  0.00000000E+00
  0.00000000E+00  2.40000000E+02  0.00000000E+00
  0.00000000E+00  2.20000000E+02  0.00000000E+00
  0.00000000E+00  2.00000000E+02  0.00000000E+00
  0.00000000E+00  1.80000000E+02  0.00000000E+00
  0.00000000E+00  1.60000000E+02  0.00000000E+00
  0.00000000E+00  1.40000000E+02  0.00000000E+00
  0.00000000E+00  1.20000000E+02  0.00000000E+00
  0.00000000E+00  1.00000000E+02  0.00000000E+00
  0.00000000E+00  8.00000000E+01  0.00000000E+00
  0.00000000E+00  6.00000000E+01  0.00000000E+00
  0.00000000E+00  4.00000000E+01  0.00000000E+00
  0.00000000E+00  2.00000000E+01  0.00000000E+00
  0.00000000E+00  4.99600361E-14  0.00000000E+00
  2.00000000E+01  3.00000000E+02  0.00000000E+00
  2.00000000E+01  2.80000000E+02  0.00000000E+00
  2.00000000E+01  2.60000000E+02  0.00000000E+00
  2.00000000E+01  2.40000000E+02  0.00000000E+00
  2.00000000E+01  2.20000000E+02  0.00000000E+00
  2.00000000E+01  2.00000000E+02  0.00000000E+00
  2.00000000E+01  1.80000000E+02  0.00000000E+00
  2.00000000E+01  1.60000000E+02  0.00000000E+00
  2.00000000E+01  1.40000000E+02  0.00000000E+00
  2.00000000E+01  1.20000000E+02  0.00000000E+00
  2.00000000E+01  1.00000000E+02  0.00000000E+00
  2.00000000E+01  8.00000000E+01  0.00000000E+00
  2.00000000E+01  6.00000000E+01  0.00000000E+00
  2.00000000E+01  4.00000000E+01  0.00000000E+00
  2.00000000E+01  2.00000000E+01  0.00000000E+00
  2.00000000E+01  4.99600361E-14  0.00000000E+00
  4.00000000E+01  3.00000000E+02  0.00000000E+00
  4.00000000E+01  2.80000000E+02  0.00000000E+00
  4.00000000E+01  2.60000000E+02  0.00000000E+00
  4.00000000E+01  2.40000000E+02  0.00000000E+00
  4.00000000E+01  2.20000000E+02  0.00000000E+00
  4.00000000E+01  2.00000000E+02  0.00000000E+00
  4.00000000E+01  1.80000000E+02  0.00000000E+00
  4.00000000E+01  1.60000000E+02  0.00000000E+00
  4.00000000E+01  1.40000000E+02  0.00000000E+00
  4.00000000E+01  1.20000000E+02  0.00000000E+00
  4.00000000E+01  1.00000000E+02  0.00000000E+00
  4.00000000E+01  8.00000000E+01  0.00000000E+00
  4.00000000E+01  6.00000000E+01  0.00000000E+00
  4.00000000E+01  4.00000000E+01  0.00000000E+00
  4.00000000E+01  2.00000000E+01  0.00000000E+00
  4.00000000E+01  4.99600361E-14  0.00000000E+00
  6.00000000E+01  3.00000000E+02  0.00000000E+00
  6.00000000E+01  2.80000000E+02  0.00000000E+00
  6.00000000E+01  2.60000000E+02  0.00000000E+00
  6.00000000E+01  2.40000000E+02  0.00000000E+00
  6.00000000E+01  2.20000000E+02  0.00000000E+00
  6.00000000E+01  2.00000000E+02  0.00000000E+00
  6.00000000E+01  1.80000000E+02  0.00000000E+00
  6.00000000E+01  1.60000000E+02  0.00000000E+00
  6.00000000E+01  1.40000000E+02  0.00000000E+00
  6.00000000E+01  1.20000000E+02  0.00000000E+00
  6.00000000E+01  1.00000000E+02  0.00000000E+00
  6.00000000E+01  8.00000000E+01  0.00000000E+00
  6.00000000E+01  6.00000000E+01  0.00000000E+00
  6.00000000E+01  4.00000000E+01  0.00000000E+00
  6.00000000E+01  2.00000000E+01  0.00000000E+00
  6.00000000E+01  4.99600361E-14  0.00000000E+00
  8.00000000E+01  3.00000000E+02  0.00000000E+00
  8.00000000E+01  2.80000000E+02  0.00000000E+00
  8.00000000E+01  2.60000000E+02  0.00000000E+00
  8.00000000E+01  2.40000000E+02  0.00000000E+00
  8.00000000E+01  2.20000000E+02  0.00000000E+00
  8.00000000E+01  2.00000000E+02  0.00000000E+00
  8.00000000E+01  1.80000000E+02  0.00000000E+00
  8.00000000E+01  1.60000000E+02  0.00000000E+00
  8.00000000E+01  1.40000000E+02  0.00000000E+00
  8.00000000E+01  1.20000000E+02  0.00000000E+00
  8.00000000E+01  1.00000000E+02  0.00000000E+00
  8.00000000E+01  8.00000000E+01  0.00000000E+00
  8.00000000E+01  6.00000000E+01  0.00000000E+00
  8.00000000E+01  4.00000000E+01  0.00000000E+00
  8.00000000E+01  2.00000000E+01  0.00000000E+00
  8.00000000E+01  4.99600361E-14  0.00000000E+00
  1.00000000E+02  3.00000000E+02  0.00000000E+00
  1.00000000E+02  2.80000000E+02  0.00000000E+00
  1.00000000E+02  2.60000000E+02  0.00000000E+00
  1.00000000E+02  2.40000000E+02  0.00000000E+00
  1.00000000E+02  2.20000000E+02  0.00000000E+00
  1.00000000E+02  2.00000000E+02  0.00000000E+00
  1.00000000E+02  1.80000000E+02  0.00000000E+00
  1.00000000E+02  1.60000000E+02  0.00000000E+00
  1.00000000E+02  1.40000000E+02  0.00000000E+00
  1.00000000E+02  1.20000000E+02  0.00000000E+00
  1.00000000E+02  1.00000000E+02  0.00000000E+00
  1.00000000E+02  8.00000000E+01  0.00000000E+00
  1.00000000E+02  6.00000000E+01  0.00000000E+00
  1.00000000E+02  4.00000000E+01  0.00000000E+00
  1.00000000E+02  2.00000000E+01  0.00000000E+00
  1.00000000E+02  4.99600361E-14  0.00000000E+00
  1.20000000E+02  3.00000000E+02  0.00000000E+00
  1.20000000E+02  2.80000000E+02  0.00000000E+00
  1.20000000E+02  2.60000000E+02  0.00000000E+00
  1.20000000E+02  2.40000000E+02  0.00000000E+00
  1.20000000E+02  2.20000000E+02  0.00000000E+00
  1.20000000E+02  2.00000000E+02  0.00000000E+00
  1.20000000E+02  1.80000000E+02  0.00000000E+00
  1.20000000E+02  1.60000000E+02  0.00000000E+00
  1.20000000E+02  1.40000000E+02  0.00000000E+00
  1.20000000E+02  1.20000000E+02  0.00000000E+00
  1.20000000E+02  1.00000000E+02  0.00000000E+00
  1.20000000E+02  8.00000000E+01  0.00000000E+00
  1.20000000E+02  6.00000000E+01  0.00000000E+00
  1.20000000E+02  4.00000000E+01  0.00000000E+00
  1.20000000E+02  2.00000000E+01  0.00000000E+00
  1.20000000E+02  4.99600361E-14  0.00000000E+00
  1.40000000E+02  3.00000000E+02  0.00000000E+00
  1.40000000E+02  2.80000000E+02  0.00000000E+00
  1.40000000E+02  2.60000000E+02  0.00000000E+00
  1.40000000E+02  2.40000000E+02  0.00000000E+00
  1.40000000E+02  2.20000000E+02  0.00000000E+00
  1.40000000E+02  2.00000000E+02  0.00000000E+00
  1.40000000E+02  1.80000000E+02  0.00000000E+00
  1.40000000E+02  1.60000000E+02  0.00000000E+00
  1.40000000E+02  1.40000000E+02  0.00000000E+00
  1.40000000E+02  1.20000000E+02  0.00000000E+00
  1.40000000E+02  1.00000000E+02  0.00000000E+00
  1.40000000E+02  8.00000000E+01  0.00000000E+00
  1.40000000E+02  6.00000000E+01  0.00000000E+00
  1.40000000E+02  4.00000000E+01  0.00000000E+00
  1.40000000E+02  2.00000000E+01  0.00000000E+00
  1.40000000E+02  4.99600361E-14  0.00000000E+00
  1.60000000E+02  3.00000000E+02  0.00000000E+00
  1.60000000E+02  2.80000000E+02  0.00000000E+00
  1.60000000E+02  2.60000000E+02  0.00000000E+00
  1.60000000E+02  2.40000000E+02  0.00000000E+00
  1.60000000E+02  2.20000000E+02  0.00000000E+00
  1.60000000E+02  2.00000000E+02  0.00000000E+00
  1.60000000E+02  1.80000000E+02  0.00000000E+00
  1.60000000E+02  1.60000000E+02  0.00000000E+00
  1.60000000E+02  1.40000000E+02  0.00000000E+00
  1.60000000E+02  1.20000000E+02  0.00000000E+00
  1.60000000E+02  1.00000000E+02  0.00000000E+00
  1.60000000E+02  8.00000000E+01  0.00000000E+00
  1.60000000E+02  6.00000000E+01  0.00000000E+00
  1.60000000E+02  4.00000000E+01  0.00000000E+00
  1.60000000E+02  2.00000000E+01  0.00000000E+00
  1.60000000E+02  4.99600361E-14  0.00000000E+00
  1.80000000E+02  3.00000000E+02  0.00000000E+00
  1.80000000E+02  2.80000000E+02  0.00000000E+00
  1.80000000E+02  2.60000000E+02  0.00000000E+00
  1.80000000E+02  2.40000000E+02  0.00000000E+00
  1.80000000E+02  2.20000000E+02  0.00000000E+00
  1.80000000E+02  2.00000000E+02  0.00000000E+00
  1.80000000E+02  1.80000000E+02  0.00000000E+00
  1.80000000E+02  1.60000000E+02  0.00000000E+00
  1.80000000E+02  1.40000000E+02  0.00000000E+00
  1.80000000E+02  1.20000000E+02  0.00000000E+00
  1.80000000E+02  1.00000000E+02  0.00000000E+00
  1.80000000E+02  8.00000000E+01  0.00000000E+00
  1.80000000E+02  6.00000000E+01  0.00000000E+00
  1.80000000E+02  4.00000000E+01  0.00000000E+00
  1.80000000E+02  2.00000000E+01  0.00000000E+00
  1.80000000E+02  4.99600361E-14  0.00000000E+00
  2.00000000E+02  3.00000000E+02  0.00000000E+00
  2.00000000E+02  2.80000000E+02  0.00000000E+00
  2.00000000E+02  2.60000000E+02  0.00000000E+00
  2.00000000E+02  2.40000000E+02  0.00000000E+00
  2.00000000E+02  2.20000000E+02  0.00000000E+00
  2.00000000E+02  2.00000000E+02  0.00000000E+00
  2.00000000E+02  1.80000000E+02  0.00000000E+00
  2.00000000E+02  1.60000000E+02  0.00000000E+00
  2.00000000E+02  1.40000000E+02  0.00000000E+00
  2.00000000E+02  1.20000000E+02  0.00000000E+00
  2.00000000E+02  1.00000000E+02  0.00000000E+00
  2.00000000E+02  8.00000000E+01  0.00000000E+00
  2.00000000E+02  6.00000000E+01  0.00000000E+00
  2.00000000E+02  4.00000000E+01  0.00000000E+00
  2.00000000E+02  2.00000000E+01  0.00000000E+00
  2.00000000E+02  4.99600361E-14  0.00000000E+00
  2.20000000E+02  3.00000000E+02  0.00000000E+00
  2.20000000E+02  2.80000000E+02  0.00000000E+00
  2.20000000E+02  2.60000000E+02  0.00000000E+00
  2.20000000E+02  2.40000000E+02  0.00000000E+00
  2.20000000E+02  2.20000000E+02  0.00000000E+00
  2.20000000E+02  2.00000000E+02  0.00000000E+00
  2.20000000E+02  1.80000000E+02  0.00000000E+00
  2.20000000E+02  1.60000000E+02  0.00000000E+00
  2.20000000E+02  1.40000000E+02  0.00000000E+00
  2.20000000E+02  1.20000000E+02  0.00000000E+00
  2.20000000E+02  1.00000000E+02  0.00000000E+00
  2.20000000E+02  8.00000000E+01  0.00000000E+00
  2.20000000E+02  6.00000000E+01  0.00000000E+00
  2.20000000E+02  4.00000000E+01  0.00000000E+00
  2.20000000E+02  2.00000000E+01  0.00000000E+00
  2.20000000E+02  4.99600361E-14  0.00000000E+00
  2.40000000E+02  3.00000000E+02  0.00000000E+00
  2.40000000E+02  2.80000000E+02  0.00000000E+00
  2.40000000E+02  2.60000000E+02  0.00000000E+00
  2.40000000E+02  2.40000000E+02  0.00000000E+00
  2.40000000E+02  2.20000000E+02  0.00000000E+00
  2.40000000E+02  2.00000000E+02  0.00000000E+00
  2.40000000E+02  1.80000000E+02  0.00000000E+00
  2.40000000E+02  1.60000000E+02  0.00000000E+00
  2.40000000E+02  1.40000000E+02  0.00000000E+00
  2.40000000E+02  1.20000000E+02  0.00000000E+00
  2.40000000E+02  1.00000000E+02  0.00000000E+00
  2.40000000E+02  8.00000000E+01  0.00000000E+00
  2.40000000E+02  6.00000000E+01  0.00000000E+00
  2.40000000E+02  4.00000000E+01  0.00000000E+00
  2.40000000E+02  2.00000000E+01  0.00000000E+00
  2.40000000E+02  4.99600361E-14  0.00000000E+00
  2.60000000E+02  3.00000000E+02  0.00000000E+00
  2.60000000E+02  2.80000000E+02  0.00000000E+00
  2.60000000E+02  2.60000000E+02  0.00000000E+00
  2.60000000E+02  2.40000000E+02  0.00000000E+00
  2.60000000E+02  2.20000000E+02  0.00000000E+00
  2.60000000E+02  2.00000000E+02  0.00000000E+00
  2.60000000E+02  1.80000000E+02  0.00000000E+00
  2.60000000E+02  1.60000000E+02  0.00000000E+00
  2.60000000E+02  1.40000000E+02  0.00000000E+00
  2.60000000E+02  1.20000000E+02  0.00000000E+00
  2.60000000E+02  1.00000000E+02  0.00000000E+00
  2.60000000E+02  8.00000000E+01  0.00000000E+00
  2.60000000E+02  6.00000000E+01  0.00000000E+00
  2.60000000E+02  4.00000000E+01  0.00000000E+00
  2.60000000E+02  2.00000000E+01  0.00000000E+00
  2.60000000E+02  4.99600361E-14  0.00000000E+00
  2.80000000E+02  3.00000000E+02  0.00000000E+00
  2.80000000E+02  2.80000000E+02  0.00000000E+00
  2.80000000E+02  2.60000000E+02  0.00000000E+00
  2.80000000E+02  2.40000000E+02  0.00000000E+00
  2.80000000E+02  2.20000000E+02  0.00000000E+00
  2.80000000E+02  2.00000000E+02  0.00000000E+00
  2.80000000E+02  1.80000000E+02  0.00000000E+00
  2.80000000E+02  1.60000000E+02  0.00000000E+00
  2.80000000E+02  1.40000000E+02  0.00000000E+00
  2.80000000E+02  1.20000000E+02  0.00000000E+00
  2.80000000E+02  1.00000000E+02  0.00000000E+00
  2.80000000E+02  8.00000000E+01  0.00000000E+00
  2.80000000E+02  6.00000000E+01  0.00000000E+00
  2.80000000E+02  4.00000000E+01  0.00000000E+00
  2.80000000E+02  2.00000000E+01  0.00000000E+00
  2.80000000E+02  4.99600361E-14  0.00000000E+00
  3.00000000E+02  3.00000000E+02  0.00000000E+00
  3.00000000E+02  2.80000000E+02  0.00000000E+00
  3.00000000E+02  2.60000000E+02  0.00000000E+00
  3.00000000E+02  2.40000000E+02  0.00000000E+00
  3.00000000E+02  2.20000000E+02  0.00000000E+00
  3.00000000E+02  2.00000000E+02  0.00000000E+00
  3.00000000E+02  1.80000000E+02  0.00000000E+00
  3.00000000E+02  1.60000000E+02  0.00000000E+00
  3.00000000E+02  1.40000000E+02  0.00000000E+00
  3.00000000E+02  1.20000000E+02  0.00000000E+00
  3.00000000E+02  1.00000000E+02  0.00000000E+00
  3.00000000E+02  8.00000000E+01  0.00000000E+00
  3.00000000E+02  6.00000000E+01  0.00000000E+00
  3.00000000E+02  4.00000000E+01  0.00000000E+00
  3.00000000E+02  2.00000000E+01  0.00000000E+00
  3.00000000E+02  4.99600361E-14  0.00000000E+00
  3.20000000E+02  3.00000000E+02  0.00000000E+00
  3.20000000E+02  2.80000000E+02  0.00000000E+00
  3.20000000E+02  2.60000000E+02  0.00000000E+00
  3.20000000E+02  2.40000000E+02  0.00000000E+00
  3.20000000E+02  2.20000000E+02  0.00000000E+00
  3.20000000E+02  2.00000000E+02  0.00000000E+00
  3.20000000E+02  1.80000000E+02  0.00000000E+00
  3.20000000E+02  1.60000000E+02  0.00000000E+00
  3.20000000E+02  1.40000000E+02  0.00000000E+00
  3.20000000E+02  1.20000000E+02  0.00000000E+00
  3.20000000E+02  1.00000000E+02  0.00000000E+00
  3.20000000E+02  8.00000000E+01  0.00000000E+00
  3.20000000E+02  6.00000000E+01  0.00000000E+00
  3.20000000E+02  4.00000000E+01  0.00000000E+00
  3.20000000E+02  2.00000000E+01  0.00000000E+00
  3.20000000E+02  4.99600361E-14  0.00000000E+00
  3.40000000E+02  3.00000000E+02  0.00000000E+00
  3.40000000E+02  2.80000000E+02  0.00000000E+00
  3.40000000E+02  2.60000000E+02  0.00000000E+00
  3.40000000E+02  2.40000000E+02  0.00000000E+00
  3.40000000E+02  2.20000000E+02  0.00000000E+00
  3.40000000E+02  2.00000000E+02  0.00000000E+00
  3.40000000E+02  1.80000000E+02  0.00000000E+00
  3.40000000E+02  1.60000000E+02  0.00000000E+00
  3.40000000E+02  1.40000000E+02  0.00000000E+00
  3.40000000E+02  1.20000000E+02  0.00000000E+00
  3.40000000E+02  1.00000000E+02  0.00000000E+00
  3.40000000E+02  8.00000000E+01  0.00000000E+00
  3.40000000E+02  6.00000000E+01  0.00000000E+00
  3.40000000E+02  4.00000000E+01  0.00000000E+00
  3.40000000E+02  2.00000000E+01  0.00000000E+00
  3.40000000E+02  4.99600361E-14  0.00000000E+00
  3.60000000E+02  3.00000000E+02  0.00000000E+00
  3.60000000E+02  2.80000000E+02  0.00000000E+00
  3.60000000E+02  2.60000000E+02  0.00000000E+00
  3.60000000E+02  2.40000000E+02  0.00000000E+00
  3.60000000E+02  2.20000000E+02  0.00000000E+00
  3.60000000E+02  2.00000000E+02  0.00000000E+00
  3.60000000E+02  1.80000000E+02  0.00000000E+00
  3.60000000E+02  1.60000000E+02  0.00000000E+00
  3.60000000E+02  1.40000000E+02  0.00000000E+00
  3.60000000E+02  1.20000000E+02  0.00000000E+00
  3.60000000E+02  1.00000000E+02  0.00000000E+00
  3.60000000E+02  8.00000000E+01  0.00000000E+00
  3.60000000E+02  6.00000000E+01  0.00000000E+00
  3.60000000E+02  4.00000000E+01  0.00000000E+00
  3.60000000E+02  2.00000000E+01  0.00000000E+00
  3.60000000E+02  4.99600361E-14  0.00000000E+00
  3.80000000E+02  3.00000000E+02  0.00000000E+00
  3.80000000E+02  2.80000000E+02  0.00000000E+00
  3.80000000E+02  2.60000000E+02  0.00000000E+00
  3.80000000E+02  2.40000000E+02  0.00000000E+00
  3.80000000E+02  2.20000000E+02  0.00000000E+00
  3.80000000E+02  2.00000000E+02  0.00000000E+00
  3.80000000E+02  1.80000000E+02  0.00000000E+00
  3.80000000E+02  1.60000000E+02  0.00000000E+00
  3.80000000E+02  1.40000000E+02  0.00000000E+00
  3.80000000E+02  1.20000000E+02  0.00000000E+00
  3.80000000E+02  1.00000000E+02  0.00000000E+00
  3.80000000E+02  8.00000000E+01  0.00000000E+00
  3.80000000E+02  6.00000000E+01  0.00000000E+00
  3.80000000E+02  4.00000000E+01  0.00000000E+00
  3.80000000E+02  2.00000000E+01  0.00000000E+00
  3.80000000E+02  4.99600361E-14  0.00000000E+00
  4.00000000E+02  3.00000000E+02  0.00000000E+00
  4.00000000E+02  2.80000000E+02  0.00000000E+00
  4.00000000E+02  2.60000000E+02  0.00000000E+00
  4.00000000E+02  2.40000000E+02  0.00000000E+00
  4.00000000E+02  2.20000000E+02  0.00000000E+00
  4.00000000E+02  2.00000000E+02  0.00000000E+00
  4.00000000E+02  1.80000000E+02  0.00000000E+00
  4.00000000E+02  1.60000000E+02  0.00000000E+00
  4.00000000E+02  1.40000000E+02  0.00000000E+00
  4.00000000E+02  1.20000000E+02  0.00000000E+00
  4.00000000E+02  1.00000000E+02  0.00000000E+00
  4.00000000E+02  8.00000000E+01  0.00000000E+00
  4.00000000E+02  6.00000000E+01  0.00000000E+00
  4.00000000E+02  4.00000000E+01  0.00000000E+00
  4.00000000E+02  2.00000000E+01  0.00000000E+00
  4.00000000E+02  4.99600361E-14  0.00000000E+00
  4.20000000E+02  3.00000000E+02  0.00000000E+00
  4.20000000E+02  2.80000000E+02  0.00000000E+00
  4.20000000E+02  2.60000000E+02  0.00000000E+00
  4.20000000E+02  2.40000000E+02  0.00000000E+00
  4.20000000E+02  2.20000000E+02  0.00000000E+00
  4.20000000E+02  2.00000000E+02  0.00000000E+00
  4.20000000E+02  1.80000000E+02  0.00000000E+00
  4.20000000E+02  1.60000000E+02  0.00000000E+00
  4.20000000E+02  1.40000000E+02  0.00000000E+00
  4.20000000E+02  1.20000000E+02  0.00000000E+00
  4.20000000E+02  1.00000000E+02  0.00000000E+00
  4.20000000E+02  8.00000000E+01  0.00000000E+00
  4.20000000E+02  6.00000000E+01  0.00000000E+00
  4.20000000E+02  4.00000000E+01  0.00000000E+00
  4.20000000E+02  2.00000000E+01  0.00000000E+00
  4.20000000E+02  4.99600361E-14  0.00000000E+00
  4.40000000E+02  3.00000000E+02  0.00000000E+00
  4.40000000E+02  2.80000000E+02  0.00000000E+00
  4.40000000E+02  2.60000000E+02  0.00000000E+00
  4.40000000E+02  2.40000000E+02  0.00000000E+00
  4.40000000E+02  2.20000000E+02  0.00000000E+00
  4.40000000E+02  2.00000000E+02  0.00000000E+00
  4.40000000E+02  1.80000000E+02  0.00000000E+00
  4.40000000E+02  1.60000000E+02  0.00000000E+00
  4.40000000E+02  1.40000000E+02  0.00000000E+00
  4.40000000E+02  1.20000000E+02  0.00000000E+00
  4.40000000E+02  1.00000000E+02  0.00000000E+00
  4.40000000E+02  8.00000000E+01  0.00000000E+00
  4.40000000E+02  6.00000000E+01  0.00000000E+00
  4.40000000E+02  4.00000000E+01  0.00000000E+00
  4.40000000E+02  2.00000000E+01  0.00000000E+00
  4.40000000E+02  4.99600361E-14  0.00000000E+00
  4.60000000E+02  3.00000000E+02  0.00000000E+00
  4.60000000E+02  2.80000000E+02  0.00000000E+00
  4.60000000E+02  2.60000000E+02  0.00000000E+00
  4.60000000E+02  2.40000000E+02  0.00000000E+00
  4.60000000E+02  2.20000000E+02  0.00000000E+00
  4.60000000E+02  2.00000000E+02  0.00000000E+00
  4.60000000E+02  1.80000000E+02  0.00000000E+00
  4.60000000E+02  1.60000000E+02  0.00000000E+00
  4.60000000E+02  1.40000000E+02  0.00000000E+00
  4.60000000E+02  1.20000000E+02  0.00000000E+00
  4.60000000E+02  1.00000000E+02  0.00000000E+00
  4.60000000E+02  8.00000000E+01  0.00000000E+00
  4.60000000E+02  6.00000000E+01  0.00000000E+00
  4.60000000E+02  4.00000000E+01  0.00000000E+00
  4.60000000E+02  2.00000000E+01  0.00000000E+00
  4.60000000E+02  4.99600361E-14  0.00000000E+00
  4.80000000E+02  3.00000000E+02  0.00000000E+00
  4.80000000E+02  2.80000000E+02  0.00000000E+00
  4.80000000E+02  2.60000000E+02  0.00000000E+00
  4.80000000E+02  2.40000000E+02  0.00000000E+00
  4.80000000E+02  2.20000000E+02  0.00000000E+00
  4.80000000E+02  2.00000000E+02  0.00000000E+00
  4.80000000E+02  1.80000000E+02  0.00000000E+00
  4.80000000E+02  1.60000000E+02  0.00000000E+00
  4.80000000E+02  1.40000000E+02  0.00000000E+00
  4.80000000E+02  1.20000000E+02  0.00000000E+00
  4.80000000E+02  1.00000000E+02  0.00000000E+00
  4.80000000E+02  8.00000000E+01  0.00000000E+00
  4.80000000E+02  6.00000000E+01  0.00000000E+00
  4.80000000E+02  4.00000000E+01  0.00000000E+00
  4.80000000E+02  2.00000000E+01  0.00000000E+00
  4.80000000E+02  4.99600361E-14  0.00000000E+00
  5.00000000E+02  3.00000000E+02  0.00000000E+00
  5.00000000E+02  2.80000000E+02  0.00000000E+00
  5.00000000E+02  2.60000000E+02  0.00000000E+00
  5.00000000E+02  2.40000000E+02  0.00000000E+00
  5.00000000E+02  2.20000000E+02  0.00000000E+00
  5.00000000E+02  2.00000000E+02  0.00000000E+00
  5.00000000E+02  1.80000000E+02  0.00000000E+00
  5.00000000E+02  1.60000000E+02  0.00000000E+00
  5.00000000E+02  1.40000000E+02  0.00000000E+00
  5.00000000E+02  1.20000000E+02  0.00000000E+00
  5.00000000E+02  1.00000000E+02  0.00000000E+00
  5.00000000E+02  8.00000000E+01  0.00000000E+00
  5.00000000E+02  6.00000000E+01  0.00000000E+00
  5.00000000E+02  4.00000000E+01  0.00000000E+00
  5.00000000E+02  2.00000000E+01  0.00000000E+00
  5.00000000E+02  4.99600361E-14  0.00000000E+00
  5.20000000E+02  3.00000000E+02  0.00000000E+00
  5.20000000E+02  2.80000000E+02  0.00000000E+00
  5.20000000E+02  2.60000000E+02  0.00000000E+00
  5.20000000E+02  2.40000000E+02  0.00000000E+00
  5.20000000E+02  2.20000000E+02  0.00000000E+00
  5.20000000E+02  2.00000000E+02  0.00000000E+00
  5.20000000E+02  1.80000000E+02  0.00000000E+00
  5.20000000E+02  1.60000000E+02  0.00000000E+00
  5.20000000E+02  1.40000000E+02  0.00000000E+00
  5.20000000E+02  1.20000000E+02  0.00000000E+00
  5.20000000E+02  1.00000000E+02  0.00000000E+00
  5.20000000E+02  8.00000000E+01  0.00000000E+00
  5.20000000E+02  6.00000000E+01  0.00000000E+00
  5.20000000E+02  4.00000000E+01  0.00000000E+00
  5.20000000E+02  2.00000000E+01  0.00000000E+00
  5.20000000E+02  4.99600361E-14  0.00000000E+00
  5.40000000E+02  3.00000000E+02  0.00000000E+00
  5.40000000E+02  2.80000000E+02  0.00000000E+00
  5.40000000E+02  2.60000000E+02  0.00000000E+00
  5.40000000E+02  2.40000000E+02  0.00000000E+00
  5.40000000E+02  2.20000000E+02  0.00000000E+00
  5.40000000E+02  2.00000000E+02  0.00000000E+00
  5.40000000E+02  1.80000000E+02  0.00000000E+00
  5.40000000E+02  1.60000000E+02  0.00000000E+00
  5.40000000E+02  1.40000000E+02  0.00000000E+00
  5.40000000E+02  1.20000000E+02  0.00000000E+00
  5.40000000E+02  1.00000000E+02  0.00000000E+00
  5.40000000E+02  8.00000000E+01  0.00000000E+00
  5.40000000E+02  6.00000000E+01  0.00000000E+00
  5.40000000E+02  4.00000000E+01  0.00000000E+00
  5.40000000E+02  2.00000000E+01  0.00000000E+00
  5.40000000E+02  4.99600361E-14  0.00000000E+00
  5.60000000E+02  3.00000000E+02  0.00000000E+00
  5.60000000E+02  2.80000000E+02  0.00000000E+00
  5.60000000E+02  2.60000000E+02  0.00000000E+00
  5.60000000E+02  2.40000000E+02  0.00000000E+00
  5.60000000E+02  2.20000000E+02  0.00000000E+00
  5.60000000E+02  2.00000000E+02  0.00000000E+00
  5.60000000E+02  1.80000000E+02  0.00000000E+00
  5.60000000E+02  1.60000000E+02  0.00000000E+00
  5.60000000E+02  1.40000000E+02  0.00000000E+00
  5.60000000E+02  1.20000000E+02  0.00000000E+00
  5.60000000E+02  1.00000000E+02  0.00000000E+00
  5.60000000E+02  8.00000000E+01  0.00000000E+00
  5.60000000E+02  6.00000000E+01  0.00000000E+00
  5.60000000E+02  4.00000000E+01  0.00000000E+00
  5.60000000E+02  2.00000000E+01  0.00000000E+00
  5.60000000E+02  4.99600361E-14  0.00000000E+00
  5.80000000E+02  3.00000000E+02  0.00000000E+00
  5.80000000E+02  2.80000000E+02  0.00000000E+00
  5.80000000E+02  2.60000000E+02  0.00000000E+00
  5.80000000E+02  2.40000000E+02  0.00000000E+00
  5.80000000E+02  2.20000000E+02  0.00000000E+00
  5.80000000E+02  2.00000000E+02  0.00000000E+00
  5.80000000E+02  1.80000000E+02  0.00000000E+00
  5.80000000E+02  1.60000000E+02  0.00000000E+00
  5.80000000E+02  1.40000000E+02  0.00000000E+00
  5.80000000E+02  1.20000000E+02  0.00000000E+00
  5.80000000E+02  1.00000000E+02  0.00000000E+00
  5.80000000E+02  8.00000000E+01  0.00000000E+00
  5.80000000E+02  6.00000000E+01  0.00000000E+00
  5.80000000E+02  4.00000000E+01  0.00000000E+00
  5.80000000E+02  2.00000000E+01  0.00000000E+00
  5.80000000E+02  4.99600361E-14  0.00000000E+00
  6.00000000E+02  3.00000000E+02  0.00000000E+00
  6.00000000E+02  2.80000000E+02  0.00000000E+00
  6.00000000E+02  2.60000000E+02  0.00000000E+00
  6.00000000E+02  2.40000000E+02  0.00000000E+00
  6.00000000E+02  2.20000000E+02  0.00000000E+00
  6.00000000E+02  2.00000000E+02  0.00000000E+00
  6.00000000E+02  1.80000000E+02  0.00000000E+00
  6.00000000E+02  1.60000000E+02  0.00000000E+00
  6.00000000E+02  1.40000000E+02  0.00000000E+00
  6.00000000E+02  1.20000000E+02  0.00000000E+00
  6.00000000E+02  1.00000000E+02  0.00000000E+00
  6.00000000E+02  8.00000000E+01  0.00000000E+00
  6.00000000E+02  6.00000000E+01  0.00000000E+00
  6.00000000E+02  4.00000000E+01  0.00000000E+00
  6.00000000E+02  2.00000000E+01  0.00000000E+00
  6.00000000E+02  4.99600361E-14  0.00000000E+00
CELLS       450      2250
         4           0           1          17          16
         4           1           2          18          17
         4           2           3          19          18
         4           3           4          20          19
         4           4           5          21          20
         4           5           6          22          21
         4           6           7          23          22
         4           7           8          24          23
         4           8           9          25          24
         4           9          10          26          25
         4          10          11          27          26
         4          11          12          28          27
         4          12          13          29          28
         4          13          14          30          29
         4          14          15          31          30
         4          16          17          33          32
         4          17          18          34          33
         4          18          19          35          34
         4          19          20          36          35
         4          20          21          37          36
         4          21          22          38          37
         4          22          23          39          38
         4          23          24          40          39
         4          24          25          41          40
         4          25          26          42          41
         4          26          27          43          42
         4          27          28          44          43
         4          28          29          45          44
         4          29          30          46          45
         4          30          31          47          46
         4          32          33          49          48
         4          33          34          50          49
         4          34          35          51          50
         4          35          36          52          51
         4          36          37          53          52
         4          37          38          54          53
         4          38          39          55          54
         4          39          40          56          55
         4          40          41          57          56
         4          41          42          58          57
         4          42          43          59          58
         4          43          44          60          59
         4          44          45          61          60
         4          45          46          62          61
         4          46          47          63          62
         4          48          49          65          64
         4          49          50          66          65
         4          50          51          67          66
         4          51          52          68          67
         4          52          53          69          68
         4          53          54          70          69
         4          54          55          71          70
         4          55          56          72          71
         4          56          57          73          72
         4          57          58          74          73
         4          58          59          75          74
         4          59          60          76          75
         4          60          61          77          76
         4          61          62          78          77
         4          62          63          79          78
         4          64          65          81          80
         4          65          66          82          81
         4          66          67          83          82
         4          67          68          84          83
         4          68          69          85          84
         4          69          70          86          85
         4          70          71          87          86
         4          71          72          88          87
         4          72          73          89          88
         4          73          74          90          89
         4          74          75          91          90
         4          75          76          92          91
         4          76          77          93          92
         4          77          78          94          93
         4          78          79          95          94
         4          80          81          97          96
         4          81          82          98          97
         4          82          83          99          98
         4          83          84         100          99
         4          84          85         101         100
         4          85          86         102         101
         4          86          87         103         102
         4          87          88         104         103
         4          88          89         105         104
         4          89          90         106         105
         4          90          91         107         106
         4          91          92         108         107
         4          92          93         109         108
         4          93          94         110         109
         4          94          95         111         110
         4          96          97         113         112
         4          97          98         114         113
         4          98          99         115         114
         4          99         100         116         115
         4         100         101         117         116
         4         101         102         118         117
         4         102         103         119         118
         4         103         104         120         119
         4         104         105         121         120
         4         105         106         122         121
         4         106         107         123         122
         4         107         108         124         123
         4         108         109         125         124
         4         109         110         126         125
         4         110         111         127         126
         4         112         113         129         128
         4         113         114         130         129
         4         114         115         131         130
         4         115         116         132         131
         4         116         117         133         132
         4         117         118         134         133
         4         118         119         135         134
         4         119         120         136         135
         4         120         121         137         136
         4         121         122         138         137
         4         122         123         139         138
         4         123         124         140         139
         4         124         125         141         140
         4         125         126         142         141
         4         126         127         143         142
         4         128         129         145         144
         4         129         130         146         145
         4         130         131         147         146
         4         131         132         148         147
         4         132         133         149         148
         4         133         134         150         149
         4         134         135         151         150
         4         135         136         152         151
         4         136         137         153         152
         4         137         138         154         153
         4         138         139         155         154
         4         139         140         156         155
         4         140         141         157         156
         4         141         142         158         157
         4         142         143         159         158
         4         144         145         161         160
         4         145         146         162         161
         4         146         147         163         162
         4         147         148         164         163
         4         148         149         165         164
         4         149         150         166         165
         4         150         151         167         166
         4         151         152         168         167
         4         152         153         169         168
         4         153         154         170         169
         4         154         155         171         170
         4         155         156         172         171
         4         156         157         173         172
         4         157         158         174         173
         4         158         159         175         174
         4         160         161         177         176
         4         161         162         178         177
         4         162         163         179         178
         4         163         164         180         179
         4         164         165         181         180
         4         165         166         182         181
         4         166         167         183         182
         4         167         168         184         183
         4         168         169         185         184
         4         169         170         186         185
         4         170         171         187         186
         4         171         172         188         187
         4         172         173         189         188
         4         173         174         190         189
         4         174         175         191         190
         4         176         177         193         192
         4         177         178         194         193
         4         178         179         195         194
         4         179         180         196         195
         4         180         181         197         196
         4         181         182         198         197
         4         182         183         199         198
         4         183         184         200         199
         4         184         185         201         200
         4         185         186         202         201
         4         186         187         203         202
         4         187         188         204         203
         4         188         189         205         204
         4         189         190         206         205
         4         190         191         207         206
         4         192         193         209         208
         4         193         194         210         209
         4         194         195         211         210
         4         195         196         212         211
         4         196         197         213         212
         4         197         198         214         213
         4         198         199         215         214
         4         199         200         216         215
         4         200         201         217         216
         4         201         202         218         217
         4         202         203         219         218
         4         203         204         220         219
         4         204         205         221         220
         4         205         206         222         221
         4         206         207         223         222
         4         208         209         225         224
         4         209         210         226         225
         4         210         211         227         226
         4         211         212         228         227
         4         212         213         229         228
         4         213         214         230         229
         4         214         215         231         230
         4         215         216         232         231
         4         216         217         233         232
         4         217         218         234         233
         4         218         219         235         234
         4         219         220         236         235
         4         220         221         237         236
         4         221         222         238         237
         4         222         223         239         238
         4         224         225         241         240
         4         225         226         242         241
         4         226         227         243         242
         4         227         228         244         243
         4         228         229         245         244
         4         229         230         246         245
         4         230         231         247         246
         4         231         232         248         247
         4         232         233         249         248
         4         233         234         250         249
         4         234         235         251         250
         4         235         236         252         251
         4         236         237         253         252
         4         237         238         254         253
         4         238         239         255         254
         4         240         241         257         256
         4         241         242         258         257
         4         242         243         259         258
         4         243         244         260         259
         4         244         245         261         260
         4         245         246         262         261
         4         246         247         263         262
         4         247         248         264         263
         4         248         249         265         264
         4         249         250         266         265
         4         250         251         267         266
         4         251         252         268         267
         4         252         253         269         268
         4         253         254         270         269
         4         254         255         271         270
         4         256         257         273         272
         4         257         258         274         273
         4         258         259         275         274
         4         259         260         276         275
         4         260         261         277         276
         4         261         262         278         277
         4         262         263         279         278
         4         263         264         280         279
         4         264         265         281         280
         4         265         266         282         281
         4         266         267         283         282
         4         267         268         284         283
         4         268         269         285         284
         4         269         270         286         285
         4         270         271         287         286
         4         272         273         289         288
         4         273         274         290         289
         4         274         275         291         290
         4         275         276         292         291
         4         276         277         293         292
         4         277         278         294         293
         4         278         279         295         294
         4         279         280         296         295
         4         280         281         297         296
         4         281         282         298         297
         4         282         283         299         298
         4         283         284         300         299
         4         284         285         301         300
         4         285         286         302         301
         4         286         287         303         302
         4         288         289         305         304
         4         289         290         306         305
         4         290         291         307         306
         4         291         292         308         307
         4         292         293         309         308
         4         293         294         310         309
         4         294         295         311         310
         4         295         296         312         311
         4         296         297         313         312
         4         297         298         314         313
         4         298         299         315         314
         4         299         300         316         315
         4         300         301         317         316
         4         301         302         318         317
         4         302         303         319         318
         4         304         305         321         320
         4         305         306         322         321
         4         306         307         323         322
         4         307         308         324         323
         4         308         309         325         324
         4         309         310         326         325
         4         310         311         327         326
         4         311         312         328         327
         4         312         313         329         328
         4         313         314         330         329
         4         314         315         331         330
         4         315         316         332         331
         4         316         317         333         332
         4         317         318         334         333
         4         318         319         335         334
         4         320         321         337         336
         4         321         322         338         337
         4         322         323         339         338
         4         323         324         340         339
         4         324         325         341         340
         4         325         326         342         341
         4         326         327         343         342
         4         327         328         344         343
         4         328         329         345         344
         4         329         330         346         345
         4         330         331         347         346
         4         331         332         348         347
         4         332         333         349         348
         4         333         334         350         349
         4         334         335         351         350
         4         336         337         353         352
         4         337         338         354         353
         4         338         339         355         354
         4         339         340         356         355
         4         340         341         357         356
         4         341         342         358         357
         4         342         343         359         358
         4         343         344         360         359
         4         344         345         361         360
         4         345         346         362         361
         4         346         347         363         362
         4         347         348         364         363
         4         348         349         365         364
         4         349         350         366         365
         4         350         351         367         366
         4         352         353         369         368
         4         353         354         370         369
         4         354         355         371         370
         4         355         356         372         371
         4         356         357         373         372
         4         357         358         374         373
         4         358         359         375         374
         4         359         360         376         375
         4         360         361         377         376
         4         361         362         378         377
         4         362         363         379         378
         4         363         364         380         379
         4         364         365         381         380
         4         365         366         382         381
         4         366         367         383         382
         4         368         369         385         384
         4         369         370         386         385
         4         370         371         387         386
         4         371         372         388         387
         4         372         373         389         388
         4         373         374         390         389
         4         374         375         391         390
         4         375         376         392         391
         4         376         377         393         392
         4         377         378         394         393
         4         378         379         395         394
         4         379         380         396         395
         4         380         381         397         396
         4         381         382         398         397
         4         382         383         399         398
         4         384         385         401         400
         4         385         386         402         401
         4         386         387         403         402
         4         387         388         404         403
         4         388         389         405         404
         4         389         390         406         405
         4         390         391         407         406
         4         391         392         408         407
         4         392         393         409         408
         4         393         394         410         409
         4         394         395         411         410
         4         395         396         412         411
         4         396         397         413         412
         4         397         398         414         413
         4         398         399         415         414
         4         400         401         417         416
         4         401         402         418         417
         4         402         403         419         418
         4         403         404         420         419
         4         404         405         421         420
         4         405         406         422         421
         4         406         407         423         422
         4         407         408         424         423
         4         408         409         425         424
         4         409         410         426         425
         4         410         411         427         426
         4         411         412         428         427
         4         412         413         429         428
         4         413         414         430         429
         4         414         415         431         430
         4         416         417         433         432
         4         417         418         434         433
         4         418         419         435         434
         4         419         420         436         435
         4         420         421         437         436
         4         421         422         438         437
         4         422         423         439         438
         4         423         424         440         439
         4         424         425         441         440
         4         425         426         442         441
         4         426         427         443         442
         4         427         428         444         443
         4         428         429         445         444
         4         429         430         446         445
         4         430         431         447         446
         4         432         433         449         448
         4         433         434         450         449
         4         434         435         451         450
         4         435         436         452         451
         4         436         437         453         452
         4         437         438         454         453
         4         438         439         455         454
         4         439         440         456         455
         4         440         441         457         456
         4         441         442         458         457
         4         442         443         459         458
         4         443         444         460         459
         4         444         445         461         460
         4         445         446         462         461
         4         446         447         463         462
         4         448         449         465         464
         4         449         450         466         465
         4         450         451         467         466
         4         451         452         468         467
         4         452         453         469         468
         4         453         454         470         469
         4         454         455         471         470
         4         455         456         472         471
         4         456         457         473         472
         4         457         458         474         473
         4         458         459         475         474
         4         459         460         476         475
         4         460         461         477         476
         4         461         462         478         477
         4         462         463         479         478
         4         464         465         481         480
         4         465         466         482         481
         4         466         467         483         482
         4         467         468         484         483
         4         468         469         485         484
         4         469         470         486         485
         4         470         471         487         486
         4         471         472         488         487
         4         472         473         489         488
         4         473         474         490         489
         4         474         475         491         490
         4         475         476         492         491
         4         476         477         493         492
         4         477         478         494         493
         4         478         479         495         494
CELL_TYPES        450
9
9
9
9
9
9
9
9
9
9
9
9
9
9
9
9
9
9
9
9
9
9
9
9
9
9
9
9
9
9
9
9
9
9
9
9
9
9
9
9
9
9
9
9
9
9
9
9
9
9
9
9
9
9
9
9
9
9
9
9
9
9
9
9
9
9
9
9
9
9
9
9
9
9
9
9
9
9
9
9
9
9
9
9
9
9
9
9
9
9
9
9
9
9
9
9
9
9
9
9
9
9
9
9
9
9
9
9
9
9
9
9
9
9
9
9
9
9
9
9
9
9
9
9
9
9
9
9
9
9
9
9
9
9
9
9
9
9
9
9
9
9
9
9
9
9
9
9
9
9
9
9
9
9
9
9
9
9
9
9
9
9
9
9
9
9
9
9
9
9
9
9
9
9
9
9
9
9
9
9
9
9
9
9
9
9
9
9
9
9
9
9
9
9
9
9
9
9
9
9
9
9
9
9
9
9
9
9
9
9
9
9
9
9
9
9
9
9
9
9
9
9
9
9
9
9
9
9
9
9
9
9
9
9
9
9
9
9
9
9
9
9
9
9
9
9
9
9
9
9
9
9
9
9
9
9
9
9
9
9
9
9
9
9
9
9
9
9
9
9
9
9
9
9
9
9
9
9
9
9
9
9
9
9
9
9
9
9
9
9
9
9
9
9
9
9
9
9
9
9
9
9
9
9
9
9
9
9
9
9
9
9
9
9
9
9
9
9
9
9
9
9
9
9
9
9
9
9
9
9
9
9
9
9
9
9
9
9
9
9
9
9
9
9
9
9
9
9
9
9
9
9
9
9
9
9
9
9
9
9
9
9
9
9
9
9
9
9
9
9
9
9
9
9
9
9
9
9
9
9
9
9
9
9
9
9
9
9
9
9
9
9
9
9
9
9
9
9
9
9
9
9
9
9
9
9
9
9
9
9
9
9
9
9
9
9
9
9
9
9
9
9
9
9
9
9
9
9
9
9
9
9
9
9
9
9
9
9
9
9
9
9
9
9
9
9
9
9
9
9
POINT_DATA       496
SCALARS p double 
LOOKUP_TABLE default
   90000000.0000000     
   90000000.0000000     
   90000000.0000000     
   90000000.0000000     
   90000000.0000000     
   90000000.0000000     
   90000000.0000000     
   90000000.0000000     
   90000000.0000000     
   90000000.0000000     
   90000000.0000000     
   90000000.0000000     
   90000000.0000000     
   90000000.0000000     
   90000000.0000000     
   90000000.0000000     
   87086173.2085150     
   87085981.7442298     
   87085512.0964198     
   87084898.1361076     
   87084264.7851883     
   87083773.0171686     
   87083437.4022595     
   87083181.0938246     
   87082968.3927241     
   87082784.9760325     
   87082623.1683256     
   87082478.5901292     
   87082348.4951942     
   87082231.7815989     
   87082125.4180997     
   87082074.0637320     
   84177067.1557089     
   84176845.2010891     
   84176231.5429822     
   84175455.9469243     
   84174739.4632461     
   84174112.8286946     
   84173571.4715845     
   84173113.8936703     
   84172720.1830903     
   84172374.4088306     
   84172067.3355224     
   84171793.6084132     
   84171551.1547940     
   84171341.5270012     
   84171182.7117260     
   84171120.0641292     
   81280719.6176735     
   81280506.6159542     
   81280015.4891052     
   81279404.8034473     
   81278724.8363150     
   81278045.5680903     
   81277406.6912292     
   81276822.1874770     
   81276295.2841690     
   81275821.9187952     
   81275397.7036782     
   81275020.7033970     
   81274692.6728350     
   81274423.0058650     
   81274233.8958901     
   81274163.1759637     
   78404490.4790572     
   78404354.3878036     
   78403975.3574221     
   78403429.1278611     
   78402788.6778656     
   78402104.9865337     
   78401421.0279667     
   78400765.1300991     
   78400152.1935115     
   78399589.4458345     
   78399080.5494435     
   78398629.3897454     
   78398243.1759351     
   78397935.4193262     
   78397728.4886078     
   78397653.6472012     
   75554198.7707567     
   75554078.2077791     
   75553741.7655373     
   75553240.9707072     
   75552628.7373196     
   75551953.4465134     
   75551254.6263849     
   75550563.2515369     
   75549901.2540585     
   75549283.3717785     
   75548720.3543739     
   75548222.0306575     
   75547800.1228023     
   75547470.5194804     
   75547254.4584735     
   75547177.8144525     
   72734314.5682913     
   72734202.1220424     
   72733887.1548160     
   72733414.1689715     
   72732826.6565268     
   72732165.7942996     
   72731468.3492348     
   72730765.1376563     
   72730080.8716862     
   72729434.9258140     
   72728843.0791665     
   72728319.6973134     
   72727879.7773892     
   72727540.4650705     
   72727321.6040740     
   72727244.9336694     
   69948126.4601403     
   69948020.0825600     
   69947721.5314654     
   69947270.8696951     
   69946706.3562990     
   69946064.4319031     
   69945378.7383328     
   69944679.1591034     
   69943991.3855227     
   69943337.2484314     
   69942735.6707363     
   69942203.9850430     
   69941759.2374961     
   69941419.0946271     
   69941202.0363635     
   69941126.6313702     
   67197599.9540983     
   67197499.5115729     
   67197216.6271215     
   67196787.3876084     
   67196246.3963480     
   67195626.7838051     
   67194959.7542168     
   67194273.9914584     
   67193595.3025945     
   67192946.6766277     
   67192348.7573065     
   67191820.5638534     
   67191380.2142136     
   67191045.3844927     
   67190833.2836174     
   67190760.0272147     
   64483338.1245762     
   64483243.6366948     
   64482976.4295082     
   64482568.7258251     
   64482052.0579101     
   64481457.0174455     
   64480812.8825226     
   64480147.1957316     
   64479485.4549220     
   64478851.0375090     
   64478265.3695020     
   64477748.2508495     
   64477318.1810808     
   64476992.5122715     
   64476787.2877725     
   64476716.6991468     
   61804610.5702258     
   61804521.8590573     
   61804269.9131294     
   61803883.3501714     
   61803390.9752268     
   61802821.2618064     
   61802201.9007885     
   61801559.3932496     
   61800918.7368651     
   61800303.2556157     
   61799734.5769298     
   61799232.7019887     
   61798816.0730875     
   61798501.5295799     
   61798304.0653154     
   61798236.3505012     
   59159444.7936275     
   59159361.3888588     
   59159123.5495793     
   59158756.7230031     
   59158287.3304490     
   59157742.0401689     
   59157147.1984166     
   59156528.3687166     
   59155909.9741037     
   59155315.0485464     
   59154765.0866617     
   59154279.9525338     
   59153877.7856934     
   59153574.8367142     
   59153385.1802541     
   59153320.2871907     
   56544770.5327808     
   56544691.6946520     
   56544466.0802324     
   56544116.5371705     
   56543667.5116466     
   56543144.1766696     
   56542571.7556147     
   56541974.9903245     
   56541377.7268234     
   56540802.6013741     
   56540270.8048974     
   56539801.8918199     
   56539413.5897197     
   56539121.5659869     
   56538939.1202729     
   56538876.7953834     
   53956606.4342338     
   53956531.2106491     
   53956315.3481439     
   53955979.7542337     
   53955547.3762473     
   53955042.2360182     
   53954488.6716032     
   53953910.7428193     
   53953331.7671907     
   53952773.9581030     
   53952258.1361998     
   53951803.4812301     
   53951427.2894351     
   53951144.7053058     
   53950968.4080268     
   53950908.2512810     
   51390277.2164761     
   51390204.5101051     
   51389995.5134779     
   51389669.9046046     
   51389249.6597898     
   51388758.0313126     
   51388218.7349074     
   51387655.3125050     
   51387090.6364806     
   51386546.5222505     
   51386043.4156044     
   51385600.1208004     
   51385233.5374339     
   51384958.3804165     
   51384786.8688830     
   51384728.3856235     
   48840649.0128920     
   48840577.6476456     
   48840372.4034912     
   48840052.4648845     
   48839639.3971111     
   48839156.0914428     
   48838625.9231177     
   48838072.0951057     
   48837517.1349303     
   48836982.5081641     
   48836488.3105256     
   48836053.0013199     
   48835693.1451542     
   48835423.1370925     
   48835254.8986747     
   48835197.5474961     
   46302370.8082475     
   46302299.5915949     
   46302094.9387846     
   46301776.2857246     
   46301365.3615118     
   46300885.1160428     
   46300358.8695626     
   46299809.6627371     
   46299259.7743919     
   46298730.3662536     
   46298241.2105191     
   46297810.4571401     
   46297454.4033600     
   46297187.2380712     
   46297020.7473525     
   46296963.9839102     
   43770110.7148376     
   43770038.4952741     
   43769831.3945521     
   43769509.8452500     
   43769096.3159100     
   43768614.2285533     
   43768087.1180302     
   43767538.0152234     
   43766989.0182092     
   43766461.0032583     
   43765973.4221884     
   43765544.1338788     
   43765189.2249155     
   43764922.7864459     
   43764756.6304282     
   43764699.9472736     
   41238777.1327054     
   41238702.8529214     
   41238490.5469909     
   41238162.3866475     
   41237742.1455444     
   41237254.1077441     
   41236722.2540225     
   41236169.7084913     
   41235618.4016496     
   41235088.8889844     
   41234600.2577042     
   41234170.0566030     
   41233814.1933169     
   41233546.7578340     
   41233379.7501793     
   41233322.7126934     
   38703716.4523366     
   38703639.1989537     
   38703419.3654067     
   38703081.6047513     
   38702651.5432954     
   38702154.6752580     
   38701615.5950196     
   38701057.5447546     
   38700502.2171275     
   38699969.7313747     
   38699478.6956560     
   38699046.2742547     
   38698688.1905223     
   38698418.6134973     
   38698249.8981538     
   38698192.1764882     
   36160880.7434372     
   36160799.7940410     
   36160570.6941234     
   36160221.3283292     
   36159779.6983566     
   36159272.7936949     
   36158725.8961106     
   36158162.2799254     
   36157603.2163594     
   36157068.1675606     
   36156575.0574932     
   36156140.5201417     
   36155780.0416520     
   36155507.9306998     
   36155337.0746020     
   36155278.4713300     
   33606960.7042082     
   33606875.5722620     
   33606636.1993912     
   33606274.4765536     
   33605821.2710331     
   33605305.2606206     
   33604752.3551547     
   33604185.6270594     
   33603625.6002483     
   33603090.7333650     
   33602597.9553804     
   33602163.1402364     
   33601801.4264410     
   33601527.2995467     
   33601354.3738130     
   33601294.8468711     
   31039480.9217551     
   31039391.4004274     
   31039141.6357025     
   31038768.3513281     
   31038305.7229259     
   31037784.1704524     
   31037229.9842039     
   31036665.6102524     
   31036110.3352975     
   31035581.1356529     
   31035093.5259722     
   31034662.2993403     
   31034302.0671729     
   31034027.4973223     
   31033853.1472689     
   31033792.8279834     
   28456856.1432834     
   28456762.3513907     
   28456503.1427472     
   28456120.9933980     
   28455653.7453526     
   28455133.3900086     
   28454586.0802663     
   28454032.9778253     
   28453491.4776427     
   28452976.4852027     
   28452501.5935115     
   28452080.1046013     
   28451725.8360653     
   28451453.5889926     
   28451279.0969784     
   28451218.3038346     
   25858408.7336129     
   25858311.1728073     
   25858044.7776910     
   25857658.8432698     
   25857195.0539258     
   25856686.4146762     
   25856158.0328051     
   25855628.8673521     
   25855113.6522233     
   25854624.6018249     
   25854172.8540158     
   25853769.7353276     
   25853427.8821086     
   25853162.0688648     
   25852989.4232403     
   25852928.6751007     
   23244348.7729049     
   23244248.4221303     
   23243978.8091049     
   23243597.3084041     
   23243149.1912538     
   23242667.2221539     
   23242174.0162644     
   23241685.1956465     
   23241212.0965463     
   23240763.7542443     
   23240348.4114172     
   23239974.9067713     
   23239654.1268425     
   23239400.4257044     
   23239232.4330372     
   23239172.4687486     
   20615719.3334038     
   20615617.8447270     
   20615351.4867948     
   20614987.1070450     
   20614572.2295087     
   20614136.9006357     
   20613699.1926760     
   20613270.2944410     
   20612857.7375243     
   20612467.2463705     
   20612104.0299410     
   20611773.9985162     
   20611485.4964689     
   20611251.5681649     
   20611092.0895633     
   20611033.9346852     
   17974310.3319594     
   17974210.5642306     
   17973958.2428466     
   17973630.5882726     
   17973273.4290123     
   17972909.6971424     
   17972550.7905695     
   17972203.1185601     
   17971870.6426833     
   17971556.1965245     
   17971262.2981710     
   17970991.9707457     
   17970749.9709292     
   17970546.3353275     
   17970400.9130841     
   17970345.9599418     
   15322545.3877572     
   15322452.8651018     
   15322234.0627860     
   15321974.1377171     
   15321706.6760785     
   15321442.2406791     
   15321185.8339405     
   15320939.9313255     
   15320705.9260922     
   15320484.7003989     
   15320276.9561961     
   15320083.5111422     
   15319905.9736250     
   15319747.7387205     
   15319624.9826684     
   15319575.9535780     
   12663346.1607002     
   12663275.3021453     
   12663131.0562654     
   12662984.1660953     
   12662839.3250107     
   12662699.4244675     
   12662565.4420007     
   12662437.8368940     
   12662316.8031172     
   12662202.3978165     
   12662094.5879359     
   12661993.2857915     
   12661898.3322908     
   12661810.1057051     
   12661726.8664738     
   12661685.9402545     
   10000000.0000000     
   10000000.0000000     
   10000000.0000000     
   10000000.0000000     
   10000000.0000000     
   10000000.0000000     
   10000000.0000000     
   10000000.0000000     
   10000000.0000000     
   10000000.0000000     
   10000000.0000000     
   10000000.0000000     
   10000000.0000000     
  10000000.00000000     
   10000000.0000000     
   10000000.0000000     
VECTORS u double 
    0.00000E+00         0.21563E-01         0.00000E+00
    0.00000E+00         0.20618E-01         0.00000E+00
    0.00000E+00         0.19356E-01         0.00000E+00
    0.00000E+00         0.17933E-01         0.00000E+00
    0.00000E+00         0.16448E-01         0.00000E+00
    0.00000E+00         0.14992E-01         0.00000E+00
    0.00000E+00         0.13575E-01         0.00000E+00
    0.00000E+00         0.12194E-01         0.00000E+00
    0.00000E+00         0.10831E-01         0.00000E+00
    0.00000E+00         0.94701E-02         0.00000E+00
    0.00000E+00         0.80928E-02         0.00000E+00
    0.00000E+00         0.66795E-02         0.00000E+00
    0.00000E+00         0.52061E-02         0.00000E+00
    0.00000E+00         0.36414E-02         0.00000E+00
    0.00000E+00         0.19395E-02         0.00000E+00
    0.00000E+00         0.00000E+00         0.00000E+00
    0.54826E-02         0.20901E-01         0.00000E+00
    0.46235E-02         0.19982E-01         0.00000E+00
    0.38383E-02         0.18805E-01         0.00000E+00
    0.31733E-02         0.17483E-01         0.00000E+00
    0.26227E-02         0.16115E-01         0.00000E+00
    0.23112E-02         0.14745E-01         0.00000E+00
    0.21078E-02         0.13383E-01         0.00000E+00
    0.19348E-02         0.12036E-01         0.00000E+00
    0.17738E-02         0.10699E-01         0.00000E+00
    0.16146E-02         0.93582E-02         0.00000E+00
    0.14491E-02         0.79981E-02         0.00000E+00
    0.12690E-02         0.65998E-02         0.00000E+00
    0.10638E-02         0.51401E-02         0.00000E+00
    0.81697E-03         0.35883E-02         0.00000E+00
    0.49723E-03         0.18990E-02         0.00000E+00
    0.00000E+00         0.00000E+00         0.00000E+00
    0.95153E-02         0.19849E-01         0.00000E+00
    0.81524E-02         0.18789E-01         0.00000E+00
    0.68337E-02         0.17663E-01         0.00000E+00
    0.57534E-02         0.16492E-01         0.00000E+00
    0.49877E-02         0.15295E-01         0.00000E+00
    0.44411E-02         0.14077E-01         0.00000E+00
    0.40263E-02         0.12835E-01         0.00000E+00
    0.36749E-02         0.11579E-01         0.00000E+00
    0.33497E-02         0.10312E-01         0.00000E+00
    0.30299E-02         0.90296E-02         0.00000E+00
    0.26991E-02         0.77198E-02         0.00000E+00
    0.23409E-02         0.63666E-02         0.00000E+00
    0.19350E-02         0.49491E-02         0.00000E+00
    0.14520E-02         0.34394E-02         0.00000E+00
    0.83870E-03         0.18008E-02         0.00000E+00
    0.00000E+00         0.00000E+00         0.00000E+00
    0.12601E-01         0.18203E-01         0.00000E+00
    0.10829E-01         0.17225E-01         0.00000E+00
    0.93330E-02         0.16219E-01         0.00000E+00
    0.81086E-02         0.15207E-01         0.00000E+00
    0.71440E-02         0.14173E-01         0.00000E+00
    0.63887E-02         0.13102E-01         0.00000E+00
    0.57737E-02         0.11997E-01         0.00000E+00
    0.52417E-02         0.10860E-01         0.00000E+00
    0.47501E-02         0.96961E-02         0.00000E+00
    0.42690E-02         0.85031E-02         0.00000E+00
    0.37744E-02         0.72736E-02         0.00000E+00
    0.32426E-02         0.59950E-02         0.00000E+00
    0.26459E-02         0.46500E-02         0.00000E+00
    0.19467E-02         0.32167E-02         0.00000E+00
    0.10904E-02         0.16721E-02         0.00000E+00
    0.00000E+00         0.00000E+00         0.00000E+00
    0.15181E-01         0.16221E-01         0.00000E+00
    0.13254E-01         0.15407E-01         0.00000E+00
    0.11610E-01         0.14568E-01         0.00000E+00
    0.10233E-01         0.13706E-01         0.00000E+00
    0.90947E-02         0.12817E-01         0.00000E+00
    0.81521E-02         0.11893E-01         0.00000E+00
    0.73531E-02         0.10928E-01         0.00000E+00
    0.66471E-02         0.99252E-02         0.00000E+00
    0.59915E-02         0.88844E-02         0.00000E+00
    0.53516E-02         0.78049E-02         0.00000E+00
    0.46975E-02         0.66815E-02         0.00000E+00
    0.40000E-02         0.55048E-02         0.00000E+00
    0.32266E-02         0.42620E-02         0.00000E+00
    0.23376E-02         0.29381E-02         0.00000E+00
    0.12826E-02         0.15197E-02         0.00000E+00
    0.00000E+00         0.00000E+00         0.00000E+00
    0.17534E-01         0.14063E-01         0.00000E+00
    0.15452E-01         0.13408E-01         0.00000E+00
    0.13664E-01         0.12725E-01         0.00000E+00
    0.12138E-01         0.12014E-01         0.00000E+00
    0.10842E-01         0.11272E-01         0.00000E+00
    0.97327E-02         0.10493E-01         0.00000E+00
    0.87666E-02         0.96745E-02         0.00000E+00
    0.78981E-02         0.88136E-02         0.00000E+00
    0.70861E-02         0.79102E-02         0.00000E+00
    0.62939E-02         0.69625E-02         0.00000E+00
    0.54880E-02         0.59668E-02         0.00000E+00
    0.46360E-02         0.49162E-02         0.00000E+00
    0.37030E-02         0.38020E-02         0.00000E+00
    0.26501E-02         0.26150E-02         0.00000E+00
    0.14323E-02         0.13481E-02         0.00000E+00
    0.00000E+00         0.00000E+00         0.00000E+00
    0.19645E-01         0.11744E-01         0.00000E+00
    0.17420E-01         0.11246E-01         0.00000E+00
    0.15496E-01         0.10717E-01         0.00000E+00
    0.13833E-01         0.10158E-01         0.00000E+00
    0.12392E-01         0.95660E-02         0.00000E+00
    0.11134E-01         0.89378E-02         0.00000E+00
    0.10018E-01         0.82693E-02         0.00000E+00
    0.90008E-02         0.75584E-02         0.00000E+00
    0.80436E-02         0.68033E-02         0.00000E+00
    0.71091E-02         0.60021E-02         0.00000E+00
    0.61624E-02         0.51517E-02         0.00000E+00
    0.51693E-02         0.42475E-02         0.00000E+00
    0.40949E-02         0.32840E-02         0.00000E+00
    0.29018E-02         0.22561E-02         0.00000E+00
    0.15505E-02         0.11608E-02         0.00000E+00
    0.00000E+00         0.00000E+00         0.00000E+00
    0.21507E-01         0.92889E-02         0.00000E+00
    0.19159E-01         0.89435E-02         0.00000E+00
    0.17112E-01         0.85691E-02         0.00000E+00
    0.15323E-01         0.81643E-02         0.00000E+00
    0.13753E-01         0.77267E-02         0.00000E+00
    0.12363E-01         0.72531E-02         0.00000E+00
    0.11112E-01         0.67405E-02         0.00000E+00
    0.99616E-02         0.61864E-02         0.00000E+00
    0.88726E-02         0.55890E-02         0.00000E+00
    0.78085E-02         0.49464E-02         0.00000E+00
    0.67342E-02         0.42560E-02         0.00000E+00
    0.56152E-02         0.35148E-02         0.00000E+00
    0.44172E-02         0.27197E-02         0.00000E+00
    0.31053E-02         0.18684E-02         0.00000E+00
    0.16443E-02         0.96075E-03         0.00000E+00
    0.00000E+00         0.00000E+00         0.00000E+00
    0.23119E-01         0.67215E-02         0.00000E+00
    0.20668E-01         0.65277E-02         0.00000E+00
    0.18514E-01         0.63077E-02         0.00000E+00
    0.16615E-01         0.60587E-02         0.00000E+00
    0.14932E-01         0.57781E-02         0.00000E+00
    0.13425E-01         0.54631E-02         0.00000E+00
    0.12056E-01         0.51113E-02         0.00000E+00
    0.10787E-01         0.47205E-02         0.00000E+00
    0.95810E-02         0.42889E-02         0.00000E+00
    0.84017E-02         0.38147E-02         0.00000E+00
    0.72144E-02         0.32961E-02         0.00000E+00
    0.59852E-02         0.27313E-02         0.00000E+00
    0.46810E-02         0.21188E-02         0.00000E+00
    0.32694E-02         0.14580E-02         0.00000E+00
    0.17188E-02         0.75038E-03         0.00000E+00
    0.00000E+00         0.00000E+00         0.00000E+00
    0.24485E-01         0.40653E-02         0.00000E+00
    0.21951E-01         0.40217E-02         0.00000E+00
    0.19708E-01         0.39556E-02         0.00000E+00
    0.17714E-01         0.38632E-02         0.00000E+00
    0.15933E-01         0.37416E-02         0.00000E+00
    0.14325E-01         0.35886E-02         0.00000E+00
    0.12855E-01         0.34020E-02         0.00000E+00
    0.11484E-01         0.31799E-02         0.00000E+00
    0.10176E-01         0.29208E-02         0.00000E+00
    0.88968E-02         0.26233E-02         0.00000E+00
    0.76120E-02         0.22861E-02         0.00000E+00
    0.62886E-02         0.19082E-02         0.00000E+00
    0.48949E-02         0.14893E-02         0.00000E+00
    0.34006E-02         0.10298E-02         0.00000E+00
    0.17775E-02         0.53191E-03         0.00000E+00
    0.00000E+00         0.00000E+00         0.00000E+00
    0.25612E-01         0.13409E-02         0.00000E+00
    0.23014E-01         0.14464E-02         0.00000E+00
    0.20697E-01         0.15334E-02         0.00000E+00
    0.18626E-01         0.15978E-02         0.00000E+00
    0.16762E-01         0.16367E-02         0.00000E+00
    0.15071E-01         0.16481E-02         0.00000E+00
    0.13514E-01         0.16300E-02         0.00000E+00
    0.12057E-01         0.15811E-02         0.00000E+00
    0.10664E-01         0.15001E-02         0.00000E+00
    0.93008E-02         0.13858E-02         0.00000E+00
    0.79342E-02         0.12375E-02         0.00000E+00
    0.65324E-02         0.10548E-02         0.00000E+00
    0.50651E-02         0.83793E-03         0.00000E+00
    0.35039E-02         0.58790E-03         0.00000E+00
    0.18231E-02         0.30721E-03         0.00000E+00
    0.00000E+00         0.00000E+00         0.00000E+00
    0.26506E-01        -0.14339E-02         0.00000E+00
    0.23860E-01        -0.11803E-02         0.00000E+00
    0.21487E-01        -0.94105E-03         0.00000E+00
    0.19354E-01        -0.72002E-03         0.00000E+00
    0.17425E-01        -0.51985E-03         0.00000E+00
    0.15665E-01        -0.34244E-03         0.00000E+00
    0.14040E-01        -0.18928E-03         0.00000E+00
    0.12513E-01        -0.61583E-04         0.00000E+00
    0.11051E-01         0.39683E-04         0.00000E+00
    0.96194E-02         0.11376E-03         0.00000E+00
    0.81868E-02         0.16018E-03         0.00000E+00
    0.67221E-02         0.17887E-03         0.00000E+00
    0.51964E-02         0.17033E-03         0.00000E+00
    0.35828E-02         0.13587E-03         0.00000E+00
    0.18575E-02         0.77869E-04         0.00000E+00
    0.00000E+00         0.00000E+00         0.00000E+00
    0.27174E-01        -0.42440E-02         0.00000E+00
    0.24494E-01        -0.38431E-02         0.00000E+00
    0.22081E-01        -0.34524E-02         0.00000E+00
    0.19902E-01        -0.30751E-02         0.00000E+00
    0.17924E-01        -0.27134E-02         0.00000E+00
    0.16113E-01        -0.23689E-02         0.00000E+00
    0.14435E-01        -0.20428E-02         0.00000E+00
    0.12855E-01        -0.17359E-02         0.00000E+00
    0.11340E-01        -0.14492E-02         0.00000E+00
    0.98571E-02        -0.11830E-02         0.00000E+00
    0.83744E-02        -0.93765E-03         0.00000E+00
    0.68621E-02        -0.71309E-03         0.00000E+00
    0.52924E-02        -0.50871E-03         0.00000E+00
    0.36399E-02        -0.32328E-03         0.00000E+00
    0.18820E-02        -0.15471E-03         0.00000E+00
    0.00000E+00         0.00000E+00         0.00000E+00
    0.27622E-01        -0.70761E-02         0.00000E+00
    0.24922E-01        -0.65288E-02         0.00000E+00
    0.22482E-01        -0.59875E-02         0.00000E+00
    0.20273E-01        -0.54544E-02         0.00000E+00
    0.18263E-01        -0.49312E-02         0.00000E+00
    0.16417E-01        -0.44190E-02         0.00000E+00
    0.14704E-01        -0.39188E-02         0.00000E+00
    0.13088E-01        -0.34312E-02         0.00000E+00
    0.11537E-01        -0.29568E-02         0.00000E+00
    0.10018E-01        -0.24959E-02         0.00000E+00
    0.85006E-02        -0.20488E-02         0.00000E+00
    0.69556E-02        -0.16154E-02         0.00000E+00
    0.53560E-02        -0.11951E-02         0.00000E+00
    0.36771E-02        -0.78693E-03         0.00000E+00
    0.18977E-02        -0.38932E-03         0.00000E+00
    0.00000E+00         0.00000E+00         0.00000E+00
    0.27853E-01        -0.99187E-02         0.00000E+00
    0.25146E-01        -0.92258E-02         0.00000E+00
    0.22695E-01        -0.85346E-02         0.00000E+00
    0.20471E-01        -0.78463E-02         0.00000E+00
    0.18444E-01        -0.71619E-02         0.00000E+00
    0.16581E-01        -0.64820E-02         0.00000E+00
    0.14849E-01        -0.58071E-02         0.00000E+00
    0.13213E-01        -0.51377E-02         0.00000E+00
    0.11643E-01        -0.44744E-02         0.00000E+00
    0.10104E-01        -0.38175E-02         0.00000E+00
    0.85679E-02        -0.31670E-02         0.00000E+00
    0.70049E-02        -0.25230E-02         0.00000E+00
    0.53888E-02        -0.18852E-02         0.00000E+00
    0.36958E-02        -0.12528E-02         0.00000E+00
    0.19051E-02        -0.62487E-03         0.00000E+00
    0.00000E+00         0.00000E+00         0.00000E+00
    0.27872E-01        -0.12762E-01         0.00000E+00
    0.25168E-01        -0.11924E-01         0.00000E+00
    0.22719E-01        -0.11083E-01         0.00000E+00
    0.20497E-01        -0.10241E-01         0.00000E+00
    0.18470E-01        -0.93952E-02         0.00000E+00
    0.16606E-01        -0.85477E-02         0.00000E+00
    0.14872E-01        -0.76981E-02         0.00000E+00
    0.13234E-01        -0.68468E-02         0.00000E+00
    0.11660E-01        -0.59943E-02         0.00000E+00
    0.10118E-01        -0.51408E-02         0.00000E+00
    0.85782E-02        -0.42864E-02         0.00000E+00
    0.70116E-02        -0.34314E-02         0.00000E+00
    0.53923E-02        -0.25756E-02         0.00000E+00
    0.36968E-02        -0.17187E-02         0.00000E+00
    0.19049E-02        -0.86036E-03         0.00000E+00
    0.00000E+00         0.00000E+00         0.00000E+00
    0.27679E-01        -0.15595E-01         0.00000E+00
    0.24991E-01        -0.14613E-01         0.00000E+00
    0.22558E-01        -0.13624E-01         0.00000E+00
    0.20352E-01        -0.12627E-01         0.00000E+00
    0.18341E-01        -0.11621E-01         0.00000E+00
    0.16493E-01        -0.10607E-01         0.00000E+00
    0.14774E-01        -0.95828E-02         0.00000E+00
    0.13151E-01        -0.85500E-02         0.00000E+00
    0.11591E-01        -0.75086E-02         0.00000E+00
    0.10061E-01        -0.64591E-02         0.00000E+00
    0.85324E-02        -0.54015E-02         0.00000E+00
    0.69764E-02        -0.43362E-02         0.00000E+00
    0.53669E-02        -0.32632E-02         0.00000E+00
    0.36806E-02        -0.21827E-02         0.00000E+00
    0.18972E-02        -0.10948E-02         0.00000E+00
    0.00000E+00         0.00000E+00         0.00000E+00
    0.27275E-01        -0.18409E-01         0.00000E+00
    0.24613E-01        -0.17283E-01         0.00000E+00
    0.22210E-01        -0.16147E-01         0.00000E+00
    0.20036E-01        -0.14996E-01         0.00000E+00
    0.18059E-01        -0.13831E-01         0.00000E+00
    0.16244E-01        -0.12650E-01         0.00000E+00
    0.14557E-01        -0.11452E-01         0.00000E+00
    0.12965E-01        -0.10239E-01         0.00000E+00
    0.11434E-01        -0.90099E-02         0.00000E+00
    0.99329E-02        -0.77657E-02         0.00000E+00
    0.84308E-02        -0.65066E-02         0.00000E+00
    0.68995E-02        -0.52328E-02         0.00000E+00
    0.53129E-02        -0.39446E-02         0.00000E+00
    0.36472E-02        -0.26426E-02         0.00000E+00
    0.18819E-02        -0.13273E-02         0.00000E+00
    0.00000E+00         0.00000E+00         0.00000E+00
    0.26657E-01        -0.21193E-01         0.00000E+00
    0.24033E-01        -0.19925E-01         0.00000E+00
    0.21675E-01        -0.18641E-01         0.00000E+00
    0.19550E-01        -0.17338E-01         0.00000E+00
    0.17622E-01        -0.16013E-01         0.00000E+00
    0.15857E-01        -0.14666E-01         0.00000E+00
    0.14220E-01        -0.13297E-01         0.00000E+00
    0.12676E-01        -0.11904E-01         0.00000E+00
    0.11191E-01        -0.10490E-01         0.00000E+00
    0.97335E-02        -0.90536E-02         0.00000E+00
    0.82728E-02        -0.75958E-02         0.00000E+00
    0.67803E-02        -0.61167E-02         0.00000E+00
    0.52294E-02        -0.46167E-02         0.00000E+00
    0.35961E-02        -0.30963E-02         0.00000E+00
    0.18588E-02        -0.15568E-02         0.00000E+00
    0.00000E+00         0.00000E+00         0.00000E+00
    0.25821E-01        -0.23937E-01         0.00000E+00
    0.23250E-01        -0.22526E-01         0.00000E+00
    0.20952E-01        -0.21096E-01         0.00000E+00
    0.18891E-01        -0.19641E-01         0.00000E+00
    0.17031E-01        -0.18158E-01         0.00000E+00
    0.15334E-01        -0.16646E-01         0.00000E+00
    0.13763E-01        -0.15105E-01         0.00000E+00
    0.12283E-01        -0.13537E-01         0.00000E+00
    0.10860E-01        -0.11940E-01         0.00000E+00
    0.94613E-02        -0.10315E-01         0.00000E+00
    0.80568E-02        -0.86627E-02         0.00000E+00
    0.66172E-02        -0.69828E-02         0.00000E+00
    0.51153E-02        -0.52755E-02         0.00000E+00
    0.35262E-02        -0.35415E-02         0.00000E+00
    0.18275E-02        -0.17822E-02         0.00000E+00
    0.00000E+00         0.00000E+00         0.00000E+00
    0.24762E-01        -0.26627E-01         0.00000E+00
    0.22258E-01        -0.25075E-01         0.00000E+00
    0.20037E-01        -0.23499E-01         0.00000E+00
    0.18059E-01        -0.21891E-01         0.00000E+00
    0.16284E-01        -0.20251E-01         0.00000E+00
    0.14671E-01        -0.18576E-01         0.00000E+00
    0.13184E-01        -0.16867E-01         0.00000E+00
    0.11784E-01        -0.15125E-01         0.00000E+00
    0.10439E-01        -0.13349E-01         0.00000E+00
    0.91143E-02        -0.11541E-01         0.00000E+00
    0.77805E-02        -0.96999E-02         0.00000E+00
    0.64079E-02        -0.78253E-02         0.00000E+00
    0.49684E-02        -0.59172E-02         0.00000E+00
    0.34361E-02        -0.39757E-02         0.00000E+00
    0.17870E-02        -0.20024E-02         0.00000E+00
    0.00000E+00         0.00000E+00         0.00000E+00
    0.23473E-01        -0.29249E-01         0.00000E+00
    0.21053E-01        -0.27557E-01         0.00000E+00
    0.18928E-01        -0.25834E-01         0.00000E+00
    0.17052E-01        -0.24075E-01         0.00000E+00
    0.15380E-01        -0.22278E-01         0.00000E+00
    0.13870E-01        -0.20442E-01         0.00000E+00
    0.12481E-01        -0.18567E-01         0.00000E+00
    0.11178E-01        -0.16656E-01         0.00000E+00
    0.99247E-02        -0.14707E-01         0.00000E+00
    0.86891E-02        -0.12722E-01         0.00000E+00
    0.74403E-02        -0.10699E-01         0.00000E+00
    0.61487E-02        -0.86378E-02         0.00000E+00
    0.47855E-02        -0.65368E-02         0.00000E+00
    0.33233E-02        -0.43959E-02         0.00000E+00
    0.17360E-02        -0.22160E-02         0.00000E+00
    0.00000E+00         0.00000E+00         0.00000E+00
    0.21946E-01        -0.31784E-01         0.00000E+00
    0.19631E-01        -0.29953E-01         0.00000E+00
    0.17622E-01        -0.28085E-01         0.00000E+00
    0.15867E-01        -0.26175E-01         0.00000E+00
    0.14317E-01        -0.24222E-01         0.00000E+00
    0.12927E-01        -0.22227E-01         0.00000E+00
    0.11654E-01        -0.20190E-01         0.00000E+00
    0.10461E-01        -0.18115E-01         0.00000E+00
    0.93144E-02        -0.16000E-01         0.00000E+00
    0.81812E-02        -0.13846E-01         0.00000E+00
    0.70312E-02        -0.11651E-01         0.00000E+00
    0.58347E-02        -0.94127E-02         0.00000E+00
    0.45622E-02        -0.71293E-02         0.00000E+00
    0.31845E-02        -0.47988E-02         0.00000E+00
    0.16728E-02        -0.24215E-02         0.00000E+00
    0.00000E+00         0.00000E+00         0.00000E+00
    0.20171E-01        -0.34213E-01         0.00000E+00
    0.17984E-01        -0.32242E-01         0.00000E+00
    0.16115E-01        -0.30229E-01         0.00000E+00
    0.14504E-01        -0.28169E-01         0.00000E+00
    0.13095E-01        -0.26062E-01         0.00000E+00
    0.11841E-01        -0.23910E-01         0.00000E+00
    0.10699E-01        -0.21717E-01         0.00000E+00
    0.96303E-02        -0.19484E-01         0.00000E+00
    0.86026E-02        -0.17212E-01         0.00000E+00
    0.75846E-02        -0.14899E-01         0.00000E+00
    0.65466E-02        -0.12544E-01         0.00000E+00
    0.54592E-02        -0.10141E-01         0.00000E+00
    0.42924E-02        -0.76883E-02         0.00000E+00
    0.30150E-02        -0.51808E-02         0.00000E+00
    0.15948E-02        -0.26174E-02         0.00000E+00
    0.00000E+00         0.00000E+00         0.00000E+00
    0.18139E-01        -0.36509E-01         0.00000E+00
    0.16109E-01        -0.34400E-01         0.00000E+00
    0.14405E-01        -0.32242E-01         0.00000E+00
    0.12960E-01        -0.30032E-01         0.00000E+00
    0.11713E-01        -0.27773E-01         0.00000E+00
    0.10611E-01        -0.25469E-01         0.00000E+00
    0.96125E-02        -0.23125E-01         0.00000E+00
    0.86803E-02        -0.20744E-01         0.00000E+00
    0.77829E-02        -0.18325E-01         0.00000E+00
    0.68913E-02        -0.15867E-01         0.00000E+00
    0.59776E-02        -0.13365E-01         0.00000E+00
    0.50133E-02        -0.10814E-01         0.00000E+00
    0.39680E-02        -0.82071E-02         0.00000E+00
    0.28085E-02        -0.55376E-02         0.00000E+00
    0.14985E-02        -0.28017E-02         0.00000E+00
    0.00000E+00         0.00000E+00         0.00000E+00
    0.15840E-01        -0.38642E-01         0.00000E+00
    0.13999E-01        -0.36396E-01         0.00000E+00
    0.12491E-01        -0.34093E-01         0.00000E+00
    0.11238E-01        -0.31734E-01         0.00000E+00
    0.10170E-01        -0.29326E-01         0.00000E+00
    0.92352E-02        -0.26876E-01         0.00000E+00
    0.83915E-02        -0.24390E-01         0.00000E+00
    0.76050E-02        -0.21872E-01         0.00000E+00
    0.68470E-02        -0.19320E-01         0.00000E+00
    0.60916E-02        -0.16732E-01         0.00000E+00
    0.53133E-02        -0.14102E-01         0.00000E+00
    0.44855E-02        -0.11420E-01         0.00000E+00
    0.35782E-02        -0.86777E-02         0.00000E+00
    0.25564E-02        -0.58645E-02         0.00000E+00
    0.13791E-02        -0.29727E-02         0.00000E+00
    0.00000E+00         0.00000E+00         0.00000E+00
    0.13263E-01        -0.40575E-01         0.00000E+00
    0.11651E-01        -0.38192E-01         0.00000E+00
    0.10374E-01        -0.35744E-01         0.00000E+00
    0.93371E-02        -0.33238E-01         0.00000E+00
    0.84668E-02        -0.30686E-01         0.00000E+00
    0.77108E-02        -0.28099E-01         0.00000E+00
    0.70305E-02        -0.25484E-01         0.00000E+00
    0.63967E-02        -0.22844E-01         0.00000E+00
    0.57850E-02        -0.20177E-01         0.00000E+00
    0.51732E-02        -0.17477E-01         0.00000E+00
    0.45398E-02        -0.14737E-01         0.00000E+00
    0.38611E-02        -0.11947E-01         0.00000E+00
    0.31088E-02        -0.90910E-02         0.00000E+00
    0.22471E-02        -0.61560E-02         0.00000E+00
    0.12298E-02        -0.31280E-02         0.00000E+00
    0.00000E+00         0.00000E+00         0.00000E+00
    0.10398E-01        -0.42260E-01         0.00000E+00
    0.90661E-02        -0.39741E-01         0.00000E+00
    0.80586E-02        -0.37148E-01         0.00000E+00
    0.72626E-02        -0.34499E-01         0.00000E+00
    0.66035E-02        -0.31813E-01         0.00000E+00
    0.60340E-02        -0.29104E-01         0.00000E+00
    0.55225E-02        -0.26377E-01         0.00000E+00
    0.50456E-02        -0.23635E-01         0.00000E+00
    0.45845E-02        -0.20872E-01         0.00000E+00
    0.41220E-02        -0.18082E-01         0.00000E+00
    0.36409E-02        -0.15256E-01         0.00000E+00
    0.31221E-02        -0.12380E-01         0.00000E+00
    0.25412E-02        -0.94364E-02         0.00000E+00
    0.18642E-02        -0.64054E-02         0.00000E+00
    0.10407E-02        -0.32651E-02         0.00000E+00
    0.00000E+00         0.00000E+00         0.00000E+00
    0.72335E-02        -0.43637E-01         0.00000E+00
    0.62491E-02        -0.40982E-01         0.00000E+00
    0.55531E-02        -0.38246E-01         0.00000E+00
    0.50176E-02        -0.35465E-01         0.00000E+00
    0.45775E-02        -0.32665E-01         0.00000E+00
    0.41981E-02        -0.29856E-01         0.00000E+00
    0.38574E-02        -0.27042E-01         0.00000E+00
    0.35393E-02        -0.24220E-01         0.00000E+00
    0.32312E-02        -0.21386E-01         0.00000E+00
    0.29214E-02        -0.18530E-01         0.00000E+00
    0.25981E-02        -0.15641E-01         0.00000E+00
    0.22476E-02        -0.12705E-01         0.00000E+00
    0.18521E-02        -0.97006E-02         0.00000E+00
    0.13847E-02        -0.66038E-02         0.00000E+00
    0.79642E-03        -0.33805E-02         0.00000E+00
    0.00000E+00         0.00000E+00         0.00000E+00
    0.37628E-02        -0.44617E-01         0.00000E+00
    0.32179E-02        -0.41824E-01         0.00000E+00
    0.28681E-02        -0.38960E-01         0.00000E+00
    0.26006E-02        -0.36078E-01         0.00000E+00
    0.23812E-02        -0.33198E-01         0.00000E+00
    0.21921E-02        -0.30322E-01         0.00000E+00
    0.20220E-02        -0.27451E-01         0.00000E+00
    0.18631E-02        -0.24580E-01         0.00000E+00
    0.17089E-02        -0.21702E-01         0.00000E+00
    0.15536E-02        -0.18806E-01         0.00000E+00
    0.13912E-02        -0.15879E-01         0.00000E+00
    0.12147E-02        -0.12907E-01         0.00000E+00
    0.10146E-02        -0.98686E-02         0.00000E+00
    0.77570E-03        -0.67361E-02         0.00000E+00
    0.46944E-03        -0.34686E-02         0.00000E+00
    0.00000E+00         0.00000E+00         0.00000E+00
    0.00000E+00        -0.45035E-01         0.00000E+00
    0.00000E+00        -0.42135E-01         0.00000E+00
    0.00000E+00        -0.39210E-01         0.00000E+00
    0.00000E+00        -0.36289E-01         0.00000E+00
    0.00000E+00        -0.33379E-01         0.00000E+00
    0.00000E+00        -0.30481E-01         0.00000E+00
    0.00000E+00        -0.27590E-01         0.00000E+00
    0.00000E+00        -0.24702E-01         0.00000E+00
    0.00000E+00        -0.21808E-01         0.00000E+00
    0.00000E+00        -0.18899E-01         0.00000E+00
    0.00000E+00        -0.15960E-01         0.00000E+00
    0.00000E+00        -0.12976E-01         0.00000E+00
    0.00000E+00        -0.99265E-02         0.00000E+00
    0.00000E+00        -0.67833E-02         0.00000E+00
    0.00000E+00        -0.35051E-02         0.00000E+00
    0.00000E+00         0.00000E+00         0.00000E+00
CELL_DATA        450
VECTORS vDarcy double 
    0.20917E-07        -0.68718E-12         0.00000E+00
    0.20910E-07        -0.16849E-11         0.00000E+00
    0.20904E-07        -0.22015E-11         0.00000E+00
    0.20899E-07        -0.22700E-11         0.00000E+00
    0.20895E-07        -0.17619E-11         0.00000E+00
    0.20893E-07        -0.12022E-11         0.00000E+00
    0.20892E-07        -0.91794E-12         0.00000E+00
    0.20890E-07        -0.76165E-12         0.00000E+00
    0.20889E-07        -0.65670E-12         0.00000E+00
    0.20888E-07        -0.57927E-12         0.00000E+00
    0.20886E-07        -0.51753E-12         0.00000E+00
    0.20885E-07        -0.46563E-12         0.00000E+00
    0.20884E-07        -0.41769E-12         0.00000E+00
    0.20882E-07        -0.38061E-12         0.00000E+00
    0.20879E-07        -0.18374E-12         0.00000E+00
    0.20861E-07        -0.14823E-11         0.00000E+00
    0.20856E-07        -0.38830E-11         0.00000E+00
    0.20850E-07        -0.49792E-11         0.00000E+00
    0.20846E-07        -0.48358E-11         0.00000E+00
    0.20843E-07        -0.40059E-11         0.00000E+00
    0.20841E-07        -0.31406E-11         0.00000E+00
    0.20839E-07        -0.25562E-11         0.00000E+00
    0.20837E-07        -0.21710E-11         0.00000E+00
    0.20836E-07        -0.18943E-11         0.00000E+00
    0.20835E-07        -0.16783E-11         0.00000E+00
    0.20834E-07        -0.14971E-11         0.00000E+00
    0.20832E-07        -0.13332E-11         0.00000E+00
    0.20831E-07        -0.11677E-11         0.00000E+00
    0.20829E-07        -0.94874E-12         0.00000E+00
    0.20827E-07        -0.40783E-12         0.00000E+00
    0.20755E-07        -0.15584E-11         0.00000E+00
    0.20750E-07        -0.39575E-11         0.00000E+00
    0.20747E-07        -0.49653E-11         0.00000E+00
    0.20743E-07        -0.50012E-11         0.00000E+00
    0.20740E-07        -0.46762E-11         0.00000E+00
    0.20738E-07        -0.42256E-11         0.00000E+00
    0.20736E-07        -0.37305E-11         0.00000E+00
    0.20734E-07        -0.32952E-11         0.00000E+00
    0.20733E-07        -0.29316E-11         0.00000E+00
    0.20731E-07        -0.26170E-11         0.00000E+00
    0.20730E-07        -0.23284E-11         0.00000E+00
    0.20729E-07        -0.20411E-11         0.00000E+00
    0.20727E-07        -0.17147E-11         0.00000E+00
    0.20726E-07        -0.12446E-11         0.00000E+00
    0.20724E-07        -0.47704E-12         0.00000E+00
    0.20602E-07        -0.12502E-11         0.00000E+00
    0.20599E-07        -0.31161E-11         0.00000E+00
    0.20596E-07        -0.41425E-11         0.00000E+00
    0.20593E-07        -0.47274E-11         0.00000E+00
    0.20591E-07        -0.48791E-11         0.00000E+00
    0.20588E-07        -0.47349E-11         0.00000E+00
    0.20586E-07        -0.44393E-11         0.00000E+00
    0.20584E-07        -0.40790E-11         0.00000E+00
    0.20583E-07        -0.37074E-11         0.00000E+00
    0.20582E-07        -0.33385E-11         0.00000E+00
    0.20580E-07        -0.29627E-11         0.00000E+00
    0.20579E-07        -0.25550E-11         0.00000E+00
    0.20578E-07        -0.20654E-11         0.00000E+00
    0.20576E-07        -0.14165E-11         0.00000E+00
    0.20575E-07        -0.52058E-12         0.00000E+00
    0.20409E-07        -0.91888E-12         0.00000E+00
    0.20407E-07        -0.25613E-11         0.00000E+00
    0.20405E-07        -0.37479E-11         0.00000E+00
    0.20402E-07        -0.44836E-11         0.00000E+00
    0.20400E-07        -0.48635E-11         0.00000E+00
    0.20398E-07        -0.49482E-11         0.00000E+00
    0.20396E-07        -0.48206E-11         0.00000E+00
    0.20395E-07        -0.45613E-11         0.00000E+00
    0.20393E-07        -0.42235E-11         0.00000E+00
    0.20392E-07        -0.38343E-11         0.00000E+00
    0.20390E-07        -0.33961E-11         0.00000E+00
    0.20389E-07        -0.28902E-11         0.00000E+00
    0.20388E-07        -0.22794E-11         0.00000E+00
    0.20387E-07        -0.15126E-11         0.00000E+00
    0.20386E-07        -0.54169E-12         0.00000E+00
    0.20185E-07        -0.83396E-12         0.00000E+00
    0.20183E-07        -0.23312E-11         0.00000E+00
    0.20181E-07        -0.34846E-11         0.00000E+00
    0.20179E-07        -0.42928E-11         0.00000E+00
    0.20177E-07        -0.47805E-11         0.00000E+00
    0.20175E-07        -0.49951E-11         0.00000E+00
    0.20174E-07        -0.49887E-11         0.00000E+00
    0.20172E-07        -0.48154E-11         0.00000E+00
    0.20171E-07        -0.45202E-11         0.00000E+00
    0.20169E-07        -0.41301E-11         0.00000E+00
    0.20168E-07        -0.36537E-11         0.00000E+00
    0.20167E-07        -0.30817E-11         0.00000E+00
    0.20166E-07        -0.23918E-11         0.00000E+00
    0.20165E-07        -0.15550E-11         0.00000E+00
    0.20164E-07        -0.54814E-12         0.00000E+00
    0.19937E-07        -0.78293E-12         0.00000E+00
    0.19936E-07        -0.21949E-11         0.00000E+00
    0.19934E-07        -0.33042E-11         0.00000E+00
    0.19932E-07        -0.41209E-11         0.00000E+00
    0.19931E-07        -0.46598E-11         0.00000E+00
    0.19929E-07        -0.49468E-11         0.00000E+00
    0.19928E-07        -0.50167E-11         0.00000E+00
    0.19926E-07        -0.49064E-11         0.00000E+00
    0.19925E-07        -0.46488E-11         0.00000E+00
    0.19924E-07        -0.42671E-11         0.00000E+00
    0.19922E-07        -0.37722E-11         0.00000E+00
    0.19921E-07        -0.31628E-11         0.00000E+00
    0.19920E-07        -0.24290E-11         0.00000E+00
    0.19919E-07        -0.15583E-11         0.00000E+00
    0.19919E-07        -0.54362E-12         0.00000E+00
    0.19676E-07        -0.73974E-12         0.00000E+00
    0.19674E-07        -0.20795E-11         0.00000E+00
    0.19673E-07        -0.31468E-11         0.00000E+00
    0.19672E-07        -0.39533E-11         0.00000E+00
    0.19670E-07        -0.45110E-11         0.00000E+00
    0.19669E-07        -0.48368E-11         0.00000E+00
    0.19667E-07        -0.49531E-11         0.00000E+00
    0.19666E-07        -0.48853E-11         0.00000E+00
    0.19665E-07        -0.46573E-11         0.00000E+00
    0.19664E-07        -0.42879E-11         0.00000E+00
    0.19663E-07        -0.37886E-11         0.00000E+00
    0.19662E-07        -0.31637E-11         0.00000E+00
    0.19661E-07        -0.24125E-11         0.00000E+00
    0.19660E-07        -0.15339E-11         0.00000E+00
    0.19660E-07        -0.53132E-12         0.00000E+00
    0.19410E-07        -0.69699E-12         0.00000E+00
    0.19409E-07        -0.19668E-11         0.00000E+00
    0.19408E-07        -0.29923E-11         0.00000E+00
    0.19407E-07        -0.37812E-11         0.00000E+00
    0.19406E-07        -0.43422E-11         0.00000E+00
    0.19404E-07        -0.46870E-11         0.00000E+00
    0.19403E-07        -0.48307E-11         0.00000E+00
    0.19402E-07        -0.47911E-11         0.00000E+00
    0.19401E-07        -0.45857E-11         0.00000E+00
    0.19400E-07        -0.42301E-11         0.00000E+00
    0.19399E-07        -0.37357E-11         0.00000E+00
    0.19398E-07        -0.31106E-11         0.00000E+00
    0.19398E-07        -0.23603E-11         0.00000E+00
    0.19397E-07        -0.14913E-11         0.00000E+00
    0.19397E-07        -0.51401E-12         0.00000E+00
    0.19150E-07        -0.65484E-12         0.00000E+00
    0.19149E-07        -0.18556E-11         0.00000E+00
    0.19148E-07        -0.28389E-11         0.00000E+00
    0.19147E-07        -0.36064E-11         0.00000E+00
    0.19146E-07        -0.41627E-11         0.00000E+00
    0.19145E-07        -0.45154E-11         0.00000E+00
    0.19144E-07        -0.46749E-11         0.00000E+00
    0.19143E-07        -0.46540E-11         0.00000E+00
    0.19143E-07        -0.44663E-11         0.00000E+00
    0.19142E-07        -0.41247E-11         0.00000E+00
    0.19141E-07        -0.36409E-11         0.00000E+00
    0.19140E-07        -0.30252E-11         0.00000E+00
    0.19140E-07        -0.22874E-11         0.00000E+00
    0.19139E-07        -0.14387E-11         0.00000E+00
    0.19139E-07        -0.49412E-12         0.00000E+00
    0.18904E-07        -0.61504E-12         0.00000E+00
    0.18904E-07        -0.17501E-11         0.00000E+00
    0.18903E-07        -0.26920E-11         0.00000E+00
    0.18902E-07        -0.34365E-11         0.00000E+00
    0.18902E-07        -0.39838E-11         0.00000E+00
    0.18901E-07        -0.43381E-11         0.00000E+00
    0.18900E-07        -0.45064E-11         0.00000E+00
    0.18899E-07        -0.44981E-11         0.00000E+00
    0.18898E-07        -0.43241E-11         0.00000E+00
    0.18898E-07        -0.39962E-11         0.00000E+00
    0.18897E-07        -0.35259E-11         0.00000E+00
    0.18896E-07        -0.29249E-11         0.00000E+00
    0.18896E-07        -0.22058E-11         0.00000E+00
    0.18896E-07        -0.13828E-11         0.00000E+00
    0.18895E-07        -0.47368E-12         0.00000E+00
    0.18681E-07        -0.57958E-12         0.00000E+00
    0.18680E-07        -0.16556E-11         0.00000E+00
    0.18680E-07        -0.25590E-11         0.00000E+00
    0.18679E-07        -0.32807E-11         0.00000E+00
    0.18679E-07        -0.38171E-11         0.00000E+00
    0.18678E-07        -0.41694E-11         0.00000E+00
    0.18678E-07        -0.43419E-11         0.00000E+00
    0.18677E-07        -0.43420E-11         0.00000E+00
    0.18676E-07        -0.41790E-11         0.00000E+00
    0.18676E-07        -0.38636E-11         0.00000E+00
    0.18675E-07        -0.34074E-11         0.00000E+00
    0.18675E-07        -0.28231E-11         0.00000E+00
    0.18675E-07        -0.21249E-11         0.00000E+00
    0.18674E-07        -0.13289E-11         0.00000E+00
    0.18674E-07        -0.45434E-12         0.00000E+00
    0.18486E-07        -0.55019E-12         0.00000E+00
    0.18486E-07        -0.15766E-11         0.00000E+00
    0.18485E-07        -0.24467E-11         0.00000E+00
    0.18485E-07        -0.31476E-11         0.00000E+00
    0.18485E-07        -0.36728E-11         0.00000E+00
    0.18484E-07        -0.40209E-11         0.00000E+00
    0.18484E-07        -0.41948E-11         0.00000E+00
    0.18483E-07        -0.42002E-11         0.00000E+00
    0.18483E-07        -0.40455E-11         0.00000E+00
    0.18483E-07        -0.37408E-11         0.00000E+00
    0.18482E-07        -0.32978E-11         0.00000E+00
    0.18482E-07        -0.27298E-11         0.00000E+00
    0.18482E-07        -0.20517E-11         0.00000E+00
    0.18481E-07        -0.12809E-11         0.00000E+00
    0.18481E-07        -0.43734E-12         0.00000E+00
    0.18325E-07        -0.52814E-12         0.00000E+00
    0.18325E-07        -0.15168E-11         0.00000E+00
    0.18324E-07        -0.23606E-11         0.00000E+00
    0.18324E-07        -0.30440E-11         0.00000E+00
    0.18324E-07        -0.35586E-11         0.00000E+00
    0.18324E-07        -0.39016E-11         0.00000E+00
    0.18324E-07        -0.40747E-11         0.00000E+00
    0.18323E-07        -0.40829E-11         0.00000E+00
    0.18323E-07        -0.39339E-11         0.00000E+00
    0.18323E-07        -0.36376E-11         0.00000E+00
    0.18323E-07        -0.32057E-11         0.00000E+00
    0.18322E-07        -0.26517E-11         0.00000E+00
    0.18322E-07        -0.19911E-11         0.00000E+00
    0.18322E-07        -0.12417E-11         0.00000E+00
    0.18322E-07        -0.42354E-12         0.00000E+00
    0.18200E-07        -0.51422E-12         0.00000E+00
    0.18200E-07        -0.14785E-11         0.00000E+00
    0.18200E-07        -0.23041E-11         0.00000E+00
    0.18200E-07        -0.29743E-11         0.00000E+00
    0.18200E-07        -0.34798E-11         0.00000E+00
    0.18200E-07        -0.38172E-11         0.00000E+00
    0.18200E-07        -0.39877E-11         0.00000E+00
    0.18200E-07        -0.39962E-11         0.00000E+00
    0.18200E-07        -0.38503E-11         0.00000E+00
    0.18200E-07        -0.35596E-11         0.00000E+00
    0.18200E-07        -0.31359E-11         0.00000E+00
    0.18200E-07        -0.25928E-11         0.00000E+00
    0.18200E-07        -0.19458E-11         0.00000E+00
    0.18200E-07        -0.12126E-11         0.00000E+00
    0.18200E-07        -0.41344E-12         0.00000E+00
    0.18114E-07        -0.50876E-12         0.00000E+00
    0.18114E-07        -0.14626E-11         0.00000E+00
    0.18114E-07        -0.22787E-11         0.00000E+00
    0.18115E-07        -0.29402E-11         0.00000E+00
    0.18115E-07        -0.34383E-11         0.00000E+00
    0.18115E-07        -0.37697E-11         0.00000E+00
    0.18115E-07        -0.39360E-11         0.00000E+00
    0.18115E-07        -0.39425E-11         0.00000E+00
    0.18115E-07        -0.37969E-11         0.00000E+00
    0.18115E-07        -0.35090E-11         0.00000E+00
    0.18115E-07        -0.30905E-11         0.00000E+00
    0.18115E-07        -0.25547E-11         0.00000E+00
    0.18115E-07        -0.19169E-11         0.00000E+00
    0.18115E-07        -0.11945E-11         0.00000E+00
    0.18115E-07        -0.40722E-12         0.00000E+00
    0.18066E-07        -0.51166E-12         0.00000E+00
    0.18066E-07        -0.14688E-11         0.00000E+00
    0.18067E-07        -0.22838E-11         0.00000E+00
    0.18067E-07        -0.29411E-11         0.00000E+00
    0.18067E-07        -0.34330E-11         0.00000E+00
    0.18068E-07        -0.37578E-11         0.00000E+00
    0.18068E-07        -0.39182E-11         0.00000E+00
    0.18068E-07        -0.39204E-11         0.00000E+00
    0.18068E-07        -0.37725E-11         0.00000E+00
    0.18069E-07        -0.34847E-11         0.00000E+00
    0.18069E-07        -0.30684E-11         0.00000E+00
    0.18069E-07        -0.25365E-11         0.00000E+00
    0.18069E-07        -0.19038E-11         0.00000E+00
    0.18069E-07        -0.11868E-11         0.00000E+00
    0.18069E-07        -0.40476E-12         0.00000E+00
    0.18054E-07        -0.52244E-12         0.00000E+00
    0.18055E-07        -0.14957E-11         0.00000E+00
    0.18055E-07        -0.23171E-11         0.00000E+00
    0.18056E-07        -0.29736E-11         0.00000E+00
    0.18056E-07        -0.34600E-11         0.00000E+00
    0.18057E-07        -0.37769E-11         0.00000E+00
    0.18057E-07        -0.39292E-11         0.00000E+00
    0.18058E-07        -0.39245E-11         0.00000E+00
    0.18058E-07        -0.37720E-11         0.00000E+00
    0.18058E-07        -0.34821E-11         0.00000E+00
    0.18059E-07        -0.30658E-11         0.00000E+00
    0.18059E-07        -0.25353E-11         0.00000E+00
    0.18059E-07        -0.19044E-11         0.00000E+00
    0.18059E-07        -0.11884E-11         0.00000E+00
    0.18060E-07        -0.40566E-12         0.00000E+00
    0.18076E-07        -0.54023E-12         0.00000E+00
    0.18076E-07        -0.15407E-11         0.00000E+00
    0.18077E-07        -0.23742E-11         0.00000E+00
    0.18078E-07        -0.30317E-11         0.00000E+00
    0.18078E-07        -0.35118E-11         0.00000E+00
    0.18079E-07        -0.38186E-11         0.00000E+00
    0.18080E-07        -0.39602E-11         0.00000E+00
    0.18080E-07        -0.39462E-11         0.00000E+00
    0.18081E-07        -0.37871E-11         0.00000E+00
    0.18081E-07        -0.34936E-11         0.00000E+00
    0.18082E-07        -0.30763E-11         0.00000E+00
    0.18082E-07        -0.25462E-11         0.00000E+00
    0.18082E-07        -0.19152E-11         0.00000E+00
    0.18083E-07        -0.11973E-11         0.00000E+00
    0.18083E-07        -0.40928E-12         0.00000E+00
    0.18126E-07        -0.56385E-12         0.00000E+00
    0.18127E-07        -0.16001E-11         0.00000E+00
    0.18127E-07        -0.24492E-11         0.00000E+00
    0.18128E-07        -0.31072E-11         0.00000E+00
    0.18129E-07        -0.35781E-11         0.00000E+00
    0.18130E-07        -0.38713E-11         0.00000E+00
    0.18131E-07        -0.39987E-11         0.00000E+00
    0.18132E-07        -0.39729E-11         0.00000E+00
    0.18132E-07        -0.38060E-11         0.00000E+00
    0.18133E-07        -0.35089E-11         0.00000E+00
    0.18133E-07        -0.30911E-11         0.00000E+00
    0.18134E-07        -0.25621E-11         0.00000E+00
    0.18134E-07        -0.19315E-11         0.00000E+00
    0.18135E-07        -0.12108E-11         0.00000E+00
    0.18135E-07        -0.41479E-12         0.00000E+00
    0.18199E-07        -0.59175E-12         0.00000E+00
    0.18200E-07        -0.16693E-11         0.00000E+00
    0.18201E-07        -0.25339E-11         0.00000E+00
    0.18202E-07        -0.31888E-11         0.00000E+00
    0.18204E-07        -0.36454E-11         0.00000E+00
    0.18205E-07        -0.39197E-11         0.00000E+00
    0.18205E-07        -0.40287E-11         0.00000E+00
    0.18206E-07        -0.39888E-11         0.00000E+00
    0.18207E-07        -0.38137E-11         0.00000E+00
    0.18208E-07        -0.35143E-11         0.00000E+00
    0.18209E-07        -0.30990E-11         0.00000E+00
    0.18209E-07        -0.25745E-11         0.00000E+00
    0.18210E-07        -0.19473E-11         0.00000E+00
    0.18210E-07        -0.12256E-11         0.00000E+00
    0.18211E-07        -0.42115E-12         0.00000E+00
    0.18290E-07        -0.62211E-12         0.00000E+00
    0.18292E-07        -0.17424E-11         0.00000E+00
    0.18293E-07        -0.26184E-11         0.00000E+00
    0.18294E-07        -0.32628E-11         0.00000E+00
    0.18295E-07        -0.36967E-11         0.00000E+00
    0.18297E-07        -0.39447E-11         0.00000E+00
    0.18298E-07        -0.40305E-11         0.00000E+00
    0.18299E-07        -0.39744E-11         0.00000E+00
    0.18300E-07        -0.37920E-11         0.00000E+00
    0.18301E-07        -0.34940E-11         0.00000E+00
    0.18301E-07        -0.30866E-11         0.00000E+00
    0.18302E-07        -0.25732E-11         0.00000E+00
    0.18303E-07        -0.19557E-11         0.00000E+00
    0.18303E-07        -0.12378E-11         0.00000E+00
    0.18304E-07        -0.42719E-12         0.00000E+00
    0.18393E-07        -0.65275E-12         0.00000E+00
    0.18394E-07        -0.18125E-11         0.00000E+00
    0.18396E-07        -0.26904E-11         0.00000E+00
    0.18397E-07        -0.33119E-11         0.00000E+00
    0.18399E-07        -0.37112E-11         0.00000E+00
    0.18400E-07        -0.39238E-11         0.00000E+00
    0.18401E-07        -0.39810E-11         0.00000E+00
    0.18402E-07        -0.39075E-11         0.00000E+00
    0.18403E-07        -0.37204E-11         0.00000E+00
    0.18404E-07        -0.34295E-11         0.00000E+00
    0.18405E-07        -0.30385E-11         0.00000E+00
    0.18406E-07        -0.25461E-11         0.00000E+00
    0.18407E-07        -0.19487E-11         0.00000E+00
    0.18408E-07        -0.12432E-11         0.00000E+00
    0.18408E-07        -0.43163E-12         0.00000E+00
    0.18500E-07        -0.68116E-12         0.00000E+00
    0.18501E-07        -0.18712E-11         0.00000E+00
    0.18503E-07        -0.27347E-11         0.00000E+00
    0.18505E-07        -0.33152E-11         0.00000E+00
    0.18507E-07        -0.36643E-11         0.00000E+00
    0.18508E-07        -0.38309E-11         0.00000E+00
    0.18509E-07        -0.38547E-11         0.00000E+00
    0.18511E-07        -0.37640E-11         0.00000E+00
    0.18512E-07        -0.35766E-11         0.00000E+00
    0.18513E-07        -0.33011E-11         0.00000E+00
    0.18514E-07        -0.29378E-11         0.00000E+00
    0.18515E-07        -0.24802E-11         0.00000E+00
    0.18516E-07        -0.19171E-11         0.00000E+00
    0.18516E-07        -0.12369E-11         0.00000E+00
    0.18517E-07        -0.43309E-12         0.00000E+00
    0.18605E-07        -0.70428E-12         0.00000E+00
    0.18607E-07        -0.19076E-11         0.00000E+00
    0.18609E-07        -0.27316E-11         0.00000E+00
    0.18611E-07        -0.32462E-11         0.00000E+00
    0.18613E-07        -0.35267E-11         0.00000E+00
    0.18614E-07        -0.36374E-11         0.00000E+00
    0.18616E-07        -0.36249E-11         0.00000E+00
    0.18617E-07        -0.35196E-11         0.00000E+00
    0.18619E-07        -0.33385E-11         0.00000E+00
    0.18620E-07        -0.30884E-11         0.00000E+00
    0.18621E-07        -0.27663E-11         0.00000E+00
    0.18622E-07        -0.23604E-11         0.00000E+00
    0.18623E-07        -0.18507E-11         0.00000E+00
    0.18624E-07        -0.12136E-11         0.00000E+00
    0.18624E-07        -0.43007E-12         0.00000E+00
    0.18702E-07        -0.71803E-12         0.00000E+00
    0.18705E-07        -0.19069E-11         0.00000E+00
    0.18707E-07        -0.26541E-11         0.00000E+00
    0.18710E-07        -0.30713E-11         0.00000E+00
    0.18712E-07        -0.32649E-11         0.00000E+00
    0.18713E-07        -0.33138E-11         0.00000E+00
    0.18715E-07        -0.32672E-11         0.00000E+00
    0.18716E-07        -0.31533E-11         0.00000E+00
    0.18718E-07        -0.29869E-11         0.00000E+00
    0.18719E-07        -0.27725E-11         0.00000E+00
    0.18720E-07        -0.25055E-11         0.00000E+00
    0.18721E-07        -0.21700E-11         0.00000E+00
    0.18722E-07        -0.17369E-11         0.00000E+00
    0.18723E-07        -0.11665E-11         0.00000E+00
    0.18724E-07        -0.42077E-12         0.00000E+00
    0.18787E-07        -0.71571E-12         0.00000E+00
    0.18790E-07        -0.18449E-11         0.00000E+00
    0.18793E-07        -0.24619E-11         0.00000E+00
    0.18795E-07        -0.27469E-11         0.00000E+00
    0.18798E-07        -0.28434E-11         0.00000E+00
    0.18799E-07        -0.28351E-11         0.00000E+00
    0.18801E-07        -0.27641E-11         0.00000E+00
    0.18803E-07        -0.26521E-11         0.00000E+00
    0.18804E-07        -0.25096E-11         0.00000E+00
    0.18805E-07        -0.23396E-11         0.00000E+00
    0.18806E-07        -0.21377E-11         0.00000E+00
    0.18807E-07        -0.18891E-11         0.00000E+00
    0.18809E-07        -0.15583E-11         0.00000E+00
    0.18810E-07        -0.10859E-11         0.00000E+00
    0.18811E-07        -0.40286E-12         0.00000E+00
    0.18854E-07        -0.68360E-12         0.00000E+00
    0.18858E-07        -0.16752E-11         0.00000E+00
    0.18861E-07        -0.20897E-11         0.00000E+00
    0.18864E-07        -0.22218E-11         0.00000E+00
    0.18866E-07        -0.22348E-11         0.00000E+00
    0.18868E-07        -0.21894E-11         0.00000E+00
    0.18870E-07        -0.21123E-11         0.00000E+00
    0.18871E-07        -0.20161E-11         0.00000E+00
    0.18873E-07        -0.19067E-11         0.00000E+00
    0.18874E-07        -0.17857E-11         0.00000E+00
    0.18875E-07        -0.16511E-11         0.00000E+00
    0.18876E-07        -0.14937E-11         0.00000E+00
    0.18878E-07        -0.12885E-11         0.00000E+00
    0.18879E-07        -0.95499E-12         0.00000E+00
    0.18880E-07        -0.37031E-12         0.00000E+00
    0.18901E-07        -0.58064E-12         0.00000E+00
    0.18905E-07        -0.12906E-11         0.00000E+00
    0.18909E-07        -0.14465E-11         0.00000E+00
    0.18912E-07        -0.14663E-11         0.00000E+00
    0.18914E-07        -0.14382E-11         0.00000E+00
    0.18916E-07        -0.13888E-11         0.00000E+00
    0.18918E-07        -0.13289E-11         0.00000E+00
    0.18919E-07        -0.12633E-11         0.00000E+00
    0.18921E-07        -0.11944E-11         0.00000E+00
    0.18922E-07        -0.11231E-11         0.00000E+00
    0.18923E-07        -0.10491E-11         0.00000E+00
    0.18924E-07        -0.97001E-12         0.00000E+00
    0.18926E-07        -0.87744E-12         0.00000E+00
    0.18927E-07        -0.73345E-12         0.00000E+00
    0.18929E-07        -0.32032E-12         0.00000E+00
    0.18924E-07        -0.25175E-12         0.00000E+00
    0.18930E-07        -0.51265E-12         0.00000E+00
    0.18934E-07        -0.52217E-12         0.00000E+00
    0.18936E-07        -0.51500E-12         0.00000E+00
    0.18939E-07        -0.49752E-12         0.00000E+00
    0.18941E-07        -0.47654E-12         0.00000E+00
    0.18942E-07        -0.45392E-12         0.00000E+00
    0.18944E-07        -0.43060E-12         0.00000E+00
    0.18945E-07        -0.40706E-12         0.00000E+00
    0.18946E-07        -0.38364E-12         0.00000E+00
    0.18948E-07        -0.36052E-12         0.00000E+00
    0.18949E-07        -0.33796E-12         0.00000E+00
    0.18950E-07        -0.31405E-12         0.00000E+00
    0.18952E-07        -0.29633E-12         0.00000E+00
    0.18954E-07        -0.14572E-12         0.00000E+00
POINT_DATA        496
VECTORS vDarcyNodal double 
    0.20916E-07         0.00000E+00         0.00000E+00
    0.20913E-07         0.00000E+00         0.00000E+00
    0.20907E-07         0.00000E+00         0.00000E+00
    0.20901E-07         0.00000E+00         0.00000E+00
    0.20897E-07         0.00000E+00         0.00000E+00
    0.20894E-07         0.00000E+00         0.00000E+00
    0.20893E-07         0.00000E+00         0.00000E+00
    0.20891E-07         0.00000E+00         0.00000E+00
    0.20890E-07         0.00000E+00         0.00000E+00
    0.20888E-07         0.00000E+00         0.00000E+00
    0.20887E-07         0.00000E+00         0.00000E+00
    0.20886E-07         0.00000E+00         0.00000E+00
    0.20884E-07        -0.66660E-22         0.00000E+00
    0.20883E-07        -0.80677E-26         0.00000E+00
    0.20881E-07         0.66652E-22         0.00000E+00
    0.20879E-07         0.00000E+00         0.00000E+00
    0.20889E-07        -0.13737E-11         0.00000E+00
    0.20886E-07        -0.23710E-11         0.00000E+00
    0.20880E-07        -0.38849E-11         0.00000E+00
    0.20875E-07        -0.44703E-11         0.00000E+00
    0.20871E-07        -0.40312E-11         0.00000E+00
    0.20868E-07        -0.29637E-11         0.00000E+00
    0.20866E-07        -0.21199E-11         0.00000E+00
    0.20865E-07        -0.16794E-11         0.00000E+00
    0.20863E-07        -0.14182E-11         0.00000E+00
    0.20862E-07        -0.12358E-11         0.00000E+00
    0.20861E-07        -0.10967E-11         0.00000E+00
    0.20859E-07        -0.98307E-12         0.00000E+00
    0.20858E-07        -0.88324E-12         0.00000E+00
    0.20856E-07        -0.79823E-12         0.00000E+00
    0.20854E-07        -0.56430E-12         0.00000E+00
    0.20853E-07        -0.36745E-12         0.00000E+00
    0.20808E-07        -0.15911E-11         0.00000E+00
    0.20805E-07        -0.29944E-11         0.00000E+00
    0.20801E-07        -0.49775E-11         0.00000E+00
    0.20797E-07        -0.53450E-11         0.00000E+00
    0.20793E-07        -0.48106E-11         0.00000E+00
    0.20791E-07        -0.41827E-11         0.00000E+00
    0.20788E-07        -0.35767E-11         0.00000E+00
    0.20787E-07        -0.30476E-11         0.00000E+00
    0.20785E-07        -0.26470E-11         0.00000E+00
    0.20784E-07        -0.23366E-11         0.00000E+00
    0.20782E-07        -0.20785E-11         0.00000E+00
    0.20781E-07        -0.18471E-11         0.00000E+00
    0.20780E-07        -0.16176E-11         0.00000E+00
    0.20778E-07        -0.13182E-11         0.00000E+00
    0.20777E-07        -0.79225E-12         0.00000E+00
    0.20776E-07        -0.44820E-12         0.00000E+00
    0.20678E-07        -0.15260E-11         0.00000E+00
    0.20676E-07        -0.25220E-11         0.00000E+00
    0.20673E-07        -0.39460E-11         0.00000E+00
    0.20670E-07        -0.46218E-11         0.00000E+00
    0.20667E-07        -0.48668E-11         0.00000E+00
    0.20664E-07        -0.47191E-11         0.00000E+00
    0.20662E-07        -0.43792E-11         0.00000E+00
    0.20660E-07        -0.39779E-11         0.00000E+00
    0.20659E-07        -0.35797E-11         0.00000E+00
    0.20657E-07        -0.32119E-11         0.00000E+00
    0.20656E-07        -0.28668E-11         0.00000E+00
    0.20654E-07        -0.25224E-11         0.00000E+00
    0.20653E-07        -0.21382E-11         0.00000E+00
    0.20652E-07        -0.16411E-11         0.00000E+00
    0.20650E-07        -0.92937E-12         0.00000E+00
    0.20650E-07        -0.50588E-12         0.00000E+00
    0.20506E-07        -0.97464E-12         0.00000E+00
    0.20504E-07        -0.18444E-11         0.00000E+00
    0.20502E-07        -0.33126E-11         0.00000E+00
    0.20499E-07        -0.42482E-11         0.00000E+00
    0.20497E-07        -0.47397E-11         0.00000E+00
    0.20494E-07        -0.48949E-11         0.00000E+00
    0.20492E-07        -0.47949E-11         0.00000E+00
    0.20490E-07        -0.45403E-11         0.00000E+00
    0.20489E-07        -0.42065E-11         0.00000E+00
    0.20487E-07        -0.38339E-11         0.00000E+00
    0.20486E-07        -0.34344E-11         0.00000E+00
    0.20485E-07        -0.29953E-11         0.00000E+00
    0.20483E-07        -0.24821E-11         0.00000E+00
    0.20482E-07        -0.18408E-11         0.00000E+00
    0.20481E-07        -0.10077E-11         0.00000E+00
    0.20480E-07        -0.53528E-12         0.00000E+00
    0.20297E-07        -0.86315E-12         0.00000E+00
    0.20296E-07        -0.16358E-11         0.00000E+00
    0.20294E-07        -0.29966E-11         0.00000E+00
    0.20292E-07        -0.39833E-11         0.00000E+00
    0.20290E-07        -0.46073E-11         0.00000E+00
    0.20288E-07        -0.49167E-11         0.00000E+00
    0.20286E-07        -0.49738E-11         0.00000E+00
    0.20284E-07        -0.48416E-11         0.00000E+00
    0.20283E-07        -0.45783E-11         0.00000E+00
    0.20281E-07        -0.42239E-11         0.00000E+00
    0.20280E-07        -0.37959E-11         0.00000E+00
    0.20279E-07        -0.32910E-11         0.00000E+00
    0.20277E-07        -0.26874E-11         0.00000E+00
    0.20276E-07        -0.19512E-11         0.00000E+00
    0.20275E-07        -0.10466E-11         0.00000E+00
    0.20275E-07        -0.54809E-12         0.00000E+00
    0.20061E-07        -0.80477E-12         0.00000E+00
    0.20060E-07        -0.15294E-11         0.00000E+00
    0.20059E-07        -0.28193E-11         0.00000E+00
    0.20057E-07        -0.37942E-11         0.00000E+00
    0.20055E-07        -0.44660E-11         0.00000E+00
    0.20053E-07        -0.48589E-11         0.00000E+00
    0.20051E-07        -0.50099E-11         0.00000E+00
    0.20050E-07        -0.49624E-11         0.00000E+00
    0.20048E-07        -0.47572E-11         0.00000E+00
    0.20047E-07        -0.44264E-11         0.00000E+00
    0.20046E-07        -0.39878E-11         0.00000E+00
    0.20045E-07        -0.34444E-11         0.00000E+00
    0.20044E-07        -0.27860E-11         0.00000E+00
    0.20043E-07        -0.19956E-11         0.00000E+00
    0.20042E-07        -0.10565E-11         0.00000E+00
    0.20041E-07        -0.54819E-12         0.00000E+00
    0.19807E-07        -0.76109E-12         0.00000E+00
    0.19806E-07        -0.14485E-11         0.00000E+00
    0.19804E-07        -0.26799E-11         0.00000E+00
    0.19803E-07        -0.36310E-11         0.00000E+00
    0.19801E-07        -0.43147E-11         0.00000E+00
    0.19800E-07        -0.47478E-11         0.00000E+00
    0.19798E-07        -0.49536E-11         0.00000E+00
    0.19797E-07        -0.49607E-11         0.00000E+00
    0.19795E-07        -0.47979E-11         0.00000E+00
    0.19794E-07        -0.44895E-11         0.00000E+00
    0.19793E-07        -0.40515E-11         0.00000E+00
    0.19792E-07        -0.34906E-11         0.00000E+00
    0.19791E-07        -0.28057E-11         0.00000E+00
    0.19790E-07        -0.19917E-11         0.00000E+00
    0.19790E-07        -0.10454E-11         0.00000E+00
    0.19789E-07        -0.53904E-12         0.00000E+00
    0.19543E-07        -0.71840E-12         0.00000E+00
    0.19542E-07        -0.13708E-11         0.00000E+00
    0.19541E-07        -0.25464E-11         0.00000E+00
    0.19540E-07        -0.34692E-11         0.00000E+00
    0.19539E-07        -0.41497E-11         0.00000E+00
    0.19537E-07        -0.46000E-11         0.00000E+00
    0.19536E-07        -0.48363E-11         0.00000E+00
    0.19535E-07        -0.48777E-11         0.00000E+00
    0.19534E-07        -0.47446E-11         0.00000E+00
    0.19532E-07        -0.44557E-11         0.00000E+00
    0.19531E-07        -0.40250E-11         0.00000E+00
    0.19531E-07        -0.34617E-11         0.00000E+00
    0.19530E-07        -0.27705E-11         0.00000E+00
    0.19529E-07        -0.19546E-11         0.00000E+00
    0.19528E-07        -0.10198E-11         0.00000E+00
    0.19528E-07        -0.52359E-12         0.00000E+00
    0.19280E-07        -0.67560E-12         0.00000E+00
    0.19280E-07        -0.12930E-11         0.00000E+00
    0.19279E-07        -0.24127E-11         0.00000E+00
    0.19278E-07        -0.33043E-11         0.00000E+00
    0.19277E-07        -0.39737E-11         0.00000E+00
    0.19275E-07        -0.44292E-11         0.00000E+00
    0.19274E-07        -0.46814E-11         0.00000E+00
    0.19273E-07        -0.47442E-11         0.00000E+00
    0.19272E-07        -0.46322E-11         0.00000E+00
    0.19271E-07        -0.43601E-11         0.00000E+00
    0.19270E-07        -0.39408E-11         0.00000E+00
    0.19270E-07        -0.33846E-11         0.00000E+00
    0.19269E-07        -0.27004E-11         0.00000E+00
    0.19268E-07        -0.18970E-11         0.00000E+00
    0.19268E-07        -0.98550E-12         0.00000E+00
    0.19268E-07        -0.50443E-12         0.00000E+00
    0.19027E-07        -0.63410E-12         0.00000E+00
    0.19027E-07        -0.12175E-11         0.00000E+00
    0.19026E-07        -0.22819E-11         0.00000E+00
    0.19025E-07        -0.31410E-11         0.00000E+00
    0.19024E-07        -0.37954E-11         0.00000E+00
    0.19024E-07        -0.42490E-11         0.00000E+00
    0.19023E-07        -0.45089E-11         0.00000E+00
    0.19022E-07        -0.45848E-11         0.00000E+00
    0.19021E-07        -0.44881E-11         0.00000E+00
    0.19020E-07        -0.42308E-11         0.00000E+00
    0.19019E-07        -0.38248E-11         0.00000E+00
    0.19019E-07        -0.32815E-11         0.00000E+00
    0.19018E-07        -0.26121E-11         0.00000E+00
    0.19018E-07        -0.18291E-11         0.00000E+00
    0.19017E-07        -0.94732E-12         0.00000E+00
    0.19017E-07        -0.48380E-12         0.00000E+00
    0.18793E-07        -0.59599E-12         0.00000E+00
    0.18792E-07        -0.11477E-11         0.00000E+00
    0.18792E-07        -0.21603E-11         0.00000E+00
    0.18791E-07        -0.29875E-11         0.00000E+00
    0.18790E-07        -0.36250E-11         0.00000E+00
    0.18790E-07        -0.40730E-11         0.00000E+00
    0.18789E-07        -0.43356E-11         0.00000E+00
    0.18788E-07        -0.44196E-11         0.00000E+00
    0.18788E-07        -0.43341E-11         0.00000E+00
    0.18787E-07        -0.40896E-11         0.00000E+00
    0.18786E-07        -0.36973E-11         0.00000E+00
    0.18786E-07        -0.31693E-11         0.00000E+00
    0.18785E-07        -0.25185E-11         0.00000E+00
    0.18785E-07        -0.17595E-11         0.00000E+00
    0.18785E-07        -0.90917E-12         0.00000E+00
    0.18785E-07        -0.46355E-12         0.00000E+00
    0.18583E-07        -0.56319E-12         0.00000E+00
    0.18583E-07        -0.10874E-11         0.00000E+00
    0.18583E-07        -0.20543E-11         0.00000E+00
    0.18582E-07        -0.28522E-11         0.00000E+00
    0.18582E-07        -0.34729E-11         0.00000E+00
    0.18581E-07        -0.39135E-11         0.00000E+00
    0.18581E-07        -0.41757E-11         0.00000E+00
    0.18580E-07        -0.42643E-11         0.00000E+00
    0.18580E-07        -0.41869E-11         0.00000E+00
    0.18579E-07        -0.39531E-11         0.00000E+00
    0.18579E-07        -0.35737E-11         0.00000E+00
    0.18579E-07        -0.30612E-11         0.00000E+00
    0.18578E-07        -0.24295E-11         0.00000E+00
    0.18578E-07        -0.16943E-11         0.00000E+00
    0.18578E-07        -0.87407E-12         0.00000E+00
    0.18578E-07        -0.44512E-12         0.00000E+00
    0.18405E-07        -0.53721E-12         0.00000E+00
    0.18405E-07        -0.10394E-11         0.00000E+00
    0.18405E-07        -0.19691E-11         0.00000E+00
    0.18405E-07        -0.27422E-11         0.00000E+00
    0.18405E-07        -0.33475E-11         0.00000E+00
    0.18404E-07        -0.37802E-11         0.00000E+00
    0.18404E-07        -0.40400E-11         0.00000E+00
    0.18404E-07        -0.41307E-11         0.00000E+00
    0.18403E-07        -0.40588E-11         0.00000E+00
    0.18403E-07        -0.38333E-11         0.00000E+00
    0.18403E-07        -0.34650E-11         0.00000E+00
    0.18402E-07        -0.29664E-11         0.00000E+00
    0.18402E-07        -0.23520E-11         0.00000E+00
    0.18402E-07        -0.16383E-11         0.00000E+00
    0.18402E-07        -0.84421E-12         0.00000E+00
    0.18402E-07        -0.42955E-12         0.00000E+00
    0.18263E-07        -0.51908E-12         0.00000E+00
    0.18263E-07        -0.10056E-11         0.00000E+00
    0.18262E-07        -0.19084E-11         0.00000E+00
    0.18262E-07        -0.26625E-11         0.00000E+00
    0.18262E-07        -0.32551E-11         0.00000E+00
    0.18262E-07        -0.36801E-11         0.00000E+00
    0.18262E-07        -0.39363E-11         0.00000E+00
    0.18262E-07        -0.40269E-11         0.00000E+00
    0.18262E-07        -0.39580E-11         0.00000E+00
    0.18261E-07        -0.37382E-11         0.00000E+00
    0.18261E-07        -0.33783E-11         0.00000E+00
    0.18261E-07        -0.28909E-11         0.00000E+00
    0.18261E-07        -0.22907E-11         0.00000E+00
    0.18261E-07        -0.15944E-11         0.00000E+00
    0.18261E-07        -0.82098E-12         0.00000E+00
    0.18261E-07        -0.41752E-12         0.00000E+00
    0.18157E-07        -0.50936E-12         0.00000E+00
    0.18157E-07        -0.98714E-12         0.00000E+00
    0.18157E-07        -0.18742E-11         0.00000E+00
    0.18157E-07        -0.26159E-11         0.00000E+00
    0.18157E-07        -0.31989E-11         0.00000E+00
    0.18158E-07        -0.36169E-11         0.00000E+00
    0.18158E-07        -0.38686E-11         0.00000E+00
    0.18158E-07        -0.39571E-11         0.00000E+00
    0.18158E-07        -0.38885E-11         0.00000E+00
    0.18158E-07        -0.36717E-11         0.00000E+00
    0.18158E-07        -0.33173E-11         0.00000E+00
    0.18158E-07        -0.28378E-11         0.00000E+00
    0.18158E-07        -0.22479E-11         0.00000E+00
    0.18158E-07        -0.15640E-11         0.00000E+00
    0.18158E-07        -0.80510E-12         0.00000E+00
    0.18158E-07        -0.40936E-12         0.00000E+00
    0.18090E-07        -0.50816E-12         0.00000E+00
    0.18090E-07        -0.98422E-12         0.00000E+00
    0.18090E-07        -0.18670E-11         0.00000E+00
    0.18091E-07        -0.26030E-11         0.00000E+00
    0.18091E-07        -0.31796E-11         0.00000E+00
    0.18091E-07        -0.35910E-11         0.00000E+00
    0.18091E-07        -0.38371E-11         0.00000E+00
    0.18092E-07        -0.39215E-11         0.00000E+00
    0.18092E-07        -0.38509E-11         0.00000E+00
    0.18092E-07        -0.36343E-11         0.00000E+00
    0.18092E-07        -0.32823E-11         0.00000E+00
    0.18092E-07        -0.28074E-11         0.00000E+00
    0.18092E-07        -0.22237E-11         0.00000E+00
    0.18092E-07        -0.15473E-11         0.00000E+00
    0.18092E-07        -0.79661E-12         0.00000E+00
    0.18092E-07        -0.40508E-12         0.00000E+00
    0.18060E-07        -0.51517E-12         0.00000E+00
    0.18060E-07        -0.99626E-12         0.00000E+00
    0.18061E-07        -0.18856E-11         0.00000E+00
    0.18061E-07        -0.26219E-11         0.00000E+00
    0.18062E-07        -0.31946E-11         0.00000E+00
    0.18062E-07        -0.35998E-11         0.00000E+00
    0.18062E-07        -0.38389E-11         0.00000E+00
    0.18063E-07        -0.39171E-11         0.00000E+00
    0.18063E-07        -0.38419E-11         0.00000E+00
    0.18063E-07        -0.36229E-11         0.00000E+00
    0.18064E-07        -0.32708E-11         0.00000E+00
    0.18064E-07        -0.27975E-11         0.00000E+00
    0.18064E-07        -0.22166E-11         0.00000E+00
    0.18064E-07        -0.15433E-11         0.00000E+00
    0.18064E-07        -0.79497E-12         0.00000E+00
    0.18064E-07        -0.40443E-12         0.00000E+00
    0.18065E-07        -0.52971E-12         0.00000E+00
    0.18065E-07        -0.10219E-11         0.00000E+00
    0.18066E-07        -0.19272E-11         0.00000E+00
    0.18066E-07        -0.26687E-11         0.00000E+00
    0.18067E-07        -0.32389E-11         0.00000E+00
    0.18067E-07        -0.36370E-11         0.00000E+00
    0.18068E-07        -0.38672E-11         0.00000E+00
    0.18069E-07        -0.39367E-11         0.00000E+00
    0.18069E-07        -0.38546E-11         0.00000E+00
    0.18070E-07        -0.36312E-11         0.00000E+00
    0.18070E-07        -0.32771E-11         0.00000E+00
    0.18070E-07        -0.28036E-11         0.00000E+00
    0.18071E-07        -0.22231E-11         0.00000E+00
    0.18071E-07        -0.15495E-11         0.00000E+00
    0.18071E-07        -0.79912E-12         0.00000E+00
    0.18071E-07        -0.40688E-12         0.00000E+00
    0.18101E-07        -0.55076E-12         0.00000E+00
    0.18101E-07        -0.10590E-11         0.00000E+00
    0.18102E-07        -0.19877E-11         0.00000E+00
    0.18103E-07        -0.27372E-11         0.00000E+00
    0.18103E-07        -0.33046E-11         0.00000E+00
    0.18104E-07        -0.36934E-11         0.00000E+00
    0.18105E-07        -0.39116E-11         0.00000E+00
    0.18105E-07        -0.39697E-11         0.00000E+00
    0.18106E-07        -0.38787E-11         0.00000E+00
    0.18107E-07        -0.36496E-11         0.00000E+00
    0.18107E-07        -0.32929E-11         0.00000E+00
    0.18108E-07        -0.28189E-11         0.00000E+00
    0.18108E-07        -0.22382E-11         0.00000E+00
    0.18109E-07        -0.15630E-11         0.00000E+00
    0.18109E-07        -0.80750E-12         0.00000E+00
    0.18109E-07        -0.41169E-12         0.00000E+00
    0.18163E-07        -0.57694E-12         0.00000E+00
    0.18163E-07        -0.11049E-11         0.00000E+00
    0.18164E-07        -0.20615E-11         0.00000E+00
    0.18165E-07        -0.28191E-11         0.00000E+00
    0.18166E-07        -0.33807E-11         0.00000E+00
    0.18167E-07        -0.37561E-11         0.00000E+00
    0.18168E-07        -0.39584E-11         0.00000E+00
    0.18169E-07        -0.40020E-11         0.00000E+00
    0.18169E-07        -0.39003E-11         0.00000E+00
    0.18170E-07        -0.36653E-11         0.00000E+00
    0.18171E-07        -0.33071E-11         0.00000E+00
    0.18171E-07        -0.28344E-11         0.00000E+00
    0.18172E-07        -0.22554E-11         0.00000E+00
    0.18172E-07        -0.15793E-11         0.00000E+00
    0.18173E-07        -0.81812E-12         0.00000E+00
    0.18173E-07        -0.41790E-12         0.00000E+00
    0.18245E-07        -0.60656E-12         0.00000E+00
    0.18245E-07        -0.11561E-11         0.00000E+00
    0.18247E-07        -0.21416E-11         0.00000E+00
    0.18248E-07        -0.29036E-11         0.00000E+00
    0.18249E-07        -0.34535E-11         0.00000E+00
    0.18250E-07        -0.38090E-11         0.00000E+00
    0.18251E-07        -0.39900E-11         0.00000E+00
    0.18252E-07        -0.40156E-11         0.00000E+00
    0.18253E-07        -0.39022E-11         0.00000E+00
    0.18254E-07        -0.36627E-11         0.00000E+00
    0.18255E-07        -0.33063E-11         0.00000E+00
    0.18255E-07        -0.28392E-11         0.00000E+00
    0.18256E-07        -0.22665E-11         0.00000E+00
    0.18257E-07        -0.15936E-11         0.00000E+00
    0.18257E-07        -0.82864E-12         0.00000E+00
    0.18257E-07        -0.42441E-12         0.00000E+00
    0.18342E-07        -0.63764E-12         0.00000E+00
    0.18342E-07        -0.12084E-11         0.00000E+00
    0.18344E-07        -0.22192E-11         0.00000E+00
    0.18345E-07        -0.29776E-11         0.00000E+00
    0.18346E-07        -0.35059E-11         0.00000E+00
    0.18348E-07        -0.38324E-11         0.00000E+00
    0.18349E-07        -0.39852E-11         0.00000E+00
    0.18350E-07        -0.39893E-11         0.00000E+00
    0.18351E-07        -0.38642E-11         0.00000E+00
    0.18352E-07        -0.36233E-11         0.00000E+00
    0.18353E-07        -0.32744E-11         0.00000E+00
    0.18354E-07        -0.28206E-11         0.00000E+00
    0.18355E-07        -0.22624E-11         0.00000E+00
    0.18355E-07        -0.16000E-11         0.00000E+00
    0.18356E-07        -0.83640E-12         0.00000E+00
    0.18356E-07        -0.42998E-12         0.00000E+00
    0.18446E-07        -0.66785E-12         0.00000E+00
    0.18447E-07        -0.12569E-11         0.00000E+00
    0.18449E-07        -0.22837E-11         0.00000E+00
    0.18450E-07        -0.30248E-11         0.00000E+00
    0.18452E-07        -0.35172E-11         0.00000E+00
    0.18453E-07        -0.38027E-11         0.00000E+00
    0.18455E-07        -0.39196E-11         0.00000E+00
    0.18456E-07        -0.38992E-11         0.00000E+00
    0.18457E-07        -0.37637E-11         0.00000E+00
    0.18458E-07        -0.35266E-11         0.00000E+00
    0.18459E-07        -0.31937E-11         0.00000E+00
    0.18460E-07        -0.27641E-11         0.00000E+00
    0.18461E-07        -0.22324E-11         0.00000E+00
    0.18462E-07        -0.15919E-11         0.00000E+00
    0.18462E-07        -0.83845E-12         0.00000E+00
    0.18463E-07        -0.43329E-12         0.00000E+00
    0.18552E-07        -0.69447E-12         0.00000E+00
    0.18553E-07        -0.12955E-11         0.00000E+00
    0.18555E-07        -0.23221E-11         0.00000E+00
    0.18557E-07        -0.30251E-11         0.00000E+00
    0.18559E-07        -0.34623E-11         0.00000E+00
    0.18560E-07        -0.36926E-11         0.00000E+00
    0.18562E-07        -0.37660E-11         0.00000E+00
    0.18563E-07        -0.37195E-11         0.00000E+00
    0.18565E-07        -0.35769E-11         0.00000E+00
    0.18566E-07        -0.33511E-11         0.00000E+00
    0.18567E-07        -0.30452E-11         0.00000E+00
    0.18568E-07        -0.26539E-11         0.00000E+00
    0.18569E-07        -0.21649E-11         0.00000E+00
    0.18570E-07        -0.15621E-11         0.00000E+00
    0.18570E-07        -0.83157E-12         0.00000E+00
    0.18571E-07        -0.43290E-12         0.00000E+00
    0.18653E-07        -0.71410E-12         0.00000E+00
    0.18655E-07        -0.13165E-11         0.00000E+00
    0.18657E-07        -0.23171E-11         0.00000E+00
    0.18659E-07        -0.29527E-11         0.00000E+00
    0.18661E-07        -0.33107E-11         0.00000E+00
    0.18663E-07        -0.34716E-11         0.00000E+00
    0.18665E-07        -0.34963E-11         0.00000E+00
    0.18666E-07        -0.34250E-11         0.00000E+00
    0.18667E-07        -0.32812E-11         0.00000E+00
    0.18669E-07        -0.30758E-11         0.00000E+00
    0.18670E-07        -0.28095E-11         0.00000E+00
    0.18671E-07        -0.24729E-11         0.00000E+00
    0.18672E-07        -0.20463E-11         0.00000E+00
    0.18673E-07        -0.15022E-11         0.00000E+00
    0.18674E-07        -0.81207E-12         0.00000E+00
    0.18674E-07        -0.42725E-12         0.00000E+00
    0.18745E-07        -0.72195E-12         0.00000E+00
    0.18746E-07        -0.13085E-11         0.00000E+00
    0.18749E-07        -0.22440E-11         0.00000E+00
    0.18751E-07        -0.27727E-11         0.00000E+00
    0.18754E-07        -0.30256E-11         0.00000E+00
    0.18756E-07        -0.31072E-11         0.00000E+00
    0.18757E-07        -0.30847E-11         0.00000E+00
    0.18759E-07        -0.29955E-11         0.00000E+00
    0.18760E-07        -0.28590E-11         0.00000E+00
    0.18761E-07        -0.26836E-11         0.00000E+00
    0.18763E-07        -0.24686E-11         0.00000E+00
    0.18764E-07        -0.22027E-11         0.00000E+00
    0.18765E-07        -0.18606E-11         0.00000E+00
    0.18766E-07        -0.14012E-11         0.00000E+00
    0.18767E-07        -0.77518E-12         0.00000E+00
    0.18768E-07        -0.41430E-12         0.00000E+00
    0.18821E-07        -0.70948E-12         0.00000E+00
    0.18822E-07        -0.12521E-11         0.00000E+00
    0.18826E-07        -0.20628E-11         0.00000E+00
    0.18828E-07        -0.24361E-11         0.00000E+00
    0.18831E-07        -0.25648E-11         0.00000E+00
    0.18833E-07        -0.25714E-11         0.00000E+00
    0.18835E-07        -0.25145E-11         0.00000E+00
    0.18836E-07        -0.24208E-11         0.00000E+00
    0.18838E-07        -0.23027E-11         0.00000E+00
    0.18839E-07        -0.21656E-11         0.00000E+00
    0.18840E-07        -0.20088E-11         0.00000E+00
    0.18841E-07        -0.18242E-11         0.00000E+00
    0.18842E-07        -0.15868E-11         0.00000E+00
    0.18844E-07        -0.12430E-11         0.00000E+00
    0.18845E-07        -0.71361E-12         0.00000E+00
    0.18846E-07        -0.39143E-12         0.00000E+00
    0.18878E-07        -0.65774E-12         0.00000E+00
    0.18880E-07        -0.11068E-11         0.00000E+00
    0.18884E-07        -0.17022E-11         0.00000E+00
    0.18887E-07        -0.18756E-11         0.00000E+00
    0.18889E-07        -0.18920E-11         0.00000E+00
    0.18891E-07        -0.18529E-11         0.00000E+00
    0.18893E-07        -0.17872E-11         0.00000E+00
    0.18895E-07        -0.17077E-11         0.00000E+00
    0.18896E-07        -0.16201E-11         0.00000E+00
    0.18897E-07        -0.15268E-11         0.00000E+00
    0.18898E-07        -0.14281E-11         0.00000E+00
    0.18900E-07        -0.13207E-11         0.00000E+00
    0.18901E-07        -0.11954E-11         0.00000E+00
    0.18902E-07        -0.10005E-11         0.00000E+00
    0.18904E-07        -0.61170E-12         0.00000E+00
    0.18905E-07        -0.34919E-12         0.00000E+00
    0.18913E-07        -0.50357E-12         0.00000E+00
    0.18915E-07        -0.76449E-12         0.00000E+00
    0.18920E-07        -0.10349E-11         0.00000E+00
    0.18923E-07        -0.10373E-11         0.00000E+00
    0.18925E-07        -0.10126E-11         0.00000E+00
    0.18927E-07        -0.97415E-12         0.00000E+00
    0.18929E-07        -0.93055E-12         0.00000E+00
    0.18931E-07        -0.88460E-12         0.00000E+00
    0.18932E-07        -0.83774E-12         0.00000E+00
    0.18933E-07        -0.79077E-12         0.00000E+00
    0.18935E-07        -0.74422E-12         0.00000E+00
    0.18936E-07        -0.69854E-12         0.00000E+00
    0.18937E-07        -0.65206E-12         0.00000E+00
    0.18939E-07        -0.61043E-12         0.00000E+00
    0.18940E-07        -0.44208E-12         0.00000E+00
    0.18941E-07        -0.29145E-12         0.00000E+00
    0.18925E-07         0.00000E+00         0.00000E+00
    0.18927E-07         0.00000E+00         0.00000E+00
    0.18932E-07        -0.53799E-22         0.00000E+00
    0.18935E-07         0.11077E-25         0.00000E+00
    0.18938E-07         0.57950E-22         0.00000E+00
    0.18940E-07         0.00000E+00         0.00000E+00
    0.18942E-07         0.00000E+00         0.00000E+00
    0.18943E-07        -0.53842E-22         0.00000E+00
    0.18944E-07        -0.53842E-22         0.00000E+00
    0.18946E-07         0.53854E-22         0.00000E+00
    0.18947E-07         0.57997E-22         0.00000E+00
    0.18948E-07        -0.58008E-22         0.00000E+00
    0.18949E-07        -0.41383E-23         0.00000E+00
    0.18951E-07         0.58015E-22         0.00000E+00
    0.18953E-07         0.82887E-23         0.00000E+00
    0.18954E-07         0.00000E+00         0.00000E+00
CELL_DATA        450
TENSORS stressef double 
    0.44516E+08         0.95127E+05         0.00000E+00
    0.95127E+05         0.29407E+08         0.00000E+00
    0.00000E+00         0.00000E+00         0.25906E+08
 
    0.43752E+08        -0.15385E+06         0.00000E+00
   -0.15385E+06         0.29084E+08         0.00000E+00
    0.00000E+00         0.00000E+00         0.22693E+08
 
    0.41778E+08        -0.39512E+06         0.00000E+00
   -0.39512E+06         0.28387E+08         0.00000E+00
    0.00000E+00         0.00000E+00         0.19009E+08
 
    0.39432E+08        -0.41949E+06         0.00000E+00
   -0.41949E+06         0.27439E+08         0.00000E+00
    0.00000E+00         0.00000E+00         0.15316E+08
 
    0.36634E+08        -0.65040E+06         0.00000E+00
   -0.65040E+06         0.26382E+08         0.00000E+00
    0.00000E+00         0.00000E+00         0.12626E+08
 
    0.33239E+08        -0.57445E+06         0.00000E+00
   -0.57445E+06         0.25244E+08         0.00000E+00
    0.00000E+00         0.00000E+00         0.11697E+08
 
    0.30708E+08        -0.43189E+06         0.00000E+00
   -0.43189E+06         0.24296E+08         0.00000E+00
    0.00000E+00         0.00000E+00         0.11001E+08
 
    0.28493E+08        -0.31477E+06         0.00000E+00
   -0.31477E+06         0.23577E+08         0.00000E+00
    0.00000E+00         0.00000E+00         0.10414E+08
 
    0.26416E+08        -0.20712E+06         0.00000E+00
   -0.20712E+06         0.23070E+08         0.00000E+00
    0.00000E+00         0.00000E+00         0.98972E+07
 
    0.24363E+08        -0.10023E+06         0.00000E+00
   -0.10023E+06         0.22772E+08         0.00000E+00
    0.00000E+00         0.00000E+00         0.94269E+07
 
    0.22237E+08         0.13942E+05         0.00000E+00
    0.13942E+05         0.22692E+08         0.00000E+00
    0.00000E+00         0.00000E+00         0.89858E+07
 
    0.19930E+08         0.14518E+06         0.00000E+00
    0.14518E+06         0.22856E+08         0.00000E+00
    0.00000E+00         0.00000E+00         0.85571E+07
 
    0.17290E+08         0.31137E+06         0.00000E+00
    0.31137E+06         0.23314E+08         0.00000E+00
    0.00000E+00         0.00000E+00         0.81208E+07
 
    0.14053E+08         0.55107E+06         0.00000E+00
    0.55107E+06         0.24178E+08         0.00000E+00
    0.00000E+00         0.00000E+00         0.76461E+07
 
    0.94697E+07         0.11132E+07         0.00000E+00
    0.11132E+07         0.25759E+08         0.00000E+00
    0.00000E+00         0.00000E+00         0.70456E+07
 
    0.41616E+08         0.15278E+06         0.00000E+00
    0.15278E+06         0.24988E+08         0.00000E+00
    0.00000E+00         0.00000E+00         0.18871E+08
 
    0.40387E+08        -0.28016E+06         0.00000E+00
   -0.28016E+06         0.25010E+08         0.00000E+00
    0.00000E+00         0.00000E+00         0.16519E+08
 
    0.38676E+08        -0.82319E+06         0.00000E+00
   -0.82319E+06         0.24981E+08         0.00000E+00
    0.00000E+00         0.00000E+00         0.13815E+08
 
    0.36311E+08        -0.12067E+07         0.00000E+00
   -0.12067E+07         0.24705E+08         0.00000E+00
    0.00000E+00         0.00000E+00         0.12203E+08
 
    0.33424E+08        -0.15364E+07         0.00000E+00
   -0.15364E+07         0.24131E+08         0.00000E+00
    0.00000E+00         0.00000E+00         0.11511E+08
 
    0.30546E+08        -0.14570E+07         0.00000E+00
   -0.14570E+07         0.23505E+08         0.00000E+00
    0.00000E+00         0.00000E+00         0.10810E+08
 
    0.28011E+08        -0.11717E+07         0.00000E+00
   -0.11717E+07         0.22863E+08         0.00000E+00
    0.00000E+00         0.00000E+00         0.10175E+08
 
    0.25786E+08        -0.87357E+06         0.00000E+00
   -0.87357E+06         0.22314E+08         0.00000E+00
    0.00000E+00         0.00000E+00         0.96200E+07
 
    0.23706E+08        -0.57678E+06         0.00000E+00
   -0.57678E+06         0.21913E+08         0.00000E+00
    0.00000E+00         0.00000E+00         0.91238E+07
 
    0.21663E+08        -0.26971E+06         0.00000E+00
   -0.26971E+06         0.21686E+08         0.00000E+00
    0.00000E+00         0.00000E+00         0.86698E+07
 
    0.19563E+08         0.65388E+05         0.00000E+00
    0.65388E+05         0.21657E+08         0.00000E+00
    0.00000E+00         0.00000E+00         0.82439E+07
 
    0.17305E+08         0.45550E+06         0.00000E+00
    0.45550E+06         0.21859E+08         0.00000E+00
    0.00000E+00         0.00000E+00         0.78329E+07
 
    0.14766E+08         0.95058E+06         0.00000E+00
    0.95058E+06         0.22348E+08         0.00000E+00
    0.00000E+00         0.00000E+00         0.74227E+07
 
    0.11755E+08         0.16721E+07         0.00000E+00
    0.16721E+07         0.23218E+08         0.00000E+00
    0.00000E+00         0.00000E+00         0.69947E+07
 
    0.82316E+07         0.30169E+07         0.00000E+00
    0.30169E+07         0.24603E+08         0.00000E+00
    0.00000E+00         0.00000E+00         0.65670E+07
 
    0.38609E+08        -0.14313E+06         0.00000E+00
   -0.14313E+06         0.22414E+08         0.00000E+00
    0.00000E+00         0.00000E+00         0.13488E+08
 
    0.37082E+08        -0.47125E+06         0.00000E+00
   -0.47125E+06         0.22259E+08         0.00000E+00
    0.00000E+00         0.00000E+00         0.11883E+08
 
    0.35103E+08        -0.10352E+07         0.00000E+00
   -0.10352E+07         0.22083E+08         0.00000E+00
    0.00000E+00         0.00000E+00         0.11437E+08
 
    0.32950E+08        -0.16512E+07         0.00000E+00
   -0.16512E+07         0.21832E+08         0.00000E+00
    0.00000E+00         0.00000E+00         0.10956E+08
 
    0.30395E+08        -0.19370E+07         0.00000E+00
   -0.19370E+07         0.21546E+08         0.00000E+00
    0.00000E+00         0.00000E+00         0.10388E+08
 
    0.27832E+08        -0.19084E+07         0.00000E+00
   -0.19084E+07         0.21262E+08         0.00000E+00
    0.00000E+00         0.00000E+00         0.98188E+07
 
    0.25431E+08        -0.16414E+07         0.00000E+00
   -0.16414E+07         0.20940E+08         0.00000E+00
    0.00000E+00         0.00000E+00         0.92742E+07
 
    0.23237E+08        -0.12621E+07         0.00000E+00
   -0.12621E+07         0.20622E+08         0.00000E+00
    0.00000E+00         0.00000E+00         0.87716E+07
 
    0.21180E+08        -0.83246E+06         0.00000E+00
   -0.83246E+06         0.20380E+08         0.00000E+00
    0.00000E+00         0.00000E+00         0.83120E+07
 
    0.19170E+08        -0.35855E+06         0.00000E+00
   -0.35855E+06         0.20266E+08         0.00000E+00
    0.00000E+00         0.00000E+00         0.78873E+07
 
    0.17127E+08         0.17638E+06         0.00000E+00
    0.17638E+06         0.20319E+08         0.00000E+00
    0.00000E+00         0.00000E+00         0.74892E+07
 
    0.14971E+08         0.80887E+06         0.00000E+00
    0.80887E+06         0.20577E+08         0.00000E+00
    0.00000E+00         0.00000E+00         0.71096E+07
 
    0.12618E+08         0.16095E+07         0.00000E+00
    0.16095E+07         0.21089E+08         0.00000E+00
    0.00000E+00         0.00000E+00         0.67414E+07
 
    0.10024E+08         0.27260E+07         0.00000E+00
    0.27260E+07         0.21904E+08         0.00000E+00
    0.00000E+00         0.00000E+00         0.63855E+07
 
    0.72792E+07         0.43885E+07         0.00000E+00
    0.43885E+07         0.22983E+08         0.00000E+00
    0.00000E+00         0.00000E+00         0.60524E+07
 
    0.35440E+08        -0.24446E+06         0.00000E+00
   -0.24446E+06         0.19778E+08         0.00000E+00
    0.00000E+00         0.00000E+00         0.11044E+08
 
    0.33559E+08        -0.80371E+06         0.00000E+00
   -0.80371E+06         0.19628E+08         0.00000E+00
    0.00000E+00         0.00000E+00         0.10637E+08
 
    0.31656E+08        -0.13414E+07         0.00000E+00
   -0.13414E+07         0.19335E+08         0.00000E+00
    0.00000E+00         0.00000E+00         0.10198E+08
 
    0.29615E+08        -0.18345E+07         0.00000E+00
   -0.18345E+07         0.19123E+08         0.00000E+00
    0.00000E+00         0.00000E+00         0.97475E+07
 
    0.27383E+08        -0.21136E+07         0.00000E+00
   -0.21136E+07         0.19002E+08         0.00000E+00
    0.00000E+00         0.00000E+00         0.92769E+07
 
    0.25092E+08        -0.21066E+07         0.00000E+00
   -0.21066E+07         0.18887E+08         0.00000E+00
    0.00000E+00         0.00000E+00         0.87957E+07
 
    0.22879E+08        -0.18656E+07         0.00000E+00
   -0.18656E+07         0.18760E+08         0.00000E+00
    0.00000E+00         0.00000E+00         0.83277E+07
 
    0.20787E+08        -0.14614E+07         0.00000E+00
   -0.14614E+07         0.18633E+08         0.00000E+00
    0.00000E+00         0.00000E+00         0.78840E+07
 
    0.18799E+08        -0.94830E+06         0.00000E+00
   -0.94830E+06         0.18548E+08         0.00000E+00
    0.00000E+00         0.00000E+00         0.74694E+07
 
    0.16861E+08        -0.34536E+06         0.00000E+00
   -0.34536E+06         0.18553E+08         0.00000E+00
    0.00000E+00         0.00000E+00         0.70827E+07
 
    0.14913E+08         0.35819E+06         0.00000E+00
    0.35819E+06         0.18690E+08         0.00000E+00
    0.00000E+00         0.00000E+00         0.67207E+07
 
    0.12904E+08         0.11988E+07         0.00000E+00
    0.11988E+07         0.18996E+08         0.00000E+00
    0.00000E+00         0.00000E+00         0.63799E+07
 
    0.10796E+08         0.22462E+07         0.00000E+00
    0.22462E+07         0.19501E+08         0.00000E+00
    0.00000E+00         0.00000E+00         0.60594E+07
 
    0.86051E+07         0.36086E+07         0.00000E+00
    0.36086E+07         0.20207E+08         0.00000E+00
    0.00000E+00         0.00000E+00         0.57624E+07
 
    0.64360E+07         0.54124E+07         0.00000E+00
    0.54124E+07         0.21059E+08         0.00000E+00
    0.00000E+00         0.00000E+00         0.54990E+07
 
    0.31972E+08        -0.35775E+06         0.00000E+00
   -0.35775E+06         0.16939E+08         0.00000E+00
    0.00000E+00         0.00000E+00         0.97822E+07
 
    0.30114E+08        -0.99937E+06         0.00000E+00
   -0.99937E+06         0.16804E+08         0.00000E+00
    0.00000E+00         0.00000E+00         0.93836E+07
 
    0.28290E+08        -0.15460E+07         0.00000E+00
   -0.15460E+07         0.16656E+08         0.00000E+00
    0.00000E+00         0.00000E+00         0.89892E+07
 
    0.26389E+08        -0.19562E+07         0.00000E+00
   -0.19562E+07         0.16537E+08         0.00000E+00
    0.00000E+00         0.00000E+00         0.85852E+07
 
    0.24397E+08        -0.21774E+07         0.00000E+00
   -0.21774E+07         0.16477E+08         0.00000E+00
    0.00000E+00         0.00000E+00         0.81747E+07
 
    0.22359E+08        -0.21651E+07         0.00000E+00
   -0.21651E+07         0.16456E+08         0.00000E+00
    0.00000E+00         0.00000E+00         0.77630E+07
 
    0.20348E+08        -0.19281E+07         0.00000E+00
   -0.19281E+07         0.16447E+08         0.00000E+00
    0.00000E+00         0.00000E+00         0.73589E+07
 
    0.18406E+08        -0.15067E+07         0.00000E+00
   -0.15067E+07         0.16449E+08         0.00000E+00
    0.00000E+00         0.00000E+00         0.69710E+07
 
    0.16533E+08        -0.93704E+06         0.00000E+00
   -0.93704E+06         0.16486E+08         0.00000E+00
    0.00000E+00         0.00000E+00         0.66039E+07
 
    0.14706E+08        -0.23674E+06         0.00000E+00
   -0.23674E+06         0.16590E+08         0.00000E+00
    0.00000E+00         0.00000E+00         0.62594E+07
 
    0.12891E+08         0.60015E+06         0.00000E+00
    0.60015E+06         0.16795E+08         0.00000E+00
    0.00000E+00         0.00000E+00         0.59373E+07
 
    0.11060E+08         0.16031E+07         0.00000E+00
    0.16031E+07         0.17128E+08         0.00000E+00
    0.00000E+00         0.00000E+00         0.56377E+07
 
    0.92079E+07         0.28246E+07         0.00000E+00
    0.28246E+07         0.17602E+08         0.00000E+00
    0.00000E+00         0.00000E+00         0.53621E+07
 
    0.73684E+07         0.43342E+07         0.00000E+00
    0.43342E+07         0.18206E+08         0.00000E+00
    0.00000E+00         0.00000E+00         0.51148E+07
 
    0.56339E+07         0.61994E+07         0.00000E+00
    0.61994E+07         0.18884E+08         0.00000E+00
    0.00000E+00         0.00000E+00         0.49036E+07
 
    0.28391E+08        -0.42501E+06         0.00000E+00
   -0.42501E+06         0.14124E+08         0.00000E+00
    0.00000E+00         0.00000E+00         0.85030E+07
 
    0.26677E+08        -0.11183E+07         0.00000E+00
   -0.11183E+07         0.14060E+08         0.00000E+00
    0.00000E+00         0.00000E+00         0.81474E+07
 
    0.24988E+08        -0.16470E+07         0.00000E+00
   -0.16470E+07         0.13985E+08         0.00000E+00
    0.00000E+00         0.00000E+00         0.77945E+07
 
    0.23259E+08        -0.20099E+07         0.00000E+00
   -0.20099E+07         0.13941E+08         0.00000E+00
    0.00000E+00         0.00000E+00         0.74399E+07
 
    0.21475E+08        -0.21808E+07         0.00000E+00
   -0.21808E+07         0.13941E+08         0.00000E+00
    0.00000E+00         0.00000E+00         0.70832E+07
 
    0.19661E+08        -0.21405E+07         0.00000E+00
   -0.21405E+07         0.13979E+08         0.00000E+00
    0.00000E+00         0.00000E+00         0.67280E+07
 
    0.17855E+08        -0.18892E+07         0.00000E+00
   -0.18892E+07         0.14042E+08         0.00000E+00
    0.00000E+00         0.00000E+00         0.63795E+07
 
    0.16086E+08        -0.14453E+07         0.00000E+00
   -0.14453E+07         0.14128E+08         0.00000E+00
    0.00000E+00         0.00000E+00         0.60429E+07
 
    0.14364E+08        -0.83022E+06         0.00000E+00
   -0.83022E+06         0.14248E+08         0.00000E+00
    0.00000E+00         0.00000E+00         0.57224E+07
 
    0.12682E+08        -0.55926E+05         0.00000E+00
   -0.55926E+05         0.14421E+08         0.00000E+00
    0.00000E+00         0.00000E+00         0.54206E+07
 
    0.11027E+08         0.88104E+06         0.00000E+00
    0.88104E+06         0.14669E+08         0.00000E+00
    0.00000E+00         0.00000E+00         0.51391E+07
 
    0.93903E+07         0.20007E+07         0.00000E+00
    0.20007E+07         0.15008E+08         0.00000E+00
    0.00000E+00         0.00000E+00         0.48798E+07
 
    0.77826E+07         0.33371E+07         0.00000E+00
    0.33371E+07         0.15443E+08         0.00000E+00
    0.00000E+00         0.00000E+00         0.46451E+07
 
    0.62427E+07         0.49308E+07         0.00000E+00
    0.49308E+07         0.15955E+08         0.00000E+00
    0.00000E+00         0.00000E+00         0.44395E+07
 
    0.48452E+07         0.68142E+07         0.00000E+00
    0.68142E+07         0.16500E+08         0.00000E+00
    0.00000E+00         0.00000E+00         0.42691E+07
 
    0.24770E+08        -0.44997E+06         0.00000E+00
   -0.44997E+06         0.11337E+08         0.00000E+00
    0.00000E+00         0.00000E+00         0.72214E+07
 
    0.23265E+08        -0.11660E+07         0.00000E+00
   -0.11660E+07         0.11322E+08         0.00000E+00
    0.00000E+00         0.00000E+00         0.69174E+07
 
    0.21751E+08        -0.16788E+07         0.00000E+00
   -0.16788E+07         0.11310E+08         0.00000E+00
    0.00000E+00         0.00000E+00         0.66123E+07
 
    0.20206E+08        -0.20041E+07         0.00000E+00
   -0.20041E+07         0.11323E+08         0.00000E+00
    0.00000E+00         0.00000E+00         0.63058E+07
 
    0.18624E+08        -0.21350E+07         0.00000E+00
   -0.21350E+07         0.11371E+08         0.00000E+00
    0.00000E+00         0.00000E+00         0.59989E+07
 
    0.17019E+08        -0.20628E+07         0.00000E+00
   -0.20628E+07         0.11452E+08         0.00000E+00
    0.00000E+00         0.00000E+00         0.56942E+07
 
    0.15414E+08        -0.17870E+07         0.00000E+00
   -0.17870E+07         0.11562E+08         0.00000E+00
    0.00000E+00         0.00000E+00         0.53954E+07
 
    0.13831E+08        -0.13161E+07         0.00000E+00
   -0.13161E+07         0.11699E+08         0.00000E+00
    0.00000E+00         0.00000E+00         0.51061E+07
 
    0.12281E+08        -0.66156E+06         0.00000E+00
   -0.66156E+06         0.11868E+08         0.00000E+00
    0.00000E+00         0.00000E+00         0.48299E+07
 
    0.10767E+08         0.16945E+06         0.00000E+00
    0.16945E+06         0.12081E+08         0.00000E+00
    0.00000E+00         0.00000E+00         0.45695E+07
 
    0.92882E+07         0.11786E+07         0.00000E+00
    0.11786E+07         0.12348E+08         0.00000E+00
    0.00000E+00         0.00000E+00         0.43273E+07
 
    0.78503E+07         0.23777E+07         0.00000E+00
    0.23777E+07         0.12679E+08         0.00000E+00
    0.00000E+00         0.00000E+00         0.41058E+07
 
    0.64708E+07         0.37855E+07         0.00000E+00
    0.37855E+07         0.13069E+08         0.00000E+00
    0.00000E+00         0.00000E+00         0.39080E+07
 
    0.51867E+07         0.54223E+07         0.00000E+00
    0.54223E+07         0.13502E+08         0.00000E+00
    0.00000E+00         0.00000E+00         0.37378E+07
 
    0.40573E+07         0.72997E+07         0.00000E+00
    0.72997E+07         0.13943E+08         0.00000E+00
    0.00000E+00         0.00000E+00         0.36000E+07
 
    0.21165E+08        -0.44839E+06         0.00000E+00
   -0.44839E+06         0.85777E+07         0.00000E+00
    0.00000E+00         0.00000E+00         0.59485E+07
 
    0.19891E+08        -0.11609E+07         0.00000E+00
   -0.11609E+07         0.85948E+07         0.00000E+00
    0.00000E+00         0.00000E+00         0.56972E+07
 
    0.18576E+08        -0.16566E+07         0.00000E+00
   -0.16566E+07         0.86276E+07         0.00000E+00
    0.00000E+00         0.00000E+00         0.54408E+07
 
    0.17225E+08        -0.19528E+07         0.00000E+00
   -0.19528E+07         0.86829E+07         0.00000E+00
    0.00000E+00         0.00000E+00         0.51815E+07
 
    0.15842E+08        -0.20511E+07         0.00000E+00
   -0.20511E+07         0.87660E+07         0.00000E+00
    0.00000E+00         0.00000E+00         0.49215E+07
 
    0.14439E+08        -0.19491E+07         0.00000E+00
   -0.19491E+07         0.88777E+07         0.00000E+00
    0.00000E+00         0.00000E+00         0.46634E+07
 
    0.13034E+08        -0.16467E+07         0.00000E+00
   -0.16467E+07         0.90162E+07         0.00000E+00
    0.00000E+00         0.00000E+00         0.44101E+07
 
    0.11642E+08        -0.11481E+07         0.00000E+00
   -0.11481E+07         0.91810E+07         0.00000E+00
    0.00000E+00         0.00000E+00         0.41646E+07
 
    0.10275E+08        -0.45955E+06         0.00000E+00
   -0.45955E+06         0.93747E+07         0.00000E+00
    0.00000E+00         0.00000E+00         0.39300E+07
 
    0.89418E+07         0.41460E+06         0.00000E+00
    0.41460E+06         0.96026E+07         0.00000E+00
    0.00000E+00         0.00000E+00         0.37089E+07
 
    0.76487E+07         0.14743E+07         0.00000E+00
    0.14743E+07         0.98703E+07         0.00000E+00
    0.00000E+00         0.00000E+00         0.35038E+07
 
    0.64076E+07         0.27246E+07         0.00000E+00
    0.27246E+07         0.10179E+08         0.00000E+00
    0.00000E+00         0.00000E+00         0.33174E+07
 
    0.52388E+07         0.41735E+07         0.00000E+00
    0.41735E+07         0.10524E+08         0.00000E+00
    0.00000E+00         0.00000E+00         0.31525E+07
 
    0.41757E+07         0.58274E+07         0.00000E+00
    0.58274E+07         0.10887E+08         0.00000E+00
    0.00000E+00         0.00000E+00         0.30126E+07
 
    0.32647E+07         0.76848E+07         0.00000E+00
    0.76848E+07         0.11243E+08         0.00000E+00
    0.00000E+00         0.00000E+00         0.29016E+07
 
    0.17612E+08        -0.43179E+06         0.00000E+00
   -0.43179E+06         0.58501E+07         0.00000E+00
    0.00000E+00         0.00000E+00         0.46923E+07
 
    0.16568E+08        -0.11223E+07         0.00000E+00
   -0.11223E+07         0.58855E+07         0.00000E+00
    0.00000E+00         0.00000E+00         0.44907E+07
 
    0.15460E+08        -0.15976E+07         0.00000E+00
   -0.15976E+07         0.59455E+07         0.00000E+00
    0.00000E+00         0.00000E+00         0.42811E+07
 
    0.14308E+08        -0.18695E+07         0.00000E+00
   -0.18695E+07         0.60276E+07         0.00000E+00
    0.00000E+00         0.00000E+00         0.40671E+07
 
    0.13124E+08        -0.19415E+07         0.00000E+00
   -0.19415E+07         0.61329E+07         0.00000E+00
    0.00000E+00         0.00000E+00         0.38514E+07
 
    0.11922E+08        -0.18138E+07         0.00000E+00
   -0.18138E+07         0.62617E+07         0.00000E+00
    0.00000E+00         0.00000E+00         0.36368E+07
 
    0.10716E+08        -0.14868E+07         0.00000E+00
   -0.14868E+07         0.64136E+07         0.00000E+00
    0.00000E+00         0.00000E+00         0.34258E+07
 
    0.95176E+07        -0.96304E+06         0.00000E+00
   -0.96304E+06         0.65885E+07         0.00000E+00
    0.00000E+00         0.00000E+00         0.32212E+07
 
    0.83401E+07        -0.24630E+06         0.00000E+00
   -0.24630E+06         0.67876E+07         0.00000E+00
    0.00000E+00         0.00000E+00         0.30256E+07
 
    0.71933E+07         0.65993E+06         0.00000E+00
    0.65993E+06         0.70130E+07         0.00000E+00
    0.00000E+00         0.00000E+00         0.28413E+07
 
    0.60879E+07         0.17538E+07         0.00000E+00
    0.17538E+07         0.72661E+07         0.00000E+00
    0.00000E+00         0.00000E+00         0.26708E+07
 
    0.50380E+07         0.30354E+07         0.00000E+00
    0.30354E+07         0.75450E+07         0.00000E+00
    0.00000E+00         0.00000E+00         0.25166E+07
 
    0.40639E+07         0.45048E+07         0.00000E+00
    0.45048E+07         0.78426E+07         0.00000E+00
    0.00000E+00         0.00000E+00         0.23813E+07
 
    0.31942E+07         0.61594E+07         0.00000E+00
    0.61594E+07         0.81448E+07         0.00000E+00
    0.00000E+00         0.00000E+00         0.22678E+07
 
    0.24656E+07         0.79898E+07         0.00000E+00
    0.79898E+07         0.84304E+07         0.00000E+00
    0.00000E+00         0.00000E+00         0.21792E+07
 
    0.14130E+08        -0.40787E+06         0.00000E+00
   -0.40787E+06         0.31556E+07         0.00000E+00
    0.00000E+00         0.00000E+00         0.34571E+07
 
    0.13304E+08        -0.10660E+07         0.00000E+00
   -0.10660E+07         0.31989E+07         0.00000E+00
    0.00000E+00         0.00000E+00         0.33006E+07
 
    0.12402E+08        -0.15179E+07         0.00000E+00
   -0.15179E+07         0.32714E+07         0.00000E+00
    0.00000E+00         0.00000E+00         0.31347E+07
 
    0.11450E+08        -0.17683E+07         0.00000E+00
   -0.17683E+07         0.33658E+07         0.00000E+00
    0.00000E+00         0.00000E+00         0.29632E+07
 
    0.10466E+08        -0.18190E+07         0.00000E+00
   -0.18190E+07         0.34800E+07         0.00000E+00
    0.00000E+00         0.00000E+00         0.27893E+07
 
    0.94639E+07        -0.16701E+07         0.00000E+00
   -0.16701E+07         0.36132E+07         0.00000E+00
    0.00000E+00         0.00000E+00         0.26154E+07
 
    0.84555E+07        -0.13222E+07         0.00000E+00
   -0.13222E+07         0.37653E+07         0.00000E+00
    0.00000E+00         0.00000E+00         0.24442E+07
 
    0.74530E+07        -0.77736E+06         0.00000E+00
   -0.77736E+06         0.39362E+07         0.00000E+00
    0.00000E+00         0.00000E+00         0.22778E+07
 
    0.64672E+07        -0.38475E+05         0.00000E+00
   -0.38475E+05         0.41261E+07         0.00000E+00
    0.00000E+00         0.00000E+00         0.21187E+07
 
    0.55089E+07         0.89079E+06         0.00000E+00
    0.89079E+06         0.43354E+07         0.00000E+00
    0.00000E+00         0.00000E+00         0.19689E+07
 
    0.45898E+07         0.20068E+07         0.00000E+00
    0.20068E+07         0.45631E+07         0.00000E+00
    0.00000E+00         0.00000E+00         0.18306E+07
 
    0.37241E+07         0.33058E+07         0.00000E+00
    0.33058E+07         0.48058E+07         0.00000E+00
    0.00000E+00         0.00000E+00         0.17060E+07
 
    0.29306E+07         0.47825E+07         0.00000E+00
    0.47825E+07         0.50563E+07         0.00000E+00
    0.00000E+00         0.00000E+00         0.15974E+07
 
    0.22330E+07         0.64284E+07         0.00000E+00
    0.64284E+07         0.53027E+07         0.00000E+00
    0.00000E+00         0.00000E+00         0.15071E+07
 
    0.16600E+07         0.82290E+07         0.00000E+00
    0.82290E+07         0.55284E+07         0.00000E+00
    0.00000E+00         0.00000E+00         0.14377E+07
 
    0.10728E+08        -0.38192E+06         0.00000E+00
   -0.38192E+06         0.49362E+06         0.00000E+00
    0.00000E+00         0.00000E+00         0.22442E+07
 
    0.10102E+08        -0.10039E+07         0.00000E+00
   -0.10039E+07         0.53748E+06         0.00000E+00
    0.00000E+00         0.00000E+00         0.21280E+07
 
    0.94000E+07        -0.14316E+07         0.00000E+00
   -0.14316E+07         0.61077E+06         0.00000E+00
    0.00000E+00         0.00000E+00         0.20021E+07
 
    0.86472E+07        -0.16628E+07         0.00000E+00
   -0.16628E+07         0.70468E+06         0.00000E+00
    0.00000E+00         0.00000E+00         0.18704E+07
 
    0.78623E+07        -0.16959E+07         0.00000E+00
   -0.16959E+07         0.81536E+06         0.00000E+00
    0.00000E+00         0.00000E+00         0.17355E+07
 
    0.70591E+07        -0.15300E+07         0.00000E+00
   -0.15300E+07         0.94136E+06         0.00000E+00
    0.00000E+00         0.00000E+00         0.16001E+07
 
    0.62488E+07        -0.11655E+07         0.00000E+00
   -0.11655E+07         0.10821E+07         0.00000E+00
    0.00000E+00         0.00000E+00         0.14662E+07
 
    0.54419E+07        -0.60406E+06         0.00000E+00
   -0.60406E+06         0.12374E+07         0.00000E+00
    0.00000E+00         0.00000E+00         0.13359E+07
 
    0.46483E+07         0.15136E+06         0.00000E+00
    0.15136E+06         0.14070E+07         0.00000E+00
    0.00000E+00         0.00000E+00         0.12111E+07
 
    0.38780E+07         0.10965E+07         0.00000E+00
    0.10965E+07         0.15901E+07         0.00000E+00
    0.00000E+00         0.00000E+00         0.10936E+07
 
    0.31420E+07         0.22259E+07         0.00000E+00
    0.22259E+07         0.17848E+07         0.00000E+00
    0.00000E+00         0.00000E+00         0.98535E+06
 
    0.24535E+07         0.35331E+07         0.00000E+00
    0.35331E+07         0.19872E+07         0.00000E+00
    0.00000E+00         0.00000E+00         0.88814E+06
 
    0.18285E+07         0.50092E+07         0.00000E+00
    0.50092E+07         0.21907E+07         0.00000E+00
    0.00000E+00         0.00000E+00         0.80384E+06
 
    0.12863E+07         0.66415E+07         0.00000E+00
    0.66415E+07         0.23855E+07         0.00000E+00
    0.00000E+00         0.00000E+00         0.73436E+06
 
    0.84909E+06         0.84126E+07         0.00000E+00
    0.84126E+07         0.25588E+07         0.00000E+00
    0.00000E+00         0.00000E+00         0.68158E+06
 
    0.74022E+07        -0.35758E+06         0.00000E+00
   -0.35758E+06        -0.21377E+07         0.00000E+00
    0.00000E+00         0.00000E+00         0.10529E+07
 
    0.69610E+07        -0.94498E+06         0.00000E+00
   -0.94498E+06        -0.20988E+07         0.00000E+00
    0.00000E+00         0.00000E+00         0.97245E+06
 
    0.64500E+07        -0.13501E+07         0.00000E+00
   -0.13501E+07        -0.20336E+07         0.00000E+00
    0.00000E+00         0.00000E+00         0.88328E+06
 
    0.58927E+07        -0.15645E+07         0.00000E+00
   -0.15645E+07        -0.19507E+07         0.00000E+00
    0.00000E+00         0.00000E+00         0.78841E+06
 
    0.53057E+07        -0.15835E+07         0.00000E+00
   -0.15835E+07        -0.18540E+07         0.00000E+00
    0.00000E+00         0.00000E+00         0.69034E+06
 
    0.47011E+07        -0.14045E+07         0.00000E+00
   -0.14045E+07        -0.17455E+07         0.00000E+00
    0.00000E+00         0.00000E+00         0.59112E+06
 
    0.40887E+07        -0.10273E+07         0.00000E+00
   -0.10273E+07        -0.16258E+07         0.00000E+00
    0.00000E+00         0.00000E+00         0.49259E+06
 
    0.34773E+07        -0.45338E+06         0.00000E+00
   -0.45338E+06        -0.14953E+07         0.00000E+00
    0.00000E+00         0.00000E+00         0.39639E+06
 
    0.28751E+07         0.31380E+06         0.00000E+00
    0.31380E+06        -0.13547E+07         0.00000E+00
    0.00000E+00         0.00000E+00         0.30409E+06
 
    0.22910E+07         0.12692E+07         0.00000E+00
    0.12692E+07        -0.12051E+07         0.00000E+00
    0.00000E+00         0.00000E+00         0.21717E+06
 
    0.17343E+07         0.24062E+07         0.00000E+00
    0.24062E+07        -0.10487E+07         0.00000E+00
    0.00000E+00         0.00000E+00         0.13713E+06
 
    0.12164E+07         0.37158E+07         0.00000E+00
    0.37158E+07        -0.88928E+06         0.00000E+00
    0.00000E+00         0.00000E+00         0.65417E+05
 
    0.75007E+06         0.51868E+07         0.00000E+00
    0.51868E+07        -0.73250E+06         0.00000E+00
    0.00000E+00         0.00000E+00         0.35146E+04
 
    0.35054E+06         0.68041E+07         0.00000E+00
    0.68041E+07        -0.58612E+06         0.00000E+00
    0.00000E+00         0.00000E+00        -0.47116E+05
 
    0.34395E+05         0.85482E+07         0.00000E+00
    0.85482E+07        -0.45966E+06         0.00000E+00
    0.00000E+00         0.00000E+00        -0.85052E+05
 
    0.41454E+07        -0.33745E+06         0.00000E+00
   -0.33745E+06        -0.47414E+07         0.00000E+00
    0.00000E+00         0.00000E+00        -0.11920E+06
 
    0.38737E+07        -0.89592E+06         0.00000E+00
   -0.89592E+06        -0.47114E+07         0.00000E+00
    0.00000E+00         0.00000E+00        -0.16754E+06
 
    0.35460E+07        -0.12822E+07         0.00000E+00
   -0.12822E+07        -0.46611E+07         0.00000E+00
    0.00000E+00         0.00000E+00        -0.22303E+06
 
    0.31802E+07        -0.14832E+07         0.00000E+00
   -0.14832E+07        -0.45971E+07         0.00000E+00
    0.00000E+00         0.00000E+00        -0.28338E+06
 
    0.27894E+07        -0.14913E+07         0.00000E+00
   -0.14913E+07        -0.45230E+07         0.00000E+00
    0.00000E+00         0.00000E+00        -0.34671E+06
 
    0.23828E+07        -0.13025E+07         0.00000E+00
   -0.13025E+07        -0.44401E+07         0.00000E+00
    0.00000E+00         0.00000E+00        -0.41146E+06
 
    0.19679E+07        -0.91592E+06         0.00000E+00
   -0.91592E+06        -0.43492E+07         0.00000E+00
    0.00000E+00         0.00000E+00        -0.47626E+06
 
    0.15514E+07        -0.33319E+06         0.00000E+00
   -0.33319E+06        -0.42508E+07         0.00000E+00
    0.00000E+00         0.00000E+00        -0.53988E+06
 
    0.11396E+07         0.44193E+06         0.00000E+00
    0.44193E+06        -0.41454E+07         0.00000E+00
    0.00000E+00         0.00000E+00        -0.60116E+06
 
    0.73949E+06         0.14036E+07         0.00000E+00
    0.14036E+07        -0.40345E+07         0.00000E+00
    0.00000E+00         0.00000E+00        -0.65900E+06
 
    0.35853E+06         0.25441E+07         0.00000E+00
    0.25441E+07        -0.39200E+07         0.00000E+00
    0.00000E+00         0.00000E+00        -0.71230E+06
 
    0.54015E+04         0.38529E+07         0.00000E+00
    0.38529E+07        -0.38053E+07         0.00000E+00
    0.00000E+00         0.00000E+00        -0.75997E+06
 
   -0.31000E+06         0.53172E+07         0.00000E+00
    0.53172E+07        -0.36948E+07         0.00000E+00
    0.00000E+00         0.00000E+00        -0.80095E+06
 
   -0.57657E+06         0.69201E+07         0.00000E+00
    0.69201E+07        -0.35943E+07         0.00000E+00
    0.00000E+00         0.00000E+00        -0.83418E+06
 
   -0.78236E+06         0.86411E+07         0.00000E+00
    0.86411E+07        -0.35108E+07         0.00000E+00
    0.00000E+00         0.00000E+00        -0.85863E+06
 
    0.94378E+06        -0.32331E+06         0.00000E+00
   -0.32331E+06        -0.73217E+07         0.00000E+00
    0.00000E+00         0.00000E+00        -0.12756E+07
 
    0.83040E+06        -0.86141E+06         0.00000E+00
   -0.86141E+06        -0.73033E+07         0.00000E+00
    0.00000E+00         0.00000E+00        -0.12946E+07
 
    0.67942E+06        -0.12345E+07         0.00000E+00
   -0.12345E+07        -0.72725E+07         0.00000E+00
    0.00000E+00         0.00000E+00        -0.13186E+07
 
    0.50202E+06        -0.14261E+07         0.00000E+00
   -0.14261E+07        -0.72334E+07         0.00000E+00
    0.00000E+00         0.00000E+00        -0.13463E+07
 
    0.30593E+06        -0.14266E+07         0.00000E+00
   -0.14266E+07        -0.71879E+07         0.00000E+00
    0.00000E+00         0.00000E+00        -0.13764E+07
 
    0.96750E+05        -0.12309E+07         0.00000E+00
   -0.12309E+07        -0.71368E+07         0.00000E+00
    0.00000E+00         0.00000E+00        -0.14080E+07
 
   -0.12105E+06        -0.83791E+06         0.00000E+00
   -0.83791E+06        -0.70803E+07         0.00000E+00
    0.00000E+00         0.00000E+00        -0.14403E+07
 
   -0.34337E+06        -0.24921E+06         0.00000E+00
   -0.24921E+06        -0.70189E+07         0.00000E+00
    0.00000E+00         0.00000E+00        -0.14725E+07
 
   -0.56597E+06         0.53095E+06         0.00000E+00
    0.53095E+06        -0.69531E+07         0.00000E+00
    0.00000E+00         0.00000E+00        -0.15038E+07
 
   -0.78417E+06         0.14961E+07         0.00000E+00
    0.14961E+07        -0.68841E+07         0.00000E+00
    0.00000E+00         0.00000E+00        -0.15337E+07
 
   -0.99267E+06         0.26376E+07         0.00000E+00
    0.26376E+07        -0.68138E+07         0.00000E+00
    0.00000E+00         0.00000E+00        -0.15613E+07
 
   -0.11855E+07         0.39441E+07         0.00000E+00
    0.39441E+07        -0.67446E+07         0.00000E+00
    0.00000E+00         0.00000E+00        -0.15860E+07
 
   -0.13558E+07         0.54015E+07         0.00000E+00
    0.54015E+07        -0.66798E+07         0.00000E+00
    0.00000E+00         0.00000E+00        -0.16071E+07
 
   -0.14964E+07         0.69923E+07         0.00000E+00
    0.69923E+07        -0.66235E+07         0.00000E+00
    0.00000E+00         0.00000E+00        -0.16240E+07
 
   -0.15994E+07         0.86952E+07         0.00000E+00
    0.86952E+07        -0.65801E+07         0.00000E+00
    0.00000E+00         0.00000E+00        -0.16359E+07
 
   -0.22196E+07        -0.31635E+06         0.00000E+00
   -0.31635E+06        -0.98831E+07         0.00000E+00
    0.00000E+00         0.00000E+00        -0.24205E+07
 
   -0.21816E+07        -0.84465E+06         0.00000E+00
   -0.84465E+06        -0.98781E+07         0.00000E+00
    0.00000E+00         0.00000E+00        -0.24119E+07
 
   -0.21597E+07        -0.12113E+07         0.00000E+00
   -0.12113E+07        -0.98699E+07         0.00000E+00
    0.00000E+00         0.00000E+00        -0.24059E+07
 
   -0.21506E+07        -0.13983E+07         0.00000E+00
   -0.13983E+07        -0.98594E+07         0.00000E+00
    0.00000E+00         0.00000E+00        -0.24020E+07
 
   -0.21526E+07        -0.13945E+07         0.00000E+00
   -0.13945E+07        -0.98466E+07         0.00000E+00
    0.00000E+00         0.00000E+00        -0.23998E+07
 
   -0.21646E+07        -0.11946E+07         0.00000E+00
   -0.11946E+07        -0.98310E+07         0.00000E+00
    0.00000E+00         0.00000E+00        -0.23991E+07
 
   -0.21857E+07        -0.79749E+06         0.00000E+00
   -0.79749E+06        -0.98123E+07         0.00000E+00
    0.00000E+00         0.00000E+00        -0.23996E+07
 
   -0.22144E+07        -0.20507E+06         0.00000E+00
   -0.20507E+06        -0.97908E+07         0.00000E+00
    0.00000E+00         0.00000E+00        -0.24010E+07
 
   -0.22491E+07         0.57796E+06         0.00000E+00
    0.57796E+06        -0.97668E+07         0.00000E+00
    0.00000E+00         0.00000E+00        -0.24032E+07
 
   -0.22871E+07         0.15446E+07         0.00000E+00
    0.15446E+07        -0.97414E+07         0.00000E+00
    0.00000E+00         0.00000E+00        -0.24057E+07
 
   -0.23257E+07         0.26856E+07         0.00000E+00
    0.26856E+07        -0.97161E+07         0.00000E+00
    0.00000E+00         0.00000E+00        -0.24084E+07
 
   -0.23615E+07         0.39893E+07         0.00000E+00
    0.39893E+07        -0.96926E+07         0.00000E+00
    0.00000E+00         0.00000E+00        -0.24108E+07
 
   -0.23909E+07         0.54409E+07         0.00000E+00
    0.54409E+07        -0.96730E+07         0.00000E+00
    0.00000E+00         0.00000E+00        -0.24128E+07
 
   -0.24100E+07         0.70227E+07         0.00000E+00
    0.70227E+07        -0.96595E+07         0.00000E+00
    0.00000E+00         0.00000E+00        -0.24139E+07
 
   -0.24150E+07         0.87130E+07         0.00000E+00
    0.87130E+07        -0.96544E+07         0.00000E+00
    0.00000E+00         0.00000E+00        -0.24139E+07
 
   -0.53636E+07        -0.31729E+06         0.00000E+00
   -0.31729E+06        -0.12431E+08         0.00000E+00
    0.00000E+00         0.00000E+00        -0.35589E+07
 
   -0.51765E+07        -0.84752E+06         0.00000E+00
   -0.84752E+06        -0.12440E+08         0.00000E+00
    0.00000E+00         0.00000E+00        -0.35233E+07
 
   -0.49824E+07        -0.12155E+07         0.00000E+00
   -0.12155E+07        -0.12456E+08         0.00000E+00
    0.00000E+00         0.00000E+00        -0.34877E+07
 
   -0.47868E+07        -0.14026E+07         0.00000E+00
   -0.14026E+07        -0.12476E+08         0.00000E+00
    0.00000E+00         0.00000E+00        -0.34525E+07
 
   -0.45943E+07        -0.13978E+07         0.00000E+00
   -0.13978E+07        -0.12497E+08         0.00000E+00
    0.00000E+00         0.00000E+00        -0.34184E+07
 
   -0.44089E+07        -0.11960E+07         0.00000E+00
   -0.11960E+07        -0.12519E+08         0.00000E+00
    0.00000E+00         0.00000E+00        -0.33855E+07
 
   -0.42333E+07        -0.79666E+06         0.00000E+00
   -0.79666E+06        -0.12539E+08         0.00000E+00
    0.00000E+00         0.00000E+00        -0.33545E+07
 
   -0.40690E+07        -0.20229E+06         0.00000E+00
   -0.20229E+06        -0.12558E+08         0.00000E+00
    0.00000E+00         0.00000E+00        -0.33254E+07
 
   -0.39167E+07         0.58191E+06         0.00000E+00
    0.58191E+06        -0.12576E+08         0.00000E+00
    0.00000E+00         0.00000E+00        -0.32986E+07
 
   -0.37762E+07         0.15486E+07         0.00000E+00
    0.15486E+07        -0.12594E+08         0.00000E+00
    0.00000E+00         0.00000E+00        -0.32741E+07
 
   -0.36467E+07         0.26882E+07         0.00000E+00
    0.26882E+07        -0.12614E+08         0.00000E+00
    0.00000E+00         0.00000E+00        -0.32521E+07
 
   -0.35275E+07         0.39890E+07         0.00000E+00
    0.39890E+07        -0.12636E+08         0.00000E+00
    0.00000E+00         0.00000E+00        -0.32326E+07
 
   -0.34181E+07         0.54364E+07         0.00000E+00
    0.54364E+07        -0.12661E+08         0.00000E+00
    0.00000E+00         0.00000E+00        -0.32157E+07
 
   -0.33181E+07         0.70125E+07         0.00000E+00
    0.70125E+07        -0.12689E+08         0.00000E+00
    0.00000E+00         0.00000E+00        -0.32014E+07
 
   -0.32275E+07         0.86960E+07         0.00000E+00
    0.86960E+07        -0.12721E+08         0.00000E+00
    0.00000E+00         0.00000E+00        -0.31898E+07
 
   -0.85083E+07        -0.32641E+06         0.00000E+00
   -0.32641E+06        -0.14970E+08         0.00000E+00
    0.00000E+00         0.00000E+00        -0.46956E+07
 
   -0.81693E+07        -0.87076E+06         0.00000E+00
   -0.87076E+06        -0.14993E+08         0.00000E+00
    0.00000E+00         0.00000E+00        -0.46325E+07
 
   -0.78004E+07        -0.12479E+07         0.00000E+00
   -0.12479E+07        -0.15034E+08         0.00000E+00
    0.00000E+00         0.00000E+00        -0.45668E+07
 
   -0.74157E+07        -0.14399E+07         0.00000E+00
   -0.14399E+07        -0.15084E+08         0.00000E+00
    0.00000E+00         0.00000E+00        -0.44999E+07
 
   -0.70270E+07        -0.14370E+07         0.00000E+00
   -0.14370E+07        -0.15140E+08         0.00000E+00
    0.00000E+00         0.00000E+00        -0.44333E+07
 
   -0.66432E+07        -0.12352E+07         0.00000E+00
   -0.12352E+07        -0.15197E+08         0.00000E+00
    0.00000E+00         0.00000E+00        -0.43681E+07
 
   -0.62708E+07        -0.83513E+06         0.00000E+00
   -0.83513E+06        -0.15255E+08         0.00000E+00
    0.00000E+00         0.00000E+00        -0.43051E+07
 
   -0.59141E+07        -0.24027E+06         0.00000E+00
   -0.24027E+06        -0.15313E+08         0.00000E+00
    0.00000E+00         0.00000E+00        -0.42454E+07
 
   -0.55759E+07         0.54357E+06         0.00000E+00
    0.54357E+06        -0.15371E+08         0.00000E+00
    0.00000E+00         0.00000E+00        -0.41895E+07
 
   -0.52578E+07         0.15088E+07         0.00000E+00
    0.15088E+07        -0.15432E+08         0.00000E+00
    0.00000E+00         0.00000E+00        -0.41379E+07
 
   -0.49614E+07         0.26460E+07         0.00000E+00
    0.26460E+07        -0.15494E+08         0.00000E+00
    0.00000E+00         0.00000E+00        -0.40912E+07
 
   -0.46881E+07         0.39439E+07         0.00000E+00
    0.39439E+07        -0.15560E+08         0.00000E+00
    0.00000E+00         0.00000E+00        -0.40497E+07
 
   -0.44404E+07         0.53884E+07         0.00000E+00
    0.53884E+07        -0.15629E+08         0.00000E+00
    0.00000E+00         0.00000E+00        -0.40139E+07
 
   -0.42215E+07         0.69623E+07         0.00000E+00
    0.69623E+07        -0.15699E+08         0.00000E+00
    0.00000E+00         0.00000E+00        -0.39841E+07
 
   -0.40352E+07         0.86448E+07         0.00000E+00
    0.86448E+07        -0.15769E+08         0.00000E+00
    0.00000E+00         0.00000E+00        -0.39608E+07
 
   -0.11674E+08        -0.34365E+06         0.00000E+00
   -0.34365E+06        -0.17505E+08         0.00000E+00
    0.00000E+00         0.00000E+00        -0.58358E+07
 
   -0.11175E+08        -0.91408E+06         0.00000E+00
   -0.91408E+06        -0.17543E+08         0.00000E+00
    0.00000E+00         0.00000E+00        -0.57435E+07
 
   -0.10625E+08        -0.13077E+07         0.00000E+00
   -0.13077E+07        -0.17606E+08         0.00000E+00
    0.00000E+00         0.00000E+00        -0.56461E+07
 
   -0.10046E+08        -0.15089E+07         0.00000E+00
   -0.15089E+07        -0.17685E+08         0.00000E+00
    0.00000E+00         0.00000E+00        -0.55462E+07
 
   -0.94579E+07        -0.15102E+07         0.00000E+00
   -0.15102E+07        -0.17772E+08         0.00000E+00
    0.00000E+00         0.00000E+00        -0.54460E+07
 
   -0.88741E+07        -0.13098E+07         0.00000E+00
   -0.13098E+07        -0.17862E+08         0.00000E+00
    0.00000E+00         0.00000E+00        -0.53473E+07
 
   -0.83047E+07        -0.91019E+06         0.00000E+00
   -0.91019E+06        -0.17954E+08         0.00000E+00
    0.00000E+00         0.00000E+00        -0.52517E+07
 
   -0.77564E+07        -0.31620E+06         0.00000E+00
   -0.31620E+06        -0.18047E+08         0.00000E+00
    0.00000E+00         0.00000E+00        -0.51606E+07
 
   -0.72334E+07         0.46562E+06         0.00000E+00
    0.46562E+06        -0.18142E+08         0.00000E+00
    0.00000E+00         0.00000E+00        -0.50751E+07
 
   -0.67389E+07         0.14276E+07         0.00000E+00
    0.14276E+07        -0.18241E+08         0.00000E+00
    0.00000E+00         0.00000E+00        -0.49959E+07
 
   -0.62759E+07         0.25609E+07         0.00000E+00
    0.25609E+07        -0.18344E+08         0.00000E+00
    0.00000E+00         0.00000E+00        -0.49241E+07
 
   -0.58483E+07         0.38551E+07         0.00000E+00
    0.38551E+07        -0.18453E+08         0.00000E+00
    0.00000E+00         0.00000E+00        -0.48602E+07
 
   -0.54611E+07         0.52974E+07         0.00000E+00
    0.52974E+07        -0.18564E+08         0.00000E+00
    0.00000E+00         0.00000E+00        -0.48051E+07
 
   -0.51211E+07         0.68720E+07         0.00000E+00
    0.68720E+07        -0.18676E+08         0.00000E+00
    0.00000E+00         0.00000E+00        -0.47595E+07
 
   -0.48365E+07         0.85587E+07         0.00000E+00
    0.85587E+07        -0.18784E+08         0.00000E+00
    0.00000E+00         0.00000E+00        -0.47241E+07
 
   -0.14879E+08        -0.36860E+06         0.00000E+00
   -0.36860E+06        -0.20042E+08         0.00000E+00
    0.00000E+00         0.00000E+00        -0.69842E+07
 
   -0.14207E+08        -0.97621E+06         0.00000E+00
   -0.97621E+06        -0.20092E+08         0.00000E+00
    0.00000E+00         0.00000E+00        -0.68599E+07
 
   -0.13465E+08        -0.13928E+07         0.00000E+00
   -0.13928E+07        -0.20176E+08         0.00000E+00
    0.00000E+00         0.00000E+00        -0.67283E+07
 
   -0.12685E+08        -0.16065E+07         0.00000E+00
   -0.16065E+07        -0.20280E+08         0.00000E+00
    0.00000E+00         0.00000E+00        -0.65931E+07
 
   -0.11893E+08        -0.16133E+07         0.00000E+00
   -0.16133E+07        -0.20393E+08         0.00000E+00
    0.00000E+00         0.00000E+00        -0.64573E+07
 
   -0.11108E+08        -0.14149E+07         0.00000E+00
   -0.14149E+07        -0.20511E+08         0.00000E+00
    0.00000E+00         0.00000E+00        -0.63236E+07
 
   -0.10341E+08        -0.10166E+07         0.00000E+00
   -0.10166E+07        -0.20630E+08         0.00000E+00
    0.00000E+00         0.00000E+00        -0.61942E+07
 
   -0.96023E+07        -0.42487E+06         0.00000E+00
   -0.42487E+06        -0.20751E+08         0.00000E+00
    0.00000E+00         0.00000E+00        -0.60706E+07
 
   -0.88961E+07         0.35274E+06         0.00000E+00
    0.35274E+06        -0.20876E+08         0.00000E+00
    0.00000E+00         0.00000E+00        -0.59545E+07
 
   -0.82264E+07         0.13088E+07         0.00000E+00
    0.13088E+07        -0.21009E+08         0.00000E+00
    0.00000E+00         0.00000E+00        -0.58470E+07
 
   -0.75971E+07         0.24354E+07         0.00000E+00
    0.24354E+07        -0.21149E+08         0.00000E+00
    0.00000E+00         0.00000E+00        -0.57493E+07
 
   -0.70136E+07         0.37239E+07         0.00000E+00
    0.37239E+07        -0.21298E+08         0.00000E+00
    0.00000E+00         0.00000E+00        -0.56623E+07
 
   -0.64838E+07         0.51635E+07         0.00000E+00
    0.51635E+07        -0.21452E+08         0.00000E+00
    0.00000E+00         0.00000E+00        -0.55872E+07
 
   -0.60183E+07         0.67404E+07         0.00000E+00
    0.67404E+07        -0.21607E+08         0.00000E+00
    0.00000E+00         0.00000E+00        -0.55250E+07
 
   -0.56297E+07         0.84360E+07         0.00000E+00
    0.84360E+07        -0.21755E+08         0.00000E+00
    0.00000E+00         0.00000E+00        -0.54769E+07
 
   -0.18143E+08        -0.40058E+06         0.00000E+00
   -0.40058E+06        -0.22583E+08         0.00000E+00
    0.00000E+00         0.00000E+00        -0.81452E+07
 
   -0.17279E+08        -0.10550E+07         0.00000E+00
   -0.10550E+07        -0.22645E+08         0.00000E+00
    0.00000E+00         0.00000E+00        -0.79847E+07
 
   -0.16330E+08        -0.14993E+07         0.00000E+00
   -0.14993E+07        -0.22746E+08         0.00000E+00
    0.00000E+00         0.00000E+00        -0.78153E+07
 
   -0.15339E+08        -0.17270E+07         0.00000E+00
   -0.17270E+07        -0.22869E+08         0.00000E+00
    0.00000E+00         0.00000E+00        -0.76417E+07
 
   -0.14338E+08        -0.17393E+07         0.00000E+00
   -0.17393E+07        -0.23002E+08         0.00000E+00
    0.00000E+00         0.00000E+00        -0.74679E+07
 
   -0.13348E+08        -0.15428E+07         0.00000E+00
   -0.15428E+07        -0.23137E+08         0.00000E+00
    0.00000E+00         0.00000E+00        -0.72971E+07
 
   -0.12386E+08        -0.11462E+07         0.00000E+00
   -0.11462E+07        -0.23274E+08         0.00000E+00
    0.00000E+00         0.00000E+00        -0.71319E+07
 
   -0.11458E+08        -0.55858E+06         0.00000E+00
   -0.55858E+06        -0.23414E+08         0.00000E+00
    0.00000E+00         0.00000E+00        -0.69746E+07
 
   -0.10572E+08         0.21171E+06         0.00000E+00
    0.21171E+06        -0.23562E+08         0.00000E+00
    0.00000E+00         0.00000E+00        -0.68267E+07
 
   -0.97284E+07         0.11576E+07         0.00000E+00
    0.11576E+07        -0.23721E+08         0.00000E+00
    0.00000E+00         0.00000E+00        -0.66898E+07
 
   -0.89326E+07         0.22730E+07         0.00000E+00
    0.22730E+07        -0.23893E+08         0.00000E+00
    0.00000E+00         0.00000E+00        -0.65652E+07
 
   -0.81908E+07         0.35518E+07         0.00000E+00
    0.35518E+07        -0.24079E+08         0.00000E+00
    0.00000E+00         0.00000E+00        -0.64540E+07
 
   -0.75134E+07         0.49863E+07         0.00000E+00
    0.49863E+07        -0.24275E+08         0.00000E+00
    0.00000E+00         0.00000E+00        -0.63578E+07
 
   -0.69148E+07         0.65655E+07         0.00000E+00
    0.65655E+07        -0.24475E+08         0.00000E+00
    0.00000E+00         0.00000E+00        -0.62779E+07
 
   -0.64134E+07         0.82736E+07         0.00000E+00
    0.82736E+07        -0.24666E+08         0.00000E+00
    0.00000E+00         0.00000E+00        -0.62158E+07
 
   -0.21479E+08        -0.43864E+06         0.00000E+00
   -0.43864E+06        -0.25134E+08         0.00000E+00
    0.00000E+00         0.00000E+00        -0.93226E+07
 
   -0.20398E+08        -0.11472E+07         0.00000E+00
   -0.11472E+07        -0.25205E+08         0.00000E+00
    0.00000E+00         0.00000E+00        -0.91206E+07
 
   -0.19225E+08        -0.16217E+07         0.00000E+00
   -0.16217E+07        -0.25318E+08         0.00000E+00
    0.00000E+00         0.00000E+00        -0.89087E+07
 
   -0.18011E+08        -0.18627E+07         0.00000E+00
   -0.18627E+07        -0.25453E+08         0.00000E+00
    0.00000E+00         0.00000E+00        -0.86927E+07
 
   -0.16794E+08        -0.18787E+07         0.00000E+00
   -0.18787E+07        -0.25594E+08         0.00000E+00
    0.00000E+00         0.00000E+00        -0.84775E+07
 
   -0.15599E+08        -0.16827E+07         0.00000E+00
   -0.16827E+07        -0.25736E+08         0.00000E+00
    0.00000E+00         0.00000E+00        -0.82669E+07
 
   -0.14443E+08        -0.12880E+07         0.00000E+00
   -0.12880E+07        -0.25878E+08         0.00000E+00
    0.00000E+00         0.00000E+00        -0.80641E+07
 
   -0.13331E+08        -0.70688E+06         0.00000E+00
   -0.70688E+06        -0.26025E+08         0.00000E+00
    0.00000E+00         0.00000E+00        -0.78713E+07
 
   -0.12268E+08         0.51581E+05         0.00000E+00
    0.51581E+05        -0.26184E+08         0.00000E+00
    0.00000E+00         0.00000E+00        -0.76903E+07
 
   -0.11254E+08         0.98119E+06         0.00000E+00
    0.98119E+06        -0.26360E+08         0.00000E+00
    0.00000E+00         0.00000E+00        -0.75227E+07
 
   -0.10292E+08         0.20783E+07         0.00000E+00
    0.20783E+07        -0.26558E+08         0.00000E+00
    0.00000E+00         0.00000E+00        -0.73699E+07
 
   -0.93883E+07         0.33405E+07         0.00000E+00
    0.33405E+07        -0.26778E+08         0.00000E+00
    0.00000E+00         0.00000E+00        -0.72332E+07
 
   -0.85559E+07         0.47645E+07         0.00000E+00
    0.47645E+07        -0.27016E+08         0.00000E+00
    0.00000E+00         0.00000E+00        -0.71144E+07
 
   -0.78135E+07         0.63440E+07         0.00000E+00
    0.63440E+07        -0.27262E+08         0.00000E+00
    0.00000E+00         0.00000E+00        -0.70152E+07
 
   -0.71861E+07         0.80666E+07         0.00000E+00
    0.80666E+07        -0.27502E+08         0.00000E+00
    0.00000E+00         0.00000E+00        -0.69377E+07
 
   -0.24900E+08        -0.48161E+06         0.00000E+00
   -0.48161E+06        -0.27697E+08         0.00000E+00
    0.00000E+00         0.00000E+00        -0.10519E+08
 
   -0.23573E+08        -0.12489E+07         0.00000E+00
   -0.12489E+07        -0.27773E+08         0.00000E+00
    0.00000E+00         0.00000E+00        -0.10269E+08
 
   -0.22152E+08        -0.17526E+07         0.00000E+00
   -0.17526E+07        -0.27892E+08         0.00000E+00
    0.00000E+00         0.00000E+00        -0.10009E+08
 
   -0.20701E+08        -0.20031E+07         0.00000E+00
   -0.20031E+07        -0.28028E+08         0.00000E+00
    0.00000E+00         0.00000E+00        -0.97457E+07
 
   -0.19262E+08        -0.20186E+07         0.00000E+00
   -0.20186E+07        -0.28164E+08         0.00000E+00
    0.00000E+00         0.00000E+00        -0.94852E+07
 
   -0.17863E+08        -0.18203E+07         0.00000E+00
   -0.18203E+07        -0.28297E+08         0.00000E+00
    0.00000E+00         0.00000E+00        -0.92319E+07
 
   -0.16517E+08        -0.14278E+07         0.00000E+00
   -0.14278E+07        -0.28429E+08         0.00000E+00
    0.00000E+00         0.00000E+00        -0.89891E+07
 
   -0.15228E+08        -0.85647E+06         0.00000E+00
   -0.85647E+06        -0.28567E+08         0.00000E+00
    0.00000E+00         0.00000E+00        -0.87591E+07
 
   -0.13995E+08        -0.11625E+06         0.00000E+00
   -0.11625E+06        -0.28723E+08         0.00000E+00
    0.00000E+00         0.00000E+00        -0.85436E+07
 
   -0.12814E+08         0.78815E+06         0.00000E+00
    0.78815E+06        -0.28906E+08         0.00000E+00
    0.00000E+00         0.00000E+00        -0.83440E+07
 
   -0.11686E+08         0.18565E+07         0.00000E+00
    0.18565E+07        -0.29121E+08         0.00000E+00
    0.00000E+00         0.00000E+00        -0.81616E+07
 
   -0.10617E+08         0.30916E+07         0.00000E+00
    0.30916E+07        -0.29372E+08         0.00000E+00
    0.00000E+00         0.00000E+00        -0.79978E+07
 
   -0.96199E+07         0.44963E+07         0.00000E+00
    0.44963E+07        -0.29652E+08         0.00000E+00
    0.00000E+00         0.00000E+00        -0.78545E+07
 
   -0.87189E+07         0.60707E+07         0.00000E+00
    0.60707E+07        -0.29950E+08         0.00000E+00
    0.00000E+00         0.00000E+00        -0.77339E+07
 
   -0.79469E+07         0.78079E+07         0.00000E+00
    0.78079E+07        -0.30246E+08         0.00000E+00
    0.00000E+00         0.00000E+00        -0.76386E+07
 
   -0.28415E+08        -0.52809E+06         0.00000E+00
   -0.52809E+06        -0.30273E+08         0.00000E+00
    0.00000E+00         0.00000E+00        -0.11738E+08
 
   -0.26803E+08        -0.13548E+07         0.00000E+00
   -0.13548E+07        -0.30352E+08         0.00000E+00
    0.00000E+00         0.00000E+00        -0.11431E+08
 
   -0.25108E+08        -0.18823E+07         0.00000E+00
   -0.18823E+07        -0.30468E+08         0.00000E+00
    0.00000E+00         0.00000E+00        -0.11115E+08
 
   -0.23404E+08        -0.21342E+07         0.00000E+00
   -0.21342E+07        -0.30591E+08         0.00000E+00
    0.00000E+00         0.00000E+00        -0.10799E+08
 
   -0.21739E+08        -0.21421E+07         0.00000E+00
   -0.21421E+07        -0.30706E+08         0.00000E+00
    0.00000E+00         0.00000E+00        -0.10489E+08
 
   -0.20139E+08        -0.19378E+07         0.00000E+00
   -0.19378E+07        -0.30809E+08         0.00000E+00
    0.00000E+00         0.00000E+00        -0.10190E+08
 
   -0.18613E+08        -0.15479E+07         0.00000E+00
   -0.15479E+07        -0.30911E+08         0.00000E+00
    0.00000E+00         0.00000E+00        -0.99047E+07
 
   -0.17157E+08        -0.99123E+06         0.00000E+00
   -0.99123E+06        -0.31022E+08         0.00000E+00
    0.00000E+00         0.00000E+00        -0.96359E+07
 
   -0.15763E+08        -0.27813E+06         0.00000E+00
   -0.27813E+06        -0.31159E+08         0.00000E+00
    0.00000E+00         0.00000E+00        -0.93846E+07
 
   -0.14423E+08         0.58884E+06         0.00000E+00
    0.58884E+06        -0.31335E+08         0.00000E+00
    0.00000E+00         0.00000E+00        -0.91517E+07
 
   -0.13132E+08         0.16140E+07         0.00000E+00
    0.16140E+07        -0.31560E+08         0.00000E+00
    0.00000E+00         0.00000E+00        -0.89383E+07
 
   -0.11891E+08         0.28067E+07         0.00000E+00
    0.28067E+07        -0.31837E+08         0.00000E+00
    0.00000E+00         0.00000E+00        -0.87456E+07
 
   -0.10717E+08         0.41783E+07         0.00000E+00
    0.41783E+07        -0.32161E+08         0.00000E+00
    0.00000E+00         0.00000E+00        -0.85756E+07
 
   -0.96375E+07         0.57381E+07         0.00000E+00
    0.57381E+07        -0.32517E+08         0.00000E+00
    0.00000E+00         0.00000E+00        -0.84309E+07
 
   -0.86952E+07         0.74872E+07         0.00000E+00
    0.74872E+07        -0.32879E+08         0.00000E+00
    0.00000E+00         0.00000E+00        -0.83149E+07
 
   -0.32027E+08        -0.57644E+06         0.00000E+00
   -0.57644E+06        -0.32864E+08         0.00000E+00
    0.00000E+00         0.00000E+00        -0.12978E+08
 
   -0.30085E+08        -0.14582E+07         0.00000E+00
   -0.14582E+07        -0.32940E+08         0.00000E+00
    0.00000E+00         0.00000E+00        -0.12605E+08
 
   -0.28084E+08        -0.19977E+07         0.00000E+00
   -0.19977E+07        -0.33042E+08         0.00000E+00
    0.00000E+00         0.00000E+00        -0.12225E+08
 
   -0.26112E+08        -0.22379E+07         0.00000E+00
   -0.22379E+07        -0.33134E+08         0.00000E+00
    0.00000E+00         0.00000E+00        -0.11849E+08
 
   -0.24220E+08        -0.22281E+07         0.00000E+00
   -0.22281E+07        -0.33204E+08         0.00000E+00
    0.00000E+00         0.00000E+00        -0.11485E+08
 
   -0.22428E+08        -0.20133E+07         0.00000E+00
   -0.20133E+07        -0.33256E+08         0.00000E+00
    0.00000E+00         0.00000E+00        -0.11137E+08
 
   -0.20734E+08        -0.16275E+07         0.00000E+00
   -0.16275E+07        -0.33304E+08         0.00000E+00
    0.00000E+00         0.00000E+00        -0.10808E+08
 
   -0.19127E+08        -0.10926E+07         0.00000E+00
   -0.10926E+07        -0.33367E+08         0.00000E+00
    0.00000E+00         0.00000E+00        -0.10499E+08
 
   -0.17587E+08        -0.41849E+06         0.00000E+00
   -0.41849E+06        -0.33468E+08         0.00000E+00
    0.00000E+00         0.00000E+00        -0.10211E+08
 
   -0.16097E+08         0.39514E+06         0.00000E+00
    0.39514E+06        -0.33623E+08         0.00000E+00
    0.00000E+00         0.00000E+00        -0.99440E+07
 
   -0.14646E+08         0.13579E+07         0.00000E+00
    0.13579E+07        -0.33846E+08         0.00000E+00
    0.00000E+00         0.00000E+00        -0.96983E+07
 
   -0.13230E+08         0.24874E+07         0.00000E+00
    0.24874E+07        -0.34144E+08         0.00000E+00
    0.00000E+00         0.00000E+00        -0.94748E+07
 
   -0.11863E+08         0.38060E+07         0.00000E+00
    0.38060E+07        -0.34514E+08         0.00000E+00
    0.00000E+00         0.00000E+00        -0.92755E+07
 
   -0.10579E+08         0.53357E+07         0.00000E+00
    0.53357E+07        -0.34937E+08         0.00000E+00
    0.00000E+00         0.00000E+00        -0.91033E+07
 
   -0.94319E+07         0.70904E+07         0.00000E+00
    0.70904E+07        -0.35381E+08         0.00000E+00
    0.00000E+00         0.00000E+00        -0.89625E+07
 
   -0.35735E+08        -0.62476E+06         0.00000E+00
   -0.62476E+06        -0.35470E+08         0.00000E+00
    0.00000E+00         0.00000E+00        -0.14241E+08
 
   -0.33405E+08        -0.15497E+07         0.00000E+00
   -0.15497E+07        -0.35537E+08         0.00000E+00
    0.00000E+00         0.00000E+00        -0.13788E+08
 
   -0.31063E+08        -0.20809E+07         0.00000E+00
   -0.20809E+07        -0.35608E+08         0.00000E+00
    0.00000E+00         0.00000E+00        -0.13334E+08
 
   -0.28812E+08        -0.22897E+07         0.00000E+00
   -0.22897E+07        -0.35645E+08         0.00000E+00
    0.00000E+00         0.00000E+00        -0.12891E+08
 
   -0.26697E+08        -0.22498E+07         0.00000E+00
   -0.22498E+07        -0.35641E+08         0.00000E+00
    0.00000E+00         0.00000E+00        -0.12468E+08
 
   -0.24728E+08        -0.20209E+07         0.00000E+00
   -0.20209E+07        -0.35611E+08         0.00000E+00
    0.00000E+00         0.00000E+00        -0.12068E+08
 
   -0.22888E+08        -0.16436E+07         0.00000E+00
   -0.16436E+07        -0.35580E+08         0.00000E+00
    0.00000E+00         0.00000E+00        -0.11694E+08
 
   -0.21149E+08        -0.11407E+07         0.00000E+00
   -0.11407E+07        -0.35575E+08         0.00000E+00
    0.00000E+00         0.00000E+00        -0.11345E+08
 
   -0.19481E+08        -0.52074E+06         0.00000E+00
   -0.52074E+06        -0.35620E+08         0.00000E+00
    0.00000E+00         0.00000E+00        -0.11020E+08
 
   -0.17856E+08         0.22001E+06         0.00000E+00
    0.22001E+06        -0.35739E+08         0.00000E+00
    0.00000E+00         0.00000E+00        -0.10719E+08
 
   -0.16252E+08         0.10967E+07         0.00000E+00
    0.10967E+07        -0.35950E+08         0.00000E+00
    0.00000E+00         0.00000E+00        -0.10440E+08
 
   -0.14658E+08         0.21356E+07         0.00000E+00
    0.21356E+07        -0.36264E+08         0.00000E+00
    0.00000E+00         0.00000E+00        -0.10184E+08
 
   -0.13082E+08         0.33730E+07         0.00000E+00
    0.33730E+07        -0.36681E+08         0.00000E+00
    0.00000E+00         0.00000E+00        -0.99526E+07
 
   -0.11559E+08         0.48494E+07         0.00000E+00
    0.48494E+07        -0.37183E+08         0.00000E+00
    0.00000E+00         0.00000E+00        -0.97484E+07
 
   -0.10159E+08         0.65974E+07         0.00000E+00
    0.65974E+07        -0.37728E+08         0.00000E+00
    0.00000E+00         0.00000E+00        -0.95775E+07
 
   -0.39531E+08        -0.67056E+06         0.00000E+00
   -0.67056E+06        -0.38090E+08         0.00000E+00
    0.00000E+00         0.00000E+00        -0.15524E+08
 
   -0.36740E+08        -0.16155E+07         0.00000E+00
   -0.16155E+07        -0.38137E+08         0.00000E+00
    0.00000E+00         0.00000E+00        -0.14975E+08
 
   -0.34019E+08        -0.21055E+07         0.00000E+00
   -0.21055E+07        -0.38152E+08         0.00000E+00
    0.00000E+00         0.00000E+00        -0.14434E+08
 
   -0.31483E+08        -0.22569E+07         0.00000E+00
   -0.22569E+07        -0.38097E+08         0.00000E+00
    0.00000E+00         0.00000E+00        -0.13916E+08
 
   -0.29164E+08        -0.21749E+07         0.00000E+00
   -0.21749E+07        -0.37983E+08         0.00000E+00
    0.00000E+00         0.00000E+00        -0.13429E+08
 
   -0.27043E+08        -0.19328E+07         0.00000E+00
   -0.19328E+07        -0.37840E+08         0.00000E+00
    0.00000E+00         0.00000E+00        -0.12977E+08
 
   -0.25083E+08        -0.15731E+07         0.00000E+00
   -0.15731E+07        -0.37706E+08         0.00000E+00
    0.00000E+00         0.00000E+00        -0.12558E+08
 
   -0.23238E+08        -0.11167E+07         0.00000E+00
   -0.11167E+07        -0.37612E+08         0.00000E+00
    0.00000E+00         0.00000E+00        -0.12170E+08
 
   -0.21465E+08        -0.56904E+06         0.00000E+00
   -0.56904E+06        -0.37587E+08         0.00000E+00
    0.00000E+00         0.00000E+00        -0.11810E+08
 
   -0.19723E+08         0.76761E+05         0.00000E+00
    0.76761E+05        -0.37656E+08         0.00000E+00
    0.00000E+00         0.00000E+00        -0.11476E+08
 
   -0.17979E+08         0.83994E+06         0.00000E+00
    0.83994E+06        -0.37842E+08         0.00000E+00
    0.00000E+00         0.00000E+00        -0.11164E+08
 
   -0.16207E+08         0.17547E+07         0.00000E+00
    0.17547E+07        -0.38164E+08         0.00000E+00
    0.00000E+00         0.00000E+00        -0.10874E+08
 
   -0.14403E+08         0.28728E+07         0.00000E+00
    0.28728E+07        -0.38629E+08         0.00000E+00
    0.00000E+00         0.00000E+00        -0.10607E+08
 
   -0.12601E+08         0.42602E+07         0.00000E+00
    0.42602E+07        -0.39224E+08         0.00000E+00
    0.00000E+00         0.00000E+00        -0.10365E+08
 
   -0.10884E+08         0.59807E+07         0.00000E+00
    0.59807E+07        -0.39897E+08         0.00000E+00
    0.00000E+00         0.00000E+00        -0.10156E+08
 
   -0.43395E+08        -0.70999E+06         0.00000E+00
   -0.70999E+06        -0.40721E+08         0.00000E+00
    0.00000E+00         0.00000E+00        -0.16823E+08
 
   -0.40047E+08        -0.16312E+07         0.00000E+00
   -0.16312E+07        -0.40730E+08         0.00000E+00
    0.00000E+00         0.00000E+00        -0.16155E+08
 
   -0.36914E+08        -0.20296E+07         0.00000E+00
   -0.20296E+07        -0.40644E+08         0.00000E+00
    0.00000E+00         0.00000E+00        -0.15511E+08
 
   -0.34107E+08        -0.20951E+07         0.00000E+00
   -0.20951E+07        -0.40445E+08         0.00000E+00
    0.00000E+00         0.00000E+00        -0.14910E+08
 
   -0.31617E+08        -0.19672E+07         0.00000E+00
   -0.19672E+07        -0.40177E+08         0.00000E+00
    0.00000E+00         0.00000E+00        -0.14359E+08
 
   -0.29381E+08        -0.17225E+07         0.00000E+00
   -0.17225E+07        -0.39893E+08         0.00000E+00
    0.00000E+00         0.00000E+00        -0.13855E+08
 
   -0.27333E+08        -0.13974E+07         0.00000E+00
   -0.13974E+07        -0.39637E+08         0.00000E+00
    0.00000E+00         0.00000E+00        -0.13394E+08
 
   -0.25409E+08        -0.10065E+07         0.00000E+00
   -0.10065E+07        -0.39443E+08         0.00000E+00
    0.00000E+00         0.00000E+00        -0.12970E+08
 
   -0.23556E+08        -0.55115E+06         0.00000E+00
   -0.55115E+06        -0.39338E+08         0.00000E+00
    0.00000E+00         0.00000E+00        -0.12579E+08
 
   -0.21721E+08        -0.22635E+05         0.00000E+00
   -0.22635E+05        -0.39347E+08         0.00000E+00
    0.00000E+00         0.00000E+00        -0.12214E+08
 
   -0.19855E+08         0.59943E+06         0.00000E+00
    0.59943E+06        -0.39498E+08         0.00000E+00
    0.00000E+00         0.00000E+00        -0.11871E+08
 
   -0.17915E+08         0.13522E+07         0.00000E+00
    0.13522E+07        -0.39815E+08         0.00000E+00
    0.00000E+00         0.00000E+00        -0.11546E+08
 
   -0.15873E+08         0.23008E+07         0.00000E+00
    0.23008E+07        -0.40323E+08         0.00000E+00
    0.00000E+00         0.00000E+00        -0.11239E+08
 
   -0.13741E+08         0.35445E+07         0.00000E+00
    0.35445E+07        -0.41023E+08         0.00000E+00
    0.00000E+00         0.00000E+00        -0.10953E+08
 
   -0.11618E+08         0.52003E+07         0.00000E+00
    0.52003E+07        -0.41863E+08         0.00000E+00
    0.00000E+00         0.00000E+00        -0.10696E+08
 
   -0.47288E+08        -0.73438E+06         0.00000E+00
   -0.73438E+06        -0.43358E+08         0.00000E+00
    0.00000E+00         0.00000E+00        -0.18129E+08
 
   -0.43255E+08        -0.15472E+07         0.00000E+00
   -0.15472E+07        -0.43284E+08         0.00000E+00
    0.00000E+00         0.00000E+00        -0.17308E+08
 
   -0.39702E+08        -0.17851E+07         0.00000E+00
   -0.17851E+07        -0.43015E+08         0.00000E+00
    0.00000E+00         0.00000E+00        -0.16543E+08
 
   -0.36677E+08        -0.17510E+07         0.00000E+00
   -0.17510E+07        -0.42602E+08         0.00000E+00
    0.00000E+00         0.00000E+00        -0.15856E+08
 
   -0.34069E+08        -0.15952E+07         0.00000E+00
   -0.15952E+07        -0.42144E+08         0.00000E+00
    0.00000E+00         0.00000E+00        -0.15243E+08
 
   -0.31760E+08        -0.13738E+07         0.00000E+00
   -0.13738E+07        -0.41704E+08         0.00000E+00
    0.00000E+00         0.00000E+00        -0.14693E+08
 
   -0.29656E+08        -0.11084E+07         0.00000E+00
   -0.11084E+07        -0.41322E+08         0.00000E+00
    0.00000E+00         0.00000E+00        -0.14196E+08
 
   -0.27682E+08        -0.80517E+06         0.00000E+00
   -0.80517E+06        -0.41028E+08         0.00000E+00
    0.00000E+00         0.00000E+00        -0.13742E+08
 
   -0.25774E+08        -0.46215E+06         0.00000E+00
   -0.46215E+06        -0.40844E+08         0.00000E+00
    0.00000E+00         0.00000E+00        -0.13323E+08
 
   -0.23869E+08        -0.70549E+05         0.00000E+00
   -0.70549E+05        -0.40793E+08         0.00000E+00
    0.00000E+00         0.00000E+00        -0.12932E+08
 
   -0.21909E+08         0.38716E+06         0.00000E+00
    0.38716E+06        -0.40900E+08         0.00000E+00
    0.00000E+00         0.00000E+00        -0.12562E+08
 
   -0.19827E+08         0.94355E+06         0.00000E+00
    0.94355E+06        -0.41198E+08         0.00000E+00
    0.00000E+00         0.00000E+00        -0.12205E+08
 
   -0.17553E+08         0.16619E+07         0.00000E+00
    0.16619E+07        -0.41729E+08         0.00000E+00
    0.00000E+00         0.00000E+00        -0.11856E+08
 
   -0.15046E+08         0.26763E+07         0.00000E+00
    0.26763E+07        -0.42539E+08         0.00000E+00
    0.00000E+00         0.00000E+00        -0.11517E+08
 
   -0.12387E+08         0.41969E+07         0.00000E+00
    0.41969E+07        -0.43594E+08         0.00000E+00
    0.00000E+00         0.00000E+00        -0.11196E+08
 
   -0.51115E+08        -0.71336E+06         0.00000E+00
   -0.71336E+06        -0.45979E+08         0.00000E+00
    0.00000E+00         0.00000E+00        -0.19419E+08
 
   -0.46255E+08        -0.12446E+07         0.00000E+00
   -0.12446E+07        -0.45689E+08         0.00000E+00
    0.00000E+00         0.00000E+00        -0.18389E+08
 
   -0.42364E+08        -0.12765E+07         0.00000E+00
   -0.12765E+07        -0.45096E+08         0.00000E+00
    0.00000E+00         0.00000E+00        -0.17492E+08
 
   -0.39218E+08        -0.11856E+07         0.00000E+00
   -0.11856E+07        -0.44424E+08         0.00000E+00
    0.00000E+00         0.00000E+00        -0.16729E+08
 
   -0.36552E+08        -0.10502E+07         0.00000E+00
   -0.10502E+07        -0.43776E+08         0.00000E+00
    0.00000E+00         0.00000E+00        -0.16066E+08
 
   -0.34208E+08        -0.89130E+06         0.00000E+00
   -0.89130E+06        -0.43195E+08         0.00000E+00
    0.00000E+00         0.00000E+00        -0.15481E+08
 
   -0.32076E+08        -0.71512E+06         0.00000E+00
   -0.71512E+06        -0.42708E+08         0.00000E+00
    0.00000E+00         0.00000E+00        -0.14957E+08
 
   -0.30074E+08        -0.52182E+06         0.00000E+00
   -0.52182E+06        -0.42332E+08         0.00000E+00
    0.00000E+00         0.00000E+00        -0.14481E+08
 
   -0.28132E+08        -0.30824E+06         0.00000E+00
   -0.30824E+06        -0.42083E+08         0.00000E+00
    0.00000E+00         0.00000E+00        -0.14043E+08
 
   -0.26184E+08        -0.67869E+05         0.00000E+00
   -0.67869E+05        -0.41981E+08         0.00000E+00
    0.00000E+00         0.00000E+00        -0.13633E+08
 
   -0.24160E+08         0.21075E+06         0.00000E+00
    0.21075E+06        -0.42047E+08         0.00000E+00
    0.00000E+00         0.00000E+00        -0.13242E+08
 
   -0.21978E+08         0.54883E+06         0.00000E+00
    0.54883E+06        -0.42317E+08         0.00000E+00
    0.00000E+00         0.00000E+00        -0.12859E+08
 
   -0.19525E+08         0.98975E+06         0.00000E+00
    0.98975E+06        -0.42841E+08         0.00000E+00
    0.00000E+00         0.00000E+00        -0.12473E+08
 
   -0.16631E+08         0.16431E+07         0.00000E+00
    0.16431E+07        -0.43711E+08         0.00000E+00
    0.00000E+00         0.00000E+00        -0.12068E+08
 
   -0.13255E+08         0.28707E+07         0.00000E+00
    0.28707E+07        -0.45051E+08         0.00000E+00
    0.00000E+00         0.00000E+00        -0.11661E+08
 
   -0.54625E+08        -0.44819E+06         0.00000E+00
   -0.44819E+06        -0.48344E+08         0.00000E+00
    0.00000E+00         0.00000E+00        -0.20594E+08
 
   -0.48968E+08        -0.51401E+06         0.00000E+00
   -0.51401E+06        -0.47522E+08         0.00000E+00
    0.00000E+00         0.00000E+00        -0.19298E+08
 
   -0.44975E+08        -0.47169E+06         0.00000E+00
   -0.47169E+06        -0.46600E+08         0.00000E+00
    0.00000E+00         0.00000E+00        -0.18315E+08
 
   -0.41792E+08        -0.42251E+06         0.00000E+00
   -0.42251E+06        -0.45735E+08         0.00000E+00
    0.00000E+00         0.00000E+00        -0.17505E+08
 
   -0.39109E+08        -0.36775E+06         0.00000E+00
   -0.36775E+06        -0.44962E+08         0.00000E+00
    0.00000E+00         0.00000E+00        -0.16814E+08
 
   -0.36754E+08        -0.30942E+06         0.00000E+00
   -0.30942E+06        -0.44296E+08         0.00000E+00
    0.00000E+00         0.00000E+00        -0.16210E+08
 
   -0.34612E+08        -0.24740E+06         0.00000E+00
   -0.24740E+06        -0.43747E+08         0.00000E+00
    0.00000E+00         0.00000E+00        -0.15672E+08
 
   -0.32598E+08        -0.18086E+06         0.00000E+00
   -0.18086E+06        -0.43325E+08         0.00000E+00
    0.00000E+00         0.00000E+00        -0.15185E+08
 
   -0.30641E+08        -0.10830E+06         0.00000E+00
   -0.10830E+06        -0.43040E+08         0.00000E+00
    0.00000E+00         0.00000E+00        -0.14736E+08
 
   -0.28672E+08        -0.27329E+05         0.00000E+00
   -0.27329E+05        -0.42908E+08         0.00000E+00
    0.00000E+00         0.00000E+00        -0.14316E+08
 
   -0.26617E+08         0.65992E+05         0.00000E+00
    0.65992E+05        -0.42949E+08         0.00000E+00
    0.00000E+00         0.00000E+00        -0.13913E+08
 
   -0.24383E+08         0.17872E+06         0.00000E+00
    0.17872E+06        -0.43196E+08         0.00000E+00
    0.00000E+00         0.00000E+00        -0.13516E+08
 
   -0.21835E+08         0.32610E+06         0.00000E+00
    0.32610E+06        -0.43701E+08         0.00000E+00
    0.00000E+00         0.00000E+00        -0.13107E+08
 
   -0.18730E+08         0.54274E+06         0.00000E+00
    0.54274E+06        -0.44570E+08         0.00000E+00
    0.00000E+00         0.00000E+00        -0.12660E+08
 
   -0.14384E+08         0.10555E+07         0.00000E+00
    0.10555E+07        -0.46092E+08         0.00000E+00
    0.00000E+00         0.00000E+00        -0.12095E+08
 
TENSORS stresstot double 
   -0.44027E+08         0.95127E+05         0.00000E+00
    0.95127E+05        -0.59136E+08         0.00000E+00
    0.00000E+00         0.00000E+00        -0.62637E+08
 
   -0.44791E+08        -0.15385E+06         0.00000E+00
   -0.15385E+06        -0.59459E+08         0.00000E+00
    0.00000E+00         0.00000E+00        -0.65850E+08
 
   -0.46765E+08        -0.39512E+06         0.00000E+00
   -0.39512E+06        -0.60155E+08         0.00000E+00
    0.00000E+00         0.00000E+00        -0.69534E+08
 
   -0.49110E+08        -0.41949E+06         0.00000E+00
   -0.41949E+06        -0.61103E+08         0.00000E+00
    0.00000E+00         0.00000E+00        -0.73227E+08
 
   -0.51908E+08        -0.65040E+06         0.00000E+00
   -0.65040E+06        -0.62160E+08         0.00000E+00
    0.00000E+00         0.00000E+00        -0.75916E+08
 
   -0.55303E+08        -0.57445E+06         0.00000E+00
   -0.57445E+06        -0.63298E+08         0.00000E+00
    0.00000E+00         0.00000E+00        -0.76845E+08
 
   -0.57833E+08        -0.43189E+06         0.00000E+00
   -0.43189E+06        -0.64245E+08         0.00000E+00
    0.00000E+00         0.00000E+00        -0.77541E+08
 
   -0.60048E+08        -0.31477E+06         0.00000E+00
   -0.31477E+06        -0.64965E+08         0.00000E+00
    0.00000E+00         0.00000E+00        -0.78128E+08
 
   -0.62126E+08        -0.20712E+06         0.00000E+00
   -0.20712E+06        -0.65471E+08         0.00000E+00
    0.00000E+00         0.00000E+00        -0.78644E+08
 
   -0.64179E+08        -0.10023E+06         0.00000E+00
   -0.10023E+06        -0.65769E+08         0.00000E+00
    0.00000E+00         0.00000E+00        -0.79114E+08
 
   -0.66305E+08         0.13942E+05         0.00000E+00
    0.13942E+05        -0.65849E+08         0.00000E+00
    0.00000E+00         0.00000E+00        -0.79555E+08
 
   -0.68611E+08         0.14518E+06         0.00000E+00
    0.14518E+06        -0.65686E+08         0.00000E+00
    0.00000E+00         0.00000E+00        -0.79984E+08
 
   -0.71251E+08         0.31137E+06         0.00000E+00
    0.31137E+06        -0.65227E+08         0.00000E+00
    0.00000E+00         0.00000E+00        -0.80420E+08
 
   -0.74488E+08         0.55107E+06         0.00000E+00
    0.55107E+06        -0.64363E+08         0.00000E+00
    0.00000E+00         0.00000E+00        -0.80895E+08
 
   -0.79071E+08         0.11132E+07         0.00000E+00
    0.11132E+07        -0.62783E+08         0.00000E+00
    0.00000E+00         0.00000E+00        -0.81495E+08
 
   -0.44015E+08         0.15278E+06         0.00000E+00
    0.15278E+06        -0.60644E+08         0.00000E+00
    0.00000E+00         0.00000E+00        -0.66760E+08
 
   -0.45244E+08        -0.28016E+06         0.00000E+00
   -0.28016E+06        -0.60621E+08         0.00000E+00
    0.00000E+00         0.00000E+00        -0.69112E+08
 
   -0.46955E+08        -0.82319E+06         0.00000E+00
   -0.82319E+06        -0.60649E+08         0.00000E+00
    0.00000E+00         0.00000E+00        -0.71816E+08
 
   -0.49319E+08        -0.12067E+07         0.00000E+00
   -0.12067E+07        -0.60925E+08         0.00000E+00
    0.00000E+00         0.00000E+00        -0.73427E+08
 
   -0.52205E+08        -0.15364E+07         0.00000E+00
   -0.15364E+07        -0.61498E+08         0.00000E+00
    0.00000E+00         0.00000E+00        -0.74118E+08
 
   -0.55083E+08        -0.14570E+07         0.00000E+00
   -0.14570E+07        -0.62124E+08         0.00000E+00
    0.00000E+00         0.00000E+00        -0.74819E+08
 
   -0.57618E+08        -0.11717E+07         0.00000E+00
   -0.11717E+07        -0.62766E+08         0.00000E+00
    0.00000E+00         0.00000E+00        -0.75454E+08
 
   -0.59842E+08        -0.87357E+06         0.00000E+00
   -0.87357E+06        -0.63314E+08         0.00000E+00
    0.00000E+00         0.00000E+00        -0.76008E+08
 
   -0.61922E+08        -0.57678E+06         0.00000E+00
   -0.57678E+06        -0.63715E+08         0.00000E+00
    0.00000E+00         0.00000E+00        -0.76504E+08
 
   -0.63964E+08        -0.26971E+06         0.00000E+00
   -0.26971E+06        -0.63942E+08         0.00000E+00
    0.00000E+00         0.00000E+00        -0.76958E+08
 
   -0.66065E+08         0.65388E+05         0.00000E+00
    0.65388E+05        -0.63971E+08         0.00000E+00
    0.00000E+00         0.00000E+00        -0.77383E+08
 
   -0.68322E+08         0.45550E+06         0.00000E+00
    0.45550E+06        -0.63768E+08         0.00000E+00
    0.00000E+00         0.00000E+00        -0.77794E+08
 
   -0.70861E+08         0.95058E+06         0.00000E+00
    0.95058E+06        -0.63279E+08         0.00000E+00
    0.00000E+00         0.00000E+00        -0.78204E+08
 
   -0.73871E+08         0.16721E+07         0.00000E+00
    0.16721E+07        -0.62409E+08         0.00000E+00
    0.00000E+00         0.00000E+00        -0.78632E+08
 
   -0.77395E+08         0.30169E+07         0.00000E+00
    0.30169E+07        -0.61023E+08         0.00000E+00
    0.00000E+00         0.00000E+00        -0.79060E+08
 
   -0.44120E+08        -0.14313E+06         0.00000E+00
   -0.14313E+06        -0.60315E+08         0.00000E+00
    0.00000E+00         0.00000E+00        -0.69241E+08
 
   -0.45646E+08        -0.47125E+06         0.00000E+00
   -0.47125E+06        -0.60469E+08         0.00000E+00
    0.00000E+00         0.00000E+00        -0.70846E+08
 
   -0.47624E+08        -0.10352E+07         0.00000E+00
   -0.10352E+07        -0.60645E+08         0.00000E+00
    0.00000E+00         0.00000E+00        -0.71291E+08
 
   -0.49777E+08        -0.16512E+07         0.00000E+00
   -0.16512E+07        -0.60895E+08         0.00000E+00
    0.00000E+00         0.00000E+00        -0.71771E+08
 
   -0.52332E+08        -0.19370E+07         0.00000E+00
   -0.19370E+07        -0.61181E+08         0.00000E+00
    0.00000E+00         0.00000E+00        -0.72338E+08
 
   -0.54894E+08        -0.19084E+07         0.00000E+00
   -0.19084E+07        -0.61464E+08         0.00000E+00
    0.00000E+00         0.00000E+00        -0.72907E+08
 
   -0.57294E+08        -0.16414E+07         0.00000E+00
   -0.16414E+07        -0.61785E+08         0.00000E+00
    0.00000E+00         0.00000E+00        -0.73451E+08
 
   -0.59488E+08        -0.12621E+07         0.00000E+00
   -0.12621E+07        -0.62103E+08         0.00000E+00
    0.00000E+00         0.00000E+00        -0.73953E+08
 
   -0.61545E+08        -0.83246E+06         0.00000E+00
   -0.83246E+06        -0.62344E+08         0.00000E+00
    0.00000E+00         0.00000E+00        -0.74412E+08
 
   -0.63554E+08        -0.35855E+06         0.00000E+00
   -0.35855E+06        -0.62458E+08         0.00000E+00
    0.00000E+00         0.00000E+00        -0.74837E+08
 
   -0.65596E+08         0.17638E+06         0.00000E+00
    0.17638E+06        -0.62405E+08         0.00000E+00
    0.00000E+00         0.00000E+00        -0.75234E+08
 
   -0.67752E+08         0.80887E+06         0.00000E+00
    0.80887E+06        -0.62146E+08         0.00000E+00
    0.00000E+00         0.00000E+00        -0.75614E+08
 
   -0.70105E+08         0.16095E+07         0.00000E+00
    0.16095E+07        -0.61634E+08         0.00000E+00
    0.00000E+00         0.00000E+00        -0.75982E+08
 
   -0.72699E+08         0.27260E+07         0.00000E+00
    0.27260E+07        -0.60819E+08         0.00000E+00
    0.00000E+00         0.00000E+00        -0.76337E+08
 
   -0.75443E+08         0.43885E+07         0.00000E+00
    0.43885E+07        -0.59740E+08         0.00000E+00
    0.00000E+00         0.00000E+00        -0.76670E+08
 
   -0.44403E+08        -0.24446E+06         0.00000E+00
   -0.24446E+06        -0.60064E+08         0.00000E+00
    0.00000E+00         0.00000E+00        -0.68799E+08
 
   -0.46283E+08        -0.80371E+06         0.00000E+00
   -0.80371E+06        -0.60214E+08         0.00000E+00
    0.00000E+00         0.00000E+00        -0.69205E+08
 
   -0.48186E+08        -0.13414E+07         0.00000E+00
   -0.13414E+07        -0.60507E+08         0.00000E+00
    0.00000E+00         0.00000E+00        -0.69643E+08
 
   -0.50226E+08        -0.18345E+07         0.00000E+00
   -0.18345E+07        -0.60718E+08         0.00000E+00
    0.00000E+00         0.00000E+00        -0.70094E+08
 
   -0.52458E+08        -0.21136E+07         0.00000E+00
   -0.21136E+07        -0.60839E+08         0.00000E+00
    0.00000E+00         0.00000E+00        -0.70564E+08
 
   -0.54748E+08        -0.21066E+07         0.00000E+00
   -0.21066E+07        -0.60953E+08         0.00000E+00
    0.00000E+00         0.00000E+00        -0.71044E+08
 
   -0.56960E+08        -0.18656E+07         0.00000E+00
   -0.18656E+07        -0.61079E+08         0.00000E+00
    0.00000E+00         0.00000E+00        -0.71511E+08
 
   -0.59051E+08        -0.14614E+07         0.00000E+00
   -0.14614E+07        -0.61206E+08         0.00000E+00
    0.00000E+00         0.00000E+00        -0.71954E+08
 
   -0.61039E+08        -0.94830E+06         0.00000E+00
   -0.94830E+06        -0.61290E+08         0.00000E+00
    0.00000E+00         0.00000E+00        -0.72369E+08
 
   -0.62977E+08        -0.34536E+06         0.00000E+00
   -0.34536E+06        -0.61284E+08         0.00000E+00
    0.00000E+00         0.00000E+00        -0.72755E+08
 
   -0.64924E+08         0.35819E+06         0.00000E+00
    0.35819E+06        -0.61147E+08         0.00000E+00
    0.00000E+00         0.00000E+00        -0.73116E+08
 
   -0.66933E+08         0.11988E+07         0.00000E+00
    0.11988E+07        -0.60841E+08         0.00000E+00
    0.00000E+00         0.00000E+00        -0.73457E+08
 
   -0.69040E+08         0.22462E+07         0.00000E+00
    0.22462E+07        -0.60336E+08         0.00000E+00
    0.00000E+00         0.00000E+00        -0.73777E+08
 
   -0.71231E+08         0.36086E+07         0.00000E+00
    0.36086E+07        -0.59629E+08         0.00000E+00
    0.00000E+00         0.00000E+00        -0.74074E+08
 
   -0.73400E+08         0.54124E+07         0.00000E+00
    0.54124E+07        -0.58777E+08         0.00000E+00
    0.00000E+00         0.00000E+00        -0.74337E+08
 
   -0.45007E+08        -0.35775E+06         0.00000E+00
   -0.35775E+06        -0.60040E+08         0.00000E+00
    0.00000E+00         0.00000E+00        -0.67197E+08
 
   -0.46866E+08        -0.99937E+06         0.00000E+00
   -0.99937E+06        -0.60175E+08         0.00000E+00
    0.00000E+00         0.00000E+00        -0.67595E+08
 
   -0.48689E+08        -0.15460E+07         0.00000E+00
   -0.15460E+07        -0.60322E+08         0.00000E+00
    0.00000E+00         0.00000E+00        -0.67989E+08
 
   -0.50589E+08        -0.19562E+07         0.00000E+00
   -0.19562E+07        -0.60441E+08         0.00000E+00
    0.00000E+00         0.00000E+00        -0.68393E+08
 
   -0.52581E+08        -0.21774E+07         0.00000E+00
   -0.21774E+07        -0.60501E+08         0.00000E+00
    0.00000E+00         0.00000E+00        -0.68803E+08
 
   -0.54618E+08        -0.21651E+07         0.00000E+00
   -0.21651E+07        -0.60521E+08         0.00000E+00
    0.00000E+00         0.00000E+00        -0.69214E+08
 
   -0.56628E+08        -0.19281E+07         0.00000E+00
   -0.19281E+07        -0.60529E+08         0.00000E+00
    0.00000E+00         0.00000E+00        -0.69617E+08
 
   -0.58570E+08        -0.15067E+07         0.00000E+00
   -0.15067E+07        -0.60526E+08         0.00000E+00
    0.00000E+00         0.00000E+00        -0.70004E+08
 
   -0.60441E+08        -0.93704E+06         0.00000E+00
   -0.93704E+06        -0.60488E+08         0.00000E+00
    0.00000E+00         0.00000E+00        -0.70371E+08
 
   -0.62268E+08        -0.23674E+06         0.00000E+00
   -0.23674E+06        -0.60384E+08         0.00000E+00
    0.00000E+00         0.00000E+00        -0.70715E+08
 
   -0.64082E+08         0.60015E+06         0.00000E+00
    0.60015E+06        -0.60178E+08         0.00000E+00
    0.00000E+00         0.00000E+00        -0.71036E+08
 
   -0.65913E+08         0.16031E+07         0.00000E+00
    0.16031E+07        -0.59845E+08         0.00000E+00
    0.00000E+00         0.00000E+00        -0.71336E+08
 
   -0.67765E+08         0.28246E+07         0.00000E+00
    0.28246E+07        -0.59370E+08         0.00000E+00
    0.00000E+00         0.00000E+00        -0.71611E+08
 
   -0.69604E+08         0.43342E+07         0.00000E+00
    0.43342E+07        -0.58767E+08         0.00000E+00
    0.00000E+00         0.00000E+00        -0.71858E+08
 
   -0.71339E+08         0.61994E+07         0.00000E+00
    0.61994E+07        -0.58088E+08         0.00000E+00
    0.00000E+00         0.00000E+00        -0.72069E+08
 
   -0.45753E+08        -0.42501E+06         0.00000E+00
   -0.42501E+06        -0.60020E+08         0.00000E+00
    0.00000E+00         0.00000E+00        -0.65641E+08
 
   -0.47467E+08        -0.11183E+07         0.00000E+00
   -0.11183E+07        -0.60084E+08         0.00000E+00
    0.00000E+00         0.00000E+00        -0.65997E+08
 
   -0.49156E+08        -0.16470E+07         0.00000E+00
   -0.16470E+07        -0.60159E+08         0.00000E+00
    0.00000E+00         0.00000E+00        -0.66349E+08
 
   -0.50884E+08        -0.20099E+07         0.00000E+00
   -0.20099E+07        -0.60202E+08         0.00000E+00
    0.00000E+00         0.00000E+00        -0.66703E+08
 
   -0.52667E+08        -0.21808E+07         0.00000E+00
   -0.21808E+07        -0.60202E+08         0.00000E+00
    0.00000E+00         0.00000E+00        -0.67059E+08
 
   -0.54481E+08        -0.21405E+07         0.00000E+00
   -0.21405E+07        -0.60163E+08         0.00000E+00
    0.00000E+00         0.00000E+00        -0.67414E+08
 
   -0.56286E+08        -0.18892E+07         0.00000E+00
   -0.18892E+07        -0.60099E+08         0.00000E+00
    0.00000E+00         0.00000E+00        -0.67762E+08
 
   -0.58054E+08        -0.14453E+07         0.00000E+00
   -0.14453E+07        -0.60012E+08         0.00000E+00
    0.00000E+00         0.00000E+00        -0.68097E+08
 
   -0.59775E+08        -0.83022E+06         0.00000E+00
   -0.83022E+06        -0.59892E+08         0.00000E+00
    0.00000E+00         0.00000E+00        -0.68417E+08
 
   -0.61457E+08        -0.55926E+05         0.00000E+00
   -0.55926E+05        -0.59718E+08         0.00000E+00
    0.00000E+00         0.00000E+00        -0.68718E+08
 
   -0.63112E+08         0.88104E+06         0.00000E+00
    0.88104E+06        -0.59470E+08         0.00000E+00
    0.00000E+00         0.00000E+00        -0.68999E+08
 
   -0.64748E+08         0.20007E+07         0.00000E+00
    0.20007E+07        -0.59130E+08         0.00000E+00
    0.00000E+00         0.00000E+00        -0.69258E+08
 
   -0.66355E+08         0.33371E+07         0.00000E+00
    0.33371E+07        -0.58695E+08         0.00000E+00
    0.00000E+00         0.00000E+00        -0.69493E+08
 
   -0.67895E+08         0.49308E+07         0.00000E+00
    0.49308E+07        -0.58183E+08         0.00000E+00
    0.00000E+00         0.00000E+00        -0.69698E+08
 
   -0.69292E+08         0.68142E+07         0.00000E+00
    0.68142E+07        -0.57637E+08         0.00000E+00
    0.00000E+00         0.00000E+00        -0.69868E+08
 
   -0.46571E+08        -0.44997E+06         0.00000E+00
   -0.44997E+06        -0.60004E+08         0.00000E+00
    0.00000E+00         0.00000E+00        -0.64120E+08
 
   -0.48076E+08        -0.11660E+07         0.00000E+00
   -0.11660E+07        -0.60019E+08         0.00000E+00
    0.00000E+00         0.00000E+00        -0.64424E+08
 
   -0.49589E+08        -0.16788E+07         0.00000E+00
   -0.16788E+07        -0.60031E+08         0.00000E+00
    0.00000E+00         0.00000E+00        -0.64728E+08
 
   -0.51134E+08        -0.20041E+07         0.00000E+00
   -0.20041E+07        -0.60017E+08         0.00000E+00
    0.00000E+00         0.00000E+00        -0.65034E+08
 
   -0.52715E+08        -0.21350E+07         0.00000E+00
   -0.21350E+07        -0.59969E+08         0.00000E+00
    0.00000E+00         0.00000E+00        -0.65341E+08
 
   -0.54320E+08        -0.20628E+07         0.00000E+00
   -0.20628E+07        -0.59887E+08         0.00000E+00
    0.00000E+00         0.00000E+00        -0.65645E+08
 
   -0.55924E+08        -0.17870E+07         0.00000E+00
   -0.17870E+07        -0.59776E+08         0.00000E+00
    0.00000E+00         0.00000E+00        -0.65943E+08
 
   -0.57506E+08        -0.13161E+07         0.00000E+00
   -0.13161E+07        -0.59638E+08         0.00000E+00
    0.00000E+00         0.00000E+00        -0.66231E+08
 
   -0.59056E+08        -0.66156E+06         0.00000E+00
   -0.66156E+06        -0.59468E+08         0.00000E+00
    0.00000E+00         0.00000E+00        -0.66507E+08
 
   -0.60569E+08         0.16945E+06         0.00000E+00
    0.16945E+06        -0.59255E+08         0.00000E+00
    0.00000E+00         0.00000E+00        -0.66767E+08
 
   -0.62047E+08         0.11786E+07         0.00000E+00
    0.11786E+07        -0.58987E+08         0.00000E+00
    0.00000E+00         0.00000E+00        -0.67008E+08
 
   -0.63485E+08         0.23777E+07         0.00000E+00
    0.23777E+07        -0.58656E+08         0.00000E+00
    0.00000E+00         0.00000E+00        -0.67229E+08
 
   -0.64864E+08         0.37855E+07         0.00000E+00
    0.37855E+07        -0.58265E+08         0.00000E+00
    0.00000E+00         0.00000E+00        -0.67427E+08
 
   -0.66148E+08         0.54223E+07         0.00000E+00
    0.54223E+07        -0.57832E+08         0.00000E+00
    0.00000E+00         0.00000E+00        -0.67597E+08
 
   -0.67277E+08         0.72997E+07         0.00000E+00
    0.72997E+07        -0.57392E+08         0.00000E+00
    0.00000E+00         0.00000E+00        -0.67734E+08
 
   -0.47408E+08        -0.44839E+06         0.00000E+00
   -0.44839E+06        -0.59995E+08         0.00000E+00
    0.00000E+00         0.00000E+00        -0.62624E+08
 
   -0.48681E+08        -0.11609E+07         0.00000E+00
   -0.11609E+07        -0.59978E+08         0.00000E+00
    0.00000E+00         0.00000E+00        -0.62875E+08
 
   -0.49996E+08        -0.16566E+07         0.00000E+00
   -0.16566E+07        -0.59945E+08         0.00000E+00
    0.00000E+00         0.00000E+00        -0.63131E+08
 
   -0.51347E+08        -0.19528E+07         0.00000E+00
   -0.19528E+07        -0.59889E+08         0.00000E+00
    0.00000E+00         0.00000E+00        -0.63390E+08
 
   -0.52730E+08        -0.20511E+07         0.00000E+00
   -0.20511E+07        -0.59805E+08         0.00000E+00
    0.00000E+00         0.00000E+00        -0.63650E+08
 
   -0.54131E+08        -0.19491E+07         0.00000E+00
   -0.19491E+07        -0.59693E+08         0.00000E+00
    0.00000E+00         0.00000E+00        -0.63907E+08
 
   -0.55536E+08        -0.16467E+07         0.00000E+00
   -0.16467E+07        -0.59554E+08         0.00000E+00
    0.00000E+00         0.00000E+00        -0.64160E+08
 
   -0.56927E+08        -0.11481E+07         0.00000E+00
   -0.11481E+07        -0.59388E+08         0.00000E+00
    0.00000E+00         0.00000E+00        -0.64404E+08
 
   -0.58293E+08        -0.45955E+06         0.00000E+00
   -0.45955E+06        -0.59194E+08         0.00000E+00
    0.00000E+00         0.00000E+00        -0.64638E+08
 
   -0.59626E+08         0.41460E+06         0.00000E+00
    0.41460E+06        -0.58965E+08         0.00000E+00
    0.00000E+00         0.00000E+00        -0.64859E+08
 
   -0.60919E+08         0.14743E+07         0.00000E+00
    0.14743E+07        -0.58697E+08         0.00000E+00
    0.00000E+00         0.00000E+00        -0.65063E+08
 
   -0.62159E+08         0.27246E+07         0.00000E+00
    0.27246E+07        -0.58387E+08         0.00000E+00
    0.00000E+00         0.00000E+00        -0.65249E+08
 
   -0.63328E+08         0.41735E+07         0.00000E+00
    0.41735E+07        -0.58043E+08         0.00000E+00
    0.00000E+00         0.00000E+00        -0.65414E+08
 
   -0.64390E+08         0.58274E+07         0.00000E+00
    0.58274E+07        -0.57679E+08         0.00000E+00
    0.00000E+00         0.00000E+00        -0.65553E+08
 
   -0.65301E+08         0.76848E+07         0.00000E+00
    0.76848E+07        -0.57323E+08         0.00000E+00
    0.00000E+00         0.00000E+00        -0.65664E+08
 
   -0.48229E+08        -0.43179E+06         0.00000E+00
   -0.43179E+06        -0.59990E+08         0.00000E+00
    0.00000E+00         0.00000E+00        -0.61148E+08
 
   -0.49272E+08        -0.11223E+07         0.00000E+00
   -0.11223E+07        -0.59955E+08         0.00000E+00
    0.00000E+00         0.00000E+00        -0.61350E+08
 
   -0.50380E+08        -0.15976E+07         0.00000E+00
   -0.15976E+07        -0.59894E+08         0.00000E+00
    0.00000E+00         0.00000E+00        -0.61559E+08
 
   -0.51532E+08        -0.18695E+07         0.00000E+00
   -0.18695E+07        -0.59812E+08         0.00000E+00
    0.00000E+00         0.00000E+00        -0.61772E+08
 
   -0.52715E+08        -0.19415E+07         0.00000E+00
   -0.19415E+07        -0.59706E+08         0.00000E+00
    0.00000E+00         0.00000E+00        -0.61987E+08
 
   -0.53916E+08        -0.18138E+07         0.00000E+00
   -0.18138E+07        -0.59576E+08         0.00000E+00
    0.00000E+00         0.00000E+00        -0.62201E+08
 
   -0.55122E+08        -0.14868E+07         0.00000E+00
   -0.14868E+07        -0.59424E+08         0.00000E+00
    0.00000E+00         0.00000E+00        -0.62412E+08
 
   -0.56319E+08        -0.96304E+06         0.00000E+00
   -0.96304E+06        -0.59248E+08         0.00000E+00
    0.00000E+00         0.00000E+00        -0.62616E+08
 
   -0.57496E+08        -0.24630E+06         0.00000E+00
   -0.24630E+06        -0.59049E+08         0.00000E+00
    0.00000E+00         0.00000E+00        -0.62811E+08
 
   -0.58642E+08         0.65993E+06         0.00000E+00
    0.65993E+06        -0.58823E+08         0.00000E+00
    0.00000E+00         0.00000E+00        -0.62994E+08
 
   -0.59747E+08         0.17538E+07         0.00000E+00
    0.17538E+07        -0.58569E+08         0.00000E+00
    0.00000E+00         0.00000E+00        -0.63164E+08
 
   -0.60797E+08         0.30354E+07         0.00000E+00
    0.30354E+07        -0.58290E+08         0.00000E+00
    0.00000E+00         0.00000E+00        -0.63318E+08
 
   -0.61770E+08         0.45048E+07         0.00000E+00
    0.45048E+07        -0.57992E+08         0.00000E+00
    0.00000E+00         0.00000E+00        -0.63453E+08
 
   -0.62640E+08         0.61594E+07         0.00000E+00
    0.61594E+07        -0.57689E+08         0.00000E+00
    0.00000E+00         0.00000E+00        -0.63566E+08
 
   -0.63368E+08         0.79898E+07         0.00000E+00
    0.79898E+07        -0.57403E+08         0.00000E+00
    0.00000E+00         0.00000E+00        -0.63655E+08
 
   -0.49014E+08        -0.40787E+06         0.00000E+00
   -0.40787E+06        -0.59988E+08         0.00000E+00
    0.00000E+00         0.00000E+00        -0.59687E+08
 
   -0.49840E+08        -0.10660E+07         0.00000E+00
   -0.10660E+07        -0.59945E+08         0.00000E+00
    0.00000E+00         0.00000E+00        -0.59843E+08
 
   -0.50741E+08        -0.15179E+07         0.00000E+00
   -0.15179E+07        -0.59872E+08         0.00000E+00
    0.00000E+00         0.00000E+00        -0.60009E+08
 
   -0.51693E+08        -0.17683E+07         0.00000E+00
   -0.17683E+07        -0.59777E+08         0.00000E+00
    0.00000E+00         0.00000E+00        -0.60180E+08
 
   -0.52676E+08        -0.18190E+07         0.00000E+00
   -0.18190E+07        -0.59662E+08         0.00000E+00
    0.00000E+00         0.00000E+00        -0.60353E+08
 
   -0.53678E+08        -0.16701E+07         0.00000E+00
   -0.16701E+07        -0.59529E+08         0.00000E+00
    0.00000E+00         0.00000E+00        -0.60526E+08
 
   -0.54686E+08        -0.13222E+07         0.00000E+00
   -0.13222E+07        -0.59376E+08         0.00000E+00
    0.00000E+00         0.00000E+00        -0.60697E+08
 
   -0.55688E+08        -0.77736E+06         0.00000E+00
   -0.77736E+06        -0.59204E+08         0.00000E+00
    0.00000E+00         0.00000E+00        -0.60863E+08
 
   -0.56673E+08        -0.38475E+05         0.00000E+00
   -0.38475E+05        -0.59014E+08         0.00000E+00
    0.00000E+00         0.00000E+00        -0.61021E+08
 
   -0.57630E+08         0.89079E+06         0.00000E+00
    0.89079E+06        -0.58804E+08         0.00000E+00
    0.00000E+00         0.00000E+00        -0.61170E+08
 
   -0.58549E+08         0.20068E+07         0.00000E+00
    0.20068E+07        -0.58576E+08         0.00000E+00
    0.00000E+00         0.00000E+00        -0.61308E+08
 
   -0.59414E+08         0.33058E+07         0.00000E+00
    0.33058E+07        -0.58332E+08         0.00000E+00
    0.00000E+00         0.00000E+00        -0.61432E+08
 
   -0.60207E+08         0.47825E+07         0.00000E+00
    0.47825E+07        -0.58082E+08         0.00000E+00
    0.00000E+00         0.00000E+00        -0.61541E+08
 
   -0.60905E+08         0.64284E+07         0.00000E+00
    0.64284E+07        -0.57835E+08         0.00000E+00
    0.00000E+00         0.00000E+00        -0.61631E+08
 
   -0.61478E+08         0.82290E+07         0.00000E+00
    0.82290E+07        -0.57609E+08         0.00000E+00
    0.00000E+00         0.00000E+00        -0.61700E+08
 
   -0.49754E+08        -0.38192E+06         0.00000E+00
   -0.38192E+06        -0.59988E+08         0.00000E+00
    0.00000E+00         0.00000E+00        -0.58238E+08
 
   -0.50379E+08        -0.10039E+07         0.00000E+00
   -0.10039E+07        -0.59944E+08         0.00000E+00
    0.00000E+00         0.00000E+00        -0.58354E+08
 
   -0.51082E+08        -0.14316E+07         0.00000E+00
   -0.14316E+07        -0.59871E+08         0.00000E+00
    0.00000E+00         0.00000E+00        -0.58479E+08
 
   -0.51834E+08        -0.16628E+07         0.00000E+00
   -0.16628E+07        -0.59776E+08         0.00000E+00
    0.00000E+00         0.00000E+00        -0.58611E+08
 
   -0.52618E+08        -0.16959E+07         0.00000E+00
   -0.16959E+07        -0.59665E+08         0.00000E+00
    0.00000E+00         0.00000E+00        -0.58745E+08
 
   -0.53421E+08        -0.15300E+07         0.00000E+00
   -0.15300E+07        -0.59539E+08         0.00000E+00
    0.00000E+00         0.00000E+00        -0.58880E+08
 
   -0.54231E+08        -0.11655E+07         0.00000E+00
   -0.11655E+07        -0.59397E+08         0.00000E+00
    0.00000E+00         0.00000E+00        -0.59013E+08
 
   -0.55037E+08        -0.60406E+06         0.00000E+00
   -0.60406E+06        -0.59241E+08         0.00000E+00
    0.00000E+00         0.00000E+00        -0.59143E+08
 
   -0.55830E+08         0.15136E+06         0.00000E+00
    0.15136E+06        -0.59071E+08         0.00000E+00
    0.00000E+00         0.00000E+00        -0.59267E+08
 
   -0.56600E+08         0.10965E+07         0.00000E+00
    0.10965E+07        -0.58887E+08         0.00000E+00
    0.00000E+00         0.00000E+00        -0.59384E+08
 
   -0.57335E+08         0.22259E+07         0.00000E+00
    0.22259E+07        -0.58692E+08         0.00000E+00
    0.00000E+00         0.00000E+00        -0.59492E+08
 
   -0.58023E+08         0.35331E+07         0.00000E+00
    0.35331E+07        -0.58489E+08         0.00000E+00
    0.00000E+00         0.00000E+00        -0.59588E+08
 
   -0.58648E+08         0.50092E+07         0.00000E+00
    0.50092E+07        -0.58285E+08         0.00000E+00
    0.00000E+00         0.00000E+00        -0.59672E+08
 
   -0.59190E+08         0.66415E+07         0.00000E+00
    0.66415E+07        -0.58090E+08         0.00000E+00
    0.00000E+00         0.00000E+00        -0.59742E+08
 
   -0.59627E+08         0.84126E+07         0.00000E+00
    0.84126E+07        -0.57917E+08         0.00000E+00
    0.00000E+00         0.00000E+00        -0.59794E+08
 
   -0.50450E+08        -0.35758E+06         0.00000E+00
   -0.35758E+06        -0.59990E+08         0.00000E+00
    0.00000E+00         0.00000E+00        -0.56799E+08
 
   -0.50891E+08        -0.94498E+06         0.00000E+00
   -0.94498E+06        -0.59951E+08         0.00000E+00
    0.00000E+00         0.00000E+00        -0.56879E+08
 
   -0.51402E+08        -0.13501E+07         0.00000E+00
   -0.13501E+07        -0.59885E+08         0.00000E+00
    0.00000E+00         0.00000E+00        -0.56968E+08
 
   -0.51958E+08        -0.15645E+07         0.00000E+00
   -0.15645E+07        -0.59802E+08         0.00000E+00
    0.00000E+00         0.00000E+00        -0.57063E+08
 
   -0.52545E+08        -0.15835E+07         0.00000E+00
   -0.15835E+07        -0.59705E+08         0.00000E+00
    0.00000E+00         0.00000E+00        -0.57160E+08
 
   -0.53149E+08        -0.14045E+07         0.00000E+00
   -0.14045E+07        -0.59596E+08         0.00000E+00
    0.00000E+00         0.00000E+00        -0.57259E+08
 
   -0.53761E+08        -0.10273E+07         0.00000E+00
   -0.10273E+07        -0.59475E+08         0.00000E+00
    0.00000E+00         0.00000E+00        -0.57357E+08
 
   -0.54372E+08        -0.45338E+06         0.00000E+00
   -0.45338E+06        -0.59344E+08         0.00000E+00
    0.00000E+00         0.00000E+00        -0.57453E+08
 
   -0.54973E+08         0.31380E+06         0.00000E+00
    0.31380E+06        -0.59203E+08         0.00000E+00
    0.00000E+00         0.00000E+00        -0.57544E+08
 
   -0.55557E+08         0.12692E+07         0.00000E+00
    0.12692E+07        -0.59053E+08         0.00000E+00
    0.00000E+00         0.00000E+00        -0.57631E+08
 
   -0.56113E+08         0.24062E+07         0.00000E+00
    0.24062E+07        -0.58896E+08         0.00000E+00
    0.00000E+00         0.00000E+00        -0.57710E+08
 
   -0.56630E+08         0.37158E+07         0.00000E+00
    0.37158E+07        -0.58736E+08         0.00000E+00
    0.00000E+00         0.00000E+00        -0.57781E+08
 
   -0.57096E+08         0.51868E+07         0.00000E+00
    0.51868E+07        -0.58579E+08         0.00000E+00
    0.00000E+00         0.00000E+00        -0.57843E+08
 
   -0.57496E+08         0.68041E+07         0.00000E+00
    0.68041E+07        -0.58432E+08         0.00000E+00
    0.00000E+00         0.00000E+00        -0.57893E+08
 
   -0.57812E+08         0.85482E+07         0.00000E+00
    0.85482E+07        -0.58306E+08         0.00000E+00
    0.00000E+00         0.00000E+00        -0.57931E+08
 
   -0.51105E+08        -0.33745E+06         0.00000E+00
   -0.33745E+06        -0.59992E+08         0.00000E+00
    0.00000E+00         0.00000E+00        -0.55370E+08
 
   -0.51377E+08        -0.89592E+06         0.00000E+00
   -0.89592E+06        -0.59962E+08         0.00000E+00
    0.00000E+00         0.00000E+00        -0.55418E+08
 
   -0.51704E+08        -0.12822E+07         0.00000E+00
   -0.12822E+07        -0.59911E+08         0.00000E+00
    0.00000E+00         0.00000E+00        -0.55473E+08
 
   -0.52070E+08        -0.14832E+07         0.00000E+00
   -0.14832E+07        -0.59847E+08         0.00000E+00
    0.00000E+00         0.00000E+00        -0.55533E+08
 
   -0.52460E+08        -0.14913E+07         0.00000E+00
   -0.14913E+07        -0.59772E+08         0.00000E+00
    0.00000E+00         0.00000E+00        -0.55596E+08
 
   -0.52866E+08        -0.13025E+07         0.00000E+00
   -0.13025E+07        -0.59689E+08         0.00000E+00
    0.00000E+00         0.00000E+00        -0.55660E+08
 
   -0.53280E+08        -0.91592E+06         0.00000E+00
   -0.91592E+06        -0.59597E+08         0.00000E+00
    0.00000E+00         0.00000E+00        -0.55724E+08
 
   -0.53696E+08        -0.33319E+06         0.00000E+00
   -0.33319E+06        -0.59498E+08         0.00000E+00
    0.00000E+00         0.00000E+00        -0.55788E+08
 
   -0.54107E+08         0.44193E+06         0.00000E+00
    0.44193E+06        -0.59392E+08         0.00000E+00
    0.00000E+00         0.00000E+00        -0.55848E+08
 
   -0.54507E+08         0.14036E+07         0.00000E+00
    0.14036E+07        -0.59281E+08         0.00000E+00
    0.00000E+00         0.00000E+00        -0.55906E+08
 
   -0.54888E+08         0.25441E+07         0.00000E+00
    0.25441E+07        -0.59166E+08         0.00000E+00
    0.00000E+00         0.00000E+00        -0.55958E+08
 
   -0.55240E+08         0.38529E+07         0.00000E+00
    0.38529E+07        -0.59051E+08         0.00000E+00
    0.00000E+00         0.00000E+00        -0.56006E+08
 
   -0.55555E+08         0.53172E+07         0.00000E+00
    0.53172E+07        -0.58940E+08         0.00000E+00
    0.00000E+00         0.00000E+00        -0.56046E+08
 
   -0.55822E+08         0.69201E+07         0.00000E+00
    0.69201E+07        -0.58839E+08         0.00000E+00
    0.00000E+00         0.00000E+00        -0.56079E+08
 
   -0.56027E+08         0.86411E+07         0.00000E+00
    0.86411E+07        -0.58756E+08         0.00000E+00
    0.00000E+00         0.00000E+00        -0.56104E+08
 
   -0.51730E+08        -0.32331E+06         0.00000E+00
   -0.32331E+06        -0.59995E+08         0.00000E+00
    0.00000E+00         0.00000E+00        -0.53949E+08
 
   -0.51843E+08        -0.86141E+06         0.00000E+00
   -0.86141E+06        -0.59977E+08         0.00000E+00
    0.00000E+00         0.00000E+00        -0.53968E+08
 
   -0.51994E+08        -0.12345E+07         0.00000E+00
   -0.12345E+07        -0.59946E+08         0.00000E+00
    0.00000E+00         0.00000E+00        -0.53992E+08
 
   -0.52171E+08        -0.14261E+07         0.00000E+00
   -0.14261E+07        -0.59906E+08         0.00000E+00
    0.00000E+00         0.00000E+00        -0.54019E+08
 
   -0.52366E+08        -0.14266E+07         0.00000E+00
   -0.14266E+07        -0.59860E+08         0.00000E+00
    0.00000E+00         0.00000E+00        -0.54049E+08
 
   -0.52575E+08        -0.12309E+07         0.00000E+00
   -0.12309E+07        -0.59808E+08         0.00000E+00
    0.00000E+00         0.00000E+00        -0.54080E+08
 
   -0.52792E+08        -0.83791E+06         0.00000E+00
   -0.83791E+06        -0.59751E+08         0.00000E+00
    0.00000E+00         0.00000E+00        -0.54111E+08
 
   -0.53014E+08        -0.24921E+06         0.00000E+00
   -0.24921E+06        -0.59689E+08         0.00000E+00
    0.00000E+00         0.00000E+00        -0.54143E+08
 
   -0.53236E+08         0.53095E+06         0.00000E+00
    0.53095E+06        -0.59623E+08         0.00000E+00
    0.00000E+00         0.00000E+00        -0.54174E+08
 
   -0.53454E+08         0.14961E+07         0.00000E+00
    0.14961E+07        -0.59554E+08         0.00000E+00
    0.00000E+00         0.00000E+00        -0.54203E+08
 
   -0.53662E+08         0.26376E+07         0.00000E+00
    0.26376E+07        -0.59483E+08         0.00000E+00
    0.00000E+00         0.00000E+00        -0.54230E+08
 
   -0.53854E+08         0.39441E+07         0.00000E+00
    0.39441E+07        -0.59413E+08         0.00000E+00
    0.00000E+00         0.00000E+00        -0.54255E+08
 
   -0.54024E+08         0.54015E+07         0.00000E+00
    0.54015E+07        -0.59348E+08         0.00000E+00
    0.00000E+00         0.00000E+00        -0.54275E+08
 
   -0.54164E+08         0.69923E+07         0.00000E+00
    0.69923E+07        -0.59291E+08         0.00000E+00
    0.00000E+00         0.00000E+00        -0.54292E+08
 
   -0.54267E+08         0.86952E+07         0.00000E+00
    0.86952E+07        -0.59248E+08         0.00000E+00
    0.00000E+00         0.00000E+00        -0.54304E+08
 
   -0.52335E+08        -0.31635E+06         0.00000E+00
   -0.31635E+06        -0.59999E+08         0.00000E+00
    0.00000E+00         0.00000E+00        -0.52536E+08
 
   -0.52297E+08        -0.84465E+06         0.00000E+00
   -0.84465E+06        -0.59993E+08         0.00000E+00
    0.00000E+00         0.00000E+00        -0.52527E+08
 
   -0.52275E+08        -0.12113E+07         0.00000E+00
   -0.12113E+07        -0.59985E+08         0.00000E+00
    0.00000E+00         0.00000E+00        -0.52521E+08
 
   -0.52265E+08        -0.13983E+07         0.00000E+00
   -0.13983E+07        -0.59974E+08         0.00000E+00
    0.00000E+00         0.00000E+00        -0.52517E+08
 
   -0.52267E+08        -0.13945E+07         0.00000E+00
   -0.13945E+07        -0.59961E+08         0.00000E+00
    0.00000E+00         0.00000E+00        -0.52514E+08
 
   -0.52278E+08        -0.11946E+07         0.00000E+00
   -0.11946E+07        -0.59945E+08         0.00000E+00
    0.00000E+00         0.00000E+00        -0.52513E+08
 
   -0.52299E+08        -0.79749E+06         0.00000E+00
   -0.79749E+06        -0.59925E+08         0.00000E+00
    0.00000E+00         0.00000E+00        -0.52513E+08
 
   -0.52327E+08        -0.20507E+06         0.00000E+00
   -0.20507E+06        -0.59903E+08         0.00000E+00
    0.00000E+00         0.00000E+00        -0.52514E+08
 
   -0.52361E+08         0.57796E+06         0.00000E+00
    0.57796E+06        -0.59879E+08         0.00000E+00
    0.00000E+00         0.00000E+00        -0.52515E+08
 
   -0.52399E+08         0.15446E+07         0.00000E+00
    0.15446E+07        -0.59853E+08         0.00000E+00
    0.00000E+00         0.00000E+00        -0.52517E+08
 
   -0.52437E+08         0.26856E+07         0.00000E+00
    0.26856E+07        -0.59827E+08         0.00000E+00
    0.00000E+00         0.00000E+00        -0.52519E+08
 
   -0.52472E+08         0.39893E+07         0.00000E+00
    0.39893E+07        -0.59803E+08         0.00000E+00
    0.00000E+00         0.00000E+00        -0.52521E+08
 
   -0.52501E+08         0.54409E+07         0.00000E+00
    0.54409E+07        -0.59783E+08         0.00000E+00
    0.00000E+00         0.00000E+00        -0.52523E+08
 
   -0.52520E+08         0.70227E+07         0.00000E+00
    0.70227E+07        -0.59770E+08         0.00000E+00
    0.00000E+00         0.00000E+00        -0.52524E+08
 
   -0.52525E+08         0.87130E+07         0.00000E+00
    0.87130E+07        -0.59764E+08         0.00000E+00
    0.00000E+00         0.00000E+00        -0.52524E+08
 
   -0.52935E+08        -0.31729E+06         0.00000E+00
   -0.31729E+06        -0.60002E+08         0.00000E+00
    0.00000E+00         0.00000E+00        -0.51130E+08
 
   -0.52748E+08        -0.84752E+06         0.00000E+00
   -0.84752E+06        -0.60011E+08         0.00000E+00
    0.00000E+00         0.00000E+00        -0.51095E+08
 
   -0.52554E+08        -0.12155E+07         0.00000E+00
   -0.12155E+07        -0.60027E+08         0.00000E+00
    0.00000E+00         0.00000E+00        -0.51059E+08
 
   -0.52358E+08        -0.14026E+07         0.00000E+00
   -0.14026E+07        -0.60047E+08         0.00000E+00
    0.00000E+00         0.00000E+00        -0.51023E+08
 
   -0.52165E+08        -0.13978E+07         0.00000E+00
   -0.13978E+07        -0.60068E+08         0.00000E+00
    0.00000E+00         0.00000E+00        -0.50989E+08
 
   -0.51979E+08        -0.11960E+07         0.00000E+00
   -0.11960E+07        -0.60089E+08         0.00000E+00
    0.00000E+00         0.00000E+00        -0.50955E+08
 
   -0.51802E+08        -0.79666E+06         0.00000E+00
   -0.79666E+06        -0.60108E+08         0.00000E+00
    0.00000E+00         0.00000E+00        -0.50924E+08
 
   -0.51638E+08        -0.20229E+06         0.00000E+00
   -0.20229E+06        -0.60127E+08         0.00000E+00
    0.00000E+00         0.00000E+00        -0.50894E+08
 
   -0.51485E+08         0.58191E+06         0.00000E+00
    0.58191E+06        -0.60144E+08         0.00000E+00
    0.00000E+00         0.00000E+00        -0.50867E+08
 
   -0.51344E+08         0.15486E+07         0.00000E+00
    0.15486E+07        -0.60162E+08         0.00000E+00
    0.00000E+00         0.00000E+00        -0.50842E+08
 
   -0.51214E+08         0.26882E+07         0.00000E+00
    0.26882E+07        -0.60181E+08         0.00000E+00
    0.00000E+00         0.00000E+00        -0.50819E+08
 
   -0.51094E+08         0.39890E+07         0.00000E+00
    0.39890E+07        -0.60202E+08         0.00000E+00
    0.00000E+00         0.00000E+00        -0.50799E+08
 
   -0.50985E+08         0.54364E+07         0.00000E+00
    0.54364E+07        -0.60227E+08         0.00000E+00
    0.00000E+00         0.00000E+00        -0.50782E+08
 
   -0.50884E+08         0.70125E+07         0.00000E+00
    0.70125E+07        -0.60255E+08         0.00000E+00
    0.00000E+00         0.00000E+00        -0.50768E+08
 
   -0.50794E+08         0.86960E+07         0.00000E+00
    0.86960E+07        -0.60287E+08         0.00000E+00
    0.00000E+00         0.00000E+00        -0.50756E+08
 
   -0.53545E+08        -0.32641E+06         0.00000E+00
   -0.32641E+06        -0.60006E+08         0.00000E+00
    0.00000E+00         0.00000E+00        -0.49732E+08
 
   -0.53205E+08        -0.87076E+06         0.00000E+00
   -0.87076E+06        -0.60029E+08         0.00000E+00
    0.00000E+00         0.00000E+00        -0.49669E+08
 
   -0.52836E+08        -0.12479E+07         0.00000E+00
   -0.12479E+07        -0.60069E+08         0.00000E+00
    0.00000E+00         0.00000E+00        -0.49603E+08
 
   -0.52451E+08        -0.14399E+07         0.00000E+00
   -0.14399E+07        -0.60119E+08         0.00000E+00
    0.00000E+00         0.00000E+00        -0.49535E+08
 
   -0.52062E+08        -0.14370E+07         0.00000E+00
   -0.14370E+07        -0.60175E+08         0.00000E+00
    0.00000E+00         0.00000E+00        -0.49468E+08
 
   -0.51678E+08        -0.12352E+07         0.00000E+00
   -0.12352E+07        -0.60232E+08         0.00000E+00
    0.00000E+00         0.00000E+00        -0.49403E+08
 
   -0.51305E+08        -0.83513E+06         0.00000E+00
   -0.83513E+06        -0.60289E+08         0.00000E+00
    0.00000E+00         0.00000E+00        -0.49339E+08
 
   -0.50947E+08        -0.24027E+06         0.00000E+00
   -0.24027E+06        -0.60346E+08         0.00000E+00
    0.00000E+00         0.00000E+00        -0.49279E+08
 
   -0.50609E+08         0.54357E+06         0.00000E+00
    0.54357E+06        -0.60404E+08         0.00000E+00
    0.00000E+00         0.00000E+00        -0.49222E+08
 
   -0.50290E+08         0.15088E+07         0.00000E+00
    0.15088E+07        -0.60464E+08         0.00000E+00
    0.00000E+00         0.00000E+00        -0.49170E+08
 
   -0.49993E+08         0.26460E+07         0.00000E+00
    0.26460E+07        -0.60526E+08         0.00000E+00
    0.00000E+00         0.00000E+00        -0.49123E+08
 
   -0.49720E+08         0.39439E+07         0.00000E+00
    0.39439E+07        -0.60592E+08         0.00000E+00
    0.00000E+00         0.00000E+00        -0.49081E+08
 
   -0.49472E+08         0.53884E+07         0.00000E+00
    0.53884E+07        -0.60660E+08         0.00000E+00
    0.00000E+00         0.00000E+00        -0.49045E+08
 
   -0.49252E+08         0.69623E+07         0.00000E+00
    0.69623E+07        -0.60730E+08         0.00000E+00
    0.00000E+00         0.00000E+00        -0.49015E+08
 
   -0.49066E+08         0.86448E+07         0.00000E+00
    0.86448E+07        -0.60800E+08         0.00000E+00
    0.00000E+00         0.00000E+00        -0.48992E+08
 
   -0.54178E+08        -0.34365E+06         0.00000E+00
   -0.34365E+06        -0.60009E+08         0.00000E+00
    0.00000E+00         0.00000E+00        -0.48340E+08
 
   -0.53679E+08        -0.91408E+06         0.00000E+00
   -0.91408E+06        -0.60047E+08         0.00000E+00
    0.00000E+00         0.00000E+00        -0.48248E+08
 
   -0.53129E+08        -0.13077E+07         0.00000E+00
   -0.13077E+07        -0.60110E+08         0.00000E+00
    0.00000E+00         0.00000E+00        -0.48150E+08
 
   -0.52550E+08        -0.15089E+07         0.00000E+00
   -0.15089E+07        -0.60189E+08         0.00000E+00
    0.00000E+00         0.00000E+00        -0.48050E+08
 
   -0.51961E+08        -0.15102E+07         0.00000E+00
   -0.15102E+07        -0.60275E+08         0.00000E+00
    0.00000E+00         0.00000E+00        -0.47949E+08
 
   -0.51377E+08        -0.13098E+07         0.00000E+00
   -0.13098E+07        -0.60365E+08         0.00000E+00
    0.00000E+00         0.00000E+00        -0.47850E+08
 
   -0.50807E+08        -0.91019E+06         0.00000E+00
   -0.91019E+06        -0.60456E+08         0.00000E+00
    0.00000E+00         0.00000E+00        -0.47754E+08
 
   -0.50258E+08        -0.31620E+06         0.00000E+00
   -0.31620E+06        -0.60548E+08         0.00000E+00
    0.00000E+00         0.00000E+00        -0.47662E+08
 
   -0.49734E+08         0.46562E+06         0.00000E+00
    0.46562E+06        -0.60643E+08         0.00000E+00
    0.00000E+00         0.00000E+00        -0.47576E+08
 
   -0.49239E+08         0.14276E+07         0.00000E+00
    0.14276E+07        -0.60741E+08         0.00000E+00
    0.00000E+00         0.00000E+00        -0.47496E+08
 
   -0.48776E+08         0.25609E+07         0.00000E+00
    0.25609E+07        -0.60844E+08         0.00000E+00
    0.00000E+00         0.00000E+00        -0.47424E+08
 
   -0.48348E+08         0.38551E+07         0.00000E+00
    0.38551E+07        -0.60952E+08         0.00000E+00
    0.00000E+00         0.00000E+00        -0.47360E+08
 
   -0.47960E+08         0.52974E+07         0.00000E+00
    0.52974E+07        -0.61064E+08         0.00000E+00
    0.00000E+00         0.00000E+00        -0.47304E+08
 
   -0.47620E+08         0.68720E+07         0.00000E+00
    0.68720E+07        -0.61176E+08         0.00000E+00
    0.00000E+00         0.00000E+00        -0.47259E+08
 
   -0.47336E+08         0.85587E+07         0.00000E+00
    0.85587E+07        -0.61283E+08         0.00000E+00
    0.00000E+00         0.00000E+00        -0.47223E+08
 
   -0.54851E+08        -0.36860E+06         0.00000E+00
   -0.36860E+06        -0.60013E+08         0.00000E+00
    0.00000E+00         0.00000E+00        -0.46955E+08
 
   -0.54178E+08        -0.97621E+06         0.00000E+00
   -0.97621E+06        -0.60063E+08         0.00000E+00
    0.00000E+00         0.00000E+00        -0.46831E+08
 
   -0.53436E+08        -0.13928E+07         0.00000E+00
   -0.13928E+07        -0.60147E+08         0.00000E+00
    0.00000E+00         0.00000E+00        -0.46699E+08
 
   -0.52656E+08        -0.16065E+07         0.00000E+00
   -0.16065E+07        -0.60250E+08         0.00000E+00
    0.00000E+00         0.00000E+00        -0.46563E+08
 
   -0.51863E+08        -0.16133E+07         0.00000E+00
   -0.16133E+07        -0.60363E+08         0.00000E+00
    0.00000E+00         0.00000E+00        -0.46427E+08
 
   -0.51077E+08        -0.14149E+07         0.00000E+00
   -0.14149E+07        -0.60480E+08         0.00000E+00
    0.00000E+00         0.00000E+00        -0.46293E+08
 
   -0.50310E+08        -0.10166E+07         0.00000E+00
   -0.10166E+07        -0.60598E+08         0.00000E+00
    0.00000E+00         0.00000E+00        -0.46163E+08
 
   -0.49571E+08        -0.42487E+06         0.00000E+00
   -0.42487E+06        -0.60719E+08         0.00000E+00
    0.00000E+00         0.00000E+00        -0.46039E+08
 
   -0.48864E+08         0.35274E+06         0.00000E+00
    0.35274E+06        -0.60844E+08         0.00000E+00
    0.00000E+00         0.00000E+00        -0.45922E+08
 
   -0.48194E+08         0.13088E+07         0.00000E+00
    0.13088E+07        -0.60976E+08         0.00000E+00
    0.00000E+00         0.00000E+00        -0.45814E+08
 
   -0.47564E+08         0.24354E+07         0.00000E+00
    0.24354E+07        -0.61116E+08         0.00000E+00
    0.00000E+00         0.00000E+00        -0.45716E+08
 
   -0.46980E+08         0.37239E+07         0.00000E+00
    0.37239E+07        -0.61264E+08         0.00000E+00
    0.00000E+00         0.00000E+00        -0.45629E+08
 
   -0.46450E+08         0.51635E+07         0.00000E+00
    0.51635E+07        -0.61418E+08         0.00000E+00
    0.00000E+00         0.00000E+00        -0.45553E+08
 
   -0.45984E+08         0.67404E+07         0.00000E+00
    0.67404E+07        -0.61573E+08         0.00000E+00
    0.00000E+00         0.00000E+00        -0.45491E+08
 
   -0.45596E+08         0.84360E+07         0.00000E+00
    0.84360E+07        -0.61720E+08         0.00000E+00
    0.00000E+00         0.00000E+00        -0.45443E+08
 
   -0.55575E+08        -0.40058E+06         0.00000E+00
   -0.40058E+06        -0.60016E+08         0.00000E+00
    0.00000E+00         0.00000E+00        -0.45577E+08
 
   -0.54711E+08        -0.10550E+07         0.00000E+00
   -0.10550E+07        -0.60077E+08         0.00000E+00
    0.00000E+00         0.00000E+00        -0.45417E+08
 
   -0.53762E+08        -0.14993E+07         0.00000E+00
   -0.14993E+07        -0.60178E+08         0.00000E+00
    0.00000E+00         0.00000E+00        -0.45247E+08
 
   -0.52771E+08        -0.17270E+07         0.00000E+00
   -0.17270E+07        -0.60301E+08         0.00000E+00
    0.00000E+00         0.00000E+00        -0.45073E+08
 
   -0.51769E+08        -0.17393E+07         0.00000E+00
   -0.17393E+07        -0.60433E+08         0.00000E+00
    0.00000E+00         0.00000E+00        -0.44899E+08
 
   -0.50779E+08        -0.15428E+07         0.00000E+00
   -0.15428E+07        -0.60568E+08         0.00000E+00
    0.00000E+00         0.00000E+00        -0.44727E+08
 
   -0.49815E+08        -0.11462E+07         0.00000E+00
   -0.11462E+07        -0.60704E+08         0.00000E+00
    0.00000E+00         0.00000E+00        -0.44562E+08
 
   -0.48888E+08        -0.55858E+06         0.00000E+00
   -0.55858E+06        -0.60844E+08         0.00000E+00
    0.00000E+00         0.00000E+00        -0.44404E+08
 
   -0.48000E+08         0.21171E+06         0.00000E+00
    0.21171E+06        -0.60991E+08         0.00000E+00
    0.00000E+00         0.00000E+00        -0.44256E+08
 
   -0.47157E+08         0.11576E+07         0.00000E+00
    0.11576E+07        -0.61149E+08         0.00000E+00
    0.00000E+00         0.00000E+00        -0.44118E+08
 
   -0.46360E+08         0.22730E+07         0.00000E+00
    0.22730E+07        -0.61321E+08         0.00000E+00
    0.00000E+00         0.00000E+00        -0.43993E+08
 
   -0.45618E+08         0.35518E+07         0.00000E+00
    0.35518E+07        -0.61507E+08         0.00000E+00
    0.00000E+00         0.00000E+00        -0.43881E+08
 
   -0.44940E+08         0.49863E+07         0.00000E+00
    0.49863E+07        -0.61703E+08         0.00000E+00
    0.00000E+00         0.00000E+00        -0.43785E+08
 
   -0.44342E+08         0.65655E+07         0.00000E+00
    0.65655E+07        -0.61901E+08         0.00000E+00
    0.00000E+00         0.00000E+00        -0.43705E+08
 
   -0.43840E+08         0.82736E+07         0.00000E+00
    0.82736E+07        -0.62093E+08         0.00000E+00
    0.00000E+00         0.00000E+00        -0.43643E+08
 
   -0.56363E+08        -0.43864E+06         0.00000E+00
   -0.43864E+06        -0.60018E+08         0.00000E+00
    0.00000E+00         0.00000E+00        -0.44206E+08
 
   -0.55282E+08        -0.11472E+07         0.00000E+00
   -0.11472E+07        -0.60088E+08         0.00000E+00
    0.00000E+00         0.00000E+00        -0.44004E+08
 
   -0.54109E+08        -0.16217E+07         0.00000E+00
   -0.16217E+07        -0.60202E+08         0.00000E+00
    0.00000E+00         0.00000E+00        -0.43792E+08
 
   -0.52894E+08        -0.18627E+07         0.00000E+00
   -0.18627E+07        -0.60336E+08         0.00000E+00
    0.00000E+00         0.00000E+00        -0.43576E+08
 
   -0.51676E+08        -0.18787E+07         0.00000E+00
   -0.18787E+07        -0.60476E+08         0.00000E+00
    0.00000E+00         0.00000E+00        -0.43360E+08
 
   -0.50481E+08        -0.16827E+07         0.00000E+00
   -0.16827E+07        -0.60618E+08         0.00000E+00
    0.00000E+00         0.00000E+00        -0.43149E+08
 
   -0.49324E+08        -0.12880E+07         0.00000E+00
   -0.12880E+07        -0.60759E+08         0.00000E+00
    0.00000E+00         0.00000E+00        -0.42946E+08
 
   -0.48212E+08        -0.70688E+06         0.00000E+00
   -0.70688E+06        -0.60906E+08         0.00000E+00
    0.00000E+00         0.00000E+00        -0.42752E+08
 
   -0.47148E+08         0.51581E+05         0.00000E+00
    0.51581E+05        -0.61064E+08         0.00000E+00
    0.00000E+00         0.00000E+00        -0.42571E+08
 
   -0.46134E+08         0.98119E+06         0.00000E+00
    0.98119E+06        -0.61240E+08         0.00000E+00
    0.00000E+00         0.00000E+00        -0.42403E+08
 
   -0.45171E+08         0.20783E+07         0.00000E+00
    0.20783E+07        -0.61437E+08         0.00000E+00
    0.00000E+00         0.00000E+00        -0.42249E+08
 
   -0.44267E+08         0.33405E+07         0.00000E+00
    0.33405E+07        -0.61657E+08         0.00000E+00
    0.00000E+00         0.00000E+00        -0.42112E+08
 
   -0.43435E+08         0.47645E+07         0.00000E+00
    0.47645E+07        -0.61895E+08         0.00000E+00
    0.00000E+00         0.00000E+00        -0.41993E+08
 
   -0.42692E+08         0.63440E+07         0.00000E+00
    0.63440E+07        -0.62141E+08         0.00000E+00
    0.00000E+00         0.00000E+00        -0.41894E+08
 
   -0.42064E+08         0.80666E+07         0.00000E+00
    0.80666E+07        -0.62380E+08         0.00000E+00
    0.00000E+00         0.00000E+00        -0.41816E+08
 
   -0.57223E+08        -0.48161E+06         0.00000E+00
   -0.48161E+06        -0.60020E+08         0.00000E+00
    0.00000E+00         0.00000E+00        -0.42843E+08
 
   -0.55896E+08        -0.12489E+07         0.00000E+00
   -0.12489E+07        -0.60096E+08         0.00000E+00
    0.00000E+00         0.00000E+00        -0.42592E+08
 
   -0.54475E+08        -0.17526E+07         0.00000E+00
   -0.17526E+07        -0.60215E+08         0.00000E+00
    0.00000E+00         0.00000E+00        -0.42332E+08
 
   -0.53023E+08        -0.20031E+07         0.00000E+00
   -0.20031E+07        -0.60350E+08         0.00000E+00
    0.00000E+00         0.00000E+00        -0.42068E+08
 
   -0.51583E+08        -0.20186E+07         0.00000E+00
   -0.20186E+07        -0.60486E+08         0.00000E+00
    0.00000E+00         0.00000E+00        -0.41807E+08
 
   -0.50184E+08        -0.18203E+07         0.00000E+00
   -0.18203E+07        -0.60618E+08         0.00000E+00
    0.00000E+00         0.00000E+00        -0.41553E+08
 
   -0.48838E+08        -0.14278E+07         0.00000E+00
   -0.14278E+07        -0.60749E+08         0.00000E+00
    0.00000E+00         0.00000E+00        -0.41310E+08
 
   -0.47548E+08        -0.85647E+06         0.00000E+00
   -0.85647E+06        -0.60887E+08         0.00000E+00
    0.00000E+00         0.00000E+00        -0.41079E+08
 
   -0.46315E+08        -0.11625E+06         0.00000E+00
   -0.11625E+06        -0.61043E+08         0.00000E+00
    0.00000E+00         0.00000E+00        -0.40863E+08
 
   -0.45133E+08         0.78815E+06         0.00000E+00
    0.78815E+06        -0.61225E+08         0.00000E+00
    0.00000E+00         0.00000E+00        -0.40663E+08
 
   -0.44005E+08         0.18565E+07         0.00000E+00
    0.18565E+07        -0.61440E+08         0.00000E+00
    0.00000E+00         0.00000E+00        -0.40480E+08
 
   -0.42935E+08         0.30916E+07         0.00000E+00
    0.30916E+07        -0.61690E+08         0.00000E+00
    0.00000E+00         0.00000E+00        -0.40316E+08
 
   -0.41938E+08         0.44963E+07         0.00000E+00
    0.44963E+07        -0.61970E+08         0.00000E+00
    0.00000E+00         0.00000E+00        -0.40172E+08
 
   -0.41037E+08         0.60707E+07         0.00000E+00
    0.60707E+07        -0.62268E+08         0.00000E+00
    0.00000E+00         0.00000E+00        -0.40052E+08
 
   -0.40264E+08         0.78079E+07         0.00000E+00
    0.78079E+07        -0.62564E+08         0.00000E+00
    0.00000E+00         0.00000E+00        -0.39956E+08
 
   -0.58163E+08        -0.52809E+06         0.00000E+00
   -0.52809E+06        -0.60021E+08         0.00000E+00
    0.00000E+00         0.00000E+00        -0.41486E+08
 
   -0.56551E+08        -0.13548E+07         0.00000E+00
   -0.13548E+07        -0.60099E+08         0.00000E+00
    0.00000E+00         0.00000E+00        -0.41179E+08
 
   -0.54856E+08        -0.18823E+07         0.00000E+00
   -0.18823E+07        -0.60215E+08         0.00000E+00
    0.00000E+00         0.00000E+00        -0.40863E+08
 
   -0.53151E+08        -0.21342E+07         0.00000E+00
   -0.21342E+07        -0.60338E+08         0.00000E+00
    0.00000E+00         0.00000E+00        -0.40546E+08
 
   -0.51486E+08        -0.21421E+07         0.00000E+00
   -0.21421E+07        -0.60452E+08         0.00000E+00
    0.00000E+00         0.00000E+00        -0.40236E+08
 
   -0.49885E+08        -0.19378E+07         0.00000E+00
   -0.19378E+07        -0.60556E+08         0.00000E+00
    0.00000E+00         0.00000E+00        -0.39936E+08
 
   -0.48358E+08        -0.15479E+07         0.00000E+00
   -0.15479E+07        -0.60656E+08         0.00000E+00
    0.00000E+00         0.00000E+00        -0.39650E+08
 
   -0.46902E+08        -0.99123E+06         0.00000E+00
   -0.99123E+06        -0.60767E+08         0.00000E+00
    0.00000E+00         0.00000E+00        -0.39381E+08
 
   -0.45508E+08        -0.27813E+06         0.00000E+00
   -0.27813E+06        -0.60904E+08         0.00000E+00
    0.00000E+00         0.00000E+00        -0.39129E+08
 
   -0.44167E+08         0.58884E+06         0.00000E+00
    0.58884E+06        -0.61079E+08         0.00000E+00
    0.00000E+00         0.00000E+00        -0.38896E+08
 
   -0.42875E+08         0.16140E+07         0.00000E+00
    0.16140E+07        -0.61303E+08         0.00000E+00
    0.00000E+00         0.00000E+00        -0.38682E+08
 
   -0.41634E+08         0.28067E+07         0.00000E+00
    0.28067E+07        -0.61580E+08         0.00000E+00
    0.00000E+00         0.00000E+00        -0.38489E+08
 
   -0.40460E+08         0.41783E+07         0.00000E+00
    0.41783E+07        -0.61904E+08         0.00000E+00
    0.00000E+00         0.00000E+00        -0.38318E+08
 
   -0.39380E+08         0.57381E+07         0.00000E+00
    0.57381E+07        -0.62260E+08         0.00000E+00
    0.00000E+00         0.00000E+00        -0.38174E+08
 
   -0.38438E+08         0.74872E+07         0.00000E+00
    0.74872E+07        -0.62622E+08         0.00000E+00
    0.00000E+00         0.00000E+00        -0.38057E+08
 
   -0.59184E+08        -0.57644E+06         0.00000E+00
   -0.57644E+06        -0.60022E+08         0.00000E+00
    0.00000E+00         0.00000E+00        -0.40136E+08
 
   -0.57242E+08        -0.14582E+07         0.00000E+00
   -0.14582E+07        -0.60097E+08         0.00000E+00
    0.00000E+00         0.00000E+00        -0.39762E+08
 
   -0.55241E+08        -0.19977E+07         0.00000E+00
   -0.19977E+07        -0.60199E+08         0.00000E+00
    0.00000E+00         0.00000E+00        -0.39382E+08
 
   -0.53269E+08        -0.22379E+07         0.00000E+00
   -0.22379E+07        -0.60291E+08         0.00000E+00
    0.00000E+00         0.00000E+00        -0.39006E+08
 
   -0.51376E+08        -0.22281E+07         0.00000E+00
   -0.22281E+07        -0.60360E+08         0.00000E+00
    0.00000E+00         0.00000E+00        -0.38641E+08
 
   -0.49583E+08        -0.20133E+07         0.00000E+00
   -0.20133E+07        -0.60411E+08         0.00000E+00
    0.00000E+00         0.00000E+00        -0.38292E+08
 
   -0.47889E+08        -0.16275E+07         0.00000E+00
   -0.16275E+07        -0.60459E+08         0.00000E+00
    0.00000E+00         0.00000E+00        -0.37963E+08
 
   -0.46281E+08        -0.10926E+07         0.00000E+00
   -0.10926E+07        -0.60522E+08         0.00000E+00
    0.00000E+00         0.00000E+00        -0.37653E+08
 
   -0.44741E+08        -0.41849E+06         0.00000E+00
   -0.41849E+06        -0.60622E+08         0.00000E+00
    0.00000E+00         0.00000E+00        -0.37365E+08
 
   -0.43251E+08         0.39514E+06         0.00000E+00
    0.39514E+06        -0.60776E+08         0.00000E+00
    0.00000E+00         0.00000E+00        -0.37098E+08
 
   -0.41799E+08         0.13579E+07         0.00000E+00
    0.13579E+07        -0.60999E+08         0.00000E+00
    0.00000E+00         0.00000E+00        -0.36851E+08
 
   -0.40383E+08         0.24874E+07         0.00000E+00
    0.24874E+07        -0.61297E+08         0.00000E+00
    0.00000E+00         0.00000E+00        -0.36628E+08
 
   -0.39016E+08         0.38060E+07         0.00000E+00
    0.38060E+07        -0.61666E+08         0.00000E+00
    0.00000E+00         0.00000E+00        -0.36428E+08
 
   -0.37731E+08         0.53357E+07         0.00000E+00
    0.53357E+07        -0.62089E+08         0.00000E+00
    0.00000E+00         0.00000E+00        -0.36255E+08
 
   -0.36584E+08         0.70904E+07         0.00000E+00
    0.70904E+07        -0.62533E+08         0.00000E+00
    0.00000E+00         0.00000E+00        -0.36115E+08
 
   -0.60287E+08        -0.62476E+06         0.00000E+00
   -0.62476E+06        -0.60022E+08         0.00000E+00
    0.00000E+00         0.00000E+00        -0.38792E+08
 
   -0.57956E+08        -0.15497E+07         0.00000E+00
   -0.15497E+07        -0.60088E+08         0.00000E+00
    0.00000E+00         0.00000E+00        -0.38339E+08
 
   -0.55614E+08        -0.20809E+07         0.00000E+00
   -0.20809E+07        -0.60159E+08         0.00000E+00
    0.00000E+00         0.00000E+00        -0.37885E+08
 
   -0.53362E+08        -0.22897E+07         0.00000E+00
   -0.22897E+07        -0.60195E+08         0.00000E+00
    0.00000E+00         0.00000E+00        -0.37442E+08
 
   -0.51247E+08        -0.22498E+07         0.00000E+00
   -0.22498E+07        -0.60191E+08         0.00000E+00
    0.00000E+00         0.00000E+00        -0.37018E+08
 
   -0.49278E+08        -0.20209E+07         0.00000E+00
   -0.20209E+07        -0.60161E+08         0.00000E+00
    0.00000E+00         0.00000E+00        -0.36617E+08
 
   -0.47437E+08        -0.16436E+07         0.00000E+00
   -0.16436E+07        -0.60129E+08         0.00000E+00
    0.00000E+00         0.00000E+00        -0.36243E+08
 
   -0.45697E+08        -0.11407E+07         0.00000E+00
   -0.11407E+07        -0.60123E+08         0.00000E+00
    0.00000E+00         0.00000E+00        -0.35893E+08
 
   -0.44029E+08        -0.52074E+06         0.00000E+00
   -0.52074E+06        -0.60168E+08         0.00000E+00
    0.00000E+00         0.00000E+00        -0.35568E+08
 
   -0.42404E+08         0.22001E+06         0.00000E+00
    0.22001E+06        -0.60287E+08         0.00000E+00
    0.00000E+00         0.00000E+00        -0.35267E+08
 
   -0.40799E+08         0.10967E+07         0.00000E+00
    0.10967E+07        -0.60497E+08         0.00000E+00
    0.00000E+00         0.00000E+00        -0.34988E+08
 
   -0.39205E+08         0.21356E+07         0.00000E+00
    0.21356E+07        -0.60811E+08         0.00000E+00
    0.00000E+00         0.00000E+00        -0.34731E+08
 
   -0.37628E+08         0.33730E+07         0.00000E+00
    0.33730E+07        -0.61228E+08         0.00000E+00
    0.00000E+00         0.00000E+00        -0.34499E+08
 
   -0.36105E+08         0.48494E+07         0.00000E+00
    0.48494E+07        -0.61729E+08         0.00000E+00
    0.00000E+00         0.00000E+00        -0.34295E+08
 
   -0.34706E+08         0.65974E+07         0.00000E+00
    0.65974E+07        -0.62274E+08         0.00000E+00
    0.00000E+00         0.00000E+00        -0.34124E+08
 
   -0.61461E+08        -0.67056E+06         0.00000E+00
   -0.67056E+06        -0.60020E+08         0.00000E+00
    0.00000E+00         0.00000E+00        -0.37454E+08
 
   -0.58669E+08        -0.16155E+07         0.00000E+00
   -0.16155E+07        -0.60067E+08         0.00000E+00
    0.00000E+00         0.00000E+00        -0.36905E+08
 
   -0.55949E+08        -0.21055E+07         0.00000E+00
   -0.21055E+07        -0.60081E+08         0.00000E+00
    0.00000E+00         0.00000E+00        -0.36364E+08
 
   -0.53412E+08        -0.22569E+07         0.00000E+00
   -0.22569E+07        -0.60026E+08         0.00000E+00
    0.00000E+00         0.00000E+00        -0.35845E+08
 
   -0.51092E+08        -0.21749E+07         0.00000E+00
   -0.21749E+07        -0.59911E+08         0.00000E+00
    0.00000E+00         0.00000E+00        -0.35358E+08
 
   -0.48971E+08        -0.19328E+07         0.00000E+00
   -0.19328E+07        -0.59769E+08         0.00000E+00
    0.00000E+00         0.00000E+00        -0.34905E+08
 
   -0.47010E+08        -0.15731E+07         0.00000E+00
   -0.15731E+07        -0.59634E+08         0.00000E+00
    0.00000E+00         0.00000E+00        -0.34485E+08
 
   -0.45165E+08        -0.11167E+07         0.00000E+00
   -0.11167E+07        -0.59539E+08         0.00000E+00
    0.00000E+00         0.00000E+00        -0.34097E+08
 
   -0.43391E+08        -0.56904E+06         0.00000E+00
   -0.56904E+06        -0.59514E+08         0.00000E+00
    0.00000E+00         0.00000E+00        -0.33737E+08
 
   -0.41650E+08         0.76761E+05         0.00000E+00
    0.76761E+05        -0.59583E+08         0.00000E+00
    0.00000E+00         0.00000E+00        -0.33402E+08
 
   -0.39905E+08         0.83994E+06         0.00000E+00
    0.83994E+06        -0.59768E+08         0.00000E+00
    0.00000E+00         0.00000E+00        -0.33090E+08
 
   -0.38133E+08         0.17547E+07         0.00000E+00
    0.17547E+07        -0.60090E+08         0.00000E+00
    0.00000E+00         0.00000E+00        -0.32800E+08
 
   -0.36329E+08         0.28728E+07         0.00000E+00
    0.28728E+07        -0.60555E+08         0.00000E+00
    0.00000E+00         0.00000E+00        -0.32532E+08
 
   -0.34526E+08         0.42602E+07         0.00000E+00
    0.42602E+07        -0.61149E+08         0.00000E+00
    0.00000E+00         0.00000E+00        -0.32290E+08
 
   -0.32809E+08         0.59807E+07         0.00000E+00
    0.59807E+07        -0.61822E+08         0.00000E+00
    0.00000E+00         0.00000E+00        -0.32081E+08
 
   -0.62690E+08        -0.70999E+06         0.00000E+00
   -0.70999E+06        -0.60016E+08         0.00000E+00
    0.00000E+00         0.00000E+00        -0.36118E+08
 
   -0.59342E+08        -0.16312E+07         0.00000E+00
   -0.16312E+07        -0.60025E+08         0.00000E+00
    0.00000E+00         0.00000E+00        -0.35450E+08
 
   -0.56208E+08        -0.20296E+07         0.00000E+00
   -0.20296E+07        -0.59938E+08         0.00000E+00
    0.00000E+00         0.00000E+00        -0.34806E+08
 
   -0.53401E+08        -0.20951E+07         0.00000E+00
   -0.20951E+07        -0.59739E+08         0.00000E+00
    0.00000E+00         0.00000E+00        -0.34205E+08
 
   -0.50911E+08        -0.19672E+07         0.00000E+00
   -0.19672E+07        -0.59471E+08         0.00000E+00
    0.00000E+00         0.00000E+00        -0.33652E+08
 
   -0.48674E+08        -0.17225E+07         0.00000E+00
   -0.17225E+07        -0.59187E+08         0.00000E+00
    0.00000E+00         0.00000E+00        -0.33148E+08
 
   -0.46625E+08        -0.13974E+07         0.00000E+00
   -0.13974E+07        -0.58930E+08         0.00000E+00
    0.00000E+00         0.00000E+00        -0.32687E+08
 
   -0.44702E+08        -0.10065E+07         0.00000E+00
   -0.10065E+07        -0.58735E+08         0.00000E+00
    0.00000E+00         0.00000E+00        -0.32263E+08
 
   -0.42848E+08        -0.55115E+06         0.00000E+00
   -0.55115E+06        -0.58630E+08         0.00000E+00
    0.00000E+00         0.00000E+00        -0.31871E+08
 
   -0.41012E+08        -0.22635E+05         0.00000E+00
   -0.22635E+05        -0.58639E+08         0.00000E+00
    0.00000E+00         0.00000E+00        -0.31505E+08
 
   -0.39147E+08         0.59943E+06         0.00000E+00
    0.59943E+06        -0.58789E+08         0.00000E+00
    0.00000E+00         0.00000E+00        -0.31162E+08
 
   -0.37207E+08         0.13522E+07         0.00000E+00
    0.13522E+07        -0.59106E+08         0.00000E+00
    0.00000E+00         0.00000E+00        -0.30837E+08
 
   -0.35164E+08         0.23008E+07         0.00000E+00
    0.23008E+07        -0.59614E+08         0.00000E+00
    0.00000E+00         0.00000E+00        -0.30530E+08
 
   -0.33032E+08         0.35445E+07         0.00000E+00
    0.35445E+07        -0.60314E+08         0.00000E+00
    0.00000E+00         0.00000E+00        -0.30244E+08
 
   -0.30909E+08         0.52003E+07         0.00000E+00
    0.52003E+07        -0.61154E+08         0.00000E+00
    0.00000E+00         0.00000E+00        -0.29987E+08
 
   -0.63936E+08        -0.73438E+06         0.00000E+00
   -0.73438E+06        -0.60006E+08         0.00000E+00
    0.00000E+00         0.00000E+00        -0.34777E+08
 
   -0.59903E+08        -0.15472E+07         0.00000E+00
   -0.15472E+07        -0.59932E+08         0.00000E+00
    0.00000E+00         0.00000E+00        -0.33956E+08
 
   -0.56350E+08        -0.17851E+07         0.00000E+00
   -0.17851E+07        -0.59662E+08         0.00000E+00
    0.00000E+00         0.00000E+00        -0.33191E+08
 
   -0.53325E+08        -0.17510E+07         0.00000E+00
   -0.17510E+07        -0.59250E+08         0.00000E+00
    0.00000E+00         0.00000E+00        -0.32503E+08
 
   -0.50716E+08        -0.15952E+07         0.00000E+00
   -0.15952E+07        -0.58791E+08         0.00000E+00
    0.00000E+00         0.00000E+00        -0.31890E+08
 
   -0.48407E+08        -0.13738E+07         0.00000E+00
   -0.13738E+07        -0.58351E+08         0.00000E+00
    0.00000E+00         0.00000E+00        -0.31340E+08
 
   -0.46303E+08        -0.11084E+07         0.00000E+00
   -0.11084E+07        -0.57969E+08         0.00000E+00
    0.00000E+00         0.00000E+00        -0.30842E+08
 
   -0.44329E+08        -0.80517E+06         0.00000E+00
   -0.80517E+06        -0.57674E+08         0.00000E+00
    0.00000E+00         0.00000E+00        -0.30389E+08
 
   -0.42420E+08        -0.46215E+06         0.00000E+00
   -0.46215E+06        -0.57490E+08         0.00000E+00
    0.00000E+00         0.00000E+00        -0.29970E+08
 
   -0.40515E+08        -0.70549E+05         0.00000E+00
   -0.70549E+05        -0.57439E+08         0.00000E+00
    0.00000E+00         0.00000E+00        -0.29578E+08
 
   -0.38555E+08         0.38716E+06         0.00000E+00
    0.38716E+06        -0.57546E+08         0.00000E+00
    0.00000E+00         0.00000E+00        -0.29207E+08
 
   -0.36473E+08         0.94355E+06         0.00000E+00
    0.94355E+06        -0.57844E+08         0.00000E+00
    0.00000E+00         0.00000E+00        -0.28851E+08
 
   -0.34198E+08         0.16619E+07         0.00000E+00
    0.16619E+07        -0.58375E+08         0.00000E+00
    0.00000E+00         0.00000E+00        -0.28502E+08
 
   -0.31691E+08         0.26763E+07         0.00000E+00
    0.26763E+07        -0.59184E+08         0.00000E+00
    0.00000E+00         0.00000E+00        -0.28162E+08
 
   -0.29032E+08         0.41969E+07         0.00000E+00
    0.41969E+07        -0.60239E+08         0.00000E+00
    0.00000E+00         0.00000E+00        -0.27841E+08
 
   -0.65108E+08        -0.71336E+06         0.00000E+00
   -0.71336E+06        -0.59972E+08         0.00000E+00
    0.00000E+00         0.00000E+00        -0.33412E+08
 
   -0.60247E+08        -0.12446E+07         0.00000E+00
   -0.12446E+07        -0.59681E+08         0.00000E+00
    0.00000E+00         0.00000E+00        -0.32381E+08
 
   -0.56357E+08        -0.12765E+07         0.00000E+00
   -0.12765E+07        -0.59088E+08         0.00000E+00
    0.00000E+00         0.00000E+00        -0.31485E+08
 
   -0.53211E+08        -0.11856E+07         0.00000E+00
   -0.11856E+07        -0.58417E+08         0.00000E+00
    0.00000E+00         0.00000E+00        -0.30721E+08
 
   -0.50544E+08        -0.10502E+07         0.00000E+00
   -0.10502E+07        -0.57768E+08         0.00000E+00
    0.00000E+00         0.00000E+00        -0.30058E+08
 
   -0.48200E+08        -0.89130E+06         0.00000E+00
   -0.89130E+06        -0.57187E+08         0.00000E+00
    0.00000E+00         0.00000E+00        -0.29473E+08
 
   -0.46068E+08        -0.71512E+06         0.00000E+00
   -0.71512E+06        -0.56700E+08         0.00000E+00
    0.00000E+00         0.00000E+00        -0.28949E+08
 
   -0.44066E+08        -0.52182E+06         0.00000E+00
   -0.52182E+06        -0.56323E+08         0.00000E+00
    0.00000E+00         0.00000E+00        -0.28473E+08
 
   -0.42124E+08        -0.30824E+06         0.00000E+00
   -0.30824E+06        -0.56075E+08         0.00000E+00
    0.00000E+00         0.00000E+00        -0.28035E+08
 
   -0.40175E+08        -0.67869E+05         0.00000E+00
   -0.67869E+05        -0.55972E+08         0.00000E+00
    0.00000E+00         0.00000E+00        -0.27624E+08
 
   -0.38151E+08         0.21075E+06         0.00000E+00
    0.21075E+06        -0.56039E+08         0.00000E+00
    0.00000E+00         0.00000E+00        -0.27233E+08
 
   -0.35969E+08         0.54883E+06         0.00000E+00
    0.54883E+06        -0.56308E+08         0.00000E+00
    0.00000E+00         0.00000E+00        -0.26850E+08
 
   -0.33516E+08         0.98975E+06         0.00000E+00
    0.98975E+06        -0.56832E+08         0.00000E+00
    0.00000E+00         0.00000E+00        -0.26464E+08
 
   -0.30622E+08         0.16431E+07         0.00000E+00
    0.16431E+07        -0.57702E+08         0.00000E+00
    0.00000E+00         0.00000E+00        -0.26059E+08
 
   -0.27246E+08         0.28707E+07         0.00000E+00
    0.28707E+07        -0.59041E+08         0.00000E+00
    0.00000E+00         0.00000E+00        -0.25652E+08
 
   -0.65956E+08        -0.44819E+06         0.00000E+00
   -0.44819E+06        -0.59675E+08         0.00000E+00
    0.00000E+00         0.00000E+00        -0.31925E+08
 
   -0.60299E+08        -0.51401E+06         0.00000E+00
   -0.51401E+06        -0.58853E+08         0.00000E+00
    0.00000E+00         0.00000E+00        -0.30629E+08
 
   -0.56307E+08        -0.47169E+06         0.00000E+00
   -0.47169E+06        -0.57931E+08         0.00000E+00
    0.00000E+00         0.00000E+00        -0.29647E+08
 
   -0.53123E+08        -0.42251E+06         0.00000E+00
   -0.42251E+06        -0.57066E+08         0.00000E+00
    0.00000E+00         0.00000E+00        -0.28837E+08
 
   -0.50440E+08        -0.36775E+06         0.00000E+00
   -0.36775E+06        -0.56293E+08         0.00000E+00
    0.00000E+00         0.00000E+00        -0.28146E+08
 
   -0.48085E+08        -0.30942E+06         0.00000E+00
   -0.30942E+06        -0.55628E+08         0.00000E+00
    0.00000E+00         0.00000E+00        -0.27541E+08
 
   -0.45943E+08        -0.24740E+06         0.00000E+00
   -0.24740E+06        -0.55079E+08         0.00000E+00
    0.00000E+00         0.00000E+00        -0.27003E+08
 
   -0.43929E+08        -0.18086E+06         0.00000E+00
   -0.18086E+06        -0.54656E+08         0.00000E+00
    0.00000E+00         0.00000E+00        -0.26516E+08
 
   -0.41972E+08        -0.10830E+06         0.00000E+00
   -0.10830E+06        -0.54371E+08         0.00000E+00
    0.00000E+00         0.00000E+00        -0.26067E+08
 
   -0.40003E+08        -0.27329E+05         0.00000E+00
   -0.27329E+05        -0.54239E+08         0.00000E+00
    0.00000E+00         0.00000E+00        -0.25647E+08
 
   -0.37948E+08         0.65992E+05         0.00000E+00
    0.65992E+05        -0.54280E+08         0.00000E+00
    0.00000E+00         0.00000E+00        -0.25244E+08
 
   -0.35714E+08         0.17872E+06         0.00000E+00
    0.17872E+06        -0.54527E+08         0.00000E+00
    0.00000E+00         0.00000E+00        -0.24847E+08
 
   -0.33166E+08         0.32610E+06         0.00000E+00
    0.32610E+06        -0.55032E+08         0.00000E+00
    0.00000E+00         0.00000E+00        -0.24438E+08
 
   -0.30061E+08         0.54274E+06         0.00000E+00
    0.54274E+06        -0.55901E+08         0.00000E+00
    0.00000E+00         0.00000E+00        -0.23991E+08
 
   -0.25714E+08         0.10555E+07         0.00000E+00
    0.10555E+07        -0.57423E+08         0.00000E+00
    0.00000E+00         0.00000E+00        -0.23426E+08
 
SCALARS stressS double 
LOOKUP_TABLE default
  -55266657.8684009     
  -56699802.3642617     
  -58818037.1719530     
  -61146867.0076863     
  -63328101.1737440     
  -65148395.4195888     
  -66539682.5626787     
  -67713515.4448729     
  -68747121.2415290     
  -69687457.2404965     
  -70569712.7087498     
  -71427053.9771371     
  -72299565.3364541     
  -73248888.4456596     
  -74449772.6338924     
  -57139838.2237521     
  -58325820.5191602     
  -59806663.7902486     
  -61223578.2972585     
  -62607039.3286072     
  -64008301.3303134     
  -65279059.6080897     
  -66387982.1973915     
  -67380041.5541577     
  -68287905.4709434     
  -69139495.5074847     
  -69961297.4426044     
  -70781434.5130050     
  -71637358.1203724     
  -72492650.7652114     
  -57891725.7819198     
  -58987019.1522343     
  -59853412.8340057     
  -60814338.7668041     
  -61950322.7629045     
  -63088215.3291511     
  -64176913.8335746     
  -65181447.4154131     
  -66100331.7448965     
  -66949282.8918913     
  -67745139.2797971     
  -68504053.3388409     
  -69240205.8544880     
  -69951742.7033194     
  -70617930.1841557     
  -57755266.6791210     
  -58567281.6730325     
  -59445283.6238369     
  -60346043.2626162     
  -61286637.0645983     
  -62248282.5337733     
  -63183726.9422227     
  -64070440.3103334     
  -64899243.5674510     
  -65672035.3258271     
  -66395668.8360276     
  -67076873.6947490     
  -67717589.9125313     
  -68311230.3532906     
  -68837873.9786592     
  -57414863.8005898     
  -58211878.6763460     
  -59000138.9102446     
  -59807602.5934371     
  -60628026.3610556     
  -61450632.2941670     
  -62258159.2498148     
  -63033307.9374729     
  -63766850.8868644     
  -64455432.4156883     
  -65099072.8748796     
  -65697821.5338783     
  -66248704.6601294     
  -66743003.9172701     
  -67165210.3216010     
  -57138121.0199186     
  -57849122.4628396     
  -58554643.3062717     
  -59263167.9180347     
  -59976027.1783215     
  -60685766.9573569     
  -61382058.3062858     
  -62054496.8836982     
  -62694831.2042949     
  -63297885.6443763     
  -63860258.0811147     
  -64378541.7917260     
  -64847442.3541807     
  -65258407.1256544     
  -65599094.6831680     
  -56898333.0263685     
  -57506147.2032937     
  -58115975.1029434     
  -58728474.4323874     
  -59341590.0470763     
  -59950295.3432535     
  -60547350.9818823     
  -61125162.8691146     
  -61676943.6393502     
  -62197096.7210798     
  -62680857.0318466     
  -63123352.6871643     
  -63518612.1933242     
  -63858836.9794972     
  -64134235.9598824     
  -56675821.0546020     
  -57178117.3849299     
  -57690675.8941559     
  -58208762.6212916     
  -58728135.0107947     
  -59243718.1003945     
  -59749666.7453521     
  -60239859.4048708     
  -60708449.0988147     
  -61150070.4090915     
  -61559663.5312001     
  -61932038.9257664     
  -62261373.7245500     
  -62540872.4615873     
  -62762749.3281678     
  -56455730.4308141     
  -56858769.1083084     
  -57277603.3232755     
  -57705240.2902844     
  -58136022.7726167     
  -58564670.4815934     
  -58985891.5503920     
  -59394412.3374116     
  -59785108.5447818     
  -60153062.5341116     
  -60493465.0143922     
  -60801397.4825823     
  -61071596.9925516     
  -61298317.9594425     
  -61475386.2218297     
  -56229657.6688611     
  -56542553.8015021     
  -56874030.8484581     
  -57216504.0972480     
  -57563907.3056212     
  -57910977.3864167     
  -58252845.7583515     
  -58584863.8365040     
  -58902551.9430591     
  -59201560.4421907     
  -59477591.9658064     
  -59726287.6693435     
  -59943121.6075555     
  -60123362.3836248     
  -60262150.8355585     
  -55993504.8655275     
  -56225895.4814656     
  -56477211.6725034     
  -56740322.9445197     
  -57009478.2303246     
  -57279810.7812793     
  -57546985.7974420     
  -57806987.4335909     
  -58055997.8170000     
  -58290317.9469883     
  -58506297.5702504     
  -58700269.3318962     
  -58868504.4646780     
  -59007217.2885725     
  -59112642.1520404     
  -55746256.8647772     
  -55907010.1408878     
  -56085065.0892961     
  -56274377.9358534     
  -56470032.7820121     
  -56667901.8606696     
  -56864374.4068331     
  -57056163.8843042     
  -57240180.1415986     
  -57413443.9747641     
  -57573026.8498400     
  -57716009.9319638     
  -57839467.7700409     
  -57940487.6957287     
  -58016234.6339753     
  -55489057.6947672     
  -55585584.4503372     
  -55696280.5820813     
  -55816584.9486734     
  -55942773.2151493     
  -56071729.8689803     
  -56200752.4083040     
  -56327400.6178678     
  -56449389.6366701     
  -56564518.2773218     
  -56670623.6231112     
  -56765557.0332132     
  -56847181.6068290     
  -56913394.1359131     
  -56962174.1808837     
  -55224567.4547731     
  -55262424.6920885     
  -55310237.3193414     
  -55365175.3133707     
  -55424945.7838655     
  -55487645.4012910     
  -55551628.8003062     
  -55615404.3249380     
  -55677559.8334605     
  -55736715.4739525     
  -55791498.2470378     
  -55840533.8893213     
  -55882453.5417059     
  -55915914.2109691     
  -55939632.2591802     
  -54956485.3389811     
  -54939144.2191974     
  -54926853.0245411     
  -54918666.9249145     
  -54913880.2026243     
  -54911937.4020166     
  -54912354.8626741     
  -54914661.7096075     
  -54918363.1450579     
  -54922924.0859169     
  -54927768.5751008     
  -54932289.8164817     
  -54935866.3877115     
  -54937881.3068979     
  -54937741.5283698     
  -54689179.7902374     
  -54617889.9993452     
  -54546412.9963933     
  -54475780.9626117     
  -54406970.1595399     
  -54340854.7847882     
  -54278172.5501565     
  -54219508.7812025     
  -54165300.1590407     
  -54115854.6580193     
  -54071381.4611408     
  -54032023.7006954     
  -53997887.3816586     
  -53969061.2398629     
  -53945624.0730060     
  -54427386.3823562     
  -54301099.4865690     
  -54169392.9895334     
  -54035328.0858461     
  -53901613.9508912     
  -53770591.2869170     
  -53644235.1332050     
  -53524181.4923467     
  -53411775.7625822     
  -53308135.9668677     
  -53214220.8964859     
  -53130892.5209258     
  -53058962.9841497     
  -52999218.7155637     
  -52952417.1605722     
  -54175949.1938033     
  -53991275.6672808     
  -53796275.4600657     
  -53596069.8163918     
  -53395121.6555523     
  -53197236.8435860     
  -53005599.9000590     
  -52822845.8760324     
  -52651161.3954999     
  -52492401.9139060     
  -52348209.4109183     
  -52220114.6133970     
  -52109609.8161798     
  -52018181.8727922     
  -51947299.4861146     
  -53939589.9944405     
  -53690767.7460387     
  -53427350.9110204     
  -53156550.4869590     
  -52884586.3179529     
  -52616693.9026530     
  -52357192.0095022     
  -52109608.0720699     
  -51876846.0801462     
  -51661374.7049389     
  -51465411.2168423     
  -51291078.0124852     
  -51140512.0999284     
  -51015913.0784799     
  -50919521.7448352     
  -53722694.6124737     
  -53401543.5441137     
  -53062489.8194372     
  -52714886.8612262     
  -52366709.2816230     
  -52024552.4897557     
  -51693737.1456544     
  -51378505.7236804     
  -51082281.4630355     
  -50807953.0444228     
  -50558148.6347993     
  -50335466.9426984     
  -50142638.4024770     
  -49982596.4899396     
  -49858448.0554280     
  -53529108.1023182     
  -53124935.3453629     
  -52700862.0494252     
  -52268492.9850516     
  -51837562.0506223     
  -51415913.2658958     
  -51009659.2967183     
  -50623483.3859435     
  -50261028.8800311     
  -49925317.8374702     
  -49619147.7457529     
  -49345424.2849825     
  -49107395.2159440     
  -48908757.2225313     
  -48753618.5431406     
  -53361929.3485745     
  -52861330.5745210     
  -52340565.7715963     
  -51813703.8125420     
  -51292257.4590949     
  -50785143.5021689     
  -50298939.7772281     
  -49838356.8003260     
  -49406819.9449996     
  -49007072.4885818     
  -48641735.0854241     
  -48313774.9729127     
  -48026842.3852420     
  -47785433.5091917     
  -47594847.8690213     
  -53223289.1552601     
  -52609756.0656157     
  -51978100.1671605     
  -51345238.7005667     
  -50724491.0844926     
  -50125548.6946979     
  -49554936.7521769     
  -49016775.2695620     
  -48513646.3267383     
  -48047439.5405935     
  -47620114.4800470     
  -47234345.5090152     
  -46894007.5029381     
  -46604433.3658093     
  -46372379.8163898     
  -53114076.8660018     
  -52367255.8628391     
  -51607562.2623587     
  -50855409.7472528     
  -50125902.3327057     
  -49428948.5735936     
  -48770175.8638581     
  -48152199.4633202     
  -47575897.1375664     
  -47041537.8943784     
  -46549759.5924528     
  -46102430.7593418     
  -45703356.5098023     
  -45358726.2633691     
  -45077124.9406682     
  -53033534.3791834     
  -52127849.6686614     
  -51219341.2658797     
  -50332924.4240480     
  -49485206.0435382     
  -48685177.0797833     
  -47936151.3449520     
  -47237923.9028210     
  -46588559.7887700     
  -45985754.2002164     
  -45427962.8280047     
  -44915477.8343472     
  -44451522.0840379     
  -44043055.2218921     
  -43701024.7224668     
  -52978495.9596321     
  -51880593.8417062     
  -50797855.3309567     
  -49761067.7996775     
  -48787107.5575847     
  -47881613.7625601     
  -47043237.8257947     
  -46267186.6047480     
  -45547472.9688423     
  -44878195.5682595     
  -44254544.0256416     
  -43674110.7642151     
  -43138450.0419526     
  -42654970.0227023     
  -42237606.6994932     
  -52941713.2552864     
  -51605462.4501599     
  -50317441.0274691     
  -49115083.1950153     
  -48011257.1717988     
  -47003081.7973511     
  -46080873.5257974     
  -45233412.6349179     
  -44449588.4865447     
  -43719060.0870474     
  -43032717.3300785     
  -42383508.5657964     
  -41769465.6169621     
  -41196583.6871972     
  -40682999.4441982     
  -52906584.5641456     
  -51263779.8628050     
  -49734663.2564394     
  -48359208.4772081     
  -47132495.1927745     
  -46032551.4338939     
  -45038215.6516149     
  -44130621.3985741     
  -43293137.4283459     
  -42510727.9038436     
  -41769337.1841127     
  -41055763.6138633     
  -40358211.3981193     
  -39679047.9134442     
  -39037393.5050807     
  -52830684.9311561     
  -50770108.5031146     
  -48976426.3674417     
  -47449447.6032634     
  -46123334.9841394     
  -44953147.1350362     
  -43905343.6126293     
  -42953979.0046348     
  -42077623.6899975     
  -41257212.2546250     
  -40474224.0385526     
  -39708686.1168305     
  -38937435.1309129     
  -38127652.0695540     
  -37313030.9662630     
  -52519091.3819557     
  -49927231.0091120     
  -47961525.2744163     
  -46342119.6435575     
  -44959810.5968183     
  -43751237.4427766     
  -42674871.5970927     
  -41700407.9353174     
  -40803603.1164546     
  -39963047.2040686     
  -39157490.2577479     
  -38362654.2372158     
  -37545318.8693857     
  -36651013.9830261     
  -35521037.3142329     
SCALARS 2waySource double 
LOOKUP_TABLE default
  0.000000000000000E+000
  0.000000000000000E+000
  0.000000000000000E+000
  0.000000000000000E+000
  0.000000000000000E+000
  0.000000000000000E+000
  0.000000000000000E+000
  0.000000000000000E+000
  0.000000000000000E+000
  0.000000000000000E+000
  0.000000000000000E+000
  0.000000000000000E+000
  0.000000000000000E+000
  0.000000000000000E+000
  0.000000000000000E+000
  0.000000000000000E+000
  0.000000000000000E+000
  0.000000000000000E+000
  0.000000000000000E+000
  0.000000000000000E+000
  0.000000000000000E+000
  0.000000000000000E+000
  0.000000000000000E+000
  0.000000000000000E+000
  0.000000000000000E+000
  0.000000000000000E+000
  0.000000000000000E+000
  0.000000000000000E+000
  0.000000000000000E+000
  0.000000000000000E+000
  0.000000000000000E+000
  0.000000000000000E+000
  0.000000000000000E+000
  0.000000000000000E+000
  0.000000000000000E+000
  0.000000000000000E+000
  0.000000000000000E+000
  0.000000000000000E+000
  0.000000000000000E+000
  0.000000000000000E+000
  0.000000000000000E+000
  0.000000000000000E+000
  0.000000000000000E+000
  0.000000000000000E+000
  0.000000000000000E+000
  0.000000000000000E+000
  0.000000000000000E+000
  0.000000000000000E+000
  0.000000000000000E+000
  0.000000000000000E+000
  0.000000000000000E+000
  0.000000000000000E+000
  0.000000000000000E+000
  0.000000000000000E+000
  0.000000000000000E+000
  0.000000000000000E+000
  0.000000000000000E+000
  0.000000000000000E+000
  0.000000000000000E+000
  0.000000000000000E+000
  0.000000000000000E+000
  0.000000000000000E+000
  0.000000000000000E+000
  0.000000000000000E+000
  0.000000000000000E+000
  0.000000000000000E+000
  0.000000000000000E+000
  0.000000000000000E+000
  0.000000000000000E+000
  0.000000000000000E+000
  0.000000000000000E+000
  0.000000000000000E+000
  0.000000000000000E+000
  0.000000000000000E+000
  0.000000000000000E+000
  0.000000000000000E+000
  0.000000000000000E+000
  0.000000000000000E+000
  0.000000000000000E+000
  0.000000000000000E+000
  0.000000000000000E+000
  0.000000000000000E+000
  0.000000000000000E+000
  0.000000000000000E+000
  0.000000000000000E+000
  0.000000000000000E+000
  0.000000000000000E+000
  0.000000000000000E+000
  0.000000000000000E+000
  0.000000000000000E+000
  0.000000000000000E+000
  0.000000000000000E+000
  0.000000000000000E+000
  0.000000000000000E+000
  0.000000000000000E+000
  0.000000000000000E+000
  0.000000000000000E+000
  0.000000000000000E+000
  0.000000000000000E+000
  0.000000000000000E+000
  0.000000000000000E+000
  0.000000000000000E+000
  0.000000000000000E+000
  0.000000000000000E+000
  0.000000000000000E+000
  0.000000000000000E+000
  0.000000000000000E+000
  0.000000000000000E+000
  0.000000000000000E+000
  0.000000000000000E+000
  0.000000000000000E+000
  0.000000000000000E+000
  0.000000000000000E+000
  0.000000000000000E+000
  0.000000000000000E+000
  0.000000000000000E+000
  0.000000000000000E+000
  0.000000000000000E+000
  0.000000000000000E+000
  0.000000000000000E+000
  0.000000000000000E+000
  0.000000000000000E+000
  0.000000000000000E+000
  0.000000000000000E+000
  0.000000000000000E+000
  0.000000000000000E+000
  0.000000000000000E+000
  0.000000000000000E+000
  0.000000000000000E+000
  0.000000000000000E+000
  0.000000000000000E+000
  0.000000000000000E+000
  0.000000000000000E+000
  0.000000000000000E+000
  0.000000000000000E+000
  0.000000000000000E+000
  0.000000000000000E+000
  0.000000000000000E+000
  0.000000000000000E+000
  0.000000000000000E+000
  0.000000000000000E+000
  0.000000000000000E+000
  0.000000000000000E+000
  0.000000000000000E+000
  0.000000000000000E+000
  0.000000000000000E+000
  0.000000000000000E+000
  0.000000000000000E+000
  0.000000000000000E+000
  0.000000000000000E+000
  0.000000000000000E+000
  0.000000000000000E+000
  0.000000000000000E+000
  0.000000000000000E+000
  0.000000000000000E+000
  0.000000000000000E+000
  0.000000000000000E+000
  0.000000000000000E+000
  0.000000000000000E+000
  0.000000000000000E+000
  0.000000000000000E+000
  0.000000000000000E+000
  0.000000000000000E+000
  0.000000000000000E+000
  0.000000000000000E+000
  0.000000000000000E+000
  0.000000000000000E+000
  0.000000000000000E+000
  0.000000000000000E+000
  0.000000000000000E+000
  0.000000000000000E+000
  0.000000000000000E+000
  0.000000000000000E+000
  0.000000000000000E+000
  0.000000000000000E+000
  0.000000000000000E+000
  0.000000000000000E+000
  0.000000000000000E+000
  0.000000000000000E+000
  0.000000000000000E+000
  0.000000000000000E+000
  0.000000000000000E+000
  0.000000000000000E+000
  0.000000000000000E+000
  0.000000000000000E+000
  0.000000000000000E+000
  0.000000000000000E+000
  0.000000000000000E+000
  0.000000000000000E+000
  0.000000000000000E+000
  0.000000000000000E+000
  0.000000000000000E+000
  0.000000000000000E+000
  0.000000000000000E+000
  0.000000000000000E+000
  0.000000000000000E+000
  0.000000000000000E+000
  0.000000000000000E+000
  0.000000000000000E+000
  0.000000000000000E+000
  0.000000000000000E+000
  0.000000000000000E+000
  0.000000000000000E+000
  0.000000000000000E+000
  0.000000000000000E+000
  0.000000000000000E+000
  0.000000000000000E+000
  0.000000000000000E+000
  0.000000000000000E+000
  0.000000000000000E+000
  0.000000000000000E+000
  0.000000000000000E+000
  0.000000000000000E+000
  0.000000000000000E+000
  0.000000000000000E+000
  0.000000000000000E+000
  0.000000000000000E+000
  0.000000000000000E+000
  0.000000000000000E+000
  0.000000000000000E+000
  0.000000000000000E+000
  0.000000000000000E+000
  0.000000000000000E+000
  0.000000000000000E+000
  0.000000000000000E+000
  0.000000000000000E+000
  0.000000000000000E+000
  0.000000000000000E+000
  0.000000000000000E+000
  0.000000000000000E+000
  0.000000000000000E+000
  0.000000000000000E+000
  0.000000000000000E+000
  0.000000000000000E+000
  0.000000000000000E+000
  0.000000000000000E+000
  0.000000000000000E+000
  0.000000000000000E+000
  0.000000000000000E+000
  0.000000000000000E+000
  0.000000000000000E+000
  0.000000000000000E+000
  0.000000000000000E+000
  0.000000000000000E+000
  0.000000000000000E+000
  0.000000000000000E+000
  0.000000000000000E+000
  0.000000000000000E+000
  0.000000000000000E+000
  0.000000000000000E+000
  0.000000000000000E+000
  0.000000000000000E+000
  0.000000000000000E+000
  0.000000000000000E+000
  0.000000000000000E+000
  0.000000000000000E+000
  0.000000000000000E+000
  0.000000000000000E+000
  0.000000000000000E+000
  0.000000000000000E+000
  0.000000000000000E+000
  0.000000000000000E+000
  0.000000000000000E+000
  0.000000000000000E+000
  0.000000000000000E+000
  0.000000000000000E+000
  0.000000000000000E+000
  0.000000000000000E+000
  0.000000000000000E+000
  0.000000000000000E+000
  0.000000000000000E+000
  0.000000000000000E+000
  0.000000000000000E+000
  0.000000000000000E+000
  0.000000000000000E+000
  0.000000000000000E+000
  0.000000000000000E+000
  0.000000000000000E+000
  0.000000000000000E+000
  0.000000000000000E+000
  0.000000000000000E+000
  0.000000000000000E+000
  0.000000000000000E+000
  0.000000000000000E+000
  0.000000000000000E+000
  0.000000000000000E+000
  0.000000000000000E+000
  0.000000000000000E+000
  0.000000000000000E+000
  0.000000000000000E+000
  0.000000000000000E+000
  0.000000000000000E+000
  0.000000000000000E+000
  0.000000000000000E+000
  0.000000000000000E+000
  0.000000000000000E+000
  0.000000000000000E+000
  0.000000000000000E+000
  0.000000000000000E+000
  0.000000000000000E+000
  0.000000000000000E+000
  0.000000000000000E+000
  0.000000000000000E+000
  0.000000000000000E+000
  0.000000000000000E+000
  0.000000000000000E+000
  0.000000000000000E+000
  0.000000000000000E+000
  0.000000000000000E+000
  0.000000000000000E+000
  0.000000000000000E+000
  0.000000000000000E+000
  0.000000000000000E+000
  0.000000000000000E+000
  0.000000000000000E+000
  0.000000000000000E+000
  0.000000000000000E+000
  0.000000000000000E+000
  0.000000000000000E+000
  0.000000000000000E+000
  0.000000000000000E+000
  0.000000000000000E+000
  0.000000000000000E+000
  0.000000000000000E+000
  0.000000000000000E+000
  0.000000000000000E+000
  0.000000000000000E+000
  0.000000000000000E+000
  0.000000000000000E+000
  0.000000000000000E+000
  0.000000000000000E+000
  0.000000000000000E+000
  0.000000000000000E+000
  0.000000000000000E+000
  0.000000000000000E+000
  0.000000000000000E+000
  0.000000000000000E+000
  0.000000000000000E+000
  0.000000000000000E+000
  0.000000000000000E+000
  0.000000000000000E+000
  0.000000000000000E+000
  0.000000000000000E+000
  0.000000000000000E+000
  0.000000000000000E+000
  0.000000000000000E+000
  0.000000000000000E+000
  0.000000000000000E+000
  0.000000000000000E+000
  0.000000000000000E+000
  0.000000000000000E+000
  0.000000000000000E+000
  0.000000000000000E+000
  0.000000000000000E+000
  0.000000000000000E+000
  0.000000000000000E+000
  0.000000000000000E+000
  0.000000000000000E+000
  0.000000000000000E+000
  0.000000000000000E+000
  0.000000000000000E+000
  0.000000000000000E+000
  0.000000000000000E+000
  0.000000000000000E+000
  0.000000000000000E+000
  0.000000000000000E+000
  0.000000000000000E+000
  0.000000000000000E+000
  0.000000000000000E+000
  0.000000000000000E+000
  0.000000000000000E+000
  0.000000000000000E+000
  0.000000000000000E+000
  0.000000000000000E+000
  0.000000000000000E+000
  0.000000000000000E+000
  0.000000000000000E+000
  0.000000000000000E+000
  0.000000000000000E+000
  0.000000000000000E+000
  0.000000000000000E+000
  0.000000000000000E+000
  0.000000000000000E+000
  0.000000000000000E+000
  0.000000000000000E+000
  0.000000000000000E+000
  0.000000000000000E+000
  0.000000000000000E+000
  0.000000000000000E+000
  0.000000000000000E+000
  0.000000000000000E+000
  0.000000000000000E+000
  0.000000000000000E+000
  0.000000000000000E+000
  0.000000000000000E+000
  0.000000000000000E+000
  0.000000000000000E+000
  0.000000000000000E+000
  0.000000000000000E+000
  0.000000000000000E+000
  0.000000000000000E+000
  0.000000000000000E+000
  0.000000000000000E+000
  0.000000000000000E+000
  0.000000000000000E+000
  0.000000000000000E+000
  0.000000000000000E+000
  0.000000000000000E+000
  0.000000000000000E+000
  0.000000000000000E+000
  0.000000000000000E+000
  0.000000000000000E+000
  0.000000000000000E+000
  0.000000000000000E+000
  0.000000000000000E+000
  0.000000000000000E+000
  0.000000000000000E+000
  0.000000000000000E+000
  0.000000000000000E+000
  0.000000000000000E+000
  0.000000000000000E+000
  0.000000000000000E+000
  0.000000000000000E+000
  0.000000000000000E+000
  0.000000000000000E+000
  0.000000000000000E+000
  0.000000000000000E+000
  0.000000000000000E+000
  0.000000000000000E+000
  0.000000000000000E+000
  0.000000000000000E+000
  0.000000000000000E+000
  0.000000000000000E+000
  0.000000000000000E+000
  0.000000000000000E+000
  0.000000000000000E+000
  0.000000000000000E+000
  0.000000000000000E+000
  0.000000000000000E+000
  0.000000000000000E+000
  0.000000000000000E+000
  0.000000000000000E+000
  0.000000000000000E+000
  0.000000000000000E+000
  0.000000000000000E+000
  0.000000000000000E+000
  0.000000000000000E+000
  0.000000000000000E+000
  0.000000000000000E+000
  0.000000000000000E+000
SCALARS poroP double 
LOOKUP_TABLE default
  4.324036093766150E-005
  2.758120039050942E-005
  1.528233820764875E-005
  5.475861794800918E-006
  5.867370411388486E-008
  0.000000000000000E+000
  0.000000000000000E+000
  0.000000000000000E+000
  0.000000000000000E+000
  0.000000000000000E+000
  0.000000000000000E+000
  0.000000000000000E+000
  0.000000000000000E+000
  0.000000000000000E+000
  0.000000000000000E+000
  1.934727938973344E-005
  1.063125797225384E-005
  3.076465930802367E-006
  0.000000000000000E+000
  0.000000000000000E+000
  0.000000000000000E+000
  0.000000000000000E+000
  0.000000000000000E+000
  0.000000000000000E+000
  0.000000000000000E+000
  0.000000000000000E+000
  0.000000000000000E+000
  0.000000000000000E+000
  0.000000000000000E+000
  0.000000000000000E+000
  3.969127231079569E-006
  4.124663750224891E-008
  0.000000000000000E+000
  0.000000000000000E+000
  0.000000000000000E+000
  0.000000000000000E+000
  0.000000000000000E+000
  0.000000000000000E+000
  0.000000000000000E+000
  0.000000000000000E+000
  0.000000000000000E+000
  0.000000000000000E+000
  0.000000000000000E+000
  0.000000000000000E+000
  0.000000000000000E+000
  0.000000000000000E+000
  0.000000000000000E+000
  0.000000000000000E+000
  0.000000000000000E+000
  0.000000000000000E+000
  0.000000000000000E+000
  0.000000000000000E+000
  0.000000000000000E+000
  0.000000000000000E+000
  0.000000000000000E+000
  0.000000000000000E+000
  0.000000000000000E+000
  0.000000000000000E+000
  0.000000000000000E+000
  0.000000000000000E+000
  0.000000000000000E+000
  0.000000000000000E+000
  0.000000000000000E+000
  0.000000000000000E+000
  0.000000000000000E+000
  0.000000000000000E+000
  0.000000000000000E+000
  0.000000000000000E+000
  0.000000000000000E+000
  0.000000000000000E+000
  0.000000000000000E+000
  0.000000000000000E+000
  0.000000000000000E+000
  0.000000000000000E+000
  0.000000000000000E+000
  0.000000000000000E+000
  0.000000000000000E+000
  0.000000000000000E+000
  0.000000000000000E+000
  0.000000000000000E+000
  0.000000000000000E+000
  0.000000000000000E+000
  0.000000000000000E+000
  0.000000000000000E+000
  0.000000000000000E+000
  0.000000000000000E+000
  0.000000000000000E+000
  0.000000000000000E+000
  0.000000000000000E+000
  0.000000000000000E+000
  0.000000000000000E+000
  0.000000000000000E+000
  0.000000000000000E+000
  0.000000000000000E+000
  0.000000000000000E+000
  0.000000000000000E+000
  0.000000000000000E+000
  0.000000000000000E+000
  0.000000000000000E+000
  0.000000000000000E+000
  0.000000000000000E+000
  0.000000000000000E+000
  0.000000000000000E+000
  0.000000000000000E+000
  0.000000000000000E+000
  0.000000000000000E+000
  0.000000000000000E+000
  0.000000000000000E+000
  0.000000000000000E+000
  0.000000000000000E+000
  0.000000000000000E+000
  0.000000000000000E+000
  0.000000000000000E+000
  0.000000000000000E+000
  0.000000000000000E+000
  0.000000000000000E+000
  0.000000000000000E+000
  0.000000000000000E+000
  0.000000000000000E+000
  0.000000000000000E+000
  0.000000000000000E+000
  0.000000000000000E+000
  0.000000000000000E+000
  0.000000000000000E+000
  0.000000000000000E+000
  0.000000000000000E+000
  0.000000000000000E+000
  0.000000000000000E+000
  0.000000000000000E+000
  0.000000000000000E+000
  0.000000000000000E+000
  0.000000000000000E+000
  0.000000000000000E+000
  0.000000000000000E+000
  0.000000000000000E+000
  0.000000000000000E+000
  0.000000000000000E+000
  0.000000000000000E+000
  0.000000000000000E+000
  0.000000000000000E+000
  0.000000000000000E+000
  0.000000000000000E+000
  0.000000000000000E+000
  0.000000000000000E+000
  0.000000000000000E+000
  0.000000000000000E+000
  0.000000000000000E+000
  0.000000000000000E+000
  0.000000000000000E+000
  0.000000000000000E+000
  0.000000000000000E+000
  0.000000000000000E+000
  0.000000000000000E+000
  0.000000000000000E+000
  0.000000000000000E+000
  0.000000000000000E+000
  0.000000000000000E+000
  0.000000000000000E+000
  0.000000000000000E+000
  0.000000000000000E+000
  0.000000000000000E+000
  0.000000000000000E+000
  0.000000000000000E+000
  0.000000000000000E+000
  0.000000000000000E+000
  0.000000000000000E+000
  0.000000000000000E+000
  0.000000000000000E+000
  0.000000000000000E+000
  0.000000000000000E+000
  0.000000000000000E+000
  0.000000000000000E+000
  0.000000000000000E+000
  0.000000000000000E+000
  0.000000000000000E+000
  0.000000000000000E+000
  0.000000000000000E+000
  0.000000000000000E+000
  0.000000000000000E+000
  0.000000000000000E+000
  0.000000000000000E+000
  0.000000000000000E+000
  0.000000000000000E+000
  0.000000000000000E+000
  0.000000000000000E+000
  0.000000000000000E+000
  0.000000000000000E+000
  0.000000000000000E+000
  0.000000000000000E+000
  0.000000000000000E+000
  0.000000000000000E+000
  0.000000000000000E+000
  0.000000000000000E+000
  0.000000000000000E+000
  0.000000000000000E+000
  0.000000000000000E+000
  0.000000000000000E+000
  0.000000000000000E+000
  0.000000000000000E+000
  0.000000000000000E+000
  0.000000000000000E+000
  0.000000000000000E+000
  0.000000000000000E+000
  0.000000000000000E+000
  0.000000000000000E+000
  0.000000000000000E+000
  0.000000000000000E+000
  0.000000000000000E+000
  0.000000000000000E+000
  0.000000000000000E+000
  0.000000000000000E+000
  0.000000000000000E+000
  0.000000000000000E+000
  0.000000000000000E+000
  0.000000000000000E+000
  0.000000000000000E+000
  0.000000000000000E+000
  0.000000000000000E+000
  0.000000000000000E+000
  0.000000000000000E+000
  0.000000000000000E+000
  0.000000000000000E+000
  0.000000000000000E+000
  0.000000000000000E+000
  0.000000000000000E+000
  0.000000000000000E+000
  0.000000000000000E+000
  0.000000000000000E+000
  0.000000000000000E+000
  0.000000000000000E+000
  0.000000000000000E+000
  0.000000000000000E+000
  0.000000000000000E+000
  0.000000000000000E+000
  0.000000000000000E+000
  0.000000000000000E+000
  0.000000000000000E+000
  0.000000000000000E+000
  0.000000000000000E+000
  0.000000000000000E+000
  0.000000000000000E+000
  0.000000000000000E+000
  0.000000000000000E+000
  0.000000000000000E+000
  0.000000000000000E+000
  0.000000000000000E+000
  0.000000000000000E+000
  0.000000000000000E+000
  0.000000000000000E+000
  0.000000000000000E+000
  0.000000000000000E+000
  0.000000000000000E+000
  0.000000000000000E+000
  0.000000000000000E+000
  0.000000000000000E+000
  0.000000000000000E+000
  0.000000000000000E+000
  0.000000000000000E+000
  0.000000000000000E+000
  0.000000000000000E+000
  0.000000000000000E+000
  0.000000000000000E+000
  0.000000000000000E+000
  0.000000000000000E+000
  0.000000000000000E+000
  0.000000000000000E+000
  0.000000000000000E+000
  0.000000000000000E+000
  0.000000000000000E+000
  0.000000000000000E+000
  0.000000000000000E+000
  0.000000000000000E+000
  0.000000000000000E+000
  0.000000000000000E+000
  0.000000000000000E+000
  0.000000000000000E+000
  0.000000000000000E+000
  0.000000000000000E+000
  0.000000000000000E+000
  0.000000000000000E+000
  0.000000000000000E+000
  0.000000000000000E+000
  0.000000000000000E+000
  0.000000000000000E+000
  0.000000000000000E+000
  0.000000000000000E+000
  0.000000000000000E+000
  0.000000000000000E+000
  0.000000000000000E+000
  0.000000000000000E+000
  0.000000000000000E+000
  0.000000000000000E+000
  0.000000000000000E+000
  0.000000000000000E+000
  0.000000000000000E+000
  0.000000000000000E+000
  0.000000000000000E+000
  0.000000000000000E+000
  0.000000000000000E+000
  0.000000000000000E+000
  0.000000000000000E+000
  0.000000000000000E+000
  0.000000000000000E+000
  0.000000000000000E+000
  0.000000000000000E+000
  0.000000000000000E+000
  0.000000000000000E+000
  0.000000000000000E+000
  0.000000000000000E+000
  0.000000000000000E+000
  0.000000000000000E+000
  0.000000000000000E+000
  0.000000000000000E+000
  0.000000000000000E+000
  0.000000000000000E+000
  0.000000000000000E+000
  0.000000000000000E+000
  0.000000000000000E+000
  0.000000000000000E+000
  0.000000000000000E+000
  0.000000000000000E+000
  0.000000000000000E+000
  0.000000000000000E+000
  0.000000000000000E+000
  0.000000000000000E+000
  0.000000000000000E+000
  0.000000000000000E+000
  0.000000000000000E+000
  0.000000000000000E+000
  0.000000000000000E+000
  0.000000000000000E+000
  0.000000000000000E+000
  0.000000000000000E+000
  0.000000000000000E+000
  0.000000000000000E+000
  0.000000000000000E+000
  0.000000000000000E+000
  0.000000000000000E+000
  0.000000000000000E+000
  0.000000000000000E+000
  0.000000000000000E+000
  0.000000000000000E+000
  0.000000000000000E+000
  0.000000000000000E+000
  0.000000000000000E+000
  0.000000000000000E+000
  0.000000000000000E+000
  0.000000000000000E+000
  0.000000000000000E+000
  0.000000000000000E+000
  0.000000000000000E+000
  0.000000000000000E+000
  0.000000000000000E+000
  0.000000000000000E+000
  0.000000000000000E+000
  0.000000000000000E+000
  0.000000000000000E+000
  0.000000000000000E+000
  0.000000000000000E+000
  0.000000000000000E+000
  0.000000000000000E+000
  0.000000000000000E+000
  0.000000000000000E+000
  0.000000000000000E+000
  0.000000000000000E+000
  0.000000000000000E+000
  0.000000000000000E+000
  0.000000000000000E+000
  0.000000000000000E+000
  0.000000000000000E+000
  0.000000000000000E+000
  0.000000000000000E+000
  0.000000000000000E+000
  0.000000000000000E+000
  0.000000000000000E+000
  0.000000000000000E+000
  0.000000000000000E+000
  0.000000000000000E+000
  0.000000000000000E+000
  0.000000000000000E+000
  0.000000000000000E+000
  0.000000000000000E+000
  0.000000000000000E+000
  0.000000000000000E+000
  0.000000000000000E+000
  0.000000000000000E+000
  0.000000000000000E+000
  0.000000000000000E+000
  0.000000000000000E+000
  0.000000000000000E+000
  0.000000000000000E+000
  0.000000000000000E+000
  0.000000000000000E+000
  0.000000000000000E+000
  0.000000000000000E+000
  0.000000000000000E+000
  0.000000000000000E+000
  0.000000000000000E+000
  0.000000000000000E+000
  0.000000000000000E+000
  0.000000000000000E+000
  0.000000000000000E+000
  0.000000000000000E+000
  0.000000000000000E+000
  0.000000000000000E+000
  0.000000000000000E+000
  0.000000000000000E+000
  0.000000000000000E+000
  0.000000000000000E+000
  0.000000000000000E+000
  0.000000000000000E+000
  0.000000000000000E+000
  0.000000000000000E+000
  0.000000000000000E+000
  0.000000000000000E+000
  0.000000000000000E+000
  0.000000000000000E+000
  0.000000000000000E+000
  0.000000000000000E+000
  0.000000000000000E+000
  0.000000000000000E+000
  0.000000000000000E+000
  0.000000000000000E+000
  0.000000000000000E+000
  0.000000000000000E+000
  0.000000000000000E+000
  0.000000000000000E+000
  0.000000000000000E+000
  0.000000000000000E+000
  0.000000000000000E+000
  0.000000000000000E+000
  0.000000000000000E+000
  0.000000000000000E+000
  0.000000000000000E+000
  0.000000000000000E+000
  0.000000000000000E+000
  0.000000000000000E+000
  0.000000000000000E+000
  0.000000000000000E+000
  0.000000000000000E+000
  0.000000000000000E+000
  0.000000000000000E+000
  0.000000000000000E+000
  0.000000000000000E+000
  0.000000000000000E+000
  0.000000000000000E+000
  0.000000000000000E+000
  0.000000000000000E+000
  0.000000000000000E+000
  0.000000000000000E+000
SCALARS elementIsPlast double 
LOOKUP_TABLE default
  0.000000000000000E+000
  0.000000000000000E+000
  0.000000000000000E+000
  0.000000000000000E+000
  0.000000000000000E+000
  0.000000000000000E+000
  0.000000000000000E+000
  0.000000000000000E+000
  0.000000000000000E+000
  0.000000000000000E+000
  0.000000000000000E+000
  0.000000000000000E+000
  0.000000000000000E+000
  0.000000000000000E+000
  0.000000000000000E+000
  0.000000000000000E+000
   1.00000000000000     
   1.00000000000000     
  0.000000000000000E+000
  0.000000000000000E+000
  0.000000000000000E+000
  0.000000000000000E+000
  0.000000000000000E+000
  0.000000000000000E+000
  0.000000000000000E+000
  0.000000000000000E+000
  0.000000000000000E+000
  0.000000000000000E+000
  0.000000000000000E+000
  0.000000000000000E+000
   1.00000000000000     
   1.00000000000000     
  0.000000000000000E+000
  0.000000000000000E+000
  0.000000000000000E+000
  0.000000000000000E+000
  0.000000000000000E+000
  0.000000000000000E+000
  0.000000000000000E+000
  0.000000000000000E+000
  0.000000000000000E+000
  0.000000000000000E+000
  0.000000000000000E+000
  0.000000000000000E+000
  0.000000000000000E+000
  0.000000000000000E+000
  0.000000000000000E+000
  0.000000000000000E+000
  0.000000000000000E+000
  0.000000000000000E+000
  0.000000000000000E+000
  0.000000000000000E+000
  0.000000000000000E+000
  0.000000000000000E+000
  0.000000000000000E+000
  0.000000000000000E+000
  0.000000000000000E+000
  0.000000000000000E+000
  0.000000000000000E+000
  0.000000000000000E+000
  0.000000000000000E+000
  0.000000000000000E+000
  0.000000000000000E+000
  0.000000000000000E+000
  0.000000000000000E+000
  0.000000000000000E+000
  0.000000000000000E+000
  0.000000000000000E+000
  0.000000000000000E+000
  0.000000000000000E+000
  0.000000000000000E+000
  0.000000000000000E+000
  0.000000000000000E+000
  0.000000000000000E+000
  0.000000000000000E+000
  0.000000000000000E+000
  0.000000000000000E+000
  0.000000000000000E+000
  0.000000000000000E+000
  0.000000000000000E+000
  0.000000000000000E+000
  0.000000000000000E+000
  0.000000000000000E+000
  0.000000000000000E+000
  0.000000000000000E+000
  0.000000000000000E+000
  0.000000000000000E+000
  0.000000000000000E+000
  0.000000000000000E+000
  0.000000000000000E+000
  0.000000000000000E+000
  0.000000000000000E+000
  0.000000000000000E+000
  0.000000000000000E+000
  0.000000000000000E+000
  0.000000000000000E+000
  0.000000000000000E+000
  0.000000000000000E+000
  0.000000000000000E+000
  0.000000000000000E+000
  0.000000000000000E+000
  0.000000000000000E+000
  0.000000000000000E+000
  0.000000000000000E+000
  0.000000000000000E+000
  0.000000000000000E+000
  0.000000000000000E+000
  0.000000000000000E+000
  0.000000000000000E+000
  0.000000000000000E+000
  0.000000000000000E+000
  0.000000000000000E+000
  0.000000000000000E+000
  0.000000000000000E+000
  0.000000000000000E+000
  0.000000000000000E+000
  0.000000000000000E+000
  0.000000000000000E+000
  0.000000000000000E+000
  0.000000000000000E+000
  0.000000000000000E+000
  0.000000000000000E+000
  0.000000000000000E+000
  0.000000000000000E+000
  0.000000000000000E+000
  0.000000000000000E+000
  0.000000000000000E+000
  0.000000000000000E+000
  0.000000000000000E+000
  0.000000000000000E+000
  0.000000000000000E+000
  0.000000000000000E+000
  0.000000000000000E+000
  0.000000000000000E+000
  0.000000000000000E+000
  0.000000000000000E+000
  0.000000000000000E+000
  0.000000000000000E+000
  0.000000000000000E+000
  0.000000000000000E+000
  0.000000000000000E+000
  0.000000000000000E+000
  0.000000000000000E+000
  0.000000000000000E+000
  0.000000000000000E+000
  0.000000000000000E+000
  0.000000000000000E+000
  0.000000000000000E+000
  0.000000000000000E+000
  0.000000000000000E+000
  0.000000000000000E+000
  0.000000000000000E+000
  0.000000000000000E+000
  0.000000000000000E+000
  0.000000000000000E+000
  0.000000000000000E+000
  0.000000000000000E+000
  0.000000000000000E+000
  0.000000000000000E+000
  0.000000000000000E+000
  0.000000000000000E+000
  0.000000000000000E+000
  0.000000000000000E+000
  0.000000000000000E+000
  0.000000000000000E+000
  0.000000000000000E+000
  0.000000000000000E+000
  0.000000000000000E+000
  0.000000000000000E+000
  0.000000000000000E+000
  0.000000000000000E+000
  0.000000000000000E+000
  0.000000000000000E+000
  0.000000000000000E+000
  0.000000000000000E+000
  0.000000000000000E+000
  0.000000000000000E+000
  0.000000000000000E+000
  0.000000000000000E+000
  0.000000000000000E+000
  0.000000000000000E+000
  0.000000000000000E+000
  0.000000000000000E+000
  0.000000000000000E+000
  0.000000000000000E+000
  0.000000000000000E+000
  0.000000000000000E+000
  0.000000000000000E+000
  0.000000000000000E+000
  0.000000000000000E+000
  0.000000000000000E+000
  0.000000000000000E+000
  0.000000000000000E+000
  0.000000000000000E+000
  0.000000000000000E+000
  0.000000000000000E+000
  0.000000000000000E+000
  0.000000000000000E+000
  0.000000000000000E+000
  0.000000000000000E+000
  0.000000000000000E+000
  0.000000000000000E+000
  0.000000000000000E+000
  0.000000000000000E+000
  0.000000000000000E+000
  0.000000000000000E+000
  0.000000000000000E+000
  0.000000000000000E+000
  0.000000000000000E+000
  0.000000000000000E+000
  0.000000000000000E+000
  0.000000000000000E+000
  0.000000000000000E+000
  0.000000000000000E+000
  0.000000000000000E+000
  0.000000000000000E+000
  0.000000000000000E+000
  0.000000000000000E+000
  0.000000000000000E+000
  0.000000000000000E+000
  0.000000000000000E+000
  0.000000000000000E+000
  0.000000000000000E+000
  0.000000000000000E+000
  0.000000000000000E+000
  0.000000000000000E+000
  0.000000000000000E+000
  0.000000000000000E+000
  0.000000000000000E+000
  0.000000000000000E+000
  0.000000000000000E+000
  0.000000000000000E+000
  0.000000000000000E+000
  0.000000000000000E+000
  0.000000000000000E+000
  0.000000000000000E+000
  0.000000000000000E+000
  0.000000000000000E+000
  0.000000000000000E+000
  0.000000000000000E+000
  0.000000000000000E+000
  0.000000000000000E+000
  0.000000000000000E+000
  0.000000000000000E+000
  0.000000000000000E+000
  0.000000000000000E+000
  0.000000000000000E+000
  0.000000000000000E+000
  0.000000000000000E+000
  0.000000000000000E+000
  0.000000000000000E+000
  0.000000000000000E+000
  0.000000000000000E+000
  0.000000000000000E+000
  0.000000000000000E+000
  0.000000000000000E+000
  0.000000000000000E+000
  0.000000000000000E+000
  0.000000000000000E+000
  0.000000000000000E+000
  0.000000000000000E+000
  0.000000000000000E+000
  0.000000000000000E+000
  0.000000000000000E+000
  0.000000000000000E+000
  0.000000000000000E+000
  0.000000000000000E+000
  0.000000000000000E+000
  0.000000000000000E+000
  0.000000000000000E+000
  0.000000000000000E+000
  0.000000000000000E+000
  0.000000000000000E+000
  0.000000000000000E+000
  0.000000000000000E+000
  0.000000000000000E+000
  0.000000000000000E+000
  0.000000000000000E+000
  0.000000000000000E+000
  0.000000000000000E+000
  0.000000000000000E+000
  0.000000000000000E+000
  0.000000000000000E+000
  0.000000000000000E+000
  0.000000000000000E+000
  0.000000000000000E+000
  0.000000000000000E+000
  0.000000000000000E+000
  0.000000000000000E+000
  0.000000000000000E+000
  0.000000000000000E+000
  0.000000000000000E+000
  0.000000000000000E+000
  0.000000000000000E+000
  0.000000000000000E+000
  0.000000000000000E+000
  0.000000000000000E+000
  0.000000000000000E+000
  0.000000000000000E+000
  0.000000000000000E+000
  0.000000000000000E+000
  0.000000000000000E+000
  0.000000000000000E+000
  0.000000000000000E+000
  0.000000000000000E+000
  0.000000000000000E+000
  0.000000000000000E+000
  0.000000000000000E+000
  0.000000000000000E+000
  0.000000000000000E+000
  0.000000000000000E+000
  0.000000000000000E+000
  0.000000000000000E+000
  0.000000000000000E+000
  0.000000000000000E+000
  0.000000000000000E+000
  0.000000000000000E+000
  0.000000000000000E+000
  0.000000000000000E+000
  0.000000000000000E+000
  0.000000000000000E+000
  0.000000000000000E+000
  0.000000000000000E+000
  0.000000000000000E+000
  0.000000000000000E+000
  0.000000000000000E+000
  0.000000000000000E+000
  0.000000000000000E+000
  0.000000000000000E+000
  0.000000000000000E+000
  0.000000000000000E+000
  0.000000000000000E+000
  0.000000000000000E+000
  0.000000000000000E+000
  0.000000000000000E+000
  0.000000000000000E+000
  0.000000000000000E+000
  0.000000000000000E+000
  0.000000000000000E+000
  0.000000000000000E+000
  0.000000000000000E+000
  0.000000000000000E+000
  0.000000000000000E+000
  0.000000000000000E+000
  0.000000000000000E+000
  0.000000000000000E+000
  0.000000000000000E+000
  0.000000000000000E+000
  0.000000000000000E+000
  0.000000000000000E+000
  0.000000000000000E+000
  0.000000000000000E+000
  0.000000000000000E+000
  0.000000000000000E+000
  0.000000000000000E+000
  0.000000000000000E+000
  0.000000000000000E+000
  0.000000000000000E+000
  0.000000000000000E+000
  0.000000000000000E+000
  0.000000000000000E+000
  0.000000000000000E+000
  0.000000000000000E+000
  0.000000000000000E+000
  0.000000000000000E+000
  0.000000000000000E+000
  0.000000000000000E+000
  0.000000000000000E+000
  0.000000000000000E+000
  0.000000000000000E+000
  0.000000000000000E+000
  0.000000000000000E+000
  0.000000000000000E+000
  0.000000000000000E+000
  0.000000000000000E+000
  0.000000000000000E+000
  0.000000000000000E+000
  0.000000000000000E+000
  0.000000000000000E+000
  0.000000000000000E+000
  0.000000000000000E+000
  0.000000000000000E+000
  0.000000000000000E+000
  0.000000000000000E+000
  0.000000000000000E+000
  0.000000000000000E+000
  0.000000000000000E+000
  0.000000000000000E+000
  0.000000000000000E+000
  0.000000000000000E+000
  0.000000000000000E+000
  0.000000000000000E+000
  0.000000000000000E+000
  0.000000000000000E+000
  0.000000000000000E+000
  0.000000000000000E+000
  0.000000000000000E+000
  0.000000000000000E+000
  0.000000000000000E+000
  0.000000000000000E+000
  0.000000000000000E+000
  0.000000000000000E+000
  0.000000000000000E+000
  0.000000000000000E+000
  0.000000000000000E+000
  0.000000000000000E+000
  0.000000000000000E+000
  0.000000000000000E+000
  0.000000000000000E+000
  0.000000000000000E+000
  0.000000000000000E+000
  0.000000000000000E+000
  0.000000000000000E+000
  0.000000000000000E+000
  0.000000000000000E+000
  0.000000000000000E+000
  0.000000000000000E+000
  0.000000000000000E+000
  0.000000000000000E+000
  0.000000000000000E+000
  0.000000000000000E+000
  0.000000000000000E+000
  0.000000000000000E+000
  0.000000000000000E+000
  0.000000000000000E+000
  0.000000000000000E+000
  0.000000000000000E+000
  0.000000000000000E+000
  0.000000000000000E+000
  0.000000000000000E+000
  0.000000000000000E+000
  0.000000000000000E+000
  0.000000000000000E+000
  0.000000000000000E+000
  0.000000000000000E+000
  0.000000000000000E+000
  0.000000000000000E+000
  0.000000000000000E+000
  0.000000000000000E+000
  0.000000000000000E+000
  0.000000000000000E+000
  0.000000000000000E+000
  0.000000000000000E+000
  0.000000000000000E+000
  0.000000000000000E+000
  0.000000000000000E+000
  0.000000000000000E+000
  0.000000000000000E+000
  0.000000000000000E+000
  0.000000000000000E+000
SCALARS poroL double 
LOOKUP_TABLE default
  0.156299212521474     
  0.156272527901128     
  0.156243932841178     
  0.156216209890430     
  0.156194011814295     
  0.156179949286041     
  0.156169245938933     
  0.156160215553283     
  0.156152263977697     
  0.156145029959966     
  0.156138242790237     
  0.156131647329186     
  0.156124935228713     
  0.156117632314264     
  0.156108394440281     
  0.156238514037879     
  0.156220672197411     
  0.156201721547780     
  0.156187740471428     
  0.156177093716884     
  0.156166310941151     
  0.156156532818133     
  0.156148000105334     
  0.156140366695662     
  0.156133381207702     
  0.156126828808985     
  0.156120505734766     
  0.156114195644051     
  0.156107610478763     
  0.156101030575379     
  0.156195023426198     
  0.156182667250946     
  0.156175956647012     
  0.156168559557659     
  0.156159816022394     
  0.156151058221621     
  0.156142679344057     
  0.156134948388244     
  0.156127876701568     
  0.156121343326537     
  0.156115218696600     
  0.156109378547662     
  0.156103713817197     
  0.156098238866014     
  0.156093113421367     
  0.156169901931508     
  0.156163653317612     
  0.156156895558236     
  0.156149961873837     
  0.156142721376558     
  0.156135318938728     
  0.156128118283207     
  0.156121292833758     
  0.156114913239563     
  0.156108964900605     
  0.156103395101927     
  0.156098152098390     
  0.156093221028123     
  0.156088652691147     
  0.156084600544794     
  0.156150495512775     
  0.156144362759641     
  0.156138295829963     
  0.156132080148346     
  0.156125764173854     
  0.156119431163290     
  0.156113214167378     
  0.156107246442460     
  0.156101599082149     
  0.156096297969344     
  0.156091343001586     
  0.156086733862661     
  0.156082493520379     
  0.156078689179263     
  0.156075440332928     
  0.156130815979979     
  0.156125345037305     
  0.156119914828529     
  0.156114460459349     
  0.156108972049849     
  0.156103507258437     
  0.156098145804115     
  0.156092967928808     
  0.156088037260781     
  0.156083393729142     
  0.156079063601610     
  0.156075073181656     
  0.156071463310515     
  0.156068299920278     
  0.156065678115535     
  0.156111098713707     
  0.156106421619380     
  0.156101727679448     
  0.156097012154465     
  0.156092291159713     
  0.156087603646040     
  0.156083005552802     
  0.156078555509764     
  0.156074305903604     
  0.156070299930846     
  0.156066574373663     
  0.156063166830670     
  0.156060123365002     
  0.156057504106312     
  0.156055384521858     
  0.156091515311135     
  0.156087649977333     
  0.156083704409306     
  0.156079715308702     
  0.156075715584472     
  0.156071744533282     
  0.156067847355119     
  0.156064071350422     
  0.156060461681188     
  0.156057059782148     
  0.156053904720869     
  0.156051036554418     
  0.156048500209678     
  0.156046348096063     
  0.156044640239742     
  0.156072189922122     
  0.156069088191869     
  0.156065863722840     
  0.156062570564243     
  0.156059252483010     
  0.156055950335599     
  0.156052705053120     
  0.156049557408837     
  0.156046547008255     
  0.156043711849432     
  0.156041089082469     
  0.156038716687076     
  0.156036635285234     
  0.156034889205058     
  0.156033526062328     
  0.156053186699068     
  0.156050778455062     
  0.156048226105817     
  0.156045588228308     
  0.156042911715558     
  0.156040237275994     
  0.156037602573729     
  0.156035043568144     
  0.156032594905217     
  0.156030290216290     
  0.156028162717377     
  0.156026246085634     
  0.156024575272819     
  0.156023186799732     
  0.156022118155886     
  0.156034526767595     
  0.156032737874586     
  0.156030802282396     
  0.156028775051155     
  0.156026700632089     
  0.156024616671685     
  0.156022556718599     
  0.156020551859113     
  0.156018631645668     
  0.156016824704192     
  0.156015159273148     
  0.156013663709973     
  0.156012366831474     
  0.156011297877803     
  0.156010485917837     
  0.156016198540290     
  0.156014960773365     
  0.156013588851025     
  0.156012129454536     
  0.156010620596021     
  0.156009094226400     
  0.156007578316703     
  0.156006098337544     
  0.156004678239970     
  0.156003341110851     
  0.156002109635263     
  0.156001006410561     
  0.156000054070573     
  0.155999275134462     
  0.155998691505475     
  0.155998166094410     
  0.155997422435639     
  0.155996568760368     
  0.155995640329586     
  0.155994665977769     
  0.155993669860315     
  0.155992672954860     
  0.155991694216838     
  0.155990751399052     
  0.155989861600752     
  0.155989041615042     
  0.155988308111768     
  0.155987677655237     
  0.155987166533185     
  0.155986790376637     
  0.155980375672216     
  0.155980083361181     
  0.155979713483160     
  0.155979287972003     
  0.155978824642631     
  0.155978338319363     
  0.155977841842809     
  0.155977346867614     
  0.155976864429904     
  0.155976405307955     
  0.155975980215703     
  0.155975599863215     
  0.155975274903357     
  0.155975015772151     
  0.155974832428610     
  0.155962761090445     
  0.155962893409996     
  0.155962985919593     
  0.155963046045628     
  0.155963079389171     
  0.155963090402255     
  0.155963082985798     
  0.155963060939117     
  0.155963028238888     
  0.155962989162332     
  0.155962948289515     
  0.155962910424113     
  0.155962880466633     
  0.155962863265495     
  0.155962863464591     
  0.155945248419037     
  0.155945795739585     
  0.155946343546360     
  0.155946884057036     
  0.155947409933323     
  0.155947914628579     
  0.155948392646827     
  0.155948839660658     
  0.155949252479130     
  0.155949628891853     
  0.155949967436798     
  0.155950267146547     
  0.155950527323840     
  0.155950747386657     
  0.155950926809395     
  0.155927760142463     
  0.155928730512450     
  0.155929741616358     
  0.155930770068202     
  0.155931795202343     
  0.155932799192663     
  0.155933767025255     
  0.155934686289425     
  0.155935546802138     
  0.155936340119490     
  0.155937059010842     
  0.155937696977184     
  0.155938247887916     
  0.155938705793346     
  0.155939064947436     
  0.155910218908501     
  0.155911638385809     
  0.155913136331410     
  0.155914673521977     
  0.155916215808030     
  0.155917734096796     
  0.155919204072107     
  0.155920605637768     
  0.155921922137943     
  0.155923139453686     
  0.155924245096590     
  0.155925227421452     
  0.155926075064803     
  0.155926776689296     
  0.155927321079031     
  0.155892550914729     
  0.155894463809577     
  0.155896487981269     
  0.155898568145639     
  0.155900656648462     
  0.155902713405810     
  0.155904705378970     
  0.155906605606892     
  0.155908391913305     
  0.155910045459142     
  0.155911549327725     
  0.155912887320509     
  0.155914043114145     
  0.155914999889819     
  0.155915740495304     
  0.155874688957190     
  0.155877158182454     
  0.155879764103298     
  0.155882434974480     
  0.155885109656893     
  0.155887737613464     
  0.155890278101410     
  0.155892698658391     
  0.155894973110539     
  0.155897079383605     
  0.155898997396170     
  0.155900707283184     
  0.155902188156089     
  0.155903417552995     
  0.155904371664229     
  0.155856575162317     
  0.155859682963228     
  0.155862942797117     
  0.155866265624681     
  0.155869576790041     
  0.155872816160081     
  0.155875936901868     
  0.155878903159961     
  0.155881687061918     
  0.155884265501084     
  0.155886617087866     
  0.155888719592286     
  0.155890548145836     
  0.155892074418824     
  0.155893266904989     
  0.155838163444624     
  0.155842012927903     
  0.155846016456878     
  0.155850066066484     
  0.155854073435747     
  0.155857970188003     
  0.155861705912438     
  0.155865244538407     
  0.155868559861586     
  0.155871630910377     
  0.155874437647268     
  0.155876957363541     
  0.155879162093749     
  0.155881017362079     
  0.155882482507154     
  0.155819421796530     
  0.155824139950515     
  0.155828996410490     
  0.155833861334636     
  0.155838632524405     
  0.155843235651627     
  0.155847620707007     
  0.155851756152544     
  0.155855622257936     
  0.155859204604958     
  0.155862488230006     
  0.155865452669752     
  0.155868068228803     
  0.155870293999745     
  0.155872078123289     
  0.155800334674879     
  0.155806078073064     
  0.155811919382130     
  0.155817701903167     
  0.155823309729371     
  0.155828666864660     
  0.155833730197121     
  0.155838479748311     
  0.155842908880128     
  0.155847015622994     
  0.155850795165226     
  0.155854233231771     
  0.155857300660263     
  0.155859949959855     
  0.155862115222570     
  0.155780906114586     
  0.155787871508667     
  0.155794857528221     
  0.155801672889809     
  0.155808190141746     
  0.155814340341090     
  0.155820098155254     
  0.155825465277309     
  0.155830456682596     
  0.155835090178501     
  0.155839377720376     
  0.155843317144834     
  0.155846883761860     
  0.155850024160506     
  0.155852654277135     
  0.155761165289490     
  0.155769609271531     
  0.155777935564207     
  0.155785907758918     
  0.155793396337141     
  0.155800358119772     
  0.155806803610377     
  0.155812769767125     
  0.155818302709537     
  0.155823447886863     
  0.155828242356239     
  0.155832704702830     
  0.155836823060480     
  0.155840540570049     
  0.155843750200246     
  0.155741178855871     
  0.155751456323727     
  0.155761361852529     
  0.155770607943411     
  0.155779095891479     
  0.155786848018061     
  0.155793938902487     
  0.155800454906257     
  0.155806481534379     
  0.155812098364275     
  0.155817375505725     
  0.155822367244564     
  0.155827088790198     
  0.155831494146456     
  0.155835443990616     
  0.155721090732486     
  0.155733726415930     
  0.155745486815396     
  0.155756064905620     
  0.155765498752446     
  0.155773957466975     
  0.155781603878977     
  0.155788583142355     
  0.155795023207216     
  0.155801039747184     
  0.155806740896153     
  0.155812228224944     
  0.155817592508512     
  0.155822815631377     
  0.155827750718825     
  0.155701247846137     
  0.155717097421680     
  0.155730893496064     
  0.155742637911330     
  0.155752837207172     
  0.155761837123848     
  0.155769895681911     
  0.155777212470152     
  0.155783952336668     
  0.155790261941584     
  0.155796283754205     
  0.155802171416607     
  0.155808103118513     
  0.155814331348876     
  0.155820597095919     
  0.155683173569106     
  0.155703110542927     
  0.155718230796394     
  0.155730687201763     
  0.155741319800697     
  0.155750615990568     
  0.155758895224789     
  0.155766390620959     
  0.155773288666798     
  0.155779754054172     
  0.155785950243928     
  0.155792063989748     
  0.155798350832616     
  0.155805229771231     
  0.155813921660673     
