# vtk DataFile Version 3.0
vtk output
ASCII
DATASET UNSTRUCTURED_GRID
POINTS       496 double 
  0.00000000E+00  3.00000000E+02  0.00000000E+00
  0.00000000E+00  2.80000000E+02  0.00000000E+00
  0.00000000E+00  2.60000000E+02  0.00000000E+00
  0.00000000E+00  2.40000000E+02  0.00000000E+00
  0.00000000E+00  2.20000000E+02  0.00000000E+00
  0.00000000E+00  2.00000000E+02  0.00000000E+00
  0.00000000E+00  1.80000000E+02  0.00000000E+00
  0.00000000E+00  1.60000000E+02  0.00000000E+00
  0.00000000E+00  1.40000000E+02  0.00000000E+00
  0.00000000E+00  1.20000000E+02  0.00000000E+00
  0.00000000E+00  1.00000000E+02  0.00000000E+00
  0.00000000E+00  8.00000000E+01  0.00000000E+00
  0.00000000E+00  6.00000000E+01  0.00000000E+00
  0.00000000E+00  4.00000000E+01  0.00000000E+00
  0.00000000E+00  2.00000000E+01  0.00000000E+00
  0.00000000E+00  4.99600361E-14  0.00000000E+00
  2.00000000E+01  3.00000000E+02  0.00000000E+00
  2.00000000E+01  2.80000000E+02  0.00000000E+00
  2.00000000E+01  2.60000000E+02  0.00000000E+00
  2.00000000E+01  2.40000000E+02  0.00000000E+00
  2.00000000E+01  2.20000000E+02  0.00000000E+00
  2.00000000E+01  2.00000000E+02  0.00000000E+00
  2.00000000E+01  1.80000000E+02  0.00000000E+00
  2.00000000E+01  1.60000000E+02  0.00000000E+00
  2.00000000E+01  1.40000000E+02  0.00000000E+00
  2.00000000E+01  1.20000000E+02  0.00000000E+00
  2.00000000E+01  1.00000000E+02  0.00000000E+00
  2.00000000E+01  8.00000000E+01  0.00000000E+00
  2.00000000E+01  6.00000000E+01  0.00000000E+00
  2.00000000E+01  4.00000000E+01  0.00000000E+00
  2.00000000E+01  2.00000000E+01  0.00000000E+00
  2.00000000E+01  4.99600361E-14  0.00000000E+00
  4.00000000E+01  3.00000000E+02  0.00000000E+00
  4.00000000E+01  2.80000000E+02  0.00000000E+00
  4.00000000E+01  2.60000000E+02  0.00000000E+00
  4.00000000E+01  2.40000000E+02  0.00000000E+00
  4.00000000E+01  2.20000000E+02  0.00000000E+00
  4.00000000E+01  2.00000000E+02  0.00000000E+00
  4.00000000E+01  1.80000000E+02  0.00000000E+00
  4.00000000E+01  1.60000000E+02  0.00000000E+00
  4.00000000E+01  1.40000000E+02  0.00000000E+00
  4.00000000E+01  1.20000000E+02  0.00000000E+00
  4.00000000E+01  1.00000000E+02  0.00000000E+00
  4.00000000E+01  8.00000000E+01  0.00000000E+00
  4.00000000E+01  6.00000000E+01  0.00000000E+00
  4.00000000E+01  4.00000000E+01  0.00000000E+00
  4.00000000E+01  2.00000000E+01  0.00000000E+00
  4.00000000E+01  4.99600361E-14  0.00000000E+00
  6.00000000E+01  3.00000000E+02  0.00000000E+00
  6.00000000E+01  2.80000000E+02  0.00000000E+00
  6.00000000E+01  2.60000000E+02  0.00000000E+00
  6.00000000E+01  2.40000000E+02  0.00000000E+00
  6.00000000E+01  2.20000000E+02  0.00000000E+00
  6.00000000E+01  2.00000000E+02  0.00000000E+00
  6.00000000E+01  1.80000000E+02  0.00000000E+00
  6.00000000E+01  1.60000000E+02  0.00000000E+00
  6.00000000E+01  1.40000000E+02  0.00000000E+00
  6.00000000E+01  1.20000000E+02  0.00000000E+00
  6.00000000E+01  1.00000000E+02  0.00000000E+00
  6.00000000E+01  8.00000000E+01  0.00000000E+00
  6.00000000E+01  6.00000000E+01  0.00000000E+00
  6.00000000E+01  4.00000000E+01  0.00000000E+00
  6.00000000E+01  2.00000000E+01  0.00000000E+00
  6.00000000E+01  4.99600361E-14  0.00000000E+00
  8.00000000E+01  3.00000000E+02  0.00000000E+00
  8.00000000E+01  2.80000000E+02  0.00000000E+00
  8.00000000E+01  2.60000000E+02  0.00000000E+00
  8.00000000E+01  2.40000000E+02  0.00000000E+00
  8.00000000E+01  2.20000000E+02  0.00000000E+00
  8.00000000E+01  2.00000000E+02  0.00000000E+00
  8.00000000E+01  1.80000000E+02  0.00000000E+00
  8.00000000E+01  1.60000000E+02  0.00000000E+00
  8.00000000E+01  1.40000000E+02  0.00000000E+00
  8.00000000E+01  1.20000000E+02  0.00000000E+00
  8.00000000E+01  1.00000000E+02  0.00000000E+00
  8.00000000E+01  8.00000000E+01  0.00000000E+00
  8.00000000E+01  6.00000000E+01  0.00000000E+00
  8.00000000E+01  4.00000000E+01  0.00000000E+00
  8.00000000E+01  2.00000000E+01  0.00000000E+00
  8.00000000E+01  4.99600361E-14  0.00000000E+00
  1.00000000E+02  3.00000000E+02  0.00000000E+00
  1.00000000E+02  2.80000000E+02  0.00000000E+00
  1.00000000E+02  2.60000000E+02  0.00000000E+00
  1.00000000E+02  2.40000000E+02  0.00000000E+00
  1.00000000E+02  2.20000000E+02  0.00000000E+00
  1.00000000E+02  2.00000000E+02  0.00000000E+00
  1.00000000E+02  1.80000000E+02  0.00000000E+00
  1.00000000E+02  1.60000000E+02  0.00000000E+00
  1.00000000E+02  1.40000000E+02  0.00000000E+00
  1.00000000E+02  1.20000000E+02  0.00000000E+00
  1.00000000E+02  1.00000000E+02  0.00000000E+00
  1.00000000E+02  8.00000000E+01  0.00000000E+00
  1.00000000E+02  6.00000000E+01  0.00000000E+00
  1.00000000E+02  4.00000000E+01  0.00000000E+00
  1.00000000E+02  2.00000000E+01  0.00000000E+00
  1.00000000E+02  4.99600361E-14  0.00000000E+00
  1.20000000E+02  3.00000000E+02  0.00000000E+00
  1.20000000E+02  2.80000000E+02  0.00000000E+00
  1.20000000E+02  2.60000000E+02  0.00000000E+00
  1.20000000E+02  2.40000000E+02  0.00000000E+00
  1.20000000E+02  2.20000000E+02  0.00000000E+00
  1.20000000E+02  2.00000000E+02  0.00000000E+00
  1.20000000E+02  1.80000000E+02  0.00000000E+00
  1.20000000E+02  1.60000000E+02  0.00000000E+00
  1.20000000E+02  1.40000000E+02  0.00000000E+00
  1.20000000E+02  1.20000000E+02  0.00000000E+00
  1.20000000E+02  1.00000000E+02  0.00000000E+00
  1.20000000E+02  8.00000000E+01  0.00000000E+00
  1.20000000E+02  6.00000000E+01  0.00000000E+00
  1.20000000E+02  4.00000000E+01  0.00000000E+00
  1.20000000E+02  2.00000000E+01  0.00000000E+00
  1.20000000E+02  4.99600361E-14  0.00000000E+00
  1.40000000E+02  3.00000000E+02  0.00000000E+00
  1.40000000E+02  2.80000000E+02  0.00000000E+00
  1.40000000E+02  2.60000000E+02  0.00000000E+00
  1.40000000E+02  2.40000000E+02  0.00000000E+00
  1.40000000E+02  2.20000000E+02  0.00000000E+00
  1.40000000E+02  2.00000000E+02  0.00000000E+00
  1.40000000E+02  1.80000000E+02  0.00000000E+00
  1.40000000E+02  1.60000000E+02  0.00000000E+00
  1.40000000E+02  1.40000000E+02  0.00000000E+00
  1.40000000E+02  1.20000000E+02  0.00000000E+00
  1.40000000E+02  1.00000000E+02  0.00000000E+00
  1.40000000E+02  8.00000000E+01  0.00000000E+00
  1.40000000E+02  6.00000000E+01  0.00000000E+00
  1.40000000E+02  4.00000000E+01  0.00000000E+00
  1.40000000E+02  2.00000000E+01  0.00000000E+00
  1.40000000E+02  4.99600361E-14  0.00000000E+00
  1.60000000E+02  3.00000000E+02  0.00000000E+00
  1.60000000E+02  2.80000000E+02  0.00000000E+00
  1.60000000E+02  2.60000000E+02  0.00000000E+00
  1.60000000E+02  2.40000000E+02  0.00000000E+00
  1.60000000E+02  2.20000000E+02  0.00000000E+00
  1.60000000E+02  2.00000000E+02  0.00000000E+00
  1.60000000E+02  1.80000000E+02  0.00000000E+00
  1.60000000E+02  1.60000000E+02  0.00000000E+00
  1.60000000E+02  1.40000000E+02  0.00000000E+00
  1.60000000E+02  1.20000000E+02  0.00000000E+00
  1.60000000E+02  1.00000000E+02  0.00000000E+00
  1.60000000E+02  8.00000000E+01  0.00000000E+00
  1.60000000E+02  6.00000000E+01  0.00000000E+00
  1.60000000E+02  4.00000000E+01  0.00000000E+00
  1.60000000E+02  2.00000000E+01  0.00000000E+00
  1.60000000E+02  4.99600361E-14  0.00000000E+00
  1.80000000E+02  3.00000000E+02  0.00000000E+00
  1.80000000E+02  2.80000000E+02  0.00000000E+00
  1.80000000E+02  2.60000000E+02  0.00000000E+00
  1.80000000E+02  2.40000000E+02  0.00000000E+00
  1.80000000E+02  2.20000000E+02  0.00000000E+00
  1.80000000E+02  2.00000000E+02  0.00000000E+00
  1.80000000E+02  1.80000000E+02  0.00000000E+00
  1.80000000E+02  1.60000000E+02  0.00000000E+00
  1.80000000E+02  1.40000000E+02  0.00000000E+00
  1.80000000E+02  1.20000000E+02  0.00000000E+00
  1.80000000E+02  1.00000000E+02  0.00000000E+00
  1.80000000E+02  8.00000000E+01  0.00000000E+00
  1.80000000E+02  6.00000000E+01  0.00000000E+00
  1.80000000E+02  4.00000000E+01  0.00000000E+00
  1.80000000E+02  2.00000000E+01  0.00000000E+00
  1.80000000E+02  4.99600361E-14  0.00000000E+00
  2.00000000E+02  3.00000000E+02  0.00000000E+00
  2.00000000E+02  2.80000000E+02  0.00000000E+00
  2.00000000E+02  2.60000000E+02  0.00000000E+00
  2.00000000E+02  2.40000000E+02  0.00000000E+00
  2.00000000E+02  2.20000000E+02  0.00000000E+00
  2.00000000E+02  2.00000000E+02  0.00000000E+00
  2.00000000E+02  1.80000000E+02  0.00000000E+00
  2.00000000E+02  1.60000000E+02  0.00000000E+00
  2.00000000E+02  1.40000000E+02  0.00000000E+00
  2.00000000E+02  1.20000000E+02  0.00000000E+00
  2.00000000E+02  1.00000000E+02  0.00000000E+00
  2.00000000E+02  8.00000000E+01  0.00000000E+00
  2.00000000E+02  6.00000000E+01  0.00000000E+00
  2.00000000E+02  4.00000000E+01  0.00000000E+00
  2.00000000E+02  2.00000000E+01  0.00000000E+00
  2.00000000E+02  4.99600361E-14  0.00000000E+00
  2.20000000E+02  3.00000000E+02  0.00000000E+00
  2.20000000E+02  2.80000000E+02  0.00000000E+00
  2.20000000E+02  2.60000000E+02  0.00000000E+00
  2.20000000E+02  2.40000000E+02  0.00000000E+00
  2.20000000E+02  2.20000000E+02  0.00000000E+00
  2.20000000E+02  2.00000000E+02  0.00000000E+00
  2.20000000E+02  1.80000000E+02  0.00000000E+00
  2.20000000E+02  1.60000000E+02  0.00000000E+00
  2.20000000E+02  1.40000000E+02  0.00000000E+00
  2.20000000E+02  1.20000000E+02  0.00000000E+00
  2.20000000E+02  1.00000000E+02  0.00000000E+00
  2.20000000E+02  8.00000000E+01  0.00000000E+00
  2.20000000E+02  6.00000000E+01  0.00000000E+00
  2.20000000E+02  4.00000000E+01  0.00000000E+00
  2.20000000E+02  2.00000000E+01  0.00000000E+00
  2.20000000E+02  4.99600361E-14  0.00000000E+00
  2.40000000E+02  3.00000000E+02  0.00000000E+00
  2.40000000E+02  2.80000000E+02  0.00000000E+00
  2.40000000E+02  2.60000000E+02  0.00000000E+00
  2.40000000E+02  2.40000000E+02  0.00000000E+00
  2.40000000E+02  2.20000000E+02  0.00000000E+00
  2.40000000E+02  2.00000000E+02  0.00000000E+00
  2.40000000E+02  1.80000000E+02  0.00000000E+00
  2.40000000E+02  1.60000000E+02  0.00000000E+00
  2.40000000E+02  1.40000000E+02  0.00000000E+00
  2.40000000E+02  1.20000000E+02  0.00000000E+00
  2.40000000E+02  1.00000000E+02  0.00000000E+00
  2.40000000E+02  8.00000000E+01  0.00000000E+00
  2.40000000E+02  6.00000000E+01  0.00000000E+00
  2.40000000E+02  4.00000000E+01  0.00000000E+00
  2.40000000E+02  2.00000000E+01  0.00000000E+00
  2.40000000E+02  4.99600361E-14  0.00000000E+00
  2.60000000E+02  3.00000000E+02  0.00000000E+00
  2.60000000E+02  2.80000000E+02  0.00000000E+00
  2.60000000E+02  2.60000000E+02  0.00000000E+00
  2.60000000E+02  2.40000000E+02  0.00000000E+00
  2.60000000E+02  2.20000000E+02  0.00000000E+00
  2.60000000E+02  2.00000000E+02  0.00000000E+00
  2.60000000E+02  1.80000000E+02  0.00000000E+00
  2.60000000E+02  1.60000000E+02  0.00000000E+00
  2.60000000E+02  1.40000000E+02  0.00000000E+00
  2.60000000E+02  1.20000000E+02  0.00000000E+00
  2.60000000E+02  1.00000000E+02  0.00000000E+00
  2.60000000E+02  8.00000000E+01  0.00000000E+00
  2.60000000E+02  6.00000000E+01  0.00000000E+00
  2.60000000E+02  4.00000000E+01  0.00000000E+00
  2.60000000E+02  2.00000000E+01  0.00000000E+00
  2.60000000E+02  4.99600361E-14  0.00000000E+00
  2.80000000E+02  3.00000000E+02  0.00000000E+00
  2.80000000E+02  2.80000000E+02  0.00000000E+00
  2.80000000E+02  2.60000000E+02  0.00000000E+00
  2.80000000E+02  2.40000000E+02  0.00000000E+00
  2.80000000E+02  2.20000000E+02  0.00000000E+00
  2.80000000E+02  2.00000000E+02  0.00000000E+00
  2.80000000E+02  1.80000000E+02  0.00000000E+00
  2.80000000E+02  1.60000000E+02  0.00000000E+00
  2.80000000E+02  1.40000000E+02  0.00000000E+00
  2.80000000E+02  1.20000000E+02  0.00000000E+00
  2.80000000E+02  1.00000000E+02  0.00000000E+00
  2.80000000E+02  8.00000000E+01  0.00000000E+00
  2.80000000E+02  6.00000000E+01  0.00000000E+00
  2.80000000E+02  4.00000000E+01  0.00000000E+00
  2.80000000E+02  2.00000000E+01  0.00000000E+00
  2.80000000E+02  4.99600361E-14  0.00000000E+00
  3.00000000E+02  3.00000000E+02  0.00000000E+00
  3.00000000E+02  2.80000000E+02  0.00000000E+00
  3.00000000E+02  2.60000000E+02  0.00000000E+00
  3.00000000E+02  2.40000000E+02  0.00000000E+00
  3.00000000E+02  2.20000000E+02  0.00000000E+00
  3.00000000E+02  2.00000000E+02  0.00000000E+00
  3.00000000E+02  1.80000000E+02  0.00000000E+00
  3.00000000E+02  1.60000000E+02  0.00000000E+00
  3.00000000E+02  1.40000000E+02  0.00000000E+00
  3.00000000E+02  1.20000000E+02  0.00000000E+00
  3.00000000E+02  1.00000000E+02  0.00000000E+00
  3.00000000E+02  8.00000000E+01  0.00000000E+00
  3.00000000E+02  6.00000000E+01  0.00000000E+00
  3.00000000E+02  4.00000000E+01  0.00000000E+00
  3.00000000E+02  2.00000000E+01  0.00000000E+00
  3.00000000E+02  4.99600361E-14  0.00000000E+00
  3.20000000E+02  3.00000000E+02  0.00000000E+00
  3.20000000E+02  2.80000000E+02  0.00000000E+00
  3.20000000E+02  2.60000000E+02  0.00000000E+00
  3.20000000E+02  2.40000000E+02  0.00000000E+00
  3.20000000E+02  2.20000000E+02  0.00000000E+00
  3.20000000E+02  2.00000000E+02  0.00000000E+00
  3.20000000E+02  1.80000000E+02  0.00000000E+00
  3.20000000E+02  1.60000000E+02  0.00000000E+00
  3.20000000E+02  1.40000000E+02  0.00000000E+00
  3.20000000E+02  1.20000000E+02  0.00000000E+00
  3.20000000E+02  1.00000000E+02  0.00000000E+00
  3.20000000E+02  8.00000000E+01  0.00000000E+00
  3.20000000E+02  6.00000000E+01  0.00000000E+00
  3.20000000E+02  4.00000000E+01  0.00000000E+00
  3.20000000E+02  2.00000000E+01  0.00000000E+00
  3.20000000E+02  4.99600361E-14  0.00000000E+00
  3.40000000E+02  3.00000000E+02  0.00000000E+00
  3.40000000E+02  2.80000000E+02  0.00000000E+00
  3.40000000E+02  2.60000000E+02  0.00000000E+00
  3.40000000E+02  2.40000000E+02  0.00000000E+00
  3.40000000E+02  2.20000000E+02  0.00000000E+00
  3.40000000E+02  2.00000000E+02  0.00000000E+00
  3.40000000E+02  1.80000000E+02  0.00000000E+00
  3.40000000E+02  1.60000000E+02  0.00000000E+00
  3.40000000E+02  1.40000000E+02  0.00000000E+00
  3.40000000E+02  1.20000000E+02  0.00000000E+00
  3.40000000E+02  1.00000000E+02  0.00000000E+00
  3.40000000E+02  8.00000000E+01  0.00000000E+00
  3.40000000E+02  6.00000000E+01  0.00000000E+00
  3.40000000E+02  4.00000000E+01  0.00000000E+00
  3.40000000E+02  2.00000000E+01  0.00000000E+00
  3.40000000E+02  4.99600361E-14  0.00000000E+00
  3.60000000E+02  3.00000000E+02  0.00000000E+00
  3.60000000E+02  2.80000000E+02  0.00000000E+00
  3.60000000E+02  2.60000000E+02  0.00000000E+00
  3.60000000E+02  2.40000000E+02  0.00000000E+00
  3.60000000E+02  2.20000000E+02  0.00000000E+00
  3.60000000E+02  2.00000000E+02  0.00000000E+00
  3.60000000E+02  1.80000000E+02  0.00000000E+00
  3.60000000E+02  1.60000000E+02  0.00000000E+00
  3.60000000E+02  1.40000000E+02  0.00000000E+00
  3.60000000E+02  1.20000000E+02  0.00000000E+00
  3.60000000E+02  1.00000000E+02  0.00000000E+00
  3.60000000E+02  8.00000000E+01  0.00000000E+00
  3.60000000E+02  6.00000000E+01  0.00000000E+00
  3.60000000E+02  4.00000000E+01  0.00000000E+00
  3.60000000E+02  2.00000000E+01  0.00000000E+00
  3.60000000E+02  4.99600361E-14  0.00000000E+00
  3.80000000E+02  3.00000000E+02  0.00000000E+00
  3.80000000E+02  2.80000000E+02  0.00000000E+00
  3.80000000E+02  2.60000000E+02  0.00000000E+00
  3.80000000E+02  2.40000000E+02  0.00000000E+00
  3.80000000E+02  2.20000000E+02  0.00000000E+00
  3.80000000E+02  2.00000000E+02  0.00000000E+00
  3.80000000E+02  1.80000000E+02  0.00000000E+00
  3.80000000E+02  1.60000000E+02  0.00000000E+00
  3.80000000E+02  1.40000000E+02  0.00000000E+00
  3.80000000E+02  1.20000000E+02  0.00000000E+00
  3.80000000E+02  1.00000000E+02  0.00000000E+00
  3.80000000E+02  8.00000000E+01  0.00000000E+00
  3.80000000E+02  6.00000000E+01  0.00000000E+00
  3.80000000E+02  4.00000000E+01  0.00000000E+00
  3.80000000E+02  2.00000000E+01  0.00000000E+00
  3.80000000E+02  4.99600361E-14  0.00000000E+00
  4.00000000E+02  3.00000000E+02  0.00000000E+00
  4.00000000E+02  2.80000000E+02  0.00000000E+00
  4.00000000E+02  2.60000000E+02  0.00000000E+00
  4.00000000E+02  2.40000000E+02  0.00000000E+00
  4.00000000E+02  2.20000000E+02  0.00000000E+00
  4.00000000E+02  2.00000000E+02  0.00000000E+00
  4.00000000E+02  1.80000000E+02  0.00000000E+00
  4.00000000E+02  1.60000000E+02  0.00000000E+00
  4.00000000E+02  1.40000000E+02  0.00000000E+00
  4.00000000E+02  1.20000000E+02  0.00000000E+00
  4.00000000E+02  1.00000000E+02  0.00000000E+00
  4.00000000E+02  8.00000000E+01  0.00000000E+00
  4.00000000E+02  6.00000000E+01  0.00000000E+00
  4.00000000E+02  4.00000000E+01  0.00000000E+00
  4.00000000E+02  2.00000000E+01  0.00000000E+00
  4.00000000E+02  4.99600361E-14  0.00000000E+00
  4.20000000E+02  3.00000000E+02  0.00000000E+00
  4.20000000E+02  2.80000000E+02  0.00000000E+00
  4.20000000E+02  2.60000000E+02  0.00000000E+00
  4.20000000E+02  2.40000000E+02  0.00000000E+00
  4.20000000E+02  2.20000000E+02  0.00000000E+00
  4.20000000E+02  2.00000000E+02  0.00000000E+00
  4.20000000E+02  1.80000000E+02  0.00000000E+00
  4.20000000E+02  1.60000000E+02  0.00000000E+00
  4.20000000E+02  1.40000000E+02  0.00000000E+00
  4.20000000E+02  1.20000000E+02  0.00000000E+00
  4.20000000E+02  1.00000000E+02  0.00000000E+00
  4.20000000E+02  8.00000000E+01  0.00000000E+00
  4.20000000E+02  6.00000000E+01  0.00000000E+00
  4.20000000E+02  4.00000000E+01  0.00000000E+00
  4.20000000E+02  2.00000000E+01  0.00000000E+00
  4.20000000E+02  4.99600361E-14  0.00000000E+00
  4.40000000E+02  3.00000000E+02  0.00000000E+00
  4.40000000E+02  2.80000000E+02  0.00000000E+00
  4.40000000E+02  2.60000000E+02  0.00000000E+00
  4.40000000E+02  2.40000000E+02  0.00000000E+00
  4.40000000E+02  2.20000000E+02  0.00000000E+00
  4.40000000E+02  2.00000000E+02  0.00000000E+00
  4.40000000E+02  1.80000000E+02  0.00000000E+00
  4.40000000E+02  1.60000000E+02  0.00000000E+00
  4.40000000E+02  1.40000000E+02  0.00000000E+00
  4.40000000E+02  1.20000000E+02  0.00000000E+00
  4.40000000E+02  1.00000000E+02  0.00000000E+00
  4.40000000E+02  8.00000000E+01  0.00000000E+00
  4.40000000E+02  6.00000000E+01  0.00000000E+00
  4.40000000E+02  4.00000000E+01  0.00000000E+00
  4.40000000E+02  2.00000000E+01  0.00000000E+00
  4.40000000E+02  4.99600361E-14  0.00000000E+00
  4.60000000E+02  3.00000000E+02  0.00000000E+00
  4.60000000E+02  2.80000000E+02  0.00000000E+00
  4.60000000E+02  2.60000000E+02  0.00000000E+00
  4.60000000E+02  2.40000000E+02  0.00000000E+00
  4.60000000E+02  2.20000000E+02  0.00000000E+00
  4.60000000E+02  2.00000000E+02  0.00000000E+00
  4.60000000E+02  1.80000000E+02  0.00000000E+00
  4.60000000E+02  1.60000000E+02  0.00000000E+00
  4.60000000E+02  1.40000000E+02  0.00000000E+00
  4.60000000E+02  1.20000000E+02  0.00000000E+00
  4.60000000E+02  1.00000000E+02  0.00000000E+00
  4.60000000E+02  8.00000000E+01  0.00000000E+00
  4.60000000E+02  6.00000000E+01  0.00000000E+00
  4.60000000E+02  4.00000000E+01  0.00000000E+00
  4.60000000E+02  2.00000000E+01  0.00000000E+00
  4.60000000E+02  4.99600361E-14  0.00000000E+00
  4.80000000E+02  3.00000000E+02  0.00000000E+00
  4.80000000E+02  2.80000000E+02  0.00000000E+00
  4.80000000E+02  2.60000000E+02  0.00000000E+00
  4.80000000E+02  2.40000000E+02  0.00000000E+00
  4.80000000E+02  2.20000000E+02  0.00000000E+00
  4.80000000E+02  2.00000000E+02  0.00000000E+00
  4.80000000E+02  1.80000000E+02  0.00000000E+00
  4.80000000E+02  1.60000000E+02  0.00000000E+00
  4.80000000E+02  1.40000000E+02  0.00000000E+00
  4.80000000E+02  1.20000000E+02  0.00000000E+00
  4.80000000E+02  1.00000000E+02  0.00000000E+00
  4.80000000E+02  8.00000000E+01  0.00000000E+00
  4.80000000E+02  6.00000000E+01  0.00000000E+00
  4.80000000E+02  4.00000000E+01  0.00000000E+00
  4.80000000E+02  2.00000000E+01  0.00000000E+00
  4.80000000E+02  4.99600361E-14  0.00000000E+00
  5.00000000E+02  3.00000000E+02  0.00000000E+00
  5.00000000E+02  2.80000000E+02  0.00000000E+00
  5.00000000E+02  2.60000000E+02  0.00000000E+00
  5.00000000E+02  2.40000000E+02  0.00000000E+00
  5.00000000E+02  2.20000000E+02  0.00000000E+00
  5.00000000E+02  2.00000000E+02  0.00000000E+00
  5.00000000E+02  1.80000000E+02  0.00000000E+00
  5.00000000E+02  1.60000000E+02  0.00000000E+00
  5.00000000E+02  1.40000000E+02  0.00000000E+00
  5.00000000E+02  1.20000000E+02  0.00000000E+00
  5.00000000E+02  1.00000000E+02  0.00000000E+00
  5.00000000E+02  8.00000000E+01  0.00000000E+00
  5.00000000E+02  6.00000000E+01  0.00000000E+00
  5.00000000E+02  4.00000000E+01  0.00000000E+00
  5.00000000E+02  2.00000000E+01  0.00000000E+00
  5.00000000E+02  4.99600361E-14  0.00000000E+00
  5.20000000E+02  3.00000000E+02  0.00000000E+00
  5.20000000E+02  2.80000000E+02  0.00000000E+00
  5.20000000E+02  2.60000000E+02  0.00000000E+00
  5.20000000E+02  2.40000000E+02  0.00000000E+00
  5.20000000E+02  2.20000000E+02  0.00000000E+00
  5.20000000E+02  2.00000000E+02  0.00000000E+00
  5.20000000E+02  1.80000000E+02  0.00000000E+00
  5.20000000E+02  1.60000000E+02  0.00000000E+00
  5.20000000E+02  1.40000000E+02  0.00000000E+00
  5.20000000E+02  1.20000000E+02  0.00000000E+00
  5.20000000E+02  1.00000000E+02  0.00000000E+00
  5.20000000E+02  8.00000000E+01  0.00000000E+00
  5.20000000E+02  6.00000000E+01  0.00000000E+00
  5.20000000E+02  4.00000000E+01  0.00000000E+00
  5.20000000E+02  2.00000000E+01  0.00000000E+00
  5.20000000E+02  4.99600361E-14  0.00000000E+00
  5.40000000E+02  3.00000000E+02  0.00000000E+00
  5.40000000E+02  2.80000000E+02  0.00000000E+00
  5.40000000E+02  2.60000000E+02  0.00000000E+00
  5.40000000E+02  2.40000000E+02  0.00000000E+00
  5.40000000E+02  2.20000000E+02  0.00000000E+00
  5.40000000E+02  2.00000000E+02  0.00000000E+00
  5.40000000E+02  1.80000000E+02  0.00000000E+00
  5.40000000E+02  1.60000000E+02  0.00000000E+00
  5.40000000E+02  1.40000000E+02  0.00000000E+00
  5.40000000E+02  1.20000000E+02  0.00000000E+00
  5.40000000E+02  1.00000000E+02  0.00000000E+00
  5.40000000E+02  8.00000000E+01  0.00000000E+00
  5.40000000E+02  6.00000000E+01  0.00000000E+00
  5.40000000E+02  4.00000000E+01  0.00000000E+00
  5.40000000E+02  2.00000000E+01  0.00000000E+00
  5.40000000E+02  4.99600361E-14  0.00000000E+00
  5.60000000E+02  3.00000000E+02  0.00000000E+00
  5.60000000E+02  2.80000000E+02  0.00000000E+00
  5.60000000E+02  2.60000000E+02  0.00000000E+00
  5.60000000E+02  2.40000000E+02  0.00000000E+00
  5.60000000E+02  2.20000000E+02  0.00000000E+00
  5.60000000E+02  2.00000000E+02  0.00000000E+00
  5.60000000E+02  1.80000000E+02  0.00000000E+00
  5.60000000E+02  1.60000000E+02  0.00000000E+00
  5.60000000E+02  1.40000000E+02  0.00000000E+00
  5.60000000E+02  1.20000000E+02  0.00000000E+00
  5.60000000E+02  1.00000000E+02  0.00000000E+00
  5.60000000E+02  8.00000000E+01  0.00000000E+00
  5.60000000E+02  6.00000000E+01  0.00000000E+00
  5.60000000E+02  4.00000000E+01  0.00000000E+00
  5.60000000E+02  2.00000000E+01  0.00000000E+00
  5.60000000E+02  4.99600361E-14  0.00000000E+00
  5.80000000E+02  3.00000000E+02  0.00000000E+00
  5.80000000E+02  2.80000000E+02  0.00000000E+00
  5.80000000E+02  2.60000000E+02  0.00000000E+00
  5.80000000E+02  2.40000000E+02  0.00000000E+00
  5.80000000E+02  2.20000000E+02  0.00000000E+00
  5.80000000E+02  2.00000000E+02  0.00000000E+00
  5.80000000E+02  1.80000000E+02  0.00000000E+00
  5.80000000E+02  1.60000000E+02  0.00000000E+00
  5.80000000E+02  1.40000000E+02  0.00000000E+00
  5.80000000E+02  1.20000000E+02  0.00000000E+00
  5.80000000E+02  1.00000000E+02  0.00000000E+00
  5.80000000E+02  8.00000000E+01  0.00000000E+00
  5.80000000E+02  6.00000000E+01  0.00000000E+00
  5.80000000E+02  4.00000000E+01  0.00000000E+00
  5.80000000E+02  2.00000000E+01  0.00000000E+00
  5.80000000E+02  4.99600361E-14  0.00000000E+00
  6.00000000E+02  3.00000000E+02  0.00000000E+00
  6.00000000E+02  2.80000000E+02  0.00000000E+00
  6.00000000E+02  2.60000000E+02  0.00000000E+00
  6.00000000E+02  2.40000000E+02  0.00000000E+00
  6.00000000E+02  2.20000000E+02  0.00000000E+00
  6.00000000E+02  2.00000000E+02  0.00000000E+00
  6.00000000E+02  1.80000000E+02  0.00000000E+00
  6.00000000E+02  1.60000000E+02  0.00000000E+00
  6.00000000E+02  1.40000000E+02  0.00000000E+00
  6.00000000E+02  1.20000000E+02  0.00000000E+00
  6.00000000E+02  1.00000000E+02  0.00000000E+00
  6.00000000E+02  8.00000000E+01  0.00000000E+00
  6.00000000E+02  6.00000000E+01  0.00000000E+00
  6.00000000E+02  4.00000000E+01  0.00000000E+00
  6.00000000E+02  2.00000000E+01  0.00000000E+00
  6.00000000E+02  4.99600361E-14  0.00000000E+00
CELLS       450      2250
         4           0           1          17          16
         4           1           2          18          17
         4           2           3          19          18
         4           3           4          20          19
         4           4           5          21          20
         4           5           6          22          21
         4           6           7          23          22
         4           7           8          24          23
         4           8           9          25          24
         4           9          10          26          25
         4          10          11          27          26
         4          11          12          28          27
         4          12          13          29          28
         4          13          14          30          29
         4          14          15          31          30
         4          16          17          33          32
         4          17          18          34          33
         4          18          19          35          34
         4          19          20          36          35
         4          20          21          37          36
         4          21          22          38          37
         4          22          23          39          38
         4          23          24          40          39
         4          24          25          41          40
         4          25          26          42          41
         4          26          27          43          42
         4          27          28          44          43
         4          28          29          45          44
         4          29          30          46          45
         4          30          31          47          46
         4          32          33          49          48
         4          33          34          50          49
         4          34          35          51          50
         4          35          36          52          51
         4          36          37          53          52
         4          37          38          54          53
         4          38          39          55          54
         4          39          40          56          55
         4          40          41          57          56
         4          41          42          58          57
         4          42          43          59          58
         4          43          44          60          59
         4          44          45          61          60
         4          45          46          62          61
         4          46          47          63          62
         4          48          49          65          64
         4          49          50          66          65
         4          50          51          67          66
         4          51          52          68          67
         4          52          53          69          68
         4          53          54          70          69
         4          54          55          71          70
         4          55          56          72          71
         4          56          57          73          72
         4          57          58          74          73
         4          58          59          75          74
         4          59          60          76          75
         4          60          61          77          76
         4          61          62          78          77
         4          62          63          79          78
         4          64          65          81          80
         4          65          66          82          81
         4          66          67          83          82
         4          67          68          84          83
         4          68          69          85          84
         4          69          70          86          85
         4          70          71          87          86
         4          71          72          88          87
         4          72          73          89          88
         4          73          74          90          89
         4          74          75          91          90
         4          75          76          92          91
         4          76          77          93          92
         4          77          78          94          93
         4          78          79          95          94
         4          80          81          97          96
         4          81          82          98          97
         4          82          83          99          98
         4          83          84         100          99
         4          84          85         101         100
         4          85          86         102         101
         4          86          87         103         102
         4          87          88         104         103
         4          88          89         105         104
         4          89          90         106         105
         4          90          91         107         106
         4          91          92         108         107
         4          92          93         109         108
         4          93          94         110         109
         4          94          95         111         110
         4          96          97         113         112
         4          97          98         114         113
         4          98          99         115         114
         4          99         100         116         115
         4         100         101         117         116
         4         101         102         118         117
         4         102         103         119         118
         4         103         104         120         119
         4         104         105         121         120
         4         105         106         122         121
         4         106         107         123         122
         4         107         108         124         123
         4         108         109         125         124
         4         109         110         126         125
         4         110         111         127         126
         4         112         113         129         128
         4         113         114         130         129
         4         114         115         131         130
         4         115         116         132         131
         4         116         117         133         132
         4         117         118         134         133
         4         118         119         135         134
         4         119         120         136         135
         4         120         121         137         136
         4         121         122         138         137
         4         122         123         139         138
         4         123         124         140         139
         4         124         125         141         140
         4         125         126         142         141
         4         126         127         143         142
         4         128         129         145         144
         4         129         130         146         145
         4         130         131         147         146
         4         131         132         148         147
         4         132         133         149         148
         4         133         134         150         149
         4         134         135         151         150
         4         135         136         152         151
         4         136         137         153         152
         4         137         138         154         153
         4         138         139         155         154
         4         139         140         156         155
         4         140         141         157         156
         4         141         142         158         157
         4         142         143         159         158
         4         144         145         161         160
         4         145         146         162         161
         4         146         147         163         162
         4         147         148         164         163
         4         148         149         165         164
         4         149         150         166         165
         4         150         151         167         166
         4         151         152         168         167
         4         152         153         169         168
         4         153         154         170         169
         4         154         155         171         170
         4         155         156         172         171
         4         156         157         173         172
         4         157         158         174         173
         4         158         159         175         174
         4         160         161         177         176
         4         161         162         178         177
         4         162         163         179         178
         4         163         164         180         179
         4         164         165         181         180
         4         165         166         182         181
         4         166         167         183         182
         4         167         168         184         183
         4         168         169         185         184
         4         169         170         186         185
         4         170         171         187         186
         4         171         172         188         187
         4         172         173         189         188
         4         173         174         190         189
         4         174         175         191         190
         4         176         177         193         192
         4         177         178         194         193
         4         178         179         195         194
         4         179         180         196         195
         4         180         181         197         196
         4         181         182         198         197
         4         182         183         199         198
         4         183         184         200         199
         4         184         185         201         200
         4         185         186         202         201
         4         186         187         203         202
         4         187         188         204         203
         4         188         189         205         204
         4         189         190         206         205
         4         190         191         207         206
         4         192         193         209         208
         4         193         194         210         209
         4         194         195         211         210
         4         195         196         212         211
         4         196         197         213         212
         4         197         198         214         213
         4         198         199         215         214
         4         199         200         216         215
         4         200         201         217         216
         4         201         202         218         217
         4         202         203         219         218
         4         203         204         220         219
         4         204         205         221         220
         4         205         206         222         221
         4         206         207         223         222
         4         208         209         225         224
         4         209         210         226         225
         4         210         211         227         226
         4         211         212         228         227
         4         212         213         229         228
         4         213         214         230         229
         4         214         215         231         230
         4         215         216         232         231
         4         216         217         233         232
         4         217         218         234         233
         4         218         219         235         234
         4         219         220         236         235
         4         220         221         237         236
         4         221         222         238         237
         4         222         223         239         238
         4         224         225         241         240
         4         225         226         242         241
         4         226         227         243         242
         4         227         228         244         243
         4         228         229         245         244
         4         229         230         246         245
         4         230         231         247         246
         4         231         232         248         247
         4         232         233         249         248
         4         233         234         250         249
         4         234         235         251         250
         4         235         236         252         251
         4         236         237         253         252
         4         237         238         254         253
         4         238         239         255         254
         4         240         241         257         256
         4         241         242         258         257
         4         242         243         259         258
         4         243         244         260         259
         4         244         245         261         260
         4         245         246         262         261
         4         246         247         263         262
         4         247         248         264         263
         4         248         249         265         264
         4         249         250         266         265
         4         250         251         267         266
         4         251         252         268         267
         4         252         253         269         268
         4         253         254         270         269
         4         254         255         271         270
         4         256         257         273         272
         4         257         258         274         273
         4         258         259         275         274
         4         259         260         276         275
         4         260         261         277         276
         4         261         262         278         277
         4         262         263         279         278
         4         263         264         280         279
         4         264         265         281         280
         4         265         266         282         281
         4         266         267         283         282
         4         267         268         284         283
         4         268         269         285         284
         4         269         270         286         285
         4         270         271         287         286
         4         272         273         289         288
         4         273         274         290         289
         4         274         275         291         290
         4         275         276         292         291
         4         276         277         293         292
         4         277         278         294         293
         4         278         279         295         294
         4         279         280         296         295
         4         280         281         297         296
         4         281         282         298         297
         4         282         283         299         298
         4         283         284         300         299
         4         284         285         301         300
         4         285         286         302         301
         4         286         287         303         302
         4         288         289         305         304
         4         289         290         306         305
         4         290         291         307         306
         4         291         292         308         307
         4         292         293         309         308
         4         293         294         310         309
         4         294         295         311         310
         4         295         296         312         311
         4         296         297         313         312
         4         297         298         314         313
         4         298         299         315         314
         4         299         300         316         315
         4         300         301         317         316
         4         301         302         318         317
         4         302         303         319         318
         4         304         305         321         320
         4         305         306         322         321
         4         306         307         323         322
         4         307         308         324         323
         4         308         309         325         324
         4         309         310         326         325
         4         310         311         327         326
         4         311         312         328         327
         4         312         313         329         328
         4         313         314         330         329
         4         314         315         331         330
         4         315         316         332         331
         4         316         317         333         332
         4         317         318         334         333
         4         318         319         335         334
         4         320         321         337         336
         4         321         322         338         337
         4         322         323         339         338
         4         323         324         340         339
         4         324         325         341         340
         4         325         326         342         341
         4         326         327         343         342
         4         327         328         344         343
         4         328         329         345         344
         4         329         330         346         345
         4         330         331         347         346
         4         331         332         348         347
         4         332         333         349         348
         4         333         334         350         349
         4         334         335         351         350
         4         336         337         353         352
         4         337         338         354         353
         4         338         339         355         354
         4         339         340         356         355
         4         340         341         357         356
         4         341         342         358         357
         4         342         343         359         358
         4         343         344         360         359
         4         344         345         361         360
         4         345         346         362         361
         4         346         347         363         362
         4         347         348         364         363
         4         348         349         365         364
         4         349         350         366         365
         4         350         351         367         366
         4         352         353         369         368
         4         353         354         370         369
         4         354         355         371         370
         4         355         356         372         371
         4         356         357         373         372
         4         357         358         374         373
         4         358         359         375         374
         4         359         360         376         375
         4         360         361         377         376
         4         361         362         378         377
         4         362         363         379         378
         4         363         364         380         379
         4         364         365         381         380
         4         365         366         382         381
         4         366         367         383         382
         4         368         369         385         384
         4         369         370         386         385
         4         370         371         387         386
         4         371         372         388         387
         4         372         373         389         388
         4         373         374         390         389
         4         374         375         391         390
         4         375         376         392         391
         4         376         377         393         392
         4         377         378         394         393
         4         378         379         395         394
         4         379         380         396         395
         4         380         381         397         396
         4         381         382         398         397
         4         382         383         399         398
         4         384         385         401         400
         4         385         386         402         401
         4         386         387         403         402
         4         387         388         404         403
         4         388         389         405         404
         4         389         390         406         405
         4         390         391         407         406
         4         391         392         408         407
         4         392         393         409         408
         4         393         394         410         409
         4         394         395         411         410
         4         395         396         412         411
         4         396         397         413         412
         4         397         398         414         413
         4         398         399         415         414
         4         400         401         417         416
         4         401         402         418         417
         4         402         403         419         418
         4         403         404         420         419
         4         404         405         421         420
         4         405         406         422         421
         4         406         407         423         422
         4         407         408         424         423
         4         408         409         425         424
         4         409         410         426         425
         4         410         411         427         426
         4         411         412         428         427
         4         412         413         429         428
         4         413         414         430         429
         4         414         415         431         430
         4         416         417         433         432
         4         417         418         434         433
         4         418         419         435         434
         4         419         420         436         435
         4         420         421         437         436
         4         421         422         438         437
         4         422         423         439         438
         4         423         424         440         439
         4         424         425         441         440
         4         425         426         442         441
         4         426         427         443         442
         4         427         428         444         443
         4         428         429         445         444
         4         429         430         446         445
         4         430         431         447         446
         4         432         433         449         448
         4         433         434         450         449
         4         434         435         451         450
         4         435         436         452         451
         4         436         437         453         452
         4         437         438         454         453
         4         438         439         455         454
         4         439         440         456         455
         4         440         441         457         456
         4         441         442         458         457
         4         442         443         459         458
         4         443         444         460         459
         4         444         445         461         460
         4         445         446         462         461
         4         446         447         463         462
         4         448         449         465         464
         4         449         450         466         465
         4         450         451         467         466
         4         451         452         468         467
         4         452         453         469         468
         4         453         454         470         469
         4         454         455         471         470
         4         455         456         472         471
         4         456         457         473         472
         4         457         458         474         473
         4         458         459         475         474
         4         459         460         476         475
         4         460         461         477         476
         4         461         462         478         477
         4         462         463         479         478
         4         464         465         481         480
         4         465         466         482         481
         4         466         467         483         482
         4         467         468         484         483
         4         468         469         485         484
         4         469         470         486         485
         4         470         471         487         486
         4         471         472         488         487
         4         472         473         489         488
         4         473         474         490         489
         4         474         475         491         490
         4         475         476         492         491
         4         476         477         493         492
         4         477         478         494         493
         4         478         479         495         494
CELL_TYPES        450
9
9
9
9
9
9
9
9
9
9
9
9
9
9
9
9
9
9
9
9
9
9
9
9
9
9
9
9
9
9
9
9
9
9
9
9
9
9
9
9
9
9
9
9
9
9
9
9
9
9
9
9
9
9
9
9
9
9
9
9
9
9
9
9
9
9
9
9
9
9
9
9
9
9
9
9
9
9
9
9
9
9
9
9
9
9
9
9
9
9
9
9
9
9
9
9
9
9
9
9
9
9
9
9
9
9
9
9
9
9
9
9
9
9
9
9
9
9
9
9
9
9
9
9
9
9
9
9
9
9
9
9
9
9
9
9
9
9
9
9
9
9
9
9
9
9
9
9
9
9
9
9
9
9
9
9
9
9
9
9
9
9
9
9
9
9
9
9
9
9
9
9
9
9
9
9
9
9
9
9
9
9
9
9
9
9
9
9
9
9
9
9
9
9
9
9
9
9
9
9
9
9
9
9
9
9
9
9
9
9
9
9
9
9
9
9
9
9
9
9
9
9
9
9
9
9
9
9
9
9
9
9
9
9
9
9
9
9
9
9
9
9
9
9
9
9
9
9
9
9
9
9
9
9
9
9
9
9
9
9
9
9
9
9
9
9
9
9
9
9
9
9
9
9
9
9
9
9
9
9
9
9
9
9
9
9
9
9
9
9
9
9
9
9
9
9
9
9
9
9
9
9
9
9
9
9
9
9
9
9
9
9
9
9
9
9
9
9
9
9
9
9
9
9
9
9
9
9
9
9
9
9
9
9
9
9
9
9
9
9
9
9
9
9
9
9
9
9
9
9
9
9
9
9
9
9
9
9
9
9
9
9
9
9
9
9
9
9
9
9
9
9
9
9
9
9
9
9
9
9
9
9
9
9
9
9
9
9
9
9
9
9
9
9
9
9
9
9
9
9
9
9
9
9
9
9
9
9
9
9
9
9
9
9
9
9
9
9
9
9
9
9
9
9
9
9
9
9
9
9
9
9
9
9
9
9
9
9
9
9
9
9
9
9
9
9
9
9
9
9
POINT_DATA       496
SCALARS p double 
LOOKUP_TABLE default
   90000000.0000000     
   90000000.0000000     
   90000000.0000000     
   90000000.0000000     
   90000000.0000000     
   90000000.0000000     
   90000000.0000000     
   90000000.0000000     
   90000000.0000000     
   90000000.0000000     
   90000000.0000000     
   90000000.0000000     
   90000000.0000000     
   90000000.0000000     
   90000000.0000000     
   90000000.0000000     
   86804440.2769621     
   86804223.7873209     
   86803679.1549060     
   86802955.1927165     
   86802218.8567285     
   86801657.0203222     
   86801272.7255580     
   86800976.8545603     
   86800730.4123232     
   86800517.0395561     
   86800327.7003544     
   86800157.0147082     
   86800001.5361741     
   86799859.9822818     
   86799729.1020956     
   86799665.4899151     
   83626831.4202547     
   83626541.7319462     
   83625795.0991081     
   83624904.3110033     
   83624089.0920905     
   83623368.9177518     
   83622745.4991344     
   83622218.4328273     
   83621764.0925388     
   83621364.0510763     
   83621007.0755702     
   83620686.3600179     
   83620399.1192156     
   83620147.3558674     
   83619954.0511483     
   83619877.1744830     
   80487961.5068974     
   80487731.9003244     
   80487180.1744685     
   80486470.4170475     
   80485681.9797289     
   80484899.7387035     
   80484166.0988899     
   80483496.2427616     
   80482893.1133625     
   80482350.8022371     
   80481863.1796566     
   80481427.0760312     
   80481044.0538718     
   80480725.5407934     
   80480499.5095384     
   80480414.3060117     
   77406580.4961179     
   77406418.7244037     
   77405974.8632436     
   77405341.8547265     
   77404603.0186678     
   77403819.5452919     
   77403041.0326152     
   77402297.9881240     
   77401605.5992903     
   77400970.3871263     
   77400394.9093554     
   77399882.3672068     
   77399440.4308398     
   77399085.0503469     
   77398843.7662547     
   77398755.9039464     
   74397002.6381661     
   74396861.2695721     
   74396470.3038791     
   74395895.4298162     
   74395199.8499252     
   74394438.9132400     
   74393657.0619262     
   74392887.9967085     
   74392154.4714247     
   74391471.0474618     
   74390847.9802479     
   74390294.9030676     
   74389824.2721027     
   74389454.1801995     
   74389209.8434748     
   74389122.7267576     
   71469535.6076048     
   71469408.1065102     
   71469053.2970727     
   71468525.2920748     
   71467875.1401098     
   71467149.5158591     
   71466388.8313329     
   71465626.0447985     
   71464886.7809985     
   71464190.5127101     
   71463552.8332105     
   71462988.1303675     
   71462512.0620565     
   71462143.3782929     
   71461904.5350977     
   71461820.6079236     
   68630257.7437009     
   68630142.7162183     
   68629820.7687548     
   68629337.0667063     
   68628734.4986332     
   68628053.0987930     
   68627328.9811737     
   68626593.4719283     
   68625872.8830619     
   68625189.1178099     
   68624560.9505044     
   68624005.6748224     
   68623540.6714446     
   68623184.4486193     
   68622956.7686219     
   68622877.5995124     
   65880918.1836119     
   65880815.2663682     
   65880525.2479560     
   65880085.3404092     
   65879531.8978177     
   65878899.6931040     
   65878221.1154084     
   65877525.4890665     
   65876838.7756412     
   65876183.7795682     
   65875580.8094545     
   65875048.5840098     
   65874605.0853260     
   65874268.0390519     
   65874054.7535390     
   65873981.1714956     
   63219133.3118350     
   63219041.8462404     
   63218782.2134624     
   63218384.5476449     
   63217879.6224204     
   63217297.8318367     
   63216668.3560051     
   63216018.5134678     
   63215373.3865815     
   63214755.7755509     
   63214186.4425330     
   63213684.5122647     
   63213267.8300382     
   63212953.0639020     
   63212755.3773671     
   63212687.5872725     
   60638814.4878293     
   60638733.3155065     
   60638501.2093652     
   60638142.3007705     
   60637682.6269939     
   60637148.8892697     
   60636567.5092340     
   60635963.9232027     
   60635362.1137966     
   60634784.3784136     
   60634251.2929878     
   60633781.7765615     
   60633393.1247166     
   60633100.8730595     
   60632918.3815446     
   60632856.0917705     
   58130765.4450050     
   58130692.9734317     
   58130484.3241906     
   58130158.8384147     
   58129738.7021718     
   58129247.5830094     
   58128709.5888194     
   58128148.4827412     
   58127587.1193785     
   58127047.0730552     
   58126548.4115717     
   58126109.5433060     
   58125747.0470602     
   58125475.3941367     
   58125306.4949380     
   58125249.0451833     
   55683385.8760560     
   55683320.2193857     
   55683130.0894344     
   55682831.2911664     
   55682443.0910694     
   55681986.8100519     
   55681484.7211971     
   55680959.1988477     
   55680432.0769205     
   55679924.1765312     
   55679454.9553833     
   55679042.2200140     
   55678701.8352935     
   55678447.3702185     
   55678289.6378020     
   55678236.1178621     
   53283422.0315256     
   53283361.1479841     
   53283184.1010444     
   53282904.3858996     
   53282539.2975844     
   53282108.5265165     
   53281633.0296695     
   53281134.1395235     
   53280632.8718451     
   53280149.3909571     
   53279702.5863839     
   53279309.7101195     
   53278986.0233652     
   53278744.4089353     
   53278594.9219339     
   53278544.2753030     
   50916713.5266347     
   50916655.3305939     
   50916485.7517775     
   50916217.1408202     
   50915865.7571146     
   50915450.3876880     
   50914991.2168983     
   50914508.9219937     
   50914023.9609369     
   50913556.0124727     
   50913123.5237194     
   50912743.3186729     
   50912430.2237820     
   50912196.6756739     
   50912052.2914274     
   50912003.4020861     
   48568896.2539743     
   48568838.7009959     
   48568671.0532232     
   48568405.6140105     
   48568058.5120165     
   48567648.3472961     
   48567195.0758933     
   48566719.1166245     
   48566240.6500583     
   48565779.0698642     
   48565352.5410109     
   48564977.6183556     
   48564668.8836239     
   48564438.5689368     
   48564296.1503855     
   48564247.9141776     
   46226032.5709908     
   46225973.7226345     
   46225802.7511912     
   46225532.9507542     
   46225181.1837953     
   46224766.5493457     
   46224309.2936818     
   46223829.9517475     
   46223348.6893921     
   46222884.8033848     
   46222456.3291232     
   46222079.7053704     
   46221769.4511369     
   46221537.8214622     
   46221394.4253541     
   46221345.8088605     
   43875150.4780410     
   43875088.5553760     
   43874909.4611706     
   43874628.4735072     
   43874264.0085753     
   43873836.3023048     
   43873366.3571717     
   43872875.1433369     
   43872383.0196254     
   43871909.3230639     
   43871472.0673392     
   43871087.6905282     
   43870770.7998891     
   43870533.8752517     
   43870386.9113225     
   43870337.0013666     
   41504682.5160044     
   41504615.9496813     
   41504424.5510259     
   41504126.5446096     
   41503742.6726481     
   41503294.8808868     
   41502805.3140920     
   41502295.6075295     
   41501786.4291379     
   41501297.2060844     
   41500845.9604264     
   41500449.1802265     
   41500121.6623968     
   41499876.2800603     
   41499723.6491995     
   41499671.6955053     
   39104802.2202863     
   39104729.7023765     
   39104522.5996668     
   39104203.0258936     
   39103794.7696432     
   39103321.9755170     
   39102808.2072604     
   39102275.8708276     
   39101745.9317608     
   39101237.8361737     
   39100769.5374636     
   39100357.5365156     
   39100016.8567139     
   39099760.8944226     
   39099601.1109411     
   39099546.5634236     
   36667661.1337111     
   36667581.6734680     
   36667356.4243770     
   36667012.3208558     
   36666576.8586253     
   36666076.7622263     
   36665537.1468706     
   36664981.1325394     
   36664429.8079093     
   36663902.4156932     
   36663416.6319761     
   36662988.8265248     
   36662634.2091260     
   36662366.7872507     
   36662199.0871657     
   36662141.6282104     
   34187532.7910823     
   34187445.7742300     
   34187201.0817500     
   34186831.3992447     
   34186368.5176897     
   34185841.9799066     
   34185278.3959692     
   34184701.3387786     
   34184131.6504042     
   34183587.9743261     
   34183087.3527683     
   34182645.7600834     
   34182278.4648651     
   34182000.1276130     
   34181824.5623231     
   34181764.1335122     
   31660872.0527487     
   31660777.3027403     
   31660513.2175528     
   31660119.1808591     
   31659631.7703005     
   31659083.3863894     
   31658501.8256780     
   31657910.6019258     
   31657329.7230636     
   31656776.6587892     
   31656267.3122733     
   31655816.8719618     
   31655440.4386909     
   31655153.3130141     
   31654970.8270305     
   31654907.6494548     
   29086299.0364341     
   29086196.8776320     
   29085915.0241630     
   29085500.5516882     
   29084995.1687653     
   29084433.8746893     
   29083845.0004659     
   29083251.1918332     
   29082670.8207218     
   29082119.4600761     
   29081611.2478800     
   29081160.0757286     
   29080780.5331960     
   29080488.4684069     
   29080300.9628737     
   29080235.5508378     
   26464517.0168885     
   26464408.3460419     
   26464112.2066512     
   26463684.4522422     
   26463172.0018645     
   26462611.7115735     
   26462031.3182786     
   26461451.4690312     
   26460887.9464105     
   26460353.6503053     
   26459860.2829805     
   26459419.8305213     
   26459045.8769137     
   26458754.5838582     
   26458564.9775922     
   26458498.1488356     
   23798173.3248843     
   23798059.7164646     
   23797755.0707932     
   23797325.2352294     
   23796821.8680424     
   23796282.1102761     
   23795731.3387880     
   23795186.8076481     
   23794660.7812435     
   23794162.8515830     
   23793701.7144125     
   23793286.8035519     
   23792929.9893489     
   23792647.2347653     
   23792459.5614275     
   23792392.4508080     
   21091671.7226092     
   21091555.6369304     
   21091251.4080498     
   21090836.1423242     
   21090364.4873985     
   21089870.8817867     
   21089375.8753224     
   21088891.9694543     
   21088427.3534582     
   21087988.0835147     
   21087579.6227028     
   21087208.2890650     
   21086883.2756372     
   21086619.2656099     
   21086438.8950780     
   21086373.0162627     
   18350944.0826364     
   18350829.4381346     
   18350539.6285252     
   18350163.6224442     
   18349754.3118419     
   18349338.2655970     
   18348928.6438542     
   18348532.6872032     
   18348154.6920314     
   18347797.5902217     
   18347463.9445066     
   18347156.9453308     
   18346881.8662892     
   18346650.1137600     
   18346484.3924783     
   18346421.7106314     
   15583188.9844273     
   15583082.7485186     
   15582831.2158509     
   15582531.9671936     
   15582223.9649789     
   15581919.7804401     
   15581625.3445305     
   15581343.5003540     
   15581075.7255197     
   15580822.8498286     
   15580585.4892760     
   15580364.4359619     
   15580161.4752417     
   15579980.5812401     
   15579840.3013254     
   15579784.2829668     
   12796583.8192820     
   12796502.8993271     
   12796337.4874303     
   12796168.1550469     
   12796000.9512257     
   12795839.5165822     
   12795685.1241570     
   12795538.3278845     
   12795399.3037335     
   12795268.0349115     
   12795144.3973102     
   12795028.2298725     
   12794919.3495045     
   12794818.2739348     
   12794723.3356148     
   12794676.8318696     
   10000000.0000000     
   10000000.0000000     
   10000000.0000000     
   10000000.0000000     
   10000000.0000000     
   10000000.0000000     
   10000000.0000000     
   10000000.0000000     
   10000000.0000000     
   10000000.0000000     
   10000000.0000000     
   10000000.0000000     
   10000000.0000000     
  10000000.00000000     
   10000000.0000000     
   10000000.0000000     
VECTORS u double 
    0.00000E+00         0.20779E-01         0.00000E+00
    0.00000E+00         0.19850E-01         0.00000E+00
    0.00000E+00         0.18609E-01         0.00000E+00
    0.00000E+00         0.17212E-01         0.00000E+00
    0.00000E+00         0.15761E-01         0.00000E+00
    0.00000E+00         0.14347E-01         0.00000E+00
    0.00000E+00         0.12981E-01         0.00000E+00
    0.00000E+00         0.11655E-01         0.00000E+00
    0.00000E+00         0.10353E-01         0.00000E+00
    0.00000E+00         0.90559E-02         0.00000E+00
    0.00000E+00         0.77465E-02         0.00000E+00
    0.00000E+00         0.64040E-02         0.00000E+00
    0.00000E+00         0.50035E-02         0.00000E+00
    0.00000E+00         0.35119E-02         0.00000E+00
    0.00000E+00         0.18805E-02         0.00000E+00
    0.00000E+00         0.00000E+00         0.00000E+00
    0.55236E-02         0.20091E-01         0.00000E+00
    0.46396E-02         0.19198E-01         0.00000E+00
    0.38488E-02         0.18043E-01         0.00000E+00
    0.31771E-02         0.16752E-01         0.00000E+00
    0.26285E-02         0.15423E-01         0.00000E+00
    0.23252E-02         0.14097E-01         0.00000E+00
    0.21282E-02         0.12786E-01         0.00000E+00
    0.19610E-02         0.11496E-01         0.00000E+00
    0.18052E-02         0.10219E-01         0.00000E+00
    0.16505E-02         0.89429E-02         0.00000E+00
    0.14887E-02         0.76506E-02         0.00000E+00
    0.13109E-02         0.63229E-02         0.00000E+00
    0.11059E-02         0.49356E-02         0.00000E+00
    0.85564E-03         0.34565E-02         0.00000E+00
    0.52556E-03         0.18374E-02         0.00000E+00
    0.00000E+00         0.00000E+00         0.00000E+00
    0.95711E-02         0.18980E-01         0.00000E+00
    0.81486E-02         0.17957E-01         0.00000E+00
    0.68058E-02         0.16869E-01         0.00000E+00
    0.57354E-02         0.15740E-01         0.00000E+00
    0.49844E-02         0.14588E-01         0.00000E+00
    0.44497E-02         0.13420E-01         0.00000E+00
    0.40471E-02         0.12232E-01         0.00000E+00
    0.37069E-02         0.11034E-01         0.00000E+00
    0.33919E-02         0.98288E-02         0.00000E+00
    0.30809E-02         0.86111E-02         0.00000E+00
    0.27573E-02         0.73690E-02         0.00000E+00
    0.24038E-02         0.60858E-02         0.00000E+00
    0.19988E-02         0.47398E-02         0.00000E+00
    0.15101E-02         0.33021E-02         0.00000E+00
    0.87905E-03         0.17338E-02         0.00000E+00
    0.00000E+00         0.00000E+00         0.00000E+00
    0.12579E-01         0.17269E-01         0.00000E+00
    0.10778E-01         0.16341E-01         0.00000E+00
    0.92801E-02         0.15388E-01         0.00000E+00
    0.80628E-02         0.14429E-01         0.00000E+00
    0.71139E-02         0.13449E-01         0.00000E+00
    0.63755E-02         0.12434E-01         0.00000E+00
    0.57773E-02         0.11386E-01         0.00000E+00
    0.52612E-02         0.10310E-01         0.00000E+00
    0.47842E-02         0.92084E-02         0.00000E+00
    0.43161E-02         0.80806E-02         0.00000E+00
    0.38321E-02         0.69185E-02         0.00000E+00
    0.33077E-02         0.57091E-02         0.00000E+00
    0.27134E-02         0.44346E-02         0.00000E+00
    0.20084E-02         0.30726E-02         0.00000E+00
    0.11324E-02         0.15997E-02         0.00000E+00
    0.00000E+00         0.00000E+00         0.00000E+00
    0.15113E-01         0.15234E-01         0.00000E+00
    0.13157E-01         0.14482E-01         0.00000E+00
    0.11512E-01         0.13705E-01         0.00000E+00
    0.10146E-01         0.12904E-01         0.00000E+00
    0.90248E-02         0.12076E-01         0.00000E+00
    0.81027E-02         0.11212E-01         0.00000E+00
    0.73245E-02         0.10310E-01         0.00000E+00
    0.66385E-02         0.93694E-02         0.00000E+00
    0.60015E-02         0.83929E-02         0.00000E+00
    0.53783E-02         0.73790E-02         0.00000E+00
    0.47383E-02         0.63225E-02         0.00000E+00
    0.40513E-02         0.52140E-02         0.00000E+00
    0.32829E-02         0.40407E-02         0.00000E+00
    0.23905E-02         0.27879E-02         0.00000E+00
    0.13189E-02         0.14427E-02         0.00000E+00
    0.00000E+00         0.00000E+00         0.00000E+00
    0.17394E-01         0.13034E-01         0.00000E+00
    0.15293E-01         0.12449E-01         0.00000E+00
    0.13508E-01         0.11834E-01         0.00000E+00
    0.11997E-01         0.11192E-01         0.00000E+00
    0.10721E-01         0.10517E-01         0.00000E+00
    0.96359E-02         0.98046E-02         0.00000E+00
    0.86940E-02         0.90513E-02         0.00000E+00
    0.78490E-02         0.82556E-02         0.00000E+00
    0.70590E-02         0.74175E-02         0.00000E+00
    0.62869E-02         0.65355E-02         0.00000E+00
    0.54986E-02         0.56060E-02         0.00000E+00
    0.46605E-02         0.46225E-02         0.00000E+00
    0.37365E-02         0.35769E-02         0.00000E+00
    0.26851E-02         0.24605E-02         0.00000E+00
    0.14577E-02         0.12678E-02         0.00000E+00
    0.00000E+00         0.00000E+00         0.00000E+00
    0.19414E-01         0.10691E-01         0.00000E+00
    0.17185E-01         0.10266E-01         0.00000E+00
    0.15272E-01         0.98115E-02         0.00000E+00
    0.13629E-01         0.93262E-02         0.00000E+00
    0.12213E-01         0.88064E-02         0.00000E+00
    0.10982E-01         0.82479E-02         0.00000E+00
    0.98929E-02         0.76474E-02         0.00000E+00
    0.89023E-02         0.70031E-02         0.00000E+00
    0.79701E-02         0.63137E-02         0.00000E+00
    0.70588E-02         0.55778E-02         0.00000E+00
    0.61331E-02         0.47927E-02         0.00000E+00
    0.51580E-02         0.39543E-02         0.00000E+00
    0.40975E-02         0.30579E-02         0.00000E+00
    0.29126E-02         0.20998E-02         0.00000E+00
    0.15613E-02         0.10789E-02         0.00000E+00
    0.00000E+00         0.00000E+00         0.00000E+00
    0.21170E-01         0.82325E-02         0.00000E+00
    0.18836E-01         0.79628E-02         0.00000E+00
    0.16812E-01         0.76658E-02         0.00000E+00
    0.15051E-01         0.73374E-02         0.00000E+00
    0.13511E-01         0.69739E-02         0.00000E+00
    0.12151E-01         0.65717E-02         0.00000E+00
    0.10930E-01         0.61280E-02         0.00000E+00
    0.98082E-02         0.56408E-02         0.00000E+00
    0.87469E-02         0.51087E-02         0.00000E+00
    0.77089E-02         0.45301E-02         0.00000E+00
    0.66589E-02         0.39034E-02         0.00000E+00
    0.55622E-02         0.32262E-02         0.00000E+00
    0.43838E-02         0.24964E-02         0.00000E+00
    0.30880E-02         0.17134E-02         0.00000E+00
    0.16386E-02         0.87901E-03         0.00000E+00
    0.00000E+00         0.00000E+00         0.00000E+00
    0.22672E-01         0.56866E-02         0.00000E+00
    0.20255E-01         0.55679E-02         0.00000E+00
    0.18136E-01         0.54251E-02         0.00000E+00
    0.16272E-01         0.52523E-02         0.00000E+00
    0.14624E-01         0.50456E-02         0.00000E+00
    0.13151E-01         0.48017E-02         0.00000E+00
    0.11814E-01         0.45181E-02         0.00000E+00
    0.10577E-01         0.41929E-02         0.00000E+00
    0.94008E-02         0.38249E-02         0.00000E+00
    0.82503E-02         0.34128E-02         0.00000E+00
    0.70907E-02         0.29555E-02         0.00000E+00
    0.58882E-02         0.24522E-02         0.00000E+00
    0.46097E-02         0.19025E-02         0.00000E+00
    0.32226E-02         0.13075E-02         0.00000E+00
    0.16958E-02         0.67084E-03         0.00000E+00
    0.00000E+00         0.00000E+00         0.00000E+00
    0.23928E-01         0.30769E-02         0.00000E+00
    0.21449E-01         0.31054E-02         0.00000E+00
    0.19253E-01         0.31133E-02         0.00000E+00
    0.17303E-01         0.30943E-02         0.00000E+00
    0.15561E-01         0.30441E-02         0.00000E+00
    0.13991E-01         0.29596E-02         0.00000E+00
    0.12556E-01         0.28386E-02         0.00000E+00
    0.11218E-01         0.26794E-02         0.00000E+00
    0.99424E-02         0.24810E-02         0.00000E+00
    0.86945E-02         0.22426E-02         0.00000E+00
    0.74405E-02         0.19635E-02         0.00000E+00
    0.61481E-02         0.16438E-02         0.00000E+00
    0.47861E-02         0.12843E-02         0.00000E+00
    0.33251E-02         0.88702E-03         0.00000E+00
    0.17377E-02         0.45649E-03         0.00000E+00
    0.00000E+00         0.00000E+00         0.00000E+00
    0.24952E-01         0.42262E-03         0.00000E+00
    0.22426E-01         0.59488E-03         0.00000E+00
    0.20170E-01         0.75054E-03         0.00000E+00
    0.18150E-01         0.88318E-03         0.00000E+00
    0.16332E-01         0.98858E-03         0.00000E+00
    0.14681E-01         0.10639E-02         0.00000E+00
    0.13162E-01         0.11071E-02         0.00000E+00
    0.11740E-01         0.11170E-02         0.00000E+00
    0.10381E-01         0.10925E-02         0.00000E+00
    0.90512E-02         0.10332E-02         0.00000E+00
    0.77184E-02         0.93893E-03         0.00000E+00
    0.63517E-02         0.81024E-03         0.00000E+00
    0.49218E-02         0.64842E-03         0.00000E+00
    0.34019E-02         0.45611E-03         0.00000E+00
    0.17679E-02         0.23772E-03         0.00000E+00
    0.00000E+00         0.00000E+00         0.00000E+00
    0.25754E-01        -0.22609E-02         0.00000E+00
    0.23197E-01        -0.19477E-02         0.00000E+00
    0.20896E-01        -0.16472E-02         0.00000E+00
    0.18821E-01        -0.13651E-02         0.00000E+00
    0.16942E-01        -0.11052E-02         0.00000E+00
    0.15227E-01        -0.87019E-03         0.00000E+00
    0.13641E-01        -0.66166E-03         0.00000E+00
    0.12151E-01        -0.48077E-03         0.00000E+00
    0.10724E-01        -0.32821E-03         0.00000E+00
    0.93286E-02        -0.20427E-03         0.00000E+00
    0.79325E-02        -0.10882E-03         0.00000E+00
    0.65065E-02        -0.41155E-04         0.00000E+00
    0.50233E-02         0.22755E-06         0.00000E+00
    0.34580E-02         0.17915E-04         0.00000E+00
    0.17892E-02         0.15921E-04         0.00000E+00
    0.00000E+00         0.00000E+00         0.00000E+00
    0.26347E-01        -0.49620E-02         0.00000E+00
    0.23770E-01        -0.45102E-02         0.00000E+00
    0.21437E-01        -0.40672E-02         0.00000E+00
    0.19323E-01        -0.36376E-02         0.00000E+00
    0.17399E-01        -0.32245E-02         0.00000E+00
    0.15635E-01        -0.28302E-02         0.00000E+00
    0.13998E-01        -0.24559E-02         0.00000E+00
    0.12457E-01        -0.21026E-02         0.00000E+00
    0.10979E-01        -0.17708E-02         0.00000E+00
    0.95332E-02        -0.14607E-02         0.00000E+00
    0.80891E-02        -0.11722E-02         0.00000E+00
    0.66186E-02        -0.90444E-03         0.00000E+00
    0.50956E-02        -0.65612E-03         0.00000E+00
    0.34970E-02        -0.42500E-03         0.00000E+00
    0.18034E-02        -0.20780E-03         0.00000E+00
    0.00000E+00         0.00000E+00         0.00000E+00
    0.26739E-01        -0.76718E-02         0.00000E+00
    0.24151E-01        -0.70833E-02         0.00000E+00
    0.21799E-01        -0.64996E-02         0.00000E+00
    0.19660E-01        -0.59241E-02         0.00000E+00
    0.17706E-01        -0.53590E-02         0.00000E+00
    0.15910E-01        -0.48058E-02         0.00000E+00
    0.14239E-01        -0.42656E-02         0.00000E+00
    0.12663E-01        -0.37391E-02         0.00000E+00
    0.11150E-01        -0.32268E-02         0.00000E+00
    0.96699E-02        -0.27288E-02         0.00000E+00
    0.81930E-02        -0.22450E-02         0.00000E+00
    0.66921E-02        -0.17748E-02         0.00000E+00
    0.51423E-02        -0.13172E-02         0.00000E+00
    0.35215E-02        -0.87060E-03         0.00000E+00
    0.18119E-02        -0.43257E-03         0.00000E+00
    0.00000E+00         0.00000E+00         0.00000E+00
    0.26937E-01        -0.10384E-01         0.00000E+00
    0.24347E-01        -0.96596E-02         0.00000E+00
    0.21987E-01        -0.89367E-02         0.00000E+00
    0.19836E-01        -0.82166E-02         0.00000E+00
    0.17868E-01        -0.75003E-02         0.00000E+00
    0.16056E-01        -0.67888E-02         0.00000E+00
    0.14367E-01        -0.60827E-02         0.00000E+00
    0.12773E-01        -0.53827E-02         0.00000E+00
    0.11241E-01        -0.46892E-02         0.00000E+00
    0.97423E-02        -0.40023E-02         0.00000E+00
    0.82475E-02        -0.33221E-02         0.00000E+00
    0.67301E-02        -0.26483E-02         0.00000E+00
    0.51657E-02        -0.19803E-02         0.00000E+00
    0.35333E-02        -0.13172E-02         0.00000E+00
    0.18156E-02        -0.65765E-03         0.00000E+00
    0.00000E+00         0.00000E+00         0.00000E+00
    0.26944E-01        -0.13092E-01         0.00000E+00
    0.24359E-01        -0.12233E-01         0.00000E+00
    0.22003E-01        -0.11372E-01         0.00000E+00
    0.19854E-01        -0.10508E-01         0.00000E+00
    0.17887E-01        -0.96412E-02         0.00000E+00
    0.16075E-01        -0.87717E-02         0.00000E+00
    0.14385E-01        -0.79001E-02         0.00000E+00
    0.12789E-01        -0.70266E-02         0.00000E+00
    0.11255E-01        -0.61517E-02         0.00000E+00
    0.97526E-02        -0.52758E-02         0.00000E+00
    0.82546E-02        -0.43989E-02         0.00000E+00
    0.67341E-02        -0.35213E-02         0.00000E+00
    0.51672E-02        -0.26428E-02         0.00000E+00
    0.35331E-02        -0.17633E-02         0.00000E+00
    0.18149E-02        -0.88242E-03         0.00000E+00
    0.00000E+00         0.00000E+00         0.00000E+00
    0.26762E-01        -0.15792E-01         0.00000E+00
    0.24189E-01        -0.14799E-01         0.00000E+00
    0.21848E-01        -0.13800E-01         0.00000E+00
    0.19715E-01        -0.12792E-01         0.00000E+00
    0.17765E-01        -0.11775E-01         0.00000E+00
    0.15968E-01        -0.10748E-01         0.00000E+00
    0.14294E-01        -0.97109E-02         0.00000E+00
    0.12712E-01        -0.86643E-02         0.00000E+00
    0.11191E-01        -0.76085E-02         0.00000E+00
    0.97014E-02        -0.65441E-02         0.00000E+00
    0.82148E-02        -0.54713E-02         0.00000E+00
    0.67046E-02        -0.43907E-02         0.00000E+00
    0.51471E-02        -0.33026E-02         0.00000E+00
    0.35212E-02        -0.22075E-02         0.00000E+00
    0.18097E-02        -0.11063E-02         0.00000E+00
    0.00000E+00         0.00000E+00         0.00000E+00
    0.26389E-01        -0.18478E-01         0.00000E+00
    0.23837E-01        -0.17351E-01         0.00000E+00
    0.21521E-01        -0.16214E-01         0.00000E+00
    0.19418E-01        -0.15063E-01         0.00000E+00
    0.17500E-01        -0.13895E-01         0.00000E+00
    0.15735E-01        -0.12710E-01         0.00000E+00
    0.14093E-01        -0.11508E-01         0.00000E+00
    0.12542E-01        -0.10289E-01         0.00000E+00
    0.11050E-01        -0.90538E-02         0.00000E+00
    0.95885E-02        -0.78021E-02         0.00000E+00
    0.81277E-02        -0.65350E-02         0.00000E+00
    0.66412E-02        -0.52530E-02         0.00000E+00
    0.51047E-02        -0.39572E-02         0.00000E+00
    0.34969E-02        -0.26485E-02         0.00000E+00
    0.17999E-02        -0.13286E-02         0.00000E+00
    0.00000E+00         0.00000E+00         0.00000E+00
    0.25822E-01        -0.21145E-01         0.00000E+00
    0.23299E-01        -0.19884E-01         0.00000E+00
    0.21022E-01        -0.18608E-01         0.00000E+00
    0.18963E-01        -0.17312E-01         0.00000E+00
    0.17092E-01        -0.15994E-01         0.00000E+00
    0.15376E-01        -0.14652E-01         0.00000E+00
    0.13782E-01        -0.13285E-01         0.00000E+00
    0.12278E-01        -0.11895E-01         0.00000E+00
    0.10831E-01        -0.10481E-01         0.00000E+00
    0.94124E-02        -0.90440E-02         0.00000E+00
    0.79916E-02        -0.75850E-02         0.00000E+00
    0.65421E-02        -0.61047E-02         0.00000E+00
    0.50387E-02        -0.46040E-02         0.00000E+00
    0.34593E-02        -0.30845E-02         0.00000E+00
    0.17848E-02        -0.15487E-02         0.00000E+00
    0.00000E+00         0.00000E+00         0.00000E+00
    0.25052E-01        -0.23784E-01         0.00000E+00
    0.22569E-01        -0.22388E-01         0.00000E+00
    0.20345E-01        -0.20972E-01         0.00000E+00
    0.18346E-01        -0.19532E-01         0.00000E+00
    0.16538E-01        -0.18063E-01         0.00000E+00
    0.14887E-01        -0.16563E-01         0.00000E+00
    0.13358E-01        -0.15033E-01         0.00000E+00
    0.11917E-01        -0.13472E-01         0.00000E+00
    0.10532E-01        -0.11882E-01         0.00000E+00
    0.91703E-02        -0.10263E-01         0.00000E+00
    0.78039E-02        -0.86161E-02         0.00000E+00
    0.64046E-02        -0.69413E-02         0.00000E+00
    0.49466E-02        -0.52400E-02         0.00000E+00
    0.34064E-02        -0.35138E-02         0.00000E+00
    0.17632E-02        -0.17657E-02         0.00000E+00
    0.00000E+00         0.00000E+00         0.00000E+00
    0.24072E-01        -0.26386E-01         0.00000E+00
    0.21643E-01        -0.24853E-01         0.00000E+00
    0.19486E-01        -0.23298E-01         0.00000E+00
    0.17563E-01        -0.21711E-01         0.00000E+00
    0.15836E-01        -0.20090E-01         0.00000E+00
    0.14268E-01        -0.18433E-01         0.00000E+00
    0.12820E-01        -0.16740E-01         0.00000E+00
    0.11457E-01        -0.15012E-01         0.00000E+00
    0.10148E-01        -0.13249E-01         0.00000E+00
    0.88586E-02        -0.11452E-01         0.00000E+00
    0.75605E-02        -0.96217E-02         0.00000E+00
    0.62250E-02        -0.77579E-02         0.00000E+00
    0.48251E-02        -0.58615E-02         0.00000E+00
    0.33357E-02        -0.39341E-02         0.00000E+00
    0.17339E-02        -0.19787E-02         0.00000E+00
    0.00000E+00         0.00000E+00         0.00000E+00
    0.22871E-01        -0.28936E-01         0.00000E+00
    0.20511E-01        -0.27267E-01         0.00000E+00
    0.18440E-01        -0.25570E-01         0.00000E+00
    0.16611E-01        -0.23836E-01         0.00000E+00
    0.14983E-01        -0.22063E-01         0.00000E+00
    0.13513E-01        -0.20249E-01         0.00000E+00
    0.12162E-01        -0.18395E-01         0.00000E+00
    0.10894E-01        -0.16502E-01         0.00000E+00
    0.96746E-02        -0.14570E-01         0.00000E+00
    0.84721E-02        -0.12601E-01         0.00000E+00
    0.72563E-02        -0.10594E-01         0.00000E+00
    0.59982E-02        -0.85484E-02         0.00000E+00
    0.46698E-02        -0.64644E-02         0.00000E+00
    0.32439E-02        -0.43429E-02         0.00000E+00
    0.16950E-02        -0.21864E-02         0.00000E+00
    0.00000E+00         0.00000E+00         0.00000E+00
    0.21437E-01        -0.31418E-01         0.00000E+00
    0.19166E-01        -0.29612E-01         0.00000E+00
    0.17200E-01        -0.27772E-01         0.00000E+00
    0.15486E-01        -0.25890E-01         0.00000E+00
    0.13975E-01        -0.23964E-01         0.00000E+00
    0.12621E-01        -0.21993E-01         0.00000E+00
    0.11383E-01        -0.19981E-01         0.00000E+00
    0.10223E-01        -0.17927E-01         0.00000E+00
    0.91073E-02        -0.15833E-01         0.00000E+00
    0.80046E-02        -0.13699E-01         0.00000E+00
    0.68845E-02        -0.11523E-01         0.00000E+00
    0.57176E-02        -0.93054E-02         0.00000E+00
    0.44747E-02        -0.70434E-02         0.00000E+00
    0.31265E-02        -0.47368E-02         0.00000E+00
    0.16441E-02        -0.23874E-02         0.00000E+00
    0.00000E+00         0.00000E+00         0.00000E+00
    0.19757E-01        -0.33811E-01         0.00000E+00
    0.17599E-01        -0.31867E-01         0.00000E+00
    0.15762E-01        -0.29882E-01         0.00000E+00
    0.14184E-01        -0.27851E-01         0.00000E+00
    0.12809E-01        -0.25772E-01         0.00000E+00
    0.11587E-01        -0.23647E-01         0.00000E+00
    0.10476E-01        -0.21479E-01         0.00000E+00
    0.94377E-02        -0.19270E-01         0.00000E+00
    0.84386E-02        -0.17021E-01         0.00000E+00
    0.74481E-02        -0.14732E-01         0.00000E+00
    0.64367E-02        -0.12399E-01         0.00000E+00
    0.53749E-02        -0.10021E-01         0.00000E+00
    0.42326E-02        -0.75924E-02         0.00000E+00
    0.29779E-02        -0.51123E-02         0.00000E+00
    0.15781E-02        -0.25802E-02         0.00000E+00
    0.00000E+00         0.00000E+00         0.00000E+00
    0.17816E-01        -0.36089E-01         0.00000E+00
    0.15801E-01        -0.34006E-01         0.00000E+00
    0.14120E-01        -0.31876E-01         0.00000E+00
    0.12701E-01        -0.29693E-01         0.00000E+00
    0.11482E-01        -0.27461E-01         0.00000E+00
    0.10409E-01        -0.25184E-01         0.00000E+00
    0.94376E-02        -0.22867E-01         0.00000E+00
    0.85321E-02        -0.20511E-01         0.00000E+00
    0.76602E-02        -0.18117E-01         0.00000E+00
    0.67930E-02        -0.15684E-01         0.00000E+00
    0.59024E-02        -0.13208E-01         0.00000E+00
    0.49596E-02        -0.10684E-01         0.00000E+00
    0.39338E-02        -0.81043E-02         0.00000E+00
    0.27907E-02        -0.54650E-02         0.00000E+00
    0.14928E-02        -0.27628E-02         0.00000E+00
    0.00000E+00         0.00000E+00         0.00000E+00
    0.15602E-01        -0.38219E-01         0.00000E+00
    0.13763E-01        -0.35997E-01         0.00000E+00
    0.12270E-01        -0.33719E-01         0.00000E+00
    0.11036E-01        -0.31385E-01         0.00000E+00
    0.99920E-02        -0.29003E-01         0.00000E+00
    0.90813E-02        -0.26578E-01         0.00000E+00
    0.82615E-02        -0.24118E-01         0.00000E+00
    0.74982E-02        -0.21626E-01         0.00000E+00
    0.67622E-02        -0.19100E-01         0.00000E+00
    0.60277E-02        -0.16539E-01         0.00000E+00
    0.52688E-02        -0.13936E-01         0.00000E+00
    0.44585E-02        -0.11283E-01         0.00000E+00
    0.35661E-02        -0.85710E-02         0.00000E+00
    0.25553E-02        -0.57899E-02         0.00000E+00
    0.13829E-02        -0.29333E-02         0.00000E+00
    0.00000E+00         0.00000E+00         0.00000E+00
    0.13100E-01        -0.40162E-01         0.00000E+00
    0.11482E-01        -0.37799E-01         0.00000E+00
    0.10212E-01        -0.35372E-01         0.00000E+00
    0.91898E-02        -0.32888E-01         0.00000E+00
    0.83378E-02        -0.30358E-01         0.00000E+00
    0.76014E-02        -0.27795E-01         0.00000E+00
    0.69410E-02        -0.25205E-01         0.00000E+00
    0.63264E-02        -0.22590E-01         0.00000E+00
    0.57329E-02        -0.19949E-01         0.00000E+00
    0.51383E-02        -0.17277E-01         0.00000E+00
    0.45206E-02        -0.14567E-01         0.00000E+00
    0.38555E-02        -0.11806E-01         0.00000E+00
    0.31140E-02        -0.89827E-02         0.00000E+00
    0.22588E-02        -0.60814E-02         0.00000E+00
    0.12409E-02        -0.30892E-02         0.00000E+00
    0.00000E+00         0.00000E+00         0.00000E+00
    0.10297E-01        -0.41867E-01         0.00000E+00
    0.89540E-02        -0.39363E-01         0.00000E+00
    0.79491E-02        -0.36786E-01         0.00000E+00
    0.71633E-02        -0.34154E-01         0.00000E+00
    0.65180E-02        -0.31487E-01         0.00000E+00
    0.59636E-02        -0.28798E-01         0.00000E+00
    0.54675E-02        -0.26095E-01         0.00000E+00
    0.50055E-02        -0.23376E-01         0.00000E+00
    0.45585E-02        -0.20640E-01         0.00000E+00
    0.41091E-02        -0.17879E-01         0.00000E+00
    0.36399E-02        -0.15083E-01         0.00000E+00
    0.31311E-02        -0.12238E-01         0.00000E+00
    0.25576E-02        -0.93282E-02         0.00000E+00
    0.18837E-02        -0.63321E-02         0.00000E+00
    0.10563E-02        -0.32278E-02         0.00000E+00
    0.00000E+00         0.00000E+00         0.00000E+00
    0.71820E-02        -0.43268E-01         0.00000E+00
    0.61841E-02        -0.40622E-01         0.00000E+00
    0.54884E-02        -0.37896E-01         0.00000E+00
    0.49596E-02        -0.35128E-01         0.00000E+00
    0.45288E-02        -0.32342E-01         0.00000E+00
    0.41598E-02        -0.29551E-01         0.00000E+00
    0.38296E-02        -0.26758E-01         0.00000E+00
    0.35217E-02        -0.23960E-01         0.00000E+00
    0.32232E-02        -0.21152E-01         0.00000E+00
    0.29223E-02        -0.18325E-01         0.00000E+00
    0.26069E-02        -0.15467E-01         0.00000E+00
    0.22631E-02        -0.12563E-01         0.00000E+00
    0.18722E-02        -0.95937E-02         0.00000E+00
    0.14059E-02        -0.65325E-02         0.00000E+00
    0.81268E-03        -0.33452E-02         0.00000E+00
    0.00000E+00         0.00000E+00         0.00000E+00
    0.37445E-02        -0.44270E-01         0.00000E+00
    0.31900E-02        -0.41481E-01         0.00000E+00
    0.28403E-02        -0.38621E-01         0.00000E+00
    0.25761E-02        -0.35747E-01         0.00000E+00
    0.23615E-02        -0.32878E-01         0.00000E+00
    0.21776E-02        -0.30019E-01         0.00000E+00
    0.20129E-02        -0.27168E-01         0.00000E+00
    0.18591E-02        -0.24320E-01         0.00000E+00
    0.17098E-02        -0.21467E-01         0.00000E+00
    0.15591E-02        -0.18600E-01         0.00000E+00
    0.14007E-02        -0.15705E-01         0.00000E+00
    0.12274E-02        -0.12766E-01         0.00000E+00
    0.10294E-02        -0.97628E-02         0.00000E+00
    0.79088E-03        -0.66668E-02         0.00000E+00
    0.48142E-03        -0.34356E-02         0.00000E+00
    0.00000E+00         0.00000E+00         0.00000E+00
    0.00000E+00        -0.44700E-01         0.00000E+00
    0.00000E+00        -0.41798E-01         0.00000E+00
    0.00000E+00        -0.38875E-01         0.00000E+00
    0.00000E+00        -0.35961E-01         0.00000E+00
    0.00000E+00        -0.33061E-01         0.00000E+00
    0.00000E+00        -0.30178E-01         0.00000E+00
    0.00000E+00        -0.27307E-01         0.00000E+00
    0.00000E+00        -0.24442E-01         0.00000E+00
    0.00000E+00        -0.21574E-01         0.00000E+00
    0.00000E+00        -0.18693E-01         0.00000E+00
    0.00000E+00        -0.15785E-01         0.00000E+00
    0.00000E+00        -0.12835E-01         0.00000E+00
    0.00000E+00        -0.98213E-02         0.00000E+00
    0.00000E+00        -0.67148E-02         0.00000E+00
    0.00000E+00        -0.34731E-02         0.00000E+00
    0.00000E+00         0.00000E+00         0.00000E+00
CELL_DATA        450
VECTORS vDarcy double 
    0.22939E-07        -0.77701E-12         0.00000E+00
    0.22931E-07        -0.19539E-11         0.00000E+00
    0.22925E-07        -0.25959E-11         0.00000E+00
    0.22919E-07        -0.26391E-11         0.00000E+00
    0.22916E-07        -0.20129E-11         0.00000E+00
    0.22914E-07        -0.13765E-11         0.00000E+00
    0.22912E-07        -0.10596E-11         0.00000E+00
    0.22911E-07        -0.88245E-12         0.00000E+00
    0.22909E-07        -0.76393E-12         0.00000E+00
    0.22908E-07        -0.67781E-12         0.00000E+00
    0.22907E-07        -0.61096E-12         0.00000E+00
    0.22905E-07        -0.55647E-12         0.00000E+00
    0.22904E-07        -0.50657E-12         0.00000E+00
    0.22902E-07        -0.46832E-12         0.00000E+00
    0.22899E-07        -0.22758E-12         0.00000E+00
    0.22786E-07        -0.18148E-11         0.00000E+00
    0.22779E-07        -0.46281E-11         0.00000E+00
    0.22773E-07        -0.57857E-11         0.00000E+00
    0.22769E-07        -0.55581E-11         0.00000E+00
    0.22766E-07        -0.45917E-11         0.00000E+00
    0.22764E-07        -0.36086E-11         0.00000E+00
    0.22762E-07        -0.29465E-11         0.00000E+00
    0.22760E-07        -0.25087E-11         0.00000E+00
    0.22759E-07        -0.21957E-11         0.00000E+00
    0.22757E-07        -0.19553E-11         0.00000E+00
    0.22756E-07        -0.17586E-11         0.00000E+00
    0.22755E-07        -0.15842E-11         0.00000E+00
    0.22753E-07        -0.14073E-11         0.00000E+00
    0.22751E-07        -0.11598E-11         0.00000E+00
    0.22749E-07        -0.50255E-12         0.00000E+00
    0.22489E-07        -0.18603E-11         0.00000E+00
    0.22485E-07        -0.46505E-11         0.00000E+00
    0.22481E-07        -0.57323E-11         0.00000E+00
    0.22478E-07        -0.57427E-11         0.00000E+00
    0.22474E-07        -0.53794E-11         0.00000E+00
    0.22472E-07        -0.48583E-11         0.00000E+00
    0.22470E-07        -0.42844E-11         0.00000E+00
    0.22468E-07        -0.37848E-11         0.00000E+00
    0.22466E-07        -0.33724E-11         0.00000E+00
    0.22465E-07        -0.30222E-11         0.00000E+00
    0.22464E-07        -0.27078E-11         0.00000E+00
    0.22462E-07        -0.23979E-11         0.00000E+00
    0.22461E-07        -0.20400E-11         0.00000E+00
    0.22459E-07        -0.14999E-11         0.00000E+00
    0.22457E-07        -0.57970E-12         0.00000E+00
    0.22069E-07        -0.14015E-11         0.00000E+00
    0.22066E-07        -0.35648E-11         0.00000E+00
    0.22063E-07        -0.48074E-11         0.00000E+00
    0.22060E-07        -0.54674E-11         0.00000E+00
    0.22057E-07        -0.56044E-11         0.00000E+00
    0.22055E-07        -0.54120E-11         0.00000E+00
    0.22052E-07        -0.50562E-11         0.00000E+00
    0.22051E-07        -0.46356E-11         0.00000E+00
    0.22049E-07        -0.42130E-11         0.00000E+00
    0.22047E-07        -0.38032E-11         0.00000E+00
    0.22046E-07        -0.33935E-11         0.00000E+00
    0.22045E-07        -0.29508E-11         0.00000E+00
    0.22043E-07        -0.24102E-11         0.00000E+00
    0.22042E-07        -0.16713E-11         0.00000E+00
    0.22041E-07        -0.61890E-12         0.00000E+00
    0.21547E-07        -0.10852E-11         0.00000E+00
    0.21545E-07        -0.29882E-11         0.00000E+00
    0.21542E-07        -0.43231E-11         0.00000E+00
    0.21540E-07        -0.51334E-11         0.00000E+00
    0.21537E-07        -0.55265E-11         0.00000E+00
    0.21535E-07        -0.55830E-11         0.00000E+00
    0.21533E-07        -0.54098E-11         0.00000E+00
    0.21531E-07        -0.51009E-11         0.00000E+00
    0.21530E-07        -0.47167E-11         0.00000E+00
    0.21528E-07        -0.42868E-11         0.00000E+00
    0.21527E-07        -0.38111E-11         0.00000E+00
    0.21526E-07        -0.32635E-11         0.00000E+00
    0.21524E-07        -0.25942E-11         0.00000E+00
    0.21523E-07        -0.17364E-11         0.00000E+00
    0.21522E-07        -0.62564E-12         0.00000E+00
    0.20952E-07        -0.96214E-12         0.00000E+00
    0.20950E-07        -0.26685E-11         0.00000E+00
    0.20948E-07        -0.39460E-11         0.00000E+00
    0.20946E-07        -0.48145E-11         0.00000E+00
    0.20944E-07        -0.53179E-11         0.00000E+00
    0.20942E-07        -0.55177E-11         0.00000E+00
    0.20940E-07        -0.54790E-11         0.00000E+00
    0.20938E-07        -0.52673E-11         0.00000E+00
    0.20937E-07        -0.49340E-11         0.00000E+00
    0.20935E-07        -0.45083E-11         0.00000E+00
    0.20934E-07        -0.39968E-11         0.00000E+00
    0.20933E-07        -0.33848E-11         0.00000E+00
    0.20932E-07        -0.26413E-11         0.00000E+00
    0.20931E-07        -0.17274E-11         0.00000E+00
    0.20930E-07        -0.61147E-12         0.00000E+00
    0.20314E-07        -0.86759E-12         0.00000E+00
    0.20312E-07        -0.24208E-11         0.00000E+00
    0.20311E-07        -0.36187E-11         0.00000E+00
    0.20309E-07        -0.44804E-11         0.00000E+00
    0.20307E-07        -0.50319E-11         0.00000E+00
    0.20305E-07        -0.53097E-11         0.00000E+00
    0.20304E-07        -0.53576E-11         0.00000E+00
    0.20302E-07        -0.52198E-11         0.00000E+00
    0.20301E-07        -0.49341E-11         0.00000E+00
    0.20299E-07        -0.45255E-11         0.00000E+00
    0.20298E-07        -0.40038E-11         0.00000E+00
    0.20297E-07        -0.33641E-11         0.00000E+00
    0.20296E-07        -0.25912E-11         0.00000E+00
    0.20295E-07        -0.16675E-11         0.00000E+00
    0.20295E-07        -0.58296E-12         0.00000E+00
    0.19664E-07        -0.77939E-12         0.00000E+00
    0.19663E-07        -0.21883E-11         0.00000E+00
    0.19661E-07        -0.33026E-11         0.00000E+00
    0.19660E-07        -0.41333E-11         0.00000E+00
    0.19658E-07        -0.46966E-11         0.00000E+00
    0.19657E-07        -0.50148E-11         0.00000E+00
    0.19655E-07        -0.51162E-11         0.00000E+00
    0.19654E-07        -0.50307E-11         0.00000E+00
    0.19653E-07        -0.47854E-11         0.00000E+00
    0.19652E-07        -0.44005E-11         0.00000E+00
    0.19650E-07        -0.38869E-11         0.00000E+00
    0.19649E-07        -0.32470E-11         0.00000E+00
    0.19649E-07        -0.24776E-11         0.00000E+00
    0.19648E-07        -0.15759E-11         0.00000E+00
    0.19647E-07        -0.54588E-12         0.00000E+00
    0.19031E-07        -0.69491E-12         0.00000E+00
    0.19031E-07        -0.19649E-11         0.00000E+00
    0.19030E-07        -0.29941E-11         0.00000E+00
    0.19029E-07        -0.37832E-11         0.00000E+00
    0.19027E-07        -0.43393E-11         0.00000E+00
    0.19026E-07        -0.46752E-11         0.00000E+00
    0.19025E-07        -0.48087E-11         0.00000E+00
    0.19024E-07        -0.47598E-11         0.00000E+00
    0.19022E-07        -0.45479E-11         0.00000E+00
    0.19021E-07        -0.41893E-11         0.00000E+00
    0.19020E-07        -0.36955E-11         0.00000E+00
    0.19020E-07        -0.30737E-11         0.00000E+00
    0.19019E-07        -0.23290E-11         0.00000E+00
    0.19018E-07        -0.14684E-11         0.00000E+00
    0.19018E-07        -0.50513E-12         0.00000E+00
    0.18443E-07        -0.61699E-12         0.00000E+00
    0.18443E-07        -0.17574E-11         0.00000E+00
    0.18442E-07        -0.27038E-11         0.00000E+00
    0.18441E-07        -0.34471E-11         0.00000E+00
    0.18440E-07        -0.39863E-11         0.00000E+00
    0.18439E-07        -0.43268E-11         0.00000E+00
    0.18438E-07        -0.44787E-11         0.00000E+00
    0.18437E-07        -0.44554E-11         0.00000E+00
    0.18436E-07        -0.42709E-11         0.00000E+00
    0.18435E-07        -0.39387E-11         0.00000E+00
    0.18434E-07        -0.34707E-11         0.00000E+00
    0.18434E-07        -0.28771E-11         0.00000E+00
    0.18433E-07        -0.21686E-11         0.00000E+00
    0.18433E-07        -0.13582E-11         0.00000E+00
    0.18432E-07        -0.46470E-12         0.00000E+00
    0.17922E-07        -0.54895E-12         0.00000E+00
    0.17921E-07        -0.15747E-11         0.00000E+00
    0.17921E-07        -0.24452E-11         0.00000E+00
    0.17920E-07        -0.31432E-11         0.00000E+00
    0.17919E-07        -0.36614E-11         0.00000E+00
    0.17919E-07        -0.39989E-11         0.00000E+00
    0.17918E-07        -0.41607E-11         0.00000E+00
    0.17917E-07        -0.41551E-11         0.00000E+00
    0.17916E-07        -0.39929E-11         0.00000E+00
    0.17915E-07        -0.36854E-11         0.00000E+00
    0.17915E-07        -0.32447E-11         0.00000E+00
    0.17914E-07        -0.26830E-11         0.00000E+00
    0.17914E-07        -0.20142E-11         0.00000E+00
    0.17913E-07        -0.12551E-11         0.00000E+00
    0.17913E-07        -0.42768E-12         0.00000E+00
    0.17483E-07        -0.49338E-12         0.00000E+00
    0.17483E-07        -0.14244E-11         0.00000E+00
    0.17483E-07        -0.22298E-11         0.00000E+00
    0.17482E-07        -0.28872E-11         0.00000E+00
    0.17482E-07        -0.33838E-11         0.00000E+00
    0.17481E-07        -0.37148E-11         0.00000E+00
    0.17481E-07        -0.38809E-11         0.00000E+00
    0.17480E-07        -0.38875E-11         0.00000E+00
    0.17479E-07        -0.37426E-11         0.00000E+00
    0.17479E-07        -0.34566E-11         0.00000E+00
    0.17478E-07        -0.30413E-11         0.00000E+00
    0.17478E-07        -0.25101E-11         0.00000E+00
    0.17477E-07        -0.18788E-11         0.00000E+00
    0.17477E-07        -0.11664E-11         0.00000E+00
    0.17477E-07        -0.39628E-12         0.00000E+00
    0.17140E-07        -0.45187E-12         0.00000E+00
    0.17140E-07        -0.13112E-11         0.00000E+00
    0.17140E-07        -0.20658E-11         0.00000E+00
    0.17140E-07        -0.26899E-11         0.00000E+00
    0.17139E-07        -0.31675E-11         0.00000E+00
    0.17139E-07        -0.34907E-11         0.00000E+00
    0.17138E-07        -0.36579E-11         0.00000E+00
    0.17138E-07        -0.36720E-11         0.00000E+00
    0.17137E-07        -0.35399E-11         0.00000E+00
    0.17137E-07        -0.32707E-11         0.00000E+00
    0.17137E-07        -0.28765E-11         0.00000E+00
    0.17136E-07        -0.23711E-11         0.00000E+00
    0.17136E-07        -0.17712E-11         0.00000E+00
    0.17136E-07        -0.10969E-11         0.00000E+00
    0.17136E-07        -0.37192E-12         0.00000E+00
    0.16898E-07        -0.42512E-12         0.00000E+00
    0.16898E-07        -0.12375E-11         0.00000E+00
    0.16898E-07        -0.19575E-11         0.00000E+00
    0.16898E-07        -0.25578E-11         0.00000E+00
    0.16898E-07        -0.30207E-11         0.00000E+00
    0.16898E-07        -0.33367E-11         0.00000E+00
    0.16897E-07        -0.35028E-11         0.00000E+00
    0.16897E-07        -0.35207E-11         0.00000E+00
    0.16897E-07        -0.33965E-11         0.00000E+00
    0.16897E-07        -0.31390E-11         0.00000E+00
    0.16897E-07        -0.27598E-11         0.00000E+00
    0.16896E-07        -0.22732E-11         0.00000E+00
    0.16896E-07        -0.16962E-11         0.00000E+00
    0.16896E-07        -0.10491E-11         0.00000E+00
    0.16896E-07        -0.35532E-12         0.00000E+00
    0.16759E-07        -0.41312E-12         0.00000E+00
    0.16759E-07        -0.12036E-11         0.00000E+00
    0.16759E-07        -0.19061E-11         0.00000E+00
    0.16759E-07        -0.24930E-11         0.00000E+00
    0.16759E-07        -0.29464E-11         0.00000E+00
    0.16759E-07        -0.32566E-11         0.00000E+00
    0.16759E-07        -0.34201E-11         0.00000E+00
    0.16759E-07        -0.34386E-11         0.00000E+00
    0.16759E-07        -0.33176E-11         0.00000E+00
    0.16759E-07        -0.30660E-11         0.00000E+00
    0.16759E-07        -0.26952E-11         0.00000E+00
    0.16759E-07        -0.22194E-11         0.00000E+00
    0.16759E-07        -0.16556E-11         0.00000E+00
    0.16759E-07        -0.10236E-11         0.00000E+00
    0.16759E-07        -0.34665E-12         0.00000E+00
    0.16720E-07        -0.41534E-12         0.00000E+00
    0.16720E-07        -0.12083E-11         0.00000E+00
    0.16720E-07        -0.19099E-11         0.00000E+00
    0.16720E-07        -0.24938E-11         0.00000E+00
    0.16720E-07        -0.29431E-11         0.00000E+00
    0.16720E-07        -0.32491E-11         0.00000E+00
    0.16721E-07        -0.34089E-11         0.00000E+00
    0.16721E-07        -0.34247E-11         0.00000E+00
    0.16721E-07        -0.33024E-11         0.00000E+00
    0.16721E-07        -0.30510E-11         0.00000E+00
    0.16721E-07        -0.26819E-11         0.00000E+00
    0.16721E-07        -0.22088E-11         0.00000E+00
    0.16721E-07        -0.16484E-11         0.00000E+00
    0.16721E-07        -0.10199E-11         0.00000E+00
    0.16721E-07        -0.34562E-12         0.00000E+00
    0.16773E-07        -0.43083E-12         0.00000E+00
    0.16773E-07        -0.12488E-11         0.00000E+00
    0.16773E-07        -0.19649E-11         0.00000E+00
    0.16773E-07        -0.25551E-11         0.00000E+00
    0.16774E-07        -0.30050E-11         0.00000E+00
    0.16774E-07        -0.33078E-11         0.00000E+00
    0.16774E-07        -0.34625E-11         0.00000E+00
    0.16775E-07        -0.34727E-11         0.00000E+00
    0.16775E-07        -0.33450E-11         0.00000E+00
    0.16775E-07        -0.30887E-11         0.00000E+00
    0.16775E-07        -0.27151E-11         0.00000E+00
    0.16776E-07        -0.22375E-11         0.00000E+00
    0.16776E-07        -0.16717E-11         0.00000E+00
    0.16776E-07        -0.10360E-11         0.00000E+00
    0.16776E-07        -0.35153E-12         0.00000E+00
    0.16908E-07        -0.45824E-12         0.00000E+00
    0.16908E-07        -0.13213E-11         0.00000E+00
    0.16909E-07        -0.20650E-11         0.00000E+00
    0.16909E-07        -0.26690E-11         0.00000E+00
    0.16910E-07        -0.31226E-11         0.00000E+00
    0.16910E-07        -0.34223E-11         0.00000E+00
    0.16911E-07        -0.35701E-11         0.00000E+00
    0.16911E-07        -0.35715E-11         0.00000E+00
    0.16912E-07        -0.34347E-11         0.00000E+00
    0.16912E-07        -0.31693E-11         0.00000E+00
    0.16912E-07        -0.27864E-11         0.00000E+00
    0.16913E-07        -0.22987E-11         0.00000E+00
    0.16913E-07        -0.17205E-11         0.00000E+00
    0.16913E-07        -0.10687E-11         0.00000E+00
    0.16913E-07        -0.36337E-12         0.00000E+00
    0.17113E-07        -0.49589E-12         0.00000E+00
    0.17114E-07        -0.14209E-11         0.00000E+00
    0.17114E-07        -0.22020E-11         0.00000E+00
    0.17115E-07        -0.28245E-11         0.00000E+00
    0.17115E-07        -0.32826E-11         0.00000E+00
    0.17116E-07        -0.35778E-11         0.00000E+00
    0.17117E-07        -0.37159E-11         0.00000E+00
    0.17117E-07        -0.37056E-11         0.00000E+00
    0.17118E-07        -0.35566E-11         0.00000E+00
    0.17119E-07        -0.32793E-11         0.00000E+00
    0.17119E-07        -0.28844E-11         0.00000E+00
    0.17120E-07        -0.23831E-11         0.00000E+00
    0.17120E-07        -0.17880E-11         0.00000E+00
    0.17120E-07        -0.11142E-11         0.00000E+00
    0.17120E-07        -0.37984E-12         0.00000E+00
    0.17374E-07        -0.54172E-12         0.00000E+00
    0.17375E-07        -0.15411E-11         0.00000E+00
    0.17375E-07        -0.23658E-11         0.00000E+00
    0.17376E-07        -0.30077E-11         0.00000E+00
    0.17377E-07        -0.34683E-11         0.00000E+00
    0.17378E-07        -0.37554E-11         0.00000E+00
    0.17379E-07        -0.38802E-11         0.00000E+00
    0.17380E-07        -0.38551E-11         0.00000E+00
    0.17380E-07        -0.36920E-11         0.00000E+00
    0.17381E-07        -0.34018E-11         0.00000E+00
    0.17382E-07        -0.29945E-11         0.00000E+00
    0.17382E-07        -0.24793E-11         0.00000E+00
    0.17383E-07        -0.18663E-11         0.00000E+00
    0.17383E-07        -0.11678E-11         0.00000E+00
    0.17383E-07        -0.39941E-12         0.00000E+00
    0.17676E-07        -0.59323E-12         0.00000E+00
    0.17676E-07        -0.16747E-11         0.00000E+00
    0.17677E-07        -0.25437E-11         0.00000E+00
    0.17678E-07        -0.32016E-11         0.00000E+00
    0.17679E-07        -0.36590E-11         0.00000E+00
    0.17680E-07        -0.39320E-11         0.00000E+00
    0.17681E-07        -0.40387E-11         0.00000E+00
    0.17682E-07        -0.39959E-11         0.00000E+00
    0.17683E-07        -0.38180E-11         0.00000E+00
    0.17684E-07        -0.35164E-11         0.00000E+00
    0.17685E-07        -0.30994E-11         0.00000E+00
    0.17685E-07        -0.25737E-11         0.00000E+00
    0.17686E-07        -0.19457E-11         0.00000E+00
    0.17686E-07        -0.12238E-11         0.00000E+00
    0.17687E-07        -0.42030E-12         0.00000E+00
    0.18002E-07        -0.64752E-12         0.00000E+00
    0.18003E-07        -0.18125E-11         0.00000E+00
    0.18004E-07        -0.27209E-11         0.00000E+00
    0.18005E-07        -0.33858E-11         0.00000E+00
    0.18006E-07        -0.38301E-11         0.00000E+00
    0.18008E-07        -0.40806E-11         0.00000E+00
    0.18009E-07        -0.41633E-11         0.00000E+00
    0.18010E-07        -0.41004E-11         0.00000E+00
    0.18011E-07        -0.39087E-11         0.00000E+00
    0.18012E-07        -0.35996E-11         0.00000E+00
    0.18013E-07        -0.31794E-11         0.00000E+00
    0.18013E-07        -0.26509E-11         0.00000E+00
    0.18014E-07        -0.20156E-11         0.00000E+00
    0.18014E-07        -0.12763E-11         0.00000E+00
    0.18015E-07        -0.44062E-12         0.00000E+00
    0.18338E-07        -0.70125E-12         0.00000E+00
    0.18339E-07        -0.19444E-11         0.00000E+00
    0.18340E-07        -0.28797E-11         0.00000E+00
    0.18342E-07        -0.35363E-11         0.00000E+00
    0.18343E-07        -0.39530E-11         0.00000E+00
    0.18344E-07        -0.41697E-11         0.00000E+00
    0.18346E-07        -0.42220E-11         0.00000E+00
    0.18347E-07        -0.41375E-11         0.00000E+00
    0.18348E-07        -0.39353E-11         0.00000E+00
    0.18349E-07        -0.36260E-11         0.00000E+00
    0.18350E-07        -0.32130E-11         0.00000E+00
    0.18351E-07        -0.26941E-11         0.00000E+00
    0.18352E-07        -0.20642E-11         0.00000E+00
    0.18352E-07        -0.13186E-11         0.00000E+00
    0.18353E-07        -0.45830E-12         0.00000E+00
    0.18668E-07        -0.75058E-12         0.00000E+00
    0.18669E-07        -0.20579E-11         0.00000E+00
    0.18671E-07        -0.29990E-11         0.00000E+00
    0.18673E-07        -0.36246E-11         0.00000E+00
    0.18675E-07        -0.39944E-11         0.00000E+00
    0.18676E-07        -0.41645E-11         0.00000E+00
    0.18677E-07        -0.41805E-11         0.00000E+00
    0.18679E-07        -0.40748E-11         0.00000E+00
    0.18680E-07        -0.38676E-11         0.00000E+00
    0.18681E-07        -0.35683E-11         0.00000E+00
    0.18682E-07        -0.31768E-11         0.00000E+00
    0.18683E-07        -0.26848E-11         0.00000E+00
    0.18684E-07        -0.20786E-11         0.00000E+00
    0.18685E-07        -0.13438E-11         0.00000E+00
    0.18685E-07        -0.47124E-12         0.00000E+00
    0.18979E-07        -0.79108E-12         0.00000E+00
    0.18981E-07        -0.21384E-11         0.00000E+00
    0.18983E-07        -0.30528E-11         0.00000E+00
    0.18985E-07        -0.36164E-11         0.00000E+00
    0.18987E-07        -0.39167E-11         0.00000E+00
    0.18988E-07        -0.40279E-11         0.00000E+00
    0.18990E-07        -0.40041E-11         0.00000E+00
    0.18991E-07        -0.38804E-11         0.00000E+00
    0.18993E-07        -0.36765E-11         0.00000E+00
    0.18994E-07        -0.33999E-11         0.00000E+00
    0.18995E-07        -0.30470E-11         0.00000E+00
    0.18996E-07        -0.26033E-11         0.00000E+00
    0.18997E-07        -0.20451E-11         0.00000E+00
    0.18998E-07        -0.13442E-11         0.00000E+00
    0.18998E-07        -0.47722E-12         0.00000E+00
    0.19258E-07        -0.81720E-12         0.00000E+00
    0.19261E-07        -0.21665E-11         0.00000E+00
    0.19263E-07        -0.30075E-11         0.00000E+00
    0.19265E-07        -0.34702E-11         0.00000E+00
    0.19267E-07        -0.36783E-11         0.00000E+00
    0.19269E-07        -0.37229E-11         0.00000E+00
    0.19271E-07        -0.36616E-11         0.00000E+00
    0.19272E-07        -0.35273E-11         0.00000E+00
    0.19273E-07        -0.33373E-11         0.00000E+00
    0.19275E-07        -0.30969E-11         0.00000E+00
    0.19276E-07        -0.28002E-11         0.00000E+00
    0.19277E-07        -0.24285E-11         0.00000E+00
    0.19278E-07        -0.19476E-11         0.00000E+00
    0.19279E-07        -0.13111E-11         0.00000E+00
    0.19280E-07        -0.47376E-12         0.00000E+00
    0.19495E-07        -0.82060E-12         0.00000E+00
    0.19498E-07        -0.21131E-11         0.00000E+00
    0.19501E-07        -0.28151E-11         0.00000E+00
    0.19504E-07        -0.31347E-11         0.00000E+00
    0.19506E-07        -0.32372E-11         0.00000E+00
    0.19508E-07        -0.32197E-11         0.00000E+00
    0.19509E-07        -0.31319E-11         0.00000E+00
    0.19511E-07        -0.29996E-11         0.00000E+00
    0.19512E-07        -0.28353E-11         0.00000E+00
    0.19513E-07        -0.26423E-11         0.00000E+00
    0.19514E-07        -0.24155E-11         0.00000E+00
    0.19515E-07        -0.21370E-11         0.00000E+00
    0.19517E-07        -0.17656E-11         0.00000E+00
    0.19518E-07        -0.12327E-11         0.00000E+00
    0.19519E-07        -0.45792E-12         0.00000E+00
    0.19680E-07        -0.78529E-12         0.00000E+00
    0.19684E-07        -0.19250E-11         0.00000E+00
    0.19687E-07        -0.24017E-11         0.00000E+00
    0.19690E-07        -0.25517E-11         0.00000E+00
    0.19693E-07        -0.25625E-11         0.00000E+00
    0.19694E-07        -0.25053E-11         0.00000E+00
    0.19696E-07        -0.24121E-11         0.00000E+00
    0.19697E-07        -0.22984E-11         0.00000E+00
    0.19699E-07        -0.21712E-11         0.00000E+00
    0.19700E-07        -0.20327E-11         0.00000E+00
    0.19701E-07        -0.18800E-11         0.00000E+00
    0.19702E-07        -0.17021E-11         0.00000E+00
    0.19704E-07        -0.14694E-11         0.00000E+00
    0.19705E-07        -0.10897E-11         0.00000E+00
    0.19706E-07        -0.42274E-12         0.00000E+00
    0.19807E-07        -0.66515E-12         0.00000E+00
    0.19812E-07        -0.14822E-11         0.00000E+00
    0.19816E-07        -0.16662E-11         0.00000E+00
    0.19819E-07        -0.16901E-11         0.00000E+00
    0.19821E-07        -0.16562E-11         0.00000E+00
    0.19823E-07        -0.15967E-11         0.00000E+00
    0.19825E-07        -0.15251E-11         0.00000E+00
    0.19826E-07        -0.14476E-11         0.00000E+00
    0.19827E-07        -0.13671E-11         0.00000E+00
    0.19828E-07        -0.12849E-11         0.00000E+00
    0.19830E-07        -0.12004E-11         0.00000E+00
    0.19831E-07        -0.11101E-11         0.00000E+00
    0.19832E-07        -0.10039E-11         0.00000E+00
    0.19834E-07        -0.83752E-12         0.00000E+00
    0.19836E-07        -0.36508E-12         0.00000E+00
    0.19872E-07        -0.28750E-12         0.00000E+00
    0.19877E-07        -0.58789E-12         0.00000E+00
    0.19881E-07        -0.60197E-12         0.00000E+00
    0.19884E-07        -0.59453E-12         0.00000E+00
    0.19886E-07        -0.57412E-12         0.00000E+00
    0.19888E-07        -0.54916E-12         0.00000E+00
    0.19890E-07        -0.52221E-12         0.00000E+00
    0.19891E-07        -0.49462E-12         0.00000E+00
    0.19893E-07        -0.46708E-12         0.00000E+00
    0.19894E-07        -0.43997E-12         0.00000E+00
    0.19895E-07        -0.41343E-12         0.00000E+00
    0.19896E-07        -0.38754E-12         0.00000E+00
    0.19898E-07        -0.35979E-12         0.00000E+00
    0.19899E-07        -0.33799E-12         0.00000E+00
    0.19902E-07        -0.16558E-12         0.00000E+00
POINT_DATA        496
VECTORS vDarcyNodal double 
    0.22938E-07         0.00000E+00         0.00000E+00
    0.22935E-07         0.00000E+00         0.00000E+00
    0.22928E-07         0.00000E+00         0.00000E+00
    0.22922E-07         0.00000E+00         0.00000E+00
    0.22918E-07         0.00000E+00         0.00000E+00
    0.22915E-07         0.00000E+00         0.00000E+00
    0.22913E-07         0.00000E+00         0.00000E+00
    0.22911E-07         0.00000E+00         0.00000E+00
    0.22910E-07         0.00000E+00         0.00000E+00
    0.22909E-07         0.00000E+00         0.00000E+00
    0.22907E-07         0.00000E+00         0.00000E+00
    0.22906E-07         0.00000E+00         0.00000E+00
    0.22905E-07        -0.66658E-22         0.00000E+00
    0.22903E-07        -0.83549E-26         0.00000E+00
    0.22901E-07         0.66649E-22         0.00000E+00
    0.22899E-07         0.00000E+00         0.00000E+00
    0.22862E-07        -0.15532E-11         0.00000E+00
    0.22859E-07        -0.27295E-11         0.00000E+00
    0.22852E-07        -0.45479E-11         0.00000E+00
    0.22847E-07        -0.52333E-11         0.00000E+00
    0.22843E-07        -0.46510E-11         0.00000E+00
    0.22840E-07        -0.33889E-11         0.00000E+00
    0.22838E-07        -0.24358E-11         0.00000E+00
    0.22836E-07        -0.19418E-11         0.00000E+00
    0.22835E-07        -0.16462E-11         0.00000E+00
    0.22833E-07        -0.14416E-11         0.00000E+00
    0.22832E-07        -0.12886E-11         0.00000E+00
    0.22831E-07        -0.11673E-11         0.00000E+00
    0.22829E-07        -0.10629E-11         0.00000E+00
    0.22828E-07        -0.97479E-12         0.00000E+00
    0.22825E-07        -0.69584E-12         0.00000E+00
    0.22824E-07        -0.45513E-12         0.00000E+00
    0.22638E-07        -0.20764E-11         0.00000E+00
    0.22635E-07        -0.37134E-11         0.00000E+00
    0.22630E-07        -0.58662E-11         0.00000E+00
    0.22625E-07        -0.61108E-11         0.00000E+00
    0.22622E-07        -0.54988E-11         0.00000E+00
    0.22619E-07        -0.48111E-11         0.00000E+00
    0.22617E-07        -0.41190E-11         0.00000E+00
    0.22615E-07        -0.35132E-11         0.00000E+00
    0.22613E-07        -0.30581E-11         0.00000E+00
    0.22612E-07        -0.27093E-11         0.00000E+00
    0.22611E-07        -0.24251E-11         0.00000E+00
    0.22609E-07        -0.21754E-11         0.00000E+00
    0.22608E-07        -0.19284E-11         0.00000E+00
    0.22606E-07        -0.15922E-11         0.00000E+00
    0.22604E-07        -0.96647E-12         0.00000E+00
    0.22603E-07        -0.54996E-12         0.00000E+00
    0.22279E-07        -0.16448E-11         0.00000E+00
    0.22277E-07        -0.27983E-11         0.00000E+00
    0.22274E-07        -0.45174E-11         0.00000E+00
    0.22270E-07        -0.53645E-11         0.00000E+00
    0.22267E-07        -0.56234E-11         0.00000E+00
    0.22264E-07        -0.54265E-11         0.00000E+00
    0.22262E-07        -0.50235E-11         0.00000E+00
    0.22260E-07        -0.45558E-11         0.00000E+00
    0.22258E-07        -0.40989E-11         0.00000E+00
    0.22257E-07        -0.36852E-11         0.00000E+00
    0.22256E-07        -0.33048E-11         0.00000E+00
    0.22254E-07        -0.29303E-11         0.00000E+00
    0.22253E-07        -0.25094E-11         0.00000E+00
    0.22251E-07        -0.19477E-11         0.00000E+00
    0.22250E-07        -0.11131E-11         0.00000E+00
    0.22249E-07        -0.60944E-12         0.00000E+00
    0.21808E-07        -0.11584E-11         0.00000E+00
    0.21807E-07        -0.21682E-11         0.00000E+00
    0.21804E-07        -0.38550E-11         0.00000E+00
    0.21801E-07        -0.49105E-11         0.00000E+00
    0.21798E-07        -0.54485E-11         0.00000E+00
    0.21796E-07        -0.55899E-11         0.00000E+00
    0.21794E-07        -0.54446E-11         0.00000E+00
    0.21792E-07        -0.51359E-11         0.00000E+00
    0.21790E-07        -0.47496E-11         0.00000E+00
    0.21789E-07        -0.43309E-11         0.00000E+00
    0.21787E-07        -0.38918E-11         0.00000E+00
    0.21786E-07        -0.34138E-11         0.00000E+00
    0.21784E-07        -0.28515E-11         0.00000E+00
    0.21783E-07        -0.21338E-11         0.00000E+00
    0.21782E-07        -0.11770E-11         0.00000E+00
    0.21781E-07        -0.62836E-12         0.00000E+00
    0.21249E-07        -0.10119E-11         0.00000E+00
    0.21248E-07        -0.19052E-11         0.00000E+00
    0.21246E-07        -0.34564E-11         0.00000E+00
    0.21244E-07        -0.45461E-11         0.00000E+00
    0.21242E-07        -0.52114E-11         0.00000E+00
    0.21240E-07        -0.55196E-11         0.00000E+00
    0.21237E-07        -0.55482E-11         0.00000E+00
    0.21236E-07        -0.53748E-11         0.00000E+00
    0.21234E-07        -0.50680E-11         0.00000E+00
    0.21232E-07        -0.46726E-11         0.00000E+00
    0.21231E-07        -0.42061E-11         0.00000E+00
    0.21230E-07        -0.36607E-11         0.00000E+00
    0.21229E-07        -0.30062E-11         0.00000E+00
    0.21227E-07        -0.21969E-11         0.00000E+00
    0.21226E-07        -0.11851E-11         0.00000E+00
    0.21226E-07        -0.62292E-12         0.00000E+00
    0.20633E-07        -0.91236E-12         0.00000E+00
    0.20632E-07        -0.17256E-11         0.00000E+00
    0.20630E-07        -0.31582E-11         0.00000E+00
    0.20628E-07        -0.42145E-11         0.00000E+00
    0.20626E-07        -0.49211E-11         0.00000E+00
    0.20625E-07        -0.53160E-11         0.00000E+00
    0.20623E-07        -0.54485E-11         0.00000E+00
    0.20621E-07        -0.53715E-11         0.00000E+00
    0.20619E-07        -0.51333E-11         0.00000E+00
    0.20618E-07        -0.47697E-11         0.00000E+00
    0.20617E-07        -0.42990E-11         0.00000E+00
    0.20615E-07        -0.37209E-11         0.00000E+00
    0.20614E-07        -0.30200E-11         0.00000E+00
    0.20613E-07        -0.21718E-11         0.00000E+00
    0.20613E-07        -0.11538E-11         0.00000E+00
    0.20612E-07        -0.60002E-12         0.00000E+00
    0.19989E-07        -0.82283E-12         0.00000E+00
    0.19988E-07        -0.15629E-11         0.00000E+00
    0.19987E-07        -0.28813E-11         0.00000E+00
    0.19985E-07        -0.38847E-11         0.00000E+00
    0.19984E-07        -0.45914E-11         0.00000E+00
    0.19982E-07        -0.50257E-11         0.00000E+00
    0.19980E-07        -0.52188E-11         0.00000E+00
    0.19979E-07        -0.52059E-11         0.00000E+00
    0.19977E-07        -0.50206E-11         0.00000E+00
    0.19976E-07        -0.46899E-11         0.00000E+00
    0.19975E-07        -0.42304E-11         0.00000E+00
    0.19974E-07        -0.36469E-11         0.00000E+00
    0.19973E-07        -0.29353E-11         0.00000E+00
    0.19972E-07        -0.20870E-11         0.00000E+00
    0.19971E-07        -0.10967E-11         0.00000E+00
    0.19971E-07        -0.56590E-12         0.00000E+00
    0.19348E-07        -0.73596E-12         0.00000E+00
    0.19347E-07        -0.14049E-11         0.00000E+00
    0.19346E-07        -0.26097E-11         0.00000E+00
    0.19345E-07        -0.35513E-11         0.00000E+00
    0.19344E-07        -0.42386E-11         0.00000E+00
    0.19342E-07        -0.46857E-11         0.00000E+00
    0.19341E-07        -0.49122E-11         0.00000E+00
    0.19339E-07        -0.49410E-11         0.00000E+00
    0.19338E-07        -0.47955E-11         0.00000E+00
    0.19337E-07        -0.44960E-11         0.00000E+00
    0.19336E-07        -0.40570E-11         0.00000E+00
    0.19335E-07        -0.34870E-11         0.00000E+00
    0.19334E-07        -0.27893E-11         0.00000E+00
    0.19333E-07        -0.19666E-11         0.00000E+00
    0.19333E-07        -0.10251E-11         0.00000E+00
    0.19333E-07        -0.52587E-12         0.00000E+00
    0.18738E-07        -0.65387E-12         0.00000E+00
    0.18737E-07        -0.12549E-11         0.00000E+00
    0.18736E-07        -0.23493E-11         0.00000E+00
    0.18735E-07        -0.32260E-11         0.00000E+00
    0.18734E-07        -0.38839E-11         0.00000E+00
    0.18733E-07        -0.43289E-11         0.00000E+00
    0.18732E-07        -0.45719E-11         0.00000E+00
    0.18731E-07        -0.46276E-11         0.00000E+00
    0.18730E-07        -0.45122E-11         0.00000E+00
    0.18729E-07        -0.42412E-11         0.00000E+00
    0.18728E-07        -0.38277E-11         0.00000E+00
    0.18727E-07        -0.32822E-11         0.00000E+00
    0.18726E-07        -0.26134E-11         0.00000E+00
    0.18726E-07        -0.18309E-11         0.00000E+00
    0.18725E-07        -0.94848E-12         0.00000E+00
    0.18725E-07        -0.48439E-12         0.00000E+00
    0.18183E-07        -0.58012E-12         0.00000E+00
    0.18182E-07        -0.11194E-11         0.00000E+00
    0.18182E-07        -0.21118E-11         0.00000E+00
    0.18181E-07        -0.29249E-11         0.00000E+00
    0.18180E-07        -0.35495E-11         0.00000E+00
    0.18179E-07        -0.39842E-11         0.00000E+00
    0.18178E-07        -0.42337E-11         0.00000E+00
    0.18177E-07        -0.43065E-11         0.00000E+00
    0.18177E-07        -0.42140E-11         0.00000E+00
    0.18176E-07        -0.39684E-11         0.00000E+00
    0.18175E-07        -0.35817E-11         0.00000E+00
    0.18174E-07        -0.30656E-11         0.00000E+00
    0.18174E-07        -0.24323E-11         0.00000E+00
    0.18173E-07        -0.16959E-11         0.00000E+00
    0.18173E-07        -0.87438E-12         0.00000E+00
    0.18173E-07        -0.44501E-12         0.00000E+00
    0.17703E-07        -0.51779E-12         0.00000E+00
    0.17703E-07        -0.10043E-11         0.00000E+00
    0.17702E-07        -0.19081E-11         0.00000E+00
    0.17702E-07        -0.26635E-11         0.00000E+00
    0.17701E-07        -0.32551E-11         0.00000E+00
    0.17700E-07        -0.36761E-11         0.00000E+00
    0.17699E-07        -0.39260E-11         0.00000E+00
    0.17699E-07        -0.40093E-11         0.00000E+00
    0.17698E-07        -0.39340E-11         0.00000E+00
    0.17697E-07        -0.37100E-11         0.00000E+00
    0.17697E-07        -0.33485E-11         0.00000E+00
    0.17696E-07        -0.28621E-11         0.00000E+00
    0.17696E-07        -0.22649E-11         0.00000E+00
    0.17695E-07        -0.15734E-11         0.00000E+00
    0.17695E-07        -0.80839E-12         0.00000E+00
    0.17695E-07        -0.41035E-12         0.00000E+00
    0.17312E-07        -0.46897E-12         0.00000E+00
    0.17312E-07        -0.91351E-12         0.00000E+00
    0.17312E-07        -0.17461E-11         0.00000E+00
    0.17311E-07        -0.24535E-11         0.00000E+00
    0.17311E-07        -0.30159E-11         0.00000E+00
    0.17310E-07        -0.34225E-11         0.00000E+00
    0.17310E-07        -0.36698E-11         0.00000E+00
    0.17309E-07        -0.37591E-11         0.00000E+00
    0.17309E-07        -0.36961E-11         0.00000E+00
    0.17308E-07        -0.34893E-11         0.00000E+00
    0.17308E-07        -0.31494E-11         0.00000E+00
    0.17307E-07        -0.26893E-11         0.00000E+00
    0.17307E-07        -0.21241E-11         0.00000E+00
    0.17307E-07        -0.14719E-11         0.00000E+00
    0.17307E-07        -0.75434E-12         0.00000E+00
    0.17306E-07        -0.38222E-12         0.00000E+00
    0.17019E-07        -0.43477E-12         0.00000E+00
    0.17019E-07        -0.84952E-12         0.00000E+00
    0.17019E-07        -0.16308E-11         0.00000E+00
    0.17019E-07        -0.23022E-11         0.00000E+00
    0.17019E-07        -0.28415E-11         0.00000E+00
    0.17018E-07        -0.32357E-11         0.00000E+00
    0.17018E-07        -0.34789E-11         0.00000E+00
    0.17018E-07        -0.35709E-11         0.00000E+00
    0.17017E-07        -0.35158E-11         0.00000E+00
    0.17017E-07        -0.33213E-11         0.00000E+00
    0.17017E-07        -0.29978E-11         0.00000E+00
    0.17017E-07        -0.25583E-11         0.00000E+00
    0.17016E-07        -0.20182E-11         0.00000E+00
    0.17016E-07        -0.13963E-11         0.00000E+00
    0.17016E-07        -0.71450E-12         0.00000E+00
    0.17016E-07        -0.36163E-12         0.00000E+00
    0.16829E-07        -0.41547E-12         0.00000E+00
    0.16829E-07        -0.81306E-12         0.00000E+00
    0.16829E-07        -0.15641E-11         0.00000E+00
    0.16829E-07        -0.22131E-11         0.00000E+00
    0.16829E-07        -0.27370E-11         0.00000E+00
    0.16829E-07        -0.31217E-11         0.00000E+00
    0.16828E-07        -0.33606E-11         0.00000E+00
    0.16828E-07        -0.34526E-11         0.00000E+00
    0.16828E-07        -0.34014E-11         0.00000E+00
    0.16828E-07        -0.32141E-11         0.00000E+00
    0.16828E-07        -0.29009E-11         0.00000E+00
    0.16828E-07        -0.24747E-11         0.00000E+00
    0.16828E-07        -0.19512E-11         0.00000E+00
    0.16828E-07        -0.13490E-11         0.00000E+00
    0.16828E-07        -0.68988E-12         0.00000E+00
    0.16828E-07        -0.34902E-12         0.00000E+00
    0.16739E-07        -0.41077E-12         0.00000E+00
    0.16739E-07        -0.80367E-12         0.00000E+00
    0.16740E-07        -0.15456E-11         0.00000E+00
    0.16740E-07        -0.21860E-11         0.00000E+00
    0.16740E-07        -0.27025E-11         0.00000E+00
    0.16740E-07        -0.30814E-11         0.00000E+00
    0.16740E-07        -0.33162E-11         0.00000E+00
    0.16740E-07        -0.34061E-11         0.00000E+00
    0.16740E-07        -0.33548E-11         0.00000E+00
    0.16740E-07        -0.31695E-11         0.00000E+00
    0.16740E-07        -0.28602E-11         0.00000E+00
    0.16740E-07        -0.24398E-11         0.00000E+00
    0.16740E-07        -0.19238E-11         0.00000E+00
    0.16740E-07        -0.13302E-11         0.00000E+00
    0.16740E-07        -0.68041E-12         0.00000E+00
    0.16740E-07        -0.34429E-12         0.00000E+00
    0.16746E-07        -0.41991E-12         0.00000E+00
    0.16746E-07        -0.81995E-12         0.00000E+00
    0.16746E-07        -0.15726E-11         0.00000E+00
    0.16747E-07        -0.22177E-11         0.00000E+00
    0.16747E-07        -0.27344E-11         0.00000E+00
    0.16747E-07        -0.31108E-11         0.00000E+00
    0.16747E-07        -0.33417E-11         0.00000E+00
    0.16748E-07        -0.34274E-11         0.00000E+00
    0.16748E-07        -0.33723E-11         0.00000E+00
    0.16748E-07        -0.31840E-11         0.00000E+00
    0.16748E-07        -0.28727E-11         0.00000E+00
    0.16748E-07        -0.24509E-11         0.00000E+00
    0.16748E-07        -0.19335E-11         0.00000E+00
    0.16749E-07        -0.13381E-11         0.00000E+00
    0.16749E-07        -0.68513E-12         0.00000E+00
    0.16749E-07        -0.34694E-12         0.00000E+00
    0.16840E-07        -0.44174E-12         0.00000E+00
    0.16840E-07        -0.85968E-12         0.00000E+00
    0.16841E-07        -0.16411E-11         0.00000E+00
    0.16841E-07        -0.23023E-11         0.00000E+00
    0.16841E-07        -0.28257E-11         0.00000E+00
    0.16842E-07        -0.32020E-11         0.00000E+00
    0.16842E-07        -0.34286E-11         0.00000E+00
    0.16843E-07        -0.35078E-11         0.00000E+00
    0.16843E-07        -0.34453E-11         0.00000E+00
    0.16843E-07        -0.32497E-11         0.00000E+00
    0.16844E-07        -0.29311E-11         0.00000E+00
    0.16844E-07        -0.25017E-11         0.00000E+00
    0.16844E-07        -0.19757E-11         0.00000E+00
    0.16844E-07        -0.13695E-11         0.00000E+00
    0.16845E-07        -0.70235E-12         0.00000E+00
    0.16845E-07        -0.35611E-12         0.00000E+00
    0.17011E-07        -0.47474E-12         0.00000E+00
    0.17011E-07        -0.91989E-12         0.00000E+00
    0.17011E-07        -0.17452E-11         0.00000E+00
    0.17012E-07        -0.24316E-11         0.00000E+00
    0.17012E-07        -0.29659E-11         0.00000E+00
    0.17013E-07        -0.33429E-11         0.00000E+00
    0.17013E-07        -0.35638E-11         0.00000E+00
    0.17014E-07        -0.36338E-11         0.00000E+00
    0.17015E-07        -0.35608E-11         0.00000E+00
    0.17015E-07        -0.33543E-11         0.00000E+00
    0.17016E-07        -0.30246E-11         0.00000E+00
    0.17016E-07        -0.25834E-11         0.00000E+00
    0.17016E-07        -0.20434E-11         0.00000E+00
    0.17017E-07        -0.14196E-11         0.00000E+00
    0.17017E-07        -0.72972E-12         0.00000E+00
    0.17017E-07        -0.37062E-12         0.00000E+00
    0.17244E-07        -0.51704E-12         0.00000E+00
    0.17244E-07        -0.99685E-12         0.00000E+00
    0.17244E-07        -0.18776E-11         0.00000E+00
    0.17245E-07        -0.25948E-11         0.00000E+00
    0.17246E-07        -0.31412E-11         0.00000E+00
    0.17247E-07        -0.35175E-11         0.00000E+00
    0.17247E-07        -0.37299E-11         0.00000E+00
    0.17248E-07        -0.37877E-11         0.00000E+00
    0.17249E-07        -0.37014E-11         0.00000E+00
    0.17249E-07        -0.34817E-11         0.00000E+00
    0.17250E-07        -0.31391E-11         0.00000E+00
    0.17251E-07        -0.26841E-11         0.00000E+00
    0.17251E-07        -0.21277E-11         0.00000E+00
    0.17251E-07        -0.14826E-11         0.00000E+00
    0.17252E-07        -0.76435E-12         0.00000E+00
    0.17252E-07        -0.38906E-12         0.00000E+00
    0.17525E-07        -0.56638E-12         0.00000E+00
    0.17525E-07        -0.10860E-11         0.00000E+00
    0.17526E-07        -0.20292E-11         0.00000E+00
    0.17527E-07        -0.27786E-11         0.00000E+00
    0.17528E-07        -0.33347E-11         0.00000E+00
    0.17529E-07        -0.37061E-11         0.00000E+00
    0.17530E-07        -0.39056E-11         0.00000E+00
    0.17530E-07        -0.39475E-11         0.00000E+00
    0.17531E-07        -0.38456E-11         0.00000E+00
    0.17532E-07        -0.36121E-11         0.00000E+00
    0.17533E-07        -0.32572E-11         0.00000E+00
    0.17533E-07        -0.27896E-11         0.00000E+00
    0.17534E-07        -0.22178E-11         0.00000E+00
    0.17534E-07        -0.15514E-11         0.00000E+00
    0.17535E-07        -0.80282E-12         0.00000E+00
    0.17535E-07        -0.40975E-12         0.00000E+00
    0.17839E-07        -0.62006E-12         0.00000E+00
    0.17839E-07        -0.11819E-11         0.00000E+00
    0.17840E-07        -0.21891E-11         0.00000E+00
    0.17841E-07        -0.29667E-11         0.00000E+00
    0.17842E-07        -0.35258E-11         0.00000E+00
    0.17843E-07        -0.38849E-11         0.00000E+00
    0.17845E-07        -0.40651E-11         0.00000E+00
    0.17846E-07        -0.40871E-11         0.00000E+00
    0.17846E-07        -0.39683E-11         0.00000E+00
    0.17847E-07        -0.37223E-11         0.00000E+00
    0.17848E-07        -0.33586E-11         0.00000E+00
    0.17849E-07        -0.28834E-11         0.00000E+00
    0.17850E-07        -0.23015E-11         0.00000E+00
    0.17850E-07        -0.16181E-11         0.00000E+00
    0.17851E-07        -0.84130E-12         0.00000E+00
    0.17851E-07        -0.43086E-12         0.00000E+00
    0.18170E-07        -0.67497E-12         0.00000E+00
    0.18170E-07        -0.12782E-11         0.00000E+00
    0.18171E-07        -0.23443E-11         0.00000E+00
    0.18173E-07        -0.31401E-11         0.00000E+00
    0.18174E-07        -0.36901E-11         0.00000E+00
    0.18175E-07        -0.40258E-11         0.00000E+00
    0.18177E-07        -0.41787E-11         0.00000E+00
    0.18178E-07        -0.41765E-11         0.00000E+00
    0.18179E-07        -0.40408E-11         0.00000E+00
    0.18180E-07        -0.37861E-11         0.00000E+00
    0.18181E-07        -0.34205E-11         0.00000E+00
    0.18182E-07        -0.29470E-11         0.00000E+00
    0.18182E-07        -0.23650E-11         0.00000E+00
    0.18183E-07        -0.16738E-11         0.00000E+00
    0.18184E-07        -0.87562E-12         0.00000E+00
    0.18184E-07        -0.45038E-12         0.00000E+00
    0.18503E-07        -0.72752E-12         0.00000E+00
    0.18503E-07        -0.13674E-11         0.00000E+00
    0.18505E-07        -0.24797E-11         0.00000E+00
    0.18507E-07        -0.32760E-11         0.00000E+00
    0.18508E-07        -0.37992E-11         0.00000E+00
    0.18510E-07        -0.40968E-11         0.00000E+00
    0.18511E-07        -0.42130E-11         0.00000E+00
    0.18512E-07        -0.41830E-11         0.00000E+00
    0.18513E-07        -0.40320E-11         0.00000E+00
    0.18514E-07        -0.37752E-11         0.00000E+00
    0.18515E-07        -0.34184E-11         0.00000E+00
    0.18516E-07        -0.29601E-11         0.00000E+00
    0.18517E-07        -0.23933E-11         0.00000E+00
    0.18518E-07        -0.17090E-11         0.00000E+00
    0.18519E-07        -0.90133E-12         0.00000E+00
    0.18519E-07        -0.46623E-12         0.00000E+00
    0.18823E-07        -0.77364E-12         0.00000E+00
    0.18824E-07        -0.14410E-11         0.00000E+00
    0.18826E-07        -0.25771E-11         0.00000E+00
    0.18828E-07        -0.33475E-11         0.00000E+00
    0.18830E-07        -0.38198E-11         0.00000E+00
    0.18831E-07        -0.40621E-11         0.00000E+00
    0.18833E-07        -0.41321E-11         0.00000E+00
    0.18834E-07        -0.40723E-11         0.00000E+00
    0.18836E-07        -0.39104E-11         0.00000E+00
    0.18837E-07        -0.36607E-11         0.00000E+00
    0.18838E-07        -0.33267E-11         0.00000E+00
    0.18839E-07        -0.29014E-11         0.00000E+00
    0.18840E-07        -0.23702E-11         0.00000E+00
    0.18841E-07        -0.17134E-11         0.00000E+00
    0.18841E-07        -0.91371E-12         0.00000E+00
    0.18842E-07        -0.47625E-12         0.00000E+00
    0.19118E-07        -0.80852E-12         0.00000E+00
    0.19120E-07        -0.14884E-11         0.00000E+00
    0.19122E-07        -0.26140E-11         0.00000E+00
    0.19124E-07        -0.33217E-11         0.00000E+00
    0.19126E-07        -0.37133E-11         0.00000E+00
    0.19128E-07        -0.38825E-11         0.00000E+00
    0.19130E-07        -0.38999E-11         0.00000E+00
    0.19131E-07        -0.38121E-11         0.00000E+00
    0.19132E-07        -0.36465E-11         0.00000E+00
    0.19134E-07        -0.34157E-11         0.00000E+00
    0.19135E-07        -0.31203E-11         0.00000E+00
    0.19136E-07        -0.27489E-11         0.00000E+00
    0.19137E-07        -0.22783E-11         0.00000E+00
    0.19138E-07        -0.16759E-11         0.00000E+00
    0.19139E-07        -0.90768E-12         0.00000E+00
    0.19139E-07        -0.47819E-12         0.00000E+00
    0.19377E-07        -0.82586E-12         0.00000E+00
    0.19378E-07        -0.14953E-11         0.00000E+00
    0.19381E-07        -0.25599E-11         0.00000E+00
    0.19383E-07        -0.31561E-11         0.00000E+00
    0.19386E-07        -0.34353E-11         0.00000E+00
    0.19387E-07        -0.35188E-11         0.00000E+00
    0.19389E-07        -0.34847E-11         0.00000E+00
    0.19391E-07        -0.33768E-11         0.00000E+00
    0.19392E-07        -0.32182E-11         0.00000E+00
    0.19393E-07        -0.30186E-11         0.00000E+00
    0.19394E-07        -0.27769E-11         0.00000E+00
    0.19396E-07        -0.24799E-11         0.00000E+00
    0.19397E-07        -0.20979E-11         0.00000E+00
    0.19398E-07        -0.15828E-11         0.00000E+00
    0.19399E-07        -0.87714E-12         0.00000E+00
    0.19399E-07        -0.46934E-12         0.00000E+00
    0.19588E-07        -0.81533E-12         0.00000E+00
    0.19589E-07        -0.14384E-11         0.00000E+00
    0.19593E-07        -0.23682E-11         0.00000E+00
    0.19596E-07        -0.27937E-11         0.00000E+00
    0.19598E-07        -0.29366E-11         0.00000E+00
    0.19600E-07        -0.29381E-11         0.00000E+00
    0.19602E-07        -0.28670E-11         0.00000E+00
    0.19603E-07        -0.27548E-11         0.00000E+00
    0.19605E-07        -0.26167E-11         0.00000E+00
    0.19606E-07        -0.24591E-11         0.00000E+00
    0.19607E-07        -0.22809E-11         0.00000E+00
    0.19608E-07        -0.20726E-11         0.00000E+00
    0.19609E-07        -0.18048E-11         0.00000E+00
    0.19611E-07        -0.14155E-11         0.00000E+00
    0.19612E-07        -0.81346E-12         0.00000E+00
    0.19613E-07        -0.44651E-12         0.00000E+00
    0.19744E-07        -0.75526E-12         0.00000E+00
    0.19746E-07        -0.12719E-11         0.00000E+00
    0.19750E-07        -0.19585E-11         0.00000E+00
    0.19753E-07        -0.21597E-11         0.00000E+00
    0.19756E-07        -0.21777E-11         0.00000E+00
    0.19758E-07        -0.21297E-11         0.00000E+00
    0.19759E-07        -0.20505E-11         0.00000E+00
    0.19761E-07        -0.19559E-11         0.00000E+00
    0.19762E-07        -0.18530E-11         0.00000E+00
    0.19764E-07        -0.17449E-11         0.00000E+00
    0.19765E-07        -0.16318E-11         0.00000E+00
    0.19766E-07        -0.15095E-11         0.00000E+00
    0.19767E-07        -0.13667E-11         0.00000E+00
    0.19769E-07        -0.11436E-11         0.00000E+00
    0.19770E-07        -0.69902E-12         0.00000E+00
    0.19771E-07        -0.39899E-12         0.00000E+00
    0.19840E-07        -0.57509E-12         0.00000E+00
    0.19842E-07        -0.87550E-12         0.00000E+00
    0.19847E-07        -0.11900E-11         0.00000E+00
    0.19850E-07        -0.11966E-11         0.00000E+00
    0.19853E-07        -0.11688E-11         0.00000E+00
    0.19855E-07        -0.11234E-11         0.00000E+00
    0.19856E-07        -0.10715E-11         0.00000E+00
    0.19858E-07        -0.10169E-11         0.00000E+00
    0.19859E-07        -0.96179E-12         0.00000E+00
    0.19861E-07        -0.90714E-12         0.00000E+00
    0.19862E-07        -0.85348E-12         0.00000E+00
    0.19863E-07        -0.80104E-12         0.00000E+00
    0.19864E-07        -0.74739E-12         0.00000E+00
    0.19866E-07        -0.69784E-12         0.00000E+00
    0.19867E-07        -0.50360E-12         0.00000E+00
    0.19868E-07        -0.33118E-12         0.00000E+00
    0.19872E-07         0.00000E+00         0.00000E+00
    0.19875E-07         0.00000E+00         0.00000E+00
    0.19879E-07        -0.53801E-22         0.00000E+00
    0.19883E-07         0.11119E-25         0.00000E+00
    0.19885E-07         0.57952E-22         0.00000E+00
    0.19887E-07         0.00000E+00         0.00000E+00
    0.19889E-07         0.00000E+00         0.00000E+00
    0.19891E-07        -0.53844E-22         0.00000E+00
    0.19892E-07        -0.53844E-22         0.00000E+00
    0.19893E-07         0.53855E-22         0.00000E+00
    0.19894E-07         0.57998E-22         0.00000E+00
    0.19896E-07        -0.58010E-22         0.00000E+00
    0.19897E-07        -0.41384E-23         0.00000E+00
    0.19898E-07         0.58017E-22         0.00000E+00
    0.19900E-07         0.82889E-23         0.00000E+00
    0.19901E-07         0.00000E+00         0.00000E+00
CELL_DATA        450
TENSORS stressef double 
    0.44822E+08         0.53721E+05         0.00000E+00
    0.53721E+05         0.29240E+08         0.00000E+00
    0.00000E+00         0.00000E+00         0.25934E+08
 
    0.43853E+08        -0.21331E+06         0.00000E+00
   -0.21331E+06         0.28843E+08         0.00000E+00
    0.00000E+00         0.00000E+00         0.22665E+08
 
    0.41784E+08        -0.43941E+06         0.00000E+00
   -0.43941E+06         0.28036E+08         0.00000E+00
    0.00000E+00         0.00000E+00         0.18935E+08
 
    0.39414E+08        -0.46592E+06         0.00000E+00
   -0.46592E+06         0.26995E+08         0.00000E+00
    0.00000E+00         0.00000E+00         0.15197E+08
 
    0.36632E+08        -0.69464E+06         0.00000E+00
   -0.69464E+06         0.25850E+08         0.00000E+00
    0.00000E+00         0.00000E+00         0.12511E+08
 
    0.33299E+08        -0.60410E+06         0.00000E+00
   -0.60410E+06         0.24645E+08         0.00000E+00
    0.00000E+00         0.00000E+00         0.11589E+08
 
    0.30830E+08        -0.45554E+06         0.00000E+00
   -0.45554E+06         0.23646E+08         0.00000E+00
    0.00000E+00         0.00000E+00         0.10895E+08
 
    0.28671E+08        -0.33450E+06         0.00000E+00
   -0.33450E+06         0.22884E+08         0.00000E+00
    0.00000E+00         0.00000E+00         0.10311E+08
 
    0.26644E+08        -0.22408E+06         0.00000E+00
   -0.22408E+06         0.22341E+08         0.00000E+00
    0.00000E+00         0.00000E+00         0.97970E+07
 
    0.24633E+08        -0.11491E+06         0.00000E+00
   -0.11491E+06         0.22012E+08         0.00000E+00
    0.00000E+00         0.00000E+00         0.93289E+07
 
    0.22536E+08         0.17040E+04         0.00000E+00
    0.17040E+04         0.21905E+08         0.00000E+00
    0.00000E+00         0.00000E+00         0.88883E+07
 
    0.20240E+08         0.13662E+06         0.00000E+00
    0.13662E+06         0.22048E+08         0.00000E+00
    0.00000E+00         0.00000E+00         0.84576E+07
 
    0.17578E+08         0.30985E+06         0.00000E+00
    0.30985E+06         0.22497E+08         0.00000E+00
    0.00000E+00         0.00000E+00         0.80149E+07
 
    0.14260E+08         0.56455E+06         0.00000E+00
    0.56455E+06         0.23372E+08         0.00000E+00
    0.00000E+00         0.00000E+00         0.75264E+07
 
    0.94578E+07         0.11759E+07         0.00000E+00
    0.11759E+07         0.25021E+08         0.00000E+00
    0.00000E+00         0.00000E+00         0.68957E+07
 
    0.41555E+08         0.96116E+05         0.00000E+00
    0.96116E+05         0.24576E+08         0.00000E+00
    0.00000E+00         0.00000E+00         0.18738E+08
 
    0.40196E+08        -0.40850E+06         0.00000E+00
   -0.40850E+06         0.24552E+08         0.00000E+00
    0.00000E+00         0.00000E+00         0.16216E+08
 
    0.38468E+08        -0.97721E+06         0.00000E+00
   -0.97721E+06         0.24468E+08         0.00000E+00
    0.00000E+00         0.00000E+00         0.13463E+08
 
    0.35974E+08        -0.13332E+07         0.00000E+00
   -0.13332E+07         0.24113E+08         0.00000E+00
    0.00000E+00         0.00000E+00         0.12017E+08
 
    0.33175E+08        -0.16422E+07         0.00000E+00
   -0.16422E+07         0.23490E+08         0.00000E+00
    0.00000E+00         0.00000E+00         0.11333E+08
 
    0.30344E+08        -0.15392E+07         0.00000E+00
   -0.15392E+07         0.22815E+08         0.00000E+00
    0.00000E+00         0.00000E+00         0.10632E+08
 
    0.27865E+08        -0.12386E+07         0.00000E+00
   -0.12386E+07         0.22130E+08         0.00000E+00
    0.00000E+00         0.00000E+00         0.99991E+07
 
    0.25694E+08        -0.92994E+06         0.00000E+00
   -0.92994E+06         0.21546E+08         0.00000E+00
    0.00000E+00         0.00000E+00         0.94481E+07
 
    0.23663E+08        -0.62536E+06         0.00000E+00
   -0.62536E+06         0.21114E+08         0.00000E+00
    0.00000E+00         0.00000E+00         0.89555E+07
 
    0.21662E+08        -0.31175E+06         0.00000E+00
   -0.31175E+06         0.20860E+08         0.00000E+00
    0.00000E+00         0.00000E+00         0.85043E+07
 
    0.19592E+08         0.30527E+05         0.00000E+00
    0.30527E+05         0.20808E+08         0.00000E+00
    0.00000E+00         0.00000E+00         0.80800E+07
 
    0.17349E+08         0.43159E+06         0.00000E+00
    0.43159E+06         0.20993E+08         0.00000E+00
    0.00000E+00         0.00000E+00         0.76684E+07
 
    0.14798E+08         0.94742E+06         0.00000E+00
    0.94742E+06         0.21474E+08         0.00000E+00
    0.00000E+00         0.00000E+00         0.72545E+07
 
    0.11732E+08         0.17137E+07         0.00000E+00
    0.17137E+07         0.22356E+08         0.00000E+00
    0.00000E+00         0.00000E+00         0.68176E+07
 
    0.81008E+07         0.31711E+07         0.00000E+00
    0.31711E+07         0.23787E+08         0.00000E+00
    0.00000E+00         0.00000E+00         0.63776E+07
 
    0.38265E+08        -0.22009E+06         0.00000E+00
   -0.22009E+06         0.21707E+08         0.00000E+00
    0.00000E+00         0.00000E+00         0.12911E+08
 
    0.36491E+08        -0.62574E+06         0.00000E+00
   -0.62574E+06         0.21557E+08         0.00000E+00
    0.00000E+00         0.00000E+00         0.11610E+08
 
    0.34604E+08        -0.12295E+07         0.00000E+00
   -0.12295E+07         0.21373E+08         0.00000E+00
    0.00000E+00         0.00000E+00         0.11195E+08
 
    0.32435E+08        -0.18290E+07         0.00000E+00
   -0.18290E+07         0.21102E+08         0.00000E+00
    0.00000E+00         0.00000E+00         0.10707E+08
 
    0.29908E+08        -0.20787E+07         0.00000E+00
   -0.20787E+07         0.20783E+08         0.00000E+00
    0.00000E+00         0.00000E+00         0.10138E+08
 
    0.27396E+08        -0.20279E+07         0.00000E+00
   -0.20279E+07         0.20471E+08         0.00000E+00
    0.00000E+00         0.00000E+00         0.95735E+07
 
    0.25045E+08        -0.17413E+07         0.00000E+00
   -0.17413E+07         0.20122E+08         0.00000E+00
    0.00000E+00         0.00000E+00         0.90333E+07
 
    0.22901E+08        -0.13472E+07         0.00000E+00
   -0.13472E+07         0.19779E+08         0.00000E+00
    0.00000E+00         0.00000E+00         0.85358E+07
 
    0.20890E+08        -0.90623E+06         0.00000E+00
   -0.90623E+06         0.19515E+08         0.00000E+00
    0.00000E+00         0.00000E+00         0.80811E+07
 
    0.18922E+08        -0.42246E+06         0.00000E+00
   -0.42246E+06         0.19382E+08         0.00000E+00
    0.00000E+00         0.00000E+00         0.76607E+07
 
    0.16912E+08         0.12365E+06         0.00000E+00
    0.12365E+06         0.19417E+08         0.00000E+00
    0.00000E+00         0.00000E+00         0.72659E+07
 
    0.14778E+08         0.77339E+06         0.00000E+00
    0.77339E+06         0.19663E+08         0.00000E+00
    0.00000E+00         0.00000E+00         0.68883E+07
 
    0.12433E+08         0.16062E+07         0.00000E+00
    0.16062E+07         0.20169E+08         0.00000E+00
    0.00000E+00         0.00000E+00         0.65203E+07
 
    0.98270E+07         0.27874E+07         0.00000E+00
    0.27874E+07         0.20989E+08         0.00000E+00
    0.00000E+00         0.00000E+00         0.61632E+07
 
    0.70635E+07         0.45761E+07         0.00000E+00
    0.45761E+07         0.22079E+08         0.00000E+00
    0.00000E+00         0.00000E+00         0.58285E+07
 
    0.34666E+08        -0.33436E+06         0.00000E+00
   -0.33436E+06         0.18904E+08         0.00000E+00
    0.00000E+00         0.00000E+00         0.10714E+08
 
    0.32784E+08        -0.97014E+06         0.00000E+00
   -0.97014E+06         0.18741E+08         0.00000E+00
    0.00000E+00         0.00000E+00         0.10305E+08
 
    0.30906E+08        -0.15246E+07         0.00000E+00
   -0.15246E+07         0.18448E+08         0.00000E+00
    0.00000E+00         0.00000E+00         0.98708E+07
 
    0.28900E+08        -0.20204E+07         0.00000E+00
   -0.20204E+07         0.18246E+08         0.00000E+00
    0.00000E+00         0.00000E+00         0.94292E+07
 
    0.26700E+08        -0.22767E+07         0.00000E+00
   -0.22767E+07         0.18123E+08         0.00000E+00
    0.00000E+00         0.00000E+00         0.89646E+07
 
    0.24453E+08        -0.22453E+07         0.00000E+00
   -0.22453E+07         0.17997E+08         0.00000E+00
    0.00000E+00         0.00000E+00         0.84901E+07
 
    0.22287E+08        -0.19844E+07         0.00000E+00
   -0.19844E+07         0.17860E+08         0.00000E+00
    0.00000E+00         0.00000E+00         0.80292E+07
 
    0.20241E+08        -0.15641E+07         0.00000E+00
   -0.15641E+07         0.17721E+08         0.00000E+00
    0.00000E+00         0.00000E+00         0.75925E+07
 
    0.18297E+08        -0.10381E+07         0.00000E+00
   -0.10381E+07         0.17625E+08         0.00000E+00
    0.00000E+00         0.00000E+00         0.71844E+07
 
    0.16399E+08        -0.42356E+06         0.00000E+00
   -0.42356E+06         0.17620E+08         0.00000E+00
    0.00000E+00         0.00000E+00         0.68038E+07
 
    0.14490E+08         0.29349E+06         0.00000E+00
    0.29349E+06         0.17747E+08         0.00000E+00
    0.00000E+00         0.00000E+00         0.64473E+07
 
    0.12513E+08         0.11550E+07         0.00000E+00
    0.11550E+07         0.18044E+08         0.00000E+00
    0.00000E+00         0.00000E+00         0.61114E+07
 
    0.10435E+08         0.22399E+07         0.00000E+00
    0.22399E+07         0.18543E+08         0.00000E+00
    0.00000E+00         0.00000E+00         0.57955E+07
 
    0.82758E+07         0.36705E+07         0.00000E+00
    0.36705E+07         0.19242E+08         0.00000E+00
    0.00000E+00         0.00000E+00         0.55036E+07
 
    0.61562E+07         0.55922E+07         0.00000E+00
    0.55922E+07         0.20079E+08         0.00000E+00
    0.00000E+00         0.00000E+00         0.52469E+07
 
    0.30883E+08        -0.42928E+06         0.00000E+00
   -0.42928E+06         0.15868E+08         0.00000E+00
    0.00000E+00         0.00000E+00         0.93503E+07
 
    0.29115E+08        -0.11517E+07         0.00000E+00
   -0.11517E+07         0.15760E+08         0.00000E+00
    0.00000E+00         0.00000E+00         0.89751E+07
 
    0.27350E+08        -0.17199E+07         0.00000E+00
   -0.17199E+07         0.15635E+08         0.00000E+00
    0.00000E+00         0.00000E+00         0.85970E+07
 
    0.25501E+08        -0.21291E+07         0.00000E+00
   -0.21291E+07         0.15534E+08         0.00000E+00
    0.00000E+00         0.00000E+00         0.82069E+07
 
    0.23554E+08        -0.23370E+07         0.00000E+00
   -0.23370E+07         0.15490E+08         0.00000E+00
    0.00000E+00         0.00000E+00         0.78087E+07
 
    0.21559E+08        -0.23055E+07         0.00000E+00
   -0.23055E+07         0.15480E+08         0.00000E+00
    0.00000E+00         0.00000E+00         0.74077E+07
 
    0.19591E+08        -0.20506E+07         0.00000E+00
   -0.20506E+07         0.15476E+08         0.00000E+00
    0.00000E+00         0.00000E+00         0.70134E+07
 
    0.17691E+08        -0.16143E+07         0.00000E+00
   -0.16143E+07         0.15481E+08         0.00000E+00
    0.00000E+00         0.00000E+00         0.66345E+07
 
    0.15861E+08        -0.10325E+07         0.00000E+00
   -0.10325E+07         0.15518E+08         0.00000E+00
    0.00000E+00         0.00000E+00         0.62758E+07
 
    0.14075E+08        -0.32105E+06         0.00000E+00
   -0.32105E+06         0.15621E+08         0.00000E+00
    0.00000E+00         0.00000E+00         0.59392E+07
 
    0.12302E+08         0.52908E+06         0.00000E+00
    0.52908E+06         0.15823E+08         0.00000E+00
    0.00000E+00         0.00000E+00         0.56249E+07
 
    0.10515E+08         0.15525E+07         0.00000E+00
    0.15525E+07         0.16150E+08         0.00000E+00
    0.00000E+00         0.00000E+00         0.53330E+07
 
    0.87134E+07         0.28093E+07         0.00000E+00
    0.28093E+07         0.16616E+08         0.00000E+00
    0.00000E+00         0.00000E+00         0.50658E+07
 
    0.69413E+07         0.43793E+07         0.00000E+00
    0.43793E+07         0.17201E+08         0.00000E+00
    0.00000E+00         0.00000E+00         0.48284E+07
 
    0.53068E+07         0.63417E+07         0.00000E+00
    0.63417E+07         0.17844E+08         0.00000E+00
    0.00000E+00         0.00000E+00         0.46301E+07
 
    0.27062E+08        -0.47778E+06         0.00000E+00
   -0.47778E+06         0.12923E+08         0.00000E+00
    0.00000E+00         0.00000E+00         0.79970E+07
 
    0.25499E+08        -0.12370E+07         0.00000E+00
   -0.12370E+07         0.12887E+08         0.00000E+00
    0.00000E+00         0.00000E+00         0.76772E+07
 
    0.23905E+08        -0.17913E+07         0.00000E+00
   -0.17913E+07         0.12849E+08         0.00000E+00
    0.00000E+00         0.00000E+00         0.73508E+07
 
    0.22243E+08        -0.21565E+07         0.00000E+00
   -0.21565E+07         0.12841E+08         0.00000E+00
    0.00000E+00         0.00000E+00         0.70169E+07
 
    0.20513E+08        -0.23187E+07         0.00000E+00
   -0.23187E+07         0.12872E+08         0.00000E+00
    0.00000E+00         0.00000E+00         0.66770E+07
 
    0.18744E+08        -0.22652E+07         0.00000E+00
   -0.22652E+07         0.12936E+08         0.00000E+00
    0.00000E+00         0.00000E+00         0.63360E+07
 
    0.16979E+08        -0.20007E+07         0.00000E+00
   -0.20007E+07         0.13020E+08         0.00000E+00
    0.00000E+00         0.00000E+00         0.59998E+07
 
    0.15250E+08        -0.15455E+07         0.00000E+00
   -0.15455E+07         0.13121E+08         0.00000E+00
    0.00000E+00         0.00000E+00         0.56742E+07
 
    0.13568E+08        -0.92129E+06         0.00000E+00
   -0.92129E+06         0.13251E+08         0.00000E+00
    0.00000E+00         0.00000E+00         0.53639E+07
 
    0.11928E+08        -0.13875E+06         0.00000E+00
   -0.13875E+06         0.13431E+08         0.00000E+00
    0.00000E+00         0.00000E+00         0.50717E+07
 
    0.10318E+08         0.80821E+06         0.00000E+00
    0.80821E+06         0.13681E+08         0.00000E+00
    0.00000E+00         0.00000E+00         0.47999E+07
 
    0.87352E+07         0.19436E+07         0.00000E+00
    0.19436E+07         0.14018E+08         0.00000E+00
    0.00000E+00         0.00000E+00         0.45506E+07
 
    0.71956E+07         0.33071E+07         0.00000E+00
    0.33071E+07         0.14441E+08         0.00000E+00
    0.00000E+00         0.00000E+00         0.43273E+07
 
    0.57493E+07         0.49455E+07         0.00000E+00
    0.49455E+07         0.14926E+08         0.00000E+00
    0.00000E+00         0.00000E+00         0.41351E+07
 
    0.44869E+07         0.68985E+07         0.00000E+00
    0.68985E+07         0.15422E+08         0.00000E+00
    0.00000E+00         0.00000E+00         0.39817E+07
 
    0.23285E+08        -0.48352E+06         0.00000E+00
   -0.48352E+06         0.10055E+08         0.00000E+00
    0.00000E+00         0.00000E+00         0.66679E+07
 
    0.21969E+08        -0.12455E+07         0.00000E+00
   -0.12455E+07         0.10070E+08         0.00000E+00
    0.00000E+00         0.00000E+00         0.64077E+07
 
    0.20576E+08        -0.17799E+07         0.00000E+00
   -0.17799E+07         0.10102E+08         0.00000E+00
    0.00000E+00         0.00000E+00         0.61357E+07
 
    0.19113E+08        -0.21104E+07         0.00000E+00
   -0.21104E+07         0.10161E+08         0.00000E+00
    0.00000E+00         0.00000E+00         0.58548E+07
 
    0.17590E+08        -0.22377E+07         0.00000E+00
   -0.22377E+07         0.10252E+08         0.00000E+00
    0.00000E+00         0.00000E+00         0.55684E+07
 
    0.16032E+08        -0.21584E+07         0.00000E+00
   -0.21584E+07         0.10371E+08         0.00000E+00
    0.00000E+00         0.00000E+00         0.52806E+07
 
    0.14468E+08        -0.18752E+07         0.00000E+00
   -0.18752E+07         0.10512E+08         0.00000E+00
    0.00000E+00         0.00000E+00         0.49960E+07
 
    0.12923E+08        -0.13984E+07         0.00000E+00
   -0.13984E+07         0.10674E+08         0.00000E+00
    0.00000E+00         0.00000E+00         0.47194E+07
 
    0.11411E+08        -0.73972E+06         0.00000E+00
   -0.73972E+06         0.10863E+08         0.00000E+00
    0.00000E+00         0.00000E+00         0.44547E+07
 
    0.99382E+07         0.94436E+05         0.00000E+00
    0.94436E+05         0.11088E+08         0.00000E+00
    0.00000E+00         0.00000E+00         0.42053E+07
 
    0.85083E+07         0.11076E+07         0.00000E+00
    0.11076E+07         0.11363E+08         0.00000E+00
    0.00000E+00         0.00000E+00         0.39742E+07
 
    0.71307E+07         0.23140E+07         0.00000E+00
    0.23140E+07         0.11692E+08         0.00000E+00
    0.00000E+00         0.00000E+00         0.37645E+07
 
    0.58308E+07         0.37362E+07         0.00000E+00
    0.37362E+07         0.12068E+08         0.00000E+00
    0.00000E+00         0.00000E+00         0.35799E+07
 
    0.46569E+07         0.53975E+07         0.00000E+00
    0.53975E+07         0.12470E+08         0.00000E+00
    0.00000E+00         0.00000E+00         0.34253E+07
 
    0.36834E+07         0.73126E+07         0.00000E+00
    0.73126E+07         0.12852E+08         0.00000E+00
    0.00000E+00         0.00000E+00         0.33070E+07
 
    0.19610E+08        -0.46327E+06         0.00000E+00
   -0.46327E+06         0.72690E+07         0.00000E+00
    0.00000E+00         0.00000E+00         0.53758E+07
 
    0.18543E+08        -0.11992E+07         0.00000E+00
   -0.11992E+07         0.73162E+07         0.00000E+00
    0.00000E+00         0.00000E+00         0.51718E+07
 
    0.17364E+08        -0.17086E+07         0.00000E+00
   -0.17086E+07         0.73950E+07         0.00000E+00
    0.00000E+00         0.00000E+00         0.49518E+07
 
    0.16104E+08        -0.20103E+07         0.00000E+00
   -0.20103E+07         0.75010E+07         0.00000E+00
    0.00000E+00         0.00000E+00         0.47210E+07
 
    0.14785E+08        -0.21094E+07         0.00000E+00
   -0.21094E+07         0.76333E+07         0.00000E+00
    0.00000E+00         0.00000E+00         0.44837E+07
 
    0.13431E+08        -0.20062E+07         0.00000E+00
   -0.20062E+07         0.77895E+07         0.00000E+00
    0.00000E+00         0.00000E+00         0.42441E+07
 
    0.12066E+08        -0.17028E+07         0.00000E+00
   -0.17028E+07         0.79664E+07         0.00000E+00
    0.00000E+00         0.00000E+00         0.40064E+07
 
    0.10710E+08        -0.12047E+07         0.00000E+00
   -0.12047E+07         0.81630E+07         0.00000E+00
    0.00000E+00         0.00000E+00         0.37746E+07
 
    0.93797E+07        -0.51840E+06         0.00000E+00
   -0.51840E+06         0.83817E+07         0.00000E+00
    0.00000E+00         0.00000E+00         0.35523E+07
 
    0.80872E+07         0.35204E+06         0.00000E+00
    0.35204E+06         0.86275E+07         0.00000E+00
    0.00000E+00         0.00000E+00         0.33430E+07
 
    0.68438E+07         0.14076E+07         0.00000E+00
    0.14076E+07         0.89049E+07         0.00000E+00
    0.00000E+00         0.00000E+00         0.31497E+07
 
    0.56663E+07         0.26545E+07         0.00000E+00
    0.26545E+07         0.92134E+07         0.00000E+00
    0.00000E+00         0.00000E+00         0.29759E+07
 
    0.45829E+07         0.41021E+07         0.00000E+00
    0.41021E+07         0.95434E+07         0.00000E+00
    0.00000E+00         0.00000E+00         0.28252E+07
 
    0.36373E+07         0.57579E+07         0.00000E+00
    0.57579E+07         0.98731E+07         0.00000E+00
    0.00000E+00         0.00000E+00         0.27021E+07
 
    0.28902E+07         0.76200E+07         0.00000E+00
    0.76200E+07         0.10167E+08         0.00000E+00
    0.00000E+00         0.00000E+00         0.26114E+07
 
    0.16071E+08        -0.42910E+06         0.00000E+00
   -0.42910E+06         0.45676E+07         0.00000E+00
    0.00000E+00         0.00000E+00         0.41278E+07
 
    0.15236E+08        -0.11204E+07         0.00000E+00
   -0.11204E+07         0.46312E+07         0.00000E+00
    0.00000E+00         0.00000E+00         0.39734E+07
 
    0.14268E+08        -0.15994E+07         0.00000E+00
   -0.15994E+07         0.47356E+07         0.00000E+00
    0.00000E+00         0.00000E+00         0.38008E+07
 
    0.13211E+08        -0.18751E+07         0.00000E+00
   -0.18751E+07         0.48685E+07         0.00000E+00
    0.00000E+00         0.00000E+00         0.36158E+07
 
    0.12093E+08        -0.19509E+07         0.00000E+00
   -0.19509E+07         0.50244E+07         0.00000E+00
    0.00000E+00         0.00000E+00         0.34235E+07
 
    0.10939E+08        -0.18273E+07         0.00000E+00
   -0.18273E+07         0.52003E+07         0.00000E+00
    0.00000E+00         0.00000E+00         0.32279E+07
 
    0.97709E+07        -0.15057E+07         0.00000E+00
   -0.15057E+07         0.53937E+07         0.00000E+00
    0.00000E+00         0.00000E+00         0.30329E+07
 
    0.86073E+07        -0.98920E+06         0.00000E+00
   -0.98920E+06         0.56036E+07         0.00000E+00
    0.00000E+00         0.00000E+00         0.28422E+07
 
    0.74647E+07        -0.28191E+06         0.00000E+00
   -0.28191E+06         0.58306E+07         0.00000E+00
    0.00000E+00         0.00000E+00         0.26591E+07
 
    0.63574E+07         0.61268E+06         0.00000E+00
    0.61268E+06         0.60762E+07         0.00000E+00
    0.00000E+00         0.00000E+00         0.24867E+07
 
    0.53007E+07         0.16929E+07         0.00000E+00
    0.16929E+07         0.63405E+07         0.00000E+00
    0.00000E+00         0.00000E+00         0.23282E+07
 
    0.43142E+07         0.29589E+07         0.00000E+00
    0.29589E+07         0.66196E+07         0.00000E+00
    0.00000E+00         0.00000E+00         0.21868E+07
 
    0.34255E+07         0.44105E+07         0.00000E+00
    0.44105E+07         0.69029E+07         0.00000E+00
    0.00000E+00         0.00000E+00         0.20657E+07
 
    0.26727E+07         0.60438E+07         0.00000E+00
    0.60438E+07         0.71711E+07         0.00000E+00
    0.00000E+00         0.00000E+00         0.19687E+07
 
    0.21045E+07         0.78465E+07         0.00000E+00
    0.78465E+07         0.73958E+07         0.00000E+00
    0.00000E+00         0.00000E+00         0.19001E+07
 
    0.12682E+08        -0.38939E+06         0.00000E+00
   -0.38939E+06         0.19475E+07         0.00000E+00
    0.00000E+00         0.00000E+00         0.29260E+07
 
    0.12052E+08        -0.10269E+07         0.00000E+00
   -0.10269E+07         0.20160E+07         0.00000E+00
    0.00000E+00         0.00000E+00         0.28136E+07
 
    0.11285E+08        -0.14721E+07         0.00000E+00
   -0.14721E+07         0.21287E+07         0.00000E+00
    0.00000E+00         0.00000E+00         0.26827E+07
 
    0.10425E+08        -0.17234E+07         0.00000E+00
   -0.17234E+07         0.22701E+07         0.00000E+00
    0.00000E+00         0.00000E+00         0.25390E+07
 
    0.95052E+07        -0.17794E+07         0.00000E+00
   -0.17794E+07         0.24323E+07         0.00000E+00
    0.00000E+00         0.00000E+00         0.23875E+07
 
    0.85491E+07        -0.16391E+07         0.00000E+00
   -0.16391E+07         0.26111E+07         0.00000E+00
    0.00000E+00         0.00000E+00         0.22320E+07
 
    0.75770E+07        -0.13025E+07         0.00000E+00
   -0.13025E+07         0.28040E+07         0.00000E+00
    0.00000E+00         0.00000E+00         0.20762E+07
 
    0.66064E+07        -0.77153E+06         0.00000E+00
   -0.77153E+06         0.30098E+07         0.00000E+00
    0.00000E+00         0.00000E+00         0.19232E+07
 
    0.56530E+07        -0.49421E+05         0.00000E+00
   -0.49421E+05         0.32279E+07         0.00000E+00
    0.00000E+00         0.00000E+00         0.17762E+07
 
    0.47315E+07         0.85994E+06         0.00000E+00
    0.85994E+06         0.34576E+07         0.00000E+00
    0.00000E+00         0.00000E+00         0.16378E+07
 
    0.38581E+07         0.19524E+07         0.00000E+00
    0.19524E+07         0.36969E+07         0.00000E+00
    0.00000E+00         0.00000E+00         0.15110E+07
 
    0.30523E+07         0.32234E+07         0.00000E+00
    0.32234E+07         0.39402E+07         0.00000E+00
    0.00000E+00         0.00000E+00         0.13985E+07
 
    0.23391E+07         0.46659E+07         0.00000E+00
    0.46659E+07         0.41773E+07         0.00000E+00
    0.00000E+00         0.00000E+00         0.13033E+07
 
    0.17504E+07         0.62684E+07         0.00000E+00
    0.62684E+07         0.43919E+07         0.00000E+00
    0.00000E+00         0.00000E+00         0.12285E+07
 
    0.13248E+07         0.80117E+07         0.00000E+00
    0.80117E+07         0.45616E+07         0.00000E+00
    0.00000E+00         0.00000E+00         0.11773E+07
 
    0.94410E+07        -0.35000E+06         0.00000E+00
   -0.35000E+06        -0.59795E+06         0.00000E+00
    0.00000E+00         0.00000E+00         0.17686E+07
 
    0.89878E+07        -0.93265E+06         0.00000E+00
   -0.93265E+06        -0.53320E+06         0.00000E+00
    0.00000E+00         0.00000E+00         0.16909E+07
 
    0.84060E+07        -0.13437E+07         0.00000E+00
   -0.13437E+07        -0.42583E+06         0.00000E+00
    0.00000E+00         0.00000E+00         0.15960E+07
 
    0.77370E+07        -0.15722E+07         0.00000E+00
   -0.15722E+07        -0.29137E+06         0.00000E+00
    0.00000E+00         0.00000E+00         0.14891E+07
 
    0.70108E+07        -0.16113E+07         0.00000E+00
   -0.16113E+07        -0.13845E+06         0.00000E+00
    0.00000E+00         0.00000E+00         0.13745E+07
 
    0.62500E+07        -0.14574E+07         0.00000E+00
   -0.14574E+07         0.28201E+05         0.00000E+00
    0.00000E+00         0.00000E+00         0.12556E+07
 
    0.54728E+07        -0.11091E+07         0.00000E+00
   -0.11091E+07         0.20595E+06         0.00000E+00
    0.00000E+00         0.00000E+00         0.11357E+07
 
    0.46947E+07        -0.56755E+06         0.00000E+00
   -0.56755E+06         0.39321E+06         0.00000E+00
    0.00000E+00         0.00000E+00         0.10176E+07
 
    0.39300E+07         0.16422E+06         0.00000E+00
    0.16422E+06         0.58872E+06         0.00000E+00
    0.00000E+00         0.00000E+00         0.90374E+06
 
    0.31925E+07         0.10815E+07         0.00000E+00
    0.10815E+07         0.79076E+06         0.00000E+00
    0.00000E+00         0.00000E+00         0.79666E+06
 
    0.24974E+07         0.21780E+07         0.00000E+00
    0.21780E+07         0.99622E+06         0.00000E+00
    0.00000E+00         0.00000E+00         0.69871E+06
 
    0.18621E+07         0.34455E+07         0.00000E+00
    0.34455E+07         0.11994E+07         0.00000E+00
    0.00000E+00         0.00000E+00         0.61229E+06
 
    0.13080E+07         0.48722E+07         0.00000E+00
    0.48722E+07         0.13911E+07         0.00000E+00
    0.00000E+00         0.00000E+00         0.53982E+06
 
    0.86080E+06         0.64416E+07         0.00000E+00
    0.64416E+07         0.15581E+07         0.00000E+00
    0.00000E+00         0.00000E+00         0.48379E+06
 
    0.55034E+06         0.81299E+07         0.00000E+00
    0.81299E+07         0.16832E+07         0.00000E+00
    0.00000E+00         0.00000E+00         0.44671E+06
 
    0.63328E+07        -0.31506E+06         0.00000E+00
   -0.31506E+06        -0.30785E+07         0.00000E+00
    0.00000E+00         0.00000E+00         0.65088E+06
 
    0.60313E+07        -0.84790E+06         0.00000E+00
   -0.84790E+06        -0.30236E+07         0.00000E+00
    0.00000E+00         0.00000E+00         0.60153E+06
 
    0.56201E+07        -0.12277E+07         0.00000E+00
   -0.12277E+07        -0.29320E+07         0.00000E+00
    0.00000E+00         0.00000E+00         0.53761E+06
 
    0.51334E+07        -0.14358E+07         0.00000E+00
   -0.14358E+07        -0.28169E+07         0.00000E+00
    0.00000E+00         0.00000E+00         0.46330E+06
 
    0.45965E+07        -0.14607E+07         0.00000E+00
   -0.14607E+07        -0.26863E+07         0.00000E+00
    0.00000E+00         0.00000E+00         0.38205E+06
 
    0.40285E+07        -0.12959E+07         0.00000E+00
   -0.12959E+07        -0.25445E+07         0.00000E+00
    0.00000E+00         0.00000E+00         0.29680E+06
 
    0.34445E+07        -0.93882E+06         0.00000E+00
   -0.93882E+06        -0.23941E+07         0.00000E+00
    0.00000E+00         0.00000E+00         0.21008E+06
 
    0.28578E+07        -0.38990E+06         0.00000E+00
   -0.38990E+06        -0.22370E+07         0.00000E+00
    0.00000E+00         0.00000E+00         0.12416E+06
 
    0.22802E+07         0.34768E+06         0.00000E+00
    0.34768E+06        -0.20746E+07         0.00000E+00
    0.00000E+00         0.00000E+00         0.41132E+05
 
    0.17238E+07         0.12683E+07         0.00000E+00
    0.12683E+07        -0.19090E+07         0.00000E+00
    0.00000E+00         0.00000E+00        -0.37043E+05
 
    0.12013E+07         0.23640E+07         0.00000E+00
    0.23640E+07        -0.17436E+07         0.00000E+00
    0.00000E+00         0.00000E+00        -0.10845E+06
 
    0.72745E+06         0.36237E+07         0.00000E+00
    0.36237E+07        -0.15835E+07         0.00000E+00
    0.00000E+00         0.00000E+00        -0.17121E+06
 
    0.31920E+06         0.50326E+07         0.00000E+00
    0.50326E+07        -0.14363E+07         0.00000E+00
    0.00000E+00         0.00000E+00        -0.22343E+06
 
   -0.37504E+04         0.65708E+07         0.00000E+00
    0.65708E+07        -0.13124E+07         0.00000E+00
    0.00000E+00         0.00000E+00        -0.26322E+06
 
   -0.21947E+06         0.82116E+07         0.00000E+00
    0.82116E+07        -0.12241E+07         0.00000E+00
    0.00000E+00         0.00000E+00        -0.28872E+06
 
    0.33353E+07        -0.28742E+06         0.00000E+00
   -0.28742E+06        -0.55060E+07         0.00000E+00
    0.00000E+00         0.00000E+00        -0.43414E+06
 
    0.31646E+07        -0.78010E+06         0.00000E+00
   -0.78010E+06        -0.54654E+07         0.00000E+00
    0.00000E+00         0.00000E+00        -0.46015E+06
 
    0.29111E+07        -0.11342E+07         0.00000E+00
   -0.11342E+07        -0.53971E+07         0.00000E+00
    0.00000E+00         0.00000E+00        -0.49720E+06
 
    0.25991E+07        -0.13256E+07         0.00000E+00
   -0.13256E+07        -0.53107E+07         0.00000E+00
    0.00000E+00         0.00000E+00        -0.54232E+06
 
    0.22472E+07        -0.13391E+07         0.00000E+00
   -0.13391E+07        -0.52123E+07         0.00000E+00
    0.00000E+00         0.00000E+00        -0.59302E+06
 
    0.18695E+07        -0.11659E+07         0.00000E+00
   -0.11659E+07        -0.51054E+07         0.00000E+00
    0.00000E+00         0.00000E+00        -0.64718E+06
 
    0.14772E+07        -0.80224E+06         0.00000E+00
   -0.80224E+06        -0.49920E+07         0.00000E+00
    0.00000E+00         0.00000E+00        -0.70295E+06
 
    0.10803E+07        -0.24829E+06         0.00000E+00
   -0.24829E+06        -0.48737E+07         0.00000E+00
    0.00000E+00         0.00000E+00        -0.75868E+06
 
    0.68787E+06         0.49254E+06         0.00000E+00
    0.49254E+06        -0.47521E+07         0.00000E+00
    0.00000E+00         0.00000E+00        -0.81285E+06
 
    0.30924E+06         0.14139E+07         0.00000E+00
    0.14139E+07        -0.46293E+07         0.00000E+00
    0.00000E+00         0.00000E+00        -0.86401E+06
 
   -0.45650E+05         0.25064E+07         0.00000E+00
    0.25064E+07        -0.45081E+07         0.00000E+00
    0.00000E+00         0.00000E+00        -0.91076E+06
 
   -0.36570E+06         0.37572E+07         0.00000E+00
    0.37572E+07        -0.43930E+07         0.00000E+00
    0.00000E+00         0.00000E+00        -0.95174E+06
 
   -0.63840E+06         0.51495E+07         0.00000E+00
    0.51495E+07        -0.42896E+07         0.00000E+00
    0.00000E+00         0.00000E+00        -0.98560E+06
 
   -0.84987E+06         0.66613E+07         0.00000E+00
    0.66613E+07        -0.42053E+07         0.00000E+00
    0.00000E+00         0.00000E+00        -0.10110E+07
 
   -0.98527E+06         0.82645E+07         0.00000E+00
    0.82645E+07        -0.41486E+07         0.00000E+00
    0.00000E+00         0.00000E+00        -0.10268E+07
 
    0.41987E+06        -0.26900E+06         0.00000E+00
   -0.26900E+06        -0.78938E+07         0.00000E+00
    0.00000E+00         0.00000E+00        -0.14948E+07
 
    0.36546E+06        -0.73441E+06         0.00000E+00
   -0.73441E+06        -0.78703E+07         0.00000E+00
    0.00000E+00         0.00000E+00        -0.15010E+07
 
    0.25999E+06        -0.10706E+07         0.00000E+00
   -0.10706E+07        -0.78304E+07         0.00000E+00
    0.00000E+00         0.00000E+00        -0.15141E+07
 
    0.11698E+06        -0.12501E+07         0.00000E+00
   -0.12501E+07        -0.77792E+07         0.00000E+00
    0.00000E+00         0.00000E+00        -0.15324E+07
 
   -0.53271E+05        -0.12551E+07         0.00000E+00
   -0.12551E+07        -0.77201E+07         0.00000E+00
    0.00000E+00         0.00000E+00        -0.15547E+07
 
   -0.24277E+06        -0.10756E+07         0.00000E+00
   -0.10756E+07        -0.76550E+07         0.00000E+00
    0.00000E+00         0.00000E+00        -0.15795E+07
 
   -0.44486E+06        -0.70714E+06         0.00000E+00
   -0.70714E+06        -0.75852E+07         0.00000E+00
    0.00000E+00         0.00000E+00        -0.16060E+07
 
   -0.65351E+06        -0.14969E+06         0.00000E+00
   -0.14969E+06        -0.75118E+07         0.00000E+00
    0.00000E+00         0.00000E+00        -0.16331E+07
 
   -0.86280E+06         0.59299E+06         0.00000E+00
    0.59299E+06        -0.74361E+07         0.00000E+00
    0.00000E+00         0.00000E+00        -0.16598E+07
 
   -0.10666E+07         0.15139E+07         0.00000E+00
    0.15139E+07        -0.73600E+07         0.00000E+00
    0.00000E+00         0.00000E+00        -0.16853E+07
 
   -0.12581E+07         0.26028E+07         0.00000E+00
    0.26028E+07        -0.72857E+07         0.00000E+00
    0.00000E+00         0.00000E+00        -0.17088E+07
 
   -0.14301E+07         0.38457E+07         0.00000E+00
    0.38457E+07        -0.72164E+07         0.00000E+00
    0.00000E+00         0.00000E+00        -0.17293E+07
 
   -0.15746E+07         0.52248E+07         0.00000E+00
    0.52248E+07        -0.71561E+07         0.00000E+00
    0.00000E+00         0.00000E+00        -0.17461E+07
 
   -0.16833E+07         0.67169E+07         0.00000E+00
    0.67169E+07        -0.71091E+07         0.00000E+00
    0.00000E+00         0.00000E+00        -0.17585E+07
 
   -0.17477E+07         0.82934E+07         0.00000E+00
    0.82934E+07        -0.70804E+07         0.00000E+00
    0.00000E+00         0.00000E+00        -0.17656E+07
 
   -0.24453E+07        -0.26094E+06         0.00000E+00
   -0.26094E+06        -0.10256E+08         0.00000E+00
    0.00000E+00         0.00000E+00        -0.25402E+07
 
   -0.23914E+07        -0.71401E+06         0.00000E+00
   -0.71401E+06        -0.10251E+08         0.00000E+00
    0.00000E+00         0.00000E+00        -0.25285E+07
 
   -0.23540E+07        -0.10416E+07         0.00000E+00
   -0.10416E+07        -0.10242E+08         0.00000E+00
    0.00000E+00         0.00000E+00        -0.25193E+07
 
   -0.23313E+07        -0.12146E+07         0.00000E+00
   -0.12146E+07        -0.10230E+08         0.00000E+00
    0.00000E+00         0.00000E+00        -0.25123E+07
 
   -0.23217E+07        -0.12144E+07         0.00000E+00
   -0.12144E+07        -0.10214E+08         0.00000E+00
    0.00000E+00         0.00000E+00        -0.25072E+07
 
   -0.23242E+07        -0.10306E+07         0.00000E+00
   -0.10306E+07        -0.10195E+08         0.00000E+00
    0.00000E+00         0.00000E+00        -0.25039E+07
 
   -0.23372E+07        -0.65845E+06         0.00000E+00
   -0.65845E+06        -0.10173E+08         0.00000E+00
    0.00000E+00         0.00000E+00        -0.25020E+07
 
   -0.23589E+07        -0.98363E+05         0.00000E+00
   -0.98363E+05        -0.10147E+08         0.00000E+00
    0.00000E+00         0.00000E+00        -0.25013E+07
 
   -0.23869E+07         0.64561E+06         0.00000E+00
    0.64561E+06        -0.10120E+08         0.00000E+00
    0.00000E+00         0.00000E+00        -0.25014E+07
 
   -0.24181E+07         0.15660E+07         0.00000E+00
    0.15660E+07        -0.10093E+08         0.00000E+00
    0.00000E+00         0.00000E+00        -0.25022E+07
 
   -0.24495E+07         0.26520E+07         0.00000E+00
    0.26520E+07        -0.10066E+08         0.00000E+00
    0.00000E+00         0.00000E+00        -0.25032E+07
 
   -0.24773E+07         0.38894E+07         0.00000E+00
    0.38894E+07        -0.10043E+08         0.00000E+00
    0.00000E+00         0.00000E+00        -0.25041E+07
 
   -0.24983E+07         0.52597E+07         0.00000E+00
    0.52597E+07        -0.10025E+08         0.00000E+00
    0.00000E+00         0.00000E+00        -0.25047E+07
 
   -0.25091E+07         0.67399E+07         0.00000E+00
    0.67399E+07        -0.10014E+08         0.00000E+00
    0.00000E+00         0.00000E+00        -0.25046E+07
 
   -0.25074E+07         0.83013E+07         0.00000E+00
    0.83013E+07        -0.10012E+08         0.00000E+00
    0.00000E+00         0.00000E+00        -0.25038E+07
 
   -0.52935E+07        -0.26374E+06         0.00000E+00
   -0.26374E+06        -0.12606E+08         0.00000E+00
    0.00000E+00         0.00000E+00        -0.35799E+07
 
   -0.51324E+07        -0.72040E+06         0.00000E+00
   -0.72040E+06        -0.12621E+08         0.00000E+00
    0.00000E+00         0.00000E+00        -0.35506E+07
 
   -0.49526E+07        -0.10493E+07         0.00000E+00
   -0.10493E+07        -0.12644E+08         0.00000E+00
    0.00000E+00         0.00000E+00        -0.35193E+07
 
   -0.47641E+07        -0.12217E+07         0.00000E+00
   -0.12217E+07        -0.12672E+08         0.00000E+00
    0.00000E+00         0.00000E+00        -0.34872E+07
 
   -0.45748E+07        -0.12197E+07         0.00000E+00
   -0.12197E+07        -0.12701E+08         0.00000E+00
    0.00000E+00         0.00000E+00        -0.34551E+07
 
   -0.43904E+07        -0.10331E+07         0.00000E+00
   -0.10331E+07        -0.12729E+08         0.00000E+00
    0.00000E+00         0.00000E+00        -0.34238E+07
 
   -0.42149E+07        -0.65824E+06         0.00000E+00
   -0.65824E+06        -0.12754E+08         0.00000E+00
    0.00000E+00         0.00000E+00        -0.33938E+07
 
   -0.40506E+07        -0.95914E+05         0.00000E+00
   -0.95914E+05        -0.12777E+08         0.00000E+00
    0.00000E+00         0.00000E+00        -0.33656E+07
 
   -0.38986E+07         0.64927E+06         0.00000E+00
    0.64927E+06        -0.12799E+08         0.00000E+00
    0.00000E+00         0.00000E+00        -0.33395E+07
 
   -0.37591E+07         0.15695E+07         0.00000E+00
    0.15695E+07        -0.12820E+08         0.00000E+00
    0.00000E+00         0.00000E+00        -0.33158E+07
 
   -0.36322E+07         0.26541E+07         0.00000E+00
    0.26541E+07        -0.12841E+08         0.00000E+00
    0.00000E+00         0.00000E+00        -0.32947E+07
 
   -0.35180E+07         0.38886E+07         0.00000E+00
    0.38886E+07        -0.12863E+08         0.00000E+00
    0.00000E+00         0.00000E+00        -0.32763E+07
 
   -0.34173E+07         0.52552E+07         0.00000E+00
    0.52552E+07        -0.12887E+08         0.00000E+00
    0.00000E+00         0.00000E+00        -0.32609E+07
 
   -0.33319E+07         0.67313E+07         0.00000E+00
    0.67313E+07        -0.12911E+08         0.00000E+00
    0.00000E+00         0.00000E+00        -0.32487E+07
 
   -0.32649E+07         0.82893E+07         0.00000E+00
    0.82893E+07        -0.12935E+08         0.00000E+00
    0.00000E+00         0.00000E+00        -0.32399E+07
 
   -0.81580E+07        -0.27737E+06         0.00000E+00
   -0.27737E+06        -0.14958E+08         0.00000E+00
    0.00000E+00         0.00000E+00        -0.46232E+07
 
   -0.78837E+07        -0.75362E+06         0.00000E+00
   -0.75362E+06        -0.14991E+08         0.00000E+00
    0.00000E+00         0.00000E+00        -0.45749E+07
 
   -0.75568E+07        -0.10938E+07         0.00000E+00
   -0.10938E+07        -0.15046E+08         0.00000E+00
    0.00000E+00         0.00000E+00        -0.45205E+07
 
   -0.71993E+07        -0.12715E+07         0.00000E+00
   -0.12715E+07        -0.15113E+08         0.00000E+00
    0.00000E+00         0.00000E+00        -0.44624E+07
 
   -0.68280E+07        -0.12705E+07         0.00000E+00
   -0.12705E+07        -0.15185E+08         0.00000E+00
    0.00000E+00         0.00000E+00        -0.44026E+07
 
   -0.64558E+07        -0.10827E+07         0.00000E+00
   -0.10827E+07        -0.15258E+08         0.00000E+00
    0.00000E+00         0.00000E+00        -0.43427E+07
 
   -0.60917E+07        -0.70566E+06         0.00000E+00
   -0.70566E+06        -0.15329E+08         0.00000E+00
    0.00000E+00         0.00000E+00        -0.42842E+07
 
   -0.57421E+07        -0.14132E+06         0.00000E+00
   -0.14132E+06        -0.15399E+08         0.00000E+00
    0.00000E+00         0.00000E+00        -0.42282E+07
 
   -0.54112E+07         0.60509E+06         0.00000E+00
    0.60509E+06        -0.15467E+08         0.00000E+00
    0.00000E+00         0.00000E+00        -0.41756E+07
 
   -0.51021E+07         0.15256E+07         0.00000E+00
    0.15256E+07        -0.15534E+08         0.00000E+00
    0.00000E+00         0.00000E+00        -0.41272E+07
 
   -0.48178E+07         0.26098E+07         0.00000E+00
    0.26098E+07        -0.15601E+08         0.00000E+00
    0.00000E+00         0.00000E+00        -0.40838E+07
 
   -0.45617E+07         0.38442E+07         0.00000E+00
    0.38442E+07        -0.15668E+08         0.00000E+00
    0.00000E+00         0.00000E+00        -0.40459E+07
 
   -0.43388E+07         0.52118E+07         0.00000E+00
    0.52118E+07        -0.15733E+08         0.00000E+00
    0.00000E+00         0.00000E+00        -0.40143E+07
 
   -0.41555E+07         0.66913E+07         0.00000E+00
    0.66913E+07        -0.15792E+08         0.00000E+00
    0.00000E+00         0.00000E+00        -0.39896E+07
 
   -0.40205E+07         0.82566E+07         0.00000E+00
    0.82566E+07        -0.15843E+08         0.00000E+00
    0.00000E+00         0.00000E+00        -0.39726E+07
 
   -0.11071E+08        -0.30136E+06         0.00000E+00
   -0.30136E+06        -0.17323E+08         0.00000E+00
    0.00000E+00         0.00000E+00        -0.56787E+07
 
   -0.10670E+08        -0.81244E+06         0.00000E+00
   -0.81244E+06        -0.17374E+08         0.00000E+00
    0.00000E+00         0.00000E+00        -0.56087E+07
 
   -0.10186E+08        -0.11733E+07         0.00000E+00
   -0.11733E+07        -0.17458E+08         0.00000E+00
    0.00000E+00         0.00000E+00        -0.55288E+07
 
   -0.96531E+07        -0.13614E+07         0.00000E+00
   -0.13614E+07        -0.17560E+08         0.00000E+00
    0.00000E+00         0.00000E+00        -0.54427E+07
 
   -0.90956E+07        -0.13640E+07         0.00000E+00
   -0.13640E+07        -0.17671E+08         0.00000E+00
    0.00000E+00         0.00000E+00        -0.53534E+07
 
   -0.85334E+07        -0.11759E+07         0.00000E+00
   -0.11759E+07        -0.17785E+08         0.00000E+00
    0.00000E+00         0.00000E+00        -0.52636E+07
 
   -0.79803E+07        -0.79700E+06         0.00000E+00
   -0.79700E+06        -0.17897E+08         0.00000E+00
    0.00000E+00         0.00000E+00        -0.51755E+07
 
   -0.74460E+07        -0.23089E+06         0.00000E+00
   -0.23089E+06        -0.18008E+08         0.00000E+00
    0.00000E+00         0.00000E+00        -0.50908E+07
 
   -0.69371E+07         0.51644E+06         0.00000E+00
    0.51644E+06        -0.18117E+08         0.00000E+00
    0.00000E+00         0.00000E+00        -0.50109E+07
 
   -0.64590E+07         0.14371E+07         0.00000E+00
    0.14371E+07        -0.18227E+08         0.00000E+00
    0.00000E+00         0.00000E+00        -0.49372E+07
 
   -0.60171E+07         0.25213E+07         0.00000E+00
    0.25213E+07        -0.18337E+08         0.00000E+00
    0.00000E+00         0.00000E+00        -0.48708E+07
 
   -0.56178E+07         0.37571E+07         0.00000E+00
    0.37571E+07        -0.18446E+08         0.00000E+00
    0.00000E+00         0.00000E+00        -0.48128E+07
 
   -0.52697E+07         0.51293E+07         0.00000E+00
    0.51293E+07        -0.18552E+08         0.00000E+00
    0.00000E+00         0.00000E+00        -0.47642E+07
 
   -0.49838E+07         0.66188E+07         0.00000E+00
    0.66188E+07        -0.18648E+08         0.00000E+00
    0.00000E+00         0.00000E+00        -0.47263E+07
 
   -0.47742E+07         0.82012E+07         0.00000E+00
    0.82012E+07        -0.18727E+08         0.00000E+00
    0.00000E+00         0.00000E+00        -0.47002E+07
 
   -0.14060E+08        -0.33483E+06         0.00000E+00
   -0.33483E+06        -0.19712E+08         0.00000E+00
    0.00000E+00         0.00000E+00        -0.67544E+07
 
   -0.13513E+08        -0.89447E+06         0.00000E+00
   -0.89447E+06        -0.19778E+08         0.00000E+00
    0.00000E+00         0.00000E+00        -0.66584E+07
 
   -0.12859E+08        -0.12841E+07         0.00000E+00
   -0.12841E+07        -0.19888E+08         0.00000E+00
    0.00000E+00         0.00000E+00        -0.65493E+07
 
   -0.12139E+08        -0.14865E+07         0.00000E+00
   -0.14865E+07        -0.20021E+08         0.00000E+00
    0.00000E+00         0.00000E+00        -0.64320E+07
 
   -0.11389E+08        -0.14942E+07         0.00000E+00
   -0.14942E+07        -0.20164E+08         0.00000E+00
    0.00000E+00         0.00000E+00        -0.63107E+07
 
   -0.10634E+08        -0.13061E+07         0.00000E+00
   -0.13061E+07        -0.20310E+08         0.00000E+00
    0.00000E+00         0.00000E+00        -0.61889E+07
 
   -0.98917E+07        -0.92556E+06         0.00000E+00
   -0.92556E+06        -0.20455E+08         0.00000E+00
    0.00000E+00         0.00000E+00        -0.60694E+07
 
   -0.91734E+07        -0.35821E+06         0.00000E+00
   -0.35821E+06        -0.20599E+08         0.00000E+00
    0.00000E+00         0.00000E+00        -0.59545E+07
 
   -0.84877E+07         0.38898E+06         0.00000E+00
    0.38898E+06        -0.20743E+08         0.00000E+00
    0.00000E+00         0.00000E+00        -0.58461E+07
 
   -0.78412E+07         0.13084E+07         0.00000E+00
    0.13084E+07        -0.20889E+08         0.00000E+00
    0.00000E+00         0.00000E+00        -0.57460E+07
 
   -0.72408E+07         0.23916E+07         0.00000E+00
    0.23916E+07        -0.21037E+08         0.00000E+00
    0.00000E+00         0.00000E+00        -0.56556E+07
 
   -0.66952E+07         0.36288E+07         0.00000E+00
    0.36288E+07        -0.21186E+08         0.00000E+00
    0.00000E+00         0.00000E+00        -0.55763E+07
 
   -0.62165E+07         0.50075E+07         0.00000E+00
    0.50075E+07        -0.21332E+08         0.00000E+00
    0.00000E+00         0.00000E+00        -0.55097E+07
 
   -0.58202E+07         0.65114E+07         0.00000E+00
    0.65114E+07        -0.21466E+08         0.00000E+00
    0.00000E+00         0.00000E+00        -0.54573E+07
 
   -0.55259E+07         0.81192E+07         0.00000E+00
    0.81192E+07        -0.21579E+08         0.00000E+00
    0.00000E+00         0.00000E+00        -0.54209E+07
 
   -0.17150E+08        -0.37659E+06         0.00000E+00
   -0.37659E+06        -0.22134E+08         0.00000E+00
    0.00000E+00         0.00000E+00        -0.78569E+07
 
   -0.16432E+08        -0.99628E+06         0.00000E+00
   -0.99628E+06        -0.22213E+08         0.00000E+00
    0.00000E+00         0.00000E+00        -0.77291E+07
 
   -0.15587E+08        -0.14205E+07         0.00000E+00
   -0.14205E+07        -0.22343E+08         0.00000E+00
    0.00000E+00         0.00000E+00        -0.75859E+07
 
   -0.14668E+08        -0.16395E+07         0.00000E+00
   -0.16395E+07        -0.22499E+08         0.00000E+00
    0.00000E+00         0.00000E+00        -0.74334E+07
 
   -0.13719E+08        -0.16524E+07         0.00000E+00
   -0.16524E+07        -0.22665E+08         0.00000E+00
    0.00000E+00         0.00000E+00        -0.72767E+07
 
   -0.12767E+08        -0.14638E+07         0.00000E+00
   -0.14638E+07        -0.22833E+08         0.00000E+00
    0.00000E+00         0.00000E+00        -0.71200E+07
 
   -0.11835E+08        -0.10816E+07         0.00000E+00
   -0.10816E+07        -0.22999E+08         0.00000E+00
    0.00000E+00         0.00000E+00        -0.69669E+07
 
   -0.10934E+08        -0.51404E+06         0.00000E+00
   -0.51404E+06        -0.23165E+08         0.00000E+00
    0.00000E+00         0.00000E+00        -0.68199E+07
 
   -0.10074E+08         0.23075E+06         0.00000E+00
    0.23075E+06        -0.23334E+08         0.00000E+00
    0.00000E+00         0.00000E+00        -0.66815E+07
 
   -0.92596E+07         0.11458E+07         0.00000E+00
    0.11458E+07        -0.23507E+08         0.00000E+00
    0.00000E+00         0.00000E+00        -0.65534E+07
 
   -0.84994E+07         0.22246E+07         0.00000E+00
    0.22246E+07        -0.23688E+08         0.00000E+00
    0.00000E+00         0.00000E+00        -0.64375E+07
 
   -0.78032E+07         0.34606E+07         0.00000E+00
    0.34606E+07        -0.23874E+08         0.00000E+00
    0.00000E+00         0.00000E+00        -0.63355E+07
 
   -0.71861E+07         0.48451E+07         0.00000E+00
    0.48451E+07        -0.24060E+08         0.00000E+00
    0.00000E+00         0.00000E+00        -0.62493E+07
 
   -0.66682E+07         0.63659E+07         0.00000E+00
    0.63659E+07        -0.24236E+08         0.00000E+00
    0.00000E+00         0.00000E+00        -0.61808E+07
 
   -0.62750E+07         0.80052E+07         0.00000E+00
    0.80052E+07        -0.24386E+08         0.00000E+00
    0.00000E+00         0.00000E+00        -0.61322E+07
 
   -0.20362E+08        -0.42517E+06         0.00000E+00
   -0.42517E+06        -0.24596E+08         0.00000E+00
    0.00000E+00         0.00000E+00        -0.89916E+07
 
   -0.19441E+08        -0.11135E+07         0.00000E+00
   -0.11135E+07        -0.24684E+08         0.00000E+00
    0.00000E+00         0.00000E+00        -0.88250E+07
 
   -0.18381E+08        -0.15754E+07         0.00000E+00
   -0.15754E+07        -0.24827E+08         0.00000E+00
    0.00000E+00         0.00000E+00        -0.86416E+07
 
   -0.17247E+08        -0.18105E+07         0.00000E+00
   -0.18105E+07        -0.24996E+08         0.00000E+00
    0.00000E+00         0.00000E+00        -0.84487E+07
 
   -0.16089E+08        -0.18267E+07         0.00000E+00
   -0.18267E+07        -0.25173E+08         0.00000E+00
    0.00000E+00         0.00000E+00        -0.82524E+07
 
   -0.14938E+08        -0.16361E+07         0.00000E+00
   -0.16361E+07        -0.25349E+08         0.00000E+00
    0.00000E+00         0.00000E+00        -0.80575E+07
 
   -0.13818E+08        -0.12520E+07         0.00000E+00
   -0.12520E+07        -0.25522E+08         0.00000E+00
    0.00000E+00         0.00000E+00        -0.78680E+07
 
   -0.12738E+08        -0.68623E+06         0.00000E+00
   -0.68623E+06        -0.25696E+08         0.00000E+00
    0.00000E+00         0.00000E+00        -0.76868E+07
 
   -0.11706E+08         0.52183E+05         0.00000E+00
    0.52183E+05        -0.25876E+08         0.00000E+00
    0.00000E+00         0.00000E+00        -0.75163E+07
 
   -0.10726E+08         0.95723E+06         0.00000E+00
    0.95723E+06        -0.26067E+08         0.00000E+00
    0.00000E+00         0.00000E+00        -0.73586E+07
 
   -0.98044E+07         0.20254E+07         0.00000E+00
    0.20254E+07        -0.26273E+08         0.00000E+00
    0.00000E+00         0.00000E+00        -0.72156E+07
 
   -0.89521E+07         0.32542E+07         0.00000E+00
    0.32542E+07        -0.26493E+08         0.00000E+00
    0.00000E+00         0.00000E+00        -0.70890E+07
 
   -0.81862E+07         0.46403E+07         0.00000E+00
    0.46403E+07        -0.26720E+08         0.00000E+00
    0.00000E+00         0.00000E+00        -0.69812E+07
 
   -0.75317E+07         0.61771E+07         0.00000E+00
    0.61771E+07        -0.26940E+08         0.00000E+00
    0.00000E+00         0.00000E+00        -0.68944E+07
 
   -0.70210E+07         0.78518E+07         0.00000E+00
    0.78518E+07        -0.27136E+08         0.00000E+00
    0.00000E+00         0.00000E+00        -0.68314E+07
 
   -0.23711E+08        -0.47888E+06         0.00000E+00
   -0.47888E+06        -0.27101E+08         0.00000E+00
    0.00000E+00         0.00000E+00        -0.10162E+08
 
   -0.22547E+08        -0.12406E+07         0.00000E+00
   -0.12406E+07        -0.27195E+08         0.00000E+00
    0.00000E+00         0.00000E+00        -0.99485E+07
 
   -0.21244E+08        -0.17395E+07         0.00000E+00
   -0.17395E+07        -0.27344E+08         0.00000E+00
    0.00000E+00         0.00000E+00        -0.97176E+07
 
   -0.19877E+08        -0.19868E+07         0.00000E+00
   -0.19868E+07        -0.27514E+08         0.00000E+00
    0.00000E+00         0.00000E+00        -0.94782E+07
 
   -0.18501E+08        -0.20018E+07         0.00000E+00
   -0.20018E+07        -0.27685E+08         0.00000E+00
    0.00000E+00         0.00000E+00        -0.92373E+07
 
   -0.17151E+08        -0.18064E+07         0.00000E+00
   -0.18064E+07        -0.27851E+08         0.00000E+00
    0.00000E+00         0.00000E+00        -0.90004E+07
 
   -0.15845E+08        -0.14205E+07         0.00000E+00
   -0.14205E+07        -0.28013E+08         0.00000E+00
    0.00000E+00         0.00000E+00        -0.87716E+07
 
   -0.14593E+08        -0.85962E+06         0.00000E+00
   -0.85962E+06        -0.28177E+08         0.00000E+00
    0.00000E+00         0.00000E+00        -0.85539E+07
 
   -0.13395E+08        -0.13383E+06         0.00000E+00
   -0.13383E+06        -0.28353E+08         0.00000E+00
    0.00000E+00         0.00000E+00        -0.83496E+07
 
   -0.12252E+08         0.75252E+06         0.00000E+00
    0.75252E+06        -0.28550E+08         0.00000E+00
    0.00000E+00         0.00000E+00        -0.81604E+07
 
   -0.11169E+08         0.17997E+07         0.00000E+00
    0.17997E+07        -0.28773E+08         0.00000E+00
    0.00000E+00         0.00000E+00        -0.79883E+07
 
   -0.10154E+08         0.30111E+07         0.00000E+00
    0.30111E+07        -0.29022E+08         0.00000E+00
    0.00000E+00         0.00000E+00        -0.78352E+07
 
   -0.92262E+07         0.43904E+07         0.00000E+00
    0.43904E+07        -0.29290E+08         0.00000E+00
    0.00000E+00         0.00000E+00        -0.77033E+07
 
   -0.84158E+07         0.59384E+07         0.00000E+00
    0.59384E+07        -0.29562E+08         0.00000E+00
    0.00000E+00         0.00000E+00        -0.75955E+07
 
   -0.77633E+07         0.76491E+07         0.00000E+00
    0.76491E+07        -0.29812E+08         0.00000E+00
    0.00000E+00         0.00000E+00        -0.75151E+07
 
   -0.27205E+08        -0.53583E+06         0.00000E+00
   -0.53583E+06        -0.29653E+08         0.00000E+00
    0.00000E+00         0.00000E+00        -0.11372E+08
 
   -0.25753E+08        -0.13712E+07         0.00000E+00
   -0.13712E+07        -0.29748E+08         0.00000E+00
    0.00000E+00         0.00000E+00        -0.11100E+08
 
   -0.24174E+08        -0.19011E+07         0.00000E+00
   -0.19011E+07        -0.29892E+08         0.00000E+00
    0.00000E+00         0.00000E+00        -0.10813E+08
 
   -0.22555E+08        -0.21522E+07         0.00000E+00
   -0.21522E+07        -0.30047E+08         0.00000E+00
    0.00000E+00         0.00000E+00        -0.10520E+08
 
   -0.20954E+08        -0.21588E+07         0.00000E+00
   -0.21588E+07        -0.30194E+08         0.00000E+00
    0.00000E+00         0.00000E+00        -0.10230E+08
 
   -0.19406E+08        -0.19545E+07         0.00000E+00
   -0.19545E+07        -0.30328E+08         0.00000E+00
    0.00000E+00         0.00000E+00        -0.99467E+07
 
   -0.17923E+08        -0.15671E+07         0.00000E+00
   -0.15671E+07        -0.30456E+08         0.00000E+00
    0.00000E+00         0.00000E+00        -0.96757E+07
 
   -0.16507E+08        -0.10162E+07         0.00000E+00
   -0.10162E+07        -0.30590E+08         0.00000E+00
    0.00000E+00         0.00000E+00        -0.94193E+07
 
   -0.15152E+08        -0.31209E+06         0.00000E+00
   -0.31209E+06        -0.30744E+08         0.00000E+00
    0.00000E+00         0.00000E+00        -0.91793E+07
 
   -0.13853E+08         0.54307E+06         0.00000E+00
    0.54307E+06        -0.30932E+08         0.00000E+00
    0.00000E+00         0.00000E+00        -0.89571E+07
 
   -0.12608E+08         0.15545E+07         0.00000E+00
    0.15545E+07        -0.31162E+08         0.00000E+00
    0.00000E+00         0.00000E+00        -0.87541E+07
 
   -0.11423E+08         0.27328E+07         0.00000E+00
    0.27328E+07        -0.31437E+08         0.00000E+00
    0.00000E+00         0.00000E+00        -0.85720E+07
 
   -0.10318E+08         0.40911E+07         0.00000E+00
    0.40911E+07        -0.31748E+08         0.00000E+00
    0.00000E+00         0.00000E+00        -0.84133E+07
 
   -0.93275E+07         0.56404E+07         0.00000E+00
    0.56404E+07        -0.32078E+08         0.00000E+00
    0.00000E+00         0.00000E+00        -0.82812E+07
 
   -0.85016E+07         0.73842E+07         0.00000E+00
    0.73842E+07        -0.32397E+08         0.00000E+00
    0.00000E+00         0.00000E+00        -0.81797E+07
 
   -0.30847E+08        -0.59392E+06         0.00000E+00
   -0.59392E+06        -0.32251E+08         0.00000E+00
    0.00000E+00         0.00000E+00        -0.12620E+08
 
   -0.29052E+08        -0.14972E+07         0.00000E+00
   -0.14972E+07        -0.32342E+08         0.00000E+00
    0.00000E+00         0.00000E+00        -0.12279E+08
 
   -0.27160E+08        -0.20454E+07         0.00000E+00
   -0.20454E+07        -0.32468E+08         0.00000E+00
    0.00000E+00         0.00000E+00        -0.11926E+08
 
   -0.25269E+08        -0.22863E+07         0.00000E+00
   -0.22863E+07        -0.32588E+08         0.00000E+00
    0.00000E+00         0.00000E+00        -0.11571E+08
 
   -0.23441E+08        -0.22739E+07         0.00000E+00
   -0.22739E+07        -0.32685E+08         0.00000E+00
    0.00000E+00         0.00000E+00        -0.11225E+08
 
   -0.21701E+08        -0.20561E+07         0.00000E+00
   -0.20561E+07        -0.32761E+08         0.00000E+00
    0.00000E+00         0.00000E+00        -0.10892E+08
 
   -0.20054E+08        -0.16691E+07         0.00000E+00
   -0.16691E+07        -0.32830E+08         0.00000E+00
    0.00000E+00         0.00000E+00        -0.10577E+08
 
   -0.18489E+08        -0.11355E+07         0.00000E+00
   -0.11355E+07        -0.32911E+08         0.00000E+00
    0.00000E+00         0.00000E+00        -0.10280E+08
 
   -0.16991E+08        -0.46554E+06         0.00000E+00
   -0.46554E+06        -0.33025E+08         0.00000E+00
    0.00000E+00         0.00000E+00        -0.10003E+08
 
   -0.15545E+08         0.34179E+06         0.00000E+00
    0.34179E+06        -0.33188E+08         0.00000E+00
    0.00000E+00         0.00000E+00        -0.97466E+07
 
   -0.14140E+08         0.12974E+07         0.00000E+00
    0.12974E+07        -0.33414E+08         0.00000E+00
    0.00000E+00         0.00000E+00        -0.95109E+07
 
   -0.12779E+08         0.24208E+07         0.00000E+00
    0.24208E+07        -0.33709E+08         0.00000E+00
    0.00000E+00         0.00000E+00        -0.92976E+07
 
   -0.11478E+08         0.37369E+07         0.00000E+00
    0.37369E+07        -0.34066E+08         0.00000E+00
    0.00000E+00         0.00000E+00        -0.91088E+07
 
   -0.10277E+08         0.52709E+07         0.00000E+00
    0.52709E+07        -0.34465E+08         0.00000E+00
    0.00000E+00         0.00000E+00        -0.89483E+07
 
   -0.92366E+07         0.70401E+07         0.00000E+00
    0.70401E+07        -0.34868E+08         0.00000E+00
    0.00000E+00         0.00000E+00        -0.88210E+07
 
   -0.34631E+08        -0.65081E+06         0.00000E+00
   -0.65081E+06        -0.34894E+08         0.00000E+00
    0.00000E+00         0.00000E+00        -0.13905E+08
 
   -0.32428E+08        -0.16082E+07         0.00000E+00
   -0.16082E+07        -0.34973E+08         0.00000E+00
    0.00000E+00         0.00000E+00        -0.13480E+08
 
   -0.30182E+08        -0.21524E+07         0.00000E+00
   -0.21524E+07        -0.35064E+08         0.00000E+00
    0.00000E+00         0.00000E+00        -0.13049E+08
 
   -0.28005E+08        -0.23624E+07         0.00000E+00
   -0.23624E+07        -0.35121E+08         0.00000E+00
    0.00000E+00         0.00000E+00        -0.12625E+08
 
   -0.25952E+08        -0.23180E+07         0.00000E+00
   -0.23180E+07        -0.35136E+08         0.00000E+00
    0.00000E+00         0.00000E+00        -0.12218E+08
 
   -0.24036E+08        -0.20832E+07         0.00000E+00
   -0.20832E+07        -0.35123E+08         0.00000E+00
    0.00000E+00         0.00000E+00        -0.11832E+08
 
   -0.22244E+08        -0.17012E+07         0.00000E+00
   -0.17012E+07        -0.35106E+08         0.00000E+00
    0.00000E+00         0.00000E+00        -0.11470E+08
 
   -0.20550E+08        -0.11960E+07         0.00000E+00
   -0.11960E+07        -0.35112E+08         0.00000E+00
    0.00000E+00         0.00000E+00        -0.11132E+08
 
   -0.18927E+08        -0.57624E+06         0.00000E+00
   -0.57624E+06        -0.35165E+08         0.00000E+00
    0.00000E+00         0.00000E+00        -0.10818E+08
 
   -0.17346E+08         0.16263E+06         0.00000E+00
    0.16263E+06        -0.35287E+08         0.00000E+00
    0.00000E+00         0.00000E+00        -0.10527E+08
 
   -0.15789E+08         0.10373E+07         0.00000E+00
    0.10373E+07        -0.35498E+08         0.00000E+00
    0.00000E+00         0.00000E+00        -0.10257E+08
 
   -0.14246E+08         0.20767E+07         0.00000E+00
    0.20767E+07        -0.35807E+08         0.00000E+00
    0.00000E+00         0.00000E+00        -0.10010E+08
 
   -0.12728E+08         0.33206E+07         0.00000E+00
    0.33206E+07        -0.36212E+08         0.00000E+00
    0.00000E+00         0.00000E+00        -0.97881E+07
 
   -0.11278E+08         0.48138E+07         0.00000E+00
    0.48138E+07        -0.36693E+08         0.00000E+00
    0.00000E+00         0.00000E+00        -0.95942E+07
 
   -0.99707E+07         0.65941E+07         0.00000E+00
    0.65941E+07        -0.37204E+08         0.00000E+00
    0.00000E+00         0.00000E+00        -0.94348E+07
 
   -0.38543E+08        -0.70365E+06         0.00000E+00
   -0.70365E+06        -0.37578E+08         0.00000E+00
    0.00000E+00         0.00000E+00        -0.15224E+08
 
   -0.35852E+08        -0.16888E+07         0.00000E+00
   -0.16888E+07        -0.37635E+08         0.00000E+00
    0.00000E+00         0.00000E+00        -0.14697E+08
 
   -0.33209E+08        -0.21937E+07         0.00000E+00
   -0.21937E+07        -0.37662E+08         0.00000E+00
    0.00000E+00         0.00000E+00        -0.14174E+08
 
   -0.30738E+08        -0.23451E+07         0.00000E+00
   -0.23451E+07        -0.37618E+08         0.00000E+00
    0.00000E+00         0.00000E+00        -0.13671E+08
 
   -0.28476E+08        -0.22563E+07         0.00000E+00
   -0.22563E+07        -0.37513E+08         0.00000E+00
    0.00000E+00         0.00000E+00        -0.13198E+08
 
   -0.26409E+08        -0.20058E+07         0.00000E+00
   -0.20058E+07        -0.37377E+08         0.00000E+00
    0.00000E+00         0.00000E+00        -0.12757E+08
 
   -0.24499E+08        -0.16389E+07         0.00000E+00
   -0.16389E+07        -0.37248E+08         0.00000E+00
    0.00000E+00         0.00000E+00        -0.12349E+08
 
   -0.22702E+08        -0.11775E+07         0.00000E+00
   -0.11775E+07        -0.37157E+08         0.00000E+00
    0.00000E+00         0.00000E+00        -0.11972E+08
 
   -0.20975E+08        -0.62727E+06         0.00000E+00
   -0.62727E+06        -0.37132E+08         0.00000E+00
    0.00000E+00         0.00000E+00        -0.11621E+08
 
   -0.19279E+08         0.19686E+05         0.00000E+00
    0.19686E+05        -0.37200E+08         0.00000E+00
    0.00000E+00         0.00000E+00        -0.11296E+08
 
   -0.17580E+08         0.78440E+06         0.00000E+00
    0.78440E+06        -0.37382E+08         0.00000E+00
    0.00000E+00         0.00000E+00        -0.10992E+08
 
   -0.15854E+08         0.17041E+07         0.00000E+00
    0.17041E+07        -0.37697E+08         0.00000E+00
    0.00000E+00         0.00000E+00        -0.10710E+08
 
   -0.14100E+08         0.28347E+07         0.00000E+00
    0.28347E+07        -0.38152E+08         0.00000E+00
    0.00000E+00         0.00000E+00        -0.10450E+08
 
   -0.12355E+08         0.42483E+07         0.00000E+00
    0.42483E+07        -0.38730E+08         0.00000E+00
    0.00000E+00         0.00000E+00        -0.10217E+08
 
   -0.10709E+08         0.60155E+07         0.00000E+00
    0.60155E+07        -0.39377E+08         0.00000E+00
    0.00000E+00         0.00000E+00        -0.10017E+08
 
   -0.42557E+08        -0.74818E+06         0.00000E+00
   -0.74818E+06        -0.40297E+08         0.00000E+00
    0.00000E+00         0.00000E+00        -0.16571E+08
 
   -0.39274E+08        -0.17132E+07         0.00000E+00
   -0.17132E+07        -0.40310E+08         0.00000E+00
    0.00000E+00         0.00000E+00        -0.15917E+08
 
   -0.36197E+08        -0.21249E+07         0.00000E+00
   -0.21249E+07        -0.40227E+08         0.00000E+00
    0.00000E+00         0.00000E+00        -0.15285E+08
 
   -0.33445E+08        -0.21877E+07         0.00000E+00
   -0.21877E+07        -0.40028E+08         0.00000E+00
    0.00000E+00         0.00000E+00        -0.14695E+08
 
   -0.31009E+08        -0.20507E+07         0.00000E+00
   -0.20507E+07        -0.39756E+08         0.00000E+00
    0.00000E+00         0.00000E+00        -0.14153E+08
 
   -0.28827E+08        -0.17960E+07         0.00000E+00
   -0.17960E+07        -0.39468E+08         0.00000E+00
    0.00000E+00         0.00000E+00        -0.13659E+08
 
   -0.26831E+08        -0.14623E+07         0.00000E+00
   -0.14623E+07        -0.39207E+08         0.00000E+00
    0.00000E+00         0.00000E+00        -0.13208E+08
 
   -0.24958E+08        -0.10651E+07         0.00000E+00
   -0.10651E+07        -0.39007E+08         0.00000E+00
    0.00000E+00         0.00000E+00        -0.12793E+08
 
   -0.23152E+08        -0.60576E+06         0.00000E+00
   -0.60576E+06        -0.38895E+08         0.00000E+00
    0.00000E+00         0.00000E+00        -0.12409E+08
 
   -0.21363E+08        -0.74529E+05         0.00000E+00
   -0.74529E+05        -0.38898E+08         0.00000E+00
    0.00000E+00         0.00000E+00        -0.12052E+08
 
   -0.19541E+08         0.55076E+06         0.00000E+00
    0.55076E+06        -0.39040E+08         0.00000E+00
    0.00000E+00         0.00000E+00        -0.11716E+08
 
   -0.17642E+08         0.13103E+07         0.00000E+00
    0.13103E+07        -0.39349E+08         0.00000E+00
    0.00000E+00         0.00000E+00        -0.11398E+08
 
   -0.15638E+08         0.22740E+07         0.00000E+00
    0.22740E+07        -0.39847E+08         0.00000E+00
    0.00000E+00         0.00000E+00        -0.11097E+08
 
   -0.13545E+08         0.35490E+07         0.00000E+00
    0.35490E+07        -0.40536E+08         0.00000E+00
    0.00000E+00         0.00000E+00        -0.10816E+08
 
   -0.11465E+08         0.52616E+07         0.00000E+00
    0.52616E+07        -0.41361E+08         0.00000E+00
    0.00000E+00         0.00000E+00        -0.10565E+08
 
   -0.46624E+08        -0.77517E+06         0.00000E+00
   -0.77517E+06        -0.43040E+08         0.00000E+00
    0.00000E+00         0.00000E+00        -0.17933E+08
 
   -0.42614E+08        -0.16290E+07         0.00000E+00
   -0.16290E+07        -0.42963E+08         0.00000E+00
    0.00000E+00         0.00000E+00        -0.17116E+08
 
   -0.39095E+08        -0.18744E+07         0.00000E+00
   -0.18744E+07        -0.42684E+08         0.00000E+00
    0.00000E+00         0.00000E+00        -0.16356E+08
 
   -0.36115E+08        -0.18340E+07         0.00000E+00
   -0.18340E+07        -0.42255E+08         0.00000E+00
    0.00000E+00         0.00000E+00        -0.15674E+08
 
   -0.33559E+08        -0.16681E+07         0.00000E+00
   -0.16681E+07        -0.41780E+08         0.00000E+00
    0.00000E+00         0.00000E+00        -0.15068E+08
 
   -0.31304E+08        -0.14368E+07         0.00000E+00
   -0.14368E+07        -0.41324E+08         0.00000E+00
    0.00000E+00         0.00000E+00        -0.14526E+08
 
   -0.29255E+08        -0.11632E+07         0.00000E+00
   -0.11632E+07        -0.40928E+08         0.00000E+00
    0.00000E+00         0.00000E+00        -0.14036E+08
 
   -0.27333E+08        -0.85394E+06         0.00000E+00
   -0.85394E+06        -0.40619E+08         0.00000E+00
    0.00000E+00         0.00000E+00        -0.13591E+08
 
   -0.25474E+08        -0.50685E+06         0.00000E+00
   -0.50685E+06        -0.40422E+08         0.00000E+00
    0.00000E+00         0.00000E+00        -0.13179E+08
 
   -0.23616E+08        -0.11229E+06         0.00000E+00
   -0.11229E+06        -0.40358E+08         0.00000E+00
    0.00000E+00         0.00000E+00        -0.12795E+08
 
   -0.21698E+08         0.34876E+06         0.00000E+00
    0.34876E+06        -0.40454E+08         0.00000E+00
    0.00000E+00         0.00000E+00        -0.12430E+08
 
   -0.19652E+08         0.91141E+06         0.00000E+00
    0.91141E+06        -0.40741E+08         0.00000E+00
    0.00000E+00         0.00000E+00        -0.12078E+08
 
   -0.17404E+08         0.16435E+07         0.00000E+00
    0.16435E+07        -0.41262E+08         0.00000E+00
    0.00000E+00         0.00000E+00        -0.11733E+08
 
   -0.14913E+08         0.26881E+07         0.00000E+00
    0.26881E+07        -0.42068E+08         0.00000E+00
    0.00000E+00         0.00000E+00        -0.11396E+08
 
   -0.12264E+08         0.42694E+07         0.00000E+00
    0.42694E+07        -0.43120E+08         0.00000E+00
    0.00000E+00         0.00000E+00        -0.11077E+08
 
   -0.50637E+08        -0.75269E+06         0.00000E+00
   -0.75269E+06        -0.45780E+08         0.00000E+00
    0.00000E+00         0.00000E+00        -0.19283E+08
 
   -0.45751E+08        -0.13115E+07         0.00000E+00
   -0.13115E+07        -0.45474E+08         0.00000E+00
    0.00000E+00         0.00000E+00        -0.18245E+08
 
   -0.41874E+08        -0.13424E+07         0.00000E+00
   -0.13424E+07        -0.44851E+08         0.00000E+00
    0.00000E+00         0.00000E+00        -0.17345E+08
 
   -0.38769E+08        -0.12441E+07         0.00000E+00
   -0.12441E+07        -0.44147E+08         0.00000E+00
    0.00000E+00         0.00000E+00        -0.16583E+08
 
   -0.36154E+08        -0.11003E+07         0.00000E+00
   -0.11003E+07        -0.43469E+08         0.00000E+00
    0.00000E+00         0.00000E+00        -0.15925E+08
 
   -0.33865E+08        -0.93389E+06         0.00000E+00
   -0.93389E+06        -0.42862E+08         0.00000E+00
    0.00000E+00         0.00000E+00        -0.15345E+08
 
   -0.31790E+08        -0.75175E+06         0.00000E+00
   -0.75175E+06        -0.42352E+08         0.00000E+00
    0.00000E+00         0.00000E+00        -0.14828E+08
 
   -0.29842E+08        -0.55412E+06         0.00000E+00
   -0.55412E+06        -0.41955E+08         0.00000E+00
    0.00000E+00         0.00000E+00        -0.14360E+08
 
   -0.27952E+08        -0.33756E+06         0.00000E+00
   -0.33756E+06        -0.41689E+08         0.00000E+00
    0.00000E+00         0.00000E+00        -0.13928E+08
 
   -0.26050E+08        -0.95011E+05         0.00000E+00
   -0.95011E+05        -0.41569E+08         0.00000E+00
    0.00000E+00         0.00000E+00        -0.13524E+08
 
   -0.24067E+08         0.18596E+06         0.00000E+00
    0.18596E+06        -0.41620E+08         0.00000E+00
    0.00000E+00         0.00000E+00        -0.13137E+08
 
   -0.21916E+08         0.52823E+06         0.00000E+00
    0.52823E+06        -0.41876E+08         0.00000E+00
    0.00000E+00         0.00000E+00        -0.12758E+08
 
   -0.19481E+08         0.97827E+06         0.00000E+00
    0.97827E+06        -0.42390E+08         0.00000E+00
    0.00000E+00         0.00000E+00        -0.12374E+08
 
   -0.16581E+08         0.16527E+07         0.00000E+00
    0.16527E+07        -0.43259E+08         0.00000E+00
    0.00000E+00         0.00000E+00        -0.11968E+08
 
   -0.13172E+08         0.29341E+07         0.00000E+00
    0.29341E+07        -0.44613E+08         0.00000E+00
    0.00000E+00         0.00000E+00        -0.11557E+08
 
   -0.54322E+08        -0.47216E+06         0.00000E+00
   -0.47216E+06        -0.48260E+08         0.00000E+00
    0.00000E+00         0.00000E+00        -0.20516E+08
 
   -0.48595E+08        -0.54165E+06         0.00000E+00
   -0.54165E+06        -0.47393E+08         0.00000E+00
    0.00000E+00         0.00000E+00        -0.19198E+08
 
   -0.44611E+08        -0.49632E+06         0.00000E+00
   -0.49632E+06        -0.46422E+08         0.00000E+00
    0.00000E+00         0.00000E+00        -0.18207E+08
 
   -0.41466E+08        -0.44369E+06         0.00000E+00
   -0.44369E+06        -0.45514E+08         0.00000E+00
    0.00000E+00         0.00000E+00        -0.17396E+08
 
   -0.38835E+08        -0.38562E+06         0.00000E+00
   -0.38562E+06        -0.44703E+08         0.00000E+00
    0.00000E+00         0.00000E+00        -0.16708E+08
 
   -0.36537E+08        -0.32448E+06         0.00000E+00
   -0.32448E+06        -0.44005E+08         0.00000E+00
    0.00000E+00         0.00000E+00        -0.16108E+08
 
   -0.34452E+08        -0.26028E+06         0.00000E+00
   -0.26028E+06        -0.43429E+08         0.00000E+00
    0.00000E+00         0.00000E+00        -0.15576E+08
 
   -0.32494E+08        -0.19216E+06         0.00000E+00
   -0.19216E+06        -0.42983E+08         0.00000E+00
    0.00000E+00         0.00000E+00        -0.15095E+08
 
   -0.30589E+08        -0.11852E+06         0.00000E+00
   -0.11852E+06        -0.42677E+08         0.00000E+00
    0.00000E+00         0.00000E+00        -0.14653E+08
 
   -0.28667E+08        -0.36753E+05         0.00000E+00
   -0.36753E+05        -0.42525E+08         0.00000E+00
    0.00000E+00         0.00000E+00        -0.14238E+08
 
   -0.26652E+08         0.57401E+05         0.00000E+00
    0.57401E+05        -0.42548E+08         0.00000E+00
    0.00000E+00         0.00000E+00        -0.13840E+08
 
   -0.24448E+08         0.17156E+06         0.00000E+00
    0.17156E+06        -0.42780E+08         0.00000E+00
    0.00000E+00         0.00000E+00        -0.13445E+08
 
   -0.21911E+08         0.32206E+06         0.00000E+00
    0.32206E+06        -0.43274E+08         0.00000E+00
    0.00000E+00         0.00000E+00        -0.13037E+08
 
   -0.18789E+08         0.54578E+06         0.00000E+00
    0.54578E+06        -0.44142E+08         0.00000E+00
    0.00000E+00         0.00000E+00        -0.12586E+08
 
   -0.14356E+08         0.10819E+07         0.00000E+00
    0.10819E+07        -0.45689E+08         0.00000E+00
    0.00000E+00         0.00000E+00        -0.12009E+08
 
TENSORS stresstot double 
   -0.43580E+08         0.53721E+05         0.00000E+00
    0.53721E+05        -0.59162E+08         0.00000E+00
    0.00000E+00         0.00000E+00        -0.62468E+08
 
   -0.44549E+08        -0.21331E+06         0.00000E+00
   -0.21331E+06        -0.59559E+08         0.00000E+00
    0.00000E+00         0.00000E+00        -0.65737E+08
 
   -0.46618E+08        -0.43941E+06         0.00000E+00
   -0.43941E+06        -0.60366E+08         0.00000E+00
    0.00000E+00         0.00000E+00        -0.69466E+08
 
   -0.48987E+08        -0.46592E+06         0.00000E+00
   -0.46592E+06        -0.61406E+08         0.00000E+00
    0.00000E+00         0.00000E+00        -0.73205E+08
 
   -0.51769E+08        -0.69464E+06         0.00000E+00
   -0.69464E+06        -0.62551E+08         0.00000E+00
    0.00000E+00         0.00000E+00        -0.75890E+08
 
   -0.55102E+08        -0.60410E+06         0.00000E+00
   -0.60410E+06        -0.63755E+08         0.00000E+00
    0.00000E+00         0.00000E+00        -0.76812E+08
 
   -0.57571E+08        -0.45554E+06         0.00000E+00
   -0.45554E+06        -0.64755E+08         0.00000E+00
    0.00000E+00         0.00000E+00        -0.77505E+08
 
   -0.59729E+08        -0.33450E+06         0.00000E+00
   -0.33450E+06        -0.65517E+08         0.00000E+00
    0.00000E+00         0.00000E+00        -0.78089E+08
 
   -0.61756E+08        -0.22408E+06         0.00000E+00
   -0.22408E+06        -0.66059E+08         0.00000E+00
    0.00000E+00         0.00000E+00        -0.78603E+08
 
   -0.63768E+08        -0.11491E+06         0.00000E+00
   -0.11491E+06        -0.66388E+08         0.00000E+00
    0.00000E+00         0.00000E+00        -0.79071E+08
 
   -0.65864E+08         0.17040E+04         0.00000E+00
    0.17040E+04        -0.66495E+08         0.00000E+00
    0.00000E+00         0.00000E+00        -0.79512E+08
 
   -0.68160E+08         0.13662E+06         0.00000E+00
    0.13662E+06        -0.66352E+08         0.00000E+00
    0.00000E+00         0.00000E+00        -0.79942E+08
 
   -0.70822E+08         0.30985E+06         0.00000E+00
    0.30985E+06        -0.65903E+08         0.00000E+00
    0.00000E+00         0.00000E+00        -0.80385E+08
 
   -0.74140E+08         0.56455E+06         0.00000E+00
    0.56455E+06        -0.65028E+08         0.00000E+00
    0.00000E+00         0.00000E+00        -0.80873E+08
 
   -0.78942E+08         0.11759E+07         0.00000E+00
    0.11759E+07        -0.63379E+08         0.00000E+00
    0.00000E+00         0.00000E+00        -0.81504E+08
 
   -0.43661E+08         0.96116E+05         0.00000E+00
    0.96116E+05        -0.60640E+08         0.00000E+00
    0.00000E+00         0.00000E+00        -0.66478E+08
 
   -0.45019E+08        -0.40850E+06         0.00000E+00
   -0.40850E+06        -0.60663E+08         0.00000E+00
    0.00000E+00         0.00000E+00        -0.68999E+08
 
   -0.46746E+08        -0.97721E+06         0.00000E+00
   -0.97721E+06        -0.60746E+08         0.00000E+00
    0.00000E+00         0.00000E+00        -0.71751E+08
 
   -0.49240E+08        -0.13332E+07         0.00000E+00
   -0.13332E+07        -0.61100E+08         0.00000E+00
    0.00000E+00         0.00000E+00        -0.73196E+08
 
   -0.52038E+08        -0.16422E+07         0.00000E+00
   -0.16422E+07        -0.61723E+08         0.00000E+00
    0.00000E+00         0.00000E+00        -0.73880E+08
 
   -0.54869E+08        -0.15392E+07         0.00000E+00
   -0.15392E+07        -0.62397E+08         0.00000E+00
    0.00000E+00         0.00000E+00        -0.74581E+08
 
   -0.57347E+08        -0.12386E+07         0.00000E+00
   -0.12386E+07        -0.63081E+08         0.00000E+00
    0.00000E+00         0.00000E+00        -0.75213E+08
 
   -0.59517E+08        -0.92994E+06         0.00000E+00
   -0.92994E+06        -0.63665E+08         0.00000E+00
    0.00000E+00         0.00000E+00        -0.75763E+08
 
   -0.61548E+08        -0.62536E+06         0.00000E+00
   -0.62536E+06        -0.64097E+08         0.00000E+00
    0.00000E+00         0.00000E+00        -0.76256E+08
 
   -0.63549E+08        -0.31175E+06         0.00000E+00
   -0.31175E+06        -0.64351E+08         0.00000E+00
    0.00000E+00         0.00000E+00        -0.76706E+08
 
   -0.65618E+08         0.30527E+05         0.00000E+00
    0.30527E+05        -0.64403E+08         0.00000E+00
    0.00000E+00         0.00000E+00        -0.77131E+08
 
   -0.67861E+08         0.43159E+06         0.00000E+00
    0.43159E+06        -0.64217E+08         0.00000E+00
    0.00000E+00         0.00000E+00        -0.77542E+08
 
   -0.70412E+08         0.94742E+06         0.00000E+00
    0.94742E+06        -0.63736E+08         0.00000E+00
    0.00000E+00         0.00000E+00        -0.77956E+08
 
   -0.73478E+08         0.17137E+07         0.00000E+00
    0.17137E+07        -0.62854E+08         0.00000E+00
    0.00000E+00         0.00000E+00        -0.78392E+08
 
   -0.77109E+08         0.31711E+07         0.00000E+00
    0.31711E+07        -0.61423E+08         0.00000E+00
    0.00000E+00         0.00000E+00        -0.78832E+08
 
   -0.43793E+08        -0.22009E+06         0.00000E+00
   -0.22009E+06        -0.60350E+08         0.00000E+00
    0.00000E+00         0.00000E+00        -0.69146E+08
 
   -0.45566E+08        -0.62574E+06         0.00000E+00
   -0.62574E+06        -0.60500E+08         0.00000E+00
    0.00000E+00         0.00000E+00        -0.70447E+08
 
   -0.47452E+08        -0.12295E+07         0.00000E+00
   -0.12295E+07        -0.60683E+08         0.00000E+00
    0.00000E+00         0.00000E+00        -0.70861E+08
 
   -0.49620E+08        -0.18290E+07         0.00000E+00
   -0.18290E+07        -0.60953E+08         0.00000E+00
    0.00000E+00         0.00000E+00        -0.71348E+08
 
   -0.52147E+08        -0.20787E+07         0.00000E+00
   -0.20787E+07        -0.61272E+08         0.00000E+00
    0.00000E+00         0.00000E+00        -0.71916E+08
 
   -0.54658E+08        -0.20279E+07         0.00000E+00
   -0.20279E+07        -0.61582E+08         0.00000E+00
    0.00000E+00         0.00000E+00        -0.72480E+08
 
   -0.57008E+08        -0.17413E+07         0.00000E+00
   -0.17413E+07        -0.61931E+08         0.00000E+00
    0.00000E+00         0.00000E+00        -0.73020E+08
 
   -0.59152E+08        -0.13472E+07         0.00000E+00
   -0.13472E+07        -0.62274E+08         0.00000E+00
    0.00000E+00         0.00000E+00        -0.73517E+08
 
   -0.61162E+08        -0.90623E+06         0.00000E+00
   -0.90623E+06        -0.62537E+08         0.00000E+00
    0.00000E+00         0.00000E+00        -0.73971E+08
 
   -0.63130E+08        -0.42246E+06         0.00000E+00
   -0.42246E+06        -0.62670E+08         0.00000E+00
    0.00000E+00         0.00000E+00        -0.74391E+08
 
   -0.65139E+08         0.12365E+06         0.00000E+00
    0.12365E+06        -0.62634E+08         0.00000E+00
    0.00000E+00         0.00000E+00        -0.74785E+08
 
   -0.67273E+08         0.77339E+06         0.00000E+00
    0.77339E+06        -0.62388E+08         0.00000E+00
    0.00000E+00         0.00000E+00        -0.75163E+08
 
   -0.69618E+08         0.16062E+07         0.00000E+00
    0.16062E+07        -0.61882E+08         0.00000E+00
    0.00000E+00         0.00000E+00        -0.75530E+08
 
   -0.72223E+08         0.27874E+07         0.00000E+00
    0.27874E+07        -0.61061E+08         0.00000E+00
    0.00000E+00         0.00000E+00        -0.75887E+08
 
   -0.74987E+08         0.45761E+07         0.00000E+00
    0.45761E+07        -0.59971E+08         0.00000E+00
    0.00000E+00         0.00000E+00        -0.76222E+08
 
   -0.44281E+08        -0.33436E+06         0.00000E+00
   -0.33436E+06        -0.60043E+08         0.00000E+00
    0.00000E+00         0.00000E+00        -0.68233E+08
 
   -0.46163E+08        -0.97014E+06         0.00000E+00
   -0.97014E+06        -0.60205E+08         0.00000E+00
    0.00000E+00         0.00000E+00        -0.68642E+08
 
   -0.48041E+08        -0.15246E+07         0.00000E+00
   -0.15246E+07        -0.60498E+08         0.00000E+00
    0.00000E+00         0.00000E+00        -0.69075E+08
 
   -0.50045E+08        -0.20204E+07         0.00000E+00
   -0.20204E+07        -0.60700E+08         0.00000E+00
    0.00000E+00         0.00000E+00        -0.69516E+08
 
   -0.52245E+08        -0.22767E+07         0.00000E+00
   -0.22767E+07        -0.60822E+08         0.00000E+00
    0.00000E+00         0.00000E+00        -0.69980E+08
 
   -0.54491E+08        -0.22453E+07         0.00000E+00
   -0.22453E+07        -0.60947E+08         0.00000E+00
    0.00000E+00         0.00000E+00        -0.70454E+08
 
   -0.56657E+08        -0.19844E+07         0.00000E+00
   -0.19844E+07        -0.61084E+08         0.00000E+00
    0.00000E+00         0.00000E+00        -0.70914E+08
 
   -0.58701E+08        -0.15641E+07         0.00000E+00
   -0.15641E+07        -0.61221E+08         0.00000E+00
    0.00000E+00         0.00000E+00        -0.71350E+08
 
   -0.60645E+08        -0.10381E+07         0.00000E+00
   -0.10381E+07        -0.61317E+08         0.00000E+00
    0.00000E+00         0.00000E+00        -0.71758E+08
 
   -0.62542E+08        -0.42356E+06         0.00000E+00
   -0.42356E+06        -0.61322E+08         0.00000E+00
    0.00000E+00         0.00000E+00        -0.72138E+08
 
   -0.64451E+08         0.29349E+06         0.00000E+00
    0.29349E+06        -0.61194E+08         0.00000E+00
    0.00000E+00         0.00000E+00        -0.72494E+08
 
   -0.66428E+08         0.11550E+07         0.00000E+00
    0.11550E+07        -0.60896E+08         0.00000E+00
    0.00000E+00         0.00000E+00        -0.72829E+08
 
   -0.68505E+08         0.22399E+07         0.00000E+00
    0.22399E+07        -0.60397E+08         0.00000E+00
    0.00000E+00         0.00000E+00        -0.73145E+08
 
   -0.70664E+08         0.36705E+07         0.00000E+00
    0.36705E+07        -0.59698E+08         0.00000E+00
    0.00000E+00         0.00000E+00        -0.73436E+08
 
   -0.72783E+08         0.55922E+07         0.00000E+00
    0.55922E+07        -0.58861E+08         0.00000E+00
    0.00000E+00         0.00000E+00        -0.73693E+08
 
   -0.45018E+08        -0.42928E+06         0.00000E+00
   -0.42928E+06        -0.60033E+08         0.00000E+00
    0.00000E+00         0.00000E+00        -0.66551E+08
 
   -0.46787E+08        -0.11517E+07         0.00000E+00
   -0.11517E+07        -0.60141E+08         0.00000E+00
    0.00000E+00         0.00000E+00        -0.66926E+08
 
   -0.48551E+08        -0.17199E+07         0.00000E+00
   -0.17199E+07        -0.60266E+08         0.00000E+00
    0.00000E+00         0.00000E+00        -0.67304E+08
 
   -0.50399E+08        -0.21291E+07         0.00000E+00
   -0.21291E+07        -0.60367E+08         0.00000E+00
    0.00000E+00         0.00000E+00        -0.67693E+08
 
   -0.52346E+08        -0.23370E+07         0.00000E+00
   -0.23370E+07        -0.60409E+08         0.00000E+00
    0.00000E+00         0.00000E+00        -0.68091E+08
 
   -0.54340E+08        -0.23055E+07         0.00000E+00
   -0.23055E+07        -0.60419E+08         0.00000E+00
    0.00000E+00         0.00000E+00        -0.68491E+08
 
   -0.56307E+08        -0.20506E+07         0.00000E+00
   -0.20506E+07        -0.60422E+08         0.00000E+00
    0.00000E+00         0.00000E+00        -0.68885E+08
 
   -0.58206E+08        -0.16143E+07         0.00000E+00
   -0.16143E+07        -0.60416E+08         0.00000E+00
    0.00000E+00         0.00000E+00        -0.69263E+08
 
   -0.60036E+08        -0.10325E+07         0.00000E+00
   -0.10325E+07        -0.60378E+08         0.00000E+00
    0.00000E+00         0.00000E+00        -0.69621E+08
 
   -0.61821E+08        -0.32105E+06         0.00000E+00
   -0.32105E+06        -0.60275E+08         0.00000E+00
    0.00000E+00         0.00000E+00        -0.69957E+08
 
   -0.63594E+08         0.52908E+06         0.00000E+00
    0.52908E+06        -0.60073E+08         0.00000E+00
    0.00000E+00         0.00000E+00        -0.70270E+08
 
   -0.65380E+08         0.15525E+07         0.00000E+00
    0.15525E+07        -0.59744E+08         0.00000E+00
    0.00000E+00         0.00000E+00        -0.70562E+08
 
   -0.67181E+08         0.28093E+07         0.00000E+00
    0.28093E+07        -0.59279E+08         0.00000E+00
    0.00000E+00         0.00000E+00        -0.70829E+08
 
   -0.68953E+08         0.43793E+07         0.00000E+00
    0.43793E+07        -0.58693E+08         0.00000E+00
    0.00000E+00         0.00000E+00        -0.71066E+08
 
   -0.70587E+08         0.63417E+07         0.00000E+00
    0.63417E+07        -0.58050E+08         0.00000E+00
    0.00000E+00         0.00000E+00        -0.71264E+08
 
   -0.45871E+08        -0.47778E+06         0.00000E+00
   -0.47778E+06        -0.60011E+08         0.00000E+00
    0.00000E+00         0.00000E+00        -0.64936E+08
 
   -0.47434E+08        -0.12370E+07         0.00000E+00
   -0.12370E+07        -0.60046E+08         0.00000E+00
    0.00000E+00         0.00000E+00        -0.65256E+08
 
   -0.49028E+08        -0.17913E+07         0.00000E+00
   -0.17913E+07        -0.60083E+08         0.00000E+00
    0.00000E+00         0.00000E+00        -0.65582E+08
 
   -0.50689E+08        -0.21565E+07         0.00000E+00
   -0.21565E+07        -0.60091E+08         0.00000E+00
    0.00000E+00         0.00000E+00        -0.65915E+08
 
   -0.52418E+08        -0.23187E+07         0.00000E+00
   -0.23187E+07        -0.60059E+08         0.00000E+00
    0.00000E+00         0.00000E+00        -0.66254E+08
 
   -0.54186E+08        -0.22652E+07         0.00000E+00
   -0.22652E+07        -0.59995E+08         0.00000E+00
    0.00000E+00         0.00000E+00        -0.66594E+08
 
   -0.55950E+08        -0.20007E+07         0.00000E+00
   -0.20007E+07        -0.59910E+08         0.00000E+00
    0.00000E+00         0.00000E+00        -0.66930E+08
 
   -0.57679E+08        -0.15455E+07         0.00000E+00
   -0.15455E+07        -0.59808E+08         0.00000E+00
    0.00000E+00         0.00000E+00        -0.67255E+08
 
   -0.59360E+08        -0.92129E+06         0.00000E+00
   -0.92129E+06        -0.59677E+08         0.00000E+00
    0.00000E+00         0.00000E+00        -0.67564E+08
 
   -0.61000E+08        -0.13875E+06         0.00000E+00
   -0.13875E+06        -0.59497E+08         0.00000E+00
    0.00000E+00         0.00000E+00        -0.67856E+08
 
   -0.62609E+08         0.80821E+06         0.00000E+00
    0.80821E+06        -0.59246E+08         0.00000E+00
    0.00000E+00         0.00000E+00        -0.68127E+08
 
   -0.64191E+08         0.19436E+07         0.00000E+00
    0.19436E+07        -0.58908E+08         0.00000E+00
    0.00000E+00         0.00000E+00        -0.68376E+08
 
   -0.65730E+08         0.33071E+07         0.00000E+00
    0.33071E+07        -0.58485E+08         0.00000E+00
    0.00000E+00         0.00000E+00        -0.68599E+08
 
   -0.67176E+08         0.49455E+07         0.00000E+00
    0.49455E+07        -0.57999E+08         0.00000E+00
    0.00000E+00         0.00000E+00        -0.68791E+08
 
   -0.68439E+08         0.68985E+07         0.00000E+00
    0.68985E+07        -0.57504E+08         0.00000E+00
    0.00000E+00         0.00000E+00        -0.68944E+08
 
   -0.46765E+08        -0.48352E+06         0.00000E+00
   -0.48352E+06        -0.59995E+08         0.00000E+00
    0.00000E+00         0.00000E+00        -0.63382E+08
 
   -0.48081E+08        -0.12455E+07         0.00000E+00
   -0.12455E+07        -0.59980E+08         0.00000E+00
    0.00000E+00         0.00000E+00        -0.63642E+08
 
   -0.49473E+08        -0.17799E+07         0.00000E+00
   -0.17799E+07        -0.59947E+08         0.00000E+00
    0.00000E+00         0.00000E+00        -0.63914E+08
 
   -0.50936E+08        -0.21104E+07         0.00000E+00
   -0.21104E+07        -0.59887E+08         0.00000E+00
    0.00000E+00         0.00000E+00        -0.64194E+08
 
   -0.52458E+08        -0.22377E+07         0.00000E+00
   -0.22377E+07        -0.59796E+08         0.00000E+00
    0.00000E+00         0.00000E+00        -0.64480E+08
 
   -0.54015E+08        -0.21584E+07         0.00000E+00
   -0.21584E+07        -0.59676E+08         0.00000E+00
    0.00000E+00         0.00000E+00        -0.64767E+08
 
   -0.55578E+08        -0.18752E+07         0.00000E+00
   -0.18752E+07        -0.59534E+08         0.00000E+00
    0.00000E+00         0.00000E+00        -0.65050E+08
 
   -0.57123E+08        -0.13984E+07         0.00000E+00
   -0.13984E+07        -0.59372E+08         0.00000E+00
    0.00000E+00         0.00000E+00        -0.65326E+08
 
   -0.58634E+08        -0.73972E+06         0.00000E+00
   -0.73972E+06        -0.59182E+08         0.00000E+00
    0.00000E+00         0.00000E+00        -0.65590E+08
 
   -0.60106E+08         0.94436E+05         0.00000E+00
    0.94436E+05        -0.58956E+08         0.00000E+00
    0.00000E+00         0.00000E+00        -0.65839E+08
 
   -0.61536E+08         0.11076E+07         0.00000E+00
    0.11076E+07        -0.58681E+08         0.00000E+00
    0.00000E+00         0.00000E+00        -0.66070E+08
 
   -0.62913E+08         0.23140E+07         0.00000E+00
    0.23140E+07        -0.58352E+08         0.00000E+00
    0.00000E+00         0.00000E+00        -0.66279E+08
 
   -0.64212E+08         0.37362E+07         0.00000E+00
    0.37362E+07        -0.57974E+08         0.00000E+00
    0.00000E+00         0.00000E+00        -0.66463E+08
 
   -0.65386E+08         0.53975E+07         0.00000E+00
    0.53975E+07        -0.57573E+08         0.00000E+00
    0.00000E+00         0.00000E+00        -0.66617E+08
 
   -0.66359E+08         0.73126E+07         0.00000E+00
    0.73126E+07        -0.57191E+08         0.00000E+00
    0.00000E+00         0.00000E+00        -0.66735E+08
 
   -0.47646E+08        -0.46327E+06         0.00000E+00
   -0.46327E+06        -0.59987E+08         0.00000E+00
    0.00000E+00         0.00000E+00        -0.61880E+08
 
   -0.48712E+08        -0.11992E+07         0.00000E+00
   -0.11992E+07        -0.59939E+08         0.00000E+00
    0.00000E+00         0.00000E+00        -0.62083E+08
 
   -0.49891E+08        -0.17086E+07         0.00000E+00
   -0.17086E+07        -0.59860E+08         0.00000E+00
    0.00000E+00         0.00000E+00        -0.62303E+08
 
   -0.51150E+08        -0.20103E+07         0.00000E+00
   -0.20103E+07        -0.59753E+08         0.00000E+00
    0.00000E+00         0.00000E+00        -0.62533E+08
 
   -0.52469E+08        -0.21094E+07         0.00000E+00
   -0.21094E+07        -0.59620E+08         0.00000E+00
    0.00000E+00         0.00000E+00        -0.62770E+08
 
   -0.53822E+08        -0.20062E+07         0.00000E+00
   -0.20062E+07        -0.59464E+08         0.00000E+00
    0.00000E+00         0.00000E+00        -0.63009E+08
 
   -0.55187E+08        -0.17028E+07         0.00000E+00
   -0.17028E+07        -0.59286E+08         0.00000E+00
    0.00000E+00         0.00000E+00        -0.63246E+08
 
   -0.56542E+08        -0.12047E+07         0.00000E+00
   -0.12047E+07        -0.59089E+08         0.00000E+00
    0.00000E+00         0.00000E+00        -0.63477E+08
 
   -0.57871E+08        -0.51840E+06         0.00000E+00
   -0.51840E+06        -0.58869E+08         0.00000E+00
    0.00000E+00         0.00000E+00        -0.63699E+08
 
   -0.59163E+08         0.35204E+06         0.00000E+00
    0.35204E+06        -0.58623E+08         0.00000E+00
    0.00000E+00         0.00000E+00        -0.63907E+08
 
   -0.60406E+08         0.14076E+07         0.00000E+00
    0.14076E+07        -0.58345E+08         0.00000E+00
    0.00000E+00         0.00000E+00        -0.64100E+08
 
   -0.61583E+08         0.26545E+07         0.00000E+00
    0.26545E+07        -0.58036E+08         0.00000E+00
    0.00000E+00         0.00000E+00        -0.64273E+08
 
   -0.62666E+08         0.41021E+07         0.00000E+00
    0.41021E+07        -0.57706E+08         0.00000E+00
    0.00000E+00         0.00000E+00        -0.64424E+08
 
   -0.63611E+08         0.57579E+07         0.00000E+00
    0.57579E+07        -0.57376E+08         0.00000E+00
    0.00000E+00         0.00000E+00        -0.64547E+08
 
   -0.64358E+08         0.76200E+07         0.00000E+00
    0.76200E+07        -0.57081E+08         0.00000E+00
    0.00000E+00         0.00000E+00        -0.64637E+08
 
   -0.48479E+08        -0.42910E+06         0.00000E+00
   -0.42910E+06        -0.59982E+08         0.00000E+00
    0.00000E+00         0.00000E+00        -0.60422E+08
 
   -0.49314E+08        -0.11204E+07         0.00000E+00
   -0.11204E+07        -0.59919E+08         0.00000E+00
    0.00000E+00         0.00000E+00        -0.60576E+08
 
   -0.50281E+08        -0.15994E+07         0.00000E+00
   -0.15994E+07        -0.59814E+08         0.00000E+00
    0.00000E+00         0.00000E+00        -0.60749E+08
 
   -0.51338E+08        -0.18751E+07         0.00000E+00
   -0.18751E+07        -0.59680E+08         0.00000E+00
    0.00000E+00         0.00000E+00        -0.60933E+08
 
   -0.52455E+08        -0.19509E+07         0.00000E+00
   -0.19509E+07        -0.59524E+08         0.00000E+00
    0.00000E+00         0.00000E+00        -0.61125E+08
 
   -0.53609E+08        -0.18273E+07         0.00000E+00
   -0.18273E+07        -0.59347E+08         0.00000E+00
    0.00000E+00         0.00000E+00        -0.61320E+08
 
   -0.54776E+08        -0.15057E+07         0.00000E+00
   -0.15057E+07        -0.59153E+08         0.00000E+00
    0.00000E+00         0.00000E+00        -0.61514E+08
 
   -0.55939E+08        -0.98920E+06         0.00000E+00
   -0.98920E+06        -0.58943E+08         0.00000E+00
    0.00000E+00         0.00000E+00        -0.61704E+08
 
   -0.57081E+08        -0.28191E+06         0.00000E+00
   -0.28191E+06        -0.58715E+08         0.00000E+00
    0.00000E+00         0.00000E+00        -0.61887E+08
 
   -0.58188E+08         0.61268E+06         0.00000E+00
    0.61268E+06        -0.58469E+08         0.00000E+00
    0.00000E+00         0.00000E+00        -0.62058E+08
 
   -0.59244E+08         0.16929E+07         0.00000E+00
    0.16929E+07        -0.58204E+08         0.00000E+00
    0.00000E+00         0.00000E+00        -0.62216E+08
 
   -0.60230E+08         0.29589E+07         0.00000E+00
    0.29589E+07        -0.57925E+08         0.00000E+00
    0.00000E+00         0.00000E+00        -0.62357E+08
 
   -0.61118E+08         0.44105E+07         0.00000E+00
    0.44105E+07        -0.57641E+08         0.00000E+00
    0.00000E+00         0.00000E+00        -0.62478E+08
 
   -0.61871E+08         0.60438E+07         0.00000E+00
    0.60438E+07        -0.57372E+08         0.00000E+00
    0.00000E+00         0.00000E+00        -0.62575E+08
 
   -0.62439E+08         0.78465E+07         0.00000E+00
    0.78465E+07        -0.57148E+08         0.00000E+00
    0.00000E+00         0.00000E+00        -0.62643E+08
 
   -0.49246E+08        -0.38939E+06         0.00000E+00
   -0.38939E+06        -0.59981E+08         0.00000E+00
    0.00000E+00         0.00000E+00        -0.59003E+08
 
   -0.49877E+08        -0.10269E+07         0.00000E+00
   -0.10269E+07        -0.59913E+08         0.00000E+00
    0.00000E+00         0.00000E+00        -0.59115E+08
 
   -0.50644E+08        -0.14721E+07         0.00000E+00
   -0.14721E+07        -0.59800E+08         0.00000E+00
    0.00000E+00         0.00000E+00        -0.59246E+08
 
   -0.51503E+08        -0.17234E+07         0.00000E+00
   -0.17234E+07        -0.59658E+08         0.00000E+00
    0.00000E+00         0.00000E+00        -0.59389E+08
 
   -0.52422E+08        -0.17794E+07         0.00000E+00
   -0.17794E+07        -0.59495E+08         0.00000E+00
    0.00000E+00         0.00000E+00        -0.59540E+08
 
   -0.53378E+08        -0.16391E+07         0.00000E+00
   -0.16391E+07        -0.59316E+08         0.00000E+00
    0.00000E+00         0.00000E+00        -0.59695E+08
 
   -0.54349E+08        -0.13025E+07         0.00000E+00
   -0.13025E+07        -0.59122E+08         0.00000E+00
    0.00000E+00         0.00000E+00        -0.59850E+08
 
   -0.55319E+08        -0.77153E+06         0.00000E+00
   -0.77153E+06        -0.58916E+08         0.00000E+00
    0.00000E+00         0.00000E+00        -0.60002E+08
 
   -0.56272E+08        -0.49421E+05         0.00000E+00
   -0.49421E+05        -0.58697E+08         0.00000E+00
    0.00000E+00         0.00000E+00        -0.60149E+08
 
   -0.57193E+08         0.85994E+06         0.00000E+00
    0.85994E+06        -0.58467E+08         0.00000E+00
    0.00000E+00         0.00000E+00        -0.60287E+08
 
   -0.58066E+08         0.19524E+07         0.00000E+00
    0.19524E+07        -0.58227E+08         0.00000E+00
    0.00000E+00         0.00000E+00        -0.60413E+08
 
   -0.58871E+08         0.32234E+07         0.00000E+00
    0.32234E+07        -0.57983E+08         0.00000E+00
    0.00000E+00         0.00000E+00        -0.60525E+08
 
   -0.59584E+08         0.46659E+07         0.00000E+00
    0.46659E+07        -0.57746E+08         0.00000E+00
    0.00000E+00         0.00000E+00        -0.60620E+08
 
   -0.60173E+08         0.62684E+07         0.00000E+00
    0.62684E+07        -0.57531E+08         0.00000E+00
    0.00000E+00         0.00000E+00        -0.60694E+08
 
   -0.60598E+08         0.80117E+07         0.00000E+00
    0.80117E+07        -0.57361E+08         0.00000E+00
    0.00000E+00         0.00000E+00        -0.60746E+08
 
   -0.49944E+08        -0.35000E+06         0.00000E+00
   -0.35000E+06        -0.59983E+08         0.00000E+00
    0.00000E+00         0.00000E+00        -0.57616E+08
 
   -0.50397E+08        -0.93265E+06         0.00000E+00
   -0.93265E+06        -0.59918E+08         0.00000E+00
    0.00000E+00         0.00000E+00        -0.57694E+08
 
   -0.50978E+08        -0.13437E+07         0.00000E+00
   -0.13437E+07        -0.59810E+08         0.00000E+00
    0.00000E+00         0.00000E+00        -0.57788E+08
 
   -0.51647E+08        -0.15722E+07         0.00000E+00
   -0.15722E+07        -0.59675E+08         0.00000E+00
    0.00000E+00         0.00000E+00        -0.57895E+08
 
   -0.52373E+08        -0.16113E+07         0.00000E+00
   -0.16113E+07        -0.59522E+08         0.00000E+00
    0.00000E+00         0.00000E+00        -0.58009E+08
 
   -0.53133E+08        -0.14574E+07         0.00000E+00
   -0.14574E+07        -0.59355E+08         0.00000E+00
    0.00000E+00         0.00000E+00        -0.58127E+08
 
   -0.53910E+08        -0.11091E+07         0.00000E+00
   -0.11091E+07        -0.59176E+08         0.00000E+00
    0.00000E+00         0.00000E+00        -0.58247E+08
 
   -0.54687E+08        -0.56755E+06         0.00000E+00
   -0.56755E+06        -0.58989E+08         0.00000E+00
    0.00000E+00         0.00000E+00        -0.58364E+08
 
   -0.55451E+08         0.16422E+06         0.00000E+00
    0.16422E+06        -0.58792E+08         0.00000E+00
    0.00000E+00         0.00000E+00        -0.58477E+08
 
   -0.56188E+08         0.10815E+07         0.00000E+00
    0.10815E+07        -0.58590E+08         0.00000E+00
    0.00000E+00         0.00000E+00        -0.58584E+08
 
   -0.56883E+08         0.21780E+07         0.00000E+00
    0.21780E+07        -0.58384E+08         0.00000E+00
    0.00000E+00         0.00000E+00        -0.58681E+08
 
   -0.57518E+08         0.34455E+07         0.00000E+00
    0.34455E+07        -0.58180E+08         0.00000E+00
    0.00000E+00         0.00000E+00        -0.58767E+08
 
   -0.58071E+08         0.48722E+07         0.00000E+00
    0.48722E+07        -0.57988E+08         0.00000E+00
    0.00000E+00         0.00000E+00        -0.58840E+08
 
   -0.58518E+08         0.64416E+07         0.00000E+00
    0.64416E+07        -0.57821E+08         0.00000E+00
    0.00000E+00         0.00000E+00        -0.58895E+08
 
   -0.58829E+08         0.81299E+07         0.00000E+00
    0.81299E+07        -0.57696E+08         0.00000E+00
    0.00000E+00         0.00000E+00        -0.58932E+08
 
   -0.50574E+08        -0.31506E+06         0.00000E+00
   -0.31506E+06        -0.59985E+08         0.00000E+00
    0.00000E+00         0.00000E+00        -0.56256E+08
 
   -0.50876E+08        -0.84790E+06         0.00000E+00
   -0.84790E+06        -0.59931E+08         0.00000E+00
    0.00000E+00         0.00000E+00        -0.56305E+08
 
   -0.51287E+08        -0.12277E+07         0.00000E+00
   -0.12277E+07        -0.59839E+08         0.00000E+00
    0.00000E+00         0.00000E+00        -0.56369E+08
 
   -0.51773E+08        -0.14358E+07         0.00000E+00
   -0.14358E+07        -0.59723E+08         0.00000E+00
    0.00000E+00         0.00000E+00        -0.56443E+08
 
   -0.52309E+08        -0.14607E+07         0.00000E+00
   -0.14607E+07        -0.59592E+08         0.00000E+00
    0.00000E+00         0.00000E+00        -0.56524E+08
 
   -0.52877E+08        -0.12959E+07         0.00000E+00
   -0.12959E+07        -0.59450E+08         0.00000E+00
    0.00000E+00         0.00000E+00        -0.56609E+08
 
   -0.53460E+08        -0.93882E+06         0.00000E+00
   -0.93882E+06        -0.59299E+08         0.00000E+00
    0.00000E+00         0.00000E+00        -0.56695E+08
 
   -0.54046E+08        -0.38990E+06         0.00000E+00
   -0.38990E+06        -0.59141E+08         0.00000E+00
    0.00000E+00         0.00000E+00        -0.56780E+08
 
   -0.54624E+08         0.34768E+06         0.00000E+00
    0.34768E+06        -0.58978E+08         0.00000E+00
    0.00000E+00         0.00000E+00        -0.56863E+08
 
   -0.55179E+08         0.12683E+07         0.00000E+00
    0.12683E+07        -0.58812E+08         0.00000E+00
    0.00000E+00         0.00000E+00        -0.56940E+08
 
   -0.55701E+08         0.23640E+07         0.00000E+00
    0.23640E+07        -0.58646E+08         0.00000E+00
    0.00000E+00         0.00000E+00        -0.57011E+08
 
   -0.56175E+08         0.36237E+07         0.00000E+00
    0.36237E+07        -0.58486E+08         0.00000E+00
    0.00000E+00         0.00000E+00        -0.57074E+08
 
   -0.56583E+08         0.50326E+07         0.00000E+00
    0.50326E+07        -0.58338E+08         0.00000E+00
    0.00000E+00         0.00000E+00        -0.57126E+08
 
   -0.56906E+08         0.65708E+07         0.00000E+00
    0.65708E+07        -0.58214E+08         0.00000E+00
    0.00000E+00         0.00000E+00        -0.57165E+08
 
   -0.57121E+08         0.82116E+07         0.00000E+00
    0.82116E+07        -0.58126E+08         0.00000E+00
    0.00000E+00         0.00000E+00        -0.57190E+08
 
   -0.51148E+08        -0.28742E+06         0.00000E+00
   -0.28742E+06        -0.59989E+08         0.00000E+00
    0.00000E+00         0.00000E+00        -0.54918E+08
 
   -0.51319E+08        -0.78010E+06         0.00000E+00
   -0.78010E+06        -0.59949E+08         0.00000E+00
    0.00000E+00         0.00000E+00        -0.54943E+08
 
   -0.51572E+08        -0.11342E+07         0.00000E+00
   -0.11342E+07        -0.59880E+08         0.00000E+00
    0.00000E+00         0.00000E+00        -0.54980E+08
 
   -0.51884E+08        -0.13256E+07         0.00000E+00
   -0.13256E+07        -0.59793E+08         0.00000E+00
    0.00000E+00         0.00000E+00        -0.55025E+08
 
   -0.52235E+08        -0.13391E+07         0.00000E+00
   -0.13391E+07        -0.59695E+08         0.00000E+00
    0.00000E+00         0.00000E+00        -0.55075E+08
 
   -0.52612E+08        -0.11659E+07         0.00000E+00
   -0.11659E+07        -0.59587E+08         0.00000E+00
    0.00000E+00         0.00000E+00        -0.55129E+08
 
   -0.53004E+08        -0.80224E+06         0.00000E+00
   -0.80224E+06        -0.59473E+08         0.00000E+00
    0.00000E+00         0.00000E+00        -0.55184E+08
 
   -0.53401E+08        -0.24829E+06         0.00000E+00
   -0.24829E+06        -0.59354E+08         0.00000E+00
    0.00000E+00         0.00000E+00        -0.55239E+08
 
   -0.53792E+08         0.49254E+06         0.00000E+00
    0.49254E+06        -0.59232E+08         0.00000E+00
    0.00000E+00         0.00000E+00        -0.55293E+08
 
   -0.54171E+08         0.14139E+07         0.00000E+00
    0.14139E+07        -0.59109E+08         0.00000E+00
    0.00000E+00         0.00000E+00        -0.55344E+08
 
   -0.54525E+08         0.25064E+07         0.00000E+00
    0.25064E+07        -0.58988E+08         0.00000E+00
    0.00000E+00         0.00000E+00        -0.55390E+08
 
   -0.54845E+08         0.37572E+07         0.00000E+00
    0.37572E+07        -0.58872E+08         0.00000E+00
    0.00000E+00         0.00000E+00        -0.55431E+08
 
   -0.55117E+08         0.51495E+07         0.00000E+00
    0.51495E+07        -0.58768E+08         0.00000E+00
    0.00000E+00         0.00000E+00        -0.55464E+08
 
   -0.55328E+08         0.66613E+07         0.00000E+00
    0.66613E+07        -0.58684E+08         0.00000E+00
    0.00000E+00         0.00000E+00        -0.55490E+08
 
   -0.55464E+08         0.82645E+07         0.00000E+00
    0.82645E+07        -0.58627E+08         0.00000E+00
    0.00000E+00         0.00000E+00        -0.55505E+08
 
   -0.51680E+08        -0.26900E+06         0.00000E+00
   -0.26900E+06        -0.59994E+08         0.00000E+00
    0.00000E+00         0.00000E+00        -0.53595E+08
 
   -0.51734E+08        -0.73441E+06         0.00000E+00
   -0.73441E+06        -0.59970E+08         0.00000E+00
    0.00000E+00         0.00000E+00        -0.53601E+08
 
   -0.51840E+08        -0.10706E+07         0.00000E+00
   -0.10706E+07        -0.59930E+08         0.00000E+00
    0.00000E+00         0.00000E+00        -0.53614E+08
 
   -0.51982E+08        -0.12501E+07         0.00000E+00
   -0.12501E+07        -0.59879E+08         0.00000E+00
    0.00000E+00         0.00000E+00        -0.53632E+08
 
   -0.52152E+08        -0.12551E+07         0.00000E+00
   -0.12551E+07        -0.59819E+08         0.00000E+00
    0.00000E+00         0.00000E+00        -0.53654E+08
 
   -0.52341E+08        -0.10756E+07         0.00000E+00
   -0.10756E+07        -0.59754E+08         0.00000E+00
    0.00000E+00         0.00000E+00        -0.53678E+08
 
   -0.52543E+08        -0.70714E+06         0.00000E+00
   -0.70714E+06        -0.59683E+08         0.00000E+00
    0.00000E+00         0.00000E+00        -0.53704E+08
 
   -0.52751E+08        -0.14969E+06         0.00000E+00
   -0.14969E+06        -0.59609E+08         0.00000E+00
    0.00000E+00         0.00000E+00        -0.53731E+08
 
   -0.52960E+08         0.59299E+06         0.00000E+00
    0.59299E+06        -0.59533E+08         0.00000E+00
    0.00000E+00         0.00000E+00        -0.53757E+08
 
   -0.53163E+08         0.15139E+07         0.00000E+00
    0.15139E+07        -0.59457E+08         0.00000E+00
    0.00000E+00         0.00000E+00        -0.53782E+08
 
   -0.53354E+08         0.26028E+07         0.00000E+00
    0.26028E+07        -0.59382E+08         0.00000E+00
    0.00000E+00         0.00000E+00        -0.53805E+08
 
   -0.53526E+08         0.38457E+07         0.00000E+00
    0.38457E+07        -0.59312E+08         0.00000E+00
    0.00000E+00         0.00000E+00        -0.53825E+08
 
   -0.53670E+08         0.52248E+07         0.00000E+00
    0.52248E+07        -0.59252E+08         0.00000E+00
    0.00000E+00         0.00000E+00        -0.53842E+08
 
   -0.53779E+08         0.67169E+07         0.00000E+00
    0.67169E+07        -0.59204E+08         0.00000E+00
    0.00000E+00         0.00000E+00        -0.53854E+08
 
   -0.53843E+08         0.82934E+07         0.00000E+00
    0.82934E+07        -0.59176E+08         0.00000E+00
    0.00000E+00         0.00000E+00        -0.53861E+08
 
   -0.52188E+08        -0.26094E+06         0.00000E+00
   -0.26094E+06        -0.59999E+08         0.00000E+00
    0.00000E+00         0.00000E+00        -0.52283E+08
 
   -0.52134E+08        -0.71401E+06         0.00000E+00
   -0.71401E+06        -0.59994E+08         0.00000E+00
    0.00000E+00         0.00000E+00        -0.52271E+08
 
   -0.52096E+08        -0.10416E+07         0.00000E+00
   -0.10416E+07        -0.59985E+08         0.00000E+00
    0.00000E+00         0.00000E+00        -0.52262E+08
 
   -0.52073E+08        -0.12146E+07         0.00000E+00
   -0.12146E+07        -0.59972E+08         0.00000E+00
    0.00000E+00         0.00000E+00        -0.52254E+08
 
   -0.52063E+08        -0.12144E+07         0.00000E+00
   -0.12144E+07        -0.59956E+08         0.00000E+00
    0.00000E+00         0.00000E+00        -0.52249E+08
 
   -0.52066E+08        -0.10306E+07         0.00000E+00
   -0.10306E+07        -0.59936E+08         0.00000E+00
    0.00000E+00         0.00000E+00        -0.52245E+08
 
   -0.52078E+08        -0.65845E+06         0.00000E+00
   -0.65845E+06        -0.59914E+08         0.00000E+00
    0.00000E+00         0.00000E+00        -0.52243E+08
 
   -0.52099E+08        -0.98363E+05         0.00000E+00
   -0.98363E+05        -0.59888E+08         0.00000E+00
    0.00000E+00         0.00000E+00        -0.52242E+08
 
   -0.52127E+08         0.64561E+06         0.00000E+00
    0.64561E+06        -0.59860E+08         0.00000E+00
    0.00000E+00         0.00000E+00        -0.52241E+08
 
   -0.52158E+08         0.15660E+07         0.00000E+00
    0.15660E+07        -0.59832E+08         0.00000E+00
    0.00000E+00         0.00000E+00        -0.52242E+08
 
   -0.52189E+08         0.26520E+07         0.00000E+00
    0.26520E+07        -0.59805E+08         0.00000E+00
    0.00000E+00         0.00000E+00        -0.52242E+08
 
   -0.52216E+08         0.38894E+07         0.00000E+00
    0.38894E+07        -0.59782E+08         0.00000E+00
    0.00000E+00         0.00000E+00        -0.52243E+08
 
   -0.52237E+08         0.52597E+07         0.00000E+00
    0.52597E+07        -0.59764E+08         0.00000E+00
    0.00000E+00         0.00000E+00        -0.52243E+08
 
   -0.52247E+08         0.67399E+07         0.00000E+00
    0.67399E+07        -0.59752E+08         0.00000E+00
    0.00000E+00         0.00000E+00        -0.52243E+08
 
   -0.52246E+08         0.83013E+07         0.00000E+00
    0.83013E+07        -0.59750E+08         0.00000E+00
    0.00000E+00         0.00000E+00        -0.52242E+08
 
   -0.52691E+08        -0.26374E+06         0.00000E+00
   -0.26374E+06        -0.60004E+08         0.00000E+00
    0.00000E+00         0.00000E+00        -0.50977E+08
 
   -0.52530E+08        -0.72040E+06         0.00000E+00
   -0.72040E+06        -0.60018E+08         0.00000E+00
    0.00000E+00         0.00000E+00        -0.50948E+08
 
   -0.52350E+08        -0.10493E+07         0.00000E+00
   -0.10493E+07        -0.60041E+08         0.00000E+00
    0.00000E+00         0.00000E+00        -0.50916E+08
 
   -0.52161E+08        -0.12217E+07         0.00000E+00
   -0.12217E+07        -0.60069E+08         0.00000E+00
    0.00000E+00         0.00000E+00        -0.50884E+08
 
   -0.51971E+08        -0.12197E+07         0.00000E+00
   -0.12197E+07        -0.60097E+08         0.00000E+00
    0.00000E+00         0.00000E+00        -0.50852E+08
 
   -0.51786E+08        -0.10331E+07         0.00000E+00
   -0.10331E+07        -0.60125E+08         0.00000E+00
    0.00000E+00         0.00000E+00        -0.50820E+08
 
   -0.51610E+08        -0.65824E+06         0.00000E+00
   -0.65824E+06        -0.60150E+08         0.00000E+00
    0.00000E+00         0.00000E+00        -0.50789E+08
 
   -0.51446E+08        -0.95914E+05         0.00000E+00
   -0.95914E+05        -0.60172E+08         0.00000E+00
    0.00000E+00         0.00000E+00        -0.50761E+08
 
   -0.51293E+08         0.64927E+06         0.00000E+00
    0.64927E+06        -0.60194E+08         0.00000E+00
    0.00000E+00         0.00000E+00        -0.50734E+08
 
   -0.51153E+08         0.15695E+07         0.00000E+00
    0.15695E+07        -0.60214E+08         0.00000E+00
    0.00000E+00         0.00000E+00        -0.50710E+08
 
   -0.51026E+08         0.26541E+07         0.00000E+00
    0.26541E+07        -0.60235E+08         0.00000E+00
    0.00000E+00         0.00000E+00        -0.50688E+08
 
   -0.50911E+08         0.38886E+07         0.00000E+00
    0.38886E+07        -0.60257E+08         0.00000E+00
    0.00000E+00         0.00000E+00        -0.50670E+08
 
   -0.50810E+08         0.52552E+07         0.00000E+00
    0.52552E+07        -0.60280E+08         0.00000E+00
    0.00000E+00         0.00000E+00        -0.50654E+08
 
   -0.50725E+08         0.67313E+07         0.00000E+00
    0.67313E+07        -0.60304E+08         0.00000E+00
    0.00000E+00         0.00000E+00        -0.50642E+08
 
   -0.50658E+08         0.82893E+07         0.00000E+00
    0.82893E+07        -0.60328E+08         0.00000E+00
    0.00000E+00         0.00000E+00        -0.50633E+08
 
   -0.53209E+08        -0.27737E+06         0.00000E+00
   -0.27737E+06        -0.60009E+08         0.00000E+00
    0.00000E+00         0.00000E+00        -0.49674E+08
 
   -0.52934E+08        -0.75362E+06         0.00000E+00
   -0.75362E+06        -0.60041E+08         0.00000E+00
    0.00000E+00         0.00000E+00        -0.49625E+08
 
   -0.52607E+08        -0.10938E+07         0.00000E+00
   -0.10938E+07        -0.60096E+08         0.00000E+00
    0.00000E+00         0.00000E+00        -0.49571E+08
 
   -0.52249E+08        -0.12715E+07         0.00000E+00
   -0.12715E+07        -0.60163E+08         0.00000E+00
    0.00000E+00         0.00000E+00        -0.49512E+08
 
   -0.51878E+08        -0.12705E+07         0.00000E+00
   -0.12705E+07        -0.60234E+08         0.00000E+00
    0.00000E+00         0.00000E+00        -0.49452E+08
 
   -0.51505E+08        -0.10827E+07         0.00000E+00
   -0.10827E+07        -0.60307E+08         0.00000E+00
    0.00000E+00         0.00000E+00        -0.49392E+08
 
   -0.51140E+08        -0.70566E+06         0.00000E+00
   -0.70566E+06        -0.60378E+08         0.00000E+00
    0.00000E+00         0.00000E+00        -0.49333E+08
 
   -0.50790E+08        -0.14132E+06         0.00000E+00
   -0.14132E+06        -0.60447E+08         0.00000E+00
    0.00000E+00         0.00000E+00        -0.49276E+08
 
   -0.50459E+08         0.60509E+06         0.00000E+00
    0.60509E+06        -0.60514E+08         0.00000E+00
    0.00000E+00         0.00000E+00        -0.49223E+08
 
   -0.50149E+08         0.15256E+07         0.00000E+00
    0.15256E+07        -0.60581E+08         0.00000E+00
    0.00000E+00         0.00000E+00        -0.49174E+08
 
   -0.49865E+08         0.26098E+07         0.00000E+00
    0.26098E+07        -0.60648E+08         0.00000E+00
    0.00000E+00         0.00000E+00        -0.49131E+08
 
   -0.49608E+08         0.38442E+07         0.00000E+00
    0.38442E+07        -0.60714E+08         0.00000E+00
    0.00000E+00         0.00000E+00        -0.49092E+08
 
   -0.49385E+08         0.52118E+07         0.00000E+00
    0.52118E+07        -0.60779E+08         0.00000E+00
    0.00000E+00         0.00000E+00        -0.49060E+08
 
   -0.49202E+08         0.66913E+07         0.00000E+00
    0.66913E+07        -0.60838E+08         0.00000E+00
    0.00000E+00         0.00000E+00        -0.49036E+08
 
   -0.49066E+08         0.82566E+07         0.00000E+00
    0.82566E+07        -0.60889E+08         0.00000E+00
    0.00000E+00         0.00000E+00        -0.49018E+08
 
   -0.53760E+08        -0.30136E+06         0.00000E+00
   -0.30136E+06        -0.60013E+08         0.00000E+00
    0.00000E+00         0.00000E+00        -0.48369E+08
 
   -0.53360E+08        -0.81244E+06         0.00000E+00
   -0.81244E+06        -0.60063E+08         0.00000E+00
    0.00000E+00         0.00000E+00        -0.48298E+08
 
   -0.52876E+08        -0.11733E+07         0.00000E+00
   -0.11733E+07        -0.60147E+08         0.00000E+00
    0.00000E+00         0.00000E+00        -0.48218E+08
 
   -0.52342E+08        -0.13614E+07         0.00000E+00
   -0.13614E+07        -0.60249E+08         0.00000E+00
    0.00000E+00         0.00000E+00        -0.48132E+08
 
   -0.51784E+08        -0.13640E+07         0.00000E+00
   -0.13640E+07        -0.60360E+08         0.00000E+00
    0.00000E+00         0.00000E+00        -0.48042E+08
 
   -0.51222E+08        -0.11759E+07         0.00000E+00
   -0.11759E+07        -0.60473E+08         0.00000E+00
    0.00000E+00         0.00000E+00        -0.47952E+08
 
   -0.50668E+08        -0.79700E+06         0.00000E+00
   -0.79700E+06        -0.60585E+08         0.00000E+00
    0.00000E+00         0.00000E+00        -0.47863E+08
 
   -0.50133E+08        -0.23089E+06         0.00000E+00
   -0.23089E+06        -0.60695E+08         0.00000E+00
    0.00000E+00         0.00000E+00        -0.47778E+08
 
   -0.49624E+08         0.51644E+06         0.00000E+00
    0.51644E+06        -0.60804E+08         0.00000E+00
    0.00000E+00         0.00000E+00        -0.47698E+08
 
   -0.49145E+08         0.14371E+07         0.00000E+00
    0.14371E+07        -0.60913E+08         0.00000E+00
    0.00000E+00         0.00000E+00        -0.47624E+08
 
   -0.48703E+08         0.25213E+07         0.00000E+00
    0.25213E+07        -0.61023E+08         0.00000E+00
    0.00000E+00         0.00000E+00        -0.47557E+08
 
   -0.48303E+08         0.37571E+07         0.00000E+00
    0.37571E+07        -0.61132E+08         0.00000E+00
    0.00000E+00         0.00000E+00        -0.47498E+08
 
   -0.47955E+08         0.51293E+07         0.00000E+00
    0.51293E+07        -0.61237E+08         0.00000E+00
    0.00000E+00         0.00000E+00        -0.47450E+08
 
   -0.47669E+08         0.66188E+07         0.00000E+00
    0.66188E+07        -0.61333E+08         0.00000E+00
    0.00000E+00         0.00000E+00        -0.47411E+08
 
   -0.47459E+08         0.82012E+07         0.00000E+00
    0.82012E+07        -0.61412E+08         0.00000E+00
    0.00000E+00         0.00000E+00        -0.47385E+08
 
   -0.54364E+08        -0.33483E+06         0.00000E+00
   -0.33483E+06        -0.60017E+08         0.00000E+00
    0.00000E+00         0.00000E+00        -0.47059E+08
 
   -0.53818E+08        -0.89447E+06         0.00000E+00
   -0.89447E+06        -0.60083E+08         0.00000E+00
    0.00000E+00         0.00000E+00        -0.46963E+08
 
   -0.53163E+08        -0.12841E+07         0.00000E+00
   -0.12841E+07        -0.60192E+08         0.00000E+00
    0.00000E+00         0.00000E+00        -0.46854E+08
 
   -0.52443E+08        -0.14865E+07         0.00000E+00
   -0.14865E+07        -0.60325E+08         0.00000E+00
    0.00000E+00         0.00000E+00        -0.46736E+08
 
   -0.51693E+08        -0.14942E+07         0.00000E+00
   -0.14942E+07        -0.60468E+08         0.00000E+00
    0.00000E+00         0.00000E+00        -0.46614E+08
 
   -0.50937E+08        -0.13061E+07         0.00000E+00
   -0.13061E+07        -0.60613E+08         0.00000E+00
    0.00000E+00         0.00000E+00        -0.46492E+08
 
   -0.50194E+08        -0.92556E+06         0.00000E+00
   -0.92556E+06        -0.60758E+08         0.00000E+00
    0.00000E+00         0.00000E+00        -0.46372E+08
 
   -0.49475E+08        -0.35821E+06         0.00000E+00
   -0.35821E+06        -0.60901E+08         0.00000E+00
    0.00000E+00         0.00000E+00        -0.46257E+08
 
   -0.48789E+08         0.38898E+06         0.00000E+00
    0.38898E+06        -0.61045E+08         0.00000E+00
    0.00000E+00         0.00000E+00        -0.46148E+08
 
   -0.48142E+08         0.13084E+07         0.00000E+00
    0.13084E+07        -0.61190E+08         0.00000E+00
    0.00000E+00         0.00000E+00        -0.46047E+08
 
   -0.47541E+08         0.23916E+07         0.00000E+00
    0.23916E+07        -0.61338E+08         0.00000E+00
    0.00000E+00         0.00000E+00        -0.45956E+08
 
   -0.46995E+08         0.36288E+07         0.00000E+00
    0.36288E+07        -0.61486E+08         0.00000E+00
    0.00000E+00         0.00000E+00        -0.45877E+08
 
   -0.46516E+08         0.50075E+07         0.00000E+00
    0.50075E+07        -0.61632E+08         0.00000E+00
    0.00000E+00         0.00000E+00        -0.45810E+08
 
   -0.46120E+08         0.65114E+07         0.00000E+00
    0.65114E+07        -0.61766E+08         0.00000E+00
    0.00000E+00         0.00000E+00        -0.45757E+08
 
   -0.45826E+08         0.81192E+07         0.00000E+00
    0.81192E+07        -0.61878E+08         0.00000E+00
    0.00000E+00         0.00000E+00        -0.45721E+08
 
   -0.55036E+08        -0.37659E+06         0.00000E+00
   -0.37659E+06        -0.60021E+08         0.00000E+00
    0.00000E+00         0.00000E+00        -0.45743E+08
 
   -0.54319E+08        -0.99628E+06         0.00000E+00
   -0.99628E+06        -0.60099E+08         0.00000E+00
    0.00000E+00         0.00000E+00        -0.45615E+08
 
   -0.53473E+08        -0.14205E+07         0.00000E+00
   -0.14205E+07        -0.60228E+08         0.00000E+00
    0.00000E+00         0.00000E+00        -0.45472E+08
 
   -0.52554E+08        -0.16395E+07         0.00000E+00
   -0.16395E+07        -0.60384E+08         0.00000E+00
    0.00000E+00         0.00000E+00        -0.45319E+08
 
   -0.51603E+08        -0.16524E+07         0.00000E+00
   -0.16524E+07        -0.60550E+08         0.00000E+00
    0.00000E+00         0.00000E+00        -0.45162E+08
 
   -0.50652E+08        -0.14638E+07         0.00000E+00
   -0.14638E+07        -0.60717E+08         0.00000E+00
    0.00000E+00         0.00000E+00        -0.45004E+08
 
   -0.49719E+08        -0.10816E+07         0.00000E+00
   -0.10816E+07        -0.60883E+08         0.00000E+00
    0.00000E+00         0.00000E+00        -0.44851E+08
 
   -0.48818E+08        -0.51404E+06         0.00000E+00
   -0.51404E+06        -0.61049E+08         0.00000E+00
    0.00000E+00         0.00000E+00        -0.44703E+08
 
   -0.47957E+08         0.23075E+06         0.00000E+00
    0.23075E+06        -0.61216E+08         0.00000E+00
    0.00000E+00         0.00000E+00        -0.44564E+08
 
   -0.47142E+08         0.11458E+07         0.00000E+00
    0.11458E+07        -0.61390E+08         0.00000E+00
    0.00000E+00         0.00000E+00        -0.44436E+08
 
   -0.46381E+08         0.22246E+07         0.00000E+00
    0.22246E+07        -0.61570E+08         0.00000E+00
    0.00000E+00         0.00000E+00        -0.44319E+08
 
   -0.45685E+08         0.34606E+07         0.00000E+00
    0.34606E+07        -0.61756E+08         0.00000E+00
    0.00000E+00         0.00000E+00        -0.44217E+08
 
   -0.45067E+08         0.48451E+07         0.00000E+00
    0.48451E+07        -0.61941E+08         0.00000E+00
    0.00000E+00         0.00000E+00        -0.44130E+08
 
   -0.44549E+08         0.63659E+07         0.00000E+00
    0.63659E+07        -0.62117E+08         0.00000E+00
    0.00000E+00         0.00000E+00        -0.44062E+08
 
   -0.44156E+08         0.80052E+07         0.00000E+00
    0.80052E+07        -0.62267E+08         0.00000E+00
    0.00000E+00         0.00000E+00        -0.44013E+08
 
   -0.55790E+08        -0.42517E+06         0.00000E+00
   -0.42517E+06        -0.60023E+08         0.00000E+00
    0.00000E+00         0.00000E+00        -0.44419E+08
 
   -0.54868E+08        -0.11135E+07         0.00000E+00
   -0.11135E+07        -0.60112E+08         0.00000E+00
    0.00000E+00         0.00000E+00        -0.44252E+08
 
   -0.53808E+08        -0.15754E+07         0.00000E+00
   -0.15754E+07        -0.60254E+08         0.00000E+00
    0.00000E+00         0.00000E+00        -0.44069E+08
 
   -0.52674E+08        -0.18105E+07         0.00000E+00
   -0.18105E+07        -0.60423E+08         0.00000E+00
    0.00000E+00         0.00000E+00        -0.43875E+08
 
   -0.51515E+08        -0.18267E+07         0.00000E+00
   -0.18267E+07        -0.60599E+08         0.00000E+00
    0.00000E+00         0.00000E+00        -0.43679E+08
 
   -0.50364E+08        -0.16361E+07         0.00000E+00
   -0.16361E+07        -0.60775E+08         0.00000E+00
    0.00000E+00         0.00000E+00        -0.43483E+08
 
   -0.49243E+08        -0.12520E+07         0.00000E+00
   -0.12520E+07        -0.60947E+08         0.00000E+00
    0.00000E+00         0.00000E+00        -0.43293E+08
 
   -0.48162E+08        -0.68623E+06         0.00000E+00
   -0.68623E+06        -0.61121E+08         0.00000E+00
    0.00000E+00         0.00000E+00        -0.43111E+08
 
   -0.47130E+08         0.52183E+05         0.00000E+00
    0.52183E+05        -0.61300E+08         0.00000E+00
    0.00000E+00         0.00000E+00        -0.42940E+08
 
   -0.46149E+08         0.95723E+06         0.00000E+00
    0.95723E+06        -0.61491E+08         0.00000E+00
    0.00000E+00         0.00000E+00        -0.42782E+08
 
   -0.45227E+08         0.20254E+07         0.00000E+00
    0.20254E+07        -0.61696E+08         0.00000E+00
    0.00000E+00         0.00000E+00        -0.42639E+08
 
   -0.44375E+08         0.32542E+07         0.00000E+00
    0.32542E+07        -0.61916E+08         0.00000E+00
    0.00000E+00         0.00000E+00        -0.42512E+08
 
   -0.43609E+08         0.46403E+07         0.00000E+00
    0.46403E+07        -0.62142E+08         0.00000E+00
    0.00000E+00         0.00000E+00        -0.42404E+08
 
   -0.42954E+08         0.61771E+07         0.00000E+00
    0.61771E+07        -0.62362E+08         0.00000E+00
    0.00000E+00         0.00000E+00        -0.42317E+08
 
   -0.42443E+08         0.78518E+07         0.00000E+00
    0.78518E+07        -0.62558E+08         0.00000E+00
    0.00000E+00         0.00000E+00        -0.42253E+08
 
   -0.56635E+08        -0.47888E+06         0.00000E+00
   -0.47888E+06        -0.60025E+08         0.00000E+00
    0.00000E+00         0.00000E+00        -0.43087E+08
 
   -0.55471E+08        -0.12406E+07         0.00000E+00
   -0.12406E+07        -0.60119E+08         0.00000E+00
    0.00000E+00         0.00000E+00        -0.42872E+08
 
   -0.54168E+08        -0.17395E+07         0.00000E+00
   -0.17395E+07        -0.60267E+08         0.00000E+00
    0.00000E+00         0.00000E+00        -0.42641E+08
 
   -0.52800E+08        -0.19868E+07         0.00000E+00
   -0.19868E+07        -0.60437E+08         0.00000E+00
    0.00000E+00         0.00000E+00        -0.42401E+08
 
   -0.51424E+08        -0.20018E+07         0.00000E+00
   -0.20018E+07        -0.60608E+08         0.00000E+00
    0.00000E+00         0.00000E+00        -0.42160E+08
 
   -0.50073E+08        -0.18064E+07         0.00000E+00
   -0.18064E+07        -0.60773E+08         0.00000E+00
    0.00000E+00         0.00000E+00        -0.41923E+08
 
   -0.48767E+08        -0.14205E+07         0.00000E+00
   -0.14205E+07        -0.60934E+08         0.00000E+00
    0.00000E+00         0.00000E+00        -0.41693E+08
 
   -0.47514E+08        -0.85962E+06         0.00000E+00
   -0.85962E+06        -0.61098E+08         0.00000E+00
    0.00000E+00         0.00000E+00        -0.41475E+08
 
   -0.46315E+08        -0.13383E+06         0.00000E+00
   -0.13383E+06        -0.61274E+08         0.00000E+00
    0.00000E+00         0.00000E+00        -0.41270E+08
 
   -0.45172E+08         0.75252E+06         0.00000E+00
    0.75252E+06        -0.61470E+08         0.00000E+00
    0.00000E+00         0.00000E+00        -0.41080E+08
 
   -0.44088E+08         0.17997E+07         0.00000E+00
    0.17997E+07        -0.61692E+08         0.00000E+00
    0.00000E+00         0.00000E+00        -0.40908E+08
 
   -0.43073E+08         0.30111E+07         0.00000E+00
    0.30111E+07        -0.61941E+08         0.00000E+00
    0.00000E+00         0.00000E+00        -0.40754E+08
 
   -0.42145E+08         0.43904E+07         0.00000E+00
    0.43904E+07        -0.62209E+08         0.00000E+00
    0.00000E+00         0.00000E+00        -0.40622E+08
 
   -0.41334E+08         0.59384E+07         0.00000E+00
    0.59384E+07        -0.62480E+08         0.00000E+00
    0.00000E+00         0.00000E+00        -0.40514E+08
 
   -0.40682E+08         0.76491E+07         0.00000E+00
    0.76491E+07        -0.62731E+08         0.00000E+00
    0.00000E+00         0.00000E+00        -0.40433E+08
 
   -0.57579E+08        -0.53583E+06         0.00000E+00
   -0.53583E+06        -0.60026E+08         0.00000E+00
    0.00000E+00         0.00000E+00        -0.41745E+08
 
   -0.56126E+08        -0.13712E+07         0.00000E+00
   -0.13712E+07        -0.60122E+08         0.00000E+00
    0.00000E+00         0.00000E+00        -0.41474E+08
 
   -0.54547E+08        -0.19011E+07         0.00000E+00
   -0.19011E+07        -0.60265E+08         0.00000E+00
    0.00000E+00         0.00000E+00        -0.41186E+08
 
   -0.52927E+08        -0.21522E+07         0.00000E+00
   -0.21522E+07        -0.60419E+08         0.00000E+00
    0.00000E+00         0.00000E+00        -0.40893E+08
 
   -0.51326E+08        -0.21588E+07         0.00000E+00
   -0.21588E+07        -0.60566E+08         0.00000E+00
    0.00000E+00         0.00000E+00        -0.40602E+08
 
   -0.49777E+08        -0.19545E+07         0.00000E+00
   -0.19545E+07        -0.60699E+08         0.00000E+00
    0.00000E+00         0.00000E+00        -0.40318E+08
 
   -0.48294E+08        -0.15671E+07         0.00000E+00
   -0.15671E+07        -0.60827E+08         0.00000E+00
    0.00000E+00         0.00000E+00        -0.40047E+08
 
   -0.46877E+08        -0.10162E+07         0.00000E+00
   -0.10162E+07        -0.60960E+08         0.00000E+00
    0.00000E+00         0.00000E+00        -0.39790E+08
 
   -0.45522E+08        -0.31209E+06         0.00000E+00
   -0.31209E+06        -0.61114E+08         0.00000E+00
    0.00000E+00         0.00000E+00        -0.39549E+08
 
   -0.44222E+08         0.54307E+06         0.00000E+00
    0.54307E+06        -0.61302E+08         0.00000E+00
    0.00000E+00         0.00000E+00        -0.39326E+08
 
   -0.42977E+08         0.15545E+07         0.00000E+00
    0.15545E+07        -0.61531E+08         0.00000E+00
    0.00000E+00         0.00000E+00        -0.39123E+08
 
   -0.41791E+08         0.27328E+07         0.00000E+00
    0.27328E+07        -0.61805E+08         0.00000E+00
    0.00000E+00         0.00000E+00        -0.38940E+08
 
   -0.40686E+08         0.40911E+07         0.00000E+00
    0.40911E+07        -0.62116E+08         0.00000E+00
    0.00000E+00         0.00000E+00        -0.38781E+08
 
   -0.39695E+08         0.56404E+07         0.00000E+00
    0.56404E+07        -0.62446E+08         0.00000E+00
    0.00000E+00         0.00000E+00        -0.38649E+08
 
   -0.38869E+08         0.73842E+07         0.00000E+00
    0.73842E+07        -0.62764E+08         0.00000E+00
    0.00000E+00         0.00000E+00        -0.38547E+08
 
   -0.58622E+08        -0.59392E+06         0.00000E+00
   -0.59392E+06        -0.60026E+08         0.00000E+00
    0.00000E+00         0.00000E+00        -0.40395E+08
 
   -0.56827E+08        -0.14972E+07         0.00000E+00
   -0.14972E+07        -0.60117E+08         0.00000E+00
    0.00000E+00         0.00000E+00        -0.40054E+08
 
   -0.54934E+08        -0.20454E+07         0.00000E+00
   -0.20454E+07        -0.60243E+08         0.00000E+00
    0.00000E+00         0.00000E+00        -0.39700E+08
 
   -0.53044E+08        -0.22863E+07         0.00000E+00
   -0.22863E+07        -0.60362E+08         0.00000E+00
    0.00000E+00         0.00000E+00        -0.39346E+08
 
   -0.51215E+08        -0.22739E+07         0.00000E+00
   -0.22739E+07        -0.60458E+08         0.00000E+00
    0.00000E+00         0.00000E+00        -0.38999E+08
 
   -0.49475E+08        -0.20561E+07         0.00000E+00
   -0.20561E+07        -0.60534E+08         0.00000E+00
    0.00000E+00         0.00000E+00        -0.38666E+08
 
   -0.47827E+08        -0.16691E+07         0.00000E+00
   -0.16691E+07        -0.60602E+08         0.00000E+00
    0.00000E+00         0.00000E+00        -0.38349E+08
 
   -0.46261E+08        -0.11355E+07         0.00000E+00
   -0.11355E+07        -0.60683E+08         0.00000E+00
    0.00000E+00         0.00000E+00        -0.38052E+08
 
   -0.44763E+08        -0.46554E+06         0.00000E+00
   -0.46554E+06        -0.60796E+08         0.00000E+00
    0.00000E+00         0.00000E+00        -0.37775E+08
 
   -0.43316E+08         0.34179E+06         0.00000E+00
    0.34179E+06        -0.60959E+08         0.00000E+00
    0.00000E+00         0.00000E+00        -0.37518E+08
 
   -0.41911E+08         0.12974E+07         0.00000E+00
    0.12974E+07        -0.61185E+08         0.00000E+00
    0.00000E+00         0.00000E+00        -0.37281E+08
 
   -0.40549E+08         0.24208E+07         0.00000E+00
    0.24208E+07        -0.61479E+08         0.00000E+00
    0.00000E+00         0.00000E+00        -0.37068E+08
 
   -0.39248E+08         0.37369E+07         0.00000E+00
    0.37369E+07        -0.61836E+08         0.00000E+00
    0.00000E+00         0.00000E+00        -0.36879E+08
 
   -0.38046E+08         0.52709E+07         0.00000E+00
    0.52709E+07        -0.62235E+08         0.00000E+00
    0.00000E+00         0.00000E+00        -0.36718E+08
 
   -0.37006E+08         0.70401E+07         0.00000E+00
    0.70401E+07        -0.62638E+08         0.00000E+00
    0.00000E+00         0.00000E+00        -0.36590E+08
 
   -0.59762E+08        -0.65081E+06         0.00000E+00
   -0.65081E+06        -0.60025E+08         0.00000E+00
    0.00000E+00         0.00000E+00        -0.39036E+08
 
   -0.57559E+08        -0.16082E+07         0.00000E+00
   -0.16082E+07        -0.60105E+08         0.00000E+00
    0.00000E+00         0.00000E+00        -0.38611E+08
 
   -0.55313E+08        -0.21524E+07         0.00000E+00
   -0.21524E+07        -0.60194E+08         0.00000E+00
    0.00000E+00         0.00000E+00        -0.38180E+08
 
   -0.53135E+08        -0.23624E+07         0.00000E+00
   -0.23624E+07        -0.60251E+08         0.00000E+00
    0.00000E+00         0.00000E+00        -0.37755E+08
 
   -0.51082E+08        -0.23180E+07         0.00000E+00
   -0.23180E+07        -0.60266E+08         0.00000E+00
    0.00000E+00         0.00000E+00        -0.37347E+08
 
   -0.49165E+08        -0.20832E+07         0.00000E+00
   -0.20832E+07        -0.60253E+08         0.00000E+00
    0.00000E+00         0.00000E+00        -0.36961E+08
 
   -0.47373E+08        -0.17012E+07         0.00000E+00
   -0.17012E+07        -0.60235E+08         0.00000E+00
    0.00000E+00         0.00000E+00        -0.36599E+08
 
   -0.45678E+08        -0.11960E+07         0.00000E+00
   -0.11960E+07        -0.60240E+08         0.00000E+00
    0.00000E+00         0.00000E+00        -0.36260E+08
 
   -0.44054E+08        -0.57624E+06         0.00000E+00
   -0.57624E+06        -0.60292E+08         0.00000E+00
    0.00000E+00         0.00000E+00        -0.35946E+08
 
   -0.42473E+08         0.16263E+06         0.00000E+00
    0.16263E+06        -0.60414E+08         0.00000E+00
    0.00000E+00         0.00000E+00        -0.35654E+08
 
   -0.40915E+08         0.10373E+07         0.00000E+00
    0.10373E+07        -0.60625E+08         0.00000E+00
    0.00000E+00         0.00000E+00        -0.35384E+08
 
   -0.39372E+08         0.20767E+07         0.00000E+00
    0.20767E+07        -0.60933E+08         0.00000E+00
    0.00000E+00         0.00000E+00        -0.35137E+08
 
   -0.37854E+08         0.33206E+07         0.00000E+00
    0.33206E+07        -0.61338E+08         0.00000E+00
    0.00000E+00         0.00000E+00        -0.34914E+08
 
   -0.36403E+08         0.48138E+07         0.00000E+00
    0.48138E+07        -0.61819E+08         0.00000E+00
    0.00000E+00         0.00000E+00        -0.34720E+08
 
   -0.35096E+08         0.65941E+07         0.00000E+00
    0.65941E+07        -0.62329E+08         0.00000E+00
    0.00000E+00         0.00000E+00        -0.34560E+08
 
   -0.60988E+08        -0.70365E+06         0.00000E+00
   -0.70365E+06        -0.60023E+08         0.00000E+00
    0.00000E+00         0.00000E+00        -0.37669E+08
 
   -0.58297E+08        -0.16888E+07         0.00000E+00
   -0.16888E+07        -0.60079E+08         0.00000E+00
    0.00000E+00         0.00000E+00        -0.37142E+08
 
   -0.55653E+08        -0.21937E+07         0.00000E+00
   -0.21937E+07        -0.60106E+08         0.00000E+00
    0.00000E+00         0.00000E+00        -0.36618E+08
 
   -0.53182E+08        -0.23451E+07         0.00000E+00
   -0.23451E+07        -0.60062E+08         0.00000E+00
    0.00000E+00         0.00000E+00        -0.36115E+08
 
   -0.50920E+08        -0.22563E+07         0.00000E+00
   -0.22563E+07        -0.59956E+08         0.00000E+00
    0.00000E+00         0.00000E+00        -0.35641E+08
 
   -0.48852E+08        -0.20058E+07         0.00000E+00
   -0.20058E+07        -0.59820E+08         0.00000E+00
    0.00000E+00         0.00000E+00        -0.35200E+08
 
   -0.46941E+08        -0.16389E+07         0.00000E+00
   -0.16389E+07        -0.59690E+08         0.00000E+00
    0.00000E+00         0.00000E+00        -0.34792E+08
 
   -0.45144E+08        -0.11775E+07         0.00000E+00
   -0.11775E+07        -0.59598E+08         0.00000E+00
    0.00000E+00         0.00000E+00        -0.34414E+08
 
   -0.43416E+08        -0.62727E+06         0.00000E+00
   -0.62727E+06        -0.59574E+08         0.00000E+00
    0.00000E+00         0.00000E+00        -0.34063E+08
 
   -0.41720E+08         0.19686E+05         0.00000E+00
    0.19686E+05        -0.59641E+08         0.00000E+00
    0.00000E+00         0.00000E+00        -0.33737E+08
 
   -0.40020E+08         0.78440E+06         0.00000E+00
    0.78440E+06        -0.59823E+08         0.00000E+00
    0.00000E+00         0.00000E+00        -0.33433E+08
 
   -0.38294E+08         0.17041E+07         0.00000E+00
    0.17041E+07        -0.60137E+08         0.00000E+00
    0.00000E+00         0.00000E+00        -0.33150E+08
 
   -0.36540E+08         0.28347E+07         0.00000E+00
    0.28347E+07        -0.60592E+08         0.00000E+00
    0.00000E+00         0.00000E+00        -0.32890E+08
 
   -0.34794E+08         0.42483E+07         0.00000E+00
    0.42483E+07        -0.61169E+08         0.00000E+00
    0.00000E+00         0.00000E+00        -0.32656E+08
 
   -0.33149E+08         0.60155E+07         0.00000E+00
    0.60155E+07        -0.61816E+08         0.00000E+00
    0.00000E+00         0.00000E+00        -0.32457E+08
 
   -0.62279E+08        -0.74818E+06         0.00000E+00
   -0.74818E+06        -0.60018E+08         0.00000E+00
    0.00000E+00         0.00000E+00        -0.36292E+08
 
   -0.58995E+08        -0.17132E+07         0.00000E+00
   -0.17132E+07        -0.60031E+08         0.00000E+00
    0.00000E+00         0.00000E+00        -0.35638E+08
 
   -0.55918E+08        -0.21249E+07         0.00000E+00
   -0.21249E+07        -0.59948E+08         0.00000E+00
    0.00000E+00         0.00000E+00        -0.35006E+08
 
   -0.53165E+08        -0.21877E+07         0.00000E+00
   -0.21877E+07        -0.59748E+08         0.00000E+00
    0.00000E+00         0.00000E+00        -0.34415E+08
 
   -0.50729E+08        -0.20507E+07         0.00000E+00
   -0.20507E+07        -0.59476E+08         0.00000E+00
    0.00000E+00         0.00000E+00        -0.33873E+08
 
   -0.48546E+08        -0.17960E+07         0.00000E+00
   -0.17960E+07        -0.59188E+08         0.00000E+00
    0.00000E+00         0.00000E+00        -0.33378E+08
 
   -0.46550E+08        -0.14623E+07         0.00000E+00
   -0.14623E+07        -0.58926E+08         0.00000E+00
    0.00000E+00         0.00000E+00        -0.32926E+08
 
   -0.44676E+08        -0.10651E+07         0.00000E+00
   -0.10651E+07        -0.58725E+08         0.00000E+00
    0.00000E+00         0.00000E+00        -0.32511E+08
 
   -0.42871E+08        -0.60576E+06         0.00000E+00
   -0.60576E+06        -0.58613E+08         0.00000E+00
    0.00000E+00         0.00000E+00        -0.32128E+08
 
   -0.41081E+08        -0.74529E+05         0.00000E+00
   -0.74529E+05        -0.58615E+08         0.00000E+00
    0.00000E+00         0.00000E+00        -0.31770E+08
 
   -0.39258E+08         0.55076E+06         0.00000E+00
    0.55076E+06        -0.58757E+08         0.00000E+00
    0.00000E+00         0.00000E+00        -0.31434E+08
 
   -0.37359E+08         0.13103E+07         0.00000E+00
    0.13103E+07        -0.59066E+08         0.00000E+00
    0.00000E+00         0.00000E+00        -0.31115E+08
 
   -0.35354E+08         0.22740E+07         0.00000E+00
    0.22740E+07        -0.59564E+08         0.00000E+00
    0.00000E+00         0.00000E+00        -0.30814E+08
 
   -0.33261E+08         0.35490E+07         0.00000E+00
    0.35490E+07        -0.60253E+08         0.00000E+00
    0.00000E+00         0.00000E+00        -0.30533E+08
 
   -0.31182E+08         0.52616E+07         0.00000E+00
    0.52616E+07        -0.61077E+08         0.00000E+00
    0.00000E+00         0.00000E+00        -0.30282E+08
 
   -0.63591E+08        -0.77517E+06         0.00000E+00
   -0.77517E+06        -0.60007E+08         0.00000E+00
    0.00000E+00         0.00000E+00        -0.34900E+08
 
   -0.59581E+08        -0.16290E+07         0.00000E+00
   -0.16290E+07        -0.59930E+08         0.00000E+00
    0.00000E+00         0.00000E+00        -0.34082E+08
 
   -0.56061E+08        -0.18744E+07         0.00000E+00
   -0.18744E+07        -0.59650E+08         0.00000E+00
    0.00000E+00         0.00000E+00        -0.33322E+08
 
   -0.53081E+08        -0.18340E+07         0.00000E+00
   -0.18340E+07        -0.59221E+08         0.00000E+00
    0.00000E+00         0.00000E+00        -0.32640E+08
 
   -0.50524E+08        -0.16681E+07         0.00000E+00
   -0.16681E+07        -0.58746E+08         0.00000E+00
    0.00000E+00         0.00000E+00        -0.32034E+08
 
   -0.48269E+08        -0.14368E+07         0.00000E+00
   -0.14368E+07        -0.58289E+08         0.00000E+00
    0.00000E+00         0.00000E+00        -0.31491E+08
 
   -0.46220E+08        -0.11632E+07         0.00000E+00
   -0.11632E+07        -0.57893E+08         0.00000E+00
    0.00000E+00         0.00000E+00        -0.31002E+08
 
   -0.44298E+08        -0.85394E+06         0.00000E+00
   -0.85394E+06        -0.57584E+08         0.00000E+00
    0.00000E+00         0.00000E+00        -0.30555E+08
 
   -0.42439E+08        -0.50685E+06         0.00000E+00
   -0.50685E+06        -0.57387E+08         0.00000E+00
    0.00000E+00         0.00000E+00        -0.30144E+08
 
   -0.40581E+08        -0.11229E+06         0.00000E+00
   -0.11229E+06        -0.57323E+08         0.00000E+00
    0.00000E+00         0.00000E+00        -0.29759E+08
 
   -0.38662E+08         0.34876E+06         0.00000E+00
    0.34876E+06        -0.57418E+08         0.00000E+00
    0.00000E+00         0.00000E+00        -0.29394E+08
 
   -0.36615E+08         0.91141E+06         0.00000E+00
    0.91141E+06        -0.57704E+08         0.00000E+00
    0.00000E+00         0.00000E+00        -0.29042E+08
 
   -0.34368E+08         0.16435E+07         0.00000E+00
    0.16435E+07        -0.58226E+08         0.00000E+00
    0.00000E+00         0.00000E+00        -0.28697E+08
 
   -0.31876E+08         0.26881E+07         0.00000E+00
    0.26881E+07        -0.59031E+08         0.00000E+00
    0.00000E+00         0.00000E+00        -0.28359E+08
 
   -0.29228E+08         0.42694E+07         0.00000E+00
    0.42694E+07        -0.60083E+08         0.00000E+00
    0.00000E+00         0.00000E+00        -0.28040E+08
 
   -0.64827E+08        -0.75269E+06         0.00000E+00
   -0.75269E+06        -0.59970E+08         0.00000E+00
    0.00000E+00         0.00000E+00        -0.33473E+08
 
   -0.59940E+08        -0.13115E+07         0.00000E+00
   -0.13115E+07        -0.59664E+08         0.00000E+00
    0.00000E+00         0.00000E+00        -0.32435E+08
 
   -0.56064E+08        -0.13424E+07         0.00000E+00
   -0.13424E+07        -0.59040E+08         0.00000E+00
    0.00000E+00         0.00000E+00        -0.31534E+08
 
   -0.52958E+08        -0.12441E+07         0.00000E+00
   -0.12441E+07        -0.58336E+08         0.00000E+00
    0.00000E+00         0.00000E+00        -0.30772E+08
 
   -0.50343E+08        -0.11003E+07         0.00000E+00
   -0.11003E+07        -0.57658E+08         0.00000E+00
    0.00000E+00         0.00000E+00        -0.30114E+08
 
   -0.48054E+08        -0.93389E+06         0.00000E+00
   -0.93389E+06        -0.57051E+08         0.00000E+00
    0.00000E+00         0.00000E+00        -0.29534E+08
 
   -0.45978E+08        -0.75175E+06         0.00000E+00
   -0.75175E+06        -0.56540E+08         0.00000E+00
    0.00000E+00         0.00000E+00        -0.29017E+08
 
   -0.44031E+08        -0.55412E+06         0.00000E+00
   -0.55412E+06        -0.56144E+08         0.00000E+00
    0.00000E+00         0.00000E+00        -0.28548E+08
 
   -0.42140E+08        -0.33756E+06         0.00000E+00
   -0.33756E+06        -0.55877E+08         0.00000E+00
    0.00000E+00         0.00000E+00        -0.28116E+08
 
   -0.40238E+08        -0.95011E+05         0.00000E+00
   -0.95011E+05        -0.55757E+08         0.00000E+00
    0.00000E+00         0.00000E+00        -0.27712E+08
 
   -0.38255E+08         0.18596E+06         0.00000E+00
    0.18596E+06        -0.55808E+08         0.00000E+00
    0.00000E+00         0.00000E+00        -0.27325E+08
 
   -0.36103E+08         0.52823E+06         0.00000E+00
    0.52823E+06        -0.56063E+08         0.00000E+00
    0.00000E+00         0.00000E+00        -0.26946E+08
 
   -0.33668E+08         0.97827E+06         0.00000E+00
    0.97827E+06        -0.56578E+08         0.00000E+00
    0.00000E+00         0.00000E+00        -0.26562E+08
 
   -0.30768E+08         0.16527E+07         0.00000E+00
    0.16527E+07        -0.57446E+08         0.00000E+00
    0.00000E+00         0.00000E+00        -0.26155E+08
 
   -0.27359E+08         0.29341E+07         0.00000E+00
    0.29341E+07        -0.58801E+08         0.00000E+00
    0.00000E+00         0.00000E+00        -0.25744E+08
 
   -0.65721E+08        -0.47216E+06         0.00000E+00
   -0.47216E+06        -0.59658E+08         0.00000E+00
    0.00000E+00         0.00000E+00        -0.31915E+08
 
   -0.59994E+08        -0.54165E+06         0.00000E+00
   -0.54165E+06        -0.58791E+08         0.00000E+00
    0.00000E+00         0.00000E+00        -0.30596E+08
 
   -0.56009E+08        -0.49632E+06         0.00000E+00
   -0.49632E+06        -0.57821E+08         0.00000E+00
    0.00000E+00         0.00000E+00        -0.29605E+08
 
   -0.52865E+08        -0.44369E+06         0.00000E+00
   -0.44369E+06        -0.56912E+08         0.00000E+00
    0.00000E+00         0.00000E+00        -0.28794E+08
 
   -0.50233E+08        -0.38562E+06         0.00000E+00
   -0.38562E+06        -0.56101E+08         0.00000E+00
    0.00000E+00         0.00000E+00        -0.28106E+08
 
   -0.47935E+08        -0.32448E+06         0.00000E+00
   -0.32448E+06        -0.55403E+08         0.00000E+00
    0.00000E+00         0.00000E+00        -0.27506E+08
 
   -0.45850E+08        -0.26028E+06         0.00000E+00
   -0.26028E+06        -0.54826E+08         0.00000E+00
    0.00000E+00         0.00000E+00        -0.26974E+08
 
   -0.43892E+08        -0.19216E+06         0.00000E+00
   -0.19216E+06        -0.54380E+08         0.00000E+00
    0.00000E+00         0.00000E+00        -0.26493E+08
 
   -0.41987E+08        -0.11852E+06         0.00000E+00
   -0.11852E+06        -0.54074E+08         0.00000E+00
    0.00000E+00         0.00000E+00        -0.26051E+08
 
   -0.40065E+08        -0.36753E+05         0.00000E+00
   -0.36753E+05        -0.53923E+08         0.00000E+00
    0.00000E+00         0.00000E+00        -0.25636E+08
 
   -0.38049E+08         0.57401E+05         0.00000E+00
    0.57401E+05        -0.53946E+08         0.00000E+00
    0.00000E+00         0.00000E+00        -0.25238E+08
 
   -0.35845E+08         0.17156E+06         0.00000E+00
    0.17156E+06        -0.54177E+08         0.00000E+00
    0.00000E+00         0.00000E+00        -0.24843E+08
 
   -0.33309E+08         0.32206E+06         0.00000E+00
    0.32206E+06        -0.54671E+08         0.00000E+00
    0.00000E+00         0.00000E+00        -0.24434E+08
 
   -0.30186E+08         0.54578E+06         0.00000E+00
    0.54578E+06        -0.55539E+08         0.00000E+00
    0.00000E+00         0.00000E+00        -0.23983E+08
 
   -0.25753E+08         0.10819E+07         0.00000E+00
    0.10819E+07        -0.57086E+08         0.00000E+00
    0.00000E+00         0.00000E+00        -0.23406E+08
 
SCALARS stressS double 
LOOKUP_TABLE default
  -55069777.1696574     
  -56614617.5507124     
  -58816670.2982370     
  -61199359.0317491     
  -63403649.8382853     
  -65223015.3098257     
  -66610358.1716457     
  -67778506.2524323     
  -68806367.1775880     
  -69742387.4271769     
  -70623421.7817302     
  -71484823.4404077     
  -72370100.6515310     
  -73347030.9195537     
  -74608465.4671021     
  -56926148.7456573     
  -58227187.9662264     
  -59747794.1214706     
  -61178835.6469195     
  -62546862.3550601     
  -63948802.0477730     
  -65213539.8247644     
  -66315281.9924765     
  -67300157.0872580     
  -68202153.8754188     
  -69050528.2582315     
  -69873421.5863095     
  -70701170.5287132     
  -71574787.2408208     
  -72454693.4395816     
  -57763027.8560089     
  -58837746.6443162     
  -59665438.1503271     
  -60640501.9649422     
  -61778341.5645932     
  -62906842.1579434     
  -63986503.5934581     
  -64980899.3566757     
  -65889981.1496897     
  -66730258.0234152     
  -67519375.7192737     
  -68274289.4182959     
  -69009957.0577167     
  -69723919.5865854     
  -70393131.3255485     
  -57519161.8609570     
  -58336726.3578925     
  -59204735.8371952     
  -60087115.3665174     
  -61015602.6428837     
  -61963820.3871123     
  -62884791.2234819     
  -63757609.0239883     
  -64573175.8298897     
  -65333726.2376787     
  -66046282.0551709     
  -66717568.4185187     
  -67349006.6065139     
  -67932630.8089570     
  -68445744.2149165     
  -57201051.5949622     
  -57951314.5696504     
  -58706979.9121987     
  -59486425.1479281     
  -60282042.9241394     
  -61083283.2796871     
  -61871263.1887447     
  -62628248.3862790     
  -63344865.4204210     
  -64017441.8166398     
  -64645612.8013257     
  -65228776.5369317     
  -65762850.3991149     
  -66237281.0960671     
  -66633819.6217047     
  -56939251.3069123     
  -57578574.0010816     
  -58230850.6366128     
  -58898065.4449550     
  -59577197.8338111     
  -60258467.2341474     
  -60930088.7425701     
  -61580435.2324649     
  -62200393.2422596     
  -62784030.7514340     
  -63327103.6376233     
  -63825150.0725194     
  -64271433.6502871     
  -64655411.3853270     
  -64962065.9904015     
  -56713988.6399485     
  -57234229.9212217     
  -57777871.0082316     
  -58339037.2087968     
  -58911161.2318418     
  -59486088.5379216     
  -60054416.5763943     
  -60606960.7172923     
  -61135648.0995995     
  -61633754.7139954     
  -62095379.7515291     
  -62514357.8073640     
  -62883131.8299839     
  -63191898.3160149     
  -63428336.9635080     
  -56503967.8826536     
  -56911645.2001241     
  -57351288.4455777     
  -57812435.0860239     
  -58286427.7266820     
  -58764922.5788148     
  -59239641.6925891     
  -59702601.7182328     
  -60146446.1959331     
  -60564477.6715961     
  -60950340.1982151     
  -61297454.6802438     
  -61598399.5666456     
  -61844470.3065263     
  -62025574.4455312     
  -56294433.2556527     
  -56602966.3723301     
  -56947912.8713941     
  -57317287.4163141     
  -57701456.3945219     
  -58092029.6165626     
  -58481297.5817586     
  -58862072.0711052     
  -59227648.0624354     
  -59571715.8285425     
  -59888138.2166661     
  -60170625.6554244     
  -60412406.8649775     
  -60606009.7033427     
  -60743246.9327966     
  -56076955.4201852     
  -56301542.8860299     
  -56563111.9601334     
  -56849923.6251514     
  -57152509.6826737     
  -57462861.1351088     
  -57773900.8949474     
  -58079183.5108329     
  -58372721.0404428     
  -58648832.6112617     
  -58901968.5284057     
  -59126511.4793729     
  -59316598.3739805     
  -59466021.6201166     
  -59568258.4844171     
  -55847521.1466529     
  -56002758.4678077     
  -56192272.2907996     
  -56405682.9447564     
  -56634514.0526903     
  -56871638.9268597     
  -57110856.3150573     
  -57346596.4344678     
  -57573717.4445296     
  -57787347.7512230     
  -57982744.9318265     
  -58155168.3524564     
  -58299783.7099314     
  -58411627.5946067     
  -58485656.5955982     
  -55605286.3832413     
  -55703842.6348966     
  -55831429.9596933     
  -55979702.5747680     
  -56141753.8151610     
  -56311757.0998136     
  -56484661.0825626     
  -56655953.2567718     
  -56821483.5699525     
  -56977330.3289128     
  -57119694.8347882     
  -57244821.6009656     
  -57348951.5313844     
  -57428320.9138802     
  -57479217.8595480     
  -55351655.3178426     
  -55403558.2246987     
  -55477418.0699045     
  -55567321.1986274     
  -55668307.5264617     
  -55776159.3014236     
  -55887205.1783244     
  -55998157.3599398     
  -56105985.2385128     
  -56207821.2950844     
  -56300893.9858427     
  -56382485.8066252     
  -56449919.2084557     
  -56500575.8638673     
  -56531954.5773986     
  -55089619.3663362     
  -55101876.0256839     
  -55127845.5342281     
  -55164258.2115359     
  -55208325.5081519     
  -55257640.4367197     
  -55310074.5163375     
  -55363688.0391256     
  -55416661.1144948     
  -55467246.5842819     
  -55513743.2736133     
  -55554488.3052264     
  -55587868.8319018     
  -55612355.0110974     
  -55626556.4766064     
  -54823255.7501231     
  -54799682.1546825     
  -54781003.2370524     
  -54766676.4128086     
  -54756194.7833418     
  -54749071.3092789     
  -54744812.2450205     
  -54742894.5696694     
  -54742755.0013351     
  -54743792.7034469     
  -54745384.6541272     
  -54746911.6823805     
  -54747793.6486753     
  -54747533.3270822     
  -54745769.6232182     
  -54557329.3743818     
  -54498515.2689294     
  -54435736.8883989     
  -54371172.7321697     
  -54306621.9287480     
  -54243549.3855655     
  -54183121.1152273     
  -54126242.0334124     
  -54073601.8863867     
  -54025729.6910316     
  -53983053.7821905     
  -53945963.2749080     
  -53914867.0621734     
  -53890247.8257699     
  -53872710.4501388     
  -54296961.9599728     
  -54200323.9996513     
  -54091296.9667199     
  -53974716.0083823     
  -53854648.4642504     
  -53734480.3549504     
  -53617001.4188714     
  -53504498.2482358     
  -53398857.6100031     
  -53301676.3563928     
  -53214370.9722931     
  -53138278.7245861     
  -53074743.1770205     
  -53025179.0026707     
  -52991114.0770591     
  -54047346.4073425     
  -53907233.7889176     
  -53747165.3934980     
  -53574537.1029758     
  -53395604.6726351     
  -53215593.5478804     
  -53038824.3716630     
  -52868860.1765018     
  -52708671.6785866     
  -52560810.5305141     
  -52427577.1307678     
  -52311169.2096600     
  -52213799.2538380     
  -52137772.3060528     
  -52085520.2777202     
  -53813492.2871695     
  -53621312.6464730     
  -53402852.7321821     
  -53167968.7442654     
  -52925001.4820092     
  -52680892.0758275     
  -52441342.7968126     
  -52211023.2353675     
  -51993809.0865339     
  -51793033.2631416     
  -51611726.5657056     
  -51452826.2381070     
  -51319334.2065793     
  -51214411.9859255     
  -51141405.8761090     
  -53599992.7935774     
  -53344324.0274603     
  -53057654.1246390     
  -52752225.3646400     
  -52438354.1310754     
  -52124535.5360121     
  -51817641.2404654     
  -51523199.8654088     
  -51245731.5871799     
  -50989101.1797545     
  -50756853.9626177     
  -50552503.1226590     
  -50379742.3746342     
  -50242564.8400347     
  -50145277.9772460     
  -53410805.2217650     
  -53077450.2550857     
  -52710343.4049050     
  -52324103.7471526     
  -51930923.9613264     
  -51540649.1830916     
  -51161027.1312109     
  -50798095.8270314     
  -50456652.7060782     
  -50140746.1767727     
  -49854138.5505538     
  -49600698.4558685     
  -49384688.0745856     
  -49210917.2654663     
  -49084747.7391669     
  -53249035.5188769     
  -52820958.6593825     
  -52358768.9978099     
  -51879570.5473868     
  -51397354.6803921     
  -50923049.0642632     
  -50464864.5244967     
  -50028855.1627673     
  -49619584.6110479     
  -49240806.6452063     
  -48896094.8691215     
  -48589374.6490269     
  -48325314.5596347     
  -48109536.1435386     
  -47948609.2335751     
  -53116710.2072222     
  -52573758.4329425     
  -51999285.6901258     
  -51413178.8289419     
  -50831166.6619670     
  -50264869.9471970     
  -49722354.8861021     
  -49208988.9530348     
  -48728398.8969507     
  -48283398.8568774     
  -47876826.7396346     
  -47512254.8707995     
  -47194533.2172282     
  -46930094.1347400     
  -46726952.8093574     
  -53014498.8284820     
  -52332744.6379637     
  -51625899.3641383     
  -50917217.3914153     
  -50224060.2395679     
  -49558088.5799912     
  -48926280.5711065     
  -48332310.7215949     
  -47777925.4161398     
  -47264158.8975075     
  -46792386.9106058     
  -46365257.4996901     
  -45987458.9002586     
  -45666218.7462644     
  -45411348.3284634     
  -52941301.5269367     
  -52091707.2676243     
  -51228889.3261782     
  -50380438.0623501     
  -49564979.9153782     
  -48792966.4496472     
  -48068755.9938608     
  -47392912.8848422     
  -46764109.5467876     
  -46180573.2324543     
  -45641288.9720138     
  -45147145.4653384     
  -44702102.4268558     
  -44314059.6871927     
  -43995149.3093833     
  -52893469.0942905     
  -51839305.2273473     
  -50792433.3602929     
  -49786138.7900600     
  -48838956.1773959     
  -47957527.6905357     
  -47141094.3627693     
  -46385231.4669252     
  -45684218.6226572     
  -45032387.0400846     
  -44425177.7066507     
  -43860522.9288856     
  -43340491.1673227     
  -42873288.3334276     
  -42473989.3846445     
  -52863067.5414375     
  -51554761.9485782     
  -50290305.6326504     
  -49109416.1183286     
  -48025996.3615094     
  -47037425.9800947     
  -46133960.2283025     
  -45304249.7006372     
  -44537053.7235698     
  -43821920.1754400     
  -43149657.4942795     
  -42513193.3949829     
  -41910745.4209309     
  -41348847.5920441     
  -40846755.3502140     
  -52832374.6870207     
  -51197858.1328573     
  -49677836.1185163     
  -48314071.8778940     
  -47101340.2071999     
  -46016661.4967160     
  -45038018.8851039     
  -44145872.3115873     
  -43323057.8845595     
  -42554084.6124077     
  -41824460.9727593     
  -41120536.8170650     
  -40430057.9265078     
  -39755546.1433410     
  -39117022.1364177     
  -52756634.9381821     
  -50679488.4773138     
  -48879495.7575722     
  -47355562.5925087     
  -46038073.3132317     
  -44879669.0960868     
  -43845160.5849759     
  -42907450.4214312     
  -42044240.3759827     
  -41235725.6890734     
  -40462644.5349485     
  -39704141.6395425     
  -38935898.9555294     
  -38123289.1738063     
  -37301334.4084947     
  -52431146.3863837     
  -49793559.6294540     
  -47811651.4401540     
  -46190027.6954823     
  -44813274.5636397     
  -43614540.4596816     
  -42550151.1731614     
  -41588363.7194280     
  -40703873.5769246     
  -39874369.6419163     
  -39077679.7257764     
  -38288375.2254957     
  -37471502.9167949     
  -36569575.7598453     
  -35415249.2419184     
SCALARS 2waySource double 
LOOKUP_TABLE default
  0.000000000000000E+000
  0.000000000000000E+000
  0.000000000000000E+000
  0.000000000000000E+000
  0.000000000000000E+000
  0.000000000000000E+000
  0.000000000000000E+000
  0.000000000000000E+000
  0.000000000000000E+000
  0.000000000000000E+000
  0.000000000000000E+000
  0.000000000000000E+000
  0.000000000000000E+000
  0.000000000000000E+000
  0.000000000000000E+000
  0.000000000000000E+000
  0.000000000000000E+000
  0.000000000000000E+000
  0.000000000000000E+000
  0.000000000000000E+000
  0.000000000000000E+000
  0.000000000000000E+000
  0.000000000000000E+000
  0.000000000000000E+000
  0.000000000000000E+000
  0.000000000000000E+000
  0.000000000000000E+000
  0.000000000000000E+000
  0.000000000000000E+000
  0.000000000000000E+000
  0.000000000000000E+000
  0.000000000000000E+000
  0.000000000000000E+000
  0.000000000000000E+000
  0.000000000000000E+000
  0.000000000000000E+000
  0.000000000000000E+000
  0.000000000000000E+000
  0.000000000000000E+000
  0.000000000000000E+000
  0.000000000000000E+000
  0.000000000000000E+000
  0.000000000000000E+000
  0.000000000000000E+000
  0.000000000000000E+000
  0.000000000000000E+000
  0.000000000000000E+000
  0.000000000000000E+000
  0.000000000000000E+000
  0.000000000000000E+000
  0.000000000000000E+000
  0.000000000000000E+000
  0.000000000000000E+000
  0.000000000000000E+000
  0.000000000000000E+000
  0.000000000000000E+000
  0.000000000000000E+000
  0.000000000000000E+000
  0.000000000000000E+000
  0.000000000000000E+000
  0.000000000000000E+000
  0.000000000000000E+000
  0.000000000000000E+000
  0.000000000000000E+000
  0.000000000000000E+000
  0.000000000000000E+000
  0.000000000000000E+000
  0.000000000000000E+000
  0.000000000000000E+000
  0.000000000000000E+000
  0.000000000000000E+000
  0.000000000000000E+000
  0.000000000000000E+000
  0.000000000000000E+000
  0.000000000000000E+000
  0.000000000000000E+000
  0.000000000000000E+000
  0.000000000000000E+000
  0.000000000000000E+000
  0.000000000000000E+000
  0.000000000000000E+000
  0.000000000000000E+000
  0.000000000000000E+000
  0.000000000000000E+000
  0.000000000000000E+000
  0.000000000000000E+000
  0.000000000000000E+000
  0.000000000000000E+000
  0.000000000000000E+000
  0.000000000000000E+000
  0.000000000000000E+000
  0.000000000000000E+000
  0.000000000000000E+000
  0.000000000000000E+000
  0.000000000000000E+000
  0.000000000000000E+000
  0.000000000000000E+000
  0.000000000000000E+000
  0.000000000000000E+000
  0.000000000000000E+000
  0.000000000000000E+000
  0.000000000000000E+000
  0.000000000000000E+000
  0.000000000000000E+000
  0.000000000000000E+000
  0.000000000000000E+000
  0.000000000000000E+000
  0.000000000000000E+000
  0.000000000000000E+000
  0.000000000000000E+000
  0.000000000000000E+000
  0.000000000000000E+000
  0.000000000000000E+000
  0.000000000000000E+000
  0.000000000000000E+000
  0.000000000000000E+000
  0.000000000000000E+000
  0.000000000000000E+000
  0.000000000000000E+000
  0.000000000000000E+000
  0.000000000000000E+000
  0.000000000000000E+000
  0.000000000000000E+000
  0.000000000000000E+000
  0.000000000000000E+000
  0.000000000000000E+000
  0.000000000000000E+000
  0.000000000000000E+000
  0.000000000000000E+000
  0.000000000000000E+000
  0.000000000000000E+000
  0.000000000000000E+000
  0.000000000000000E+000
  0.000000000000000E+000
  0.000000000000000E+000
  0.000000000000000E+000
  0.000000000000000E+000
  0.000000000000000E+000
  0.000000000000000E+000
  0.000000000000000E+000
  0.000000000000000E+000
  0.000000000000000E+000
  0.000000000000000E+000
  0.000000000000000E+000
  0.000000000000000E+000
  0.000000000000000E+000
  0.000000000000000E+000
  0.000000000000000E+000
  0.000000000000000E+000
  0.000000000000000E+000
  0.000000000000000E+000
  0.000000000000000E+000
  0.000000000000000E+000
  0.000000000000000E+000
  0.000000000000000E+000
  0.000000000000000E+000
  0.000000000000000E+000
  0.000000000000000E+000
  0.000000000000000E+000
  0.000000000000000E+000
  0.000000000000000E+000
  0.000000000000000E+000
  0.000000000000000E+000
  0.000000000000000E+000
  0.000000000000000E+000
  0.000000000000000E+000
  0.000000000000000E+000
  0.000000000000000E+000
  0.000000000000000E+000
  0.000000000000000E+000
  0.000000000000000E+000
  0.000000000000000E+000
  0.000000000000000E+000
  0.000000000000000E+000
  0.000000000000000E+000
  0.000000000000000E+000
  0.000000000000000E+000
  0.000000000000000E+000
  0.000000000000000E+000
  0.000000000000000E+000
  0.000000000000000E+000
  0.000000000000000E+000
  0.000000000000000E+000
  0.000000000000000E+000
  0.000000000000000E+000
  0.000000000000000E+000
  0.000000000000000E+000
  0.000000000000000E+000
  0.000000000000000E+000
  0.000000000000000E+000
  0.000000000000000E+000
  0.000000000000000E+000
  0.000000000000000E+000
  0.000000000000000E+000
  0.000000000000000E+000
  0.000000000000000E+000
  0.000000000000000E+000
  0.000000000000000E+000
  0.000000000000000E+000
  0.000000000000000E+000
  0.000000000000000E+000
  0.000000000000000E+000
  0.000000000000000E+000
  0.000000000000000E+000
  0.000000000000000E+000
  0.000000000000000E+000
  0.000000000000000E+000
  0.000000000000000E+000
  0.000000000000000E+000
  0.000000000000000E+000
  0.000000000000000E+000
  0.000000000000000E+000
  0.000000000000000E+000
  0.000000000000000E+000
  0.000000000000000E+000
  0.000000000000000E+000
  0.000000000000000E+000
  0.000000000000000E+000
  0.000000000000000E+000
  0.000000000000000E+000
  0.000000000000000E+000
  0.000000000000000E+000
  0.000000000000000E+000
  0.000000000000000E+000
  0.000000000000000E+000
  0.000000000000000E+000
  0.000000000000000E+000
  0.000000000000000E+000
  0.000000000000000E+000
  0.000000000000000E+000
  0.000000000000000E+000
  0.000000000000000E+000
  0.000000000000000E+000
  0.000000000000000E+000
  0.000000000000000E+000
  0.000000000000000E+000
  0.000000000000000E+000
  0.000000000000000E+000
  0.000000000000000E+000
  0.000000000000000E+000
  0.000000000000000E+000
  0.000000000000000E+000
  0.000000000000000E+000
  0.000000000000000E+000
  0.000000000000000E+000
  0.000000000000000E+000
  0.000000000000000E+000
  0.000000000000000E+000
  0.000000000000000E+000
  0.000000000000000E+000
  0.000000000000000E+000
  0.000000000000000E+000
  0.000000000000000E+000
  0.000000000000000E+000
  0.000000000000000E+000
  0.000000000000000E+000
  0.000000000000000E+000
  0.000000000000000E+000
  0.000000000000000E+000
  0.000000000000000E+000
  0.000000000000000E+000
  0.000000000000000E+000
  0.000000000000000E+000
  0.000000000000000E+000
  0.000000000000000E+000
  0.000000000000000E+000
  0.000000000000000E+000
  0.000000000000000E+000
  0.000000000000000E+000
  0.000000000000000E+000
  0.000000000000000E+000
  0.000000000000000E+000
  0.000000000000000E+000
  0.000000000000000E+000
  0.000000000000000E+000
  0.000000000000000E+000
  0.000000000000000E+000
  0.000000000000000E+000
  0.000000000000000E+000
  0.000000000000000E+000
  0.000000000000000E+000
  0.000000000000000E+000
  0.000000000000000E+000
  0.000000000000000E+000
  0.000000000000000E+000
  0.000000000000000E+000
  0.000000000000000E+000
  0.000000000000000E+000
  0.000000000000000E+000
  0.000000000000000E+000
  0.000000000000000E+000
  0.000000000000000E+000
  0.000000000000000E+000
  0.000000000000000E+000
  0.000000000000000E+000
  0.000000000000000E+000
  0.000000000000000E+000
  0.000000000000000E+000
  0.000000000000000E+000
  0.000000000000000E+000
  0.000000000000000E+000
  0.000000000000000E+000
  0.000000000000000E+000
  0.000000000000000E+000
  0.000000000000000E+000
  0.000000000000000E+000
  0.000000000000000E+000
  0.000000000000000E+000
  0.000000000000000E+000
  0.000000000000000E+000
  0.000000000000000E+000
  0.000000000000000E+000
  0.000000000000000E+000
  0.000000000000000E+000
  0.000000000000000E+000
  0.000000000000000E+000
  0.000000000000000E+000
  0.000000000000000E+000
  0.000000000000000E+000
  0.000000000000000E+000
  0.000000000000000E+000
  0.000000000000000E+000
  0.000000000000000E+000
  0.000000000000000E+000
  0.000000000000000E+000
  0.000000000000000E+000
  0.000000000000000E+000
  0.000000000000000E+000
  0.000000000000000E+000
  0.000000000000000E+000
  0.000000000000000E+000
  0.000000000000000E+000
  0.000000000000000E+000
  0.000000000000000E+000
  0.000000000000000E+000
  0.000000000000000E+000
  0.000000000000000E+000
  0.000000000000000E+000
  0.000000000000000E+000
  0.000000000000000E+000
  0.000000000000000E+000
  0.000000000000000E+000
  0.000000000000000E+000
  0.000000000000000E+000
  0.000000000000000E+000
  0.000000000000000E+000
  0.000000000000000E+000
  0.000000000000000E+000
  0.000000000000000E+000
  0.000000000000000E+000
  0.000000000000000E+000
  0.000000000000000E+000
  0.000000000000000E+000
  0.000000000000000E+000
  0.000000000000000E+000
  0.000000000000000E+000
  0.000000000000000E+000
  0.000000000000000E+000
  0.000000000000000E+000
  0.000000000000000E+000
  0.000000000000000E+000
  0.000000000000000E+000
  0.000000000000000E+000
  0.000000000000000E+000
  0.000000000000000E+000
  0.000000000000000E+000
  0.000000000000000E+000
  0.000000000000000E+000
  0.000000000000000E+000
  0.000000000000000E+000
  0.000000000000000E+000
  0.000000000000000E+000
  0.000000000000000E+000
  0.000000000000000E+000
  0.000000000000000E+000
  0.000000000000000E+000
  0.000000000000000E+000
  0.000000000000000E+000
  0.000000000000000E+000
  0.000000000000000E+000
  0.000000000000000E+000
  0.000000000000000E+000
  0.000000000000000E+000
  0.000000000000000E+000
  0.000000000000000E+000
  0.000000000000000E+000
  0.000000000000000E+000
  0.000000000000000E+000
  0.000000000000000E+000
  0.000000000000000E+000
  0.000000000000000E+000
  0.000000000000000E+000
  0.000000000000000E+000
  0.000000000000000E+000
  0.000000000000000E+000
  0.000000000000000E+000
  0.000000000000000E+000
  0.000000000000000E+000
  0.000000000000000E+000
  0.000000000000000E+000
  0.000000000000000E+000
  0.000000000000000E+000
  0.000000000000000E+000
  0.000000000000000E+000
  0.000000000000000E+000
  0.000000000000000E+000
  0.000000000000000E+000
  0.000000000000000E+000
  0.000000000000000E+000
  0.000000000000000E+000
  0.000000000000000E+000
  0.000000000000000E+000
  0.000000000000000E+000
  0.000000000000000E+000
  0.000000000000000E+000
  0.000000000000000E+000
  0.000000000000000E+000
  0.000000000000000E+000
  0.000000000000000E+000
  0.000000000000000E+000
  0.000000000000000E+000
  0.000000000000000E+000
  0.000000000000000E+000
  0.000000000000000E+000
  0.000000000000000E+000
  0.000000000000000E+000
  0.000000000000000E+000
  0.000000000000000E+000
  0.000000000000000E+000
  0.000000000000000E+000
  0.000000000000000E+000
  0.000000000000000E+000
  0.000000000000000E+000
  0.000000000000000E+000
  0.000000000000000E+000
  0.000000000000000E+000
  0.000000000000000E+000
  0.000000000000000E+000
  0.000000000000000E+000
  0.000000000000000E+000
  0.000000000000000E+000
  0.000000000000000E+000
  0.000000000000000E+000
  0.000000000000000E+000
  0.000000000000000E+000
  0.000000000000000E+000
  0.000000000000000E+000
  0.000000000000000E+000
  0.000000000000000E+000
  0.000000000000000E+000
SCALARS poroP double 
LOOKUP_TABLE default
  4.324036093766150E-005
  2.758120039050942E-005
  1.526907578473906E-005
  5.405027793143168E-006
  3.712006832139319E-008
  0.000000000000000E+000
  0.000000000000000E+000
  0.000000000000000E+000
  0.000000000000000E+000
  0.000000000000000E+000
  0.000000000000000E+000
  0.000000000000000E+000
  0.000000000000000E+000
  0.000000000000000E+000
  0.000000000000000E+000
  1.921536139198429E-005
  1.010434241940217E-005
  2.498881516267321E-006
  0.000000000000000E+000
  0.000000000000000E+000
  0.000000000000000E+000
  0.000000000000000E+000
  0.000000000000000E+000
  0.000000000000000E+000
  0.000000000000000E+000
  0.000000000000000E+000
  0.000000000000000E+000
  0.000000000000000E+000
  0.000000000000000E+000
  0.000000000000000E+000
  2.845860480863958E-006
  0.000000000000000E+000
  0.000000000000000E+000
  0.000000000000000E+000
  0.000000000000000E+000
  0.000000000000000E+000
  0.000000000000000E+000
  0.000000000000000E+000
  0.000000000000000E+000
  0.000000000000000E+000
  0.000000000000000E+000
  0.000000000000000E+000
  0.000000000000000E+000
  0.000000000000000E+000
  0.000000000000000E+000
  0.000000000000000E+000
  0.000000000000000E+000
  0.000000000000000E+000
  0.000000000000000E+000
  0.000000000000000E+000
  0.000000000000000E+000
  0.000000000000000E+000
  0.000000000000000E+000
  0.000000000000000E+000
  0.000000000000000E+000
  0.000000000000000E+000
  0.000000000000000E+000
  0.000000000000000E+000
  0.000000000000000E+000
  0.000000000000000E+000
  0.000000000000000E+000
  0.000000000000000E+000
  0.000000000000000E+000
  0.000000000000000E+000
  0.000000000000000E+000
  0.000000000000000E+000
  0.000000000000000E+000
  0.000000000000000E+000
  0.000000000000000E+000
  0.000000000000000E+000
  0.000000000000000E+000
  0.000000000000000E+000
  0.000000000000000E+000
  0.000000000000000E+000
  0.000000000000000E+000
  0.000000000000000E+000
  0.000000000000000E+000
  0.000000000000000E+000
  0.000000000000000E+000
  0.000000000000000E+000
  0.000000000000000E+000
  0.000000000000000E+000
  0.000000000000000E+000
  0.000000000000000E+000
  0.000000000000000E+000
  0.000000000000000E+000
  0.000000000000000E+000
  0.000000000000000E+000
  0.000000000000000E+000
  0.000000000000000E+000
  0.000000000000000E+000
  0.000000000000000E+000
  0.000000000000000E+000
  0.000000000000000E+000
  0.000000000000000E+000
  0.000000000000000E+000
  0.000000000000000E+000
  0.000000000000000E+000
  0.000000000000000E+000
  0.000000000000000E+000
  0.000000000000000E+000
  0.000000000000000E+000
  0.000000000000000E+000
  0.000000000000000E+000
  0.000000000000000E+000
  0.000000000000000E+000
  0.000000000000000E+000
  0.000000000000000E+000
  0.000000000000000E+000
  0.000000000000000E+000
  0.000000000000000E+000
  0.000000000000000E+000
  0.000000000000000E+000
  0.000000000000000E+000
  0.000000000000000E+000
  0.000000000000000E+000
  0.000000000000000E+000
  0.000000000000000E+000
  0.000000000000000E+000
  0.000000000000000E+000
  0.000000000000000E+000
  0.000000000000000E+000
  0.000000000000000E+000
  0.000000000000000E+000
  0.000000000000000E+000
  0.000000000000000E+000
  0.000000000000000E+000
  0.000000000000000E+000
  0.000000000000000E+000
  0.000000000000000E+000
  0.000000000000000E+000
  0.000000000000000E+000
  0.000000000000000E+000
  0.000000000000000E+000
  0.000000000000000E+000
  0.000000000000000E+000
  0.000000000000000E+000
  0.000000000000000E+000
  0.000000000000000E+000
  0.000000000000000E+000
  0.000000000000000E+000
  0.000000000000000E+000
  0.000000000000000E+000
  0.000000000000000E+000
  0.000000000000000E+000
  0.000000000000000E+000
  0.000000000000000E+000
  0.000000000000000E+000
  0.000000000000000E+000
  0.000000000000000E+000
  0.000000000000000E+000
  0.000000000000000E+000
  0.000000000000000E+000
  0.000000000000000E+000
  0.000000000000000E+000
  0.000000000000000E+000
  0.000000000000000E+000
  0.000000000000000E+000
  0.000000000000000E+000
  0.000000000000000E+000
  0.000000000000000E+000
  0.000000000000000E+000
  0.000000000000000E+000
  0.000000000000000E+000
  0.000000000000000E+000
  0.000000000000000E+000
  0.000000000000000E+000
  0.000000000000000E+000
  0.000000000000000E+000
  0.000000000000000E+000
  0.000000000000000E+000
  0.000000000000000E+000
  0.000000000000000E+000
  0.000000000000000E+000
  0.000000000000000E+000
  0.000000000000000E+000
  0.000000000000000E+000
  0.000000000000000E+000
  0.000000000000000E+000
  0.000000000000000E+000
  0.000000000000000E+000
  0.000000000000000E+000
  0.000000000000000E+000
  0.000000000000000E+000
  0.000000000000000E+000
  0.000000000000000E+000
  0.000000000000000E+000
  0.000000000000000E+000
  0.000000000000000E+000
  0.000000000000000E+000
  0.000000000000000E+000
  0.000000000000000E+000
  0.000000000000000E+000
  0.000000000000000E+000
  0.000000000000000E+000
  0.000000000000000E+000
  0.000000000000000E+000
  0.000000000000000E+000
  0.000000000000000E+000
  0.000000000000000E+000
  0.000000000000000E+000
  0.000000000000000E+000
  0.000000000000000E+000
  0.000000000000000E+000
  0.000000000000000E+000
  0.000000000000000E+000
  0.000000000000000E+000
  0.000000000000000E+000
  0.000000000000000E+000
  0.000000000000000E+000
  0.000000000000000E+000
  0.000000000000000E+000
  0.000000000000000E+000
  0.000000000000000E+000
  0.000000000000000E+000
  0.000000000000000E+000
  0.000000000000000E+000
  0.000000000000000E+000
  0.000000000000000E+000
  0.000000000000000E+000
  0.000000000000000E+000
  0.000000000000000E+000
  0.000000000000000E+000
  0.000000000000000E+000
  0.000000000000000E+000
  0.000000000000000E+000
  0.000000000000000E+000
  0.000000000000000E+000
  0.000000000000000E+000
  0.000000000000000E+000
  0.000000000000000E+000
  0.000000000000000E+000
  0.000000000000000E+000
  0.000000000000000E+000
  0.000000000000000E+000
  0.000000000000000E+000
  0.000000000000000E+000
  0.000000000000000E+000
  0.000000000000000E+000
  0.000000000000000E+000
  0.000000000000000E+000
  0.000000000000000E+000
  0.000000000000000E+000
  0.000000000000000E+000
  0.000000000000000E+000
  0.000000000000000E+000
  0.000000000000000E+000
  0.000000000000000E+000
  0.000000000000000E+000
  0.000000000000000E+000
  0.000000000000000E+000
  0.000000000000000E+000
  0.000000000000000E+000
  0.000000000000000E+000
  0.000000000000000E+000
  0.000000000000000E+000
  0.000000000000000E+000
  0.000000000000000E+000
  0.000000000000000E+000
  0.000000000000000E+000
  0.000000000000000E+000
  0.000000000000000E+000
  0.000000000000000E+000
  0.000000000000000E+000
  0.000000000000000E+000
  0.000000000000000E+000
  0.000000000000000E+000
  0.000000000000000E+000
  0.000000000000000E+000
  0.000000000000000E+000
  0.000000000000000E+000
  0.000000000000000E+000
  0.000000000000000E+000
  0.000000000000000E+000
  0.000000000000000E+000
  0.000000000000000E+000
  0.000000000000000E+000
  0.000000000000000E+000
  0.000000000000000E+000
  0.000000000000000E+000
  0.000000000000000E+000
  0.000000000000000E+000
  0.000000000000000E+000
  0.000000000000000E+000
  0.000000000000000E+000
  0.000000000000000E+000
  0.000000000000000E+000
  0.000000000000000E+000
  0.000000000000000E+000
  0.000000000000000E+000
  0.000000000000000E+000
  0.000000000000000E+000
  0.000000000000000E+000
  0.000000000000000E+000
  0.000000000000000E+000
  0.000000000000000E+000
  0.000000000000000E+000
  0.000000000000000E+000
  0.000000000000000E+000
  0.000000000000000E+000
  0.000000000000000E+000
  0.000000000000000E+000
  0.000000000000000E+000
  0.000000000000000E+000
  0.000000000000000E+000
  0.000000000000000E+000
  0.000000000000000E+000
  0.000000000000000E+000
  0.000000000000000E+000
  0.000000000000000E+000
  0.000000000000000E+000
  0.000000000000000E+000
  0.000000000000000E+000
  0.000000000000000E+000
  0.000000000000000E+000
  0.000000000000000E+000
  0.000000000000000E+000
  0.000000000000000E+000
  0.000000000000000E+000
  0.000000000000000E+000
  0.000000000000000E+000
  0.000000000000000E+000
  0.000000000000000E+000
  0.000000000000000E+000
  0.000000000000000E+000
  0.000000000000000E+000
  0.000000000000000E+000
  0.000000000000000E+000
  0.000000000000000E+000
  0.000000000000000E+000
  0.000000000000000E+000
  0.000000000000000E+000
  0.000000000000000E+000
  0.000000000000000E+000
  0.000000000000000E+000
  0.000000000000000E+000
  0.000000000000000E+000
  0.000000000000000E+000
  0.000000000000000E+000
  0.000000000000000E+000
  0.000000000000000E+000
  0.000000000000000E+000
  0.000000000000000E+000
  0.000000000000000E+000
  0.000000000000000E+000
  0.000000000000000E+000
  0.000000000000000E+000
  0.000000000000000E+000
  0.000000000000000E+000
  0.000000000000000E+000
  0.000000000000000E+000
  0.000000000000000E+000
  0.000000000000000E+000
  0.000000000000000E+000
  0.000000000000000E+000
  0.000000000000000E+000
  0.000000000000000E+000
  0.000000000000000E+000
  0.000000000000000E+000
  0.000000000000000E+000
  0.000000000000000E+000
  0.000000000000000E+000
  0.000000000000000E+000
  0.000000000000000E+000
  0.000000000000000E+000
  0.000000000000000E+000
  0.000000000000000E+000
  0.000000000000000E+000
  0.000000000000000E+000
  0.000000000000000E+000
  0.000000000000000E+000
  0.000000000000000E+000
  0.000000000000000E+000
  0.000000000000000E+000
  0.000000000000000E+000
  0.000000000000000E+000
  0.000000000000000E+000
  0.000000000000000E+000
  0.000000000000000E+000
  0.000000000000000E+000
  0.000000000000000E+000
  0.000000000000000E+000
  0.000000000000000E+000
  0.000000000000000E+000
  0.000000000000000E+000
  0.000000000000000E+000
  0.000000000000000E+000
  0.000000000000000E+000
  0.000000000000000E+000
  0.000000000000000E+000
  0.000000000000000E+000
  0.000000000000000E+000
  0.000000000000000E+000
  0.000000000000000E+000
  0.000000000000000E+000
  0.000000000000000E+000
  0.000000000000000E+000
  0.000000000000000E+000
  0.000000000000000E+000
  0.000000000000000E+000
  0.000000000000000E+000
  0.000000000000000E+000
  0.000000000000000E+000
  0.000000000000000E+000
  0.000000000000000E+000
  0.000000000000000E+000
  0.000000000000000E+000
  0.000000000000000E+000
  0.000000000000000E+000
  0.000000000000000E+000
  0.000000000000000E+000
  0.000000000000000E+000
  0.000000000000000E+000
  0.000000000000000E+000
  0.000000000000000E+000
  0.000000000000000E+000
  0.000000000000000E+000
  0.000000000000000E+000
  0.000000000000000E+000
  0.000000000000000E+000
  0.000000000000000E+000
  0.000000000000000E+000
  0.000000000000000E+000
  0.000000000000000E+000
  0.000000000000000E+000
  0.000000000000000E+000
  0.000000000000000E+000
  0.000000000000000E+000
  0.000000000000000E+000
  0.000000000000000E+000
  0.000000000000000E+000
  0.000000000000000E+000
  0.000000000000000E+000
  0.000000000000000E+000
  0.000000000000000E+000
  0.000000000000000E+000
  0.000000000000000E+000
  0.000000000000000E+000
  0.000000000000000E+000
  0.000000000000000E+000
  0.000000000000000E+000
  0.000000000000000E+000
  0.000000000000000E+000
  0.000000000000000E+000
  0.000000000000000E+000
  0.000000000000000E+000
  0.000000000000000E+000
  0.000000000000000E+000
  0.000000000000000E+000
  0.000000000000000E+000
SCALARS elementIsPlast double 
LOOKUP_TABLE default
  0.000000000000000E+000
  0.000000000000000E+000
   1.00000000000000     
   1.00000000000000     
   1.00000000000000     
  0.000000000000000E+000
  0.000000000000000E+000
  0.000000000000000E+000
  0.000000000000000E+000
  0.000000000000000E+000
  0.000000000000000E+000
  0.000000000000000E+000
  0.000000000000000E+000
  0.000000000000000E+000
  0.000000000000000E+000
   1.00000000000000     
   1.00000000000000     
   1.00000000000000     
  0.000000000000000E+000
  0.000000000000000E+000
  0.000000000000000E+000
  0.000000000000000E+000
  0.000000000000000E+000
  0.000000000000000E+000
  0.000000000000000E+000
  0.000000000000000E+000
  0.000000000000000E+000
  0.000000000000000E+000
  0.000000000000000E+000
  0.000000000000000E+000
   1.00000000000000     
  0.000000000000000E+000
  0.000000000000000E+000
  0.000000000000000E+000
  0.000000000000000E+000
  0.000000000000000E+000
  0.000000000000000E+000
  0.000000000000000E+000
  0.000000000000000E+000
  0.000000000000000E+000
  0.000000000000000E+000
  0.000000000000000E+000
  0.000000000000000E+000
  0.000000000000000E+000
  0.000000000000000E+000
  0.000000000000000E+000
  0.000000000000000E+000
  0.000000000000000E+000
  0.000000000000000E+000
  0.000000000000000E+000
  0.000000000000000E+000
  0.000000000000000E+000
  0.000000000000000E+000
  0.000000000000000E+000
  0.000000000000000E+000
  0.000000000000000E+000
  0.000000000000000E+000
  0.000000000000000E+000
  0.000000000000000E+000
  0.000000000000000E+000
  0.000000000000000E+000
  0.000000000000000E+000
  0.000000000000000E+000
  0.000000000000000E+000
  0.000000000000000E+000
  0.000000000000000E+000
  0.000000000000000E+000
  0.000000000000000E+000
  0.000000000000000E+000
  0.000000000000000E+000
  0.000000000000000E+000
  0.000000000000000E+000
  0.000000000000000E+000
  0.000000000000000E+000
  0.000000000000000E+000
  0.000000000000000E+000
  0.000000000000000E+000
  0.000000000000000E+000
  0.000000000000000E+000
  0.000000000000000E+000
  0.000000000000000E+000
  0.000000000000000E+000
  0.000000000000000E+000
  0.000000000000000E+000
  0.000000000000000E+000
  0.000000000000000E+000
  0.000000000000000E+000
  0.000000000000000E+000
  0.000000000000000E+000
  0.000000000000000E+000
  0.000000000000000E+000
  0.000000000000000E+000
  0.000000000000000E+000
  0.000000000000000E+000
  0.000000000000000E+000
  0.000000000000000E+000
  0.000000000000000E+000
  0.000000000000000E+000
  0.000000000000000E+000
  0.000000000000000E+000
  0.000000000000000E+000
  0.000000000000000E+000
  0.000000000000000E+000
  0.000000000000000E+000
  0.000000000000000E+000
  0.000000000000000E+000
  0.000000000000000E+000
  0.000000000000000E+000
  0.000000000000000E+000
  0.000000000000000E+000
  0.000000000000000E+000
  0.000000000000000E+000
  0.000000000000000E+000
  0.000000000000000E+000
  0.000000000000000E+000
  0.000000000000000E+000
  0.000000000000000E+000
  0.000000000000000E+000
  0.000000000000000E+000
  0.000000000000000E+000
  0.000000000000000E+000
  0.000000000000000E+000
  0.000000000000000E+000
  0.000000000000000E+000
  0.000000000000000E+000
  0.000000000000000E+000
  0.000000000000000E+000
  0.000000000000000E+000
  0.000000000000000E+000
  0.000000000000000E+000
  0.000000000000000E+000
  0.000000000000000E+000
  0.000000000000000E+000
  0.000000000000000E+000
  0.000000000000000E+000
  0.000000000000000E+000
  0.000000000000000E+000
  0.000000000000000E+000
  0.000000000000000E+000
  0.000000000000000E+000
  0.000000000000000E+000
  0.000000000000000E+000
  0.000000000000000E+000
  0.000000000000000E+000
  0.000000000000000E+000
  0.000000000000000E+000
  0.000000000000000E+000
  0.000000000000000E+000
  0.000000000000000E+000
  0.000000000000000E+000
  0.000000000000000E+000
  0.000000000000000E+000
  0.000000000000000E+000
  0.000000000000000E+000
  0.000000000000000E+000
  0.000000000000000E+000
  0.000000000000000E+000
  0.000000000000000E+000
  0.000000000000000E+000
  0.000000000000000E+000
  0.000000000000000E+000
  0.000000000000000E+000
  0.000000000000000E+000
  0.000000000000000E+000
  0.000000000000000E+000
  0.000000000000000E+000
  0.000000000000000E+000
  0.000000000000000E+000
  0.000000000000000E+000
  0.000000000000000E+000
  0.000000000000000E+000
  0.000000000000000E+000
  0.000000000000000E+000
  0.000000000000000E+000
  0.000000000000000E+000
  0.000000000000000E+000
  0.000000000000000E+000
  0.000000000000000E+000
  0.000000000000000E+000
  0.000000000000000E+000
  0.000000000000000E+000
  0.000000000000000E+000
  0.000000000000000E+000
  0.000000000000000E+000
  0.000000000000000E+000
  0.000000000000000E+000
  0.000000000000000E+000
  0.000000000000000E+000
  0.000000000000000E+000
  0.000000000000000E+000
  0.000000000000000E+000
  0.000000000000000E+000
  0.000000000000000E+000
  0.000000000000000E+000
  0.000000000000000E+000
  0.000000000000000E+000
  0.000000000000000E+000
  0.000000000000000E+000
  0.000000000000000E+000
  0.000000000000000E+000
  0.000000000000000E+000
  0.000000000000000E+000
  0.000000000000000E+000
  0.000000000000000E+000
  0.000000000000000E+000
  0.000000000000000E+000
  0.000000000000000E+000
  0.000000000000000E+000
  0.000000000000000E+000
  0.000000000000000E+000
  0.000000000000000E+000
  0.000000000000000E+000
  0.000000000000000E+000
  0.000000000000000E+000
  0.000000000000000E+000
  0.000000000000000E+000
  0.000000000000000E+000
  0.000000000000000E+000
  0.000000000000000E+000
  0.000000000000000E+000
  0.000000000000000E+000
  0.000000000000000E+000
  0.000000000000000E+000
  0.000000000000000E+000
  0.000000000000000E+000
  0.000000000000000E+000
  0.000000000000000E+000
  0.000000000000000E+000
  0.000000000000000E+000
  0.000000000000000E+000
  0.000000000000000E+000
  0.000000000000000E+000
  0.000000000000000E+000
  0.000000000000000E+000
  0.000000000000000E+000
  0.000000000000000E+000
  0.000000000000000E+000
  0.000000000000000E+000
  0.000000000000000E+000
  0.000000000000000E+000
  0.000000000000000E+000
  0.000000000000000E+000
  0.000000000000000E+000
  0.000000000000000E+000
  0.000000000000000E+000
  0.000000000000000E+000
  0.000000000000000E+000
  0.000000000000000E+000
  0.000000000000000E+000
  0.000000000000000E+000
  0.000000000000000E+000
  0.000000000000000E+000
  0.000000000000000E+000
  0.000000000000000E+000
  0.000000000000000E+000
  0.000000000000000E+000
  0.000000000000000E+000
  0.000000000000000E+000
  0.000000000000000E+000
  0.000000000000000E+000
  0.000000000000000E+000
  0.000000000000000E+000
  0.000000000000000E+000
  0.000000000000000E+000
  0.000000000000000E+000
  0.000000000000000E+000
  0.000000000000000E+000
  0.000000000000000E+000
  0.000000000000000E+000
  0.000000000000000E+000
  0.000000000000000E+000
  0.000000000000000E+000
  0.000000000000000E+000
  0.000000000000000E+000
  0.000000000000000E+000
  0.000000000000000E+000
  0.000000000000000E+000
  0.000000000000000E+000
  0.000000000000000E+000
  0.000000000000000E+000
  0.000000000000000E+000
  0.000000000000000E+000
  0.000000000000000E+000
  0.000000000000000E+000
  0.000000000000000E+000
  0.000000000000000E+000
  0.000000000000000E+000
  0.000000000000000E+000
  0.000000000000000E+000
  0.000000000000000E+000
  0.000000000000000E+000
  0.000000000000000E+000
  0.000000000000000E+000
  0.000000000000000E+000
  0.000000000000000E+000
  0.000000000000000E+000
  0.000000000000000E+000
  0.000000000000000E+000
  0.000000000000000E+000
  0.000000000000000E+000
  0.000000000000000E+000
  0.000000000000000E+000
  0.000000000000000E+000
  0.000000000000000E+000
  0.000000000000000E+000
  0.000000000000000E+000
  0.000000000000000E+000
  0.000000000000000E+000
  0.000000000000000E+000
  0.000000000000000E+000
  0.000000000000000E+000
  0.000000000000000E+000
  0.000000000000000E+000
  0.000000000000000E+000
  0.000000000000000E+000
  0.000000000000000E+000
  0.000000000000000E+000
  0.000000000000000E+000
  0.000000000000000E+000
  0.000000000000000E+000
  0.000000000000000E+000
  0.000000000000000E+000
  0.000000000000000E+000
  0.000000000000000E+000
  0.000000000000000E+000
  0.000000000000000E+000
  0.000000000000000E+000
  0.000000000000000E+000
  0.000000000000000E+000
  0.000000000000000E+000
  0.000000000000000E+000
  0.000000000000000E+000
  0.000000000000000E+000
  0.000000000000000E+000
  0.000000000000000E+000
  0.000000000000000E+000
  0.000000000000000E+000
  0.000000000000000E+000
  0.000000000000000E+000
  0.000000000000000E+000
  0.000000000000000E+000
  0.000000000000000E+000
  0.000000000000000E+000
  0.000000000000000E+000
  0.000000000000000E+000
  0.000000000000000E+000
  0.000000000000000E+000
  0.000000000000000E+000
  0.000000000000000E+000
  0.000000000000000E+000
  0.000000000000000E+000
  0.000000000000000E+000
  0.000000000000000E+000
  0.000000000000000E+000
  0.000000000000000E+000
  0.000000000000000E+000
  0.000000000000000E+000
  0.000000000000000E+000
  0.000000000000000E+000
  0.000000000000000E+000
  0.000000000000000E+000
  0.000000000000000E+000
  0.000000000000000E+000
  0.000000000000000E+000
  0.000000000000000E+000
  0.000000000000000E+000
  0.000000000000000E+000
  0.000000000000000E+000
  0.000000000000000E+000
  0.000000000000000E+000
  0.000000000000000E+000
  0.000000000000000E+000
  0.000000000000000E+000
  0.000000000000000E+000
  0.000000000000000E+000
  0.000000000000000E+000
  0.000000000000000E+000
  0.000000000000000E+000
  0.000000000000000E+000
  0.000000000000000E+000
  0.000000000000000E+000
  0.000000000000000E+000
  0.000000000000000E+000
  0.000000000000000E+000
  0.000000000000000E+000
  0.000000000000000E+000
  0.000000000000000E+000
  0.000000000000000E+000
  0.000000000000000E+000
  0.000000000000000E+000
  0.000000000000000E+000
  0.000000000000000E+000
  0.000000000000000E+000
  0.000000000000000E+000
  0.000000000000000E+000
  0.000000000000000E+000
  0.000000000000000E+000
  0.000000000000000E+000
  0.000000000000000E+000
  0.000000000000000E+000
  0.000000000000000E+000
  0.000000000000000E+000
  0.000000000000000E+000
  0.000000000000000E+000
  0.000000000000000E+000
  0.000000000000000E+000
  0.000000000000000E+000
  0.000000000000000E+000
  0.000000000000000E+000
  0.000000000000000E+000
  0.000000000000000E+000
  0.000000000000000E+000
  0.000000000000000E+000
  0.000000000000000E+000
  0.000000000000000E+000
  0.000000000000000E+000
  0.000000000000000E+000
  0.000000000000000E+000
  0.000000000000000E+000
  0.000000000000000E+000
  0.000000000000000E+000
  0.000000000000000E+000
  0.000000000000000E+000
  0.000000000000000E+000
  0.000000000000000E+000
  0.000000000000000E+000
  0.000000000000000E+000
  0.000000000000000E+000
  0.000000000000000E+000
  0.000000000000000E+000
  0.000000000000000E+000
  0.000000000000000E+000
  0.000000000000000E+000
  0.000000000000000E+000
  0.000000000000000E+000
  0.000000000000000E+000
  0.000000000000000E+000
  0.000000000000000E+000
  0.000000000000000E+000
  0.000000000000000E+000
  0.000000000000000E+000
  0.000000000000000E+000
  0.000000000000000E+000
  0.000000000000000E+000
  0.000000000000000E+000
  0.000000000000000E+000
  0.000000000000000E+000
  0.000000000000000E+000
  0.000000000000000E+000
  0.000000000000000E+000
SCALARS poroL double 
LOOKUP_TABLE default
  0.156299643352064     
  0.156272099340274     
  0.156242845908775     
  0.156214650677644     
  0.156192324190307     
  0.156178290131743     
  0.156167616955564     
  0.156158630158187     
  0.156150722651426     
  0.156143521721214     
  0.156136743841516     
  0.156130117047672     
  0.156123306651754     
  0.156115791279627     
  0.156106087562930     
  0.156236825827226     
  0.156217703357628     
  0.156198395337808     
  0.156184882355509     
  0.156174353623974     
  0.156163565069176     
  0.156153832796564     
  0.156145354926581     
  0.156137776437012     
  0.156130835769932     
  0.156124307817534     
  0.156117976072471     
  0.156111607165151     
  0.156104885656785     
  0.156098116253960     
  0.156189724620357     
  0.156178608196786     
  0.156172235764231     
  0.156164729111423     
  0.156155970525904     
  0.156147284253121     
  0.156138974253653     
  0.156131320720105     
  0.156124323937424     
  0.156117856832721     
  0.156111783616950     
  0.156105973844108     
  0.156100312476613     
  0.156094818554060     
  0.156089669653344     
  0.156164830856123     
  0.156158539231213     
  0.156151857738386     
  0.156145064684239     
  0.156137916526367     
  0.156130616624744     
  0.156123526608593     
  0.156116807417015     
  0.156110529070351     
  0.156104674373707     
  0.156099189306368     
  0.156094022154334     
  0.156089162055096     
  0.156084670443521     
  0.156080722185819     
  0.156143851262978     
  0.156138077820928     
  0.156132261082313     
  0.156126260268387     
  0.156120134403136     
  0.156113965045066     
  0.156107897752547     
  0.156102069139443     
  0.156096551422738     
  0.156091372917419     
  0.156086536478759     
  0.156082046799664     
  0.156077935389110     
  0.156074283593185     
  0.156071232026449     
  0.156123030389220     
  0.156118110571101     
  0.156113089503416     
  0.156107952372946     
  0.156102722830931     
  0.156097476471896     
  0.156092304240316     
  0.156087295796854     
  0.156082521403545     
  0.156078026806477     
  0.156073844748647     
  0.156070009652072     
  0.156066573460176     
  0.156063617435376     
  0.156061257295676     
  0.156102583441566     
  0.156098579817699     
  0.156094394716138     
  0.156090073698389     
  0.156085667629473     
  0.156081239550530     
  0.156076862059661     
  0.156072606031368     
  0.156068533744031     
  0.156064697066458     
  0.156061141516505     
  0.156057914644825     
  0.156055074717770     
  0.156052697299743     
  0.156050877330110     
  0.156082704350729     
  0.156079566775382     
  0.156076181951234     
  0.156072630670114     
  0.156068979823619     
  0.156065293870333     
  0.156061636735168     
  0.156058070045667     
  0.156054650576485     
  0.156051430007636     
  0.156048457375434     
  0.156045783425567     
  0.156043465384573     
  0.156041570351507     
  0.156040176100983     
  0.156063504183818     
  0.156061129421317     
  0.156058473318969     
  0.156055628330275     
  0.156052668814360     
  0.156049659554866     
  0.156046660082975     
  0.156043725899770     
  0.156040908768207     
  0.156038257391333     
  0.156035819129772     
  0.156033642506519     
  0.156031779743382     
  0.156030288446962     
  0.156029231713766     
  0.156045015194771     
  0.156043286321232     
  0.156041271850828     
  0.156039062297302     
  0.156036730712000     
  0.156034338919319     
  0.156031941566773     
  0.156029588430565     
  0.156027325752870     
  0.156025197398932     
  0.156023246211367     
  0.156021515541012     
  0.156020050618069     
  0.156018899310030     
  0.156018111891347     
  0.156027209464683     
  0.156026014188368     
  0.156024554225980     
  0.156022909597479     
  0.156021145695367     
  0.156019317534352     
  0.156017473008161     
  0.156015655145964     
  0.156013903674820     
  0.156012256231060     
  0.156010749444802     
  0.156009419919388     
  0.156008304964614     
  0.156007442866856     
  0.156006872506983     
  0.156010013498040     
  0.156009254340513     
  0.156008270932124     
  0.156007127618507     
  0.156005877694088     
  0.156004566154430     
  0.156003232033964     
  0.156001910218944     
  0.156000632800319     
  0.155999430102502     
  0.155998331491906     
  0.155997365988927     
  0.155996562626002     
  0.155995950452388     
  0.155995558095880     
  0.155993320900007     
  0.155992920697421     
  0.155992350726131     
  0.155991656602445     
  0.155990876630037     
  0.155990043415157     
  0.155989185366108     
  0.155988327940091     
  0.155987494610697     
  0.155986707588325     
  0.155985988333709     
  0.155985357878004     
  0.155984836928469     
  0.155984445717084     
  0.155984203551237     
  0.155977003220330     
  0.155976908042747     
  0.155976706556236     
  0.155976424026414     
  0.155976082042185     
  0.155975699271950     
  0.155975292248544     
  0.155974876053342     
  0.155974464841881     
  0.155974072202262     
  0.155973711357778     
  0.155973395223183     
  0.155973136311546     
  0.155972946477411     
  0.155972836478816     
  0.155960919386176     
  0.155961099850419     
  0.155961241858869     
  0.155961349694948     
  0.155961427392059     
  0.155961478845751     
  0.155961508010291     
  0.155961519066098     
  0.155961516499400     
  0.155961505077564     
  0.155961489727664     
  0.155961475333298     
  0.155961466461072     
  0.155961467019958     
  0.155961479848587     
  0.155944923891829     
  0.155945375432985     
  0.155945856663107     
  0.155946350937177     
  0.155946844551687     
  0.155947326387931     
  0.155947787632648     
  0.155948221481296     
  0.155948622780129     
  0.155948987603806     
  0.155949312790510     
  0.155949595466459     
  0.155949832589378     
  0.155950020530121     
  0.155950154697112     
  0.155928873841321     
  0.155929616304792     
  0.155930453241865     
  0.155931347581891     
  0.155932268181129     
  0.155933189148236     
  0.155934089182828     
  0.155934950853483     
  0.155935759798837     
  0.155936503879033     
  0.155937172330583     
  0.155937754986055     
  0.155938241613922     
  0.155938621417351     
  0.155938882707382     
  0.155912634907442     
  0.155913711737234     
  0.155914941206647     
  0.155916266564014     
  0.155917639844565     
  0.155919021016659     
  0.155920377009491     
  0.155921680575949     
  0.155922909017815     
  0.155924042850836     
  0.155925064512260     
  0.155925957216335     
  0.155926704049235     
  0.155927287368253     
  0.155927688534897     
  0.155896086271615     
  0.155897563542725     
  0.155899242049601     
  0.155901046138530     
  0.155902911823790     
  0.155904785888605     
  0.155906624641947     
  0.155908392328650     
  0.155910059290494     
  0.155911600033630     
  0.155912991376830     
  0.155914210846699     
  0.155915235459360     
  0.155916040988444     
  0.155916601768297     
  0.155879124622222     
  0.155881090181327     
  0.155883293226677     
  0.155885639779839     
  0.155888050680465     
  0.155890460772977     
  0.155892817379607     
  0.155895078140926     
  0.155897208441621     
  0.155899178695581     
  0.155900961762850     
  0.155902530740266     
  0.155903857325479     
  0.155904910900999     
  0.155905658416309     
  0.155861667308626     
  0.155864230353718     
  0.155867051976167     
  0.155870019950207     
  0.155873040708218     
  0.155876038726063     
  0.155878954595172     
  0.155881742039657     
  0.155884364309662     
  0.155886790403207     
  0.155888991508402     
  0.155890937987379     
  0.155892597167866     
  0.155893932156736     
  0.155894901804720     
  0.155843654780472     
  0.155846946351421     
  0.155850499209400     
  0.155854182055151     
  0.155857887513332     
  0.155861531748713     
  0.155865051796278     
  0.155868401255121     
  0.155871545168389     
  0.155874454793687     
  0.155877102765040     
  0.155879459005653     
  0.155881487719434     
  0.155883145777415     
  0.155884382750458     
  0.155825052508540     
  0.155829227632097     
  0.155833644048488     
  0.155838149098761     
  0.155842622072216     
  0.155846973815959     
  0.155851142478991     
  0.155855086935626     
  0.155858779425144     
  0.155862198421638     
  0.155865322208749     
  0.155868123420070     
  0.155870564865162     
  0.155872597186601     
  0.155874158853371     
  0.155805852742237     
  0.155811095488274     
  0.155816530028420     
  0.155821977851171     
  0.155827305714997     
  0.155832424168433     
  0.155837279724414     
  0.155841844266426     
  0.155846104481179     
  0.155850052517406     
  0.155853677891913     
  0.155856960339072     
  0.155859863911272     
  0.155862333142322     
  0.155864292704474     
  0.155786076831339     
  0.155792610588980     
  0.155799244845500     
  0.155805767790977     
  0.155812036476981     
  0.155817970751308     
  0.155823537263381     
  0.155828731798971     
  0.155833564667389     
  0.155838049587634     
  0.155842194447583     
  0.155845992501229     
  0.155849413399957     
  0.155852396514632     
  0.155854848688271     
  0.155765779969276     
  0.155773887309467     
  0.155781937373875     
  0.155789674601101     
  0.155796956758919     
  0.155803732979700     
  0.155810009247193     
  0.155815819694316     
  0.155821208393421     
  0.155826219007907     
  0.155830886664621     
  0.155835227339696     
  0.155839225221339     
  0.155842817330045     
  0.155845887896894     
  0.155745062943682     
  0.155755125246764     
  0.155764849169751     
  0.155773929719405     
  0.155782260274040     
  0.155789861172589     
  0.155796807477428     
  0.155803186553653     
  0.155809084909279     
  0.155814582977960     
  0.155819751497739     
  0.155824644916916     
  0.155829277024688     
  0.155833597696728     
  0.155837459031949     
  0.155724112589434     
  0.155736684327884     
  0.155748374465308     
  0.155758862281452     
  0.155768188222104     
  0.155776529165476     
  0.155784054528145     
  0.155790914648767     
  0.155797241575614     
  0.155803154483508     
  0.155808764859469     
  0.155814177725874     
  0.155819487389097     
  0.155824674559260     
  0.155829585465657     
  0.155703332343652     
  0.155719309231619     
  0.155733153626529     
  0.155744874374362     
  0.155755007098001     
  0.155763916141118     
  0.155771872211456     
  0.155779083759946     
  0.155785722316173     
  0.155791940226952     
  0.155797885662332     
  0.155803719051793     
  0.155809627468957     
  0.155815877318840     
  0.155822199398303     
  0.155684362502256     
  0.155704651157440     
  0.155719895961311     
  0.155732369342931     
  0.155742959119641     
  0.155752179543850     
  0.155760366574537     
  0.155767764389911     
  0.155774567640444     
  0.155780947949740     
  0.155787075872546     
  0.155793147012841     
  0.155799430242224     
  0.155806367766481     
  0.155815246929230     
