# vtk DataFile Version 3.0
vtk output
ASCII
DATASET UNSTRUCTURED_GRID
POINTS       496 double 
  0.00000000E+00  3.00000000E+02  0.00000000E+00
  0.00000000E+00  2.80000000E+02  0.00000000E+00
  0.00000000E+00  2.60000000E+02  0.00000000E+00
  0.00000000E+00  2.40000000E+02  0.00000000E+00
  0.00000000E+00  2.20000000E+02  0.00000000E+00
  0.00000000E+00  2.00000000E+02  0.00000000E+00
  0.00000000E+00  1.80000000E+02  0.00000000E+00
  0.00000000E+00  1.60000000E+02  0.00000000E+00
  0.00000000E+00  1.40000000E+02  0.00000000E+00
  0.00000000E+00  1.20000000E+02  0.00000000E+00
  0.00000000E+00  1.00000000E+02  0.00000000E+00
  0.00000000E+00  8.00000000E+01  0.00000000E+00
  0.00000000E+00  6.00000000E+01  0.00000000E+00
  0.00000000E+00  4.00000000E+01  0.00000000E+00
  0.00000000E+00  2.00000000E+01  0.00000000E+00
  0.00000000E+00  4.99600361E-14  0.00000000E+00
  2.00000000E+01  3.00000000E+02  0.00000000E+00
  2.00000000E+01  2.80000000E+02  0.00000000E+00
  2.00000000E+01  2.60000000E+02  0.00000000E+00
  2.00000000E+01  2.40000000E+02  0.00000000E+00
  2.00000000E+01  2.20000000E+02  0.00000000E+00
  2.00000000E+01  2.00000000E+02  0.00000000E+00
  2.00000000E+01  1.80000000E+02  0.00000000E+00
  2.00000000E+01  1.60000000E+02  0.00000000E+00
  2.00000000E+01  1.40000000E+02  0.00000000E+00
  2.00000000E+01  1.20000000E+02  0.00000000E+00
  2.00000000E+01  1.00000000E+02  0.00000000E+00
  2.00000000E+01  8.00000000E+01  0.00000000E+00
  2.00000000E+01  6.00000000E+01  0.00000000E+00
  2.00000000E+01  4.00000000E+01  0.00000000E+00
  2.00000000E+01  2.00000000E+01  0.00000000E+00
  2.00000000E+01  4.99600361E-14  0.00000000E+00
  4.00000000E+01  3.00000000E+02  0.00000000E+00
  4.00000000E+01  2.80000000E+02  0.00000000E+00
  4.00000000E+01  2.60000000E+02  0.00000000E+00
  4.00000000E+01  2.40000000E+02  0.00000000E+00
  4.00000000E+01  2.20000000E+02  0.00000000E+00
  4.00000000E+01  2.00000000E+02  0.00000000E+00
  4.00000000E+01  1.80000000E+02  0.00000000E+00
  4.00000000E+01  1.60000000E+02  0.00000000E+00
  4.00000000E+01  1.40000000E+02  0.00000000E+00
  4.00000000E+01  1.20000000E+02  0.00000000E+00
  4.00000000E+01  1.00000000E+02  0.00000000E+00
  4.00000000E+01  8.00000000E+01  0.00000000E+00
  4.00000000E+01  6.00000000E+01  0.00000000E+00
  4.00000000E+01  4.00000000E+01  0.00000000E+00
  4.00000000E+01  2.00000000E+01  0.00000000E+00
  4.00000000E+01  4.99600361E-14  0.00000000E+00
  6.00000000E+01  3.00000000E+02  0.00000000E+00
  6.00000000E+01  2.80000000E+02  0.00000000E+00
  6.00000000E+01  2.60000000E+02  0.00000000E+00
  6.00000000E+01  2.40000000E+02  0.00000000E+00
  6.00000000E+01  2.20000000E+02  0.00000000E+00
  6.00000000E+01  2.00000000E+02  0.00000000E+00
  6.00000000E+01  1.80000000E+02  0.00000000E+00
  6.00000000E+01  1.60000000E+02  0.00000000E+00
  6.00000000E+01  1.40000000E+02  0.00000000E+00
  6.00000000E+01  1.20000000E+02  0.00000000E+00
  6.00000000E+01  1.00000000E+02  0.00000000E+00
  6.00000000E+01  8.00000000E+01  0.00000000E+00
  6.00000000E+01  6.00000000E+01  0.00000000E+00
  6.00000000E+01  4.00000000E+01  0.00000000E+00
  6.00000000E+01  2.00000000E+01  0.00000000E+00
  6.00000000E+01  4.99600361E-14  0.00000000E+00
  8.00000000E+01  3.00000000E+02  0.00000000E+00
  8.00000000E+01  2.80000000E+02  0.00000000E+00
  8.00000000E+01  2.60000000E+02  0.00000000E+00
  8.00000000E+01  2.40000000E+02  0.00000000E+00
  8.00000000E+01  2.20000000E+02  0.00000000E+00
  8.00000000E+01  2.00000000E+02  0.00000000E+00
  8.00000000E+01  1.80000000E+02  0.00000000E+00
  8.00000000E+01  1.60000000E+02  0.00000000E+00
  8.00000000E+01  1.40000000E+02  0.00000000E+00
  8.00000000E+01  1.20000000E+02  0.00000000E+00
  8.00000000E+01  1.00000000E+02  0.00000000E+00
  8.00000000E+01  8.00000000E+01  0.00000000E+00
  8.00000000E+01  6.00000000E+01  0.00000000E+00
  8.00000000E+01  4.00000000E+01  0.00000000E+00
  8.00000000E+01  2.00000000E+01  0.00000000E+00
  8.00000000E+01  4.99600361E-14  0.00000000E+00
  1.00000000E+02  3.00000000E+02  0.00000000E+00
  1.00000000E+02  2.80000000E+02  0.00000000E+00
  1.00000000E+02  2.60000000E+02  0.00000000E+00
  1.00000000E+02  2.40000000E+02  0.00000000E+00
  1.00000000E+02  2.20000000E+02  0.00000000E+00
  1.00000000E+02  2.00000000E+02  0.00000000E+00
  1.00000000E+02  1.80000000E+02  0.00000000E+00
  1.00000000E+02  1.60000000E+02  0.00000000E+00
  1.00000000E+02  1.40000000E+02  0.00000000E+00
  1.00000000E+02  1.20000000E+02  0.00000000E+00
  1.00000000E+02  1.00000000E+02  0.00000000E+00
  1.00000000E+02  8.00000000E+01  0.00000000E+00
  1.00000000E+02  6.00000000E+01  0.00000000E+00
  1.00000000E+02  4.00000000E+01  0.00000000E+00
  1.00000000E+02  2.00000000E+01  0.00000000E+00
  1.00000000E+02  4.99600361E-14  0.00000000E+00
  1.20000000E+02  3.00000000E+02  0.00000000E+00
  1.20000000E+02  2.80000000E+02  0.00000000E+00
  1.20000000E+02  2.60000000E+02  0.00000000E+00
  1.20000000E+02  2.40000000E+02  0.00000000E+00
  1.20000000E+02  2.20000000E+02  0.00000000E+00
  1.20000000E+02  2.00000000E+02  0.00000000E+00
  1.20000000E+02  1.80000000E+02  0.00000000E+00
  1.20000000E+02  1.60000000E+02  0.00000000E+00
  1.20000000E+02  1.40000000E+02  0.00000000E+00
  1.20000000E+02  1.20000000E+02  0.00000000E+00
  1.20000000E+02  1.00000000E+02  0.00000000E+00
  1.20000000E+02  8.00000000E+01  0.00000000E+00
  1.20000000E+02  6.00000000E+01  0.00000000E+00
  1.20000000E+02  4.00000000E+01  0.00000000E+00
  1.20000000E+02  2.00000000E+01  0.00000000E+00
  1.20000000E+02  4.99600361E-14  0.00000000E+00
  1.40000000E+02  3.00000000E+02  0.00000000E+00
  1.40000000E+02  2.80000000E+02  0.00000000E+00
  1.40000000E+02  2.60000000E+02  0.00000000E+00
  1.40000000E+02  2.40000000E+02  0.00000000E+00
  1.40000000E+02  2.20000000E+02  0.00000000E+00
  1.40000000E+02  2.00000000E+02  0.00000000E+00
  1.40000000E+02  1.80000000E+02  0.00000000E+00
  1.40000000E+02  1.60000000E+02  0.00000000E+00
  1.40000000E+02  1.40000000E+02  0.00000000E+00
  1.40000000E+02  1.20000000E+02  0.00000000E+00
  1.40000000E+02  1.00000000E+02  0.00000000E+00
  1.40000000E+02  8.00000000E+01  0.00000000E+00
  1.40000000E+02  6.00000000E+01  0.00000000E+00
  1.40000000E+02  4.00000000E+01  0.00000000E+00
  1.40000000E+02  2.00000000E+01  0.00000000E+00
  1.40000000E+02  4.99600361E-14  0.00000000E+00
  1.60000000E+02  3.00000000E+02  0.00000000E+00
  1.60000000E+02  2.80000000E+02  0.00000000E+00
  1.60000000E+02  2.60000000E+02  0.00000000E+00
  1.60000000E+02  2.40000000E+02  0.00000000E+00
  1.60000000E+02  2.20000000E+02  0.00000000E+00
  1.60000000E+02  2.00000000E+02  0.00000000E+00
  1.60000000E+02  1.80000000E+02  0.00000000E+00
  1.60000000E+02  1.60000000E+02  0.00000000E+00
  1.60000000E+02  1.40000000E+02  0.00000000E+00
  1.60000000E+02  1.20000000E+02  0.00000000E+00
  1.60000000E+02  1.00000000E+02  0.00000000E+00
  1.60000000E+02  8.00000000E+01  0.00000000E+00
  1.60000000E+02  6.00000000E+01  0.00000000E+00
  1.60000000E+02  4.00000000E+01  0.00000000E+00
  1.60000000E+02  2.00000000E+01  0.00000000E+00
  1.60000000E+02  4.99600361E-14  0.00000000E+00
  1.80000000E+02  3.00000000E+02  0.00000000E+00
  1.80000000E+02  2.80000000E+02  0.00000000E+00
  1.80000000E+02  2.60000000E+02  0.00000000E+00
  1.80000000E+02  2.40000000E+02  0.00000000E+00
  1.80000000E+02  2.20000000E+02  0.00000000E+00
  1.80000000E+02  2.00000000E+02  0.00000000E+00
  1.80000000E+02  1.80000000E+02  0.00000000E+00
  1.80000000E+02  1.60000000E+02  0.00000000E+00
  1.80000000E+02  1.40000000E+02  0.00000000E+00
  1.80000000E+02  1.20000000E+02  0.00000000E+00
  1.80000000E+02  1.00000000E+02  0.00000000E+00
  1.80000000E+02  8.00000000E+01  0.00000000E+00
  1.80000000E+02  6.00000000E+01  0.00000000E+00
  1.80000000E+02  4.00000000E+01  0.00000000E+00
  1.80000000E+02  2.00000000E+01  0.00000000E+00
  1.80000000E+02  4.99600361E-14  0.00000000E+00
  2.00000000E+02  3.00000000E+02  0.00000000E+00
  2.00000000E+02  2.80000000E+02  0.00000000E+00
  2.00000000E+02  2.60000000E+02  0.00000000E+00
  2.00000000E+02  2.40000000E+02  0.00000000E+00
  2.00000000E+02  2.20000000E+02  0.00000000E+00
  2.00000000E+02  2.00000000E+02  0.00000000E+00
  2.00000000E+02  1.80000000E+02  0.00000000E+00
  2.00000000E+02  1.60000000E+02  0.00000000E+00
  2.00000000E+02  1.40000000E+02  0.00000000E+00
  2.00000000E+02  1.20000000E+02  0.00000000E+00
  2.00000000E+02  1.00000000E+02  0.00000000E+00
  2.00000000E+02  8.00000000E+01  0.00000000E+00
  2.00000000E+02  6.00000000E+01  0.00000000E+00
  2.00000000E+02  4.00000000E+01  0.00000000E+00
  2.00000000E+02  2.00000000E+01  0.00000000E+00
  2.00000000E+02  4.99600361E-14  0.00000000E+00
  2.20000000E+02  3.00000000E+02  0.00000000E+00
  2.20000000E+02  2.80000000E+02  0.00000000E+00
  2.20000000E+02  2.60000000E+02  0.00000000E+00
  2.20000000E+02  2.40000000E+02  0.00000000E+00
  2.20000000E+02  2.20000000E+02  0.00000000E+00
  2.20000000E+02  2.00000000E+02  0.00000000E+00
  2.20000000E+02  1.80000000E+02  0.00000000E+00
  2.20000000E+02  1.60000000E+02  0.00000000E+00
  2.20000000E+02  1.40000000E+02  0.00000000E+00
  2.20000000E+02  1.20000000E+02  0.00000000E+00
  2.20000000E+02  1.00000000E+02  0.00000000E+00
  2.20000000E+02  8.00000000E+01  0.00000000E+00
  2.20000000E+02  6.00000000E+01  0.00000000E+00
  2.20000000E+02  4.00000000E+01  0.00000000E+00
  2.20000000E+02  2.00000000E+01  0.00000000E+00
  2.20000000E+02  4.99600361E-14  0.00000000E+00
  2.40000000E+02  3.00000000E+02  0.00000000E+00
  2.40000000E+02  2.80000000E+02  0.00000000E+00
  2.40000000E+02  2.60000000E+02  0.00000000E+00
  2.40000000E+02  2.40000000E+02  0.00000000E+00
  2.40000000E+02  2.20000000E+02  0.00000000E+00
  2.40000000E+02  2.00000000E+02  0.00000000E+00
  2.40000000E+02  1.80000000E+02  0.00000000E+00
  2.40000000E+02  1.60000000E+02  0.00000000E+00
  2.40000000E+02  1.40000000E+02  0.00000000E+00
  2.40000000E+02  1.20000000E+02  0.00000000E+00
  2.40000000E+02  1.00000000E+02  0.00000000E+00
  2.40000000E+02  8.00000000E+01  0.00000000E+00
  2.40000000E+02  6.00000000E+01  0.00000000E+00
  2.40000000E+02  4.00000000E+01  0.00000000E+00
  2.40000000E+02  2.00000000E+01  0.00000000E+00
  2.40000000E+02  4.99600361E-14  0.00000000E+00
  2.60000000E+02  3.00000000E+02  0.00000000E+00
  2.60000000E+02  2.80000000E+02  0.00000000E+00
  2.60000000E+02  2.60000000E+02  0.00000000E+00
  2.60000000E+02  2.40000000E+02  0.00000000E+00
  2.60000000E+02  2.20000000E+02  0.00000000E+00
  2.60000000E+02  2.00000000E+02  0.00000000E+00
  2.60000000E+02  1.80000000E+02  0.00000000E+00
  2.60000000E+02  1.60000000E+02  0.00000000E+00
  2.60000000E+02  1.40000000E+02  0.00000000E+00
  2.60000000E+02  1.20000000E+02  0.00000000E+00
  2.60000000E+02  1.00000000E+02  0.00000000E+00
  2.60000000E+02  8.00000000E+01  0.00000000E+00
  2.60000000E+02  6.00000000E+01  0.00000000E+00
  2.60000000E+02  4.00000000E+01  0.00000000E+00
  2.60000000E+02  2.00000000E+01  0.00000000E+00
  2.60000000E+02  4.99600361E-14  0.00000000E+00
  2.80000000E+02  3.00000000E+02  0.00000000E+00
  2.80000000E+02  2.80000000E+02  0.00000000E+00
  2.80000000E+02  2.60000000E+02  0.00000000E+00
  2.80000000E+02  2.40000000E+02  0.00000000E+00
  2.80000000E+02  2.20000000E+02  0.00000000E+00
  2.80000000E+02  2.00000000E+02  0.00000000E+00
  2.80000000E+02  1.80000000E+02  0.00000000E+00
  2.80000000E+02  1.60000000E+02  0.00000000E+00
  2.80000000E+02  1.40000000E+02  0.00000000E+00
  2.80000000E+02  1.20000000E+02  0.00000000E+00
  2.80000000E+02  1.00000000E+02  0.00000000E+00
  2.80000000E+02  8.00000000E+01  0.00000000E+00
  2.80000000E+02  6.00000000E+01  0.00000000E+00
  2.80000000E+02  4.00000000E+01  0.00000000E+00
  2.80000000E+02  2.00000000E+01  0.00000000E+00
  2.80000000E+02  4.99600361E-14  0.00000000E+00
  3.00000000E+02  3.00000000E+02  0.00000000E+00
  3.00000000E+02  2.80000000E+02  0.00000000E+00
  3.00000000E+02  2.60000000E+02  0.00000000E+00
  3.00000000E+02  2.40000000E+02  0.00000000E+00
  3.00000000E+02  2.20000000E+02  0.00000000E+00
  3.00000000E+02  2.00000000E+02  0.00000000E+00
  3.00000000E+02  1.80000000E+02  0.00000000E+00
  3.00000000E+02  1.60000000E+02  0.00000000E+00
  3.00000000E+02  1.40000000E+02  0.00000000E+00
  3.00000000E+02  1.20000000E+02  0.00000000E+00
  3.00000000E+02  1.00000000E+02  0.00000000E+00
  3.00000000E+02  8.00000000E+01  0.00000000E+00
  3.00000000E+02  6.00000000E+01  0.00000000E+00
  3.00000000E+02  4.00000000E+01  0.00000000E+00
  3.00000000E+02  2.00000000E+01  0.00000000E+00
  3.00000000E+02  4.99600361E-14  0.00000000E+00
  3.20000000E+02  3.00000000E+02  0.00000000E+00
  3.20000000E+02  2.80000000E+02  0.00000000E+00
  3.20000000E+02  2.60000000E+02  0.00000000E+00
  3.20000000E+02  2.40000000E+02  0.00000000E+00
  3.20000000E+02  2.20000000E+02  0.00000000E+00
  3.20000000E+02  2.00000000E+02  0.00000000E+00
  3.20000000E+02  1.80000000E+02  0.00000000E+00
  3.20000000E+02  1.60000000E+02  0.00000000E+00
  3.20000000E+02  1.40000000E+02  0.00000000E+00
  3.20000000E+02  1.20000000E+02  0.00000000E+00
  3.20000000E+02  1.00000000E+02  0.00000000E+00
  3.20000000E+02  8.00000000E+01  0.00000000E+00
  3.20000000E+02  6.00000000E+01  0.00000000E+00
  3.20000000E+02  4.00000000E+01  0.00000000E+00
  3.20000000E+02  2.00000000E+01  0.00000000E+00
  3.20000000E+02  4.99600361E-14  0.00000000E+00
  3.40000000E+02  3.00000000E+02  0.00000000E+00
  3.40000000E+02  2.80000000E+02  0.00000000E+00
  3.40000000E+02  2.60000000E+02  0.00000000E+00
  3.40000000E+02  2.40000000E+02  0.00000000E+00
  3.40000000E+02  2.20000000E+02  0.00000000E+00
  3.40000000E+02  2.00000000E+02  0.00000000E+00
  3.40000000E+02  1.80000000E+02  0.00000000E+00
  3.40000000E+02  1.60000000E+02  0.00000000E+00
  3.40000000E+02  1.40000000E+02  0.00000000E+00
  3.40000000E+02  1.20000000E+02  0.00000000E+00
  3.40000000E+02  1.00000000E+02  0.00000000E+00
  3.40000000E+02  8.00000000E+01  0.00000000E+00
  3.40000000E+02  6.00000000E+01  0.00000000E+00
  3.40000000E+02  4.00000000E+01  0.00000000E+00
  3.40000000E+02  2.00000000E+01  0.00000000E+00
  3.40000000E+02  4.99600361E-14  0.00000000E+00
  3.60000000E+02  3.00000000E+02  0.00000000E+00
  3.60000000E+02  2.80000000E+02  0.00000000E+00
  3.60000000E+02  2.60000000E+02  0.00000000E+00
  3.60000000E+02  2.40000000E+02  0.00000000E+00
  3.60000000E+02  2.20000000E+02  0.00000000E+00
  3.60000000E+02  2.00000000E+02  0.00000000E+00
  3.60000000E+02  1.80000000E+02  0.00000000E+00
  3.60000000E+02  1.60000000E+02  0.00000000E+00
  3.60000000E+02  1.40000000E+02  0.00000000E+00
  3.60000000E+02  1.20000000E+02  0.00000000E+00
  3.60000000E+02  1.00000000E+02  0.00000000E+00
  3.60000000E+02  8.00000000E+01  0.00000000E+00
  3.60000000E+02  6.00000000E+01  0.00000000E+00
  3.60000000E+02  4.00000000E+01  0.00000000E+00
  3.60000000E+02  2.00000000E+01  0.00000000E+00
  3.60000000E+02  4.99600361E-14  0.00000000E+00
  3.80000000E+02  3.00000000E+02  0.00000000E+00
  3.80000000E+02  2.80000000E+02  0.00000000E+00
  3.80000000E+02  2.60000000E+02  0.00000000E+00
  3.80000000E+02  2.40000000E+02  0.00000000E+00
  3.80000000E+02  2.20000000E+02  0.00000000E+00
  3.80000000E+02  2.00000000E+02  0.00000000E+00
  3.80000000E+02  1.80000000E+02  0.00000000E+00
  3.80000000E+02  1.60000000E+02  0.00000000E+00
  3.80000000E+02  1.40000000E+02  0.00000000E+00
  3.80000000E+02  1.20000000E+02  0.00000000E+00
  3.80000000E+02  1.00000000E+02  0.00000000E+00
  3.80000000E+02  8.00000000E+01  0.00000000E+00
  3.80000000E+02  6.00000000E+01  0.00000000E+00
  3.80000000E+02  4.00000000E+01  0.00000000E+00
  3.80000000E+02  2.00000000E+01  0.00000000E+00
  3.80000000E+02  4.99600361E-14  0.00000000E+00
  4.00000000E+02  3.00000000E+02  0.00000000E+00
  4.00000000E+02  2.80000000E+02  0.00000000E+00
  4.00000000E+02  2.60000000E+02  0.00000000E+00
  4.00000000E+02  2.40000000E+02  0.00000000E+00
  4.00000000E+02  2.20000000E+02  0.00000000E+00
  4.00000000E+02  2.00000000E+02  0.00000000E+00
  4.00000000E+02  1.80000000E+02  0.00000000E+00
  4.00000000E+02  1.60000000E+02  0.00000000E+00
  4.00000000E+02  1.40000000E+02  0.00000000E+00
  4.00000000E+02  1.20000000E+02  0.00000000E+00
  4.00000000E+02  1.00000000E+02  0.00000000E+00
  4.00000000E+02  8.00000000E+01  0.00000000E+00
  4.00000000E+02  6.00000000E+01  0.00000000E+00
  4.00000000E+02  4.00000000E+01  0.00000000E+00
  4.00000000E+02  2.00000000E+01  0.00000000E+00
  4.00000000E+02  4.99600361E-14  0.00000000E+00
  4.20000000E+02  3.00000000E+02  0.00000000E+00
  4.20000000E+02  2.80000000E+02  0.00000000E+00
  4.20000000E+02  2.60000000E+02  0.00000000E+00
  4.20000000E+02  2.40000000E+02  0.00000000E+00
  4.20000000E+02  2.20000000E+02  0.00000000E+00
  4.20000000E+02  2.00000000E+02  0.00000000E+00
  4.20000000E+02  1.80000000E+02  0.00000000E+00
  4.20000000E+02  1.60000000E+02  0.00000000E+00
  4.20000000E+02  1.40000000E+02  0.00000000E+00
  4.20000000E+02  1.20000000E+02  0.00000000E+00
  4.20000000E+02  1.00000000E+02  0.00000000E+00
  4.20000000E+02  8.00000000E+01  0.00000000E+00
  4.20000000E+02  6.00000000E+01  0.00000000E+00
  4.20000000E+02  4.00000000E+01  0.00000000E+00
  4.20000000E+02  2.00000000E+01  0.00000000E+00
  4.20000000E+02  4.99600361E-14  0.00000000E+00
  4.40000000E+02  3.00000000E+02  0.00000000E+00
  4.40000000E+02  2.80000000E+02  0.00000000E+00
  4.40000000E+02  2.60000000E+02  0.00000000E+00
  4.40000000E+02  2.40000000E+02  0.00000000E+00
  4.40000000E+02  2.20000000E+02  0.00000000E+00
  4.40000000E+02  2.00000000E+02  0.00000000E+00
  4.40000000E+02  1.80000000E+02  0.00000000E+00
  4.40000000E+02  1.60000000E+02  0.00000000E+00
  4.40000000E+02  1.40000000E+02  0.00000000E+00
  4.40000000E+02  1.20000000E+02  0.00000000E+00
  4.40000000E+02  1.00000000E+02  0.00000000E+00
  4.40000000E+02  8.00000000E+01  0.00000000E+00
  4.40000000E+02  6.00000000E+01  0.00000000E+00
  4.40000000E+02  4.00000000E+01  0.00000000E+00
  4.40000000E+02  2.00000000E+01  0.00000000E+00
  4.40000000E+02  4.99600361E-14  0.00000000E+00
  4.60000000E+02  3.00000000E+02  0.00000000E+00
  4.60000000E+02  2.80000000E+02  0.00000000E+00
  4.60000000E+02  2.60000000E+02  0.00000000E+00
  4.60000000E+02  2.40000000E+02  0.00000000E+00
  4.60000000E+02  2.20000000E+02  0.00000000E+00
  4.60000000E+02  2.00000000E+02  0.00000000E+00
  4.60000000E+02  1.80000000E+02  0.00000000E+00
  4.60000000E+02  1.60000000E+02  0.00000000E+00
  4.60000000E+02  1.40000000E+02  0.00000000E+00
  4.60000000E+02  1.20000000E+02  0.00000000E+00
  4.60000000E+02  1.00000000E+02  0.00000000E+00
  4.60000000E+02  8.00000000E+01  0.00000000E+00
  4.60000000E+02  6.00000000E+01  0.00000000E+00
  4.60000000E+02  4.00000000E+01  0.00000000E+00
  4.60000000E+02  2.00000000E+01  0.00000000E+00
  4.60000000E+02  4.99600361E-14  0.00000000E+00
  4.80000000E+02  3.00000000E+02  0.00000000E+00
  4.80000000E+02  2.80000000E+02  0.00000000E+00
  4.80000000E+02  2.60000000E+02  0.00000000E+00
  4.80000000E+02  2.40000000E+02  0.00000000E+00
  4.80000000E+02  2.20000000E+02  0.00000000E+00
  4.80000000E+02  2.00000000E+02  0.00000000E+00
  4.80000000E+02  1.80000000E+02  0.00000000E+00
  4.80000000E+02  1.60000000E+02  0.00000000E+00
  4.80000000E+02  1.40000000E+02  0.00000000E+00
  4.80000000E+02  1.20000000E+02  0.00000000E+00
  4.80000000E+02  1.00000000E+02  0.00000000E+00
  4.80000000E+02  8.00000000E+01  0.00000000E+00
  4.80000000E+02  6.00000000E+01  0.00000000E+00
  4.80000000E+02  4.00000000E+01  0.00000000E+00
  4.80000000E+02  2.00000000E+01  0.00000000E+00
  4.80000000E+02  4.99600361E-14  0.00000000E+00
  5.00000000E+02  3.00000000E+02  0.00000000E+00
  5.00000000E+02  2.80000000E+02  0.00000000E+00
  5.00000000E+02  2.60000000E+02  0.00000000E+00
  5.00000000E+02  2.40000000E+02  0.00000000E+00
  5.00000000E+02  2.20000000E+02  0.00000000E+00
  5.00000000E+02  2.00000000E+02  0.00000000E+00
  5.00000000E+02  1.80000000E+02  0.00000000E+00
  5.00000000E+02  1.60000000E+02  0.00000000E+00
  5.00000000E+02  1.40000000E+02  0.00000000E+00
  5.00000000E+02  1.20000000E+02  0.00000000E+00
  5.00000000E+02  1.00000000E+02  0.00000000E+00
  5.00000000E+02  8.00000000E+01  0.00000000E+00
  5.00000000E+02  6.00000000E+01  0.00000000E+00
  5.00000000E+02  4.00000000E+01  0.00000000E+00
  5.00000000E+02  2.00000000E+01  0.00000000E+00
  5.00000000E+02  4.99600361E-14  0.00000000E+00
  5.20000000E+02  3.00000000E+02  0.00000000E+00
  5.20000000E+02  2.80000000E+02  0.00000000E+00
  5.20000000E+02  2.60000000E+02  0.00000000E+00
  5.20000000E+02  2.40000000E+02  0.00000000E+00
  5.20000000E+02  2.20000000E+02  0.00000000E+00
  5.20000000E+02  2.00000000E+02  0.00000000E+00
  5.20000000E+02  1.80000000E+02  0.00000000E+00
  5.20000000E+02  1.60000000E+02  0.00000000E+00
  5.20000000E+02  1.40000000E+02  0.00000000E+00
  5.20000000E+02  1.20000000E+02  0.00000000E+00
  5.20000000E+02  1.00000000E+02  0.00000000E+00
  5.20000000E+02  8.00000000E+01  0.00000000E+00
  5.20000000E+02  6.00000000E+01  0.00000000E+00
  5.20000000E+02  4.00000000E+01  0.00000000E+00
  5.20000000E+02  2.00000000E+01  0.00000000E+00
  5.20000000E+02  4.99600361E-14  0.00000000E+00
  5.40000000E+02  3.00000000E+02  0.00000000E+00
  5.40000000E+02  2.80000000E+02  0.00000000E+00
  5.40000000E+02  2.60000000E+02  0.00000000E+00
  5.40000000E+02  2.40000000E+02  0.00000000E+00
  5.40000000E+02  2.20000000E+02  0.00000000E+00
  5.40000000E+02  2.00000000E+02  0.00000000E+00
  5.40000000E+02  1.80000000E+02  0.00000000E+00
  5.40000000E+02  1.60000000E+02  0.00000000E+00
  5.40000000E+02  1.40000000E+02  0.00000000E+00
  5.40000000E+02  1.20000000E+02  0.00000000E+00
  5.40000000E+02  1.00000000E+02  0.00000000E+00
  5.40000000E+02  8.00000000E+01  0.00000000E+00
  5.40000000E+02  6.00000000E+01  0.00000000E+00
  5.40000000E+02  4.00000000E+01  0.00000000E+00
  5.40000000E+02  2.00000000E+01  0.00000000E+00
  5.40000000E+02  4.99600361E-14  0.00000000E+00
  5.60000000E+02  3.00000000E+02  0.00000000E+00
  5.60000000E+02  2.80000000E+02  0.00000000E+00
  5.60000000E+02  2.60000000E+02  0.00000000E+00
  5.60000000E+02  2.40000000E+02  0.00000000E+00
  5.60000000E+02  2.20000000E+02  0.00000000E+00
  5.60000000E+02  2.00000000E+02  0.00000000E+00
  5.60000000E+02  1.80000000E+02  0.00000000E+00
  5.60000000E+02  1.60000000E+02  0.00000000E+00
  5.60000000E+02  1.40000000E+02  0.00000000E+00
  5.60000000E+02  1.20000000E+02  0.00000000E+00
  5.60000000E+02  1.00000000E+02  0.00000000E+00
  5.60000000E+02  8.00000000E+01  0.00000000E+00
  5.60000000E+02  6.00000000E+01  0.00000000E+00
  5.60000000E+02  4.00000000E+01  0.00000000E+00
  5.60000000E+02  2.00000000E+01  0.00000000E+00
  5.60000000E+02  4.99600361E-14  0.00000000E+00
  5.80000000E+02  3.00000000E+02  0.00000000E+00
  5.80000000E+02  2.80000000E+02  0.00000000E+00
  5.80000000E+02  2.60000000E+02  0.00000000E+00
  5.80000000E+02  2.40000000E+02  0.00000000E+00
  5.80000000E+02  2.20000000E+02  0.00000000E+00
  5.80000000E+02  2.00000000E+02  0.00000000E+00
  5.80000000E+02  1.80000000E+02  0.00000000E+00
  5.80000000E+02  1.60000000E+02  0.00000000E+00
  5.80000000E+02  1.40000000E+02  0.00000000E+00
  5.80000000E+02  1.20000000E+02  0.00000000E+00
  5.80000000E+02  1.00000000E+02  0.00000000E+00
  5.80000000E+02  8.00000000E+01  0.00000000E+00
  5.80000000E+02  6.00000000E+01  0.00000000E+00
  5.80000000E+02  4.00000000E+01  0.00000000E+00
  5.80000000E+02  2.00000000E+01  0.00000000E+00
  5.80000000E+02  4.99600361E-14  0.00000000E+00
  6.00000000E+02  3.00000000E+02  0.00000000E+00
  6.00000000E+02  2.80000000E+02  0.00000000E+00
  6.00000000E+02  2.60000000E+02  0.00000000E+00
  6.00000000E+02  2.40000000E+02  0.00000000E+00
  6.00000000E+02  2.20000000E+02  0.00000000E+00
  6.00000000E+02  2.00000000E+02  0.00000000E+00
  6.00000000E+02  1.80000000E+02  0.00000000E+00
  6.00000000E+02  1.60000000E+02  0.00000000E+00
  6.00000000E+02  1.40000000E+02  0.00000000E+00
  6.00000000E+02  1.20000000E+02  0.00000000E+00
  6.00000000E+02  1.00000000E+02  0.00000000E+00
  6.00000000E+02  8.00000000E+01  0.00000000E+00
  6.00000000E+02  6.00000000E+01  0.00000000E+00
  6.00000000E+02  4.00000000E+01  0.00000000E+00
  6.00000000E+02  2.00000000E+01  0.00000000E+00
  6.00000000E+02  4.99600361E-14  0.00000000E+00
CELLS       450      2250
         4           0           1          17          16
         4           1           2          18          17
         4           2           3          19          18
         4           3           4          20          19
         4           4           5          21          20
         4           5           6          22          21
         4           6           7          23          22
         4           7           8          24          23
         4           8           9          25          24
         4           9          10          26          25
         4          10          11          27          26
         4          11          12          28          27
         4          12          13          29          28
         4          13          14          30          29
         4          14          15          31          30
         4          16          17          33          32
         4          17          18          34          33
         4          18          19          35          34
         4          19          20          36          35
         4          20          21          37          36
         4          21          22          38          37
         4          22          23          39          38
         4          23          24          40          39
         4          24          25          41          40
         4          25          26          42          41
         4          26          27          43          42
         4          27          28          44          43
         4          28          29          45          44
         4          29          30          46          45
         4          30          31          47          46
         4          32          33          49          48
         4          33          34          50          49
         4          34          35          51          50
         4          35          36          52          51
         4          36          37          53          52
         4          37          38          54          53
         4          38          39          55          54
         4          39          40          56          55
         4          40          41          57          56
         4          41          42          58          57
         4          42          43          59          58
         4          43          44          60          59
         4          44          45          61          60
         4          45          46          62          61
         4          46          47          63          62
         4          48          49          65          64
         4          49          50          66          65
         4          50          51          67          66
         4          51          52          68          67
         4          52          53          69          68
         4          53          54          70          69
         4          54          55          71          70
         4          55          56          72          71
         4          56          57          73          72
         4          57          58          74          73
         4          58          59          75          74
         4          59          60          76          75
         4          60          61          77          76
         4          61          62          78          77
         4          62          63          79          78
         4          64          65          81          80
         4          65          66          82          81
         4          66          67          83          82
         4          67          68          84          83
         4          68          69          85          84
         4          69          70          86          85
         4          70          71          87          86
         4          71          72          88          87
         4          72          73          89          88
         4          73          74          90          89
         4          74          75          91          90
         4          75          76          92          91
         4          76          77          93          92
         4          77          78          94          93
         4          78          79          95          94
         4          80          81          97          96
         4          81          82          98          97
         4          82          83          99          98
         4          83          84         100          99
         4          84          85         101         100
         4          85          86         102         101
         4          86          87         103         102
         4          87          88         104         103
         4          88          89         105         104
         4          89          90         106         105
         4          90          91         107         106
         4          91          92         108         107
         4          92          93         109         108
         4          93          94         110         109
         4          94          95         111         110
         4          96          97         113         112
         4          97          98         114         113
         4          98          99         115         114
         4          99         100         116         115
         4         100         101         117         116
         4         101         102         118         117
         4         102         103         119         118
         4         103         104         120         119
         4         104         105         121         120
         4         105         106         122         121
         4         106         107         123         122
         4         107         108         124         123
         4         108         109         125         124
         4         109         110         126         125
         4         110         111         127         126
         4         112         113         129         128
         4         113         114         130         129
         4         114         115         131         130
         4         115         116         132         131
         4         116         117         133         132
         4         117         118         134         133
         4         118         119         135         134
         4         119         120         136         135
         4         120         121         137         136
         4         121         122         138         137
         4         122         123         139         138
         4         123         124         140         139
         4         124         125         141         140
         4         125         126         142         141
         4         126         127         143         142
         4         128         129         145         144
         4         129         130         146         145
         4         130         131         147         146
         4         131         132         148         147
         4         132         133         149         148
         4         133         134         150         149
         4         134         135         151         150
         4         135         136         152         151
         4         136         137         153         152
         4         137         138         154         153
         4         138         139         155         154
         4         139         140         156         155
         4         140         141         157         156
         4         141         142         158         157
         4         142         143         159         158
         4         144         145         161         160
         4         145         146         162         161
         4         146         147         163         162
         4         147         148         164         163
         4         148         149         165         164
         4         149         150         166         165
         4         150         151         167         166
         4         151         152         168         167
         4         152         153         169         168
         4         153         154         170         169
         4         154         155         171         170
         4         155         156         172         171
         4         156         157         173         172
         4         157         158         174         173
         4         158         159         175         174
         4         160         161         177         176
         4         161         162         178         177
         4         162         163         179         178
         4         163         164         180         179
         4         164         165         181         180
         4         165         166         182         181
         4         166         167         183         182
         4         167         168         184         183
         4         168         169         185         184
         4         169         170         186         185
         4         170         171         187         186
         4         171         172         188         187
         4         172         173         189         188
         4         173         174         190         189
         4         174         175         191         190
         4         176         177         193         192
         4         177         178         194         193
         4         178         179         195         194
         4         179         180         196         195
         4         180         181         197         196
         4         181         182         198         197
         4         182         183         199         198
         4         183         184         200         199
         4         184         185         201         200
         4         185         186         202         201
         4         186         187         203         202
         4         187         188         204         203
         4         188         189         205         204
         4         189         190         206         205
         4         190         191         207         206
         4         192         193         209         208
         4         193         194         210         209
         4         194         195         211         210
         4         195         196         212         211
         4         196         197         213         212
         4         197         198         214         213
         4         198         199         215         214
         4         199         200         216         215
         4         200         201         217         216
         4         201         202         218         217
         4         202         203         219         218
         4         203         204         220         219
         4         204         205         221         220
         4         205         206         222         221
         4         206         207         223         222
         4         208         209         225         224
         4         209         210         226         225
         4         210         211         227         226
         4         211         212         228         227
         4         212         213         229         228
         4         213         214         230         229
         4         214         215         231         230
         4         215         216         232         231
         4         216         217         233         232
         4         217         218         234         233
         4         218         219         235         234
         4         219         220         236         235
         4         220         221         237         236
         4         221         222         238         237
         4         222         223         239         238
         4         224         225         241         240
         4         225         226         242         241
         4         226         227         243         242
         4         227         228         244         243
         4         228         229         245         244
         4         229         230         246         245
         4         230         231         247         246
         4         231         232         248         247
         4         232         233         249         248
         4         233         234         250         249
         4         234         235         251         250
         4         235         236         252         251
         4         236         237         253         252
         4         237         238         254         253
         4         238         239         255         254
         4         240         241         257         256
         4         241         242         258         257
         4         242         243         259         258
         4         243         244         260         259
         4         244         245         261         260
         4         245         246         262         261
         4         246         247         263         262
         4         247         248         264         263
         4         248         249         265         264
         4         249         250         266         265
         4         250         251         267         266
         4         251         252         268         267
         4         252         253         269         268
         4         253         254         270         269
         4         254         255         271         270
         4         256         257         273         272
         4         257         258         274         273
         4         258         259         275         274
         4         259         260         276         275
         4         260         261         277         276
         4         261         262         278         277
         4         262         263         279         278
         4         263         264         280         279
         4         264         265         281         280
         4         265         266         282         281
         4         266         267         283         282
         4         267         268         284         283
         4         268         269         285         284
         4         269         270         286         285
         4         270         271         287         286
         4         272         273         289         288
         4         273         274         290         289
         4         274         275         291         290
         4         275         276         292         291
         4         276         277         293         292
         4         277         278         294         293
         4         278         279         295         294
         4         279         280         296         295
         4         280         281         297         296
         4         281         282         298         297
         4         282         283         299         298
         4         283         284         300         299
         4         284         285         301         300
         4         285         286         302         301
         4         286         287         303         302
         4         288         289         305         304
         4         289         290         306         305
         4         290         291         307         306
         4         291         292         308         307
         4         292         293         309         308
         4         293         294         310         309
         4         294         295         311         310
         4         295         296         312         311
         4         296         297         313         312
         4         297         298         314         313
         4         298         299         315         314
         4         299         300         316         315
         4         300         301         317         316
         4         301         302         318         317
         4         302         303         319         318
         4         304         305         321         320
         4         305         306         322         321
         4         306         307         323         322
         4         307         308         324         323
         4         308         309         325         324
         4         309         310         326         325
         4         310         311         327         326
         4         311         312         328         327
         4         312         313         329         328
         4         313         314         330         329
         4         314         315         331         330
         4         315         316         332         331
         4         316         317         333         332
         4         317         318         334         333
         4         318         319         335         334
         4         320         321         337         336
         4         321         322         338         337
         4         322         323         339         338
         4         323         324         340         339
         4         324         325         341         340
         4         325         326         342         341
         4         326         327         343         342
         4         327         328         344         343
         4         328         329         345         344
         4         329         330         346         345
         4         330         331         347         346
         4         331         332         348         347
         4         332         333         349         348
         4         333         334         350         349
         4         334         335         351         350
         4         336         337         353         352
         4         337         338         354         353
         4         338         339         355         354
         4         339         340         356         355
         4         340         341         357         356
         4         341         342         358         357
         4         342         343         359         358
         4         343         344         360         359
         4         344         345         361         360
         4         345         346         362         361
         4         346         347         363         362
         4         347         348         364         363
         4         348         349         365         364
         4         349         350         366         365
         4         350         351         367         366
         4         352         353         369         368
         4         353         354         370         369
         4         354         355         371         370
         4         355         356         372         371
         4         356         357         373         372
         4         357         358         374         373
         4         358         359         375         374
         4         359         360         376         375
         4         360         361         377         376
         4         361         362         378         377
         4         362         363         379         378
         4         363         364         380         379
         4         364         365         381         380
         4         365         366         382         381
         4         366         367         383         382
         4         368         369         385         384
         4         369         370         386         385
         4         370         371         387         386
         4         371         372         388         387
         4         372         373         389         388
         4         373         374         390         389
         4         374         375         391         390
         4         375         376         392         391
         4         376         377         393         392
         4         377         378         394         393
         4         378         379         395         394
         4         379         380         396         395
         4         380         381         397         396
         4         381         382         398         397
         4         382         383         399         398
         4         384         385         401         400
         4         385         386         402         401
         4         386         387         403         402
         4         387         388         404         403
         4         388         389         405         404
         4         389         390         406         405
         4         390         391         407         406
         4         391         392         408         407
         4         392         393         409         408
         4         393         394         410         409
         4         394         395         411         410
         4         395         396         412         411
         4         396         397         413         412
         4         397         398         414         413
         4         398         399         415         414
         4         400         401         417         416
         4         401         402         418         417
         4         402         403         419         418
         4         403         404         420         419
         4         404         405         421         420
         4         405         406         422         421
         4         406         407         423         422
         4         407         408         424         423
         4         408         409         425         424
         4         409         410         426         425
         4         410         411         427         426
         4         411         412         428         427
         4         412         413         429         428
         4         413         414         430         429
         4         414         415         431         430
         4         416         417         433         432
         4         417         418         434         433
         4         418         419         435         434
         4         419         420         436         435
         4         420         421         437         436
         4         421         422         438         437
         4         422         423         439         438
         4         423         424         440         439
         4         424         425         441         440
         4         425         426         442         441
         4         426         427         443         442
         4         427         428         444         443
         4         428         429         445         444
         4         429         430         446         445
         4         430         431         447         446
         4         432         433         449         448
         4         433         434         450         449
         4         434         435         451         450
         4         435         436         452         451
         4         436         437         453         452
         4         437         438         454         453
         4         438         439         455         454
         4         439         440         456         455
         4         440         441         457         456
         4         441         442         458         457
         4         442         443         459         458
         4         443         444         460         459
         4         444         445         461         460
         4         445         446         462         461
         4         446         447         463         462
         4         448         449         465         464
         4         449         450         466         465
         4         450         451         467         466
         4         451         452         468         467
         4         452         453         469         468
         4         453         454         470         469
         4         454         455         471         470
         4         455         456         472         471
         4         456         457         473         472
         4         457         458         474         473
         4         458         459         475         474
         4         459         460         476         475
         4         460         461         477         476
         4         461         462         478         477
         4         462         463         479         478
         4         464         465         481         480
         4         465         466         482         481
         4         466         467         483         482
         4         467         468         484         483
         4         468         469         485         484
         4         469         470         486         485
         4         470         471         487         486
         4         471         472         488         487
         4         472         473         489         488
         4         473         474         490         489
         4         474         475         491         490
         4         475         476         492         491
         4         476         477         493         492
         4         477         478         494         493
         4         478         479         495         494
CELL_TYPES        450
9
9
9
9
9
9
9
9
9
9
9
9
9
9
9
9
9
9
9
9
9
9
9
9
9
9
9
9
9
9
9
9
9
9
9
9
9
9
9
9
9
9
9
9
9
9
9
9
9
9
9
9
9
9
9
9
9
9
9
9
9
9
9
9
9
9
9
9
9
9
9
9
9
9
9
9
9
9
9
9
9
9
9
9
9
9
9
9
9
9
9
9
9
9
9
9
9
9
9
9
9
9
9
9
9
9
9
9
9
9
9
9
9
9
9
9
9
9
9
9
9
9
9
9
9
9
9
9
9
9
9
9
9
9
9
9
9
9
9
9
9
9
9
9
9
9
9
9
9
9
9
9
9
9
9
9
9
9
9
9
9
9
9
9
9
9
9
9
9
9
9
9
9
9
9
9
9
9
9
9
9
9
9
9
9
9
9
9
9
9
9
9
9
9
9
9
9
9
9
9
9
9
9
9
9
9
9
9
9
9
9
9
9
9
9
9
9
9
9
9
9
9
9
9
9
9
9
9
9
9
9
9
9
9
9
9
9
9
9
9
9
9
9
9
9
9
9
9
9
9
9
9
9
9
9
9
9
9
9
9
9
9
9
9
9
9
9
9
9
9
9
9
9
9
9
9
9
9
9
9
9
9
9
9
9
9
9
9
9
9
9
9
9
9
9
9
9
9
9
9
9
9
9
9
9
9
9
9
9
9
9
9
9
9
9
9
9
9
9
9
9
9
9
9
9
9
9
9
9
9
9
9
9
9
9
9
9
9
9
9
9
9
9
9
9
9
9
9
9
9
9
9
9
9
9
9
9
9
9
9
9
9
9
9
9
9
9
9
9
9
9
9
9
9
9
9
9
9
9
9
9
9
9
9
9
9
9
9
9
9
9
9
9
9
9
9
9
9
9
9
9
9
9
9
9
9
9
9
9
9
9
9
9
9
9
9
9
9
9
9
9
9
9
9
9
9
9
9
9
9
9
9
9
9
9
9
9
9
9
9
9
9
9
9
9
9
9
9
9
9
POINT_DATA       496
SCALARS p double 
LOOKUP_TABLE default
   90000000.0000000     
   90000000.0000000     
   90000000.0000000     
   90000000.0000000     
   90000000.0000000     
   90000000.0000000     
   90000000.0000000     
   90000000.0000000     
   90000000.0000000     
   90000000.0000000     
   90000000.0000000     
   90000000.0000000     
   90000000.0000000     
   90000000.0000000     
   90000000.0000000     
   90000000.0000000     
   86664271.9340651     
   86662636.3601863     
   86661383.7555376     
   86662029.0681177     
   86664162.6666780     
   86667164.6484603     
   86670764.0746632     
   86674656.9706655     
   86678565.4078538     
   86682271.4921289     
   86685583.9028070     
   86688323.0110838     
   86690313.8282359     
   86691397.9092515     
   86691489.7715575     
   86690877.1037262     
   83339949.6853388     
   83340558.6468784     
   83342492.1868466     
   83346363.7908073     
   83352064.3446608     
   83358815.2756306     
   83366236.5408795     
   83373949.9991125     
   83381591.6046797     
   83388827.9548512     
   83395363.3052574     
   83400924.4756175     
   83405257.9448444     
   83408155.1652464     
   83409553.1033996     
   83409818.2799016     
   80058446.4526087     
   80060937.8591829     
   80066652.1274897     
   80074255.3079194     
   80083470.1212235     
   80093941.0571584     
   80105070.8000922     
   80116377.4641271     
   80127443.5489314     
   80137904.6221526     
   80147433.7829273     
   80155730.0773094     
   80162513.0380804     
   80167538.7572035     
   80170647.8362094     
   80171758.6312044     
   76841389.0785415     
   76844360.4339159     
   76852073.1430658     
   76862944.0351575     
   76875708.7672496     
   76889608.3501576     
   76904019.5802466     
   76918416.2821718     
   76932376.9280979     
   76945549.4517452     
   76957624.4252711     
   76968310.9428964     
   76977318.1380937     
   76984340.0689453     
   76989023.1800983     
   76990865.3304160     
   73700411.8522481     
   73704445.9265804     
   73714322.9900519     
   73727846.0873726     
   73743460.3501470     
   73760099.6015356     
   73777035.8816141     
   73793739.3053616     
   73809814.5818580     
   73824952.9684064     
   73838888.2408088     
   73851358.2220272     
   73862066.4827229     
   73870634.8564033     
   73876526.8427165     
   73878912.7038819     
   70648906.2864322     
   70653650.0678601     
   70665086.0912179     
   70680447.8735929     
   70697904.5503277     
   70716239.3068144     
   70734655.8118816     
   70752633.2662991     
   70769823.0354712     
   70785975.9393267     
   70800882.7929226     
   70814320.3557918     
   70825995.3078449     
   70835475.3218795     
   70842092.5149895     
   70844803.7184383     
   67694871.5590972     
   67699923.1879129     
   67712025.8127773     
   67728120.0661553     
   67746198.4335605     
   67764968.1614296     
   67783620.1397329     
   67801665.5897737     
   67818815.6276432     
   67834890.3043706     
   67849745.1458513     
   67863204.7786466     
   67874994.7093920     
   67884661.6507342     
   67891472.2093380     
   67894281.5900367     
   64841563.9645113     
   64846520.3156694     
   64858351.7683400     
   64873972.1394338     
   64891351.4626390     
   64909205.2574583     
   64926762.7085162     
   64943594.9924193     
   64959486.1043312     
   64974332.4778743     
   64988060.5584006     
   65000552.8375453     
   65011573.7821343     
   65020687.7661622     
   65027162.1376107     
   65029850.9817223     
   62087796.7010133     
   62092293.8405868     
   62102977.2255527     
   62116966.4506468     
   62132362.1459298     
   62147980.8502684     
   62163143.4813998     
   62177510.5345756     
   62190953.6098292     
   62203453.1163079     
   62215013.0831289     
   62225585.0362797     
   62234993.8012649     
   62242859.1421251     
   62248508.6971047     
   62250880.0493807     
   59428444.8752222     
   59432178.4113180     
   59440963.9093258     
   59452311.6644394     
   59464585.3344638     
   59476789.1254662     
   59488388.3417445     
   59499162.5616145     
   59509086.7502848     
   59518234.0136644     
   59526693.4790835     
   59534497.1605113     
   59541550.3769947     
   59547561.3609023     
   59551967.2418137     
   59553855.6916758     
   56855094.2842260     
   56857831.7193795     
   56864135.2817764     
   56872040.2813054     
   56880275.7828896     
   56888105.2548919     
   56895184.5046420     
   56901439.6867500     
   56906964.5639036     
   56911934.0459864     
   56916530.0658462     
   56920875.6917607     
   56924973.7811781     
   56928647.3626328     
   56931480.2726524     
   56932758.3282474     
   54356780.2918600     
   54358366.1080836     
   54361788.1745873     
   54365691.5189893     
   54369239.9375807     
   54372007.8491572     
   54373876.8603233     
   54374941.9002701     
   54375428.6777805     
   54375622.0241649     
   54375803.4150264     
   54376195.4617476     
   54376911.2776467     
   54377907.2471378     
   54378938.7825572     
   54379520.0562529     
   51920758.2116450     
   51921113.1552664     
   51921441.5298297     
   51921037.0176562     
   51919534.8626346     
   51916850.5079092     
   51913113.3551591     
   51908601.6766013     
   51903682.0829547     
   51898754.9375872     
   51894205.7791404     
   51890362.1359754     
   51887455.0044971     
   51885584.6331609     
   51884691.0196717     
   51884530.5988078     
   49533255.8797021     
   49532371.8092365     
   49529572.3916741     
   49524798.7933575     
   49518164.4157888     
   49509934.5793532     
   49500494.3068409     
   49490310.7772169     
   49479894.8369789     
   49469764.1994141     
   49460409.7077903     
   49452265.2969795     
   49445682.0236229     
   49440906.6881260     
   49438066.0705487     
   49437158.5664371     
   47180170.5923060     
   47178102.2444556     
   47172301.0577133     
   47163321.0680075     
   47151734.4262683     
   47138145.7455051     
   47123189.6951004     
   47107518.4848629     
   47091784.1206402     
   47076618.8427848     
   47062616.0442070     
   47050313.2328591     
   47040178.2452254     
   47032599.8973475     
   47027884.5253032     
   47026260.3549728     
   44847684.5394405     
   44844539.4397378     
   44835999.0737629     
   44823169.2748432     
   44807039.9667255     
   44788527.6750981     
   44768498.1997287     
   44747775.8229609     
   44727144.0779692     
   44707341.9260093     
   44689058.2484607     
   44672926.8790544     
   44659523.9916907     
   44649369.5037253     
   44642934.2195189     
   44640654.6795882     
   42522783.7143209     
   42518711.2667482     
   42507804.4130600     
   42491640.0340952     
   42471568.0229906     
   42448775.7417544     
   42424330.9106213     
   42399208.8113883     
   42374308.7328717     
   42350463.7083166     
   42328446.8327181     
   42308976.8390466     
   42292725.1767555     
   42280326.5735381     
   42272394.9537861     
   42269546.6055274     
   40193674.2767738     
   40188854.8439300     
   40176037.0722453     
   40157174.6652281     
   40133907.4474528     
   40107642.0987733     
   40079610.5485318     
   40050911.2899808     
   40022538.3169037     
   39995401.7935812     
   39970343.9826736     
   39948153.4200027     
   39929579.8763495     
   39915352.2974561     
   39906201.6565701     
   39902890.4706395     
   37850097.2152476     
   37844731.7785951     
   37830515.1693072     
   37809675.6100591     
   37784064.7986967     
   37755249.9683715     
   37724583.3928824     
   37693253.9490468     
   37662325.1861321     
   37632764.0290913     
   37605463.8046846     
   37581264.8009200     
   37560975.1095385     
   37545394.0824569     
   37535340.3488594     
   37531685.9719099     
   35483546.9335820     
   35477847.7227227     
   35462776.4652428     
   35440729.9980683     
   35413689.5201899     
   35383319.8122758     
   35351045.8467791     
   35318110.8376335     
   35285620.0188360     
   35254574.3401946     
   35225897.9207650     
   35200462.6395997     
   35179112.7656064     
   35162692.0618674     
   35152075.3186217     
   35148205.7342487     
   33087402.3236226     
   33081584.6354220     
   33066213.2600147     
   33043747.6755547     
   33016215.0523264     
   32985313.2309972     
   32952490.7764435     
   32919007.8414926     
   32885982.2089635     
   32854424.8962835     
   32825269.3324612     
   32799397.6054301     
   32777666.7789055     
   32760937.8093305     
   32750109.0737311     
   32746155.8456646     
   30656980.3082846     
   30651255.6032028     
   30636130.1374240     
   30614022.6167560     
   30586924.1477590     
   30556502.2071274     
   30524180.6350497     
   30491199.6034230     
   30458660.4504712     
   30427560.1656889     
   30398819.6965921     
   30373309.5852818     
   30351875.9362691     
   30335369.3418343     
   30324678.9566325     
   30320773.1677118     
   28189522.1148812     
   28184092.3727722     
   28169734.3799166     
   28148727.0287597     
   28122947.1319001     
   28093971.9092179     
   28063155.1550363     
   28031682.3232263     
   28000610.6539460     
   27970899.7183587     
   27943436.5743671     
   27919058.8038111     
   27898578.2347509     
   27882808.0484451     
   27872595.8698355     
   27868864.8068470     
   25684122.0189880     
   25679175.2417217     
   25666068.3404136     
   25646846.9010037     
   25623201.3453996     
   25596564.9424811     
   25568181.3176401     
   25539150.0731485     
   25510458.7878418     
   25483007.2977903     
   25457628.0396214     
   25435105.0209988     
   25416193.6618427     
   25401644.1280304     
   25392231.4998538     
   25388796.0777815     
   23141607.3205461     
   23137313.9395758     
   23125891.8551435     
   23109066.3634555     
   23088278.6673876     
   23064773.8846058     
   23039652.6500299     
   23013901.9706266     
   22988416.2383556     
   22964013.9313491     
   22941452.4747159     
   22921442.5401765     
   22904662.8505331     
   22891777.6234690     
   22883460.8591271     
   22880433.7149312     
   20564377.2398592     
   20560886.8900953     
   20551520.9022603     
   20537605.8809798     
   20520285.8756307     
   20500587.4270989     
   20479444.0009396     
   20457707.0747511     
   20436155.0850477     
   20415502.8458596     
   20396411.6279211     
   20379499.1995521     
   20365349.5538081     
   20354522.3976854     
   20347566.9863460     
   20345051.0592919     
   17956207.7778984     
   17953644.9987709     
   17946625.5073996     
   17936015.3263230     
   17922639.6757998     
   17907293.9641119     
   17890727.3150302     
   17873633.6360252     
   17856650.4964316     
   17840363.8033022     
   17825314.9561869     
   17812008.1349413     
   17800915.6529097     
   17792480.8859715     
   17787114.2260967     
   17785201.4693445     
   15322031.5121828     
   15320484.3936971     
   15315982.3549323     
   15308915.7087135     
   15299815.4560493     
   15289245.9905767     
   15277754.6246188     
   15265849.8208226     
   15253997.3821770     
   15242623.9115461     
   15232122.9113173     
   15222860.7850588     
   15215180.4865621     
   15209398.4897671     
   15205796.4519641     
   15204563.7257124     
   12667708.3750054     
   12667189.6262745     
   12665150.5997834     
   12661675.0729638     
   12657048.0186839     
   12651592.7720705     
   12645617.7123187     
   12639404.6273010     
   12633208.3844668     
   12627260.6171216     
   12621774.5377371     
   12616949.5313428     
   12612974.1967500     
   12610025.8002522     
   12608254.7234869     
   12607768.0414089     
   10000000.0000000     
   10000000.0000000     
   10000000.0000000     
   10000000.0000000     
   10000000.0000000     
   10000000.0000000     
   10000000.0000000     
   10000000.0000000     
   10000000.0000000     
   10000000.0000000     
   10000000.0000000     
   10000000.0000000     
   10000000.0000000     
  10000000.00000000     
   10000000.0000000     
   10000000.0000000     
VECTORS u double 
    0.00000E+00         0.20132E-01         0.00000E+00
    0.00000E+00         0.19437E-01         0.00000E+00
    0.00000E+00         0.18341E-01         0.00000E+00
    0.00000E+00         0.17009E-01         0.00000E+00
    0.00000E+00         0.15574E-01         0.00000E+00
    0.00000E+00         0.14149E-01         0.00000E+00
    0.00000E+00         0.12780E-01         0.00000E+00
    0.00000E+00         0.11463E-01         0.00000E+00
    0.00000E+00         0.10178E-01         0.00000E+00
    0.00000E+00         0.89039E-02         0.00000E+00
    0.00000E+00         0.76206E-02         0.00000E+00
    0.00000E+00         0.63060E-02         0.00000E+00
    0.00000E+00         0.49338E-02         0.00000E+00
    0.00000E+00         0.34695E-02         0.00000E+00
    0.00000E+00         0.18626E-02         0.00000E+00
    0.00000E+00         0.00000E+00         0.00000E+00
    0.59514E-02         0.19480E-01         0.00000E+00
    0.50817E-02         0.18736E-01         0.00000E+00
    0.41869E-02         0.17692E-01         0.00000E+00
    0.34306E-02         0.16464E-01         0.00000E+00
    0.27959E-02         0.15166E-01         0.00000E+00
    0.24052E-02         0.13858E-01         0.00000E+00
    0.21862E-02         0.12563E-01         0.00000E+00
    0.20108E-02         0.11290E-01         0.00000E+00
    0.18504E-02         0.10035E-01         0.00000E+00
    0.16921E-02         0.87838E-02         0.00000E+00
    0.15268E-02         0.75193E-02         0.00000E+00
    0.13452E-02         0.62208E-02         0.00000E+00
    0.11355E-02         0.48629E-02         0.00000E+00
    0.87901E-03         0.34119E-02         0.00000E+00
    0.54029E-03         0.18179E-02         0.00000E+00
    0.00000E+00         0.00000E+00         0.00000E+00
    0.10181E-01         0.18419E-01         0.00000E+00
    0.87104E-02         0.17454E-01         0.00000E+00
    0.72641E-02         0.16419E-01         0.00000E+00
    0.60675E-02         0.15339E-01         0.00000E+00
    0.52080E-02         0.14231E-01         0.00000E+00
    0.46015E-02         0.13105E-01         0.00000E+00
    0.41599E-02         0.11956E-01         0.00000E+00
    0.38016E-02         0.10791E-01         0.00000E+00
    0.34761E-02         0.96176E-02         0.00000E+00
    0.31575E-02         0.84318E-02         0.00000E+00
    0.28267E-02         0.72223E-02         0.00000E+00
    0.24655E-02         0.59719E-02         0.00000E+00
    0.20512E-02         0.46582E-02         0.00000E+00
    0.15505E-02         0.32510E-02         0.00000E+00
    0.90296E-03         0.17103E-02         0.00000E+00
    0.00000E+00         0.00000E+00         0.00000E+00
    0.13239E-01         0.16658E-01         0.00000E+00
    0.11350E-01         0.15765E-01         0.00000E+00
    0.97535E-02         0.14849E-01         0.00000E+00
    0.84317E-02         0.13936E-01         0.00000E+00
    0.73895E-02         0.13007E-01         0.00000E+00
    0.65823E-02         0.12045E-01         0.00000E+00
    0.59396E-02         0.11048E-01         0.00000E+00
    0.53968E-02         0.10017E-01         0.00000E+00
    0.49031E-02         0.89588E-02         0.00000E+00
    0.44227E-02         0.78713E-02         0.00000E+00
    0.39278E-02         0.67482E-02         0.00000E+00
    0.33918E-02         0.55769E-02         0.00000E+00
    0.27838E-02         0.43391E-02         0.00000E+00
    0.20615E-02         0.30119E-02         0.00000E+00
    0.11627E-02         0.15710E-02         0.00000E+00
    0.00000E+00         0.00000E+00         0.00000E+00
    0.15778E-01         0.14527E-01         0.00000E+00
    0.13729E-01         0.13818E-01         0.00000E+00
    0.11993E-01         0.13085E-01         0.00000E+00
    0.10538E-01         0.12333E-01         0.00000E+00
    0.93367E-02         0.11560E-01         0.00000E+00
    0.83508E-02         0.10755E-01         0.00000E+00
    0.75267E-02         0.99095E-02         0.00000E+00
    0.68093E-02         0.90239E-02         0.00000E+00
    0.61504E-02         0.80987E-02         0.00000E+00
    0.55106E-02         0.71332E-02         0.00000E+00
    0.48559E-02         0.61229E-02         0.00000E+00
    0.41536E-02         0.50588E-02         0.00000E+00
    0.33677E-02         0.39279E-02         0.00000E+00
    0.24535E-02         0.27153E-02         0.00000E+00
    0.13542E-02         0.14077E-02         0.00000E+00
    0.00000E+00         0.00000E+00         0.00000E+00
    0.18054E-01         0.12230E-01         0.00000E+00
    0.15861E-01         0.11696E-01         0.00000E+00
    0.13990E-01         0.11134E-01         0.00000E+00
    0.12401E-01         0.10547E-01         0.00000E+00
    0.11055E-01         0.99318E-02         0.00000E+00
    0.99123E-02         0.92817E-02         0.00000E+00
    0.89256E-02         0.85908E-02         0.00000E+00
    0.80474E-02         0.78561E-02         0.00000E+00
    0.72325E-02         0.70764E-02         0.00000E+00
    0.64405E-02         0.62501E-02         0.00000E+00
    0.56342E-02         0.53737E-02         0.00000E+00
    0.47778E-02         0.44412E-02         0.00000E+00
    0.38328E-02         0.34442E-02         0.00000E+00
    0.27560E-02         0.23744E-02         0.00000E+00
    0.14971E-02         0.12259E-02         0.00000E+00
    0.00000E+00         0.00000E+00         0.00000E+00
    0.20058E-01         0.97919E-02         0.00000E+00
    0.17741E-01         0.94256E-02         0.00000E+00
    0.15750E-01         0.90316E-02         0.00000E+00
    0.14036E-01         0.86088E-02         0.00000E+00
    0.12558E-01         0.81539E-02         0.00000E+00
    0.11275E-01         0.76620E-02         0.00000E+00
    0.10144E-01         0.71287E-02         0.00000E+00
    0.91202E-02         0.65506E-02         0.00000E+00
    0.81618E-02         0.59255E-02         0.00000E+00
    0.72286E-02         0.52516E-02         0.00000E+00
    0.62827E-02         0.45262E-02         0.00000E+00
    0.52868E-02         0.37452E-02         0.00000E+00
    0.42027E-02         0.29042E-02         0.00000E+00
    0.29897E-02         0.19992E-02         0.00000E+00
    0.16039E-02         0.10296E-02         0.00000E+00
    0.00000E+00         0.00000E+00         0.00000E+00
    0.21790E-01         0.72434E-02         0.00000E+00
    0.19374E-01         0.70392E-02         0.00000E+00
    0.17277E-01         0.68092E-02         0.00000E+00
    0.15452E-01         0.65493E-02         0.00000E+00
    0.13857E-01         0.62560E-02         0.00000E+00
    0.12450E-01         0.59251E-02         0.00000E+00
    0.11191E-01         0.55531E-02         0.00000E+00
    0.10038E-01         0.51368E-02         0.00000E+00
    0.89502E-02         0.46743E-02         0.00000E+00
    0.78895E-02         0.41634E-02         0.00000E+00
    0.68181E-02         0.36023E-02         0.00000E+00
    0.56991E-02         0.29888E-02         0.00000E+00
    0.44954E-02         0.23209E-02         0.00000E+00
    0.31696E-02         0.15979E-02         0.00000E+00
    0.16836E-02         0.82204E-03         0.00000E+00
    0.00000E+00         0.00000E+00         0.00000E+00
    0.23259E-01         0.46128E-02         0.00000E+00
    0.20766E-01         0.45655E-02         0.00000E+00
    0.18581E-01         0.44953E-02         0.00000E+00
    0.16661E-01         0.43966E-02         0.00000E+00
    0.14963E-01         0.42650E-02         0.00000E+00
    0.13448E-01         0.40970E-02         0.00000E+00
    0.12077E-01         0.38894E-02         0.00000E+00
    0.10810E-01         0.36397E-02         0.00000E+00
    0.96092E-02         0.33460E-02         0.00000E+00
    0.84362E-02         0.30067E-02         0.00000E+00
    0.72549E-02         0.26207E-02         0.00000E+00
    0.60294E-02         0.21870E-02         0.00000E+00
    0.47249E-02         0.17053E-02         0.00000E+00
    0.33069E-02         0.11771E-02         0.00000E+00
    0.17422E-02         0.60612E-03         0.00000E+00
    0.00000E+00         0.00000E+00         0.00000E+00
    0.24473E-01         0.19248E-02         0.00000E+00
    0.21925E-01         0.20296E-02         0.00000E+00
    0.19670E-01         0.21153E-02         0.00000E+00
    0.17670E-01         0.21752E-02         0.00000E+00
    0.15886E-01         0.22047E-02         0.00000E+00
    0.14279E-01         0.22002E-02         0.00000E+00
    0.12812E-01         0.21593E-02         0.00000E+00
    0.11448E-01         0.20798E-02         0.00000E+00
    0.10149E-01         0.19601E-02         0.00000E+00
    0.88801E-02         0.17991E-02         0.00000E+00
    0.76049E-02         0.15964E-02         0.00000E+00
    0.62898E-02         0.13518E-02         0.00000E+00
    0.49019E-02         0.10662E-02         0.00000E+00
    0.34099E-02         0.74209E-03         0.00000E+00
    0.17845E-02         0.38415E-03         0.00000E+00
    0.00000E+00         0.00000E+00         0.00000E+00
    0.25447E-01        -0.80005E-03         0.00000E+00
    0.22861E-01        -0.54732E-03         0.00000E+00
    0.20553E-01        -0.30966E-03         0.00000E+00
    0.18490E-01        -0.94005E-04         0.00000E+00
    0.16634E-01         0.95030E-04         0.00000E+00
    0.14952E-01         0.25423E-03         0.00000E+00
    0.13406E-01         0.38128E-03         0.00000E+00
    0.11961E-01         0.47446E-03         0.00000E+00
    0.10581E-01         0.53261E-03         0.00000E+00
    0.92310E-02         0.55505E-03         0.00000E+00
    0.78783E-02         0.54166E-03         0.00000E+00
    0.64898E-02         0.49298E-03         0.00000E+00
    0.50349E-02         0.41056E-03         0.00000E+00
    0.34849E-02         0.29732E-03         0.00000E+00
    0.18139E-02         0.15808E-03         0.00000E+00
    0.00000E+00         0.00000E+00         0.00000E+00
    0.26192E-01        -0.35453E-02         0.00000E+00
    0.23583E-01        -0.31484E-02         0.00000E+00
    0.21238E-01        -0.27624E-02         0.00000E+00
    0.19127E-01        -0.23938E-02         0.00000E+00
    0.17217E-01        -0.20470E-02         0.00000E+00
    0.15475E-01        -0.17248E-02         0.00000E+00
    0.13866E-01        -0.14293E-02         0.00000E+00
    0.12356E-01        -0.11617E-02         0.00000E+00
    0.10911E-01        -0.92311E-03         0.00000E+00
    0.94974E-02        -0.71375E-03         0.00000E+00
    0.80831E-02        -0.53348E-03         0.00000E+00
    0.66370E-02        -0.38142E-03         0.00000E+00
    0.51304E-02        -0.25582E-03         0.00000E+00
    0.35367E-02        -0.15369E-03         0.00000E+00
    0.18330E-02        -0.70522E-04         0.00000E+00
    0.00000E+00         0.00000E+00         0.00000E+00
    0.26720E-01        -0.62982E-02         0.00000E+00
    0.24101E-01        -0.57601E-02         0.00000E+00
    0.21733E-01        -0.52290E-02         0.00000E+00
    0.19589E-01        -0.47102E-02         0.00000E+00
    0.17640E-01        -0.42076E-02         0.00000E+00
    0.15854E-01        -0.37234E-02         0.00000E+00
    0.14199E-01        -0.32595E-02         0.00000E+00
    0.12641E-01        -0.28168E-02         0.00000E+00
    0.11148E-01        -0.23961E-02         0.00000E+00
    0.96862E-02        -0.19976E-02         0.00000E+00
    0.82260E-02        -0.16209E-02         0.00000E+00
    0.67375E-02        -0.12650E-02         0.00000E+00
    0.51934E-02        -0.92831E-03         0.00000E+00
    0.35691E-02        -0.60806E-03         0.00000E+00
    0.18436E-02        -0.30038E-03         0.00000E+00
    0.00000E+00         0.00000E+00         0.00000E+00
    0.27042E-01        -0.90487E-02         0.00000E+00
    0.24423E-01        -0.83721E-02         0.00000E+00
    0.22044E-01        -0.76986E-02         0.00000E+00
    0.19882E-01        -0.70321E-02         0.00000E+00
    0.17910E-01        -0.63754E-02         0.00000E+00
    0.16097E-01        -0.57305E-02         0.00000E+00
    0.14411E-01        -0.50987E-02         0.00000E+00
    0.12822E-01        -0.44808E-02         0.00000E+00
    0.11296E-01        -0.38774E-02         0.00000E+00
    0.98028E-02        -0.32885E-02         0.00000E+00
    0.83121E-02        -0.27138E-02         0.00000E+00
    0.67958E-02        -0.21525E-02         0.00000E+00
    0.52276E-02        -0.16032E-02         0.00000E+00
    0.35846E-02        -0.10635E-02         0.00000E+00
    0.18471E-02        -0.53043E-03         0.00000E+00
    0.00000E+00         0.00000E+00         0.00000E+00
    0.27166E-01        -0.11789E-01         0.00000E+00
    0.24555E-01        -0.10976E-01         0.00000E+00
    0.22178E-01        -0.10162E-01         0.00000E+00
    0.20012E-01        -0.93502E-02         0.00000E+00
    0.18031E-01        -0.85413E-02         0.00000E+00
    0.16207E-01        -0.77368E-02         0.00000E+00
    0.14507E-01        -0.69379E-02         0.00000E+00
    0.12903E-01        -0.61452E-02         0.00000E+00
    0.11361E-01        -0.53591E-02         0.00000E+00
    0.98513E-02        -0.45796E-02         0.00000E+00
    0.83453E-02        -0.38067E-02         0.00000E+00
    0.68151E-02        -0.30395E-02         0.00000E+00
    0.52358E-02        -0.22772E-02         0.00000E+00
    0.35851E-02        -0.15180E-02         0.00000E+00
    0.18445E-02        -0.75983E-03         0.00000E+00
    0.00000E+00         0.00000E+00         0.00000E+00
    0.27097E-01        -0.14514E-01         0.00000E+00
    0.24503E-01        -0.13566E-01         0.00000E+00
    0.22138E-01        -0.12614E-01         0.00000E+00
    0.19982E-01        -0.11657E-01         0.00000E+00
    0.18008E-01        -0.10697E-01         0.00000E+00
    0.16187E-01        -0.97345E-02         0.00000E+00
    0.14491E-01        -0.87695E-02         0.00000E+00
    0.12887E-01        -0.78028E-02         0.00000E+00
    0.11345E-01        -0.68346E-02         0.00000E+00
    0.98346E-02        -0.58652E-02         0.00000E+00
    0.83280E-02        -0.48946E-02         0.00000E+00
    0.67978E-02        -0.39222E-02         0.00000E+00
    0.52196E-02        -0.29476E-02         0.00000E+00
    0.35718E-02        -0.19699E-02         0.00000E+00
    0.18365E-02        -0.98780E-03         0.00000E+00
    0.00000E+00         0.00000E+00         0.00000E+00
    0.26838E-01        -0.17216E-01         0.00000E+00
    0.24268E-01        -0.16135E-01         0.00000E+00
    0.21928E-01        -0.15046E-01         0.00000E+00
    0.19794E-01        -0.13946E-01         0.00000E+00
    0.17841E-01        -0.12836E-01         0.00000E+00
    0.16041E-01        -0.11716E-01         0.00000E+00
    0.14363E-01        -0.10586E-01         0.00000E+00
    0.12776E-01        -0.94468E-02         0.00000E+00
    0.11250E-01        -0.82978E-02         0.00000E+00
    0.97544E-02        -0.71398E-02         0.00000E+00
    0.82616E-02        -0.59729E-02         0.00000E+00
    0.67449E-02        -0.47971E-02         0.00000E+00
    0.51798E-02        -0.36120E-02         0.00000E+00
    0.35452E-02        -0.24176E-02         0.00000E+00
    0.18231E-02        -0.12136E-02         0.00000E+00
    0.00000E+00         0.00000E+00         0.00000E+00
    0.26391E-01        -0.19893E-01         0.00000E+00
    0.23853E-01        -0.18679E-01         0.00000E+00
    0.21547E-01        -0.17452E-01         0.00000E+00
    0.19449E-01        -0.16210E-01         0.00000E+00
    0.17533E-01        -0.14952E-01         0.00000E+00
    0.15769E-01        -0.13675E-01         0.00000E+00
    0.14125E-01        -0.12382E-01         0.00000E+00
    0.12571E-01        -0.11071E-01         0.00000E+00
    0.11077E-01        -0.97426E-02         0.00000E+00
    0.96112E-02        -0.83981E-02         0.00000E+00
    0.81466E-02        -0.70373E-02         0.00000E+00
    0.66565E-02        -0.56605E-02         0.00000E+00
    0.51166E-02        -0.42679E-02         0.00000E+00
    0.35052E-02        -0.28597E-02         0.00000E+00
    0.18044E-02        -0.14367E-02         0.00000E+00
    0.00000E+00         0.00000E+00         0.00000E+00
    0.25752E-01        -0.22536E-01         0.00000E+00
    0.23254E-01        -0.21190E-01         0.00000E+00
    0.20995E-01        -0.19827E-01         0.00000E+00
    0.18948E-01        -0.18443E-01         0.00000E+00
    0.17083E-01        -0.17036E-01         0.00000E+00
    0.15371E-01        -0.15604E-01         0.00000E+00
    0.13778E-01        -0.14148E-01         0.00000E+00
    0.12273E-01        -0.12667E-01         0.00000E+00
    0.10825E-01        -0.11162E-01         0.00000E+00
    0.94045E-02        -0.96343E-02         0.00000E+00
    0.79823E-02        -0.80830E-02         0.00000E+00
    0.65320E-02        -0.65089E-02         0.00000E+00
    0.50290E-02        -0.49125E-02         0.00000E+00
    0.34513E-02        -0.32944E-02         0.00000E+00
    0.17800E-02        -0.16562E-02         0.00000E+00
    0.00000E+00         0.00000E+00         0.00000E+00
    0.24917E-01        -0.25140E-01         0.00000E+00
    0.22469E-01        -0.23661E-01         0.00000E+00
    0.20270E-01        -0.22162E-01         0.00000E+00
    0.18288E-01        -0.20636E-01         0.00000E+00
    0.16491E-01        -0.19080E-01         0.00000E+00
    0.14847E-01        -0.17494E-01         0.00000E+00
    0.13320E-01        -0.15877E-01         0.00000E+00
    0.11880E-01        -0.14228E-01         0.00000E+00
    0.10494E-01        -0.12550E-01         0.00000E+00
    0.91327E-02        -0.10842E-01         0.00000E+00
    0.77667E-02        -0.91047E-02         0.00000E+00
    0.63693E-02        -0.73381E-02         0.00000E+00
    0.49154E-02        -0.55429E-02         0.00000E+00
    0.33821E-02        -0.37201E-02         0.00000E+00
    0.17492E-02        -0.18714E-02         0.00000E+00
    0.00000E+00         0.00000E+00         0.00000E+00
    0.23879E-01        -0.27694E-01         0.00000E+00
    0.21494E-01        -0.26083E-01         0.00000E+00
    0.19369E-01        -0.24446E-01         0.00000E+00
    0.17468E-01        -0.22778E-01         0.00000E+00
    0.15755E-01        -0.21075E-01         0.00000E+00
    0.14194E-01        -0.19335E-01         0.00000E+00
    0.12751E-01        -0.17558E-01         0.00000E+00
    0.11390E-01        -0.15745E-01         0.00000E+00
    0.10081E-01        -0.13897E-01         0.00000E+00
    0.87930E-02        -0.12014E-01         0.00000E+00
    0.74970E-02        -0.10096E-01         0.00000E+00
    0.61658E-02        -0.81434E-02         0.00000E+00
    0.47734E-02        -0.61559E-02         0.00000E+00
    0.32957E-02        -0.41345E-02         0.00000E+00
    0.17108E-02        -0.20813E-02         0.00000E+00
    0.00000E+00         0.00000E+00         0.00000E+00
    0.22630E-01        -0.30186E-01         0.00000E+00
    0.20323E-01        -0.28443E-01         0.00000E+00
    0.18288E-01        -0.26669E-01         0.00000E+00
    0.16485E-01        -0.24858E-01         0.00000E+00
    0.14873E-01        -0.23007E-01         0.00000E+00
    0.13412E-01        -0.21114E-01         0.00000E+00
    0.12067E-01        -0.19180E-01         0.00000E+00
    0.10801E-01        -0.17207E-01         0.00000E+00
    0.95825E-02        -0.15194E-01         0.00000E+00
    0.83816E-02        -0.13142E-01         0.00000E+00
    0.71691E-02        -0.11050E-01         0.00000E+00
    0.59172E-02        -0.89191E-02         0.00000E+00
    0.45992E-02        -0.67472E-02         0.00000E+00
    0.31893E-02        -0.45352E-02         0.00000E+00
    0.16634E-02        -0.22848E-02         0.00000E+00
    0.00000E+00         0.00000E+00         0.00000E+00
    0.21159E-01        -0.32603E-01         0.00000E+00
    0.18948E-01        -0.30726E-01         0.00000E+00
    0.17023E-01        -0.28815E-01         0.00000E+00
    0.15336E-01        -0.26860E-01         0.00000E+00
    0.13842E-01        -0.24861E-01         0.00000E+00
    0.12498E-01        -0.22816E-01         0.00000E+00
    0.11265E-01        -0.20729E-01         0.00000E+00
    0.10108E-01        -0.18599E-01         0.00000E+00
    0.89939E-02        -0.16427E-01         0.00000E+00
    0.78932E-02        -0.14214E-01         0.00000E+00
    0.67773E-02        -0.11959E-01         0.00000E+00
    0.56180E-02        -0.96585E-02         0.00000E+00
    0.43878E-02        -0.73123E-02         0.00000E+00
    0.30591E-02        -0.49194E-02         0.00000E+00
    0.16050E-02        -0.24807E-02         0.00000E+00
    0.00000E+00         0.00000E+00         0.00000E+00
    0.19456E-01        -0.34924E-01         0.00000E+00
    0.17361E-01        -0.32914E-01         0.00000E+00
    0.15568E-01        -0.30863E-01         0.00000E+00
    0.14018E-01        -0.28765E-01         0.00000E+00
    0.12661E-01        -0.26618E-01         0.00000E+00
    0.11449E-01        -0.24424E-01         0.00000E+00
    0.10343E-01        -0.22186E-01         0.00000E+00
    0.93072E-02        -0.19906E-01         0.00000E+00
    0.83095E-02        -0.17584E-01         0.00000E+00
    0.73211E-02        -0.15219E-01         0.00000E+00
    0.63142E-02        -0.12811E-01         0.00000E+00
    0.52609E-02        -0.10354E-01         0.00000E+00
    0.41328E-02        -0.78457E-02         0.00000E+00
    0.29003E-02        -0.52837E-02         0.00000E+00
    0.15328E-02        -0.26674E-02         0.00000E+00
    0.00000E+00         0.00000E+00         0.00000E+00
    0.17508E-01        -0.37125E-01         0.00000E+00
    0.15557E-01        -0.34982E-01         0.00000E+00
    0.13920E-01        -0.32791E-01         0.00000E+00
    0.12529E-01        -0.30548E-01         0.00000E+00
    0.11327E-01        -0.28254E-01         0.00000E+00
    0.10263E-01        -0.25914E-01         0.00000E+00
    0.92966E-02        -0.23531E-01         0.00000E+00
    0.83929E-02        -0.21109E-01         0.00000E+00
    0.75220E-02        -0.18647E-01         0.00000E+00
    0.66567E-02        -0.16143E-01         0.00000E+00
    0.57705E-02        -0.13595E-01         0.00000E+00
    0.48364E-02        -0.10996E-01         0.00000E+00
    0.38255E-02        -0.83408E-02         0.00000E+00
    0.27060E-02        -0.56243E-02         0.00000E+00
    0.14431E-02        -0.28435E-02         0.00000E+00
    0.00000E+00         0.00000E+00         0.00000E+00
    0.15301E-01        -0.39178E-01         0.00000E+00
    0.13527E-01        -0.36901E-01         0.00000E+00
    0.12076E-01        -0.34569E-01         0.00000E+00
    0.10868E-01        -0.32180E-01         0.00000E+00
    0.98390E-02        -0.29742E-01         0.00000E+00
    0.89365E-02        -0.27261E-01         0.00000E+00
    0.81202E-02        -0.24741E-01         0.00000E+00
    0.73580E-02        -0.22187E-01         0.00000E+00
    0.66226E-02        -0.19597E-01         0.00000E+00
    0.58895E-02        -0.16969E-01         0.00000E+00
    0.51346E-02        -0.14298E-01         0.00000E+00
    0.43326E-02        -0.11574E-01         0.00000E+00
    0.34548E-02        -0.87902E-02         0.00000E+00
    0.24675E-02        -0.59367E-02         0.00000E+00
    0.13309E-02        -0.30070E-02         0.00000E+00
    0.00000E+00         0.00000E+00         0.00000E+00
    0.12825E-01        -0.41045E-01         0.00000E+00
    0.11266E-01        -0.38634E-01         0.00000E+00
    0.10035E-01        -0.36159E-01         0.00000E+00
    0.90352E-02        -0.33627E-01         0.00000E+00
    0.81961E-02        -0.31048E-01         0.00000E+00
    0.74662E-02        -0.28433E-01         0.00000E+00
    0.68082E-02        -0.25789E-01         0.00000E+00
    0.61940E-02        -0.23116E-01         0.00000E+00
    0.56005E-02        -0.20415E-01         0.00000E+00
    0.50068E-02        -0.17681E-01         0.00000E+00
    0.43923E-02        -0.14905E-01         0.00000E+00
    0.37345E-02        -0.12077E-01         0.00000E+00
    0.30062E-02        -0.91853E-02         0.00000E+00
    0.21729E-02        -0.62157E-02         0.00000E+00
    0.11894E-02        -0.31558E-02         0.00000E+00
    0.00000E+00         0.00000E+00         0.00000E+00
    0.10065E-01        -0.42681E-01         0.00000E+00
    0.87737E-02        -0.40134E-01         0.00000E+00
    0.78001E-02        -0.37516E-01         0.00000E+00
    0.70325E-02        -0.34843E-01         0.00000E+00
    0.63970E-02        -0.32133E-01         0.00000E+00
    0.58472E-02        -0.29398E-01         0.00000E+00
    0.53524E-02        -0.26645E-01         0.00000E+00
    0.48903E-02        -0.23873E-01         0.00000E+00
    0.44428E-02        -0.21080E-01         0.00000E+00
    0.39938E-02        -0.18259E-01         0.00000E+00
    0.35269E-02        -0.15400E-01         0.00000E+00
    0.30238E-02        -0.12491E-01         0.00000E+00
    0.24612E-02        -0.95157E-02         0.00000E+00
    0.18059E-02        -0.64547E-02         0.00000E+00
    0.10087E-02        -0.32876E-02         0.00000E+00
    0.00000E+00         0.00000E+00         0.00000E+00
    0.70107E-02        -0.44022E-01         0.00000E+00
    0.60525E-02        -0.41340E-01         0.00000E+00
    0.53791E-02        -0.38581E-01         0.00000E+00
    0.48626E-02        -0.35777E-01         0.00000E+00
    0.44382E-02        -0.32953E-01         0.00000E+00
    0.40719E-02        -0.30121E-01         0.00000E+00
    0.37422E-02        -0.27281E-01         0.00000E+00
    0.34339E-02        -0.24434E-01         0.00000E+00
    0.31347E-02        -0.21571E-01         0.00000E+00
    0.28337E-02        -0.18687E-01         0.00000E+00
    0.25197E-02        -0.15768E-01         0.00000E+00
    0.21797E-02        -0.12802E-01         0.00000E+00
    0.17964E-02        -0.97687E-02         0.00000E+00
    0.13436E-02        -0.66452E-02         0.00000E+00
    0.77342E-03        -0.33987E-02         0.00000E+00
    0.00000E+00         0.00000E+00         0.00000E+00
    0.36512E-02        -0.44981E-01         0.00000E+00
    0.31193E-02        -0.42162E-01         0.00000E+00
    0.27808E-02        -0.39274E-01         0.00000E+00
    0.25227E-02        -0.36370E-01         0.00000E+00
    0.23111E-02        -0.33467E-01         0.00000E+00
    0.21284E-02        -0.30569E-01         0.00000E+00
    0.19637E-02        -0.27675E-01         0.00000E+00
    0.18095E-02        -0.24778E-01         0.00000E+00
    0.16597E-02        -0.21873E-01         0.00000E+00
    0.15087E-02        -0.18950E-01         0.00000E+00
    0.13508E-02        -0.15995E-01         0.00000E+00
    0.11794E-02        -0.12995E-01         0.00000E+00
    0.98533E-03        -0.99296E-02         0.00000E+00
    0.75379E-03        -0.67724E-02         0.00000E+00
    0.45671E-03        -0.34839E-02         0.00000E+00
    0.00000E+00         0.00000E+00         0.00000E+00
    0.00000E+00        -0.45392E-01         0.00000E+00
    0.00000E+00        -0.42466E-01         0.00000E+00
    0.00000E+00        -0.39517E-01         0.00000E+00
    0.00000E+00        -0.36574E-01         0.00000E+00
    0.00000E+00        -0.33643E-01         0.00000E+00
    0.00000E+00        -0.30721E-01         0.00000E+00
    0.00000E+00        -0.27808E-01         0.00000E+00
    0.00000E+00        -0.24895E-01         0.00000E+00
    0.00000E+00        -0.21975E-01         0.00000E+00
    0.00000E+00        -0.19039E-01         0.00000E+00
    0.00000E+00        -0.16072E-01         0.00000E+00
    0.00000E+00        -0.13061E-01         0.00000E+00
    0.00000E+00        -0.99851E-02         0.00000E+00
    0.00000E+00        -0.68178E-02         0.00000E+00
    0.00000E+00        -0.35192E-02         0.00000E+00
    0.00000E+00         0.00000E+00         0.00000E+00
CELL_DATA        450
VECTORS vDarcy double 
    0.23955E-07        -0.58714E-11         0.00000E+00
    0.23955E-07        -0.44947E-11         0.00000E+00
    0.23945E-07         0.23144E-11         0.00000E+00
    0.23923E-07         0.76482E-11         0.00000E+00
    0.23895E-07         0.10756E-10         0.00000E+00
    0.23864E-07         0.12894E-10         0.00000E+00
    0.23833E-07         0.13942E-10         0.00000E+00
    0.23801E-07         0.13996E-10         0.00000E+00
    0.23771E-07         0.13269E-10         0.00000E+00
    0.23743E-07         0.11858E-10         0.00000E+00
    0.23718E-07         0.98047E-11         0.00000E+00
    0.23699E-07         0.71254E-11         0.00000E+00
    0.23685E-07         0.38796E-11         0.00000E+00
    0.23678E-07         0.32871E-12         0.00000E+00
    0.23676E-07        -0.21919E-11         0.00000E+00
    0.23831E-07        -0.36810E-11         0.00000E+00
    0.23804E-07         0.24407E-11         0.00000E+00
    0.23773E-07         0.16185E-10         0.00000E+00
    0.23743E-07         0.28065E-10         0.00000E+00
    0.23713E-07         0.34933E-10         0.00000E+00
    0.23682E-07         0.39467E-10         0.00000E+00
    0.23651E-07         0.41557E-10         0.00000E+00
    0.23620E-07         0.41350E-10         0.00000E+00
    0.23591E-07         0.39169E-10         0.00000E+00
    0.23564E-07         0.35247E-10         0.00000E+00
    0.23540E-07         0.29705E-10         0.00000E+00
    0.23519E-07         0.22631E-10         0.00000E+00
    0.23501E-07         0.14245E-10         0.00000E+00
    0.23487E-07         0.53299E-11         0.00000E+00
    0.23477E-07        -0.12430E-11         0.00000E+00
    0.23506E-07         0.11107E-10         0.00000E+00
    0.23481E-07         0.27393E-10         0.00000E+00
    0.23452E-07         0.41097E-10         0.00000E+00
    0.23423E-07         0.53414E-10         0.00000E+00
    0.23394E-07         0.61665E-10         0.00000E+00
    0.23364E-07         0.66415E-10         0.00000E+00
    0.23335E-07         0.68085E-10         0.00000E+00
    0.23307E-07         0.66958E-10         0.00000E+00
    0.23280E-07         0.63335E-10         0.00000E+00
    0.23255E-07         0.57485E-10         0.00000E+00
    0.23232E-07         0.49582E-10         0.00000E+00
    0.23211E-07         0.39771E-10         0.00000E+00
    0.23193E-07         0.28343E-10         0.00000E+00
    0.23177E-07         0.16121E-10         0.00000E+00
    0.23166E-07         0.49214E-11         0.00000E+00
    0.23039E-07         0.19562E-10         0.00000E+00
    0.23028E-07         0.48078E-10         0.00000E+00
    0.23007E-07         0.66143E-10         0.00000E+00
    0.22980E-07         0.78685E-10         0.00000E+00
    0.22952E-07         0.87235E-10         0.00000E+00
    0.22925E-07         0.91413E-10         0.00000E+00
    0.22900E-07         0.91984E-10         0.00000E+00
    0.22876E-07         0.89552E-10         0.00000E+00
    0.22854E-07         0.84559E-10         0.00000E+00
    0.22832E-07         0.77290E-10         0.00000E+00
    0.22813E-07         0.67906E-10         0.00000E+00
    0.22794E-07         0.56480E-10         0.00000E+00
    0.22777E-07         0.43090E-10         0.00000E+00
    0.22763E-07         0.27868E-10         0.00000E+00
    0.22753E-07         0.10560E-10         0.00000E+00
    0.22484E-07         0.25078E-10         0.00000E+00
    0.22470E-07         0.62961E-10         0.00000E+00
    0.22451E-07         0.87308E-10         0.00000E+00
    0.22429E-07         0.10156E-09         0.00000E+00
    0.22407E-07         0.10928E-09         0.00000E+00
    0.22386E-07         0.11216E-09         0.00000E+00
    0.22367E-07         0.11127E-09         0.00000E+00
    0.22349E-07         0.10745E-09         0.00000E+00
    0.22332E-07         0.10127E-09         0.00000E+00
    0.22316E-07         0.93032E-10         0.00000E+00
    0.22302E-07         0.82818E-10         0.00000E+00
    0.22287E-07         0.70506E-10         0.00000E+00
    0.22274E-07         0.55750E-10         0.00000E+00
    0.22263E-07         0.37813E-10         0.00000E+00
    0.22256E-07         0.15117E-10         0.00000E+00
    0.21837E-07         0.31411E-10         0.00000E+00
    0.21827E-07         0.76263E-10         0.00000E+00
    0.21813E-07         0.10335E-09         0.00000E+00
    0.21798E-07         0.11832E-09         0.00000E+00
    0.21784E-07         0.12511E-09         0.00000E+00
    0.21771E-07         0.12646E-09         0.00000E+00
    0.21759E-07         0.12404E-09         0.00000E+00
    0.21749E-07         0.11897E-09         0.00000E+00
    0.21739E-07         0.11190E-09         0.00000E+00
    0.21731E-07         0.10314E-09         0.00000E+00
    0.21722E-07         0.92637E-10         0.00000E+00
    0.21714E-07         0.80030E-10         0.00000E+00
    0.21706E-07         0.64527E-10         0.00000E+00
    0.21699E-07         0.44721E-10         0.00000E+00
    0.21694E-07         0.18222E-10         0.00000E+00
    0.21133E-07         0.35040E-10         0.00000E+00
    0.21129E-07         0.84198E-10         0.00000E+00
    0.21122E-07         0.11251E-09         0.00000E+00
    0.21116E-07         0.12709E-09         0.00000E+00
    0.21111E-07         0.13270E-09         0.00000E+00
    0.21107E-07         0.13256E-09         0.00000E+00
    0.21104E-07         0.12881E-09         0.00000E+00
    0.21103E-07         0.12278E-09         0.00000E+00
    0.21102E-07         0.11522E-09         0.00000E+00
    0.21101E-07         0.10640E-09         0.00000E+00
    0.21100E-07         0.96154E-10         0.00000E+00
    0.21098E-07         0.83880E-10         0.00000E+00
    0.21096E-07         0.68441E-10         0.00000E+00
    0.21094E-07         0.47996E-10         0.00000E+00
    0.21092E-07         0.19732E-10         0.00000E+00
    0.20407E-07         0.35789E-10         0.00000E+00
    0.20408E-07         0.85585E-10         0.00000E+00
    0.20409E-07         0.11340E-09         0.00000E+00
    0.20412E-07         0.12678E-09         0.00000E+00
    0.20417E-07         0.13094E-09         0.00000E+00
    0.20423E-07         0.12945E-09         0.00000E+00
    0.20430E-07         0.12468E-09         0.00000E+00
    0.20438E-07         0.11811E-09         0.00000E+00
    0.20445E-07         0.11053E-09         0.00000E+00
    0.20453E-07         0.10216E-09         0.00000E+00
    0.20459E-07         0.92755E-10         0.00000E+00
    0.20465E-07         0.81525E-10         0.00000E+00
    0.20469E-07         0.67120E-10         0.00000E+00
    0.20471E-07         0.47476E-10         0.00000E+00
    0.20472E-07         0.19649E-10         0.00000E+00
    0.19690E-07         0.33795E-10         0.00000E+00
    0.19695E-07         0.80484E-10         0.00000E+00
    0.19704E-07         0.10584E-09         0.00000E+00
    0.19717E-07         0.11715E-09         0.00000E+00
    0.19731E-07         0.11964E-09         0.00000E+00
    0.19746E-07         0.11694E-09         0.00000E+00
    0.19763E-07         0.11150E-09         0.00000E+00
    0.19779E-07         0.10483E-09         0.00000E+00
    0.19796E-07         0.97724E-10         0.00000E+00
    0.19811E-07         0.90366E-10         0.00000E+00
    0.19825E-07         0.82416E-10         0.00000E+00
    0.19837E-07         0.73000E-10         0.00000E+00
    0.19846E-07         0.60669E-10         0.00000E+00
    0.19853E-07         0.43319E-10         0.00000E+00
    0.19857E-07         0.18080E-10         0.00000E+00
    0.19010E-07         0.29414E-10         0.00000E+00
    0.19019E-07         0.69575E-10         0.00000E+00
    0.19035E-07         0.90542E-10         0.00000E+00
    0.19055E-07         0.98874E-10         0.00000E+00
    0.19078E-07         0.99418E-10         0.00000E+00
    0.19102E-07         0.95625E-10         0.00000E+00
    0.19127E-07         0.89831E-10         0.00000E+00
    0.19152E-07         0.83489E-10         0.00000E+00
    0.19175E-07         0.77339E-10         0.00000E+00
    0.19198E-07         0.71523E-10         0.00000E+00
    0.19218E-07         0.65648E-10         0.00000E+00
    0.19236E-07         0.58810E-10         0.00000E+00
    0.19251E-07         0.49571E-10         0.00000E+00
    0.19261E-07         0.35921E-10         0.00000E+00
    0.19267E-07         0.15217E-10         0.00000E+00
    0.18391E-07         0.23118E-10         0.00000E+00
    0.18403E-07         0.53907E-10         0.00000E+00
    0.18424E-07         0.68781E-10         0.00000E+00
    0.18450E-07         0.73268E-10         0.00000E+00
    0.18480E-07         0.71566E-10         0.00000E+00
    0.18511E-07         0.66724E-10         0.00000E+00
    0.18543E-07         0.60832E-10         0.00000E+00
    0.18574E-07         0.55185E-10         0.00000E+00
    0.18604E-07         0.50425E-10         0.00000E+00
    0.18633E-07         0.46633E-10         0.00000E+00
    0.18658E-07         0.43395E-10         0.00000E+00
    0.18681E-07         0.39829E-10         0.00000E+00
    0.18699E-07         0.34590E-10         0.00000E+00
    0.18713E-07         0.25854E-10         0.00000E+00
    0.18721E-07         0.11309E-10         0.00000E+00
    0.17850E-07         0.15441E-10         0.00000E+00
    0.17864E-07         0.34736E-10         0.00000E+00
    0.17889E-07         0.42174E-10         0.00000E+00
    0.17919E-07         0.42086E-10         0.00000E+00
    0.17954E-07         0.37848E-10         0.00000E+00
    0.17990E-07         0.31957E-10         0.00000E+00
    0.18027E-07         0.26143E-10         0.00000E+00
    0.18063E-07         0.21469E-10         0.00000E+00
    0.18098E-07         0.18437E-10         0.00000E+00
    0.18131E-07         0.17061E-10         0.00000E+00
    0.18160E-07         0.16918E-10         0.00000E+00
    0.18186E-07         0.17190E-10         0.00000E+00
    0.18208E-07         0.16675E-10         0.00000E+00
    0.18223E-07         0.13800E-10         0.00000E+00
    0.18232E-07         0.66395E-11         0.00000E+00
    0.17400E-07         0.69297E-11         0.00000E+00
    0.17416E-07         0.13391E-10         0.00000E+00
    0.17442E-07         0.12493E-10         0.00000E+00
    0.17476E-07         0.73063E-11         0.00000E+00
    0.17513E-07         0.29834E-12         0.00000E+00
    0.17552E-07        -0.66702E-11         0.00000E+00
    0.17592E-07        -0.12306E-10         0.00000E+00
    0.17631E-07        -0.15827E-10         0.00000E+00
    0.17668E-07        -0.16901E-10         0.00000E+00
    0.17703E-07        -0.15594E-10         0.00000E+00
    0.17735E-07        -0.12323E-10         0.00000E+00
    0.17763E-07        -0.78236E-11         0.00000E+00
    0.17786E-07        -0.31218E-11         0.00000E+00
    0.17803E-07         0.49241E-12         0.00000E+00
    0.17813E-07         0.15025E-11         0.00000E+00
    0.17049E-07        -0.18888E-11         0.00000E+00
    0.17065E-07        -0.88207E-11         0.00000E+00
    0.17092E-07        -0.18484E-10         0.00000E+00
    0.17126E-07        -0.29044E-10         0.00000E+00
    0.17164E-07        -0.38960E-10         0.00000E+00
    0.17204E-07        -0.47038E-10         0.00000E+00
    0.17244E-07        -0.52456E-10         0.00000E+00
    0.17284E-07        -0.54742E-10         0.00000E+00
    0.17322E-07        -0.53750E-10         0.00000E+00
    0.17358E-07        -0.49630E-10         0.00000E+00
    0.17390E-07        -0.42792E-10         0.00000E+00
    0.17419E-07        -0.33876E-10         0.00000E+00
    0.17442E-07        -0.23722E-10         0.00000E+00
    0.17460E-07        -0.13329E-10         0.00000E+00
    0.17469E-07        -0.38120E-11         0.00000E+00
    0.16799E-07        -0.10536E-10         0.00000E+00
    0.16814E-07        -0.30693E-10         0.00000E+00
    0.16840E-07        -0.49083E-10         0.00000E+00
    0.16873E-07        -0.65026E-10         0.00000E+00
    0.16910E-07        -0.77865E-10         0.00000E+00
    0.16948E-07        -0.87065E-10         0.00000E+00
    0.16988E-07        -0.92270E-10         0.00000E+00
    0.17026E-07        -0.93325E-10         0.00000E+00
    0.17063E-07        -0.90276E-10         0.00000E+00
    0.17098E-07        -0.83358E-10         0.00000E+00
    0.17129E-07        -0.72972E-10         0.00000E+00
    0.17157E-07        -0.59664E-10         0.00000E+00
    0.17180E-07        -0.44088E-10         0.00000E+00
    0.17196E-07        -0.26966E-10         0.00000E+00
    0.17206E-07        -0.90351E-11         0.00000E+00
    0.16647E-07        -0.18600E-10         0.00000E+00
    0.16661E-07        -0.51167E-10         0.00000E+00
    0.16685E-07        -0.77813E-10         0.00000E+00
    0.16715E-07        -0.98887E-10         0.00000E+00
    0.16749E-07        -0.11453E-09         0.00000E+00
    0.16785E-07        -0.12483E-09         0.00000E+00
    0.16821E-07        -0.12985E-09         0.00000E+00
    0.16857E-07        -0.12975E-09         0.00000E+00
    0.16891E-07        -0.12477E-09         0.00000E+00
    0.16923E-07        -0.11520E-09         0.00000E+00
    0.16952E-07        -0.10146E-09         0.00000E+00
    0.16977E-07        -0.83986E-10         0.00000E+00
    0.16998E-07        -0.63273E-10         0.00000E+00
    0.17014E-07        -0.39787E-10         0.00000E+00
    0.17022E-07        -0.13929E-10         0.00000E+00
    0.16588E-07        -0.25743E-10         0.00000E+00
    0.16600E-07        -0.69365E-10         0.00000E+00
    0.16621E-07        -0.10342E-09         0.00000E+00
    0.16647E-07        -0.12913E-09         0.00000E+00
    0.16677E-07        -0.14734E-09         0.00000E+00
    0.16708E-07        -0.15864E-09         0.00000E+00
    0.16740E-07        -0.16353E-09         0.00000E+00
    0.16771E-07        -0.16242E-09         0.00000E+00
    0.16801E-07        -0.15570E-09         0.00000E+00
    0.16829E-07        -0.14377E-09         0.00000E+00
    0.16854E-07        -0.12700E-09         0.00000E+00
    0.16877E-07        -0.10579E-09         0.00000E+00
    0.16895E-07        -0.80457E-10         0.00000E+00
    0.16908E-07        -0.51254E-10         0.00000E+00
    0.16916E-07        -0.18294E-10         0.00000E+00
    0.16613E-07        -0.31707E-10         0.00000E+00
    0.16623E-07        -0.84600E-10         0.00000E+00
    0.16640E-07        -0.12491E-09         0.00000E+00
    0.16661E-07        -0.15455E-09         0.00000E+00
    0.16685E-07        -0.17495E-09         0.00000E+00
    0.16711E-07        -0.18715E-09         0.00000E+00
    0.16737E-07        -0.19195E-09         0.00000E+00
    0.16763E-07        -0.19000E-09         0.00000E+00
    0.16787E-07        -0.18183E-09         0.00000E+00
    0.16810E-07        -0.16790E-09         0.00000E+00
    0.16831E-07        -0.14859E-09         0.00000E+00
    0.16849E-07        -0.12421E-09         0.00000E+00
    0.16864E-07        -0.94969E-10         0.00000E+00
    0.16875E-07        -0.60929E-10         0.00000E+00
    0.16881E-07        -0.21970E-10         0.00000E+00
    0.16711E-07        -0.36308E-10         0.00000E+00
    0.16719E-07        -0.96377E-10         0.00000E+00
    0.16731E-07        -0.14154E-09         0.00000E+00
    0.16747E-07        -0.17426E-09         0.00000E+00
    0.16765E-07        -0.19638E-09         0.00000E+00
    0.16784E-07        -0.20929E-09         0.00000E+00
    0.16803E-07        -0.21404E-09         0.00000E+00
    0.16822E-07        -0.21145E-09         0.00000E+00
    0.16841E-07        -0.20217E-09         0.00000E+00
    0.16858E-07        -0.18670E-09         0.00000E+00
    0.16873E-07        -0.16542E-09         0.00000E+00
    0.16887E-07        -0.13859E-09         0.00000E+00
    0.16898E-07        -0.10630E-09         0.00000E+00
    0.16906E-07        -0.68486E-10         0.00000E+00
    0.16911E-07        -0.24841E-10         0.00000E+00
    0.16870E-07        -0.39433E-10         0.00000E+00
    0.16874E-07        -0.10438E-09         0.00000E+00
    0.16882E-07        -0.15285E-09         0.00000E+00
    0.16893E-07        -0.18767E-09         0.00000E+00
    0.16904E-07        -0.21096E-09         0.00000E+00
    0.16916E-07        -0.22436E-09         0.00000E+00
    0.16928E-07        -0.22909E-09         0.00000E+00
    0.16940E-07        -0.22608E-09         0.00000E+00
    0.16951E-07        -0.21607E-09         0.00000E+00
    0.16962E-07        -0.19957E-09         0.00000E+00
    0.16972E-07        -0.17696E-09         0.00000E+00
    0.16981E-07        -0.14846E-09         0.00000E+00
    0.16988E-07        -0.11410E-09         0.00000E+00
    0.16993E-07        -0.73701E-10         0.00000E+00
    0.16996E-07        -0.26827E-10         0.00000E+00
    0.17075E-07        -0.41034E-10         0.00000E+00
    0.17077E-07        -0.10847E-09         0.00000E+00
    0.17081E-07        -0.15861E-09         0.00000E+00
    0.17085E-07        -0.19447E-09         0.00000E+00
    0.17089E-07        -0.21835E-09         0.00000E+00
    0.17094E-07        -0.23199E-09         0.00000E+00
    0.17099E-07        -0.23671E-09         0.00000E+00
    0.17103E-07        -0.23351E-09         0.00000E+00
    0.17108E-07        -0.22314E-09         0.00000E+00
    0.17112E-07        -0.20614E-09         0.00000E+00
    0.17116E-07        -0.18289E-09         0.00000E+00
    0.17119E-07        -0.15357E-09         0.00000E+00
    0.17122E-07        -0.11817E-09         0.00000E+00
    0.17125E-07        -0.76450E-10         0.00000E+00
    0.17126E-07        -0.27888E-10         0.00000E+00
    0.17314E-07        -0.41113E-10         0.00000E+00
    0.17313E-07        -0.10863E-09         0.00000E+00
    0.17312E-07        -0.15878E-09         0.00000E+00
    0.17310E-07        -0.19463E-09         0.00000E+00
    0.17308E-07        -0.21848E-09         0.00000E+00
    0.17306E-07        -0.23211E-09         0.00000E+00
    0.17303E-07        -0.23682E-09         0.00000E+00
    0.17301E-07        -0.23363E-09         0.00000E+00
    0.17298E-07        -0.22328E-09         0.00000E+00
    0.17296E-07        -0.20633E-09         0.00000E+00
    0.17294E-07        -0.18312E-09         0.00000E+00
    0.17292E-07        -0.15384E-09         0.00000E+00
    0.17291E-07        -0.11846E-09         0.00000E+00
    0.17290E-07        -0.76699E-10         0.00000E+00
    0.17290E-07        -0.28012E-10         0.00000E+00
    0.17572E-07        -0.39719E-10         0.00000E+00
    0.17569E-07        -0.10499E-09         0.00000E+00
    0.17564E-07        -0.15355E-09         0.00000E+00
    0.17556E-07        -0.18833E-09         0.00000E+00
    0.17548E-07        -0.21157E-09         0.00000E+00
    0.17538E-07        -0.22491E-09         0.00000E+00
    0.17529E-07        -0.22961E-09         0.00000E+00
    0.17519E-07        -0.22662E-09         0.00000E+00
    0.17510E-07        -0.21666E-09         0.00000E+00
    0.17502E-07        -0.20026E-09         0.00000E+00
    0.17494E-07        -0.17776E-09         0.00000E+00
    0.17487E-07        -0.14936E-09         0.00000E+00
    0.17482E-07        -0.11502E-09         0.00000E+00
    0.17478E-07        -0.74489E-10         0.00000E+00
    0.17477E-07        -0.27216E-10         0.00000E+00
    0.17836E-07        -0.36938E-10         0.00000E+00
    0.17831E-07        -0.97778E-10         0.00000E+00
    0.17822E-07        -0.14323E-09         0.00000E+00
    0.17809E-07        -0.17599E-09         0.00000E+00
    0.17795E-07        -0.19804E-09         0.00000E+00
    0.17780E-07        -0.21083E-09         0.00000E+00
    0.17764E-07        -0.21549E-09         0.00000E+00
    0.17748E-07        -0.21287E-09         0.00000E+00
    0.17732E-07        -0.20362E-09         0.00000E+00
    0.17718E-07        -0.18824E-09         0.00000E+00
    0.17705E-07        -0.16709E-09         0.00000E+00
    0.17694E-07        -0.14034E-09         0.00000E+00
    0.17685E-07        -0.10803E-09         0.00000E+00
    0.17678E-07        -0.69924E-10         0.00000E+00
    0.17675E-07        -0.25535E-10         0.00000E+00
    0.18094E-07        -0.32883E-10         0.00000E+00
    0.18087E-07        -0.87300E-10         0.00000E+00
    0.18075E-07        -0.12831E-09         0.00000E+00
    0.18058E-07        -0.15817E-09         0.00000E+00
    0.18038E-07        -0.17851E-09         0.00000E+00
    0.18017E-07        -0.19051E-09         0.00000E+00
    0.17996E-07        -0.19507E-09         0.00000E+00
    0.17974E-07        -0.19293E-09         0.00000E+00
    0.17953E-07        -0.18467E-09         0.00000E+00
    0.17934E-07        -0.17075E-09         0.00000E+00
    0.17916E-07        -0.15150E-09         0.00000E+00
    0.17900E-07        -0.12714E-09         0.00000E+00
    0.17888E-07        -0.97732E-10         0.00000E+00
    0.17879E-07        -0.63161E-10         0.00000E+00
    0.17874E-07        -0.23024E-10         0.00000E+00
    0.18334E-07        -0.27691E-10         0.00000E+00
    0.18327E-07        -0.73964E-10         0.00000E+00
    0.18311E-07        -0.10939E-09         0.00000E+00
    0.18291E-07        -0.13562E-09         0.00000E+00
    0.18267E-07        -0.15378E-09         0.00000E+00
    0.18241E-07        -0.16469E-09         0.00000E+00
    0.18215E-07        -0.16906E-09         0.00000E+00
    0.18188E-07        -0.16747E-09         0.00000E+00
    0.18162E-07        -0.16043E-09         0.00000E+00
    0.18138E-07        -0.14833E-09         0.00000E+00
    0.18116E-07        -0.13149E-09         0.00000E+00
    0.18097E-07        -0.11016E-09         0.00000E+00
    0.18082E-07        -0.84458E-10         0.00000E+00
    0.18070E-07        -0.54399E-10         0.00000E+00
    0.18065E-07        -0.19745E-10         0.00000E+00
    0.18548E-07        -0.21527E-10         0.00000E+00
    0.18539E-07        -0.58283E-10         0.00000E+00
    0.18522E-07        -0.87249E-10         0.00000E+00
    0.18499E-07        -0.10922E-09         0.00000E+00
    0.18472E-07        -0.12471E-09         0.00000E+00
    0.18443E-07        -0.13421E-09         0.00000E+00
    0.18412E-07        -0.13821E-09         0.00000E+00
    0.18381E-07        -0.13717E-09         0.00000E+00
    0.18351E-07        -0.13150E-09         0.00000E+00
    0.18322E-07        -0.12155E-09         0.00000E+00
    0.18297E-07        -0.10760E-09         0.00000E+00
    0.18274E-07        -0.89886E-10         0.00000E+00
    0.18256E-07        -0.68596E-10         0.00000E+00
    0.18244E-07        -0.43885E-10         0.00000E+00
    0.18237E-07        -0.15774E-10         0.00000E+00
    0.18727E-07        -0.14612E-10         0.00000E+00
    0.18718E-07        -0.40970E-10         0.00000E+00
    0.18700E-07        -0.62870E-10         0.00000E+00
    0.18675E-07        -0.79951E-10         0.00000E+00
    0.18646E-07        -0.92199E-10         0.00000E+00
    0.18613E-07        -0.99836E-10         0.00000E+00
    0.18579E-07        -0.10320E-09         0.00000E+00
    0.18544E-07        -0.10263E-09         0.00000E+00
    0.18510E-07        -0.98454E-10         0.00000E+00
    0.18478E-07        -0.90951E-10         0.00000E+00
    0.18449E-07        -0.80347E-10         0.00000E+00
    0.18424E-07        -0.66838E-10         0.00000E+00
    0.18404E-07        -0.50621E-10         0.00000E+00
    0.18390E-07        -0.31937E-10         0.00000E+00
    0.18383E-07        -0.11202E-10         0.00000E+00
    0.18864E-07        -0.73423E-11         0.00000E+00
    0.18856E-07        -0.23253E-10         0.00000E+00
    0.18839E-07        -0.37485E-10         0.00000E+00
    0.18814E-07        -0.48820E-10         0.00000E+00
    0.18782E-07        -0.57000E-10         0.00000E+00
    0.18747E-07        -0.62137E-10         0.00000E+00
    0.18710E-07        -0.64463E-10         0.00000E+00
    0.18672E-07        -0.64224E-10         0.00000E+00
    0.18634E-07        -0.61642E-10         0.00000E+00
    0.18599E-07        -0.56900E-10         0.00000E+00
    0.18567E-07        -0.50142E-10         0.00000E+00
    0.18540E-07        -0.41492E-10         0.00000E+00
    0.18518E-07        -0.31081E-10         0.00000E+00
    0.18503E-07        -0.19131E-10         0.00000E+00
    0.18496E-07        -0.61225E-11         0.00000E+00
    0.18955E-07        -0.18431E-11         0.00000E+00
    0.18952E-07        -0.72470E-11         0.00000E+00
    0.18937E-07        -0.12356E-10         0.00000E+00
    0.18912E-07        -0.16453E-10         0.00000E+00
    0.18879E-07        -0.19401E-10         0.00000E+00
    0.18841E-07        -0.21252E-10         0.00000E+00
    0.18801E-07        -0.22102E-10         0.00000E+00
    0.18759E-07        -0.22045E-10         0.00000E+00
    0.18717E-07        -0.21163E-10         0.00000E+00
    0.18679E-07        -0.19522E-10         0.00000E+00
    0.18644E-07        -0.17172E-10         0.00000E+00
    0.18614E-07        -0.14149E-10         0.00000E+00
    0.18592E-07        -0.10495E-10         0.00000E+00
    0.18577E-07        -0.63049E-11         0.00000E+00
    0.18571E-07        -0.17328E-11         0.00000E+00
POINT_DATA        496
VECTORS vDarcyNodal double 
    0.23949E-07         0.00000E+00         0.00000E+00
    0.23956E-07         0.00000E+00         0.00000E+00
    0.23954E-07         0.00000E+00         0.00000E+00
    0.23937E-07         0.00000E+00         0.00000E+00
    0.23911E-07         0.00000E+00         0.00000E+00
    0.23881E-07         0.00000E+00         0.00000E+00
    0.23849E-07         0.00000E+00         0.00000E+00
    0.23817E-07         0.00000E+00         0.00000E+00
    0.23786E-07         0.00000E+00         0.00000E+00
    0.23756E-07         0.00000E+00         0.00000E+00
    0.23729E-07         0.00000E+00         0.00000E+00
    0.23707E-07         0.00000E+00         0.00000E+00
    0.23690E-07        -0.66658E-22         0.00000E+00
    0.23679E-07        -0.85046E-26         0.00000E+00
    0.23675E-07         0.66650E-22         0.00000E+00
    0.23678E-07         0.00000E+00         0.00000E+00
    0.23894E-07        -0.11736E-10         0.00000E+00
    0.23887E-07        -0.10360E-10         0.00000E+00
    0.23871E-07        -0.21789E-11         0.00000E+00
    0.23848E-07         0.99592E-11         0.00000E+00
    0.23820E-07         0.18400E-10         0.00000E+00
    0.23789E-07         0.23646E-10         0.00000E+00
    0.23758E-07         0.26832E-10         0.00000E+00
    0.23726E-07         0.27934E-10         0.00000E+00
    0.23695E-07         0.27262E-10         0.00000E+00
    0.23666E-07         0.25125E-10         0.00000E+00
    0.23640E-07         0.21661E-10         0.00000E+00
    0.23618E-07         0.16928E-10         0.00000E+00
    0.23600E-07         0.11004E-10         0.00000E+00
    0.23586E-07         0.42079E-11         0.00000E+00
    0.23578E-07        -0.18631E-11         0.00000E+00
    0.23576E-07        -0.43835E-11         0.00000E+00
    0.23676E-07         0.43651E-11         0.00000E+00
    0.23658E-07         0.91107E-11         0.00000E+00
    0.23627E-07         0.20798E-10         0.00000E+00
    0.23598E-07         0.34288E-10         0.00000E+00
    0.23569E-07         0.44595E-10         0.00000E+00
    0.23538E-07         0.50750E-10         0.00000E+00
    0.23508E-07         0.54188E-10         0.00000E+00
    0.23478E-07         0.54969E-10         0.00000E+00
    0.23449E-07         0.53254E-10         0.00000E+00
    0.23422E-07         0.49288E-10         0.00000E+00
    0.23397E-07         0.43288E-10         0.00000E+00
    0.23375E-07         0.35405E-10         0.00000E+00
    0.23355E-07         0.25870E-10         0.00000E+00
    0.23339E-07         0.15366E-10         0.00000E+00
    0.23326E-07         0.59493E-11         0.00000E+00
    0.23318E-07         0.18970E-11         0.00000E+00
    0.23277E-07         0.17847E-10         0.00000E+00
    0.23266E-07         0.29388E-10         0.00000E+00
    0.23243E-07         0.47691E-10         0.00000E+00
    0.23215E-07         0.60220E-10         0.00000E+00
    0.23187E-07         0.70481E-10         0.00000E+00
    0.23159E-07         0.77327E-10         0.00000E+00
    0.23131E-07         0.80309E-10         0.00000E+00
    0.23104E-07         0.80071E-10         0.00000E+00
    0.23079E-07         0.77036E-10         0.00000E+00
    0.23055E-07         0.71528E-10         0.00000E+00
    0.23033E-07         0.63776E-10         0.00000E+00
    0.23012E-07         0.53945E-10         0.00000E+00
    0.22993E-07         0.42241E-10         0.00000E+00
    0.22977E-07         0.29097E-10         0.00000E+00
    0.22963E-07         0.15093E-10         0.00000E+00
    0.22957E-07         0.79452E-11         0.00000E+00
    0.22764E-07         0.21277E-10         0.00000E+00
    0.22758E-07         0.38251E-10         0.00000E+00
    0.22741E-07         0.66526E-10         0.00000E+00
    0.22717E-07         0.84604E-10         0.00000E+00
    0.22692E-07         0.95435E-10         0.00000E+00
    0.22667E-07         0.10132E-09         0.00000E+00
    0.22644E-07         0.10309E-09         0.00000E+00
    0.22622E-07         0.10146E-09         0.00000E+00
    0.22602E-07         0.97073E-10         0.00000E+00
    0.22583E-07         0.90318E-10         0.00000E+00
    0.22566E-07         0.81418E-10         0.00000E+00
    0.22549E-07         0.70438E-10         0.00000E+00
    0.22533E-07         0.57327E-10         0.00000E+00
    0.22519E-07         0.41859E-10         0.00000E+00
    0.22507E-07         0.23334E-10         0.00000E+00
    0.22502E-07         0.13174E-10         0.00000E+00
    0.22164E-07         0.28877E-10         0.00000E+00
    0.22156E-07         0.49787E-10         0.00000E+00
    0.22141E-07         0.83741E-10         0.00000E+00
    0.22123E-07         0.10426E-09         0.00000E+00
    0.22104E-07         0.11540E-09         0.00000E+00
    0.22087E-07         0.12012E-09         0.00000E+00
    0.22070E-07         0.12034E-09         0.00000E+00
    0.22055E-07         0.11725E-09         0.00000E+00
    0.22042E-07         0.11164E-09         0.00000E+00
    0.22030E-07         0.10398E-09         0.00000E+00
    0.22018E-07         0.94430E-10         0.00000E+00
    0.22006E-07         0.82884E-10         0.00000E+00
    0.21995E-07         0.68927E-10         0.00000E+00
    0.21985E-07         0.51703E-10         0.00000E+00
    0.21977E-07         0.29596E-10         0.00000E+00
    0.21974E-07         0.17060E-10         0.00000E+00
    0.21487E-07         0.33945E-10         0.00000E+00
    0.21483E-07         0.57886E-10         0.00000E+00
    0.21473E-07         0.95868E-10         0.00000E+00
    0.21462E-07         0.11740E-09         0.00000E+00
    0.21452E-07         0.12802E-09         0.00000E+00
    0.21443E-07         0.13145E-09         0.00000E+00
    0.21435E-07         0.13016E-09         0.00000E+00
    0.21428E-07         0.12576E-09         0.00000E+00
    0.21423E-07         0.11923E-09         0.00000E+00
    0.21418E-07         0.11106E-09         0.00000E+00
    0.21414E-07         0.10134E-09         0.00000E+00
    0.21409E-07         0.89782E-10         0.00000E+00
    0.21404E-07         0.75629E-10         0.00000E+00
    0.21399E-07         0.57544E-10         0.00000E+00
    0.21395E-07         0.33346E-10         0.00000E+00
    0.21393E-07         0.19383E-10         0.00000E+00
    0.20771E-07         0.36136E-10         0.00000E+00
    0.20769E-07         0.61352E-10         0.00000E+00
    0.20767E-07         0.10084E-09         0.00000E+00
    0.20765E-07         0.12220E-09         0.00000E+00
    0.20764E-07         0.13176E-09         0.00000E+00
    0.20764E-07         0.13381E-09         0.00000E+00
    0.20766E-07         0.13121E-09         0.00000E+00
    0.20769E-07         0.12583E-09         0.00000E+00
    0.20772E-07         0.11878E-09         0.00000E+00
    0.20775E-07         0.11057E-09         0.00000E+00
    0.20778E-07         0.10121E-09         0.00000E+00
    0.20781E-07         0.90252E-10         0.00000E+00
    0.20782E-07         0.76692E-10         0.00000E+00
    0.20783E-07         0.58893E-10         0.00000E+00
    0.20783E-07         0.34382E-10         0.00000E+00
    0.20782E-07         0.20081E-10         0.00000E+00
    0.20048E-07         0.35442E-10         0.00000E+00
    0.20049E-07         0.60022E-10         0.00000E+00
    0.20054E-07         0.98145E-10         0.00000E+00
    0.20060E-07         0.11797E-09         0.00000E+00
    0.20069E-07         0.12595E-09         0.00000E+00
    0.20079E-07         0.12658E-09         0.00000E+00
    0.20090E-07         0.12293E-09         0.00000E+00
    0.20102E-07         0.11696E-09         0.00000E+00
    0.20115E-07         0.10986E-09         0.00000E+00
    0.20127E-07         0.10212E-09         0.00000E+00
    0.20137E-07         0.93706E-10         0.00000E+00
    0.20147E-07         0.84028E-10         0.00000E+00
    0.20155E-07         0.71953E-10         0.00000E+00
    0.20160E-07         0.55704E-10         0.00000E+00
    0.20164E-07         0.32743E-10         0.00000E+00
    0.20166E-07         0.19216E-10         0.00000E+00
    0.19348E-07         0.32148E-10         0.00000E+00
    0.19352E-07         0.54258E-10         0.00000E+00
    0.19362E-07         0.88183E-10         0.00000E+00
    0.19377E-07         0.10502E-09         0.00000E+00
    0.19394E-07         0.11084E-09         0.00000E+00
    0.19414E-07         0.11000E-09         0.00000E+00
    0.19434E-07         0.10553E-09         0.00000E+00
    0.19455E-07         0.99377E-10         0.00000E+00
    0.19476E-07         0.92700E-10         0.00000E+00
    0.19495E-07         0.85968E-10         0.00000E+00
    0.19514E-07         0.79078E-10         0.00000E+00
    0.19530E-07         0.71389E-10         0.00000E+00
    0.19543E-07         0.61717E-10         0.00000E+00
    0.19554E-07         0.48285E-10         0.00000E+00
    0.19561E-07         0.28656E-10         0.00000E+00
    0.19564E-07         0.16944E-10         0.00000E+00
    0.18697E-07         0.26681E-10         0.00000E+00
    0.18704E-07         0.44732E-10         0.00000E+00
    0.18719E-07         0.71937E-10         0.00000E+00
    0.18740E-07         0.84399E-10         0.00000E+00
    0.18765E-07         0.87455E-10         0.00000E+00
    0.18792E-07         0.85043E-10         0.00000E+00
    0.18821E-07         0.79933E-10         0.00000E+00
    0.18849E-07         0.73946E-10         0.00000E+00
    0.18877E-07         0.68131E-10         0.00000E+00
    0.18903E-07         0.62897E-10         0.00000E+00
    0.18927E-07         0.58096E-10         0.00000E+00
    0.18949E-07         0.53071E-10         0.00000E+00
    0.18968E-07         0.46666E-10         0.00000E+00
    0.18982E-07         0.37209E-10         0.00000E+00
    0.18992E-07         0.22483E-10         0.00000E+00
    0.18996E-07         0.13491E-10         0.00000E+00
    0.18117E-07         0.19557E-10         0.00000E+00
    0.18124E-07         0.32295E-10         0.00000E+00
    0.18143E-07         0.50754E-10         0.00000E+00
    0.18169E-07         0.57654E-10         0.00000E+00
    0.18200E-07         0.57383E-10         0.00000E+00
    0.18234E-07         0.53252E-10         0.00000E+00
    0.18268E-07         0.47628E-10         0.00000E+00
    0.18302E-07         0.42075E-10         0.00000E+00
    0.18335E-07         0.37482E-10         0.00000E+00
    0.18367E-07         0.34163E-10         0.00000E+00
    0.18396E-07         0.31935E-10         0.00000E+00
    0.18422E-07         0.30156E-10         0.00000E+00
    0.18445E-07         0.27755E-10         0.00000E+00
    0.18462E-07         0.23237E-10         0.00000E+00
    0.18474E-07         0.14681E-10         0.00000E+00
    0.18479E-07         0.91285E-11         0.00000E+00
    0.17621E-07         0.11326E-10         0.00000E+00
    0.17629E-07         0.17884E-10         0.00000E+00
    0.17651E-07         0.26160E-10         0.00000E+00
    0.17680E-07         0.26611E-10         0.00000E+00
    0.17715E-07         0.22556E-10         0.00000E+00
    0.17752E-07         0.16558E-10         0.00000E+00
    0.17790E-07         0.10477E-10         0.00000E+00
    0.17829E-07         0.55413E-11         0.00000E+00
    0.17866E-07         0.24286E-11         0.00000E+00
    0.17901E-07         0.13381E-11         0.00000E+00
    0.17933E-07         0.20476E-11         0.00000E+00
    0.17962E-07         0.39558E-11         0.00000E+00
    0.17987E-07         0.61121E-11         0.00000E+00
    0.18007E-07         0.72394E-11         0.00000E+00
    0.18020E-07         0.57586E-11         0.00000E+00
    0.18025E-07         0.41509E-11         0.00000E+00
    0.17220E-07         0.25344E-11         0.00000E+00
    0.17229E-07         0.24395E-11         0.00000E+00
    0.17252E-07        -0.27182E-12         0.00000E+00
    0.17282E-07        -0.68070E-11         0.00000E+00
    0.17319E-07        -0.14946E-10         0.00000E+00
    0.17358E-07        -0.22925E-10         0.00000E+00
    0.17398E-07        -0.29449E-10         0.00000E+00
    0.17438E-07        -0.33670E-10         0.00000E+00
    0.17477E-07        -0.35153E-10         0.00000E+00
    0.17514E-07        -0.33830E-10         0.00000E+00
    0.17548E-07        -0.29962E-10         0.00000E+00
    0.17578E-07        -0.24100E-10         0.00000E+00
    0.17604E-07        -0.17055E-10         0.00000E+00
    0.17624E-07        -0.98671E-11         0.00000E+00
    0.17638E-07        -0.37628E-11         0.00000E+00
    0.17644E-07        -0.11454E-11         0.00000E+00
    0.16920E-07        -0.63107E-11         0.00000E+00
    0.16929E-07        -0.13147E-10         0.00000E+00
    0.16951E-07        -0.27029E-10         0.00000E+00
    0.16981E-07        -0.40717E-10         0.00000E+00
    0.17017E-07        -0.53053E-10         0.00000E+00
    0.17056E-07        -0.63068E-10         0.00000E+00
    0.17096E-07        -0.70041E-10         0.00000E+00
    0.17136E-07        -0.73524E-10         0.00000E+00
    0.17175E-07        -0.73335E-10         0.00000E+00
    0.17211E-07        -0.69546E-10         0.00000E+00
    0.17245E-07        -0.62457E-10         0.00000E+00
    0.17275E-07        -0.52566E-10         0.00000E+00
    0.17301E-07        -0.40541E-10         0.00000E+00
    0.17321E-07        -0.27183E-10         0.00000E+00
    0.17335E-07        -0.13378E-10         0.00000E+00
    0.17340E-07        -0.64781E-11         0.00000E+00
    0.16719E-07        -0.14760E-10         0.00000E+00
    0.16727E-07        -0.28080E-10         0.00000E+00
    0.16748E-07        -0.52743E-10         0.00000E+00
    0.16777E-07        -0.73388E-10         0.00000E+00
    0.16811E-07        -0.89834E-10         0.00000E+00
    0.16848E-07        -0.10186E-09         0.00000E+00
    0.16886E-07        -0.10929E-09         0.00000E+00
    0.16923E-07        -0.11207E-09         0.00000E+00
    0.16960E-07        -0.11026E-09         0.00000E+00
    0.16994E-07        -0.10408E-09         0.00000E+00
    0.17026E-07        -0.93870E-10         0.00000E+00
    0.17055E-07        -0.80068E-10         0.00000E+00
    0.17079E-07        -0.63210E-10         0.00000E+00
    0.17099E-07        -0.43870E-10         0.00000E+00
    0.17111E-07        -0.22623E-10         0.00000E+00
    0.17116E-07        -0.11592E-10         0.00000E+00
    0.16614E-07        -0.22439E-10         0.00000E+00
    0.16621E-07        -0.41685E-10         0.00000E+00
    0.16640E-07        -0.76235E-10         0.00000E+00
    0.16666E-07        -0.10331E-09         0.00000E+00
    0.16696E-07        -0.12358E-09         0.00000E+00
    0.16729E-07        -0.13750E-09         0.00000E+00
    0.16763E-07        -0.14538E-09         0.00000E+00
    0.16797E-07        -0.14753E-09         0.00000E+00
    0.16830E-07        -0.14425E-09         0.00000E+00
    0.16861E-07        -0.13588E-09         0.00000E+00
    0.16890E-07        -0.12278E-09         0.00000E+00
    0.16916E-07        -0.10537E-09         0.00000E+00
    0.16938E-07        -0.84047E-10         0.00000E+00
    0.16955E-07        -0.59189E-10         0.00000E+00
    0.16967E-07        -0.31093E-10         0.00000E+00
    0.16971E-07        -0.16266E-10         0.00000E+00
    0.16598E-07        -0.29047E-10         0.00000E+00
    0.16604E-07        -0.53422E-10         0.00000E+00
    0.16619E-07        -0.96548E-10         0.00000E+00
    0.16641E-07        -0.12924E-09         0.00000E+00
    0.16667E-07        -0.15288E-09         0.00000E+00
    0.16695E-07        -0.16848E-09         0.00000E+00
    0.16724E-07        -0.17679E-09         0.00000E+00
    0.16753E-07        -0.17842E-09         0.00000E+00
    0.16781E-07        -0.17387E-09         0.00000E+00
    0.16807E-07        -0.16359E-09         0.00000E+00
    0.16832E-07        -0.14798E-09         0.00000E+00
    0.16853E-07        -0.12742E-09         0.00000E+00
    0.16872E-07        -0.10220E-09         0.00000E+00
    0.16887E-07        -0.72520E-10         0.00000E+00
    0.16897E-07        -0.38454E-10         0.00000E+00
    0.16900E-07        -0.20321E-10         0.00000E+00
    0.16660E-07        -0.34366E-10         0.00000E+00
    0.16665E-07        -0.62884E-10         0.00000E+00
    0.16677E-07        -0.11296E-09         0.00000E+00
    0.16694E-07        -0.15022E-09         0.00000E+00
    0.16714E-07        -0.17662E-09         0.00000E+00
    0.16736E-07        -0.19361E-09         0.00000E+00
    0.16759E-07        -0.20230E-09         0.00000E+00
    0.16781E-07        -0.20352E-09         0.00000E+00
    0.16803E-07        -0.19795E-09         0.00000E+00
    0.16824E-07        -0.18613E-09         0.00000E+00
    0.16843E-07        -0.16850E-09         0.00000E+00
    0.16861E-07        -0.14538E-09         0.00000E+00
    0.16875E-07        -0.11698E-09         0.00000E+00
    0.16887E-07        -0.83377E-10         0.00000E+00
    0.16895E-07        -0.44445E-10         0.00000E+00
    0.16898E-07        -0.23619E-10         0.00000E+00
    0.16789E-07        -0.38249E-10         0.00000E+00
    0.16792E-07        -0.69800E-10         0.00000E+00
    0.16801E-07        -0.12496E-09         0.00000E+00
    0.16813E-07        -0.16558E-09         0.00000E+00
    0.16827E-07        -0.19402E-09         0.00000E+00
    0.16842E-07        -0.21205E-09         0.00000E+00
    0.16858E-07        -0.22102E-09         0.00000E+00
    0.16874E-07        -0.22196E-09         0.00000E+00
    0.16889E-07        -0.21567E-09         0.00000E+00
    0.16903E-07        -0.20274E-09         0.00000E+00
    0.16917E-07        -0.18362E-09         0.00000E+00
    0.16929E-07        -0.15863E-09         0.00000E+00
    0.16939E-07        -0.12790E-09         0.00000E+00
    0.16947E-07        -0.91408E-10         0.00000E+00
    0.16952E-07        -0.48881E-10         0.00000E+00
    0.16955E-07        -0.26062E-10         0.00000E+00
    0.16971E-07        -0.40617E-10         0.00000E+00
    0.16973E-07        -0.74016E-10         0.00000E+00
    0.16978E-07        -0.13228E-09         0.00000E+00
    0.16985E-07        -0.17494E-09         0.00000E+00
    0.16992E-07        -0.20461E-09         0.00000E+00
    0.17001E-07        -0.22327E-09         0.00000E+00
    0.17009E-07        -0.23242E-09         0.00000E+00
    0.17018E-07        -0.23321E-09         0.00000E+00
    0.17026E-07        -0.22648E-09         0.00000E+00
    0.17033E-07        -0.21289E-09         0.00000E+00
    0.17041E-07        -0.19290E-09         0.00000E+00
    0.17047E-07        -0.16679E-09         0.00000E+00
    0.17053E-07        -0.13465E-09         0.00000E+00
    0.17057E-07        -0.96392E-10         0.00000E+00
    0.17060E-07        -0.51647E-10         0.00000E+00
    0.17062E-07        -0.27592E-10         0.00000E+00
    0.17194E-07        -0.41450E-10         0.00000E+00
    0.17195E-07        -0.75487E-10         0.00000E+00
    0.17196E-07        -0.13480E-09         0.00000E+00
    0.17197E-07        -0.17814E-09         0.00000E+00
    0.17198E-07        -0.20821E-09         0.00000E+00
    0.17199E-07        -0.22707E-09         0.00000E+00
    0.17200E-07        -0.23628E-09         0.00000E+00
    0.17202E-07        -0.23701E-09         0.00000E+00
    0.17203E-07        -0.23016E-09         0.00000E+00
    0.17204E-07        -0.21638E-09         0.00000E+00
    0.17204E-07        -0.19613E-09         0.00000E+00
    0.17205E-07        -0.16967E-09         0.00000E+00
    0.17206E-07        -0.13709E-09         0.00000E+00
    0.17207E-07        -0.98229E-10         0.00000E+00
    0.17208E-07        -0.52691E-10         0.00000E+00
    0.17208E-07        -0.28184E-10         0.00000E+00
    0.17443E-07        -0.40776E-10         0.00000E+00
    0.17442E-07        -0.74259E-10         0.00000E+00
    0.17440E-07        -0.13261E-09         0.00000E+00
    0.17436E-07        -0.17527E-09         0.00000E+00
    0.17431E-07        -0.20490E-09         0.00000E+00
    0.17425E-07        -0.22352E-09         0.00000E+00
    0.17419E-07        -0.23265E-09         0.00000E+00
    0.17413E-07        -0.23344E-09         0.00000E+00
    0.17407E-07        -0.22675E-09         0.00000E+00
    0.17401E-07        -0.21323E-09         0.00000E+00
    0.17396E-07        -0.19332E-09         0.00000E+00
    0.17392E-07        -0.16729E-09         0.00000E+00
    0.17388E-07        -0.13521E-09         0.00000E+00
    0.17385E-07        -0.96927E-10         0.00000E+00
    0.17383E-07        -0.52020E-10         0.00000E+00
    0.17383E-07        -0.27841E-10         0.00000E+00
    0.17705E-07        -0.38663E-10         0.00000E+00
    0.17703E-07        -0.70455E-10         0.00000E+00
    0.17697E-07        -0.12593E-09         0.00000E+00
    0.17688E-07        -0.16661E-09         0.00000E+00
    0.17677E-07        -0.19500E-09         0.00000E+00
    0.17665E-07        -0.21296E-09         0.00000E+00
    0.17653E-07        -0.22187E-09         0.00000E+00
    0.17640E-07        -0.22279E-09         0.00000E+00
    0.17627E-07        -0.21653E-09         0.00000E+00
    0.17615E-07        -0.20369E-09         0.00000E+00
    0.17604E-07        -0.18470E-09         0.00000E+00
    0.17595E-07        -0.15983E-09         0.00000E+00
    0.17587E-07        -0.12917E-09         0.00000E+00
    0.17580E-07        -0.92582E-10         0.00000E+00
    0.17576E-07        -0.49685E-10         0.00000E+00
    0.17575E-07        -0.26591E-10         0.00000E+00
    0.17967E-07        -0.35214E-10         0.00000E+00
    0.17964E-07        -0.64262E-10         0.00000E+00
    0.17955E-07        -0.11508E-09         0.00000E+00
    0.17942E-07        -0.15261E-09         0.00000E+00
    0.17926E-07        -0.17903E-09         0.00000E+00
    0.17908E-07        -0.19591E-09         0.00000E+00
    0.17889E-07        -0.20446E-09         0.00000E+00
    0.17870E-07        -0.20557E-09         0.00000E+00
    0.17852E-07        -0.19996E-09         0.00000E+00
    0.17834E-07        -0.18818E-09         0.00000E+00
    0.17818E-07        -0.17063E-09         0.00000E+00
    0.17803E-07        -0.14760E-09         0.00000E+00
    0.17791E-07        -0.11921E-09         0.00000E+00
    0.17782E-07        -0.85370E-10         0.00000E+00
    0.17776E-07        -0.45775E-10         0.00000E+00
    0.17773E-07        -0.24480E-10         0.00000E+00
    0.18217E-07        -0.30553E-10         0.00000E+00
    0.18213E-07        -0.55922E-10         0.00000E+00
    0.18201E-07        -0.10053E-09         0.00000E+00
    0.18185E-07        -0.13387E-09         0.00000E+00
    0.18164E-07        -0.15766E-09         0.00000E+00
    0.18141E-07        -0.17311E-09         0.00000E+00
    0.18117E-07        -0.18112E-09         0.00000E+00
    0.18093E-07        -0.18243E-09         0.00000E+00
    0.18069E-07        -0.17765E-09         0.00000E+00
    0.18046E-07        -0.16725E-09         0.00000E+00
    0.18025E-07        -0.15162E-09         0.00000E+00
    0.18007E-07        -0.13103E-09         0.00000E+00
    0.17991E-07        -0.10566E-09         0.00000E+00
    0.17979E-07        -0.75524E-10         0.00000E+00
    0.17971E-07        -0.40410E-10         0.00000E+00
    0.17968E-07        -0.21568E-10         0.00000E+00
    0.18444E-07        -0.24830E-10         0.00000E+00
    0.18440E-07        -0.45735E-10         0.00000E+00
    0.18427E-07        -0.82829E-10         0.00000E+00
    0.18407E-07        -0.11114E-09         0.00000E+00
    0.18383E-07        -0.13174E-09         0.00000E+00
    0.18356E-07        -0.14536E-09         0.00000E+00
    0.18328E-07        -0.15263E-09         0.00000E+00
    0.18299E-07        -0.15410E-09         0.00000E+00
    0.18270E-07        -0.15026E-09         0.00000E+00
    0.18243E-07        -0.14151E-09         0.00000E+00
    0.18218E-07        -0.12820E-09         0.00000E+00
    0.18195E-07        -0.11061E-09         0.00000E+00
    0.18176E-07        -0.88951E-10         0.00000E+00
    0.18162E-07        -0.63334E-10         0.00000E+00
    0.18152E-07        -0.33735E-10         0.00000E+00
    0.18149E-07        -0.17923E-10         0.00000E+00
    0.18641E-07        -0.18226E-10         0.00000E+00
    0.18636E-07        -0.34077E-10         0.00000E+00
    0.18622E-07        -0.62706E-10         0.00000E+00
    0.18600E-07        -0.85327E-10         0.00000E+00
    0.18574E-07        -0.10219E-09         0.00000E+00
    0.18544E-07        -0.11356E-09         0.00000E+00
    0.18512E-07        -0.11979E-09         0.00000E+00
    0.18479E-07        -0.12129E-09         0.00000E+00
    0.18446E-07        -0.11843E-09         0.00000E+00
    0.18415E-07        -0.11155E-09         0.00000E+00
    0.18386E-07        -0.10095E-09         0.00000E+00
    0.18360E-07        -0.86874E-10         0.00000E+00
    0.18339E-07        -0.69532E-10         0.00000E+00
    0.18322E-07        -0.49147E-10         0.00000E+00
    0.18312E-07        -0.25924E-10         0.00000E+00
    0.18308E-07        -0.13624E-10         0.00000E+00
    0.18799E-07        -0.10999E-10         0.00000E+00
    0.18794E-07        -0.21506E-10         0.00000E+00
    0.18780E-07        -0.41137E-10         0.00000E+00
    0.18758E-07        -0.57498E-10         0.00000E+00
    0.18730E-07        -0.69967E-10         0.00000E+00
    0.18698E-07        -0.78484E-10         0.00000E+00
    0.18663E-07        -0.83246E-10         0.00000E+00
    0.18626E-07        -0.84540E-10         0.00000E+00
    0.18590E-07        -0.82658E-10         0.00000E+00
    0.18555E-07        -0.77857E-10         0.00000E+00
    0.18522E-07        -0.70348E-10         0.00000E+00
    0.18494E-07        -0.60313E-10         0.00000E+00
    0.18470E-07        -0.47929E-10         0.00000E+00
    0.18452E-07        -0.33412E-10         0.00000E+00
    0.18441E-07        -0.17216E-10         0.00000E+00
    0.18437E-07        -0.87796E-11         0.00000E+00
    0.18912E-07        -0.36868E-11         0.00000E+00
    0.18909E-07        -0.90913E-11         0.00000E+00
    0.18898E-07        -0.19605E-10         0.00000E+00
    0.18877E-07        -0.28811E-10         0.00000E+00
    0.18848E-07        -0.35857E-10         0.00000E+00
    0.18813E-07        -0.40657E-10         0.00000E+00
    0.18775E-07        -0.43358E-10         0.00000E+00
    0.18735E-07        -0.44151E-10         0.00000E+00
    0.18695E-07        -0.43211E-10         0.00000E+00
    0.18657E-07        -0.40689E-10         0.00000E+00
    0.18621E-07        -0.36697E-10         0.00000E+00
    0.18590E-07        -0.31323E-10         0.00000E+00
    0.18564E-07        -0.24646E-10         0.00000E+00
    0.18546E-07        -0.16801E-10         0.00000E+00
    0.18535E-07        -0.80383E-11         0.00000E+00
    0.18532E-07        -0.34658E-11         0.00000E+00
    0.18957E-07         0.00000E+00         0.00000E+00
    0.18956E-07         0.00000E+00         0.00000E+00
    0.18947E-07        -0.53802E-22         0.00000E+00
    0.18927E-07         0.10712E-25         0.00000E+00
    0.18897E-07         0.57952E-22         0.00000E+00
    0.18861E-07         0.00000E+00         0.00000E+00
    0.18821E-07         0.00000E+00         0.00000E+00
    0.18780E-07        -0.53843E-22         0.00000E+00
    0.18738E-07        -0.53843E-22         0.00000E+00
    0.18697E-07         0.53854E-22         0.00000E+00
    0.18660E-07         0.57997E-22         0.00000E+00
    0.18628E-07        -0.58008E-22         0.00000E+00
    0.18601E-07        -0.41385E-23         0.00000E+00
    0.18582E-07         0.58015E-22         0.00000E+00
    0.18572E-07         0.82887E-23         0.00000E+00
    0.18570E-07         0.00000E+00         0.00000E+00
CELL_DATA        450
TENSORS stressef double 
    0.44716E+08         0.18264E+06         0.00000E+00
    0.18264E+06         0.29476E+08         0.00000E+00
    0.00000E+00         0.00000E+00         0.27085E+08
 
    0.44278E+08        -0.91106E+05         0.00000E+00
   -0.91106E+05         0.29269E+08         0.00000E+00
    0.00000E+00         0.00000E+00         0.24101E+08
 
    0.42469E+08        -0.45627E+06         0.00000E+00
   -0.45627E+06         0.28521E+08         0.00000E+00
    0.00000E+00         0.00000E+00         0.20301E+08
 
    0.40157E+08        -0.51478E+06         0.00000E+00
   -0.51478E+06         0.27358E+08         0.00000E+00
    0.00000E+00         0.00000E+00         0.16399E+08
 
    0.37633E+08        -0.71115E+06         0.00000E+00
   -0.71115E+06         0.26103E+08         0.00000E+00
    0.00000E+00         0.00000E+00         0.13159E+08
 
    0.34175E+08        -0.70325E+06         0.00000E+00
   -0.70325E+06         0.24785E+08         0.00000E+00
    0.00000E+00         0.00000E+00         0.11792E+08
 
    0.31488E+08        -0.52408E+06         0.00000E+00
   -0.52408E+06         0.23649E+08         0.00000E+00
    0.00000E+00         0.00000E+00         0.11027E+08
 
    0.29225E+08        -0.38095E+06         0.00000E+00
   -0.38095E+06         0.22785E+08         0.00000E+00
    0.00000E+00         0.00000E+00         0.10402E+08
 
    0.27130E+08        -0.25625E+06         0.00000E+00
   -0.25625E+06         0.22171E+08         0.00000E+00
    0.00000E+00         0.00000E+00         0.98600E+07
 
    0.25063E+08        -0.13679E+06         0.00000E+00
   -0.13679E+06         0.21791E+08         0.00000E+00
    0.00000E+00         0.00000E+00         0.93709E+07
 
    0.22914E+08        -0.11814E+05         0.00000E+00
   -0.11814E+05         0.21652E+08         0.00000E+00
    0.00000E+00         0.00000E+00         0.89132E+07
 
    0.20561E+08         0.13070E+06         0.00000E+00
    0.13070E+06         0.21777E+08         0.00000E+00
    0.00000E+00         0.00000E+00         0.84676E+07
 
    0.17831E+08         0.31178E+06         0.00000E+00
    0.31178E+06         0.22223E+08         0.00000E+00
    0.00000E+00         0.00000E+00         0.80109E+07
 
    0.14427E+08         0.57606E+06         0.00000E+00
    0.57606E+06         0.23112E+08         0.00000E+00
    0.00000E+00         0.00000E+00         0.75078E+07
 
    0.94926E+07         0.12078E+07         0.00000E+00
    0.12078E+07         0.24801E+08         0.00000E+00
    0.00000E+00         0.00000E+00         0.68587E+07
 
    0.41540E+08         0.26260E+06         0.00000E+00
    0.26260E+06         0.24187E+08         0.00000E+00
    0.00000E+00         0.00000E+00         0.18978E+08
 
    0.40369E+08        -0.21148E+06         0.00000E+00
   -0.21148E+06         0.24058E+08         0.00000E+00
    0.00000E+00         0.00000E+00         0.16543E+08
 
    0.38772E+08        -0.91867E+06         0.00000E+00
   -0.91867E+06         0.24009E+08         0.00000E+00
    0.00000E+00         0.00000E+00         0.13889E+08
 
    0.36705E+08        -0.13752E+07         0.00000E+00
   -0.13752E+07         0.23833E+08         0.00000E+00
    0.00000E+00         0.00000E+00         0.12123E+08
 
    0.33911E+08        -0.16851E+07         0.00000E+00
   -0.16851E+07         0.23314E+08         0.00000E+00
    0.00000E+00         0.00000E+00         0.11445E+08
 
    0.31077E+08        -0.17058E+07         0.00000E+00
   -0.17058E+07         0.22665E+08         0.00000E+00
    0.00000E+00         0.00000E+00         0.10748E+08
 
    0.28431E+08        -0.13939E+07         0.00000E+00
   -0.13939E+07         0.21963E+08         0.00000E+00
    0.00000E+00         0.00000E+00         0.10079E+08
 
    0.26153E+08        -0.10485E+07         0.00000E+00
   -0.10485E+07         0.21336E+08         0.00000E+00
    0.00000E+00         0.00000E+00         0.94979E+07
 
    0.24052E+08        -0.71240E+06         0.00000E+00
   -0.71240E+06         0.20862E+08         0.00000E+00
    0.00000E+00         0.00000E+00         0.89828E+07
 
    0.21995E+08        -0.37276E+06         0.00000E+00
   -0.37276E+06         0.20575E+08         0.00000E+00
    0.00000E+00         0.00000E+00         0.85139E+07
 
    0.19874E+08        -0.76434E+04         0.00000E+00
   -0.76434E+04         0.20500E+08         0.00000E+00
    0.00000E+00         0.00000E+00         0.80748E+07
 
    0.17576E+08         0.41526E+06         0.00000E+00
    0.41526E+06         0.20675E+08         0.00000E+00
    0.00000E+00         0.00000E+00         0.76502E+07
 
    0.14962E+08         0.95432E+06         0.00000E+00
    0.95432E+06         0.21158E+08         0.00000E+00
    0.00000E+00         0.00000E+00         0.72239E+07
 
    0.11816E+08         0.17496E+07         0.00000E+00
    0.17496E+07         0.22056E+08         0.00000E+00
    0.00000E+00         0.00000E+00         0.67745E+07
 
    0.80906E+07         0.32556E+07         0.00000E+00
    0.32556E+07         0.23522E+08         0.00000E+00
    0.00000E+00         0.00000E+00         0.63225E+07
 
    0.38251E+08        -0.18285E+06         0.00000E+00
   -0.18285E+06         0.21217E+08         0.00000E+00
    0.00000E+00         0.00000E+00         0.12918E+08
 
    0.36508E+08        -0.52455E+06         0.00000E+00
   -0.52455E+06         0.21016E+08         0.00000E+00
    0.00000E+00         0.00000E+00         0.11505E+08
 
    0.34787E+08        -0.11069E+07         0.00000E+00
   -0.11069E+07         0.20843E+08         0.00000E+00
    0.00000E+00         0.00000E+00         0.11126E+08
 
    0.32856E+08        -0.17691E+07         0.00000E+00
   -0.17691E+07         0.20623E+08         0.00000E+00
    0.00000E+00         0.00000E+00         0.10696E+08
 
    0.30450E+08        -0.21213E+07         0.00000E+00
   -0.21213E+07         0.20342E+08         0.00000E+00
    0.00000E+00         0.00000E+00         0.10158E+08
 
    0.27931E+08        -0.21540E+07         0.00000E+00
   -0.21540E+07         0.20061E+08         0.00000E+00
    0.00000E+00         0.00000E+00         0.95984E+07
 
    0.25504E+08        -0.19033E+07         0.00000E+00
   -0.19033E+07         0.19752E+08         0.00000E+00
    0.00000E+00         0.00000E+00         0.90512E+07
 
    0.23272E+08        -0.14947E+07         0.00000E+00
   -0.14947E+07         0.19420E+08         0.00000E+00
    0.00000E+00         0.00000E+00         0.85383E+07
 
    0.21194E+08        -0.10246E+07         0.00000E+00
   -0.10246E+07         0.19151E+08         0.00000E+00
    0.00000E+00         0.00000E+00         0.80689E+07
 
    0.19171E+08        -0.50931E+06         0.00000E+00
   -0.50931E+06         0.19007E+08         0.00000E+00
    0.00000E+00         0.00000E+00         0.76357E+07
 
    0.17113E+08         0.68594E+05         0.00000E+00
    0.68594E+05         0.19036E+08         0.00000E+00
    0.00000E+00         0.00000E+00         0.72297E+07
 
    0.14928E+08         0.75129E+06         0.00000E+00
    0.75129E+06         0.19281E+08         0.00000E+00
    0.00000E+00         0.00000E+00         0.68418E+07
 
    0.12526E+08         0.16206E+07         0.00000E+00
    0.16206E+07         0.19794E+08         0.00000E+00
    0.00000E+00         0.00000E+00         0.64640E+07
 
    0.98547E+07         0.28468E+07         0.00000E+00
    0.28468E+07         0.20633E+08         0.00000E+00
    0.00000E+00         0.00000E+00         0.60975E+07
 
    0.70206E+07         0.46957E+07         0.00000E+00
    0.46957E+07         0.21750E+08         0.00000E+00
    0.00000E+00         0.00000E+00         0.57541E+07
 
    0.34573E+08        -0.34158E+06         0.00000E+00
   -0.34158E+06         0.18405E+08         0.00000E+00
    0.00000E+00         0.00000E+00         0.10596E+08
 
    0.32702E+08        -0.92266E+06         0.00000E+00
   -0.92266E+06         0.18227E+08         0.00000E+00
    0.00000E+00         0.00000E+00         0.10186E+08
 
    0.30952E+08        -0.14390E+07         0.00000E+00
   -0.14390E+07         0.17887E+08         0.00000E+00
    0.00000E+00         0.00000E+00         0.97677E+07
 
    0.29112E+08        -0.19665E+07         0.00000E+00
   -0.19665E+07         0.17649E+08         0.00000E+00
    0.00000E+00         0.00000E+00         0.93523E+07
 
    0.27024E+08        -0.23023E+07         0.00000E+00
   -0.23023E+07         0.17526E+08         0.00000E+00
    0.00000E+00         0.00000E+00         0.89101E+07
 
    0.24806E+08        -0.23441E+07         0.00000E+00
   -0.23441E+07         0.17429E+08         0.00000E+00
    0.00000E+00         0.00000E+00         0.84470E+07
 
    0.22610E+08        -0.21237E+07         0.00000E+00
   -0.21237E+07         0.17326E+08         0.00000E+00
    0.00000E+00         0.00000E+00         0.79872E+07
 
    0.20513E+08        -0.17090E+07         0.00000E+00
   -0.17090E+07         0.17218E+08         0.00000E+00
    0.00000E+00         0.00000E+00         0.75461E+07
 
    0.18515E+08        -0.11649E+07         0.00000E+00
   -0.11649E+07         0.17139E+08         0.00000E+00
    0.00000E+00         0.00000E+00         0.71309E+07
 
    0.16571E+08        -0.52103E+06         0.00000E+00
   -0.52103E+06         0.17143E+08         0.00000E+00
    0.00000E+00         0.00000E+00         0.67428E+07
 
    0.14618E+08         0.23126E+06         0.00000E+00
    0.23126E+06         0.17277E+08         0.00000E+00
    0.00000E+00         0.00000E+00         0.63789E+07
 
    0.12597E+08         0.11328E+07         0.00000E+00
    0.11328E+07         0.17583E+08         0.00000E+00
    0.00000E+00         0.00000E+00         0.60360E+07
 
    0.10471E+08         0.22637E+07         0.00000E+00
    0.22637E+07         0.18095E+08         0.00000E+00
    0.00000E+00         0.00000E+00         0.57132E+07
 
    0.82592E+07         0.37493E+07         0.00000E+00
    0.37493E+07         0.18813E+08         0.00000E+00
    0.00000E+00         0.00000E+00         0.54145E+07
 
    0.60850E+07         0.57372E+07         0.00000E+00
    0.57372E+07         0.19673E+08         0.00000E+00
    0.00000E+00         0.00000E+00         0.51515E+07
 
    0.30665E+08        -0.43423E+06         0.00000E+00
   -0.43423E+06         0.15241E+08         0.00000E+00
    0.00000E+00         0.00000E+00         0.91811E+07
 
    0.28942E+08        -0.11383E+07         0.00000E+00
   -0.11383E+07         0.15128E+08         0.00000E+00
    0.00000E+00         0.00000E+00         0.88139E+07
 
    0.27271E+08        -0.16887E+07         0.00000E+00
   -0.16887E+07         0.14976E+08         0.00000E+00
    0.00000E+00         0.00000E+00         0.84495E+07
 
    0.25540E+08        -0.21139E+07         0.00000E+00
   -0.21139E+07         0.14846E+08         0.00000E+00
    0.00000E+00         0.00000E+00         0.80771E+07
 
    0.23687E+08        -0.23691E+07         0.00000E+00
   -0.23691E+07         0.14791E+08         0.00000E+00
    0.00000E+00         0.00000E+00         0.76955E+07
 
    0.21738E+08        -0.23904E+07         0.00000E+00
   -0.23904E+07         0.14794E+08         0.00000E+00
    0.00000E+00         0.00000E+00         0.73064E+07
 
    0.19774E+08        -0.21712E+07         0.00000E+00
   -0.21712E+07         0.14817E+08         0.00000E+00
    0.00000E+00         0.00000E+00         0.69182E+07
 
    0.17852E+08        -0.17462E+07         0.00000E+00
   -0.17462E+07         0.14853E+08         0.00000E+00
    0.00000E+00         0.00000E+00         0.65409E+07
 
    0.15989E+08        -0.11544E+07         0.00000E+00
   -0.11544E+07         0.14916E+08         0.00000E+00
    0.00000E+00         0.00000E+00         0.61809E+07
 
    0.14169E+08        -0.41780E+06         0.00000E+00
   -0.41780E+06         0.15039E+08         0.00000E+00
    0.00000E+00         0.00000E+00         0.58415E+07
 
    0.12361E+08         0.46773E+06         0.00000E+00
    0.46773E+06         0.15257E+08         0.00000E+00
    0.00000E+00         0.00000E+00         0.55236E+07
 
    0.10538E+08         0.15347E+07         0.00000E+00
    0.15347E+07         0.15601E+08         0.00000E+00
    0.00000E+00         0.00000E+00         0.52279E+07
 
    0.86988E+07         0.28432E+07         0.00000E+00
    0.28432E+07         0.16083E+08         0.00000E+00
    0.00000E+00         0.00000E+00         0.49564E+07
 
    0.68856E+07         0.44740E+07         0.00000E+00
    0.44740E+07         0.16688E+08         0.00000E+00
    0.00000E+00         0.00000E+00         0.47147E+07
 
    0.52081E+07         0.65069E+07         0.00000E+00
    0.65069E+07         0.17351E+08         0.00000E+00
    0.00000E+00         0.00000E+00         0.45118E+07
 
    0.26713E+08        -0.48369E+06         0.00000E+00
   -0.48369E+06         0.12165E+08         0.00000E+00
    0.00000E+00         0.00000E+00         0.77757E+07
 
    0.25213E+08        -0.12443E+07         0.00000E+00
   -0.12443E+07         0.12127E+08         0.00000E+00
    0.00000E+00         0.00000E+00         0.74680E+07
 
    0.23701E+08        -0.17979E+07         0.00000E+00
   -0.17979E+07         0.12078E+08         0.00000E+00
    0.00000E+00         0.00000E+00         0.71559E+07
 
    0.22133E+08        -0.21764E+07         0.00000E+00
   -0.21764E+07         0.12055E+08         0.00000E+00
    0.00000E+00         0.00000E+00         0.68376E+07
 
    0.20483E+08        -0.23679E+07         0.00000E+00
   -0.23679E+07         0.12079E+08         0.00000E+00
    0.00000E+00         0.00000E+00         0.65126E+07
 
    0.18767E+08        -0.23489E+07         0.00000E+00
   -0.23489E+07         0.12152E+08         0.00000E+00
    0.00000E+00         0.00000E+00         0.61838E+07
 
    0.17025E+08        -0.21105E+07         0.00000E+00
   -0.21105E+07         0.12256E+08         0.00000E+00
    0.00000E+00         0.00000E+00         0.58563E+07
 
    0.15296E+08        -0.16652E+07         0.00000E+00
   -0.16652E+07         0.12385E+08         0.00000E+00
    0.00000E+00         0.00000E+00         0.55362E+07
 
    0.13601E+08        -0.10337E+07         0.00000E+00
   -0.10337E+07         0.12542E+08         0.00000E+00
    0.00000E+00         0.00000E+00         0.52286E+07
 
    0.11941E+08        -0.22883E+06         0.00000E+00
   -0.22883E+06         0.12746E+08         0.00000E+00
    0.00000E+00         0.00000E+00         0.49374E+07
 
    0.10308E+08         0.75260E+06         0.00000E+00
    0.75260E+06         0.13019E+08         0.00000E+00
    0.00000E+00         0.00000E+00         0.46653E+07
 
    0.86995E+07         0.19328E+07         0.00000E+00
    0.19328E+07         0.13375E+08         0.00000E+00
    0.00000E+00         0.00000E+00         0.44149E+07
 
    0.71323E+07         0.33508E+07         0.00000E+00
    0.33508E+07         0.13817E+08         0.00000E+00
    0.00000E+00         0.00000E+00         0.41898E+07
 
    0.56556E+07         0.50534E+07         0.00000E+00
    0.50534E+07         0.14321E+08         0.00000E+00
    0.00000E+00         0.00000E+00         0.39953E+07
 
    0.43598E+07         0.70801E+07         0.00000E+00
    0.70801E+07         0.14834E+08         0.00000E+00
    0.00000E+00         0.00000E+00         0.38388E+07
 
    0.22804E+08        -0.49329E+06         0.00000E+00
   -0.49329E+06         0.91775E+07         0.00000E+00
    0.00000E+00         0.00000E+00         0.63964E+07
 
    0.21559E+08        -0.12680E+07         0.00000E+00
   -0.12680E+07         0.91925E+07         0.00000E+00
    0.00000E+00         0.00000E+00         0.61503E+07
 
    0.20247E+08        -0.18119E+07         0.00000E+00
   -0.18119E+07         0.92218E+07         0.00000E+00
    0.00000E+00         0.00000E+00         0.58938E+07
 
    0.18867E+08        -0.21561E+07         0.00000E+00
   -0.21561E+07         0.92768E+07         0.00000E+00
    0.00000E+00         0.00000E+00         0.56287E+07
 
    0.17418E+08        -0.23036E+07         0.00000E+00
   -0.23036E+07         0.93679E+07         0.00000E+00
    0.00000E+00         0.00000E+00         0.53572E+07
 
    0.15916E+08        -0.22464E+07         0.00000E+00
   -0.22464E+07         0.94961E+07         0.00000E+00
    0.00000E+00         0.00000E+00         0.50824E+07
 
    0.14386E+08        -0.19801E+07         0.00000E+00
   -0.19801E+07         0.96556E+07         0.00000E+00
    0.00000E+00         0.00000E+00         0.48083E+07
 
    0.12856E+08        -0.15090E+07         0.00000E+00
   -0.15090E+07         0.98417E+07         0.00000E+00
    0.00000E+00         0.00000E+00         0.45395E+07
 
    0.11346E+08        -0.84251E+06         0.00000E+00
   -0.84251E+06         0.10056E+08         0.00000E+00
    0.00000E+00         0.00000E+00         0.42804E+07
 
    0.98672E+07         0.12919E+05         0.00000E+00
    0.12919E+05         0.10307E+08         0.00000E+00
    0.00000E+00         0.00000E+00         0.40348E+07
 
    0.84262E+07         0.10597E+07         0.00000E+00
    0.10597E+07         0.10604E+08         0.00000E+00
    0.00000E+00         0.00000E+00         0.38061E+07
 
    0.70344E+07         0.23110E+07         0.00000E+00
    0.23110E+07         0.10954E+08         0.00000E+00
    0.00000E+00         0.00000E+00         0.35976E+07
 
    0.57175E+07         0.37887E+07         0.00000E+00
    0.37887E+07         0.11350E+08         0.00000E+00
    0.00000E+00         0.00000E+00         0.34134E+07
 
    0.45237E+07         0.55161E+07         0.00000E+00
    0.55161E+07         0.11768E+08         0.00000E+00
    0.00000E+00         0.00000E+00         0.32583E+07
 
    0.35265E+07         0.75074E+07         0.00000E+00
    0.75074E+07         0.12165E+08         0.00000E+00
    0.00000E+00         0.00000E+00         0.31383E+07
 
    0.18999E+08        -0.47698E+06         0.00000E+00
   -0.47698E+06         0.62827E+07         0.00000E+00
    0.00000E+00         0.00000E+00         0.50564E+07
 
    0.18011E+08        -0.12332E+07         0.00000E+00
   -0.12332E+07         0.63321E+07         0.00000E+00
    0.00000E+00         0.00000E+00         0.48686E+07
 
    0.16914E+08        -0.17576E+07         0.00000E+00
   -0.17576E+07         0.64134E+07         0.00000E+00
    0.00000E+00         0.00000E+00         0.46654E+07
 
    0.15733E+08        -0.20735E+07         0.00000E+00
   -0.20735E+07         0.65228E+07         0.00000E+00
    0.00000E+00         0.00000E+00         0.44512E+07
 
    0.14485E+08        -0.21878E+07         0.00000E+00
   -0.21878E+07         0.66616E+07         0.00000E+00
    0.00000E+00         0.00000E+00         0.42294E+07
 
    0.13189E+08        -0.20990E+07         0.00000E+00
   -0.20990E+07         0.68295E+07         0.00000E+00
    0.00000E+00         0.00000E+00         0.40036E+07
 
    0.11864E+08        -0.18054E+07         0.00000E+00
   -0.18054E+07         0.70239E+07         0.00000E+00
    0.00000E+00         0.00000E+00         0.37776E+07
 
    0.10534E+08        -0.13086E+07         0.00000E+00
   -0.13086E+07         0.72423E+07         0.00000E+00
    0.00000E+00         0.00000E+00         0.35553E+07
 
    0.92184E+07        -0.61271E+06         0.00000E+00
   -0.61271E+06         0.74848E+07         0.00000E+00
    0.00000E+00         0.00000E+00         0.33406E+07
 
    0.79315E+07         0.27900E+06         0.00000E+00
    0.27900E+06         0.77542E+07         0.00000E+00
    0.00000E+00         0.00000E+00         0.31371E+07
 
    0.66880E+07         0.13674E+07         0.00000E+00
    0.13674E+07         0.80536E+07         0.00000E+00
    0.00000E+00         0.00000E+00         0.29483E+07
 
    0.55069E+07         0.26586E+07         0.00000E+00
    0.26586E+07         0.83819E+07         0.00000E+00
    0.00000E+00         0.00000E+00         0.27778E+07
 
    0.44171E+07         0.41617E+07         0.00000E+00
    0.41617E+07         0.87290E+07         0.00000E+00
    0.00000E+00         0.00000E+00         0.26292E+07
 
    0.34624E+07         0.58841E+07         0.00000E+00
    0.58841E+07         0.90730E+07         0.00000E+00
    0.00000E+00         0.00000E+00         0.25071E+07
 
    0.27021E+07         0.78241E+07         0.00000E+00
    0.78241E+07         0.93784E+07         0.00000E+00
    0.00000E+00         0.00000E+00         0.24161E+07
 
    0.15335E+08        -0.44568E+06         0.00000E+00
   -0.44568E+06         0.34838E+07         0.00000E+00
    0.00000E+00         0.00000E+00         0.37637E+07
 
    0.14586E+08        -0.11620E+07         0.00000E+00
   -0.11620E+07         0.35516E+07         0.00000E+00
    0.00000E+00         0.00000E+00         0.36275E+07
 
    0.13703E+08        -0.16589E+07         0.00000E+00
   -0.16589E+07         0.36625E+07         0.00000E+00
    0.00000E+00         0.00000E+00         0.34731E+07
 
    0.12725E+08        -0.19490E+07         0.00000E+00
   -0.19490E+07         0.38037E+07         0.00000E+00
    0.00000E+00         0.00000E+00         0.33058E+07
 
    0.11678E+08        -0.20370E+07         0.00000E+00
   -0.20370E+07         0.39704E+07         0.00000E+00
    0.00000E+00         0.00000E+00         0.31297E+07
 
    0.10583E+08        -0.19228E+07         0.00000E+00
   -0.19228E+07         0.41603E+07         0.00000E+00
    0.00000E+00         0.00000E+00         0.29486E+07
 
    0.94600E+07        -0.16060E+07         0.00000E+00
   -0.16060E+07         0.43713E+07         0.00000E+00
    0.00000E+00         0.00000E+00         0.27663E+07
 
    0.83296E+07        -0.10872E+07         0.00000E+00
   -0.10872E+07         0.46015E+07         0.00000E+00
    0.00000E+00         0.00000E+00         0.25862E+07
 
    0.72096E+07        -0.36856E+06         0.00000E+00
   -0.36856E+06         0.48502E+07         0.00000E+00
    0.00000E+00         0.00000E+00         0.24120E+07
 
    0.61173E+07         0.54750E+06         0.00000E+00
    0.54750E+06         0.51172E+07         0.00000E+00
    0.00000E+00         0.00000E+00         0.22469E+07
 
    0.50702E+07         0.16599E+07         0.00000E+00
    0.16599E+07         0.54013E+07         0.00000E+00
    0.00000E+00         0.00000E+00         0.20943E+07
 
    0.40899E+07         0.29690E+07         0.00000E+00
    0.29690E+07         0.56977E+07         0.00000E+00
    0.00000E+00         0.00000E+00         0.19575E+07
 
    0.32050E+07         0.44750E+07         0.00000E+00
    0.44750E+07         0.59952E+07         0.00000E+00
    0.00000E+00         0.00000E+00         0.18400E+07
 
    0.24539E+07         0.61743E+07         0.00000E+00
    0.61743E+07         0.62740E+07         0.00000E+00
    0.00000E+00         0.00000E+00         0.17456E+07
 
    0.18842E+07         0.80555E+07         0.00000E+00
    0.80555E+07         0.65055E+07         0.00000E+00
    0.00000E+00         0.00000E+00         0.16779E+07
 
    0.11828E+08        -0.40743E+06         0.00000E+00
   -0.40743E+06         0.77851E+06         0.00000E+00
    0.00000E+00         0.00000E+00         0.25214E+07
 
    0.11293E+08        -0.10724E+07         0.00000E+00
   -0.10724E+07         0.85270E+06         0.00000E+00
    0.00000E+00         0.00000E+00         0.24292E+07
 
    0.10615E+08        -0.15368E+07         0.00000E+00
   -0.15368E+07         0.97467E+06         0.00000E+00
    0.00000E+00         0.00000E+00         0.23179E+07
 
    0.98359E+07        -0.18019E+07         0.00000E+00
   -0.18019E+07         0.11276E+07         0.00000E+00
    0.00000E+00         0.00000E+00         0.21927E+07
 
    0.89867E+07        -0.18680E+07         0.00000E+00
   -0.18680E+07         0.13034E+07         0.00000E+00
    0.00000E+00         0.00000E+00         0.20580E+07
 
    0.80902E+07        -0.17339E+07         0.00000E+00
   -0.17339E+07         0.14979E+07         0.00000E+00
    0.00000E+00         0.00000E+00         0.19176E+07
 
    0.71663E+07        -0.13988E+07         0.00000E+00
   -0.13988E+07         0.17085E+07         0.00000E+00
    0.00000E+00         0.00000E+00         0.17749E+07
 
    0.62333E+07        -0.86300E+06         0.00000E+00
   -0.86300E+06         0.19334E+07         0.00000E+00
    0.00000E+00         0.00000E+00         0.16333E+07
 
    0.53085E+07        -0.12840E+06         0.00000E+00
   -0.12840E+06         0.21710E+07         0.00000E+00
    0.00000E+00         0.00000E+00         0.14959E+07
 
    0.44091E+07         0.80227E+06         0.00000E+00
    0.80227E+06         0.24195E+07         0.00000E+00
    0.00000E+00         0.00000E+00         0.13657E+07
 
    0.35533E+07         0.19257E+07         0.00000E+00
    0.19257E+07         0.26757E+07         0.00000E+00
    0.00000E+00         0.00000E+00         0.12458E+07
 
    0.27623E+07         0.32380E+07         0.00000E+00
    0.32380E+07         0.29331E+07         0.00000E+00
    0.00000E+00         0.00000E+00         0.11391E+07
 
    0.20626E+07         0.47328E+07         0.00000E+00
    0.47328E+07         0.31806E+07         0.00000E+00
    0.00000E+00         0.00000E+00         0.10486E+07
 
    0.14865E+07         0.63996E+07         0.00000E+00
    0.63996E+07         0.34013E+07         0.00000E+00
    0.00000E+00         0.00000E+00         0.97755E+06
 
    0.10721E+07         0.82202E+07         0.00000E+00
    0.82202E+07         0.35723E+07         0.00000E+00
    0.00000E+00         0.00000E+00         0.92888E+06
 
    0.84810E+07        -0.36806E+06         0.00000E+00
   -0.36806E+06        -0.18389E+07         0.00000E+00
    0.00000E+00         0.00000E+00         0.13284E+07
 
    0.81319E+07        -0.97828E+06         0.00000E+00
   -0.97828E+06        -0.17675E+07         0.00000E+00
    0.00000E+00         0.00000E+00         0.12729E+07
 
    0.76432E+07        -0.14083E+07         0.00000E+00
   -0.14083E+07        -0.16492E+07         0.00000E+00
    0.00000E+00         0.00000E+00         0.11988E+07
 
    0.70564E+07        -0.16497E+07         0.00000E+00
   -0.16497E+07        -0.15013E+07         0.00000E+00
    0.00000E+00         0.00000E+00         0.11110E+07
 
    0.64012E+07        -0.16971E+07         0.00000E+00
   -0.16971E+07        -0.13332E+07         0.00000E+00
    0.00000E+00         0.00000E+00         0.10136E+07
 
    0.57002E+07        -0.15473E+07         0.00000E+00
   -0.15473E+07        -0.11501E+07         0.00000E+00
    0.00000E+00         0.00000E+00         0.91003E+06
 
    0.49724E+07        -0.11984E+07         0.00000E+00
   -0.11984E+07        -0.95493E+06         0.00000E+00
    0.00000E+00         0.00000E+00         0.80349E+06
 
    0.42344E+07        -0.65074E+06         0.00000E+00
   -0.65074E+06        -0.74989E+06         0.00000E+00
    0.00000E+00         0.00000E+00         0.69690E+06
 
    0.35022E+07         0.93805E+05         0.00000E+00
    0.93805E+05        -0.53701E+06         0.00000E+00
    0.00000E+00         0.00000E+00         0.59304E+06
 
    0.27918E+07         0.10315E+07         0.00000E+00
    0.10315E+07        -0.31895E+06         0.00000E+00
    0.00000E+00         0.00000E+00         0.49458E+06
 
    0.21204E+07         0.21571E+07         0.00000E+00
    0.21571E+07        -0.99833E+05         0.00000E+00
    0.00000E+00         0.00000E+00         0.40412E+06
 
    0.15074E+07         0.34632E+07         0.00000E+00
    0.34632E+07         0.11371E+06         0.00000E+00
    0.00000E+00         0.00000E+00         0.32423E+06
 
    0.97571E+06         0.49390E+07         0.00000E+00
    0.49390E+07         0.31158E+06         0.00000E+00
    0.00000E+00         0.00000E+00         0.25746E+06
 
    0.55188E+06         0.65694E+07         0.00000E+00
    0.65694E+07         0.47968E+06         0.00000E+00
    0.00000E+00         0.00000E+00         0.20631E+06
 
    0.26599E+06         0.83321E+07         0.00000E+00
    0.83321E+07         0.60007E+06         0.00000E+00
    0.00000E+00         0.00000E+00         0.17321E+06
 
    0.52822E+07        -0.33180E+06         0.00000E+00
   -0.33180E+06        -0.43775E+07         0.00000E+00
    0.00000E+00         0.00000E+00         0.18093E+06
 
    0.50928E+07        -0.89022E+06         0.00000E+00
   -0.89022E+06        -0.43155E+07         0.00000E+00
    0.00000E+00         0.00000E+00         0.15545E+06
 
    0.47786E+07        -0.12874E+07         0.00000E+00
   -0.12874E+07        -0.42122E+07         0.00000E+00
    0.00000E+00         0.00000E+00         0.11327E+06
 
    0.43752E+07        -0.15069E+07         0.00000E+00
   -0.15069E+07        -0.40828E+07         0.00000E+00
    0.00000E+00         0.00000E+00         0.58474E+05
 
    0.39090E+07        -0.15385E+07         0.00000E+00
   -0.15385E+07        -0.39364E+07         0.00000E+00
    0.00000E+00         0.00000E+00        -0.54793E+04
 
    0.34003E+07        -0.13764E+07         0.00000E+00
   -0.13764E+07        -0.37781E+07         0.00000E+00
    0.00000E+00         0.00000E+00        -0.75572E+05
 
    0.28656E+07        -0.10177E+07         0.00000E+00
   -0.10177E+07        -0.36111E+07         0.00000E+00
    0.00000E+00         0.00000E+00        -0.14910E+06
 
    0.23198E+07        -0.46226E+06         0.00000E+00
   -0.46226E+06        -0.34377E+07         0.00000E+00
    0.00000E+00         0.00000E+00        -0.22359E+06
 
    0.17768E+07         0.28745E+06         0.00000E+00
    0.28745E+06        -0.32602E+07         0.00000E+00
    0.00000E+00         0.00000E+00        -0.29669E+06
 
    0.12507E+07         0.12268E+07         0.00000E+00
    0.12268E+07        -0.30816E+07         0.00000E+00
    0.00000E+00         0.00000E+00        -0.36617E+06
 
    0.75659E+06         0.23487E+07         0.00000E+00
    0.23487E+07        -0.29059E+07         0.00000E+00
    0.00000E+00         0.00000E+00        -0.42986E+06
 
    0.31115E+06         0.36433E+07         0.00000E+00
    0.36433E+07        -0.27394E+07         0.00000E+00
    0.00000E+00         0.00000E+00        -0.48564E+06
 
   -0.66786E+05         0.50969E+07         0.00000E+00
    0.50969E+07        -0.25906E+07         0.00000E+00
    0.00000E+00         0.00000E+00        -0.53148E+06
 
   -0.35609E+06         0.66911E+07         0.00000E+00
    0.66911E+07        -0.24708E+07         0.00000E+00
    0.00000E+00         0.00000E+00        -0.56538E+06
 
   -0.53385E+06         0.84012E+07         0.00000E+00
    0.84012E+07        -0.23936E+07         0.00000E+00
    0.00000E+00         0.00000E+00        -0.58549E+06
 
    0.22120E+07        -0.30161E+06         0.00000E+00
   -0.30161E+06        -0.68486E+07         0.00000E+00
    0.00000E+00         0.00000E+00        -0.92732E+06
 
    0.21604E+07        -0.81594E+06         0.00000E+00
   -0.81594E+06        -0.68009E+07         0.00000E+00
    0.00000E+00         0.00000E+00        -0.92809E+06
 
    0.20068E+07        -0.11846E+07         0.00000E+00
   -0.11846E+07        -0.67208E+07         0.00000E+00
    0.00000E+00         0.00000E+00        -0.94279E+06
 
    0.17785E+07        -0.13853E+07         0.00000E+00
   -0.13853E+07        -0.66201E+07         0.00000E+00
    0.00000E+00         0.00000E+00        -0.96831E+06
 
    0.14963E+07        -0.14039E+07         0.00000E+00
   -0.14039E+07        -0.65062E+07         0.00000E+00
    0.00000E+00         0.00000E+00        -0.10020E+07
 
    0.11763E+07        -0.12324E+07         0.00000E+00
   -0.12324E+07        -0.63834E+07         0.00000E+00
    0.00000E+00         0.00000E+00        -0.10414E+07
 
    0.83202E+06        -0.86675E+06         0.00000E+00
   -0.86675E+06        -0.62545E+07         0.00000E+00
    0.00000E+00         0.00000E+00        -0.10845E+07
 
    0.47545E+06        -0.30685E+06         0.00000E+00
   -0.30685E+06        -0.61219E+07         0.00000E+00
    0.00000E+00         0.00000E+00        -0.11293E+07
 
    0.11806E+06         0.44460E+06         0.00000E+00
    0.44460E+06        -0.59876E+07         0.00000E+00
    0.00000E+00         0.00000E+00        -0.11739E+07
 
   -0.22848E+06         0.13820E+07         0.00000E+00
    0.13820E+07        -0.58546E+07         0.00000E+00
    0.00000E+00         0.00000E+00        -0.12166E+07
 
   -0.55185E+06         0.24971E+07         0.00000E+00
    0.24971E+07        -0.57267E+07         0.00000E+00
    0.00000E+00         0.00000E+00        -0.12557E+07
 
   -0.83863E+06         0.37779E+07         0.00000E+00
    0.37779E+07        -0.56091E+07         0.00000E+00
    0.00000E+00         0.00000E+00        -0.12896E+07
 
   -0.10741E+07         0.52091E+07         0.00000E+00
    0.52091E+07        -0.55087E+07         0.00000E+00
    0.00000E+00         0.00000E+00        -0.13166E+07
 
   -0.12425E+07         0.67702E+07         0.00000E+00
    0.67702E+07        -0.54338E+07         0.00000E+00
    0.00000E+00         0.00000E+00        -0.13353E+07
 
   -0.13270E+07         0.84352E+07         0.00000E+00
    0.84352E+07        -0.53945E+07         0.00000E+00
    0.00000E+00         0.00000E+00        -0.13443E+07
 
   -0.75524E+06        -0.27954E+06         0.00000E+00
   -0.27954E+06        -0.92650E+07         0.00000E+00
    0.00000E+00         0.00000E+00        -0.20040E+07
 
   -0.68547E+06        -0.76090E+06         0.00000E+00
   -0.76090E+06        -0.92347E+07         0.00000E+00
    0.00000E+00         0.00000E+00        -0.19840E+07
 
   -0.68932E+06        -0.11077E+07         0.00000E+00
   -0.11077E+07        -0.91834E+07         0.00000E+00
    0.00000E+00         0.00000E+00        -0.19746E+07
 
   -0.74936E+06        -0.12937E+07         0.00000E+00
   -0.12937E+07        -0.91186E+07         0.00000E+00
    0.00000E+00         0.00000E+00        -0.19736E+07
 
   -0.85199E+06        -0.13023E+07         0.00000E+00
   -0.13023E+07        -0.90448E+07         0.00000E+00
    0.00000E+00         0.00000E+00        -0.19794E+07
 
   -0.98626E+06        -0.11237E+07         0.00000E+00
   -0.11237E+07        -0.89651E+07         0.00000E+00
    0.00000E+00         0.00000E+00        -0.19903E+07
 
   -0.11428E+07        -0.75348E+06         0.00000E+00
   -0.75348E+06        -0.88815E+07         0.00000E+00
    0.00000E+00         0.00000E+00        -0.20049E+07
 
   -0.13128E+07        -0.19131E+06         0.00000E+00
   -0.19131E+06        -0.87959E+07         0.00000E+00
    0.00000E+00         0.00000E+00        -0.20217E+07
 
   -0.14879E+07         0.55968E+06         0.00000E+00
    0.55968E+06        -0.87102E+07         0.00000E+00
    0.00000E+00         0.00000E+00        -0.20396E+07
 
   -0.16592E+07         0.14932E+07         0.00000E+00
    0.14932E+07        -0.86269E+07         0.00000E+00
    0.00000E+00         0.00000E+00        -0.20572E+07
 
   -0.18175E+07         0.25999E+07         0.00000E+00
    0.25999E+07        -0.85494E+07         0.00000E+00
    0.00000E+00         0.00000E+00        -0.20734E+07
 
   -0.19526E+07         0.38670E+07         0.00000E+00
    0.38670E+07        -0.84816E+07         0.00000E+00
    0.00000E+00         0.00000E+00        -0.20868E+07
 
   -0.20543E+07         0.52777E+07         0.00000E+00
    0.52777E+07        -0.84285E+07         0.00000E+00
    0.00000E+00         0.00000E+00        -0.20966E+07
 
   -0.21115E+07         0.68107E+07         0.00000E+00
    0.68107E+07        -0.83962E+07         0.00000E+00
    0.00000E+00         0.00000E+00        -0.21015E+07
 
   -0.21133E+07         0.84392E+07         0.00000E+00
    0.84392E+07        -0.83908E+07         0.00000E+00
    0.00000E+00         0.00000E+00        -0.21008E+07
 
   -0.36491E+07        -0.26686E+06         0.00000E+00
   -0.26686E+06        -0.11640E+08         0.00000E+00
    0.00000E+00         0.00000E+00        -0.30579E+07
 
   -0.34682E+07        -0.72865E+06         0.00000E+00
   -0.72865E+06        -0.11629E+08         0.00000E+00
    0.00000E+00         0.00000E+00        -0.30195E+07
 
   -0.33292E+07        -0.10618E+07         0.00000E+00
   -0.10618E+07        -0.11610E+08         0.00000E+00
    0.00000E+00         0.00000E+00        -0.29879E+07
 
   -0.32255E+07        -0.12381E+07         0.00000E+00
   -0.12381E+07        -0.11585E+08         0.00000E+00
    0.00000E+00         0.00000E+00        -0.29622E+07
 
   -0.31515E+07        -0.12398E+07         0.00000E+00
   -0.12398E+07        -0.11556E+08         0.00000E+00
    0.00000E+00         0.00000E+00        -0.29416E+07
 
   -0.31023E+07        -0.10563E+07         0.00000E+00
   -0.10563E+07        -0.11524E+08         0.00000E+00
    0.00000E+00         0.00000E+00        -0.29253E+07
 
   -0.30731E+07        -0.68306E+06         0.00000E+00
   -0.68306E+06        -0.11490E+08         0.00000E+00
    0.00000E+00         0.00000E+00        -0.29126E+07
 
   -0.30591E+07        -0.12004E+06         0.00000E+00
   -0.12004E+06        -0.11455E+08         0.00000E+00
    0.00000E+00         0.00000E+00        -0.29028E+07
 
   -0.30548E+07         0.62923E+06         0.00000E+00
    0.62923E+06        -0.11421E+08         0.00000E+00
    0.00000E+00         0.00000E+00        -0.28951E+07
 
   -0.30544E+07         0.15580E+07         0.00000E+00
    0.15580E+07        -0.11389E+08         0.00000E+00
    0.00000E+00         0.00000E+00        -0.28887E+07
 
   -0.30518E+07         0.26563E+07         0.00000E+00
    0.26563E+07        -0.11363E+08         0.00000E+00
    0.00000E+00         0.00000E+00        -0.28829E+07
 
   -0.30407E+07         0.39107E+07         0.00000E+00
    0.39107E+07        -0.11345E+08         0.00000E+00
    0.00000E+00         0.00000E+00        -0.28771E+07
 
   -0.30144E+07         0.53043E+07         0.00000E+00
    0.53043E+07        -0.11338E+08         0.00000E+00
    0.00000E+00         0.00000E+00        -0.28705E+07
 
   -0.29669E+07         0.68152E+07         0.00000E+00
    0.68152E+07        -0.11346E+08         0.00000E+00
    0.00000E+00         0.00000E+00        -0.28627E+07
 
   -0.28923E+07         0.84168E+07         0.00000E+00
    0.84168E+07        -0.11373E+08         0.00000E+00
    0.00000E+00         0.00000E+00        -0.28530E+07
 
   -0.65011E+07        -0.26424E+06         0.00000E+00
   -0.26424E+06        -0.13988E+08         0.00000E+00
    0.00000E+00         0.00000E+00        -0.40979E+07
 
   -0.62126E+07        -0.72110E+06         0.00000E+00
   -0.72110E+06        -0.13997E+08         0.00000E+00
    0.00000E+00         0.00000E+00        -0.40420E+07
 
   -0.59332E+07        -0.10497E+07         0.00000E+00
   -0.10497E+07        -0.14011E+08         0.00000E+00
    0.00000E+00         0.00000E+00        -0.39889E+07
 
   -0.56673E+07        -0.12218E+07         0.00000E+00
   -0.12218E+07        -0.14028E+08         0.00000E+00
    0.00000E+00         0.00000E+00        -0.39391E+07
 
   -0.54178E+07        -0.12196E+07         0.00000E+00
   -0.12196E+07        -0.14046E+08         0.00000E+00
    0.00000E+00         0.00000E+00        -0.38927E+07
 
   -0.51863E+07        -0.10330E+07         0.00000E+00
   -0.10330E+07        -0.14063E+08         0.00000E+00
    0.00000E+00         0.00000E+00        -0.38498E+07
 
   -0.49729E+07        -0.65805E+06         0.00000E+00
   -0.65805E+06        -0.14079E+08         0.00000E+00
    0.00000E+00         0.00000E+00        -0.38104E+07
 
   -0.47766E+07        -0.95060E+05         0.00000E+00
   -0.95060E+05        -0.14095E+08         0.00000E+00
    0.00000E+00         0.00000E+00        -0.37744E+07
 
   -0.45953E+07         0.65187E+06         0.00000E+00
    0.65187E+06        -0.14113E+08         0.00000E+00
    0.00000E+00         0.00000E+00        -0.37416E+07
 
   -0.44261E+07         0.15756E+07         0.00000E+00
    0.15756E+07        -0.14132E+08         0.00000E+00
    0.00000E+00         0.00000E+00        -0.37117E+07
 
   -0.42659E+07         0.26661E+07         0.00000E+00
    0.26661E+07        -0.14157E+08         0.00000E+00
    0.00000E+00         0.00000E+00        -0.36846E+07
 
   -0.41117E+07         0.39099E+07         0.00000E+00
    0.39099E+07        -0.14188E+08         0.00000E+00
    0.00000E+00         0.00000E+00        -0.36599E+07
 
   -0.39610E+07         0.52901E+07         0.00000E+00
    0.52901E+07        -0.14227E+08         0.00000E+00
    0.00000E+00         0.00000E+00        -0.36376E+07
 
   -0.38120E+07         0.67854E+07         0.00000E+00
    0.67854E+07        -0.14274E+08         0.00000E+00
    0.00000E+00         0.00000E+00        -0.36173E+07
 
   -0.36641E+07         0.83698E+07         0.00000E+00
    0.83698E+07        -0.14331E+08         0.00000E+00
    0.00000E+00         0.00000E+00        -0.35990E+07
 
   -0.93431E+07        -0.27181E+06         0.00000E+00
   -0.27181E+06        -0.16322E+08         0.00000E+00
    0.00000E+00         0.00000E+00        -0.51331E+07
 
   -0.89440E+07        -0.73877E+06         0.00000E+00
   -0.73877E+06        -0.16350E+08         0.00000E+00
    0.00000E+00         0.00000E+00        -0.50589E+07
 
   -0.85217E+07        -0.10722E+07         0.00000E+00
   -0.10722E+07        -0.16398E+08         0.00000E+00
    0.00000E+00         0.00000E+00        -0.49839E+07
 
   -0.80919E+07        -0.12455E+07         0.00000E+00
   -0.12455E+07        -0.16455E+08         0.00000E+00
    0.00000E+00         0.00000E+00        -0.49095E+07
 
   -0.76659E+07        -0.12424E+07         0.00000E+00
   -0.12424E+07        -0.16518E+08         0.00000E+00
    0.00000E+00         0.00000E+00        -0.48369E+07
 
   -0.72520E+07        -0.10543E+07         0.00000E+00
   -0.10543E+07        -0.16583E+08         0.00000E+00
    0.00000E+00         0.00000E+00        -0.47670E+07
 
   -0.68552E+07        -0.67836E+06         0.00000E+00
   -0.67836E+06        -0.16648E+08         0.00000E+00
    0.00000E+00         0.00000E+00        -0.47007E+07
 
   -0.64782E+07        -0.11594E+06         0.00000E+00
   -0.11594E+06        -0.16713E+08         0.00000E+00
    0.00000E+00         0.00000E+00        -0.46383E+07
 
   -0.61217E+07         0.62827E+06         0.00000E+00
    0.62827E+06        -0.16780E+08         0.00000E+00
    0.00000E+00         0.00000E+00        -0.45803E+07
 
   -0.57857E+07         0.15469E+07         0.00000E+00
    0.15469E+07        -0.16849E+08         0.00000E+00
    0.00000E+00         0.00000E+00        -0.45270E+07
 
   -0.54697E+07         0.26302E+07         0.00000E+00
    0.26302E+07        -0.16923E+08         0.00000E+00
    0.00000E+00         0.00000E+00        -0.44785E+07
 
   -0.51741E+07         0.38652E+07         0.00000E+00
    0.38652E+07        -0.17001E+08         0.00000E+00
    0.00000E+00         0.00000E+00        -0.44351E+07
 
   -0.49000E+07         0.52359E+07         0.00000E+00
    0.52359E+07        -0.17084E+08         0.00000E+00
    0.00000E+00         0.00000E+00        -0.43969E+07
 
   -0.46500E+07         0.67220E+07         0.00000E+00
    0.67220E+07        -0.17171E+08         0.00000E+00
    0.00000E+00         0.00000E+00        -0.43641E+07
 
   -0.44283E+07         0.82985E+07         0.00000E+00
    0.82985E+07        -0.17258E+08         0.00000E+00
    0.00000E+00         0.00000E+00        -0.43372E+07
 
   -0.12206E+08        -0.28930E+06         0.00000E+00
   -0.28930E+06        -0.18654E+08         0.00000E+00
    0.00000E+00         0.00000E+00        -0.61720E+07
 
   -0.11686E+08        -0.78094E+06         0.00000E+00
   -0.78094E+06        -0.18701E+08         0.00000E+00
    0.00000E+00         0.00000E+00        -0.60774E+07
 
   -0.11114E+08        -0.11282E+07         0.00000E+00
   -0.11282E+07        -0.18778E+08         0.00000E+00
    0.00000E+00         0.00000E+00        -0.59785E+07
 
   -0.10515E+08        -0.13077E+07         0.00000E+00
   -0.13077E+07        -0.18874E+08         0.00000E+00
    0.00000E+00         0.00000E+00        -0.58778E+07
 
   -0.99096E+07        -0.13062E+07         0.00000E+00
   -0.13062E+07        -0.18979E+08         0.00000E+00
    0.00000E+00         0.00000E+00        -0.57777E+07
 
   -0.93121E+07        -0.11176E+07         0.00000E+00
   -0.11176E+07        -0.19087E+08         0.00000E+00
    0.00000E+00         0.00000E+00        -0.56798E+07
 
   -0.87321E+07        -0.74118E+06         0.00000E+00
   -0.74118E+06        -0.19196E+08         0.00000E+00
    0.00000E+00         0.00000E+00        -0.55856E+07
 
   -0.81755E+07        -0.17980E+06         0.00000E+00
   -0.17980E+06        -0.19305E+08         0.00000E+00
    0.00000E+00         0.00000E+00        -0.54961E+07
 
   -0.76455E+07         0.56115E+06         0.00000E+00
    0.56115E+06        -0.19417E+08         0.00000E+00
    0.00000E+00         0.00000E+00        -0.54124E+07
 
   -0.71441E+07         0.14743E+07         0.00000E+00
    0.14743E+07        -0.19531E+08         0.00000E+00
    0.00000E+00         0.00000E+00        -0.53351E+07
 
   -0.66734E+07         0.25504E+07         0.00000E+00
    0.25504E+07        -0.19650E+08         0.00000E+00
    0.00000E+00         0.00000E+00        -0.52647E+07
 
   -0.62362E+07         0.37780E+07         0.00000E+00
    0.37780E+07        -0.19774E+08         0.00000E+00
    0.00000E+00         0.00000E+00        -0.52020E+07
 
   -0.58374E+07         0.51422E+07         0.00000E+00
    0.51422E+07        -0.19900E+08         0.00000E+00
    0.00000E+00         0.00000E+00        -0.51475E+07
 
   -0.54839E+07         0.66247E+07         0.00000E+00
    0.66247E+07        -0.20025E+08         0.00000E+00
    0.00000E+00         0.00000E+00        -0.51018E+07
 
   -0.51847E+07         0.82020E+07         0.00000E+00
    0.82020E+07        -0.20144E+08         0.00000E+00
    0.00000E+00         0.00000E+00        -0.50657E+07
 
   -0.15118E+08        -0.31605E+06         0.00000E+00
   -0.31605E+06        -0.20995E+08         0.00000E+00
    0.00000E+00         0.00000E+00        -0.72225E+07
 
   -0.14462E+08        -0.84580E+06         0.00000E+00
   -0.84580E+06        -0.21058E+08         0.00000E+00
    0.00000E+00         0.00000E+00        -0.71039E+07
 
   -0.13727E+08        -0.12147E+07         0.00000E+00
   -0.12147E+07        -0.21163E+08         0.00000E+00
    0.00000E+00         0.00000E+00        -0.69779E+07
 
   -0.12951E+08        -0.14045E+07         0.00000E+00
   -0.14045E+07        -0.21291E+08         0.00000E+00
    0.00000E+00         0.00000E+00        -0.68484E+07
 
   -0.12161E+08        -0.14062E+07         0.00000E+00
   -0.14062E+07        -0.21431E+08         0.00000E+00
    0.00000E+00         0.00000E+00        -0.67184E+07
 
   -0.11378E+08        -0.12176E+07         0.00000E+00
   -0.12176E+07        -0.21575E+08         0.00000E+00
    0.00000E+00         0.00000E+00        -0.65905E+07
 
   -0.10614E+08        -0.84094E+06         0.00000E+00
   -0.84094E+06        -0.21720E+08         0.00000E+00
    0.00000E+00         0.00000E+00        -0.64669E+07
 
   -0.98794E+07        -0.28120E+06         0.00000E+00
   -0.28120E+06        -0.21866E+08         0.00000E+00
    0.00000E+00         0.00000E+00        -0.63491E+07
 
   -0.91776E+07         0.45538E+06         0.00000E+00
    0.45538E+06        -0.22015E+08         0.00000E+00
    0.00000E+00         0.00000E+00        -0.62385E+07
 
   -0.85121E+07         0.13617E+07         0.00000E+00
    0.13617E+07        -0.22169E+08         0.00000E+00
    0.00000E+00         0.00000E+00        -0.61362E+07
 
   -0.78866E+07         0.24296E+07         0.00000E+00
    0.24296E+07        -0.22329E+08         0.00000E+00
    0.00000E+00         0.00000E+00        -0.60431E+07
 
   -0.73064E+07         0.36494E+07         0.00000E+00
    0.36494E+07        -0.22494E+08         0.00000E+00
    0.00000E+00         0.00000E+00        -0.59602E+07
 
   -0.67793E+07         0.50089E+07         0.00000E+00
    0.50089E+07        -0.22663E+08         0.00000E+00
    0.00000E+00         0.00000E+00        -0.58884E+07
 
   -0.63166E+07         0.64921E+07         0.00000E+00
    0.64921E+07        -0.22827E+08         0.00000E+00
    0.00000E+00         0.00000E+00        -0.58288E+07
 
   -0.59329E+07         0.80779E+07         0.00000E+00
    0.80779E+07        -0.22980E+08         0.00000E+00
    0.00000E+00         0.00000E+00        -0.57825E+07
 
   -0.18104E+08        -0.35108E+06         0.00000E+00
   -0.35108E+06        -0.23353E+08         0.00000E+00
    0.00000E+00         0.00000E+00        -0.82914E+07
 
   -0.17289E+08        -0.93054E+06         0.00000E+00
   -0.93054E+06        -0.23430E+08         0.00000E+00
    0.00000E+00         0.00000E+00        -0.81438E+07
 
   -0.16375E+08        -0.13273E+07         0.00000E+00
   -0.13273E+07        -0.23557E+08         0.00000E+00
    0.00000E+00         0.00000E+00        -0.79865E+07
 
   -0.15410E+08        -0.15297E+07         0.00000E+00
   -0.15297E+07        -0.23712E+08         0.00000E+00
    0.00000E+00         0.00000E+00        -0.78243E+07
 
   -0.14429E+08        -0.15348E+07         0.00000E+00
   -0.15348E+07        -0.23878E+08         0.00000E+00
    0.00000E+00         0.00000E+00        -0.76613E+07
 
   -0.13457E+08        -0.13458E+07         0.00000E+00
   -0.13458E+07        -0.24047E+08         0.00000E+00
    0.00000E+00         0.00000E+00        -0.75009E+07
 
   -0.12511E+08        -0.96911E+06         0.00000E+00
   -0.96911E+06        -0.24217E+08         0.00000E+00
    0.00000E+00         0.00000E+00        -0.73457E+07
 
   -0.11600E+08        -0.41205E+06         0.00000E+00
   -0.41205E+06        -0.24389E+08         0.00000E+00
    0.00000E+00         0.00000E+00        -0.71978E+07
 
   -0.10729E+08         0.31807E+06         0.00000E+00
    0.31807E+06        -0.24565E+08         0.00000E+00
    0.00000E+00         0.00000E+00        -0.70588E+07
 
   -0.99005E+07         0.12146E+07         0.00000E+00
    0.12146E+07        -0.24750E+08         0.00000E+00
    0.00000E+00         0.00000E+00        -0.69301E+07
 
   -0.91198E+07         0.22712E+07         0.00000E+00
    0.22712E+07        -0.24945E+08         0.00000E+00
    0.00000E+00         0.00000E+00        -0.68130E+07
 
   -0.83934E+07         0.34811E+07         0.00000E+00
    0.34811E+07        -0.25150E+08         0.00000E+00
    0.00000E+00         0.00000E+00        -0.67086E+07
 
   -0.77321E+07         0.48354E+07         0.00000E+00
    0.48354E+07        -0.25359E+08         0.00000E+00
    0.00000E+00         0.00000E+00        -0.66182E+07
 
   -0.71516E+07         0.63217E+07         0.00000E+00
    0.63217E+07        -0.25565E+08         0.00000E+00
    0.00000E+00         0.00000E+00        -0.65433E+07
 
   -0.66724E+07         0.79220E+07         0.00000E+00
    0.79220E+07        -0.25755E+08         0.00000E+00
    0.00000E+00         0.00000E+00        -0.64854E+07
 
   -0.21186E+08        -0.39318E+06         0.00000E+00
   -0.39318E+06        -0.25738E+08         0.00000E+00
    0.00000E+00         0.00000E+00        -0.93847E+07
 
   -0.20183E+08        -0.10314E+07         0.00000E+00
   -0.10314E+07        -0.25825E+08         0.00000E+00
    0.00000E+00         0.00000E+00        -0.92017E+07
 
   -0.19069E+08        -0.14596E+07         0.00000E+00
   -0.14596E+07        -0.25968E+08         0.00000E+00
    0.00000E+00         0.00000E+00        -0.90074E+07
 
   -0.17900E+08        -0.16746E+07         0.00000E+00
   -0.16746E+07        -0.26138E+08         0.00000E+00
    0.00000E+00         0.00000E+00        -0.88077E+07
 
   -0.16721E+08        -0.16817E+07         0.00000E+00
   -0.16817E+07        -0.26319E+08         0.00000E+00
    0.00000E+00         0.00000E+00        -0.86078E+07
 
   -0.15558E+08        -0.14910E+07         0.00000E+00
   -0.14910E+07        -0.26500E+08         0.00000E+00
    0.00000E+00         0.00000E+00        -0.84116E+07
 
   -0.14431E+08        -0.11141E+07         0.00000E+00
   -0.11141E+07        -0.26681E+08         0.00000E+00
    0.00000E+00         0.00000E+00        -0.82223E+07
 
   -0.13347E+08        -0.56143E+06         0.00000E+00
   -0.56143E+06        -0.26864E+08         0.00000E+00
    0.00000E+00         0.00000E+00        -0.80422E+07
 
   -0.12309E+08         0.15861E+06         0.00000E+00
    0.15861E+06        -0.27056E+08         0.00000E+00
    0.00000E+00         0.00000E+00        -0.78731E+07
 
   -0.11321E+08         0.10403E+07         0.00000E+00
    0.10403E+07        -0.27262E+08         0.00000E+00
    0.00000E+00         0.00000E+00        -0.77165E+07
 
   -0.10384E+08         0.20799E+07         0.00000E+00
    0.20799E+07        -0.27484E+08         0.00000E+00
    0.00000E+00         0.00000E+00        -0.75736E+07
 
   -0.95073E+07         0.32746E+07         0.00000E+00
    0.32746E+07        -0.27723E+08         0.00000E+00
    0.00000E+00         0.00000E+00        -0.74461E+07
 
   -0.87034E+07         0.46203E+07         0.00000E+00
    0.46203E+07        -0.27973E+08         0.00000E+00
    0.00000E+00         0.00000E+00        -0.73353E+07
 
   -0.79928E+07         0.61095E+07         0.00000E+00
    0.61095E+07        -0.28223E+08         0.00000E+00
    0.00000E+00         0.00000E+00        -0.72432E+07
 
   -0.74027E+07         0.77286E+07         0.00000E+00
    0.77286E+07        -0.28456E+08         0.00000E+00
    0.00000E+00         0.00000E+00        -0.71718E+07
 
   -0.24379E+08        -0.44088E+06         0.00000E+00
   -0.44088E+06        -0.28153E+08         0.00000E+00
    0.00000E+00         0.00000E+00        -0.10507E+08
 
   -0.23154E+08        -0.11437E+07         0.00000E+00
   -0.11437E+07        -0.28248E+08         0.00000E+00
    0.00000E+00         0.00000E+00        -0.10280E+08
 
   -0.21813E+08        -0.16034E+07         0.00000E+00
   -0.16034E+07        -0.28398E+08         0.00000E+00
    0.00000E+00         0.00000E+00        -0.10042E+08
 
   -0.20425E+08        -0.18279E+07         0.00000E+00
   -0.18279E+07        -0.28573E+08         0.00000E+00
    0.00000E+00         0.00000E+00        -0.97995E+07
 
   -0.19039E+08        -0.18331E+07         0.00000E+00
   -0.18331E+07        -0.28752E+08         0.00000E+00
    0.00000E+00         0.00000E+00        -0.95581E+07
 
   -0.17685E+08        -0.16381E+07         0.00000E+00
   -0.16381E+07        -0.28928E+08         0.00000E+00
    0.00000E+00         0.00000E+00        -0.93226E+07
 
   -0.16380E+08        -0.12609E+07         0.00000E+00
   -0.12609E+07        -0.29102E+08         0.00000E+00
    0.00000E+00         0.00000E+00        -0.90963E+07
 
   -0.15129E+08        -0.71555E+06         0.00000E+00
   -0.71555E+06        -0.29280E+08         0.00000E+00
    0.00000E+00         0.00000E+00        -0.88817E+07
 
   -0.13931E+08        -0.11231E+05         0.00000E+00
   -0.11231E+05        -0.29472E+08         0.00000E+00
    0.00000E+00         0.00000E+00        -0.86806E+07
 
   -0.12785E+08         0.84775E+06         0.00000E+00
    0.84775E+06        -0.29686E+08         0.00000E+00
    0.00000E+00         0.00000E+00        -0.84942E+07
 
   -0.11693E+08         0.18612E+07         0.00000E+00
    0.18612E+07        -0.29927E+08         0.00000E+00
    0.00000E+00         0.00000E+00        -0.83240E+07
 
   -0.10660E+08         0.30316E+07         0.00000E+00
    0.30316E+07        -0.30196E+08         0.00000E+00
    0.00000E+00         0.00000E+00        -0.81713E+07
 
   -0.97026E+07         0.43613E+07         0.00000E+00
    0.43613E+07        -0.30487E+08         0.00000E+00
    0.00000E+00         0.00000E+00        -0.80380E+07
 
   -0.88454E+07         0.58497E+07         0.00000E+00
    0.58497E+07        -0.30786E+08         0.00000E+00
    0.00000E+00         0.00000E+00        -0.79263E+07
 
   -0.81236E+07         0.74894E+07         0.00000E+00
    0.74894E+07        -0.31070E+08         0.00000E+00
    0.00000E+00         0.00000E+00        -0.78388E+07
 
   -0.27697E+08        -0.49253E+06         0.00000E+00
   -0.49253E+06        -0.30604E+08         0.00000E+00
    0.00000E+00         0.00000E+00        -0.11660E+08
 
   -0.26206E+08        -0.12615E+07         0.00000E+00
   -0.12615E+07        -0.30701E+08         0.00000E+00
    0.00000E+00         0.00000E+00        -0.11381E+08
 
   -0.24608E+08        -0.17481E+07         0.00000E+00
   -0.17481E+07        -0.30849E+08         0.00000E+00
    0.00000E+00         0.00000E+00        -0.11091E+08
 
   -0.22982E+08        -0.19748E+07         0.00000E+00
   -0.19748E+07        -0.31012E+08         0.00000E+00
    0.00000E+00         0.00000E+00        -0.10799E+08
 
   -0.21383E+08        -0.19715E+07         0.00000E+00
   -0.19715E+07        -0.31171E+08         0.00000E+00
    0.00000E+00         0.00000E+00        -0.10511E+08
 
   -0.19840E+08        -0.17686E+07         0.00000E+00
   -0.17686E+07        -0.31320E+08         0.00000E+00
    0.00000E+00         0.00000E+00        -0.10232E+08
 
   -0.18364E+08        -0.13914E+07         0.00000E+00
   -0.13914E+07        -0.31466E+08         0.00000E+00
    0.00000E+00         0.00000E+00        -0.99660E+07
 
   -0.16955E+08        -0.85780E+06         0.00000E+00
   -0.85780E+06        -0.31620E+08         0.00000E+00
    0.00000E+00         0.00000E+00        -0.97149E+07
 
   -0.15606E+08        -0.17745E+06         0.00000E+00
   -0.17745E+06        -0.31794E+08         0.00000E+00
    0.00000E+00         0.00000E+00        -0.94800E+07
 
   -0.14309E+08         0.64751E+06         0.00000E+00
    0.64751E+06        -0.32002E+08         0.00000E+00
    0.00000E+00         0.00000E+00        -0.92623E+07
 
   -0.13061E+08         0.16215E+07         0.00000E+00
    0.16215E+07        -0.32252E+08         0.00000E+00
    0.00000E+00         0.00000E+00        -0.90628E+07
 
   -0.11867E+08         0.27535E+07         0.00000E+00
    0.27535E+07        -0.32547E+08         0.00000E+00
    0.00000E+00         0.00000E+00        -0.88828E+07
 
   -0.10742E+08         0.40549E+07         0.00000E+00
    0.40549E+07        -0.32880E+08         0.00000E+00
    0.00000E+00         0.00000E+00        -0.87243E+07
 
   -0.97164E+07         0.55343E+07         0.00000E+00
    0.55343E+07        -0.33233E+08         0.00000E+00
    0.00000E+00         0.00000E+00        -0.85899E+07
 
   -0.88351E+07         0.71931E+07         0.00000E+00
    0.71931E+07        -0.33580E+08         0.00000E+00
    0.00000E+00         0.00000E+00        -0.84830E+07
 
   -0.31143E+08        -0.54630E+06         0.00000E+00
   -0.54630E+06        -0.33090E+08         0.00000E+00
    0.00000E+00         0.00000E+00        -0.12847E+08
 
   -0.29336E+08        -0.13776E+07         0.00000E+00
   -0.13776E+07        -0.33185E+08         0.00000E+00
    0.00000E+00         0.00000E+00        -0.12504E+08
 
   -0.27446E+08        -0.18801E+07         0.00000E+00
   -0.18801E+07        -0.33318E+08         0.00000E+00
    0.00000E+00         0.00000E+00        -0.12153E+08
 
   -0.25565E+08        -0.20963E+07         0.00000E+00
   -0.20963E+07        -0.33451E+08         0.00000E+00
    0.00000E+00         0.00000E+00        -0.11803E+08
 
   -0.23749E+08        -0.20748E+07         0.00000E+00
   -0.20748E+07        -0.33565E+08         0.00000E+00
    0.00000E+00         0.00000E+00        -0.11463E+08
 
   -0.22023E+08        -0.18598E+07         0.00000E+00
   -0.18598E+07        -0.33662E+08         0.00000E+00
    0.00000E+00         0.00000E+00        -0.11137E+08
 
   -0.20389E+08        -0.14842E+07         0.00000E+00
   -0.14842E+07        -0.33755E+08         0.00000E+00
    0.00000E+00         0.00000E+00        -0.10829E+08
 
   -0.18835E+08        -0.96922E+06         0.00000E+00
   -0.96922E+06        -0.33862E+08         0.00000E+00
    0.00000E+00         0.00000E+00        -0.10539E+08
 
   -0.17347E+08        -0.32419E+06         0.00000E+00
   -0.32419E+06        -0.34000E+08         0.00000E+00
    0.00000E+00         0.00000E+00        -0.10269E+08
 
   -0.15908E+08         0.45157E+06         0.00000E+00
    0.45157E+06        -0.34187E+08         0.00000E+00
    0.00000E+00         0.00000E+00        -0.10019E+08
 
   -0.14508E+08         0.13678E+07         0.00000E+00
    0.13678E+07        -0.34435E+08         0.00000E+00
    0.00000E+00         0.00000E+00        -0.97886E+07
 
   -0.13146E+08         0.24419E+07         0.00000E+00
    0.24419E+07        -0.34749E+08         0.00000E+00
    0.00000E+00         0.00000E+00        -0.95792E+07
 
   -0.11837E+08         0.36960E+07         0.00000E+00
    0.36960E+07        -0.35125E+08         0.00000E+00
    0.00000E+00         0.00000E+00        -0.93925E+07
 
   -0.10616E+08         0.51523E+07         0.00000E+00
    0.51523E+07        -0.35542E+08         0.00000E+00
    0.00000E+00         0.00000E+00        -0.92317E+07
 
   -0.95383E+07         0.68246E+07         0.00000E+00
    0.68246E+07        -0.35967E+08         0.00000E+00
    0.00000E+00         0.00000E+00        -0.91010E+07
 
   -0.34716E+08        -0.60007E+06         0.00000E+00
   -0.60007E+06        -0.35614E+08         0.00000E+00
    0.00000E+00         0.00000E+00        -0.14066E+08
 
   -0.32532E+08        -0.14823E+07         0.00000E+00
   -0.14823E+07        -0.35698E+08         0.00000E+00
    0.00000E+00         0.00000E+00        -0.13646E+08
 
   -0.30311E+08        -0.19809E+07         0.00000E+00
   -0.19809E+07        -0.35799E+08         0.00000E+00
    0.00000E+00         0.00000E+00        -0.13222E+08
 
   -0.28159E+08        -0.21675E+07         0.00000E+00
   -0.21675E+07        -0.35875E+08         0.00000E+00
    0.00000E+00         0.00000E+00        -0.12807E+08
 
   -0.26130E+08        -0.21160E+07         0.00000E+00
   -0.21160E+07        -0.35914E+08         0.00000E+00
    0.00000E+00         0.00000E+00        -0.12409E+08
 
   -0.24235E+08        -0.18855E+07         0.00000E+00
   -0.18855E+07        -0.35930E+08         0.00000E+00
    0.00000E+00         0.00000E+00        -0.12033E+08
 
   -0.22460E+08        -0.15159E+07         0.00000E+00
   -0.15159E+07        -0.35943E+08         0.00000E+00
    0.00000E+00         0.00000E+00        -0.11681E+08
 
   -0.20782E+08        -0.10297E+07         0.00000E+00
   -0.10297E+07        -0.35980E+08         0.00000E+00
    0.00000E+00         0.00000E+00        -0.11352E+08
 
   -0.19172E+08        -0.43471E+06         0.00000E+00
   -0.43471E+06        -0.36063E+08         0.00000E+00
    0.00000E+00         0.00000E+00        -0.11047E+08
 
   -0.17603E+08         0.27298E+06         0.00000E+00
    0.27298E+06        -0.36213E+08         0.00000E+00
    0.00000E+00         0.00000E+00        -0.10763E+08
 
   -0.16057E+08         0.11086E+07         0.00000E+00
    0.11086E+07        -0.36447E+08         0.00000E+00
    0.00000E+00         0.00000E+00        -0.10501E+08
 
   -0.14523E+08         0.20983E+07         0.00000E+00
    0.20983E+07        -0.36775E+08         0.00000E+00
    0.00000E+00         0.00000E+00        -0.10260E+08
 
   -0.13011E+08         0.32783E+07         0.00000E+00
    0.32783E+07        -0.37195E+08         0.00000E+00
    0.00000E+00         0.00000E+00        -0.10041E+08
 
   -0.11559E+08         0.46889E+07         0.00000E+00
    0.46889E+07        -0.37688E+08         0.00000E+00
    0.00000E+00         0.00000E+00        -0.98494E+07
 
   -0.10236E+08         0.63632E+07         0.00000E+00
    0.63632E+07        -0.38210E+08         0.00000E+00
    0.00000E+00         0.00000E+00        -0.96893E+07
 
   -0.38408E+08        -0.65123E+06         0.00000E+00
   -0.65123E+06        -0.38171E+08         0.00000E+00
    0.00000E+00         0.00000E+00        -0.15316E+08
 
   -0.35769E+08        -0.15613E+07         0.00000E+00
   -0.15613E+07        -0.38235E+08         0.00000E+00
    0.00000E+00         0.00000E+00        -0.14801E+08
 
   -0.33175E+08        -0.20234E+07         0.00000E+00
   -0.20234E+07        -0.38278E+08         0.00000E+00
    0.00000E+00         0.00000E+00        -0.14291E+08
 
   -0.30746E+08        -0.21551E+07         0.00000E+00
   -0.21551E+07        -0.38259E+08         0.00000E+00
    0.00000E+00         0.00000E+00        -0.13801E+08
 
   -0.28518E+08        -0.20620E+07         0.00000E+00
   -0.20620E+07        -0.38186E+08         0.00000E+00
    0.00000E+00         0.00000E+00        -0.13341E+08
 
   -0.26477E+08        -0.18173E+07         0.00000E+00
   -0.18173E+07        -0.38087E+08         0.00000E+00
    0.00000E+00         0.00000E+00        -0.12913E+08
 
   -0.24587E+08        -0.14632E+07         0.00000E+00
   -0.14632E+07        -0.37996E+08         0.00000E+00
    0.00000E+00         0.00000E+00        -0.12517E+08
 
   -0.22807E+08        -0.10202E+07         0.00000E+00
   -0.10202E+07        -0.37942E+08         0.00000E+00
    0.00000E+00         0.00000E+00        -0.12150E+08
 
   -0.21096E+08        -0.49313E+06         0.00000E+00
   -0.49313E+06        -0.37953E+08         0.00000E+00
    0.00000E+00         0.00000E+00        -0.11810E+08
 
   -0.19415E+08         0.12492E+06         0.00000E+00
    0.12492E+06        -0.38052E+08         0.00000E+00
    0.00000E+00         0.00000E+00        -0.11493E+08
 
   -0.17733E+08         0.85332E+06         0.00000E+00
    0.85332E+06        -0.38259E+08         0.00000E+00
    0.00000E+00         0.00000E+00        -0.11199E+08
 
   -0.16027E+08         0.17261E+07         0.00000E+00
    0.17261E+07        -0.38593E+08         0.00000E+00
    0.00000E+00         0.00000E+00        -0.10924E+08
 
   -0.14294E+08         0.27948E+07         0.00000E+00
    0.27948E+07        -0.39058E+08         0.00000E+00
    0.00000E+00         0.00000E+00        -0.10670E+08
 
   -0.12568E+08         0.41249E+07         0.00000E+00
    0.41249E+07        -0.39641E+08         0.00000E+00
    0.00000E+00         0.00000E+00        -0.10442E+08
 
   -0.10934E+08         0.57806E+07         0.00000E+00
    0.57806E+07        -0.40288E+08         0.00000E+00
    0.00000E+00         0.00000E+00        -0.10245E+08
 
   -0.42197E+08        -0.69583E+06         0.00000E+00
   -0.69583E+06        -0.40760E+08         0.00000E+00
    0.00000E+00         0.00000E+00        -0.16591E+08
 
   -0.39003E+08        -0.15901E+07         0.00000E+00
   -0.15901E+07        -0.40783E+08         0.00000E+00
    0.00000E+00         0.00000E+00        -0.15957E+08
 
   -0.36001E+08        -0.19656E+07         0.00000E+00
   -0.19656E+07        -0.40722E+08         0.00000E+00
    0.00000E+00         0.00000E+00        -0.15345E+08
 
   -0.33306E+08        -0.20144E+07         0.00000E+00
   -0.20144E+07        -0.40557E+08         0.00000E+00
    0.00000E+00         0.00000E+00        -0.14773E+08
 
   -0.30911E+08        -0.18765E+07         0.00000E+00
   -0.18765E+07        -0.40327E+08         0.00000E+00
    0.00000E+00         0.00000E+00        -0.14248E+08
 
   -0.28758E+08        -0.16288E+07         0.00000E+00
   -0.16288E+07        -0.40084E+08         0.00000E+00
    0.00000E+00         0.00000E+00        -0.13768E+08
 
   -0.26783E+08        -0.13074E+07         0.00000E+00
   -0.13074E+07        -0.39868E+08         0.00000E+00
    0.00000E+00         0.00000E+00        -0.13330E+08
 
   -0.24927E+08        -0.92652E+06         0.00000E+00
   -0.92652E+06        -0.39712E+08         0.00000E+00
    0.00000E+00         0.00000E+00        -0.12928E+08
 
   -0.23138E+08        -0.48735E+06         0.00000E+00
   -0.48735E+06        -0.39641E+08         0.00000E+00
    0.00000E+00         0.00000E+00        -0.12556E+08
 
   -0.21366E+08         0.19131E+05         0.00000E+00
    0.19131E+05        -0.39679E+08         0.00000E+00
    0.00000E+00         0.00000E+00        -0.12209E+08
 
   -0.19566E+08         0.61334E+06         0.00000E+00
    0.61334E+06        -0.39849E+08         0.00000E+00
    0.00000E+00         0.00000E+00        -0.11883E+08
 
   -0.17696E+08         0.13323E+07         0.00000E+00
    0.13323E+07        -0.40175E+08         0.00000E+00
    0.00000E+00         0.00000E+00        -0.11574E+08
 
   -0.15728E+08         0.22405E+07         0.00000E+00
    0.22405E+07        -0.40681E+08         0.00000E+00
    0.00000E+00         0.00000E+00        -0.11282E+08
 
   -0.13679E+08         0.34365E+07         0.00000E+00
    0.34365E+07        -0.41365E+08         0.00000E+00
    0.00000E+00         0.00000E+00        -0.11009E+08
 
   -0.11645E+08         0.50368E+07         0.00000E+00
    0.50368E+07        -0.42176E+08         0.00000E+00
    0.00000E+00         0.00000E+00        -0.10764E+08
 
   -0.46040E+08        -0.72513E+06         0.00000E+00
   -0.72513E+06        -0.43370E+08         0.00000E+00
    0.00000E+00         0.00000E+00        -0.17882E+08
 
   -0.42162E+08        -0.15187E+07         0.00000E+00
   -0.15187E+07        -0.43309E+08         0.00000E+00
    0.00000E+00         0.00000E+00        -0.17094E+08
 
   -0.38742E+08        -0.17393E+07         0.00000E+00
   -0.17393E+07        -0.43062E+08         0.00000E+00
    0.00000E+00         0.00000E+00        -0.16361E+08
 
   -0.35829E+08        -0.16920E+07         0.00000E+00
   -0.16920E+07        -0.42679E+08         0.00000E+00
    0.00000E+00         0.00000E+00        -0.15702E+08
 
   -0.33318E+08        -0.15280E+07         0.00000E+00
   -0.15280E+07        -0.42256E+08         0.00000E+00
    0.00000E+00         0.00000E+00        -0.15115E+08
 
   -0.31093E+08        -0.13037E+07         0.00000E+00
   -0.13037E+07        -0.41853E+08         0.00000E+00
    0.00000E+00         0.00000E+00        -0.14589E+08
 
   -0.29065E+08        -0.10405E+07         0.00000E+00
   -0.10405E+07        -0.41510E+08         0.00000E+00
    0.00000E+00         0.00000E+00        -0.14115E+08
 
   -0.27159E+08        -0.74420E+06         0.00000E+00
   -0.74420E+06        -0.41252E+08         0.00000E+00
    0.00000E+00         0.00000E+00        -0.13682E+08
 
   -0.25315E+08        -0.41277E+06         0.00000E+00
   -0.41277E+06        -0.41099E+08         0.00000E+00
    0.00000E+00         0.00000E+00        -0.13283E+08
 
   -0.23475E+08        -0.37181E+05         0.00000E+00
   -0.37181E+05        -0.41074E+08         0.00000E+00
    0.00000E+00         0.00000E+00        -0.12910E+08
 
   -0.21581E+08         0.40015E+06         0.00000E+00
    0.40015E+06        -0.41199E+08         0.00000E+00
    0.00000E+00         0.00000E+00        -0.12556E+08
 
   -0.19571E+08         0.93164E+06         0.00000E+00
    0.93164E+06        -0.41505E+08         0.00000E+00
    0.00000E+00         0.00000E+00        -0.12215E+08
 
   -0.17375E+08         0.16200E+07         0.00000E+00
    0.16200E+07        -0.42031E+08         0.00000E+00
    0.00000E+00         0.00000E+00        -0.11881E+08
 
   -0.14956E+08         0.25978E+07         0.00000E+00
    0.25978E+07        -0.42822E+08         0.00000E+00
    0.00000E+00         0.00000E+00        -0.11556E+08
 
   -0.12394E+08         0.40730E+07         0.00000E+00
    0.40730E+07        -0.43843E+08         0.00000E+00
    0.00000E+00         0.00000E+00        -0.11248E+08
 
   -0.49841E+08        -0.70869E+06         0.00000E+00
   -0.70869E+06        -0.45980E+08         0.00000E+00
    0.00000E+00         0.00000E+00        -0.19164E+08
 
   -0.45133E+08        -0.12281E+07         0.00000E+00
   -0.12281E+07        -0.45699E+08         0.00000E+00
    0.00000E+00         0.00000E+00        -0.18166E+08
 
   -0.41374E+08        -0.12486E+07         0.00000E+00
   -0.12486E+07        -0.45125E+08         0.00000E+00
    0.00000E+00         0.00000E+00        -0.17300E+08
 
   -0.38341E+08        -0.11490E+07         0.00000E+00
   -0.11490E+07        -0.44480E+08         0.00000E+00
    0.00000E+00         0.00000E+00        -0.16564E+08
 
   -0.35772E+08        -0.10081E+07         0.00000E+00
   -0.10081E+07        -0.43864E+08         0.00000E+00
    0.00000E+00         0.00000E+00        -0.15927E+08
 
   -0.33511E+08        -0.84700E+06         0.00000E+00
   -0.84700E+06        -0.43318E+08         0.00000E+00
    0.00000E+00         0.00000E+00        -0.15366E+08
 
   -0.31453E+08        -0.67183E+06         0.00000E+00
   -0.67183E+06        -0.42866E+08         0.00000E+00
    0.00000E+00         0.00000E+00        -0.14864E+08
 
   -0.29518E+08        -0.48262E+06         0.00000E+00
   -0.48262E+06        -0.42523E+08         0.00000E+00
    0.00000E+00         0.00000E+00        -0.14408E+08
 
   -0.27639E+08        -0.27602E+06         0.00000E+00
   -0.27602E+06        -0.42305E+08         0.00000E+00
    0.00000E+00         0.00000E+00        -0.13989E+08
 
   -0.25754E+08        -0.45433E+05         0.00000E+00
   -0.45433E+05        -0.42226E+08         0.00000E+00
    0.00000E+00         0.00000E+00        -0.13596E+08
 
   -0.23796E+08         0.22068E+06         0.00000E+00
    0.22068E+06        -0.42309E+08         0.00000E+00
    0.00000E+00         0.00000E+00        -0.13221E+08
 
   -0.21684E+08         0.54344E+06         0.00000E+00
    0.54344E+06        -0.42584E+08         0.00000E+00
    0.00000E+00         0.00000E+00        -0.12854E+08
 
   -0.19312E+08         0.96588E+06         0.00000E+00
    0.96588E+06        -0.43102E+08         0.00000E+00
    0.00000E+00         0.00000E+00        -0.12483E+08
 
   -0.16512E+08         0.15962E+07         0.00000E+00
    0.15962E+07        -0.43950E+08         0.00000E+00
    0.00000E+00         0.00000E+00        -0.12092E+08
 
   -0.13243E+08         0.27908E+07         0.00000E+00
    0.27908E+07        -0.45252E+08         0.00000E+00
    0.00000E+00         0.00000E+00        -0.11699E+08
 
   -0.53343E+08        -0.44725E+06         0.00000E+00
   -0.44725E+06        -0.48343E+08         0.00000E+00
    0.00000E+00         0.00000E+00        -0.20337E+08
 
   -0.47835E+08        -0.50861E+06         0.00000E+00
   -0.50861E+06        -0.47528E+08         0.00000E+00
    0.00000E+00         0.00000E+00        -0.19073E+08
 
   -0.43973E+08        -0.46211E+06         0.00000E+00
   -0.46211E+06        -0.46622E+08         0.00000E+00
    0.00000E+00         0.00000E+00        -0.18119E+08
 
   -0.40901E+08        -0.40976E+06         0.00000E+00
   -0.40976E+06        -0.45781E+08         0.00000E+00
    0.00000E+00         0.00000E+00        -0.17336E+08
 
   -0.38312E+08        -0.35297E+06         0.00000E+00
   -0.35297E+06        -0.45038E+08         0.00000E+00
    0.00000E+00         0.00000E+00        -0.16670E+08
 
   -0.36037E+08        -0.29377E+06         0.00000E+00
   -0.29377E+06        -0.44405E+08         0.00000E+00
    0.00000E+00         0.00000E+00        -0.16088E+08
 
   -0.33965E+08        -0.23202E+06         0.00000E+00
   -0.23202E+06        -0.43889E+08         0.00000E+00
    0.00000E+00         0.00000E+00        -0.15571E+08
 
   -0.32015E+08        -0.16682E+06         0.00000E+00
   -0.16682E+06        -0.43498E+08         0.00000E+00
    0.00000E+00         0.00000E+00        -0.15103E+08
 
   -0.30117E+08        -0.96612E+05         0.00000E+00
   -0.96612E+05        -0.43241E+08         0.00000E+00
    0.00000E+00         0.00000E+00        -0.14672E+08
 
   -0.28208E+08        -0.18966E+05         0.00000E+00
   -0.18966E+05        -0.43131E+08         0.00000E+00
    0.00000E+00         0.00000E+00        -0.14268E+08
 
   -0.26215E+08         0.70085E+05         0.00000E+00
    0.70085E+05        -0.43186E+08         0.00000E+00
    0.00000E+00         0.00000E+00        -0.13880E+08
 
   -0.24051E+08         0.17758E+06         0.00000E+00
    0.17758E+06        -0.43437E+08         0.00000E+00
    0.00000E+00         0.00000E+00        -0.13498E+08
 
   -0.21582E+08         0.31864E+06         0.00000E+00
    0.31864E+06        -0.43936E+08         0.00000E+00
    0.00000E+00         0.00000E+00        -0.13103E+08
 
   -0.18572E+08         0.52750E+06         0.00000E+00
    0.52750E+06        -0.44783E+08         0.00000E+00
    0.00000E+00         0.00000E+00        -0.12671E+08
 
   -0.14349E+08         0.10272E+07         0.00000E+00
    0.10272E+07        -0.46263E+08         0.00000E+00
    0.00000E+00         0.00000E+00        -0.12122E+08
 
TENSORS stresstot double 
   -0.43616E+08         0.18264E+06         0.00000E+00
    0.18264E+06        -0.58856E+08         0.00000E+00
    0.00000E+00         0.00000E+00        -0.61246E+08
 
   -0.44053E+08        -0.91106E+05         0.00000E+00
   -0.91106E+05        -0.59062E+08         0.00000E+00
    0.00000E+00         0.00000E+00        -0.64230E+08
 
   -0.45862E+08        -0.45627E+06         0.00000E+00
   -0.45627E+06        -0.59809E+08         0.00000E+00
    0.00000E+00         0.00000E+00        -0.68030E+08
 
   -0.48174E+08        -0.51478E+06         0.00000E+00
   -0.51478E+06        -0.60973E+08         0.00000E+00
    0.00000E+00         0.00000E+00        -0.71933E+08
 
   -0.50700E+08        -0.71115E+06         0.00000E+00
   -0.71115E+06        -0.62230E+08         0.00000E+00
    0.00000E+00         0.00000E+00        -0.75174E+08
 
   -0.54160E+08        -0.70325E+06         0.00000E+00
   -0.70325E+06        -0.63549E+08         0.00000E+00
    0.00000E+00         0.00000E+00        -0.76542E+08
 
   -0.56849E+08        -0.52408E+06         0.00000E+00
   -0.52408E+06        -0.64687E+08         0.00000E+00
    0.00000E+00         0.00000E+00        -0.77309E+08
 
   -0.59113E+08        -0.38095E+06         0.00000E+00
   -0.38095E+06        -0.65553E+08         0.00000E+00
    0.00000E+00         0.00000E+00        -0.77936E+08
 
   -0.61210E+08        -0.25625E+06         0.00000E+00
   -0.25625E+06        -0.66170E+08         0.00000E+00
    0.00000E+00         0.00000E+00        -0.78480E+08
 
   -0.63279E+08        -0.13679E+06         0.00000E+00
   -0.13679E+06        -0.66551E+08         0.00000E+00
    0.00000E+00         0.00000E+00        -0.78971E+08
 
   -0.65429E+08        -0.11814E+05         0.00000E+00
   -0.11814E+05        -0.66692E+08         0.00000E+00
    0.00000E+00         0.00000E+00        -0.79430E+08
 
   -0.67784E+08         0.13070E+06         0.00000E+00
    0.13070E+06        -0.66568E+08         0.00000E+00
    0.00000E+00         0.00000E+00        -0.79877E+08
 
   -0.70514E+08         0.31178E+06         0.00000E+00
    0.31178E+06        -0.66122E+08         0.00000E+00
    0.00000E+00         0.00000E+00        -0.80335E+08
 
   -0.73919E+08         0.57606E+06         0.00000E+00
    0.57606E+06        -0.65233E+08         0.00000E+00
    0.00000E+00         0.00000E+00        -0.80838E+08
 
   -0.78853E+08         0.12078E+07         0.00000E+00
    0.12078E+07        -0.63545E+08         0.00000E+00
    0.00000E+00         0.00000E+00        -0.81487E+08
 
   -0.43462E+08         0.26260E+06         0.00000E+00
    0.26260E+06        -0.60815E+08         0.00000E+00
    0.00000E+00         0.00000E+00        -0.66024E+08
 
   -0.44632E+08        -0.21148E+06         0.00000E+00
   -0.21148E+06        -0.60944E+08         0.00000E+00
    0.00000E+00         0.00000E+00        -0.68459E+08
 
   -0.46231E+08        -0.91867E+06         0.00000E+00
   -0.91867E+06        -0.60994E+08         0.00000E+00
    0.00000E+00         0.00000E+00        -0.71114E+08
 
   -0.48301E+08        -0.13752E+07         0.00000E+00
   -0.13752E+07        -0.61174E+08         0.00000E+00
    0.00000E+00         0.00000E+00        -0.72883E+08
 
   -0.51100E+08        -0.16851E+07         0.00000E+00
   -0.16851E+07        -0.61697E+08         0.00000E+00
    0.00000E+00         0.00000E+00        -0.73566E+08
 
   -0.53939E+08        -0.17058E+07         0.00000E+00
   -0.17058E+07        -0.62351E+08         0.00000E+00
    0.00000E+00         0.00000E+00        -0.74267E+08
 
   -0.56591E+08        -0.13939E+07         0.00000E+00
   -0.13939E+07        -0.63058E+08         0.00000E+00
    0.00000E+00         0.00000E+00        -0.74943E+08
 
   -0.58874E+08        -0.10485E+07         0.00000E+00
   -0.10485E+07        -0.63691E+08         0.00000E+00
    0.00000E+00         0.00000E+00        -0.75529E+08
 
   -0.60981E+08        -0.71240E+06         0.00000E+00
   -0.71240E+06        -0.64171E+08         0.00000E+00
    0.00000E+00         0.00000E+00        -0.76050E+08
 
   -0.63043E+08        -0.37276E+06         0.00000E+00
   -0.37276E+06        -0.64463E+08         0.00000E+00
    0.00000E+00         0.00000E+00        -0.76524E+08
 
   -0.65169E+08        -0.76434E+04         0.00000E+00
   -0.76434E+04        -0.64542E+08         0.00000E+00
    0.00000E+00         0.00000E+00        -0.76968E+08
 
   -0.67470E+08         0.41526E+06         0.00000E+00
    0.41526E+06        -0.64371E+08         0.00000E+00
    0.00000E+00         0.00000E+00        -0.77396E+08
 
   -0.70087E+08         0.95432E+06         0.00000E+00
    0.95432E+06        -0.63891E+08         0.00000E+00
    0.00000E+00         0.00000E+00        -0.77825E+08
 
   -0.73234E+08         0.17496E+07         0.00000E+00
    0.17496E+07        -0.62994E+08         0.00000E+00
    0.00000E+00         0.00000E+00        -0.78276E+08
 
   -0.76960E+08         0.32556E+07         0.00000E+00
    0.32556E+07        -0.61528E+08         0.00000E+00
    0.00000E+00         0.00000E+00        -0.78728E+08
 
   -0.43449E+08        -0.18285E+06         0.00000E+00
   -0.18285E+06        -0.60483E+08         0.00000E+00
    0.00000E+00         0.00000E+00        -0.68782E+08
 
   -0.45194E+08        -0.52455E+06         0.00000E+00
   -0.52455E+06        -0.60686E+08         0.00000E+00
    0.00000E+00         0.00000E+00        -0.70198E+08
 
   -0.46920E+08        -0.11069E+07         0.00000E+00
   -0.11069E+07        -0.60864E+08         0.00000E+00
    0.00000E+00         0.00000E+00        -0.70581E+08
 
   -0.48858E+08        -0.17691E+07         0.00000E+00
   -0.17691E+07        -0.61092E+08         0.00000E+00
    0.00000E+00         0.00000E+00        -0.71018E+08
 
   -0.51272E+08        -0.21213E+07         0.00000E+00
   -0.21213E+07        -0.61380E+08         0.00000E+00
    0.00000E+00         0.00000E+00        -0.71564E+08
 
   -0.53800E+08        -0.21540E+07         0.00000E+00
   -0.21540E+07        -0.61670E+08         0.00000E+00
    0.00000E+00         0.00000E+00        -0.72133E+08
 
   -0.56236E+08        -0.19033E+07         0.00000E+00
   -0.19033E+07        -0.61989E+08         0.00000E+00
    0.00000E+00         0.00000E+00        -0.72689E+08
 
   -0.58478E+08        -0.14947E+07         0.00000E+00
   -0.14947E+07        -0.62330E+08         0.00000E+00
    0.00000E+00         0.00000E+00        -0.73212E+08
 
   -0.60565E+08        -0.10246E+07         0.00000E+00
   -0.10246E+07        -0.62608E+08         0.00000E+00
    0.00000E+00         0.00000E+00        -0.73690E+08
 
   -0.62596E+08        -0.50931E+06         0.00000E+00
   -0.50931E+06        -0.62760E+08         0.00000E+00
    0.00000E+00         0.00000E+00        -0.74132E+08
 
   -0.64662E+08         0.68594E+05         0.00000E+00
    0.68594E+05        -0.62739E+08         0.00000E+00
    0.00000E+00         0.00000E+00        -0.74545E+08
 
   -0.66853E+08         0.75129E+06         0.00000E+00
    0.75129E+06        -0.62501E+08         0.00000E+00
    0.00000E+00         0.00000E+00        -0.74939E+08
 
   -0.69260E+08         0.16206E+07         0.00000E+00
    0.16206E+07        -0.61992E+08         0.00000E+00
    0.00000E+00         0.00000E+00        -0.75322E+08
 
   -0.71934E+08         0.28468E+07         0.00000E+00
    0.28468E+07        -0.61156E+08         0.00000E+00
    0.00000E+00         0.00000E+00        -0.75691E+08
 
   -0.74770E+08         0.46957E+07         0.00000E+00
    0.46957E+07        -0.60040E+08         0.00000E+00
    0.00000E+00         0.00000E+00        -0.76036E+08
 
   -0.43878E+08        -0.34158E+06         0.00000E+00
   -0.34158E+06        -0.60046E+08         0.00000E+00
    0.00000E+00         0.00000E+00        -0.67856E+08
 
   -0.45754E+08        -0.92266E+06         0.00000E+00
   -0.92266E+06        -0.60229E+08         0.00000E+00
    0.00000E+00         0.00000E+00        -0.68270E+08
 
   -0.47512E+08        -0.14390E+07         0.00000E+00
   -0.14390E+07        -0.60577E+08         0.00000E+00
    0.00000E+00         0.00000E+00        -0.68696E+08
 
   -0.49362E+08        -0.19665E+07         0.00000E+00
   -0.19665E+07        -0.60825E+08         0.00000E+00
    0.00000E+00         0.00000E+00        -0.69122E+08
 
   -0.51461E+08        -0.23023E+07         0.00000E+00
   -0.23023E+07        -0.60959E+08         0.00000E+00
    0.00000E+00         0.00000E+00        -0.69576E+08
 
   -0.53693E+08        -0.23441E+07         0.00000E+00
   -0.23441E+07        -0.61069E+08         0.00000E+00
    0.00000E+00         0.00000E+00        -0.70051E+08
 
   -0.55901E+08        -0.21237E+07         0.00000E+00
   -0.21237E+07        -0.61185E+08         0.00000E+00
    0.00000E+00         0.00000E+00        -0.70524E+08
 
   -0.58011E+08        -0.17090E+07         0.00000E+00
   -0.17090E+07        -0.61306E+08         0.00000E+00
    0.00000E+00         0.00000E+00        -0.70978E+08
 
   -0.60020E+08        -0.11649E+07         0.00000E+00
   -0.11649E+07        -0.61397E+08         0.00000E+00
    0.00000E+00         0.00000E+00        -0.71405E+08
 
   -0.61976E+08        -0.52103E+06         0.00000E+00
   -0.52103E+06        -0.61404E+08         0.00000E+00
    0.00000E+00         0.00000E+00        -0.71804E+08
 
   -0.63940E+08         0.23126E+06         0.00000E+00
    0.23126E+06        -0.61280E+08         0.00000E+00
    0.00000E+00         0.00000E+00        -0.72178E+08
 
   -0.65969E+08         0.11328E+07         0.00000E+00
    0.11328E+07        -0.60983E+08         0.00000E+00
    0.00000E+00         0.00000E+00        -0.72530E+08
 
   -0.68102E+08         0.22637E+07         0.00000E+00
    0.22637E+07        -0.60478E+08         0.00000E+00
    0.00000E+00         0.00000E+00        -0.72860E+08
 
   -0.70319E+08         0.37493E+07         0.00000E+00
    0.37493E+07        -0.59765E+08         0.00000E+00
    0.00000E+00         0.00000E+00        -0.73163E+08
 
   -0.72496E+08         0.57372E+07         0.00000E+00
    0.57372E+07        -0.58908E+08         0.00000E+00
    0.00000E+00         0.00000E+00        -0.73429E+08
 
   -0.44608E+08        -0.43423E+06         0.00000E+00
   -0.43423E+06        -0.60032E+08         0.00000E+00
    0.00000E+00         0.00000E+00        -0.66092E+08
 
   -0.46337E+08        -0.11383E+07         0.00000E+00
   -0.11383E+07        -0.60151E+08         0.00000E+00
    0.00000E+00         0.00000E+00        -0.66465E+08
 
   -0.48018E+08        -0.16887E+07         0.00000E+00
   -0.16887E+07        -0.60313E+08         0.00000E+00
    0.00000E+00         0.00000E+00        -0.66840E+08
 
   -0.49763E+08        -0.21139E+07         0.00000E+00
   -0.21139E+07        -0.60457E+08         0.00000E+00
    0.00000E+00         0.00000E+00        -0.67225E+08
 
   -0.51630E+08        -0.23691E+07         0.00000E+00
   -0.23691E+07        -0.60526E+08         0.00000E+00
    0.00000E+00         0.00000E+00        -0.67622E+08
 
   -0.53594E+08        -0.23904E+07         0.00000E+00
   -0.23904E+07        -0.60539E+08         0.00000E+00
    0.00000E+00         0.00000E+00        -0.68026E+08
 
   -0.55575E+08        -0.21712E+07         0.00000E+00
   -0.21712E+07        -0.60531E+08         0.00000E+00
    0.00000E+00         0.00000E+00        -0.68430E+08
 
   -0.57512E+08        -0.17462E+07         0.00000E+00
   -0.17462E+07        -0.60511E+08         0.00000E+00
    0.00000E+00         0.00000E+00        -0.68823E+08
 
   -0.59389E+08        -0.11544E+07         0.00000E+00
   -0.11544E+07        -0.60462E+08         0.00000E+00
    0.00000E+00         0.00000E+00        -0.69197E+08
 
   -0.61223E+08        -0.41780E+06         0.00000E+00
   -0.41780E+06        -0.60353E+08         0.00000E+00
    0.00000E+00         0.00000E+00        -0.69550E+08
 
   -0.63043E+08         0.46773E+06         0.00000E+00
    0.46773E+06        -0.60147E+08         0.00000E+00
    0.00000E+00         0.00000E+00        -0.69880E+08
 
   -0.64877E+08         0.15347E+07         0.00000E+00
    0.15347E+07        -0.59814E+08         0.00000E+00
    0.00000E+00         0.00000E+00        -0.70187E+08
 
   -0.66725E+08         0.28432E+07         0.00000E+00
    0.28432E+07        -0.59340E+08         0.00000E+00
    0.00000E+00         0.00000E+00        -0.70467E+08
 
   -0.68545E+08         0.44740E+07         0.00000E+00
    0.44740E+07        -0.58742E+08         0.00000E+00
    0.00000E+00         0.00000E+00        -0.70715E+08
 
   -0.70226E+08         0.65069E+07         0.00000E+00
    0.65069E+07        -0.58083E+08         0.00000E+00
    0.00000E+00         0.00000E+00        -0.70922E+08
 
   -0.45463E+08        -0.48369E+06         0.00000E+00
   -0.48369E+06        -0.60012E+08         0.00000E+00
    0.00000E+00         0.00000E+00        -0.64401E+08
 
   -0.46972E+08        -0.12443E+07         0.00000E+00
   -0.12443E+07        -0.60057E+08         0.00000E+00
    0.00000E+00         0.00000E+00        -0.64716E+08
 
   -0.48496E+08        -0.17979E+07         0.00000E+00
   -0.17979E+07        -0.60119E+08         0.00000E+00
    0.00000E+00         0.00000E+00        -0.65041E+08
 
   -0.50080E+08        -0.21764E+07         0.00000E+00
   -0.21764E+07        -0.60157E+08         0.00000E+00
    0.00000E+00         0.00000E+00        -0.65375E+08
 
   -0.51746E+08        -0.23679E+07         0.00000E+00
   -0.23679E+07        -0.60150E+08         0.00000E+00
    0.00000E+00         0.00000E+00        -0.65717E+08
 
   -0.53480E+08        -0.23489E+07         0.00000E+00
   -0.23489E+07        -0.60095E+08         0.00000E+00
    0.00000E+00         0.00000E+00        -0.66063E+08
 
   -0.55239E+08        -0.21105E+07         0.00000E+00
   -0.21105E+07        -0.60008E+08         0.00000E+00
    0.00000E+00         0.00000E+00        -0.66408E+08
 
   -0.56985E+08        -0.16652E+07         0.00000E+00
   -0.16652E+07        -0.59897E+08         0.00000E+00
    0.00000E+00         0.00000E+00        -0.66745E+08
 
   -0.58697E+08        -0.10337E+07         0.00000E+00
   -0.10337E+07        -0.59756E+08         0.00000E+00
    0.00000E+00         0.00000E+00        -0.67069E+08
 
   -0.60372E+08        -0.22883E+06         0.00000E+00
   -0.22883E+06        -0.59566E+08         0.00000E+00
    0.00000E+00         0.00000E+00        -0.67375E+08
 
   -0.62019E+08         0.75260E+06         0.00000E+00
    0.75260E+06        -0.59308E+08         0.00000E+00
    0.00000E+00         0.00000E+00        -0.67661E+08
 
   -0.63639E+08         0.19328E+07         0.00000E+00
    0.19328E+07        -0.58963E+08         0.00000E+00
    0.00000E+00         0.00000E+00        -0.67924E+08
 
   -0.65216E+08         0.33508E+07         0.00000E+00
    0.33508E+07        -0.58532E+08         0.00000E+00
    0.00000E+00         0.00000E+00        -0.68159E+08
 
   -0.66701E+08         0.50534E+07         0.00000E+00
    0.50534E+07        -0.58035E+08         0.00000E+00
    0.00000E+00         0.00000E+00        -0.68361E+08
 
   -0.68001E+08         0.70801E+07         0.00000E+00
    0.70801E+07        -0.57526E+08         0.00000E+00
    0.00000E+00         0.00000E+00        -0.68522E+08
 
   -0.46370E+08        -0.49329E+06         0.00000E+00
   -0.49329E+06        -0.59997E+08         0.00000E+00
    0.00000E+00         0.00000E+00        -0.62778E+08
 
   -0.47624E+08        -0.12680E+07         0.00000E+00
   -0.12680E+07        -0.59990E+08         0.00000E+00
    0.00000E+00         0.00000E+00        -0.63032E+08
 
   -0.48949E+08        -0.18119E+07         0.00000E+00
   -0.18119E+07        -0.59975E+08         0.00000E+00
    0.00000E+00         0.00000E+00        -0.63303E+08
 
   -0.50346E+08        -0.21561E+07         0.00000E+00
   -0.21561E+07        -0.59936E+08         0.00000E+00
    0.00000E+00         0.00000E+00        -0.63584E+08
 
   -0.51813E+08        -0.23036E+07         0.00000E+00
   -0.23036E+07        -0.59863E+08         0.00000E+00
    0.00000E+00         0.00000E+00        -0.63874E+08
 
   -0.53334E+08        -0.22464E+07         0.00000E+00
   -0.22464E+07        -0.59754E+08         0.00000E+00
    0.00000E+00         0.00000E+00        -0.64168E+08
 
   -0.54882E+08        -0.19801E+07         0.00000E+00
   -0.19801E+07        -0.59613E+08         0.00000E+00
    0.00000E+00         0.00000E+00        -0.64460E+08
 
   -0.56430E+08        -0.15090E+07         0.00000E+00
   -0.15090E+07        -0.59444E+08         0.00000E+00
    0.00000E+00         0.00000E+00        -0.64746E+08
 
   -0.57956E+08        -0.84251E+06         0.00000E+00
   -0.84251E+06        -0.59246E+08         0.00000E+00
    0.00000E+00         0.00000E+00        -0.65022E+08
 
   -0.59451E+08         0.12919E+05         0.00000E+00
    0.12919E+05        -0.59011E+08         0.00000E+00
    0.00000E+00         0.00000E+00        -0.65283E+08
 
   -0.60906E+08         0.10597E+07         0.00000E+00
    0.10597E+07        -0.58728E+08         0.00000E+00
    0.00000E+00         0.00000E+00        -0.65526E+08
 
   -0.62310E+08         0.23110E+07         0.00000E+00
    0.23110E+07        -0.58391E+08         0.00000E+00
    0.00000E+00         0.00000E+00        -0.65747E+08
 
   -0.63638E+08         0.37887E+07         0.00000E+00
    0.37887E+07        -0.58006E+08         0.00000E+00
    0.00000E+00         0.00000E+00        -0.65942E+08
 
   -0.64840E+08         0.55161E+07         0.00000E+00
    0.55161E+07        -0.57596E+08         0.00000E+00
    0.00000E+00         0.00000E+00        -0.66105E+08
 
   -0.65842E+08         0.75074E+07         0.00000E+00
    0.75074E+07        -0.57203E+08         0.00000E+00
    0.00000E+00         0.00000E+00        -0.66230E+08
 
   -0.47272E+08        -0.47698E+06         0.00000E+00
   -0.47698E+06        -0.59988E+08         0.00000E+00
    0.00000E+00         0.00000E+00        -0.61214E+08
 
   -0.48268E+08        -0.12332E+07         0.00000E+00
   -0.12332E+07        -0.59947E+08         0.00000E+00
    0.00000E+00         0.00000E+00        -0.61411E+08
 
   -0.49379E+08        -0.17576E+07         0.00000E+00
   -0.17576E+07        -0.59880E+08         0.00000E+00
    0.00000E+00         0.00000E+00        -0.61628E+08
 
   -0.50577E+08        -0.20735E+07         0.00000E+00
   -0.20735E+07        -0.59787E+08         0.00000E+00
    0.00000E+00         0.00000E+00        -0.61859E+08
 
   -0.51843E+08        -0.21878E+07         0.00000E+00
   -0.21878E+07        -0.59666E+08         0.00000E+00
    0.00000E+00         0.00000E+00        -0.62099E+08
 
   -0.53158E+08        -0.20990E+07         0.00000E+00
   -0.20990E+07        -0.59517E+08         0.00000E+00
    0.00000E+00         0.00000E+00        -0.62343E+08
 
   -0.54500E+08        -0.18054E+07         0.00000E+00
   -0.18054E+07        -0.59340E+08         0.00000E+00
    0.00000E+00         0.00000E+00        -0.62586E+08
 
   -0.55846E+08        -0.13086E+07         0.00000E+00
   -0.13086E+07        -0.59139E+08         0.00000E+00
    0.00000E+00         0.00000E+00        -0.62826E+08
 
   -0.57178E+08        -0.61271E+06         0.00000E+00
   -0.61271E+06        -0.58912E+08         0.00000E+00
    0.00000E+00         0.00000E+00        -0.63056E+08
 
   -0.58480E+08         0.27900E+06         0.00000E+00
    0.27900E+06        -0.58658E+08         0.00000E+00
    0.00000E+00         0.00000E+00        -0.63275E+08
 
   -0.59737E+08         0.13674E+07         0.00000E+00
    0.13674E+07        -0.58372E+08         0.00000E+00
    0.00000E+00         0.00000E+00        -0.63477E+08
 
   -0.60931E+08         0.26586E+07         0.00000E+00
    0.26586E+07        -0.58056E+08         0.00000E+00
    0.00000E+00         0.00000E+00        -0.63660E+08
 
   -0.62031E+08         0.41617E+07         0.00000E+00
    0.41617E+07        -0.57719E+08         0.00000E+00
    0.00000E+00         0.00000E+00        -0.63819E+08
 
   -0.62994E+08         0.58841E+07         0.00000E+00
    0.58841E+07        -0.57383E+08         0.00000E+00
    0.00000E+00         0.00000E+00        -0.63949E+08
 
   -0.63759E+08         0.78241E+07         0.00000E+00
    0.78241E+07        -0.57082E+08         0.00000E+00
    0.00000E+00         0.00000E+00        -0.64045E+08
 
   -0.48132E+08        -0.44568E+06         0.00000E+00
   -0.44568E+06        -0.59983E+08         0.00000E+00
    0.00000E+00         0.00000E+00        -0.59703E+08
 
   -0.48889E+08        -0.11620E+07         0.00000E+00
   -0.11620E+07        -0.59923E+08         0.00000E+00
    0.00000E+00         0.00000E+00        -0.59848E+08
 
   -0.49785E+08        -0.16589E+07         0.00000E+00
   -0.16589E+07        -0.59826E+08         0.00000E+00
    0.00000E+00         0.00000E+00        -0.60015E+08
 
   -0.50779E+08        -0.19490E+07         0.00000E+00
   -0.19490E+07        -0.59700E+08         0.00000E+00
    0.00000E+00         0.00000E+00        -0.60198E+08
 
   -0.51842E+08        -0.20370E+07         0.00000E+00
   -0.20370E+07        -0.59550E+08         0.00000E+00
    0.00000E+00         0.00000E+00        -0.60391E+08
 
   -0.52954E+08        -0.19228E+07         0.00000E+00
   -0.19228E+07        -0.59376E+08         0.00000E+00
    0.00000E+00         0.00000E+00        -0.60588E+08
 
   -0.54093E+08        -0.16060E+07         0.00000E+00
   -0.16060E+07        -0.59181E+08         0.00000E+00
    0.00000E+00         0.00000E+00        -0.60786E+08
 
   -0.55238E+08        -0.10872E+07         0.00000E+00
   -0.10872E+07        -0.58966E+08         0.00000E+00
    0.00000E+00         0.00000E+00        -0.60982E+08
 
   -0.56372E+08        -0.36856E+06         0.00000E+00
   -0.36856E+06        -0.58732E+08         0.00000E+00
    0.00000E+00         0.00000E+00        -0.61170E+08
 
   -0.57478E+08         0.54750E+06         0.00000E+00
    0.54750E+06        -0.58478E+08         0.00000E+00
    0.00000E+00         0.00000E+00        -0.61348E+08
 
   -0.58537E+08         0.16599E+07         0.00000E+00
    0.16599E+07        -0.58206E+08         0.00000E+00
    0.00000E+00         0.00000E+00        -0.61513E+08
 
   -0.59528E+08         0.29690E+07         0.00000E+00
    0.29690E+07        -0.57920E+08         0.00000E+00
    0.00000E+00         0.00000E+00        -0.61661E+08
 
   -0.60422E+08         0.44750E+07         0.00000E+00
    0.44750E+07        -0.57632E+08         0.00000E+00
    0.00000E+00         0.00000E+00        -0.61787E+08
 
   -0.61181E+08         0.61743E+07         0.00000E+00
    0.61743E+07        -0.57361E+08         0.00000E+00
    0.00000E+00         0.00000E+00        -0.61889E+08
 
   -0.61755E+08         0.80555E+07         0.00000E+00
    0.80555E+07        -0.57134E+08         0.00000E+00
    0.00000E+00         0.00000E+00        -0.61961E+08
 
   -0.48932E+08        -0.40743E+06         0.00000E+00
   -0.40743E+06        -0.59982E+08         0.00000E+00
    0.00000E+00         0.00000E+00        -0.58239E+08
 
   -0.49474E+08        -0.10724E+07         0.00000E+00
   -0.10724E+07        -0.59914E+08         0.00000E+00
    0.00000E+00         0.00000E+00        -0.58338E+08
 
   -0.50164E+08        -0.15368E+07         0.00000E+00
   -0.15368E+07        -0.59804E+08         0.00000E+00
    0.00000E+00         0.00000E+00        -0.58460E+08
 
   -0.50956E+08        -0.18019E+07         0.00000E+00
   -0.18019E+07        -0.59664E+08         0.00000E+00
    0.00000E+00         0.00000E+00        -0.58599E+08
 
   -0.51819E+08        -0.18680E+07         0.00000E+00
   -0.18680E+07        -0.59502E+08         0.00000E+00
    0.00000E+00         0.00000E+00        -0.58747E+08
 
   -0.52729E+08        -0.17339E+07         0.00000E+00
   -0.17339E+07        -0.59321E+08         0.00000E+00
    0.00000E+00         0.00000E+00        -0.58901E+08
 
   -0.53666E+08        -0.13988E+07         0.00000E+00
   -0.13988E+07        -0.59124E+08         0.00000E+00
    0.00000E+00         0.00000E+00        -0.59057E+08
 
   -0.54611E+08        -0.86300E+06         0.00000E+00
   -0.86300E+06        -0.58911E+08         0.00000E+00
    0.00000E+00         0.00000E+00        -0.59211E+08
 
   -0.55547E+08        -0.12840E+06         0.00000E+00
   -0.12840E+06        -0.58684E+08         0.00000E+00
    0.00000E+00         0.00000E+00        -0.59360E+08
 
   -0.56457E+08         0.80227E+06         0.00000E+00
    0.80227E+06        -0.58446E+08         0.00000E+00
    0.00000E+00         0.00000E+00        -0.59500E+08
 
   -0.57322E+08         0.19257E+07         0.00000E+00
    0.19257E+07        -0.58200E+08         0.00000E+00
    0.00000E+00         0.00000E+00        -0.59630E+08
 
   -0.58122E+08         0.32380E+07         0.00000E+00
    0.32380E+07        -0.57951E+08         0.00000E+00
    0.00000E+00         0.00000E+00        -0.59745E+08
 
   -0.58829E+08         0.47328E+07         0.00000E+00
    0.47328E+07        -0.57711E+08         0.00000E+00
    0.00000E+00         0.00000E+00        -0.59843E+08
 
   -0.59411E+08         0.63996E+07         0.00000E+00
    0.63996E+07        -0.57496E+08         0.00000E+00
    0.00000E+00         0.00000E+00        -0.59920E+08
 
   -0.59829E+08         0.82202E+07         0.00000E+00
    0.82202E+07        -0.57329E+08         0.00000E+00
    0.00000E+00         0.00000E+00        -0.59972E+08
 
   -0.49662E+08        -0.36806E+06         0.00000E+00
   -0.36806E+06        -0.59982E+08         0.00000E+00
    0.00000E+00         0.00000E+00        -0.56815E+08
 
   -0.50017E+08        -0.97828E+06         0.00000E+00
   -0.97828E+06        -0.59916E+08         0.00000E+00
    0.00000E+00         0.00000E+00        -0.56876E+08
 
   -0.50514E+08        -0.14083E+07         0.00000E+00
   -0.14083E+07        -0.59807E+08         0.00000E+00
    0.00000E+00         0.00000E+00        -0.56959E+08
 
   -0.51111E+08        -0.16497E+07         0.00000E+00
   -0.16497E+07        -0.59669E+08         0.00000E+00
    0.00000E+00         0.00000E+00        -0.57056E+08
 
   -0.51776E+08        -0.16971E+07         0.00000E+00
   -0.16971E+07        -0.59511E+08         0.00000E+00
    0.00000E+00         0.00000E+00        -0.57164E+08
 
   -0.52487E+08        -0.15473E+07         0.00000E+00
   -0.15473E+07        -0.59337E+08         0.00000E+00
    0.00000E+00         0.00000E+00        -0.57277E+08
 
   -0.53224E+08        -0.11984E+07         0.00000E+00
   -0.11984E+07        -0.59151E+08         0.00000E+00
    0.00000E+00         0.00000E+00        -0.57393E+08
 
   -0.53970E+08        -0.65074E+06         0.00000E+00
   -0.65074E+06        -0.58954E+08         0.00000E+00
    0.00000E+00         0.00000E+00        -0.57507E+08
 
   -0.54709E+08         0.93805E+05         0.00000E+00
    0.93805E+05        -0.58749E+08         0.00000E+00
    0.00000E+00         0.00000E+00        -0.57619E+08
 
   -0.55427E+08         0.10315E+07         0.00000E+00
    0.10315E+07        -0.58537E+08         0.00000E+00
    0.00000E+00         0.00000E+00        -0.57724E+08
 
   -0.56104E+08         0.21571E+07         0.00000E+00
    0.21571E+07        -0.58324E+08         0.00000E+00
    0.00000E+00         0.00000E+00        -0.57821E+08
 
   -0.56723E+08         0.34632E+07         0.00000E+00
    0.34632E+07        -0.58117E+08         0.00000E+00
    0.00000E+00         0.00000E+00        -0.57906E+08
 
   -0.57260E+08         0.49390E+07         0.00000E+00
    0.49390E+07        -0.57924E+08         0.00000E+00
    0.00000E+00         0.00000E+00        -0.57978E+08
 
   -0.57688E+08         0.65694E+07         0.00000E+00
    0.65694E+07        -0.57760E+08         0.00000E+00
    0.00000E+00         0.00000E+00        -0.58034E+08
 
   -0.57977E+08         0.83321E+07         0.00000E+00
    0.83321E+07        -0.57642E+08         0.00000E+00
    0.00000E+00         0.00000E+00        -0.58069E+08
 
   -0.50325E+08        -0.33180E+06         0.00000E+00
   -0.33180E+06        -0.59985E+08         0.00000E+00
    0.00000E+00         0.00000E+00        -0.55426E+08
 
   -0.50518E+08        -0.89022E+06         0.00000E+00
   -0.89022E+06        -0.59926E+08         0.00000E+00
    0.00000E+00         0.00000E+00        -0.55455E+08
 
   -0.50837E+08        -0.12874E+07         0.00000E+00
   -0.12874E+07        -0.59828E+08         0.00000E+00
    0.00000E+00         0.00000E+00        -0.55503E+08
 
   -0.51247E+08        -0.15069E+07         0.00000E+00
   -0.15069E+07        -0.59705E+08         0.00000E+00
    0.00000E+00         0.00000E+00        -0.55563E+08
 
   -0.51718E+08        -0.15385E+07         0.00000E+00
   -0.15385E+07        -0.59564E+08         0.00000E+00
    0.00000E+00         0.00000E+00        -0.55633E+08
 
   -0.52232E+08        -0.13764E+07         0.00000E+00
   -0.13764E+07        -0.59410E+08         0.00000E+00
    0.00000E+00         0.00000E+00        -0.55708E+08
 
   -0.52771E+08        -0.10177E+07         0.00000E+00
   -0.10177E+07        -0.59247E+08         0.00000E+00
    0.00000E+00         0.00000E+00        -0.55785E+08
 
   -0.53320E+08        -0.46226E+06         0.00000E+00
   -0.46226E+06        -0.59077E+08         0.00000E+00
    0.00000E+00         0.00000E+00        -0.55863E+08
 
   -0.53866E+08         0.28745E+06         0.00000E+00
    0.28745E+06        -0.58903E+08         0.00000E+00
    0.00000E+00         0.00000E+00        -0.55939E+08
 
   -0.54394E+08         0.12268E+07         0.00000E+00
    0.12268E+07        -0.58727E+08         0.00000E+00
    0.00000E+00         0.00000E+00        -0.56011E+08
 
   -0.54891E+08         0.23487E+07         0.00000E+00
    0.23487E+07        -0.58553E+08         0.00000E+00
    0.00000E+00         0.00000E+00        -0.56077E+08
 
   -0.55339E+08         0.36433E+07         0.00000E+00
    0.36433E+07        -0.58389E+08         0.00000E+00
    0.00000E+00         0.00000E+00        -0.56135E+08
 
   -0.55719E+08         0.50969E+07         0.00000E+00
    0.50969E+07        -0.58243E+08         0.00000E+00
    0.00000E+00         0.00000E+00        -0.56184E+08
 
   -0.56010E+08         0.66911E+07         0.00000E+00
    0.66911E+07        -0.58125E+08         0.00000E+00
    0.00000E+00         0.00000E+00        -0.56220E+08
 
   -0.56190E+08         0.84012E+07         0.00000E+00
    0.84012E+07        -0.58049E+08         0.00000E+00
    0.00000E+00         0.00000E+00        -0.56241E+08
 
   -0.50927E+08        -0.30161E+06         0.00000E+00
   -0.30161E+06        -0.59988E+08         0.00000E+00
    0.00000E+00         0.00000E+00        -0.54067E+08
 
   -0.50980E+08        -0.81594E+06         0.00000E+00
   -0.81594E+06        -0.59942E+08         0.00000E+00
    0.00000E+00         0.00000E+00        -0.54069E+08
 
   -0.51136E+08        -0.11846E+07         0.00000E+00
   -0.11846E+07        -0.59863E+08         0.00000E+00
    0.00000E+00         0.00000E+00        -0.54085E+08
 
   -0.51365E+08        -0.13853E+07         0.00000E+00
   -0.13853E+07        -0.59764E+08         0.00000E+00
    0.00000E+00         0.00000E+00        -0.54112E+08
 
   -0.51648E+08        -0.14039E+07         0.00000E+00
   -0.14039E+07        -0.59651E+08         0.00000E+00
    0.00000E+00         0.00000E+00        -0.54146E+08
 
   -0.51968E+08        -0.12324E+07         0.00000E+00
   -0.12324E+07        -0.59527E+08         0.00000E+00
    0.00000E+00         0.00000E+00        -0.54185E+08
 
   -0.52311E+08        -0.86675E+06         0.00000E+00
   -0.86675E+06        -0.59397E+08         0.00000E+00
    0.00000E+00         0.00000E+00        -0.54227E+08
 
   -0.52665E+08        -0.30685E+06         0.00000E+00
   -0.30685E+06        -0.59263E+08         0.00000E+00
    0.00000E+00         0.00000E+00        -0.54270E+08
 
   -0.53020E+08         0.44460E+06         0.00000E+00
    0.44460E+06        -0.59126E+08         0.00000E+00
    0.00000E+00         0.00000E+00        -0.54312E+08
 
   -0.53365E+08         0.13820E+07         0.00000E+00
    0.13820E+07        -0.58991E+08         0.00000E+00
    0.00000E+00         0.00000E+00        -0.54353E+08
 
   -0.53686E+08         0.24971E+07         0.00000E+00
    0.24971E+07        -0.58861E+08         0.00000E+00
    0.00000E+00         0.00000E+00        -0.54390E+08
 
   -0.53971E+08         0.37779E+07         0.00000E+00
    0.37779E+07        -0.58742E+08         0.00000E+00
    0.00000E+00         0.00000E+00        -0.54422E+08
 
   -0.54206E+08         0.52091E+07         0.00000E+00
    0.52091E+07        -0.58641E+08         0.00000E+00
    0.00000E+00         0.00000E+00        -0.54449E+08
 
   -0.54374E+08         0.67702E+07         0.00000E+00
    0.67702E+07        -0.58566E+08         0.00000E+00
    0.00000E+00         0.00000E+00        -0.54467E+08
 
   -0.54459E+08         0.84352E+07         0.00000E+00
    0.84352E+07        -0.58526E+08         0.00000E+00
    0.00000E+00         0.00000E+00        -0.54476E+08
 
   -0.51482E+08        -0.27954E+06         0.00000E+00
   -0.27954E+06        -0.59992E+08         0.00000E+00
    0.00000E+00         0.00000E+00        -0.52731E+08
 
   -0.51412E+08        -0.76090E+06         0.00000E+00
   -0.76090E+06        -0.59961E+08         0.00000E+00
    0.00000E+00         0.00000E+00        -0.52710E+08
 
   -0.51414E+08        -0.11077E+07         0.00000E+00
   -0.11077E+07        -0.59908E+08         0.00000E+00
    0.00000E+00         0.00000E+00        -0.52699E+08
 
   -0.51470E+08        -0.12937E+07         0.00000E+00
   -0.12937E+07        -0.59839E+08         0.00000E+00
    0.00000E+00         0.00000E+00        -0.52694E+08
 
   -0.51568E+08        -0.13023E+07         0.00000E+00
   -0.13023E+07        -0.59761E+08         0.00000E+00
    0.00000E+00         0.00000E+00        -0.52695E+08
 
   -0.51696E+08        -0.11237E+07         0.00000E+00
   -0.11237E+07        -0.59675E+08         0.00000E+00
    0.00000E+00         0.00000E+00        -0.52700E+08
 
   -0.51846E+08        -0.75348E+06         0.00000E+00
   -0.75348E+06        -0.59585E+08         0.00000E+00
    0.00000E+00         0.00000E+00        -0.52708E+08
 
   -0.52008E+08        -0.19131E+06         0.00000E+00
   -0.19131E+06        -0.59492E+08         0.00000E+00
    0.00000E+00         0.00000E+00        -0.52717E+08
 
   -0.52176E+08         0.55968E+06         0.00000E+00
    0.55968E+06        -0.59398E+08         0.00000E+00
    0.00000E+00         0.00000E+00        -0.52728E+08
 
   -0.52340E+08         0.14932E+07         0.00000E+00
    0.14932E+07        -0.59308E+08         0.00000E+00
    0.00000E+00         0.00000E+00        -0.52738E+08
 
   -0.52492E+08         0.25999E+07         0.00000E+00
    0.25999E+07        -0.59224E+08         0.00000E+00
    0.00000E+00         0.00000E+00        -0.52748E+08
 
   -0.52622E+08         0.38670E+07         0.00000E+00
    0.38670E+07        -0.59151E+08         0.00000E+00
    0.00000E+00         0.00000E+00        -0.52756E+08
 
   -0.52719E+08         0.52777E+07         0.00000E+00
    0.52777E+07        -0.59093E+08         0.00000E+00
    0.00000E+00         0.00000E+00        -0.52761E+08
 
   -0.52774E+08         0.68107E+07         0.00000E+00
    0.68107E+07        -0.59058E+08         0.00000E+00
    0.00000E+00         0.00000E+00        -0.52764E+08
 
   -0.52774E+08         0.84392E+07         0.00000E+00
    0.84392E+07        -0.59052E+08         0.00000E+00
    0.00000E+00         0.00000E+00        -0.52762E+08
 
   -0.52005E+08        -0.26686E+06         0.00000E+00
   -0.26686E+06        -0.59996E+08         0.00000E+00
    0.00000E+00         0.00000E+00        -0.51414E+08
 
   -0.51821E+08        -0.72865E+06         0.00000E+00
   -0.72865E+06        -0.59982E+08         0.00000E+00
    0.00000E+00         0.00000E+00        -0.51373E+08
 
   -0.51677E+08        -0.10618E+07         0.00000E+00
   -0.10618E+07        -0.59958E+08         0.00000E+00
    0.00000E+00         0.00000E+00        -0.51335E+08
 
   -0.51565E+08        -0.12381E+07         0.00000E+00
   -0.12381E+07        -0.59925E+08         0.00000E+00
    0.00000E+00         0.00000E+00        -0.51302E+08
 
   -0.51481E+08        -0.12398E+07         0.00000E+00
   -0.12398E+07        -0.59886E+08         0.00000E+00
    0.00000E+00         0.00000E+00        -0.51271E+08
 
   -0.51420E+08        -0.10563E+07         0.00000E+00
   -0.10563E+07        -0.59842E+08         0.00000E+00
    0.00000E+00         0.00000E+00        -0.51243E+08
 
   -0.51378E+08        -0.68306E+06         0.00000E+00
   -0.68306E+06        -0.59795E+08         0.00000E+00
    0.00000E+00         0.00000E+00        -0.51218E+08
 
   -0.51351E+08        -0.12004E+06         0.00000E+00
   -0.12004E+06        -0.59747E+08         0.00000E+00
    0.00000E+00         0.00000E+00        -0.51195E+08
 
   -0.51334E+08         0.62923E+06         0.00000E+00
    0.62923E+06        -0.59700E+08         0.00000E+00
    0.00000E+00         0.00000E+00        -0.51175E+08
 
   -0.51322E+08         0.15580E+07         0.00000E+00
    0.15580E+07        -0.59656E+08         0.00000E+00
    0.00000E+00         0.00000E+00        -0.51156E+08
 
   -0.51308E+08         0.26563E+07         0.00000E+00
    0.26563E+07        -0.59619E+08         0.00000E+00
    0.00000E+00         0.00000E+00        -0.51139E+08
 
   -0.51288E+08         0.39107E+07         0.00000E+00
    0.39107E+07        -0.59592E+08         0.00000E+00
    0.00000E+00         0.00000E+00        -0.51124E+08
 
   -0.51254E+08         0.53043E+07         0.00000E+00
    0.53043E+07        -0.59578E+08         0.00000E+00
    0.00000E+00         0.00000E+00        -0.51110E+08
 
   -0.51202E+08         0.68152E+07         0.00000E+00
    0.68152E+07        -0.59581E+08         0.00000E+00
    0.00000E+00         0.00000E+00        -0.51098E+08
 
   -0.51125E+08         0.84168E+07         0.00000E+00
    0.84168E+07        -0.59605E+08         0.00000E+00
    0.00000E+00         0.00000E+00        -0.51085E+08
 
   -0.52514E+08        -0.26424E+06         0.00000E+00
   -0.26424E+06        -0.60001E+08         0.00000E+00
    0.00000E+00         0.00000E+00        -0.50111E+08
 
   -0.52220E+08        -0.72110E+06         0.00000E+00
   -0.72110E+06        -0.60005E+08         0.00000E+00
    0.00000E+00         0.00000E+00        -0.50050E+08
 
   -0.51932E+08        -0.10497E+07         0.00000E+00
   -0.10497E+07        -0.60010E+08         0.00000E+00
    0.00000E+00         0.00000E+00        -0.49988E+08
 
   -0.51654E+08        -0.12218E+07         0.00000E+00
   -0.12218E+07        -0.60015E+08         0.00000E+00
    0.00000E+00         0.00000E+00        -0.49925E+08
 
   -0.51389E+08        -0.12196E+07         0.00000E+00
   -0.12196E+07        -0.60017E+08         0.00000E+00
    0.00000E+00         0.00000E+00        -0.49864E+08
 
   -0.51141E+08        -0.10330E+07         0.00000E+00
   -0.10330E+07        -0.60017E+08         0.00000E+00
    0.00000E+00         0.00000E+00        -0.49804E+08
 
   -0.50910E+08        -0.65805E+06         0.00000E+00
   -0.65805E+06        -0.60016E+08         0.00000E+00
    0.00000E+00         0.00000E+00        -0.49747E+08
 
   -0.50695E+08        -0.95060E+05         0.00000E+00
   -0.95060E+05        -0.60014E+08         0.00000E+00
    0.00000E+00         0.00000E+00        -0.49693E+08
 
   -0.50496E+08         0.65187E+06         0.00000E+00
    0.65187E+06        -0.60013E+08         0.00000E+00
    0.00000E+00         0.00000E+00        -0.49642E+08
 
   -0.50310E+08         0.15756E+07         0.00000E+00
    0.15756E+07        -0.60016E+08         0.00000E+00
    0.00000E+00         0.00000E+00        -0.49596E+08
 
   -0.50135E+08         0.26661E+07         0.00000E+00
    0.26661E+07        -0.60026E+08         0.00000E+00
    0.00000E+00         0.00000E+00        -0.49553E+08
 
   -0.49967E+08         0.39099E+07         0.00000E+00
    0.39099E+07        -0.60044E+08         0.00000E+00
    0.00000E+00         0.00000E+00        -0.49516E+08
 
   -0.49806E+08         0.52901E+07         0.00000E+00
    0.52901E+07        -0.60072E+08         0.00000E+00
    0.00000E+00         0.00000E+00        -0.49483E+08
 
   -0.49650E+08         0.67854E+07         0.00000E+00
    0.67854E+07        -0.60113E+08         0.00000E+00
    0.00000E+00         0.00000E+00        -0.49455E+08
 
   -0.49499E+08         0.83698E+07         0.00000E+00
    0.83698E+07        -0.60166E+08         0.00000E+00
    0.00000E+00         0.00000E+00        -0.49433E+08
 
   -0.53027E+08        -0.27181E+06         0.00000E+00
   -0.27181E+06        -0.60006E+08         0.00000E+00
    0.00000E+00         0.00000E+00        -0.48816E+08
 
   -0.52621E+08        -0.73877E+06         0.00000E+00
   -0.73877E+06        -0.60027E+08         0.00000E+00
    0.00000E+00         0.00000E+00        -0.48736E+08
 
   -0.52186E+08        -0.10722E+07         0.00000E+00
   -0.10722E+07        -0.60062E+08         0.00000E+00
    0.00000E+00         0.00000E+00        -0.48649E+08
 
   -0.51740E+08        -0.12455E+07         0.00000E+00
   -0.12455E+07        -0.60104E+08         0.00000E+00
    0.00000E+00         0.00000E+00        -0.48558E+08
 
   -0.51295E+08        -0.12424E+07         0.00000E+00
   -0.12424E+07        -0.60147E+08         0.00000E+00
    0.00000E+00         0.00000E+00        -0.48466E+08
 
   -0.50860E+08        -0.10543E+07         0.00000E+00
   -0.10543E+07        -0.60191E+08         0.00000E+00
    0.00000E+00         0.00000E+00        -0.48375E+08
 
   -0.50440E+08        -0.67836E+06         0.00000E+00
   -0.67836E+06        -0.60233E+08         0.00000E+00
    0.00000E+00         0.00000E+00        -0.48286E+08
 
   -0.50040E+08        -0.11594E+06         0.00000E+00
   -0.11594E+06        -0.60275E+08         0.00000E+00
    0.00000E+00         0.00000E+00        -0.48200E+08
 
   -0.49662E+08         0.62827E+06         0.00000E+00
    0.62827E+06        -0.60320E+08         0.00000E+00
    0.00000E+00         0.00000E+00        -0.48120E+08
 
   -0.49304E+08         0.15469E+07         0.00000E+00
    0.15469E+07        -0.60368E+08         0.00000E+00
    0.00000E+00         0.00000E+00        -0.48046E+08
 
   -0.48970E+08         0.26302E+07         0.00000E+00
    0.26302E+07        -0.60423E+08         0.00000E+00
    0.00000E+00         0.00000E+00        -0.47978E+08
 
   -0.48658E+08         0.38652E+07         0.00000E+00
    0.38652E+07        -0.60485E+08         0.00000E+00
    0.00000E+00         0.00000E+00        -0.47919E+08
 
   -0.48370E+08         0.52359E+07         0.00000E+00
    0.52359E+07        -0.60555E+08         0.00000E+00
    0.00000E+00         0.00000E+00        -0.47867E+08
 
   -0.48111E+08         0.67220E+07         0.00000E+00
    0.67220E+07        -0.60632E+08         0.00000E+00
    0.00000E+00         0.00000E+00        -0.47825E+08
 
   -0.47885E+08         0.82985E+07         0.00000E+00
    0.82985E+07        -0.60714E+08         0.00000E+00
    0.00000E+00         0.00000E+00        -0.47794E+08
 
   -0.53562E+08        -0.28930E+06         0.00000E+00
   -0.28930E+06        -0.60010E+08         0.00000E+00
    0.00000E+00         0.00000E+00        -0.47528E+08
 
   -0.53034E+08        -0.78094E+06         0.00000E+00
   -0.78094E+06        -0.60048E+08         0.00000E+00
    0.00000E+00         0.00000E+00        -0.47425E+08
 
   -0.52447E+08        -0.11282E+07         0.00000E+00
   -0.11282E+07        -0.60112E+08         0.00000E+00
    0.00000E+00         0.00000E+00        -0.47312E+08
 
   -0.51829E+08        -0.13077E+07         0.00000E+00
   -0.13077E+07        -0.60188E+08         0.00000E+00
    0.00000E+00         0.00000E+00        -0.47191E+08
 
   -0.51200E+08        -0.13062E+07         0.00000E+00
   -0.13062E+07        -0.60269E+08         0.00000E+00
    0.00000E+00         0.00000E+00        -0.47068E+08
 
   -0.50577E+08        -0.11176E+07         0.00000E+00
   -0.11176E+07        -0.60352E+08         0.00000E+00
    0.00000E+00         0.00000E+00        -0.46945E+08
 
   -0.49971E+08        -0.74118E+06         0.00000E+00
   -0.74118E+06        -0.60434E+08         0.00000E+00
    0.00000E+00         0.00000E+00        -0.46824E+08
 
   -0.49387E+08        -0.17980E+06         0.00000E+00
   -0.17980E+06        -0.60517E+08         0.00000E+00
    0.00000E+00         0.00000E+00        -0.46708E+08
 
   -0.48831E+08         0.56115E+06         0.00000E+00
    0.56115E+06        -0.60602E+08         0.00000E+00
    0.00000E+00         0.00000E+00        -0.46598E+08
 
   -0.48305E+08         0.14743E+07         0.00000E+00
    0.14743E+07        -0.60692E+08         0.00000E+00
    0.00000E+00         0.00000E+00        -0.46496E+08
 
   -0.47812E+08         0.25504E+07         0.00000E+00
    0.25504E+07        -0.60789E+08         0.00000E+00
    0.00000E+00         0.00000E+00        -0.46404E+08
 
   -0.47356E+08         0.37780E+07         0.00000E+00
    0.37780E+07        -0.60894E+08         0.00000E+00
    0.00000E+00         0.00000E+00        -0.46322E+08
 
   -0.46942E+08         0.51422E+07         0.00000E+00
    0.51422E+07        -0.61005E+08         0.00000E+00
    0.00000E+00         0.00000E+00        -0.46252E+08
 
   -0.46577E+08         0.66247E+07         0.00000E+00
    0.66247E+07        -0.61119E+08         0.00000E+00
    0.00000E+00         0.00000E+00        -0.46195E+08
 
   -0.46272E+08         0.82020E+07         0.00000E+00
    0.82020E+07        -0.61231E+08         0.00000E+00
    0.00000E+00         0.00000E+00        -0.46153E+08
 
   -0.54137E+08        -0.31605E+06         0.00000E+00
   -0.31605E+06        -0.60014E+08         0.00000E+00
    0.00000E+00         0.00000E+00        -0.46242E+08
 
   -0.53472E+08        -0.84580E+06         0.00000E+00
   -0.84580E+06        -0.60068E+08         0.00000E+00
    0.00000E+00         0.00000E+00        -0.46114E+08
 
   -0.52720E+08        -0.12147E+07         0.00000E+00
   -0.12147E+07        -0.60156E+08         0.00000E+00
    0.00000E+00         0.00000E+00        -0.45971E+08
 
   -0.51922E+08        -0.14045E+07         0.00000E+00
   -0.14045E+07        -0.60262E+08         0.00000E+00
    0.00000E+00         0.00000E+00        -0.45820E+08
 
   -0.51106E+08        -0.14062E+07         0.00000E+00
   -0.14062E+07        -0.60376E+08         0.00000E+00
    0.00000E+00         0.00000E+00        -0.45664E+08
 
   -0.50294E+08        -0.12176E+07         0.00000E+00
   -0.12176E+07        -0.60492E+08         0.00000E+00
    0.00000E+00         0.00000E+00        -0.45507E+08
 
   -0.49501E+08        -0.84094E+06         0.00000E+00
   -0.84094E+06        -0.60607E+08         0.00000E+00
    0.00000E+00         0.00000E+00        -0.45354E+08
 
   -0.48737E+08        -0.28120E+06         0.00000E+00
   -0.28120E+06        -0.60723E+08         0.00000E+00
    0.00000E+00         0.00000E+00        -0.45206E+08
 
   -0.48006E+08         0.45538E+06         0.00000E+00
    0.45538E+06        -0.60843E+08         0.00000E+00
    0.00000E+00         0.00000E+00        -0.45067E+08
 
   -0.47313E+08         0.13617E+07         0.00000E+00
    0.13617E+07        -0.60970E+08         0.00000E+00
    0.00000E+00         0.00000E+00        -0.44937E+08
 
   -0.46663E+08         0.24296E+07         0.00000E+00
    0.24296E+07        -0.61105E+08         0.00000E+00
    0.00000E+00         0.00000E+00        -0.44819E+08
 
   -0.46061E+08         0.36494E+07         0.00000E+00
    0.36494E+07        -0.61249E+08         0.00000E+00
    0.00000E+00         0.00000E+00        -0.44715E+08
 
   -0.45517E+08         0.50089E+07         0.00000E+00
    0.50089E+07        -0.61401E+08         0.00000E+00
    0.00000E+00         0.00000E+00        -0.44626E+08
 
   -0.45042E+08         0.64921E+07         0.00000E+00
    0.64921E+07        -0.61553E+08         0.00000E+00
    0.00000E+00         0.00000E+00        -0.44554E+08
 
   -0.44652E+08         0.80779E+07         0.00000E+00
    0.80779E+07        -0.61699E+08         0.00000E+00
    0.00000E+00         0.00000E+00        -0.44502E+08
 
   -0.54768E+08        -0.35108E+06         0.00000E+00
   -0.35108E+06        -0.60017E+08         0.00000E+00
    0.00000E+00         0.00000E+00        -0.44956E+08
 
   -0.53943E+08        -0.93054E+06         0.00000E+00
   -0.93054E+06        -0.60084E+08         0.00000E+00
    0.00000E+00         0.00000E+00        -0.44798E+08
 
   -0.53011E+08        -0.13273E+07         0.00000E+00
   -0.13273E+07        -0.60193E+08         0.00000E+00
    0.00000E+00         0.00000E+00        -0.44622E+08
 
   -0.52022E+08        -0.15297E+07         0.00000E+00
   -0.15297E+07        -0.60324E+08         0.00000E+00
    0.00000E+00         0.00000E+00        -0.44436E+08
 
   -0.51013E+08        -0.15348E+07         0.00000E+00
   -0.15348E+07        -0.60462E+08         0.00000E+00
    0.00000E+00         0.00000E+00        -0.44245E+08
 
   -0.50011E+08        -0.13458E+07         0.00000E+00
   -0.13458E+07        -0.60600E+08         0.00000E+00
    0.00000E+00         0.00000E+00        -0.44054E+08
 
   -0.49033E+08        -0.96911E+06         0.00000E+00
   -0.96911E+06        -0.60739E+08         0.00000E+00
    0.00000E+00         0.00000E+00        -0.43867E+08
 
   -0.48090E+08        -0.41205E+06         0.00000E+00
   -0.41205E+06        -0.60879E+08         0.00000E+00
    0.00000E+00         0.00000E+00        -0.43688E+08
 
   -0.47187E+08         0.31807E+06         0.00000E+00
    0.31807E+06        -0.61024E+08         0.00000E+00
    0.00000E+00         0.00000E+00        -0.43518E+08
 
   -0.46330E+08         0.12146E+07         0.00000E+00
    0.12146E+07        -0.61180E+08         0.00000E+00
    0.00000E+00         0.00000E+00        -0.43360E+08
 
   -0.45523E+08         0.22712E+07         0.00000E+00
    0.22712E+07        -0.61348E+08         0.00000E+00
    0.00000E+00         0.00000E+00        -0.43216E+08
 
   -0.44774E+08         0.34811E+07         0.00000E+00
    0.34811E+07        -0.61530E+08         0.00000E+00
    0.00000E+00         0.00000E+00        -0.43089E+08
 
   -0.44094E+08         0.48354E+07         0.00000E+00
    0.48354E+07        -0.61721E+08         0.00000E+00
    0.00000E+00         0.00000E+00        -0.42980E+08
 
   -0.43500E+08         0.63217E+07         0.00000E+00
    0.63217E+07        -0.61914E+08         0.00000E+00
    0.00000E+00         0.00000E+00        -0.42892E+08
 
   -0.43014E+08         0.79220E+07         0.00000E+00
    0.79220E+07        -0.62096E+08         0.00000E+00
    0.00000E+00         0.00000E+00        -0.42827E+08
 
   -0.55468E+08        -0.39318E+06         0.00000E+00
   -0.39318E+06        -0.60020E+08         0.00000E+00
    0.00000E+00         0.00000E+00        -0.43667E+08
 
   -0.54455E+08        -0.10314E+07         0.00000E+00
   -0.10314E+07        -0.60098E+08         0.00000E+00
    0.00000E+00         0.00000E+00        -0.43474E+08
 
   -0.53322E+08        -0.14596E+07         0.00000E+00
   -0.14596E+07        -0.60222E+08         0.00000E+00
    0.00000E+00         0.00000E+00        -0.43261E+08
 
   -0.52129E+08        -0.16746E+07         0.00000E+00
   -0.16746E+07        -0.60367E+08         0.00000E+00
    0.00000E+00         0.00000E+00        -0.43036E+08
 
   -0.50920E+08        -0.16817E+07         0.00000E+00
   -0.16817E+07        -0.60518E+08         0.00000E+00
    0.00000E+00         0.00000E+00        -0.42807E+08
 
   -0.49726E+08        -0.14910E+07         0.00000E+00
   -0.14910E+07        -0.60668E+08         0.00000E+00
    0.00000E+00         0.00000E+00        -0.42580E+08
 
   -0.48566E+08        -0.11141E+07         0.00000E+00
   -0.11141E+07        -0.60816E+08         0.00000E+00
    0.00000E+00         0.00000E+00        -0.42357E+08
 
   -0.47449E+08        -0.56143E+06         0.00000E+00
   -0.56143E+06        -0.60966E+08         0.00000E+00
    0.00000E+00         0.00000E+00        -0.42144E+08
 
   -0.46379E+08         0.15861E+06         0.00000E+00
    0.15861E+06        -0.61126E+08         0.00000E+00
    0.00000E+00         0.00000E+00        -0.41943E+08
 
   -0.45361E+08         0.10403E+07         0.00000E+00
    0.10403E+07        -0.61302E+08         0.00000E+00
    0.00000E+00         0.00000E+00        -0.41756E+08
 
   -0.44397E+08         0.20799E+07         0.00000E+00
    0.20799E+07        -0.61497E+08         0.00000E+00
    0.00000E+00         0.00000E+00        -0.41586E+08
 
   -0.43496E+08         0.32746E+07         0.00000E+00
    0.32746E+07        -0.61712E+08         0.00000E+00
    0.00000E+00         0.00000E+00        -0.41435E+08
 
   -0.42673E+08         0.46203E+07         0.00000E+00
    0.46203E+07        -0.61943E+08         0.00000E+00
    0.00000E+00         0.00000E+00        -0.41305E+08
 
   -0.41949E+08         0.61095E+07         0.00000E+00
    0.61095E+07        -0.62180E+08         0.00000E+00
    0.00000E+00         0.00000E+00        -0.41200E+08
 
   -0.41352E+08         0.77286E+07         0.00000E+00
    0.77286E+07        -0.62405E+08         0.00000E+00
    0.00000E+00         0.00000E+00        -0.41121E+08
 
   -0.56249E+08        -0.44088E+06         0.00000E+00
   -0.44088E+06        -0.60023E+08         0.00000E+00
    0.00000E+00         0.00000E+00        -0.42376E+08
 
   -0.55013E+08        -0.11437E+07         0.00000E+00
   -0.11437E+07        -0.60107E+08         0.00000E+00
    0.00000E+00         0.00000E+00        -0.42139E+08
 
   -0.53653E+08        -0.16034E+07         0.00000E+00
   -0.16034E+07        -0.60238E+08         0.00000E+00
    0.00000E+00         0.00000E+00        -0.41882E+08
 
   -0.52240E+08        -0.18279E+07         0.00000E+00
   -0.18279E+07        -0.60388E+08         0.00000E+00
    0.00000E+00         0.00000E+00        -0.41615E+08
 
   -0.50825E+08        -0.18331E+07         0.00000E+00
   -0.18331E+07        -0.60538E+08         0.00000E+00
    0.00000E+00         0.00000E+00        -0.41344E+08
 
   -0.49440E+08        -0.16381E+07         0.00000E+00
   -0.16381E+07        -0.60682E+08         0.00000E+00
    0.00000E+00         0.00000E+00        -0.41077E+08
 
   -0.48102E+08        -0.12609E+07         0.00000E+00
   -0.12609E+07        -0.60823E+08         0.00000E+00
    0.00000E+00         0.00000E+00        -0.40818E+08
 
   -0.46817E+08        -0.71555E+06         0.00000E+00
   -0.71555E+06        -0.60969E+08         0.00000E+00
    0.00000E+00         0.00000E+00        -0.40570E+08
 
   -0.45588E+08        -0.11231E+05         0.00000E+00
   -0.11231E+05        -0.61129E+08         0.00000E+00
    0.00000E+00         0.00000E+00        -0.40337E+08
 
   -0.44412E+08         0.84775E+06         0.00000E+00
    0.84775E+06        -0.61312E+08         0.00000E+00
    0.00000E+00         0.00000E+00        -0.40121E+08
 
   -0.43292E+08         0.18612E+07         0.00000E+00
    0.18612E+07        -0.61526E+08         0.00000E+00
    0.00000E+00         0.00000E+00        -0.39923E+08
 
   -0.42236E+08         0.30316E+07         0.00000E+00
    0.30316E+07        -0.61772E+08         0.00000E+00
    0.00000E+00         0.00000E+00        -0.39747E+08
 
   -0.41259E+08         0.43613E+07         0.00000E+00
    0.43613E+07        -0.62044E+08         0.00000E+00
    0.00000E+00         0.00000E+00        -0.39594E+08
 
   -0.40388E+08         0.58497E+07         0.00000E+00
    0.58497E+07        -0.62329E+08         0.00000E+00
    0.00000E+00         0.00000E+00        -0.39469E+08
 
   -0.39659E+08         0.74894E+07         0.00000E+00
    0.74894E+07        -0.62606E+08         0.00000E+00
    0.00000E+00         0.00000E+00        -0.39374E+08
 
   -0.57117E+08        -0.49253E+06         0.00000E+00
   -0.49253E+06        -0.60024E+08         0.00000E+00
    0.00000E+00         0.00000E+00        -0.41080E+08
 
   -0.55616E+08        -0.12615E+07         0.00000E+00
   -0.12615E+07        -0.60111E+08         0.00000E+00
    0.00000E+00         0.00000E+00        -0.40792E+08
 
   -0.54000E+08        -0.17481E+07         0.00000E+00
   -0.17481E+07        -0.60241E+08         0.00000E+00
    0.00000E+00         0.00000E+00        -0.40484E+08
 
   -0.52351E+08        -0.19748E+07         0.00000E+00
   -0.19748E+07        -0.60380E+08         0.00000E+00
    0.00000E+00         0.00000E+00        -0.40167E+08
 
   -0.50723E+08        -0.19715E+07         0.00000E+00
   -0.19715E+07        -0.60511E+08         0.00000E+00
    0.00000E+00         0.00000E+00        -0.39851E+08
 
   -0.49149E+08        -0.17686E+07         0.00000E+00
   -0.17686E+07        -0.60630E+08         0.00000E+00
    0.00000E+00         0.00000E+00        -0.39542E+08
 
   -0.47642E+08        -0.13914E+07         0.00000E+00
   -0.13914E+07        -0.60744E+08         0.00000E+00
    0.00000E+00         0.00000E+00        -0.39244E+08
 
   -0.46200E+08        -0.85780E+06         0.00000E+00
   -0.85780E+06        -0.60865E+08         0.00000E+00
    0.00000E+00         0.00000E+00        -0.38960E+08
 
   -0.44820E+08        -0.17745E+06         0.00000E+00
   -0.17745E+06        -0.61009E+08         0.00000E+00
    0.00000E+00         0.00000E+00        -0.38694E+08
 
   -0.43494E+08         0.64751E+06         0.00000E+00
    0.64751E+06        -0.61188E+08         0.00000E+00
    0.00000E+00         0.00000E+00        -0.38447E+08
 
   -0.42220E+08         0.16215E+07         0.00000E+00
    0.16215E+07        -0.61411E+08         0.00000E+00
    0.00000E+00         0.00000E+00        -0.38221E+08
 
   -0.41003E+08         0.27535E+07         0.00000E+00
    0.27535E+07        -0.61683E+08         0.00000E+00
    0.00000E+00         0.00000E+00        -0.38018E+08
 
   -0.39859E+08         0.40549E+07         0.00000E+00
    0.40549E+07        -0.61997E+08         0.00000E+00
    0.00000E+00         0.00000E+00        -0.37841E+08
 
   -0.38820E+08         0.55343E+07         0.00000E+00
    0.55343E+07        -0.62337E+08         0.00000E+00
    0.00000E+00         0.00000E+00        -0.37694E+08
 
   -0.37932E+08         0.71931E+07         0.00000E+00
    0.71931E+07        -0.62677E+08         0.00000E+00
    0.00000E+00         0.00000E+00        -0.37580E+08
 
   -0.58077E+08        -0.54630E+06         0.00000E+00
   -0.54630E+06        -0.60025E+08         0.00000E+00
    0.00000E+00         0.00000E+00        -0.39781E+08
 
   -0.56261E+08        -0.13776E+07         0.00000E+00
   -0.13776E+07        -0.60109E+08         0.00000E+00
    0.00000E+00         0.00000E+00        -0.39429E+08
 
   -0.54354E+08        -0.18801E+07         0.00000E+00
   -0.18801E+07        -0.60226E+08         0.00000E+00
    0.00000E+00         0.00000E+00        -0.39061E+08
 
   -0.52450E+08        -0.20963E+07         0.00000E+00
   -0.20963E+07        -0.60336E+08         0.00000E+00
    0.00000E+00         0.00000E+00        -0.38689E+08
 
   -0.50608E+08        -0.20748E+07         0.00000E+00
   -0.20748E+07        -0.60424E+08         0.00000E+00
    0.00000E+00         0.00000E+00        -0.38322E+08
 
   -0.48854E+08        -0.18598E+07         0.00000E+00
   -0.18598E+07        -0.60493E+08         0.00000E+00
    0.00000E+00         0.00000E+00        -0.37968E+08
 
   -0.47189E+08        -0.14842E+07         0.00000E+00
   -0.14842E+07        -0.60556E+08         0.00000E+00
    0.00000E+00         0.00000E+00        -0.37629E+08
 
   -0.45606E+08        -0.96922E+06         0.00000E+00
   -0.96922E+06        -0.60632E+08         0.00000E+00
    0.00000E+00         0.00000E+00        -0.37310E+08
 
   -0.44088E+08        -0.32419E+06         0.00000E+00
   -0.32419E+06        -0.60741E+08         0.00000E+00
    0.00000E+00         0.00000E+00        -0.37011E+08
 
   -0.42622E+08         0.45157E+06         0.00000E+00
    0.45157E+06        -0.60901E+08         0.00000E+00
    0.00000E+00         0.00000E+00        -0.36733E+08
 
   -0.41197E+08         0.13678E+07         0.00000E+00
    0.13678E+07        -0.61124E+08         0.00000E+00
    0.00000E+00         0.00000E+00        -0.36477E+08
 
   -0.39814E+08         0.24419E+07         0.00000E+00
    0.24419E+07        -0.61417E+08         0.00000E+00
    0.00000E+00         0.00000E+00        -0.36246E+08
 
   -0.38487E+08         0.36960E+07         0.00000E+00
    0.36960E+07        -0.61775E+08         0.00000E+00
    0.00000E+00         0.00000E+00        -0.36042E+08
 
   -0.37253E+08         0.51523E+07         0.00000E+00
    0.51523E+07        -0.62180E+08         0.00000E+00
    0.00000E+00         0.00000E+00        -0.35869E+08
 
   -0.36169E+08         0.68246E+07         0.00000E+00
    0.68246E+07        -0.62597E+08         0.00000E+00
    0.00000E+00         0.00000E+00        -0.35732E+08
 
   -0.59127E+08        -0.60007E+06         0.00000E+00
   -0.60007E+06        -0.60024E+08         0.00000E+00
    0.00000E+00         0.00000E+00        -0.38477E+08
 
   -0.56934E+08        -0.14823E+07         0.00000E+00
   -0.14823E+07        -0.60100E+08         0.00000E+00
    0.00000E+00         0.00000E+00        -0.38048E+08
 
   -0.54698E+08        -0.19809E+07         0.00000E+00
   -0.19809E+07        -0.60186E+08         0.00000E+00
    0.00000E+00         0.00000E+00        -0.37609E+08
 
   -0.52526E+08        -0.21675E+07         0.00000E+00
   -0.21675E+07        -0.60242E+08         0.00000E+00
    0.00000E+00         0.00000E+00        -0.37174E+08
 
   -0.50473E+08        -0.21160E+07         0.00000E+00
   -0.21160E+07        -0.60257E+08         0.00000E+00
    0.00000E+00         0.00000E+00        -0.36752E+08
 
   -0.48552E+08        -0.18855E+07         0.00000E+00
   -0.18855E+07        -0.60247E+08         0.00000E+00
    0.00000E+00         0.00000E+00        -0.36350E+08
 
   -0.46750E+08        -0.15159E+07         0.00000E+00
   -0.15159E+07        -0.60233E+08         0.00000E+00
    0.00000E+00         0.00000E+00        -0.35971E+08
 
   -0.45045E+08        -0.10297E+07         0.00000E+00
   -0.10297E+07        -0.60243E+08         0.00000E+00
    0.00000E+00         0.00000E+00        -0.35615E+08
 
   -0.43408E+08        -0.43471E+06         0.00000E+00
   -0.43471E+06        -0.60299E+08         0.00000E+00
    0.00000E+00         0.00000E+00        -0.35283E+08
 
   -0.41815E+08         0.27298E+06         0.00000E+00
    0.27298E+06        -0.60424E+08         0.00000E+00
    0.00000E+00         0.00000E+00        -0.34975E+08
 
   -0.40246E+08         0.11086E+07         0.00000E+00
    0.11086E+07        -0.60635E+08         0.00000E+00
    0.00000E+00         0.00000E+00        -0.34690E+08
 
   -0.38692E+08         0.20983E+07         0.00000E+00
    0.20983E+07        -0.60944E+08         0.00000E+00
    0.00000E+00         0.00000E+00        -0.34429E+08
 
   -0.37165E+08         0.32783E+07         0.00000E+00
    0.32783E+07        -0.61349E+08         0.00000E+00
    0.00000E+00         0.00000E+00        -0.34195E+08
 
   -0.35701E+08         0.46889E+07         0.00000E+00
    0.46889E+07        -0.61830E+08         0.00000E+00
    0.00000E+00         0.00000E+00        -0.33992E+08
 
   -0.34372E+08         0.63632E+07         0.00000E+00
    0.63632E+07        -0.62347E+08         0.00000E+00
    0.00000E+00         0.00000E+00        -0.33826E+08
 
   -0.60259E+08        -0.65123E+06         0.00000E+00
   -0.65123E+06        -0.60023E+08         0.00000E+00
    0.00000E+00         0.00000E+00        -0.37167E+08
 
   -0.57613E+08        -0.15613E+07         0.00000E+00
   -0.15613E+07        -0.60079E+08         0.00000E+00
    0.00000E+00         0.00000E+00        -0.36645E+08
 
   -0.55006E+08        -0.20234E+07         0.00000E+00
   -0.20234E+07        -0.60109E+08         0.00000E+00
    0.00000E+00         0.00000E+00        -0.36122E+08
 
   -0.52560E+08        -0.21551E+07         0.00000E+00
   -0.21551E+07        -0.60073E+08         0.00000E+00
    0.00000E+00         0.00000E+00        -0.35615E+08
 
   -0.50312E+08        -0.20620E+07         0.00000E+00
   -0.20620E+07        -0.59979E+08         0.00000E+00
    0.00000E+00         0.00000E+00        -0.35134E+08
 
   -0.48248E+08        -0.18173E+07         0.00000E+00
   -0.18173E+07        -0.59858E+08         0.00000E+00
    0.00000E+00         0.00000E+00        -0.34684E+08
 
   -0.46335E+08        -0.14632E+07         0.00000E+00
   -0.14632E+07        -0.59743E+08         0.00000E+00
    0.00000E+00         0.00000E+00        -0.34264E+08
 
   -0.44531E+08        -0.10202E+07         0.00000E+00
   -0.10202E+07        -0.59666E+08         0.00000E+00
    0.00000E+00         0.00000E+00        -0.33874E+08
 
   -0.42797E+08        -0.49313E+06         0.00000E+00
   -0.49313E+06        -0.59654E+08         0.00000E+00
    0.00000E+00         0.00000E+00        -0.33511E+08
 
   -0.41095E+08         0.12492E+06         0.00000E+00
    0.12492E+06        -0.59731E+08         0.00000E+00
    0.00000E+00         0.00000E+00        -0.33173E+08
 
   -0.39393E+08         0.85332E+06         0.00000E+00
    0.85332E+06        -0.59919E+08         0.00000E+00
    0.00000E+00         0.00000E+00        -0.32858E+08
 
   -0.37670E+08         0.17261E+07         0.00000E+00
    0.17261E+07        -0.60236E+08         0.00000E+00
    0.00000E+00         0.00000E+00        -0.32567E+08
 
   -0.35923E+08         0.27948E+07         0.00000E+00
    0.27948E+07        -0.60688E+08         0.00000E+00
    0.00000E+00         0.00000E+00        -0.32300E+08
 
   -0.34187E+08         0.41249E+07         0.00000E+00
    0.41249E+07        -0.61260E+08         0.00000E+00
    0.00000E+00         0.00000E+00        -0.32061E+08
 
   -0.32549E+08         0.57806E+07         0.00000E+00
    0.57806E+07        -0.61903E+08         0.00000E+00
    0.00000E+00         0.00000E+00        -0.31859E+08
 
   -0.61456E+08        -0.69583E+06         0.00000E+00
   -0.69583E+06        -0.60019E+08         0.00000E+00
    0.00000E+00         0.00000E+00        -0.35850E+08
 
   -0.58256E+08        -0.15901E+07         0.00000E+00
   -0.15901E+07        -0.60036E+08         0.00000E+00
    0.00000E+00         0.00000E+00        -0.35210E+08
 
   -0.55244E+08        -0.19656E+07         0.00000E+00
   -0.19656E+07        -0.59965E+08         0.00000E+00
    0.00000E+00         0.00000E+00        -0.34588E+08
 
   -0.52535E+08        -0.20144E+07         0.00000E+00
   -0.20144E+07        -0.59786E+08         0.00000E+00
    0.00000E+00         0.00000E+00        -0.34002E+08
 
   -0.50123E+08        -0.18765E+07         0.00000E+00
   -0.18765E+07        -0.59540E+08         0.00000E+00
    0.00000E+00         0.00000E+00        -0.33460E+08
 
   -0.47952E+08        -0.16288E+07         0.00000E+00
   -0.16288E+07        -0.59278E+08         0.00000E+00
    0.00000E+00         0.00000E+00        -0.32963E+08
 
   -0.45958E+08        -0.13074E+07         0.00000E+00
   -0.13074E+07        -0.59044E+08         0.00000E+00
    0.00000E+00         0.00000E+00        -0.32506E+08
 
   -0.44083E+08        -0.92652E+06         0.00000E+00
   -0.92652E+06        -0.58868E+08         0.00000E+00
    0.00000E+00         0.00000E+00        -0.32084E+08
 
   -0.42275E+08        -0.48735E+06         0.00000E+00
   -0.48735E+06        -0.58778E+08         0.00000E+00
    0.00000E+00         0.00000E+00        -0.31693E+08
 
   -0.40486E+08         0.19131E+05         0.00000E+00
    0.19131E+05        -0.58798E+08         0.00000E+00
    0.00000E+00         0.00000E+00        -0.31328E+08
 
   -0.38669E+08         0.61334E+06         0.00000E+00
    0.61334E+06        -0.58952E+08         0.00000E+00
    0.00000E+00         0.00000E+00        -0.30986E+08
 
   -0.36785E+08         0.13323E+07         0.00000E+00
    0.13323E+07        -0.59265E+08         0.00000E+00
    0.00000E+00         0.00000E+00        -0.30664E+08
 
   -0.34807E+08         0.22405E+07         0.00000E+00
    0.22405E+07        -0.59760E+08         0.00000E+00
    0.00000E+00         0.00000E+00        -0.30360E+08
 
   -0.32750E+08         0.34365E+07         0.00000E+00
    0.34365E+07        -0.60436E+08         0.00000E+00
    0.00000E+00         0.00000E+00        -0.30079E+08
 
   -0.30712E+08         0.50368E+07         0.00000E+00
    0.50368E+07        -0.61242E+08         0.00000E+00
    0.00000E+00         0.00000E+00        -0.29831E+08
 
   -0.62678E+08        -0.72513E+06         0.00000E+00
   -0.72513E+06        -0.60008E+08         0.00000E+00
    0.00000E+00         0.00000E+00        -0.34520E+08
 
   -0.58796E+08        -0.15187E+07         0.00000E+00
   -0.15187E+07        -0.59943E+08         0.00000E+00
    0.00000E+00         0.00000E+00        -0.33728E+08
 
   -0.55368E+08        -0.17393E+07         0.00000E+00
   -0.17393E+07        -0.59689E+08         0.00000E+00
    0.00000E+00         0.00000E+00        -0.32988E+08
 
   -0.52446E+08        -0.16920E+07         0.00000E+00
   -0.16920E+07        -0.59296E+08         0.00000E+00
    0.00000E+00         0.00000E+00        -0.32318E+08
 
   -0.49923E+08        -0.15280E+07         0.00000E+00
   -0.15280E+07        -0.58860E+08         0.00000E+00
    0.00000E+00         0.00000E+00        -0.31720E+08
 
   -0.47685E+08        -0.13037E+07         0.00000E+00
   -0.13037E+07        -0.58445E+08         0.00000E+00
    0.00000E+00         0.00000E+00        -0.31181E+08
 
   -0.45642E+08        -0.10405E+07         0.00000E+00
   -0.10405E+07        -0.58087E+08         0.00000E+00
    0.00000E+00         0.00000E+00        -0.30692E+08
 
   -0.43722E+08        -0.74420E+06         0.00000E+00
   -0.74420E+06        -0.57814E+08         0.00000E+00
    0.00000E+00         0.00000E+00        -0.30245E+08
 
   -0.41863E+08        -0.41277E+06         0.00000E+00
   -0.41277E+06        -0.57648E+08         0.00000E+00
    0.00000E+00         0.00000E+00        -0.29831E+08
 
   -0.40010E+08        -0.37181E+05         0.00000E+00
   -0.37181E+05        -0.57609E+08         0.00000E+00
    0.00000E+00         0.00000E+00        -0.29445E+08
 
   -0.38104E+08         0.40015E+06         0.00000E+00
    0.40015E+06        -0.57722E+08         0.00000E+00
    0.00000E+00         0.00000E+00        -0.29079E+08
 
   -0.36083E+08         0.93164E+06         0.00000E+00
    0.93164E+06        -0.58017E+08         0.00000E+00
    0.00000E+00         0.00000E+00        -0.28728E+08
 
   -0.33880E+08         0.16200E+07         0.00000E+00
    0.16200E+07        -0.58535E+08         0.00000E+00
    0.00000E+00         0.00000E+00        -0.28386E+08
 
   -0.31455E+08         0.25978E+07         0.00000E+00
    0.25978E+07        -0.59321E+08         0.00000E+00
    0.00000E+00         0.00000E+00        -0.28054E+08
 
   -0.28890E+08         0.40730E+07         0.00000E+00
    0.40730E+07        -0.60339E+08         0.00000E+00
    0.00000E+00         0.00000E+00        -0.27743E+08
 
   -0.63835E+08        -0.70869E+06         0.00000E+00
   -0.70869E+06        -0.59974E+08         0.00000E+00
    0.00000E+00         0.00000E+00        -0.33158E+08
 
   -0.59125E+08        -0.12281E+07         0.00000E+00
   -0.12281E+07        -0.59691E+08         0.00000E+00
    0.00000E+00         0.00000E+00        -0.32159E+08
 
   -0.55362E+08        -0.12486E+07         0.00000E+00
   -0.12486E+07        -0.59113E+08         0.00000E+00
    0.00000E+00         0.00000E+00        -0.31288E+08
 
   -0.52323E+08        -0.11490E+07         0.00000E+00
   -0.11490E+07        -0.58462E+08         0.00000E+00
    0.00000E+00         0.00000E+00        -0.30546E+08
 
   -0.49746E+08        -0.10081E+07         0.00000E+00
   -0.10081E+07        -0.57838E+08         0.00000E+00
    0.00000E+00         0.00000E+00        -0.29901E+08
 
   -0.47477E+08        -0.84700E+06         0.00000E+00
   -0.84700E+06        -0.57284E+08         0.00000E+00
    0.00000E+00         0.00000E+00        -0.29332E+08
 
   -0.45410E+08        -0.67183E+06         0.00000E+00
   -0.67183E+06        -0.56823E+08         0.00000E+00
    0.00000E+00         0.00000E+00        -0.28821E+08
 
   -0.43466E+08        -0.48262E+06         0.00000E+00
   -0.48262E+06        -0.56472E+08         0.00000E+00
    0.00000E+00         0.00000E+00        -0.28356E+08
 
   -0.41578E+08        -0.27602E+06         0.00000E+00
   -0.27602E+06        -0.56244E+08         0.00000E+00
    0.00000E+00         0.00000E+00        -0.27928E+08
 
   -0.39685E+08        -0.45433E+05         0.00000E+00
   -0.45433E+05        -0.56157E+08         0.00000E+00
    0.00000E+00         0.00000E+00        -0.27527E+08
 
   -0.37719E+08         0.22068E+06         0.00000E+00
    0.22068E+06        -0.56232E+08         0.00000E+00
    0.00000E+00         0.00000E+00        -0.27144E+08
 
   -0.35601E+08         0.54344E+06         0.00000E+00
    0.54344E+06        -0.56501E+08         0.00000E+00
    0.00000E+00         0.00000E+00        -0.26771E+08
 
   -0.33224E+08         0.96588E+06         0.00000E+00
    0.96588E+06        -0.57013E+08         0.00000E+00
    0.00000E+00         0.00000E+00        -0.26395E+08
 
   -0.30420E+08         0.15962E+07         0.00000E+00
    0.15962E+07        -0.57859E+08         0.00000E+00
    0.00000E+00         0.00000E+00        -0.26001E+08
 
   -0.27149E+08         0.27908E+07         0.00000E+00
    0.27908E+07        -0.59158E+08         0.00000E+00
    0.00000E+00         0.00000E+00        -0.25606E+08
 
   -0.64677E+08        -0.44725E+06         0.00000E+00
   -0.44725E+06        -0.59677E+08         0.00000E+00
    0.00000E+00         0.00000E+00        -0.31671E+08
 
   -0.59168E+08        -0.50861E+06         0.00000E+00
   -0.50861E+06        -0.58861E+08         0.00000E+00
    0.00000E+00         0.00000E+00        -0.30406E+08
 
   -0.55305E+08        -0.46211E+06         0.00000E+00
   -0.46211E+06        -0.57954E+08         0.00000E+00
    0.00000E+00         0.00000E+00        -0.29451E+08
 
   -0.52231E+08        -0.40976E+06         0.00000E+00
   -0.40976E+06        -0.57111E+08         0.00000E+00
    0.00000E+00         0.00000E+00        -0.28666E+08
 
   -0.49640E+08        -0.35297E+06         0.00000E+00
   -0.35297E+06        -0.56365E+08         0.00000E+00
    0.00000E+00         0.00000E+00        -0.27997E+08
 
   -0.47362E+08        -0.29377E+06         0.00000E+00
   -0.29377E+06        -0.55729E+08         0.00000E+00
    0.00000E+00         0.00000E+00        -0.27413E+08
 
   -0.45287E+08        -0.23202E+06         0.00000E+00
   -0.23202E+06        -0.55210E+08         0.00000E+00
    0.00000E+00         0.00000E+00        -0.26892E+08
 
   -0.43333E+08        -0.16682E+06         0.00000E+00
   -0.16682E+06        -0.54816E+08         0.00000E+00
    0.00000E+00         0.00000E+00        -0.26421E+08
 
   -0.41433E+08        -0.96612E+05         0.00000E+00
   -0.96612E+05        -0.54556E+08         0.00000E+00
    0.00000E+00         0.00000E+00        -0.25987E+08
 
   -0.39520E+08        -0.18966E+05         0.00000E+00
   -0.18966E+05        -0.54443E+08         0.00000E+00
    0.00000E+00         0.00000E+00        -0.25580E+08
 
   -0.37525E+08         0.70085E+05         0.00000E+00
    0.70085E+05        -0.54496E+08         0.00000E+00
    0.00000E+00         0.00000E+00        -0.25190E+08
 
   -0.35358E+08         0.17758E+06         0.00000E+00
    0.17758E+06        -0.54745E+08         0.00000E+00
    0.00000E+00         0.00000E+00        -0.24805E+08
 
   -0.32887E+08         0.31864E+06         0.00000E+00
    0.31864E+06        -0.55241E+08         0.00000E+00
    0.00000E+00         0.00000E+00        -0.24409E+08
 
   -0.29877E+08         0.52750E+06         0.00000E+00
    0.52750E+06        -0.56087E+08         0.00000E+00
    0.00000E+00         0.00000E+00        -0.23976E+08
 
   -0.25653E+08         0.10272E+07         0.00000E+00
    0.10272E+07        -0.57567E+08         0.00000E+00
    0.00000E+00         0.00000E+00        -0.23426E+08
 
SCALARS stressS double 
LOOKUP_TABLE default
  -54572518.5746882     
  -55781720.1902104     
  -57900494.3861996     
  -60360079.4007532     
  -62701390.5052712     
  -64750331.7131902     
  -66281563.6871216     
  -67534023.7703599     
  -68620116.2746792     
  -69600249.6707774     
  -70517105.0520619     
  -71409531.5128228     
  -72323670.6103439     
  -73330064.2220953     
  -74628121.3381027     
  -56766921.1969949     
  -58011675.6560520     
  -59446565.2020093     
  -60785921.3606440     
  -62120873.7221940     
  -63518873.1509978     
  -64863985.5930551     
  -66031318.0886171     
  -67067223.1596112     
  -68010193.1221787     
  -68892858.4429838     
  -69745713.3625561     
  -70600888.2777467     
  -71501113.0825197     
  -72405377.9590564     
  -57571534.3186776     
  -58692837.5871790     
  -59455100.7090624     
  -60322621.4540006     
  -61405399.2645995     
  -62534194.7840606     
  -63638059.8719373     
  -64673287.6094997     
  -65621216.6407667     
  -66495996.6838858     
  -67315525.9009868     
  -68097578.8323605     
  -68857867.6464476     
  -69593982.5359750     
  -70282154.3675982     
  -57259965.9751530     
  -58084679.9295735     
  -58928514.0072607     
  -59769582.5203657     
  -60665448.0677459     
  -61604251.7707927     
  -62536569.9389102     
  -63431510.3680700     
  -64274087.9641981     
  -65061548.8063873     
  -65799411.6887394     
  -66493997.4742478     
  -67146582.3088662     
  -67748896.0139670     
  -68277507.4829382     
  -56910359.8868737     
  -57650993.1800828     
  -58390208.8684946     
  -59148346.5181641     
  -59926171.3511980     
  -60719901.7116497     
  -61511933.1849714     
  -62281858.8099841     
  -63016299.3503166     
  -63708719.3622594     
  -64356818.0688624     
  -64959030.7207953     
  -65510698.2061664     
  -66000745.4651679     
  -66410297.1764754     
  -56625487.0972667     
  -57248467.9641851     
  -57885115.6808636     
  -58537211.2545525     
  -59204314.5494375     
  -59879426.5030346     
  -60551872.9934083     
  -61209201.7201693     
  -61840501.9305112     
  -62437932.6274488     
  -62995792.1039663     
  -63508586.6663569     
  -63968864.7476195     
  -64365500.4220341     
  -64682917.8516460     
  -56381586.5662720     
  -56882013.0192281     
  -57408783.6195970     
  -57955709.5686596     
  -58516888.9950055     
  -59085158.2084581     
  -59651608.2763533     
  -60206752.5755929     
  -60741603.1019301     
  -61248307.9326027     
  -61719907.1183998     
  -62149374.1963405     
  -62528467.2211621     
  -62846815.6555941     
  -63091594.9952461     
  -56157986.3997481     
  -56542076.6775591     
  -56962287.2847803     
  -57407545.5100209     
  -57869140.1488306     
  -58338914.2857832     
  -58808672.6740450     
  -59270201.3054569     
  -59715606.4458319     
  -60137477.8093985     
  -60528719.7945771     
  -60882074.1131871     
  -61189527.0883827     
  -61441854.8050758     
  -61628497.3840590     
  -55939651.6235665     
  -56220023.4944185     
  -56541805.2996084     
  -56892129.0949419     
  -57260918.0640008     
  -57639577.6286363     
  -58020234.0712816     
  -58395441.8160954     
  -58758103.1258968     
  -59101412.6285299     
  -59418694.0550576     
  -59703125.1390574     
  -59947431.7033425     
  -60143670.3894433     
  -60283205.7460862     
  -55717457.4004135     
  -55908698.6507106     
  -56142534.1946750     
  -56406149.6857773     
  -56689406.8237009     
  -56983873.6970214     
  -57282160.5658000     
  -57577520.0868628     
  -57863622.5892121     
  -58134397.1979702     
  -58383871.5154870     
  -58605992.4605759     
  -58794460.0856803     
  -58942630.0145861     
  -59043535.9557038     
  -55486531.3074275     
  -55602993.3046288     
  -55759752.0031966     
  -55945263.0461819     
  -56150256.2917374     
  -56367058.4159127     
  -56589063.5152168     
  -56810359.5685752     
  -57025474.4083823     
  -57229193.8564825     
  -57416414.1624140     
  -57582015.6658201     
  -57720767.9102602     
  -57827290.2790331     
  -57896091.6394373     
  -55245154.5295199     
  -55299628.1787990     
  -55389369.1900784     
  -55504864.4062101     
  -55638365.8035021     
  -55783437.6317947     
  -55934569.9322596     
  -56086877.0251457     
  -56235874.4769543     
  -56377315.4185176     
  -56507068.3840944     
  -56621027.9215047     
  -56715060.2795634     
  -56784993.4745705     
  -56826661.3296132     
  -54993895.8825728     
  -54996863.4387047     
  -55028072.1732002     
  -55080500.2799860     
  -55148353.1579445     
  -55226784.5727464     
  -55311638.7097665     
  -55399234.8645680     
  -55486200.0473507     
  -55569344.9613874     
  -55645575.9903615     
  -55711838.3006851     
  -55765089.5421799     
  -55802306.9813982     
  -55820531.3647212     
  -54734973.7195370     
  -54694193.1460104     
  -54673314.9569035     
  -54668058.8056735     
  -54674845.0357160     
  -54690649.4010330     
  -54712854.7286280     
  -54739120.1819370     
  -54767277.6885966     
  -54795257.1481654     
  -54821038.1330808     
  -54842625.2426185     
  -54858045.5836584     
  -54865368.3931805     
  -54862747.5011624     
  -54471766.7007818     
  -54392067.0569074     
  -54323237.2791989     
  -54263840.8902327     
  -54212645.4896159     
  -54168578.8094400     
  -54130670.8321143     
  -54098000.3207835     
  -54069655.6478585     
  -54044713.1480889     
  -54022232.1172685     
  -54001263.9248020     
  -53980872.7955094     
  -53960166.7613392     
  -53938338.3889711     
  -54208425.6731241     
  -54091638.5289024     
  -53976546.4520402     
  -53864556.1424766     
  -53756818.1177966     
  -53654257.4348493     
  -53557588.9717362     
  -53467332.8331412     
  -53383837.9123287     
  -53307315.5297459     
  -53237881.0508761     
  -53175599.5224836     
  -53120531.2751343     
  -53072774.5529192     
  -53032504.0297138     
  -53949552.7643688     
  -53794530.7563623     
  -53632374.1473464     
  -53467264.0701273     
  -53302699.5999831     
  -53141580.1921479     
  -52986279.4219366     
  -52838722.4571761     
  -52700471.7404545     
  -52572819.1509566     
  -52456879.0329488     
  -52353674.9150646     
  -52264213.1361966     
  -52189538.4408659     
  -52130769.4243494     
  -53699925.7167310     
  -53502611.4923617     
  -53290109.0306890     
  -53069267.3869994     
  -52845852.5595303     
  -52624660.9777517     
  -52409640.1580507     
  -52204025.0478986     
  -52010488.9152071     
  -51831300.8352529     
  -51668478.2144827     
  -51523922.0040102     
  -51399523.6821878     
  -51297236.1619033     
  -51219105.0160704     
  -53464252.8070567     
  -53217766.2920981     
  -52949200.0824699     
  -52667956.1268179     
  -52381958.7735658     
  -52097779.8963806     
  -51820799.1888592     
  -51555402.2387233     
  -51305206.2542892     
  -51073295.7972281     
  -50862448.1426827     
  -50675328.6133732     
  -50514639.2625994     
  -50383208.9849724     
  -50284019.2531093     
  -53246948.1588654     
  -52941658.8932557     
  -52608919.7636518     
  -52260593.9405216     
  -51906647.4596662     
  -51555267.5398273     
  -51213062.1663042     
  -50885332.7663222     
  -50576394.7227742     
  -50289913.2767812     
  -50029222.3237296     
  -49797597.2115420     
  -49598457.6845340     
  -49435483.4807623     
  -49312633.3468021     
  -53051919.2043778     
  -52675462.7704387     
  -52268067.5782218     
  -51844028.5745144     
  -51415245.8884810     
  -50991320.6265983     
  -50579806.6744388     
  -50186588.0491643     
  -49816329.8754060     
  -49472948.3139018     
  -49160052.1360339     
  -48881317.3072270     
  -48640762.7492491     
  -48442901.7034545     
  -48292753.3452743     
  -52882356.8880582     
  -52419537.1755366     
  -51924579.3015622     
  -51414294.1681021     
  -50902429.7103081     
  -50399738.8146809     
  -49914324.3093457     
  -49452181.8299378     
  -49017839.9402803     
  -48615011.3567790     
  -48247194.3096640     
  -47918180.7613156     
  -47632432.2817408     
  -47395285.8610312     
  -47212959.6454130     
  -52740512.5013224     
  -52172997.8804365     
  -51574978.7631784     
  -50966049.8742607     
  -50361737.8918251     
  -49773569.7368177     
  -49209614.3469010     
  -48675307.7258893     
  -48174371.7520570     
  -47709701.8177360     
  -47284165.2212105     
  -46901279.2136442     
  -46565730.8490613     
  -46283673.4702441     
  -46062739.2958205     
  -52627425.9588332     
  -51933083.4755186     
  -51213554.3151669     
  -50491762.2618810     
  -49784904.7479792     
  -49104654.5346985     
  -48458143.4700322     
  -47849286.0854672     
  -47280097.0540410     
  -46751853.7209110     
  -46266101.1590679     
  -45825538.0264465     
  -45434747.6233799     
  -45100677.1404836     
  -44832692.7342350     
  -52542524.0761970     
  -51694104.5455695     
  -50831034.0926771     
  -49980482.2863146     
  -49160961.9123744     
  -48383096.0787673     
  -47651614.0611088     
  -46967552.9150429     
  -46330078.6684382     
  -45737870.5403536     
  -45190268.0242243     
  -44688358.6924683     
  -44236082.5211072     
  -43841056.5158710     
  -43514861.8721594     
  -52482866.7032156     
  -51445496.7019197     
  -50412304.1974879     
  -49416002.0928900     
  -48475124.1122655     
  -47596759.0726494     
  -46780843.6897989     
  -46023736.3401903     
  -45320488.7795788     
  -44666139.6593997     
  -44056726.6022829     
  -43490593.5776950     
  -42969940.1571371     
  -42502701.7644730     
  -42103245.8947146     
  -52441478.7886397     
  -51167691.2864421     
  -49932276.8379327     
  -48774209.0238401     
  -47707714.8968527     
  -46731138.4717619     
  -45835918.1846427     
  -45011869.8883060     
  -44248839.4998243     
  -43537368.2766444     
  -42869153.7233960     
  -42237866.8719830     
  -41642124.9089432     
  -41088325.8566134     
  -40594770.1047042     
  -52402080.3060241     
  -50822524.6683476     
  -49348168.3340825     
  -48020092.5216589     
  -46834385.0896366     
  -45770035.5352662     
  -44806820.1756919     
  -43926774.1526030     
  -43114124.6636685     
  -42354648.5384569     
  -41635056.2880901     
  -40942857.2356069     
  -40266889.4061513     
  -39609821.7794376     
  -38990693.2988511     
  -52322586.6178398     
  -50325047.9418718     
  -48587560.1448412     
  -47110495.2610834     
  -45828570.9396777     
  -44697540.3335469     
  -43684609.0602723     
  -42764588.8860180     
  -41916797.2478186     
  -41122898.2229827     
  -40365085.0401042     
  -39624095.3131638     
  -38877479.5827504     
  -38093223.8378712     
  -37304416.6064254     
  -52008094.5837760     
  -49478314.7500731     
  -47569973.4450571     
  -46002642.4593112     
  -44667320.9271481     
  -43501100.0607655     
  -42463014.1315457     
  -41523366.8412277     
  -40658539.3409654     
  -39847750.5997775     
  -39070388.4955998     
  -38302846.8293202     
  -37512688.0941831     
  -36646521.0083897     
  -35548501.3279679     
SCALARS 2waySource double 
LOOKUP_TABLE default
  3.308383892010950E-005
  1.788508960947922E-005
  9.592462131376853E-006
  2.753836509957198E-006
 -5.032906750836141E-007
 -8.175242038150952E-007
 -7.392331678168390E-007
 -4.186357355287682E-007
 -4.588275977136378E-008
  2.290699887557334E-007
  2.524892399986440E-007
 -1.621297045125556E-007
 -1.289381804791132E-006
 -3.578343717456265E-006
 -8.411591563030625E-006
  3.645685684275247E-005
  2.258781686824725E-005
  1.485769294679597E-005
  1.215183689455873E-005
  1.431332992220397E-005
  1.410167064740885E-005
  1.436152317615422E-005
  1.476093512331441E-005
  1.519113946935475E-005
  1.552904096176726E-005
  1.565688651637665E-005
  1.543554772910179E-005
  1.468001828895004E-005
  1.307292100830438E-005
  1.027278912542564E-005
  2.176665583443093E-005
  2.244589346563951E-005
  2.921991309283635E-005
  2.764506091468088E-005
  2.658379047400171E-005
  2.714738381678612E-005
  2.768802883898303E-005
  2.833210873135874E-005
  2.895909792002195E-005
  2.949960128881802E-005
  2.988392776858904E-005
  3.003984297741757E-005
  2.988058398008311E-005
  2.932588537712110E-005
  2.836740200613462E-005
  3.293219422476645E-005
  3.314564157604282E-005
  3.417685225938021E-005
  3.598077144925503E-005
  3.672679332126946E-005
  3.766808340204871E-005
  3.872982753041368E-005
  3.972385734578556E-005
  4.065126177355326E-005
  4.148748717239836E-005
  4.221777967179943E-005
  4.283322646031343E-005
  4.334181652946793E-005
  4.379399231182472E-005
  4.436123779827420E-005
  2.903434015217041E-005
  3.494816720280469E-005
  3.858844854729952E-005
  4.151204863137970E-005
  4.377378489407026E-005
  4.555824221664853E-005
  4.713310057940736E-005
  4.854985600013046E-005
  4.982939662122287E-005
  5.100616096362228E-005
  5.211297737323191E-005
  5.319524574769143E-005
  5.432597441394700E-005
  5.563593435908439E-005
  5.735765213626053E-005
  2.592806809401585E-005
  3.461703528371860E-005
  4.054211091368087E-005
  4.481534510400506E-005
  4.807565263869015E-005
  5.065135439045059E-005
  5.277623918110889E-005
  5.461038504097263E-005
  5.624864330832139E-005
  5.776461723670786E-005
  5.923112349860256E-005
  6.073245771238490E-005
  6.238304572696940E-005
  6.435147794919869E-005
  6.689012620481215E-005
  2.314752470522672E-005
  3.332228540772530E-005
  4.057193495283361E-005
  4.588569812004102E-005
  4.991771115040181E-005
  5.309234332182014E-005
  5.568765808301097E-005
  5.789571611414123E-005
  5.985417689656533E-005
  6.167026782272073E-005
  6.344305910548520E-005
  6.528098867812987E-005
  6.731898931292839E-005
  6.973812008687737E-005
  7.278641605708595E-005
  2.073861714564361E-005
  3.134354196238726E-005
  3.917380516386597E-005
  4.504553895795171E-005
  4.955920638173121E-005
  5.313457426463707E-005
  5.606424520763946E-005
  5.855575299129726E-005
  6.076320501368027E-005
  6.281064761823881E-005
  6.481096405584492E-005
  6.688253320869168E-005
  6.916479362967393E-005
  7.183381969802039E-005
  7.511782494079716E-005
  1.869985984142704E-005
  2.892311554421456E-005
  3.669650229131691E-005
  4.267196923750219E-005
  4.735147066335287E-005
  5.110817166279549E-005
  5.421458576502453E-005
  5.687155038670091E-005
  5.923241819929657E-005
  6.142271827090544E-005
  6.355636034494052E-005
  6.574967431741775E-005
  6.813424647967301E-005
  7.086900700140544E-005
  7.415153226128559E-005
  1.704197021714015E-005
  2.625242415483333E-005
  3.345591064584769E-005
  3.913752838173957E-005
  4.368631230622621E-005
  4.740432436461225E-005
  5.052184469946692E-005
  5.321467349557232E-005
  5.562079619076344E-005
  5.785499539381777E-005
  6.002143389723441E-005
  6.222461604536220E-005
  6.457914384794523E-005
  6.721846413440138E-005
  7.030251710181340E-005
  1.576181994088844E-005
  2.349819822206967E-005
  2.973756328203281E-005
  3.480215120791333E-005
  3.896317438589436E-005
  4.244088749531893E-005
  4.541021639580325E-005
  4.800958085709582E-005
  5.035073689925301E-005
  5.252833011217759E-005
  5.462856554591931E-005
  5.673687198750590E-005
  5.894456748008043E-005
  6.135447378038502E-005
  6.408527905118105E-005
  1.483950566418762E-005
  2.079900700165404E-005
  2.579575286313527E-005
  2.999953574790499E-005
  3.356679252100973E-005
  3.663335183554793E-005
  3.931301561415069E-005
  4.169985416217626E-005
  4.387248040353630E-005
  4.589904309977448E-005
  4.784217442374052E-005
  4.976346770734810E-005
  5.172722886910935E-005
  5.380325943767713E-005
  5.606835052813593E-005
  1.423907806515736E-005
  1.826309425081888E-005
  2.184757104766767E-005
  2.502626847513147E-005
  2.784964956477602E-005
  3.037236665281545E-005
  3.264666784946300E-005
  3.471980417575519E-005
  3.663390256719205E-005
  3.842714957089844E-005
  4.013547222908741E-005
  4.179416397327318E-005
  4.343905091984454E-005
  4.510683572390021E-005
  4.683421360124116E-005
  1.391216028805290E-005
  1.596789260786356E-005
  1.806911913940944E-005
  2.013399576730608E-005
  2.211989809434104E-005
  2.400765095826980E-005
  2.579144209088063E-005
  2.747273216350538E-005
  2.905681705976737E-005
  3.055099887689184E-005
  3.196358132279741E-005
  3.330310256571062E-005
  3.457734090079241E-005
  3.579167405190707E-005
  3.694635075228522E-005
  1.380248187522169E-005
  1.396199258991366E-005
  1.459478119276014E-005
  1.552575739228524E-005
  1.663451181735756E-005
  1.783807174245145E-005
  1.907878779782964E-005
  2.031595981574863E-005
  2.152006720384162E-005
  2.266869855870212E-005
  2.374346979959788E-005
  2.472736984340783E-005
  2.560206941766780E-005
  2.634477043020558E-005
  2.692416415278191E-005
  1.385049084456600E-005
  1.226892812656502E-005
  1.151946007985636E-005
  1.135619400376843E-005
  1.159718909969985E-005
  1.210717061034560E-005
  1.278460437521689E-005
  1.355206132803012E-005
  1.434896599553755E-005
  1.512598295408456E-005
  1.584043542750295E-005
  1.645225997788462E-005
  1.692007447749498E-005
  1.719697197904139E-005
  1.722565331389737E-005
  1.399751589076169E-005
  1.089205229426170E-005
  8.903022776210191E-006
  7.734856465618557E-006
  7.160102654348812E-006
  7.003150504582551E-006
  7.127430598801928E-006
  7.425337767567987E-006
  7.810199693590944E-006
  8.209716156282474E-006
  8.560387695802910E-006
  8.802527612953654E-006
  8.875502538826678E-006
  8.712874374549771E-006
  8.237123112404412E-006
  1.418920723424742E-005
  9.819818397255972E-006
  6.776094021225289E-006
  4.731647317421173E-006
  3.428440471315019E-006
  2.662197611402850E-006
  2.270402819637183E-006
  2.122393633309074E-006
  2.111091694235716E-006
  2.145968934940886E-006
  2.146904058490289E-006
  2.038627876787496E-006
  1.745485221638598E-006
  1.186258750040433E-006
  2.688104262390495E-007
  1.437814717729765E-005
  9.030936882710063E-006
  5.146424545268086E-006
  2.383473202433360E-006
  4.667134918737377E-007
 -8.259587079250814E-007
 -1.674159740947271E-006
 -2.224342394838626E-006
 -2.597927569308071E-006
 -2.898471277857822E-006
 -3.218068609563359E-006
 -3.643184142001800E-006
 -4.260094937224180E-006
 -5.160128113318163E-006
 -6.444863114104465E-006
  1.452563061657272E-005
  8.499056531703842E-006
  4.005246855491768E-006
  7.013595543639980E-007
 -1.694037468474500E-006
 -3.411206461020213E-006
 -4.638567399041472E-006
 -5.531220337327830E-006
 -6.218736182766335E-006
 -6.812260781950075E-006
 -7.410980264993357E-006
 -8.108023822826632E-006
 -8.995911636385606E-006
 -1.017167070148806E-005
 -1.174172829312708E-005
  1.460268280346382E-005
  8.196793725173682E-006
  3.333255409987910E-006
 -3.224863666500874E-007
 -3.048779478319826E-006
 -5.075688811427619E-006
 -6.592819005885716E-006
 -7.757012514170473E-006
 -8.699785117303687E-006
 -9.534324774455722E-006
 -1.036193108553699E-005
 -1.127786499828558E-005
 -1.237666240535312E-005
 -1.375700497870669E-005
 -1.552622571111240E-005
  1.459042061836334E-005
  8.099101979064606E-006
  3.106090397961839E-006
 -7.079127459088690E-007
 -3.611162097014438E-006
 -5.826454234824254E-006
 -7.537564764082333E-006
 -8.896345803225374E-006
 -1.003002069284715E-005
 -1.104819853621591E-005
 -1.204929644673100E-005
 -1.312626411500802E-005
 -1.437165646087458E-005
 -1.588217466529295E-005
 -1.776276177820325E-005
  1.447989020560568E-005
  8.186159286862100E-006
  3.299483636668103E-006
 -4.803136193635540E-007
 -3.406465043202619E-006
 -5.688451700459343E-006
 -7.497464096317253E-006
 -8.973517830184853E-006
 -1.023312302241844E-005
 -1.137658351018359E-005
 -1.249445835508208E-005
 -1.367309054640137E-005
 -1.499933391514066E-005
 -1.656467736091090E-005
 -1.846896036773135E-005
  1.427155473633549E-005
  8.446220765262902E-006
  3.894617636423389E-006
  3.360304715725289E-007
 -2.464721242136531E-006
 -4.698074997551094E-006
 -6.515337653524635E-006
 -8.037183021842406E-006
 -9.362578763416462E-006
 -1.057666659510953E-005
 -1.175722505686219E-005
 -1.297989252959173E-005
 -1.432238135019078E-005
 -1.586810744675174E-005
 -1.770952720619111E-005
  1.397469647062549E-005
  8.879440862140037E-006
  4.884935354767794E-006
  1.725633972733498E-006
 -8.137916565402638E-007
 -2.897524838739866E-006
 -4.647557098999276E-006
 -6.156332430654728E-006
 -7.497961739843111E-006
 -8.736569395241581E-006
 -9.932387743904781E-006
 -1.114639144954495E-005
 -1.244403073540910E-005
 -1.389798355812805E-005
 -1.559132398919784E-005
  1.360738025335507E-005
  9.505007920333626E-006
  6.287126782578132E-006
  3.691915702038955E-006
  1.527510285824553E-006
 -3.307438548063603E-007
 -1.961373785753521E-006
 -3.417913639494355E-006
 -4.742535584491461E-006
 -5.973081007218868E-006
 -7.147616721405729E-006
 -8.308658314141104E-006
 -9.506003581286587E-006
 -1.079950526932151E-005
 -1.226018012448633E-005
  1.319837010885901E-005
  1.037856404193977E-005
  8.162021549169307E-006
  6.271001506834687E-006
  4.554423898322160E-006
  2.956894454299593E-006
  1.464971374318649E-006
  7.376339629818125E-008
 -1.221897773352876E-006
 -2.430104281017695E-006
 -3.563000548704393E-006
 -4.638984797323233E-006
 -5.689636504802649E-006
 -6.757547417532765E-006
 -7.900842100722675E-006
  1.280173808128255E-005
  1.163951037106778E-005
  1.065753496781515E-005
  9.545203500145287E-006
  8.270589120772055E-006
  6.912848181025936E-006
  5.538737289942416E-006
  4.196157390360105E-006
  2.917173227108256E-006
  1.723420680438832E-006
  6.303413608366532E-007
 -3.512076496943383E-007
 -1.218017801559423E-006
 -2.005443463028820E-006
 -2.740051815980553E-006
  1.255444691529288E-005
  1.368003365559494E-005
  1.407264284144248E-005
  1.361151935996608E-005
  1.266733287785062E-005
  1.146437701648872E-005
  1.014664551510686E-005
  8.807071296854102E-006
  7.508689370105725E-006
  6.298177285226028E-006
  5.215683597521607E-006
  4.302783040502081E-006
  3.607584898296200E-006
  3.183492739094530E-006
  2.917453650042768E-006
  1.343218299137362E-005
  1.752990095058610E-005
  1.866540656184325E-005
  1.851515891805023E-005
  1.768798584528880E-005
  1.650329979777423E-005
  1.514879147913902E-005
  1.374397339349344E-005
  1.237085552347345E-005
  1.109220857644373E-005
  9.964795516508988E-006
  9.051921680223833E-006
  8.439545803687492E-006
  8.267079940716946E-006
  8.749618686125586E-006
SCALARS poroP double 
LOOKUP_TABLE default
  5.211636167642823E-005
  3.483880345299723E-005
  2.036208087177232E-005
  8.825101505860613E-006
  1.167465726257099E-006
  0.000000000000000E+000
  0.000000000000000E+000
  0.000000000000000E+000
  0.000000000000000E+000
  0.000000000000000E+000
  0.000000000000000E+000
  0.000000000000000E+000
  0.000000000000000E+000
  0.000000000000000E+000
  0.000000000000000E+000
  2.198093810015423E-005
  1.200569966688451E-005
  3.969065489190766E-006
  4.265204093064772E-008
  0.000000000000000E+000
  0.000000000000000E+000
  0.000000000000000E+000
  0.000000000000000E+000
  0.000000000000000E+000
  0.000000000000000E+000
  0.000000000000000E+000
  0.000000000000000E+000
  0.000000000000000E+000
  0.000000000000000E+000
  0.000000000000000E+000
  3.287658242841369E-006
  0.000000000000000E+000
  0.000000000000000E+000
  0.000000000000000E+000
  0.000000000000000E+000
  0.000000000000000E+000
  0.000000000000000E+000
  0.000000000000000E+000
  0.000000000000000E+000
  0.000000000000000E+000
  0.000000000000000E+000
  0.000000000000000E+000
  0.000000000000000E+000
  0.000000000000000E+000
  0.000000000000000E+000
  0.000000000000000E+000
  0.000000000000000E+000
  0.000000000000000E+000
  0.000000000000000E+000
  0.000000000000000E+000
  0.000000000000000E+000
  0.000000000000000E+000
  0.000000000000000E+000
  0.000000000000000E+000
  0.000000000000000E+000
  0.000000000000000E+000
  0.000000000000000E+000
  0.000000000000000E+000
  0.000000000000000E+000
  0.000000000000000E+000
  0.000000000000000E+000
  0.000000000000000E+000
  0.000000000000000E+000
  0.000000000000000E+000
  0.000000000000000E+000
  0.000000000000000E+000
  0.000000000000000E+000
  0.000000000000000E+000
  0.000000000000000E+000
  0.000000000000000E+000
  0.000000000000000E+000
  0.000000000000000E+000
  0.000000000000000E+000
  0.000000000000000E+000
  0.000000000000000E+000
  0.000000000000000E+000
  0.000000000000000E+000
  0.000000000000000E+000
  0.000000000000000E+000
  0.000000000000000E+000
  0.000000000000000E+000
  0.000000000000000E+000
  0.000000000000000E+000
  0.000000000000000E+000
  0.000000000000000E+000
  0.000000000000000E+000
  0.000000000000000E+000
  0.000000000000000E+000
  0.000000000000000E+000
  0.000000000000000E+000
  0.000000000000000E+000
  0.000000000000000E+000
  0.000000000000000E+000
  0.000000000000000E+000
  0.000000000000000E+000
  0.000000000000000E+000
  0.000000000000000E+000
  0.000000000000000E+000
  0.000000000000000E+000
  0.000000000000000E+000
  0.000000000000000E+000
  0.000000000000000E+000
  0.000000000000000E+000
  0.000000000000000E+000
  0.000000000000000E+000
  0.000000000000000E+000
  0.000000000000000E+000
  0.000000000000000E+000
  0.000000000000000E+000
  0.000000000000000E+000
  0.000000000000000E+000
  0.000000000000000E+000
  0.000000000000000E+000
  0.000000000000000E+000
  0.000000000000000E+000
  0.000000000000000E+000
  0.000000000000000E+000
  0.000000000000000E+000
  0.000000000000000E+000
  0.000000000000000E+000
  0.000000000000000E+000
  0.000000000000000E+000
  0.000000000000000E+000
  0.000000000000000E+000
  0.000000000000000E+000
  0.000000000000000E+000
  0.000000000000000E+000
  0.000000000000000E+000
  0.000000000000000E+000
  0.000000000000000E+000
  0.000000000000000E+000
  0.000000000000000E+000
  0.000000000000000E+000
  0.000000000000000E+000
  0.000000000000000E+000
  0.000000000000000E+000
  0.000000000000000E+000
  0.000000000000000E+000
  0.000000000000000E+000
  0.000000000000000E+000
  0.000000000000000E+000
  0.000000000000000E+000
  0.000000000000000E+000
  0.000000000000000E+000
  0.000000000000000E+000
  0.000000000000000E+000
  0.000000000000000E+000
  0.000000000000000E+000
  0.000000000000000E+000
  0.000000000000000E+000
  0.000000000000000E+000
  0.000000000000000E+000
  0.000000000000000E+000
  0.000000000000000E+000
  0.000000000000000E+000
  0.000000000000000E+000
  0.000000000000000E+000
  0.000000000000000E+000
  0.000000000000000E+000
  0.000000000000000E+000
  0.000000000000000E+000
  0.000000000000000E+000
  0.000000000000000E+000
  0.000000000000000E+000
  0.000000000000000E+000
  0.000000000000000E+000
  0.000000000000000E+000
  0.000000000000000E+000
  0.000000000000000E+000
  0.000000000000000E+000
  0.000000000000000E+000
  0.000000000000000E+000
  0.000000000000000E+000
  0.000000000000000E+000
  0.000000000000000E+000
  0.000000000000000E+000
  0.000000000000000E+000
  0.000000000000000E+000
  0.000000000000000E+000
  0.000000000000000E+000
  0.000000000000000E+000
  0.000000000000000E+000
  0.000000000000000E+000
  0.000000000000000E+000
  0.000000000000000E+000
  0.000000000000000E+000
  0.000000000000000E+000
  0.000000000000000E+000
  0.000000000000000E+000
  0.000000000000000E+000
  0.000000000000000E+000
  0.000000000000000E+000
  0.000000000000000E+000
  0.000000000000000E+000
  0.000000000000000E+000
  0.000000000000000E+000
  0.000000000000000E+000
  0.000000000000000E+000
  0.000000000000000E+000
  0.000000000000000E+000
  0.000000000000000E+000
  0.000000000000000E+000
  0.000000000000000E+000
  0.000000000000000E+000
  0.000000000000000E+000
  0.000000000000000E+000
  0.000000000000000E+000
  0.000000000000000E+000
  0.000000000000000E+000
  0.000000000000000E+000
  0.000000000000000E+000
  0.000000000000000E+000
  0.000000000000000E+000
  0.000000000000000E+000
  0.000000000000000E+000
  0.000000000000000E+000
  0.000000000000000E+000
  0.000000000000000E+000
  0.000000000000000E+000
  0.000000000000000E+000
  0.000000000000000E+000
  0.000000000000000E+000
  0.000000000000000E+000
  0.000000000000000E+000
  0.000000000000000E+000
  0.000000000000000E+000
  0.000000000000000E+000
  0.000000000000000E+000
  0.000000000000000E+000
  0.000000000000000E+000
  0.000000000000000E+000
  0.000000000000000E+000
  0.000000000000000E+000
  0.000000000000000E+000
  0.000000000000000E+000
  0.000000000000000E+000
  0.000000000000000E+000
  0.000000000000000E+000
  0.000000000000000E+000
  0.000000000000000E+000
  0.000000000000000E+000
  0.000000000000000E+000
  0.000000000000000E+000
  0.000000000000000E+000
  0.000000000000000E+000
  0.000000000000000E+000
  0.000000000000000E+000
  0.000000000000000E+000
  0.000000000000000E+000
  0.000000000000000E+000
  0.000000000000000E+000
  0.000000000000000E+000
  0.000000000000000E+000
  0.000000000000000E+000
  0.000000000000000E+000
  0.000000000000000E+000
  0.000000000000000E+000
  0.000000000000000E+000
  0.000000000000000E+000
  0.000000000000000E+000
  0.000000000000000E+000
  0.000000000000000E+000
  0.000000000000000E+000
  0.000000000000000E+000
  0.000000000000000E+000
  0.000000000000000E+000
  0.000000000000000E+000
  0.000000000000000E+000
  0.000000000000000E+000
  0.000000000000000E+000
  0.000000000000000E+000
  0.000000000000000E+000
  0.000000000000000E+000
  0.000000000000000E+000
  0.000000000000000E+000
  0.000000000000000E+000
  0.000000000000000E+000
  0.000000000000000E+000
  0.000000000000000E+000
  0.000000000000000E+000
  0.000000000000000E+000
  0.000000000000000E+000
  0.000000000000000E+000
  0.000000000000000E+000
  0.000000000000000E+000
  0.000000000000000E+000
  0.000000000000000E+000
  0.000000000000000E+000
  0.000000000000000E+000
  0.000000000000000E+000
  0.000000000000000E+000
  0.000000000000000E+000
  0.000000000000000E+000
  0.000000000000000E+000
  0.000000000000000E+000
  0.000000000000000E+000
  0.000000000000000E+000
  0.000000000000000E+000
  0.000000000000000E+000
  0.000000000000000E+000
  0.000000000000000E+000
  0.000000000000000E+000
  0.000000000000000E+000
  0.000000000000000E+000
  0.000000000000000E+000
  0.000000000000000E+000
  0.000000000000000E+000
  0.000000000000000E+000
  0.000000000000000E+000
  0.000000000000000E+000
  0.000000000000000E+000
  0.000000000000000E+000
  0.000000000000000E+000
  0.000000000000000E+000
  0.000000000000000E+000
  0.000000000000000E+000
  0.000000000000000E+000
  0.000000000000000E+000
  0.000000000000000E+000
  0.000000000000000E+000
  0.000000000000000E+000
  0.000000000000000E+000
  0.000000000000000E+000
  0.000000000000000E+000
  0.000000000000000E+000
  0.000000000000000E+000
  0.000000000000000E+000
  0.000000000000000E+000
  0.000000000000000E+000
  0.000000000000000E+000
  0.000000000000000E+000
  0.000000000000000E+000
  0.000000000000000E+000
  0.000000000000000E+000
  0.000000000000000E+000
  0.000000000000000E+000
  0.000000000000000E+000
  0.000000000000000E+000
  0.000000000000000E+000
  0.000000000000000E+000
  0.000000000000000E+000
  0.000000000000000E+000
  0.000000000000000E+000
  0.000000000000000E+000
  0.000000000000000E+000
  0.000000000000000E+000
  0.000000000000000E+000
  0.000000000000000E+000
  0.000000000000000E+000
  0.000000000000000E+000
  0.000000000000000E+000
  0.000000000000000E+000
  0.000000000000000E+000
  0.000000000000000E+000
  0.000000000000000E+000
  0.000000000000000E+000
  0.000000000000000E+000
  0.000000000000000E+000
  0.000000000000000E+000
  0.000000000000000E+000
  0.000000000000000E+000
  0.000000000000000E+000
  0.000000000000000E+000
  0.000000000000000E+000
  0.000000000000000E+000
  0.000000000000000E+000
  0.000000000000000E+000
  0.000000000000000E+000
  0.000000000000000E+000
  0.000000000000000E+000
  0.000000000000000E+000
  0.000000000000000E+000
  0.000000000000000E+000
  0.000000000000000E+000
  0.000000000000000E+000
  0.000000000000000E+000
  0.000000000000000E+000
  0.000000000000000E+000
  0.000000000000000E+000
  0.000000000000000E+000
  0.000000000000000E+000
  0.000000000000000E+000
  0.000000000000000E+000
  0.000000000000000E+000
  0.000000000000000E+000
  0.000000000000000E+000
  0.000000000000000E+000
  0.000000000000000E+000
  0.000000000000000E+000
  0.000000000000000E+000
  0.000000000000000E+000
  0.000000000000000E+000
  0.000000000000000E+000
  0.000000000000000E+000
  0.000000000000000E+000
  0.000000000000000E+000
  0.000000000000000E+000
  0.000000000000000E+000
  0.000000000000000E+000
  0.000000000000000E+000
  0.000000000000000E+000
  0.000000000000000E+000
  0.000000000000000E+000
  0.000000000000000E+000
  0.000000000000000E+000
  0.000000000000000E+000
  0.000000000000000E+000
  0.000000000000000E+000
  0.000000000000000E+000
  0.000000000000000E+000
  0.000000000000000E+000
  0.000000000000000E+000
  0.000000000000000E+000
  0.000000000000000E+000
  0.000000000000000E+000
  0.000000000000000E+000
  0.000000000000000E+000
  0.000000000000000E+000
  0.000000000000000E+000
  0.000000000000000E+000
  0.000000000000000E+000
  0.000000000000000E+000
  0.000000000000000E+000
  0.000000000000000E+000
  0.000000000000000E+000
  0.000000000000000E+000
  0.000000000000000E+000
  0.000000000000000E+000
  0.000000000000000E+000
  0.000000000000000E+000
  0.000000000000000E+000
  0.000000000000000E+000
  0.000000000000000E+000
  0.000000000000000E+000
  0.000000000000000E+000
  0.000000000000000E+000
  0.000000000000000E+000
  0.000000000000000E+000
  0.000000000000000E+000
  0.000000000000000E+000
  0.000000000000000E+000
  0.000000000000000E+000
  0.000000000000000E+000
  0.000000000000000E+000
  0.000000000000000E+000
  0.000000000000000E+000
  0.000000000000000E+000
  0.000000000000000E+000
  0.000000000000000E+000
  0.000000000000000E+000
SCALARS elementIsPlast double 
LOOKUP_TABLE default
  0.000000000000000E+000
  0.000000000000000E+000
  0.000000000000000E+000
  0.000000000000000E+000
   1.00000000000000     
  0.000000000000000E+000
  0.000000000000000E+000
  0.000000000000000E+000
  0.000000000000000E+000
  0.000000000000000E+000
  0.000000000000000E+000
  0.000000000000000E+000
  0.000000000000000E+000
  0.000000000000000E+000
  0.000000000000000E+000
   1.00000000000000     
   1.00000000000000     
   1.00000000000000     
   1.00000000000000     
  0.000000000000000E+000
  0.000000000000000E+000
  0.000000000000000E+000
  0.000000000000000E+000
  0.000000000000000E+000
  0.000000000000000E+000
  0.000000000000000E+000
  0.000000000000000E+000
  0.000000000000000E+000
  0.000000000000000E+000
  0.000000000000000E+000
   1.00000000000000     
  0.000000000000000E+000
  0.000000000000000E+000
  0.000000000000000E+000
  0.000000000000000E+000
  0.000000000000000E+000
  0.000000000000000E+000
  0.000000000000000E+000
  0.000000000000000E+000
  0.000000000000000E+000
  0.000000000000000E+000
  0.000000000000000E+000
  0.000000000000000E+000
  0.000000000000000E+000
  0.000000000000000E+000
  0.000000000000000E+000
  0.000000000000000E+000
  0.000000000000000E+000
  0.000000000000000E+000
  0.000000000000000E+000
  0.000000000000000E+000
  0.000000000000000E+000
  0.000000000000000E+000
  0.000000000000000E+000
  0.000000000000000E+000
  0.000000000000000E+000
  0.000000000000000E+000
  0.000000000000000E+000
  0.000000000000000E+000
  0.000000000000000E+000
  0.000000000000000E+000
  0.000000000000000E+000
  0.000000000000000E+000
  0.000000000000000E+000
  0.000000000000000E+000
  0.000000000000000E+000
  0.000000000000000E+000
  0.000000000000000E+000
  0.000000000000000E+000
  0.000000000000000E+000
  0.000000000000000E+000
  0.000000000000000E+000
  0.000000000000000E+000
  0.000000000000000E+000
  0.000000000000000E+000
  0.000000000000000E+000
  0.000000000000000E+000
  0.000000000000000E+000
  0.000000000000000E+000
  0.000000000000000E+000
  0.000000000000000E+000
  0.000000000000000E+000
  0.000000000000000E+000
  0.000000000000000E+000
  0.000000000000000E+000
  0.000000000000000E+000
  0.000000000000000E+000
  0.000000000000000E+000
  0.000000000000000E+000
  0.000000000000000E+000
  0.000000000000000E+000
  0.000000000000000E+000
  0.000000000000000E+000
  0.000000000000000E+000
  0.000000000000000E+000
  0.000000000000000E+000
  0.000000000000000E+000
  0.000000000000000E+000
  0.000000000000000E+000
  0.000000000000000E+000
  0.000000000000000E+000
  0.000000000000000E+000
  0.000000000000000E+000
  0.000000000000000E+000
  0.000000000000000E+000
  0.000000000000000E+000
  0.000000000000000E+000
  0.000000000000000E+000
  0.000000000000000E+000
  0.000000000000000E+000
  0.000000000000000E+000
  0.000000000000000E+000
  0.000000000000000E+000
  0.000000000000000E+000
  0.000000000000000E+000
  0.000000000000000E+000
  0.000000000000000E+000
  0.000000000000000E+000
  0.000000000000000E+000
  0.000000000000000E+000
  0.000000000000000E+000
  0.000000000000000E+000
  0.000000000000000E+000
  0.000000000000000E+000
  0.000000000000000E+000
  0.000000000000000E+000
  0.000000000000000E+000
  0.000000000000000E+000
  0.000000000000000E+000
  0.000000000000000E+000
  0.000000000000000E+000
  0.000000000000000E+000
  0.000000000000000E+000
  0.000000000000000E+000
  0.000000000000000E+000
  0.000000000000000E+000
  0.000000000000000E+000
  0.000000000000000E+000
  0.000000000000000E+000
  0.000000000000000E+000
  0.000000000000000E+000
  0.000000000000000E+000
  0.000000000000000E+000
  0.000000000000000E+000
  0.000000000000000E+000
  0.000000000000000E+000
  0.000000000000000E+000
  0.000000000000000E+000
  0.000000000000000E+000
  0.000000000000000E+000
  0.000000000000000E+000
  0.000000000000000E+000
  0.000000000000000E+000
  0.000000000000000E+000
  0.000000000000000E+000
  0.000000000000000E+000
  0.000000000000000E+000
  0.000000000000000E+000
  0.000000000000000E+000
  0.000000000000000E+000
  0.000000000000000E+000
  0.000000000000000E+000
  0.000000000000000E+000
  0.000000000000000E+000
  0.000000000000000E+000
  0.000000000000000E+000
  0.000000000000000E+000
  0.000000000000000E+000
  0.000000000000000E+000
  0.000000000000000E+000
  0.000000000000000E+000
  0.000000000000000E+000
  0.000000000000000E+000
  0.000000000000000E+000
  0.000000000000000E+000
  0.000000000000000E+000
  0.000000000000000E+000
  0.000000000000000E+000
  0.000000000000000E+000
  0.000000000000000E+000
  0.000000000000000E+000
  0.000000000000000E+000
  0.000000000000000E+000
  0.000000000000000E+000
  0.000000000000000E+000
  0.000000000000000E+000
  0.000000000000000E+000
  0.000000000000000E+000
  0.000000000000000E+000
  0.000000000000000E+000
  0.000000000000000E+000
  0.000000000000000E+000
  0.000000000000000E+000
  0.000000000000000E+000
  0.000000000000000E+000
  0.000000000000000E+000
  0.000000000000000E+000
  0.000000000000000E+000
  0.000000000000000E+000
  0.000000000000000E+000
  0.000000000000000E+000
  0.000000000000000E+000
  0.000000000000000E+000
  0.000000000000000E+000
  0.000000000000000E+000
  0.000000000000000E+000
  0.000000000000000E+000
  0.000000000000000E+000
  0.000000000000000E+000
  0.000000000000000E+000
  0.000000000000000E+000
  0.000000000000000E+000
  0.000000000000000E+000
  0.000000000000000E+000
  0.000000000000000E+000
  0.000000000000000E+000
  0.000000000000000E+000
  0.000000000000000E+000
  0.000000000000000E+000
  0.000000000000000E+000
  0.000000000000000E+000
  0.000000000000000E+000
  0.000000000000000E+000
  0.000000000000000E+000
  0.000000000000000E+000
  0.000000000000000E+000
  0.000000000000000E+000
  0.000000000000000E+000
  0.000000000000000E+000
  0.000000000000000E+000
  0.000000000000000E+000
  0.000000000000000E+000
  0.000000000000000E+000
  0.000000000000000E+000
  0.000000000000000E+000
  0.000000000000000E+000
  0.000000000000000E+000
  0.000000000000000E+000
  0.000000000000000E+000
  0.000000000000000E+000
  0.000000000000000E+000
  0.000000000000000E+000
  0.000000000000000E+000
  0.000000000000000E+000
  0.000000000000000E+000
  0.000000000000000E+000
  0.000000000000000E+000
  0.000000000000000E+000
  0.000000000000000E+000
  0.000000000000000E+000
  0.000000000000000E+000
  0.000000000000000E+000
  0.000000000000000E+000
  0.000000000000000E+000
  0.000000000000000E+000
  0.000000000000000E+000
  0.000000000000000E+000
  0.000000000000000E+000
  0.000000000000000E+000
  0.000000000000000E+000
  0.000000000000000E+000
  0.000000000000000E+000
  0.000000000000000E+000
  0.000000000000000E+000
  0.000000000000000E+000
  0.000000000000000E+000
  0.000000000000000E+000
  0.000000000000000E+000
  0.000000000000000E+000
  0.000000000000000E+000
  0.000000000000000E+000
  0.000000000000000E+000
  0.000000000000000E+000
  0.000000000000000E+000
  0.000000000000000E+000
  0.000000000000000E+000
  0.000000000000000E+000
  0.000000000000000E+000
  0.000000000000000E+000
  0.000000000000000E+000
  0.000000000000000E+000
  0.000000000000000E+000
  0.000000000000000E+000
  0.000000000000000E+000
  0.000000000000000E+000
  0.000000000000000E+000
  0.000000000000000E+000
  0.000000000000000E+000
  0.000000000000000E+000
  0.000000000000000E+000
  0.000000000000000E+000
  0.000000000000000E+000
  0.000000000000000E+000
  0.000000000000000E+000
  0.000000000000000E+000
  0.000000000000000E+000
  0.000000000000000E+000
  0.000000000000000E+000
  0.000000000000000E+000
  0.000000000000000E+000
  0.000000000000000E+000
  0.000000000000000E+000
  0.000000000000000E+000
  0.000000000000000E+000
  0.000000000000000E+000
  0.000000000000000E+000
  0.000000000000000E+000
  0.000000000000000E+000
  0.000000000000000E+000
  0.000000000000000E+000
  0.000000000000000E+000
  0.000000000000000E+000
  0.000000000000000E+000
  0.000000000000000E+000
  0.000000000000000E+000
  0.000000000000000E+000
  0.000000000000000E+000
  0.000000000000000E+000
  0.000000000000000E+000
  0.000000000000000E+000
  0.000000000000000E+000
  0.000000000000000E+000
  0.000000000000000E+000
  0.000000000000000E+000
  0.000000000000000E+000
  0.000000000000000E+000
  0.000000000000000E+000
  0.000000000000000E+000
  0.000000000000000E+000
  0.000000000000000E+000
  0.000000000000000E+000
  0.000000000000000E+000
  0.000000000000000E+000
  0.000000000000000E+000
  0.000000000000000E+000
  0.000000000000000E+000
  0.000000000000000E+000
  0.000000000000000E+000
  0.000000000000000E+000
  0.000000000000000E+000
  0.000000000000000E+000
  0.000000000000000E+000
  0.000000000000000E+000
  0.000000000000000E+000
  0.000000000000000E+000
  0.000000000000000E+000
  0.000000000000000E+000
  0.000000000000000E+000
  0.000000000000000E+000
  0.000000000000000E+000
  0.000000000000000E+000
  0.000000000000000E+000
  0.000000000000000E+000
  0.000000000000000E+000
  0.000000000000000E+000
  0.000000000000000E+000
  0.000000000000000E+000
  0.000000000000000E+000
  0.000000000000000E+000
  0.000000000000000E+000
  0.000000000000000E+000
  0.000000000000000E+000
  0.000000000000000E+000
  0.000000000000000E+000
  0.000000000000000E+000
  0.000000000000000E+000
  0.000000000000000E+000
  0.000000000000000E+000
  0.000000000000000E+000
  0.000000000000000E+000
  0.000000000000000E+000
  0.000000000000000E+000
  0.000000000000000E+000
  0.000000000000000E+000
  0.000000000000000E+000
  0.000000000000000E+000
  0.000000000000000E+000
  0.000000000000000E+000
  0.000000000000000E+000
  0.000000000000000E+000
  0.000000000000000E+000
  0.000000000000000E+000
  0.000000000000000E+000
  0.000000000000000E+000
  0.000000000000000E+000
  0.000000000000000E+000
  0.000000000000000E+000
  0.000000000000000E+000
  0.000000000000000E+000
  0.000000000000000E+000
  0.000000000000000E+000
  0.000000000000000E+000
  0.000000000000000E+000
  0.000000000000000E+000
  0.000000000000000E+000
  0.000000000000000E+000
  0.000000000000000E+000
  0.000000000000000E+000
  0.000000000000000E+000
  0.000000000000000E+000
  0.000000000000000E+000
  0.000000000000000E+000
  0.000000000000000E+000
  0.000000000000000E+000
  0.000000000000000E+000
  0.000000000000000E+000
  0.000000000000000E+000
  0.000000000000000E+000
  0.000000000000000E+000
  0.000000000000000E+000
  0.000000000000000E+000
  0.000000000000000E+000
  0.000000000000000E+000
  0.000000000000000E+000
  0.000000000000000E+000
  0.000000000000000E+000
  0.000000000000000E+000
  0.000000000000000E+000
  0.000000000000000E+000
  0.000000000000000E+000
  0.000000000000000E+000
  0.000000000000000E+000
  0.000000000000000E+000
  0.000000000000000E+000
  0.000000000000000E+000
  0.000000000000000E+000
  0.000000000000000E+000
  0.000000000000000E+000
  0.000000000000000E+000
  0.000000000000000E+000
  0.000000000000000E+000
  0.000000000000000E+000
  0.000000000000000E+000
  0.000000000000000E+000
  0.000000000000000E+000
  0.000000000000000E+000
  0.000000000000000E+000
  0.000000000000000E+000
  0.000000000000000E+000
  0.000000000000000E+000
  0.000000000000000E+000
  0.000000000000000E+000
  0.000000000000000E+000
  0.000000000000000E+000
  0.000000000000000E+000
  0.000000000000000E+000
  0.000000000000000E+000
  0.000000000000000E+000
  0.000000000000000E+000
  0.000000000000000E+000
SCALARS poroL double 
LOOKUP_TABLE default
  0.156311802580899     
  0.156285217917597     
  0.156254441764100     
  0.156223990244067     
  0.156198332398984     
  0.156181416542058     
  0.156169652242879     
  0.156160032937110     
  0.156151693022695     
  0.156144167032138     
  0.156137125935972     
  0.156130270213054     
  0.156123244287108     
  0.156115505059216     
  0.156105519002929     
  0.156239172730097     
  0.156219621792600     
  0.156200557542399     
  0.156186352141325     
  0.156176074446244     
  0.156165360553722     
  0.156155057048487     
  0.156146122099284     
  0.156138196853502     
  0.156130983219551     
  0.156124228386390     
  0.156117696088095     
  0.156111137637955     
  0.156104223353114     
  0.156097269666197     
  0.156188891033953     
  0.156176998635522     
  0.156171171847263     
  0.156164549361055     
  0.156156282103347     
  0.156147667854880     
  0.156139248837147     
  0.156131358100344     
  0.156124136348399     
  0.156117472197942     
  0.156111225669302     
  0.156105257904243     
  0.156099446142922     
  0.156093807624458     
  0.156088525308424     
  0.156163010134469     
  0.156156702507395     
  0.156150272824201     
  0.156143880861827     
  0.156137078723125     
  0.156129953139816     
  0.156122880008406     
  0.156116093409137     
  0.156109705620566     
  0.156103735225109     
  0.156098137408603     
  0.156092861312114     
  0.156087894963013     
  0.156083299934205     
  0.156079254355858     
  0.156141248399507     
  0.156135598518795     
  0.156129992982272     
  0.156124262640706     
  0.156118392676278     
  0.156112406070321     
  0.156106433612134     
  0.156100628676649     
  0.156095091339479     
  0.156089869495456     
  0.156084978672222     
  0.156080428713274     
  0.156076253012926     
  0.156072533736707     
  0.156069411806445     
  0.156119625895662     
  0.156114891602344     
  0.156110090846767     
  0.156105193872775     
  0.156100193164637     
  0.156095135239596     
  0.156090097254407     
  0.156085171544824     
  0.156080439536160     
  0.156075959556599     
  0.156071773617684     
  0.156067921910967     
  0.156064459063420     
  0.156061466784323     
  0.156059058969949     
  0.156098405778531     
  0.156094620448236     
  0.156090674125703     
  0.156086595832017     
  0.156082418758600     
  0.156078190097281     
  0.156073973349427     
  0.156069838321571     
  0.156065852100960     
  0.156062073581639     
  0.156058554854999     
  0.156055348112243     
  0.156052513957895     
  0.156050127767451     
  0.156048281288561     
  0.156077790256593     
  0.156074900989182     
  0.156071775616630     
  0.156068479730888     
  0.156065067620615     
  0.156061594036777     
  0.156058117216797     
  0.156054697609793     
  0.156051394420636     
  0.156048263687017     
  0.156045359007966     
  0.156042734672413     
  0.156040449633759     
  0.156038570316430     
  0.156037170725736     
  0.156057903016014     
  0.156055807786870     
  0.156053432781511     
  0.156050857953498     
  0.156048148514347     
  0.156045363041891     
  0.156042557837369     
  0.156039788034571     
  0.156037107332317     
  0.156034567709080     
  0.156032220067875     
  0.156030115778656     
  0.156028308437843     
  0.156026854877279     
  0.156025814574772     
  0.156038790161974     
  0.156037372343815     
  0.156035659773983     
  0.156033733897793     
  0.156031661711849     
  0.156029501551944     
  0.156027306851262     
  0.156025128140594     
  0.156023013917564     
  0.156021011163270     
  0.156019165966725     
  0.156017524339486     
  0.156016132931420     
  0.156015039185353     
  0.156014290515110     
  0.156020437353962     
  0.156019582954045     
  0.156018443159854     
  0.156017092617074     
  0.156015593712175     
  0.156014000449160     
  0.156012361386604     
  0.156010721567862     
  0.156009123695654     
  0.156007608877267     
  0.156006217191822     
  0.156004988142975     
  0.156003960887001     
  0.156003174029081     
  0.156002664798032     
  0.156002783565934     
  0.156002391554940     
  0.156001742650955     
  0.156000899595954     
  0.155999915703097     
  0.155998837353734     
  0.155997706083121     
  0.155996560128323     
  0.155995435483469     
  0.155994366592071     
  0.155993386790573     
  0.155992528547166     
  0.155991823458751     
  0.155991301922628     
  0.155990992407925     
  0.155985733527378     
  0.155985721644640     
  0.155985495518362     
  0.155985102888879     
  0.155984585039472     
  0.155983978289003     
  0.155983315344141     
  0.155982626374768     
  0.155981939783717     
  0.155981282704443     
  0.155980681274674     
  0.155980160712841     
  0.155979745192296     
  0.155979457487994     
  0.155979318374997     
  0.155969168469573     
  0.155969476396735     
  0.155969622288279     
  0.155969637115128     
  0.155969548277352     
  0.155969380375279     
  0.155969155963849     
  0.155968896170473     
  0.155968621125582     
  0.155968350203906     
  0.155968102096899     
  0.155967894737482     
  0.155967745088490     
  0.155967668797767     
  0.155967679723559     
  0.155952955449466     
  0.155953546306299     
  0.155954032777296     
  0.155954428182966     
  0.155954744994632     
  0.155954995094402     
  0.155955190057568     
  0.155955341359493     
  0.155955460460401     
  0.155955558761927     
  0.155955647453486     
  0.155955737275191     
  0.155955838222447     
  0.155955959211800     
  0.155956107723003     
  0.155936955373314     
  0.155937816130192     
  0.155938631932050     
  0.155939398154165     
  0.155940111875658     
  0.155940771791492     
  0.155941378127530     
  0.155941932483027     
  0.155942437571766     
  0.155942896871043     
  0.155943314211925     
  0.155943693354344     
  0.155944037589495     
  0.155944349403720     
  0.155944630226270     
  0.155921029822890     
  0.155922171021477     
  0.155923325223474     
  0.155924469925035     
  0.155925586755782     
  0.155926661176459     
  0.155927682107802     
  0.155928641437724     
  0.155929533406699     
  0.155930353911753     
  0.155931099793591     
  0.155931768179281     
  0.155932355947502     
  0.155932859368244     
  0.155933273947617     
  0.155905046771605     
  0.155906501849282     
  0.155908023500119     
  0.155909571578119     
  0.155911112467448     
  0.155912618683440     
  0.155914068271016     
  0.155915443974922     
  0.155916732224790     
  0.155917922024954     
  0.155919003861955     
  0.155919968744800     
  0.155920807479222     
  0.155921510251603     
  0.155922066564658     
  0.155888885282474     
  0.155890709757107     
  0.155892647311898     
  0.155894640380796     
  0.155896640440806     
  0.155898607627737     
  0.155900509927740     
  0.155902321961129     
  0.155904023469824     
  0.155905597673887     
  0.155907029679688     
  0.155908305112987     
  0.155909409123683     
  0.155910325870087     
  0.155911038541222     
  0.155872439290413     
  0.155874710068390     
  0.155877130804208     
  0.155879626508009     
  0.155882134104348     
  0.155884602170887     
  0.155886989894925     
  0.155889265344089     
  0.155891403278237     
  0.155893382782668     
  0.155895184999752     
  0.155896791204749     
  0.155898181429387     
  0.155899333784401     
  0.155900224565359     
  0.155855620586150     
  0.155858435713465     
  0.155861425379012     
  0.155864496669131     
  0.155867572219350     
  0.155870590167616     
  0.155873502747317     
  0.155876273785981     
  0.155878875542236     
  0.155881285333142     
  0.155883482344143     
  0.155885444943386     
  0.155887148766190     
  0.155888565783557     
  0.155889664485752     
  0.155838361144843     
  0.155841840451796     
  0.155845503454776     
  0.155849237947731     
  0.155852952376533     
  0.155856576022290     
  0.155860056887729     
  0.155863357928432     
  0.155866452438385     
  0.155869319285892     
  0.155871938498041     
  0.155874287551655     
  0.155876338693730     
  0.155878057599495     
  0.155879403612427     
  0.155820615000757     
  0.155824902348022     
  0.155829362882904     
  0.155833862348900     
  0.155838294988132     
  0.155842583713383     
  0.155846676462171     
  0.155850540234861     
  0.155854154315347     
  0.155857503670931     
  0.155860573007260     
  0.155863341741741     
  0.155865780208010     
  0.155867847612184     
  0.155869492222342     
  0.155802360015217     
  0.155807628339294     
  0.155813032998826     
  0.155818412833384     
  0.155823648204494     
  0.155828660106126     
  0.155833403067286     
  0.155837855302877     
  0.155842008823542     
  0.155845860686051     
  0.155849405430389     
  0.155852628430030     
  0.155855500449191     
  0.155857974174970     
  0.155859984071764     
  0.155783600235031     
  0.155790061598451     
  0.155796584109787     
  0.155802972046408     
  0.155809094175366     
  0.155814878439384     
  0.155820296980321     
  0.155825349452711     
  0.155830049195349     
  0.155834412729966     
  0.155838451069190     
  0.155842161479430     
  0.155845519131114     
  0.155848470938552     
  0.155850933605121     
  0.155764370612649     
  0.155772295436114     
  0.155780143977331     
  0.155787675439261     
  0.155794756595011     
  0.155801341195523     
  0.155807437174879     
  0.155813079298092     
  0.155818311794197     
  0.155823178504312     
  0.155827715191218     
  0.155831939576602     
  0.155835839522686     
  0.155839358693863     
  0.155842391402002     
  0.155744748464908     
  0.155754503679140     
  0.155763928192818     
  0.155772730212814     
  0.155780807591068     
  0.155788179805423     
  0.155794918921708     
  0.155801108974498     
  0.155806833296599     
  0.155812169461782     
  0.155817185805817     
  0.155821935202026     
  0.155826432247797     
  0.155830631502057     
  0.155834395871774     
  0.155724892398959     
  0.155737012766503     
  0.155748297818387     
  0.155758436569385     
  0.155767464336015     
  0.155775547845679     
  0.155782847470565     
  0.155789505836010     
  0.155795648340267     
  0.155801388137363     
  0.155806830926221     
  0.155812076030994     
  0.155817212342097     
  0.155822222121031     
  0.155826961351303     
  0.155705167437377     
  0.155720516567706     
  0.155733849006071     
  0.155745164371562     
  0.155754968112459     
  0.155763603941857     
  0.155771327289508     
  0.155778334816674     
  0.155784788271739     
  0.155790831132857     
  0.155796602630010     
  0.155802253045667     
  0.155807957039697     
  0.155813962654065     
  0.155820016762532     
  0.155687120230127     
  0.155706575156203     
  0.155721244099793     
  0.155733284910105     
  0.155743537225158     
  0.155752486173541     
  0.155760448011180     
  0.155767652203167     
  0.155774281368534     
  0.155780496216838     
  0.155786456096321     
  0.155792343339252     
  0.155798408168501     
  0.155805061916327     
  0.155813503879717     
