# vtk DataFile Version 3.0
vtk output
ASCII
DATASET UNSTRUCTURED_GRID
POINTS       496 double 
  0.00000000E+00  3.00000000E+02  0.00000000E+00
  0.00000000E+00  2.80000000E+02  0.00000000E+00
  0.00000000E+00  2.60000000E+02  0.00000000E+00
  0.00000000E+00  2.40000000E+02  0.00000000E+00
  0.00000000E+00  2.20000000E+02  0.00000000E+00
  0.00000000E+00  2.00000000E+02  0.00000000E+00
  0.00000000E+00  1.80000000E+02  0.00000000E+00
  0.00000000E+00  1.60000000E+02  0.00000000E+00
  0.00000000E+00  1.40000000E+02  0.00000000E+00
  0.00000000E+00  1.20000000E+02  0.00000000E+00
  0.00000000E+00  1.00000000E+02  0.00000000E+00
  0.00000000E+00  8.00000000E+01  0.00000000E+00
  0.00000000E+00  6.00000000E+01  0.00000000E+00
  0.00000000E+00  4.00000000E+01  0.00000000E+00
  0.00000000E+00  2.00000000E+01  0.00000000E+00
  0.00000000E+00  4.99600361E-14  0.00000000E+00
  2.00000000E+01  3.00000000E+02  0.00000000E+00
  2.00000000E+01  2.80000000E+02  0.00000000E+00
  2.00000000E+01  2.60000000E+02  0.00000000E+00
  2.00000000E+01  2.40000000E+02  0.00000000E+00
  2.00000000E+01  2.20000000E+02  0.00000000E+00
  2.00000000E+01  2.00000000E+02  0.00000000E+00
  2.00000000E+01  1.80000000E+02  0.00000000E+00
  2.00000000E+01  1.60000000E+02  0.00000000E+00
  2.00000000E+01  1.40000000E+02  0.00000000E+00
  2.00000000E+01  1.20000000E+02  0.00000000E+00
  2.00000000E+01  1.00000000E+02  0.00000000E+00
  2.00000000E+01  8.00000000E+01  0.00000000E+00
  2.00000000E+01  6.00000000E+01  0.00000000E+00
  2.00000000E+01  4.00000000E+01  0.00000000E+00
  2.00000000E+01  2.00000000E+01  0.00000000E+00
  2.00000000E+01  4.99600361E-14  0.00000000E+00
  4.00000000E+01  3.00000000E+02  0.00000000E+00
  4.00000000E+01  2.80000000E+02  0.00000000E+00
  4.00000000E+01  2.60000000E+02  0.00000000E+00
  4.00000000E+01  2.40000000E+02  0.00000000E+00
  4.00000000E+01  2.20000000E+02  0.00000000E+00
  4.00000000E+01  2.00000000E+02  0.00000000E+00
  4.00000000E+01  1.80000000E+02  0.00000000E+00
  4.00000000E+01  1.60000000E+02  0.00000000E+00
  4.00000000E+01  1.40000000E+02  0.00000000E+00
  4.00000000E+01  1.20000000E+02  0.00000000E+00
  4.00000000E+01  1.00000000E+02  0.00000000E+00
  4.00000000E+01  8.00000000E+01  0.00000000E+00
  4.00000000E+01  6.00000000E+01  0.00000000E+00
  4.00000000E+01  4.00000000E+01  0.00000000E+00
  4.00000000E+01  2.00000000E+01  0.00000000E+00
  4.00000000E+01  4.99600361E-14  0.00000000E+00
  6.00000000E+01  3.00000000E+02  0.00000000E+00
  6.00000000E+01  2.80000000E+02  0.00000000E+00
  6.00000000E+01  2.60000000E+02  0.00000000E+00
  6.00000000E+01  2.40000000E+02  0.00000000E+00
  6.00000000E+01  2.20000000E+02  0.00000000E+00
  6.00000000E+01  2.00000000E+02  0.00000000E+00
  6.00000000E+01  1.80000000E+02  0.00000000E+00
  6.00000000E+01  1.60000000E+02  0.00000000E+00
  6.00000000E+01  1.40000000E+02  0.00000000E+00
  6.00000000E+01  1.20000000E+02  0.00000000E+00
  6.00000000E+01  1.00000000E+02  0.00000000E+00
  6.00000000E+01  8.00000000E+01  0.00000000E+00
  6.00000000E+01  6.00000000E+01  0.00000000E+00
  6.00000000E+01  4.00000000E+01  0.00000000E+00
  6.00000000E+01  2.00000000E+01  0.00000000E+00
  6.00000000E+01  4.99600361E-14  0.00000000E+00
  8.00000000E+01  3.00000000E+02  0.00000000E+00
  8.00000000E+01  2.80000000E+02  0.00000000E+00
  8.00000000E+01  2.60000000E+02  0.00000000E+00
  8.00000000E+01  2.40000000E+02  0.00000000E+00
  8.00000000E+01  2.20000000E+02  0.00000000E+00
  8.00000000E+01  2.00000000E+02  0.00000000E+00
  8.00000000E+01  1.80000000E+02  0.00000000E+00
  8.00000000E+01  1.60000000E+02  0.00000000E+00
  8.00000000E+01  1.40000000E+02  0.00000000E+00
  8.00000000E+01  1.20000000E+02  0.00000000E+00
  8.00000000E+01  1.00000000E+02  0.00000000E+00
  8.00000000E+01  8.00000000E+01  0.00000000E+00
  8.00000000E+01  6.00000000E+01  0.00000000E+00
  8.00000000E+01  4.00000000E+01  0.00000000E+00
  8.00000000E+01  2.00000000E+01  0.00000000E+00
  8.00000000E+01  4.99600361E-14  0.00000000E+00
  1.00000000E+02  3.00000000E+02  0.00000000E+00
  1.00000000E+02  2.80000000E+02  0.00000000E+00
  1.00000000E+02  2.60000000E+02  0.00000000E+00
  1.00000000E+02  2.40000000E+02  0.00000000E+00
  1.00000000E+02  2.20000000E+02  0.00000000E+00
  1.00000000E+02  2.00000000E+02  0.00000000E+00
  1.00000000E+02  1.80000000E+02  0.00000000E+00
  1.00000000E+02  1.60000000E+02  0.00000000E+00
  1.00000000E+02  1.40000000E+02  0.00000000E+00
  1.00000000E+02  1.20000000E+02  0.00000000E+00
  1.00000000E+02  1.00000000E+02  0.00000000E+00
  1.00000000E+02  8.00000000E+01  0.00000000E+00
  1.00000000E+02  6.00000000E+01  0.00000000E+00
  1.00000000E+02  4.00000000E+01  0.00000000E+00
  1.00000000E+02  2.00000000E+01  0.00000000E+00
  1.00000000E+02  4.99600361E-14  0.00000000E+00
  1.20000000E+02  3.00000000E+02  0.00000000E+00
  1.20000000E+02  2.80000000E+02  0.00000000E+00
  1.20000000E+02  2.60000000E+02  0.00000000E+00
  1.20000000E+02  2.40000000E+02  0.00000000E+00
  1.20000000E+02  2.20000000E+02  0.00000000E+00
  1.20000000E+02  2.00000000E+02  0.00000000E+00
  1.20000000E+02  1.80000000E+02  0.00000000E+00
  1.20000000E+02  1.60000000E+02  0.00000000E+00
  1.20000000E+02  1.40000000E+02  0.00000000E+00
  1.20000000E+02  1.20000000E+02  0.00000000E+00
  1.20000000E+02  1.00000000E+02  0.00000000E+00
  1.20000000E+02  8.00000000E+01  0.00000000E+00
  1.20000000E+02  6.00000000E+01  0.00000000E+00
  1.20000000E+02  4.00000000E+01  0.00000000E+00
  1.20000000E+02  2.00000000E+01  0.00000000E+00
  1.20000000E+02  4.99600361E-14  0.00000000E+00
  1.40000000E+02  3.00000000E+02  0.00000000E+00
  1.40000000E+02  2.80000000E+02  0.00000000E+00
  1.40000000E+02  2.60000000E+02  0.00000000E+00
  1.40000000E+02  2.40000000E+02  0.00000000E+00
  1.40000000E+02  2.20000000E+02  0.00000000E+00
  1.40000000E+02  2.00000000E+02  0.00000000E+00
  1.40000000E+02  1.80000000E+02  0.00000000E+00
  1.40000000E+02  1.60000000E+02  0.00000000E+00
  1.40000000E+02  1.40000000E+02  0.00000000E+00
  1.40000000E+02  1.20000000E+02  0.00000000E+00
  1.40000000E+02  1.00000000E+02  0.00000000E+00
  1.40000000E+02  8.00000000E+01  0.00000000E+00
  1.40000000E+02  6.00000000E+01  0.00000000E+00
  1.40000000E+02  4.00000000E+01  0.00000000E+00
  1.40000000E+02  2.00000000E+01  0.00000000E+00
  1.40000000E+02  4.99600361E-14  0.00000000E+00
  1.60000000E+02  3.00000000E+02  0.00000000E+00
  1.60000000E+02  2.80000000E+02  0.00000000E+00
  1.60000000E+02  2.60000000E+02  0.00000000E+00
  1.60000000E+02  2.40000000E+02  0.00000000E+00
  1.60000000E+02  2.20000000E+02  0.00000000E+00
  1.60000000E+02  2.00000000E+02  0.00000000E+00
  1.60000000E+02  1.80000000E+02  0.00000000E+00
  1.60000000E+02  1.60000000E+02  0.00000000E+00
  1.60000000E+02  1.40000000E+02  0.00000000E+00
  1.60000000E+02  1.20000000E+02  0.00000000E+00
  1.60000000E+02  1.00000000E+02  0.00000000E+00
  1.60000000E+02  8.00000000E+01  0.00000000E+00
  1.60000000E+02  6.00000000E+01  0.00000000E+00
  1.60000000E+02  4.00000000E+01  0.00000000E+00
  1.60000000E+02  2.00000000E+01  0.00000000E+00
  1.60000000E+02  4.99600361E-14  0.00000000E+00
  1.80000000E+02  3.00000000E+02  0.00000000E+00
  1.80000000E+02  2.80000000E+02  0.00000000E+00
  1.80000000E+02  2.60000000E+02  0.00000000E+00
  1.80000000E+02  2.40000000E+02  0.00000000E+00
  1.80000000E+02  2.20000000E+02  0.00000000E+00
  1.80000000E+02  2.00000000E+02  0.00000000E+00
  1.80000000E+02  1.80000000E+02  0.00000000E+00
  1.80000000E+02  1.60000000E+02  0.00000000E+00
  1.80000000E+02  1.40000000E+02  0.00000000E+00
  1.80000000E+02  1.20000000E+02  0.00000000E+00
  1.80000000E+02  1.00000000E+02  0.00000000E+00
  1.80000000E+02  8.00000000E+01  0.00000000E+00
  1.80000000E+02  6.00000000E+01  0.00000000E+00
  1.80000000E+02  4.00000000E+01  0.00000000E+00
  1.80000000E+02  2.00000000E+01  0.00000000E+00
  1.80000000E+02  4.99600361E-14  0.00000000E+00
  2.00000000E+02  3.00000000E+02  0.00000000E+00
  2.00000000E+02  2.80000000E+02  0.00000000E+00
  2.00000000E+02  2.60000000E+02  0.00000000E+00
  2.00000000E+02  2.40000000E+02  0.00000000E+00
  2.00000000E+02  2.20000000E+02  0.00000000E+00
  2.00000000E+02  2.00000000E+02  0.00000000E+00
  2.00000000E+02  1.80000000E+02  0.00000000E+00
  2.00000000E+02  1.60000000E+02  0.00000000E+00
  2.00000000E+02  1.40000000E+02  0.00000000E+00
  2.00000000E+02  1.20000000E+02  0.00000000E+00
  2.00000000E+02  1.00000000E+02  0.00000000E+00
  2.00000000E+02  8.00000000E+01  0.00000000E+00
  2.00000000E+02  6.00000000E+01  0.00000000E+00
  2.00000000E+02  4.00000000E+01  0.00000000E+00
  2.00000000E+02  2.00000000E+01  0.00000000E+00
  2.00000000E+02  4.99600361E-14  0.00000000E+00
  2.20000000E+02  3.00000000E+02  0.00000000E+00
  2.20000000E+02  2.80000000E+02  0.00000000E+00
  2.20000000E+02  2.60000000E+02  0.00000000E+00
  2.20000000E+02  2.40000000E+02  0.00000000E+00
  2.20000000E+02  2.20000000E+02  0.00000000E+00
  2.20000000E+02  2.00000000E+02  0.00000000E+00
  2.20000000E+02  1.80000000E+02  0.00000000E+00
  2.20000000E+02  1.60000000E+02  0.00000000E+00
  2.20000000E+02  1.40000000E+02  0.00000000E+00
  2.20000000E+02  1.20000000E+02  0.00000000E+00
  2.20000000E+02  1.00000000E+02  0.00000000E+00
  2.20000000E+02  8.00000000E+01  0.00000000E+00
  2.20000000E+02  6.00000000E+01  0.00000000E+00
  2.20000000E+02  4.00000000E+01  0.00000000E+00
  2.20000000E+02  2.00000000E+01  0.00000000E+00
  2.20000000E+02  4.99600361E-14  0.00000000E+00
  2.40000000E+02  3.00000000E+02  0.00000000E+00
  2.40000000E+02  2.80000000E+02  0.00000000E+00
  2.40000000E+02  2.60000000E+02  0.00000000E+00
  2.40000000E+02  2.40000000E+02  0.00000000E+00
  2.40000000E+02  2.20000000E+02  0.00000000E+00
  2.40000000E+02  2.00000000E+02  0.00000000E+00
  2.40000000E+02  1.80000000E+02  0.00000000E+00
  2.40000000E+02  1.60000000E+02  0.00000000E+00
  2.40000000E+02  1.40000000E+02  0.00000000E+00
  2.40000000E+02  1.20000000E+02  0.00000000E+00
  2.40000000E+02  1.00000000E+02  0.00000000E+00
  2.40000000E+02  8.00000000E+01  0.00000000E+00
  2.40000000E+02  6.00000000E+01  0.00000000E+00
  2.40000000E+02  4.00000000E+01  0.00000000E+00
  2.40000000E+02  2.00000000E+01  0.00000000E+00
  2.40000000E+02  4.99600361E-14  0.00000000E+00
  2.60000000E+02  3.00000000E+02  0.00000000E+00
  2.60000000E+02  2.80000000E+02  0.00000000E+00
  2.60000000E+02  2.60000000E+02  0.00000000E+00
  2.60000000E+02  2.40000000E+02  0.00000000E+00
  2.60000000E+02  2.20000000E+02  0.00000000E+00
  2.60000000E+02  2.00000000E+02  0.00000000E+00
  2.60000000E+02  1.80000000E+02  0.00000000E+00
  2.60000000E+02  1.60000000E+02  0.00000000E+00
  2.60000000E+02  1.40000000E+02  0.00000000E+00
  2.60000000E+02  1.20000000E+02  0.00000000E+00
  2.60000000E+02  1.00000000E+02  0.00000000E+00
  2.60000000E+02  8.00000000E+01  0.00000000E+00
  2.60000000E+02  6.00000000E+01  0.00000000E+00
  2.60000000E+02  4.00000000E+01  0.00000000E+00
  2.60000000E+02  2.00000000E+01  0.00000000E+00
  2.60000000E+02  4.99600361E-14  0.00000000E+00
  2.80000000E+02  3.00000000E+02  0.00000000E+00
  2.80000000E+02  2.80000000E+02  0.00000000E+00
  2.80000000E+02  2.60000000E+02  0.00000000E+00
  2.80000000E+02  2.40000000E+02  0.00000000E+00
  2.80000000E+02  2.20000000E+02  0.00000000E+00
  2.80000000E+02  2.00000000E+02  0.00000000E+00
  2.80000000E+02  1.80000000E+02  0.00000000E+00
  2.80000000E+02  1.60000000E+02  0.00000000E+00
  2.80000000E+02  1.40000000E+02  0.00000000E+00
  2.80000000E+02  1.20000000E+02  0.00000000E+00
  2.80000000E+02  1.00000000E+02  0.00000000E+00
  2.80000000E+02  8.00000000E+01  0.00000000E+00
  2.80000000E+02  6.00000000E+01  0.00000000E+00
  2.80000000E+02  4.00000000E+01  0.00000000E+00
  2.80000000E+02  2.00000000E+01  0.00000000E+00
  2.80000000E+02  4.99600361E-14  0.00000000E+00
  3.00000000E+02  3.00000000E+02  0.00000000E+00
  3.00000000E+02  2.80000000E+02  0.00000000E+00
  3.00000000E+02  2.60000000E+02  0.00000000E+00
  3.00000000E+02  2.40000000E+02  0.00000000E+00
  3.00000000E+02  2.20000000E+02  0.00000000E+00
  3.00000000E+02  2.00000000E+02  0.00000000E+00
  3.00000000E+02  1.80000000E+02  0.00000000E+00
  3.00000000E+02  1.60000000E+02  0.00000000E+00
  3.00000000E+02  1.40000000E+02  0.00000000E+00
  3.00000000E+02  1.20000000E+02  0.00000000E+00
  3.00000000E+02  1.00000000E+02  0.00000000E+00
  3.00000000E+02  8.00000000E+01  0.00000000E+00
  3.00000000E+02  6.00000000E+01  0.00000000E+00
  3.00000000E+02  4.00000000E+01  0.00000000E+00
  3.00000000E+02  2.00000000E+01  0.00000000E+00
  3.00000000E+02  4.99600361E-14  0.00000000E+00
  3.20000000E+02  3.00000000E+02  0.00000000E+00
  3.20000000E+02  2.80000000E+02  0.00000000E+00
  3.20000000E+02  2.60000000E+02  0.00000000E+00
  3.20000000E+02  2.40000000E+02  0.00000000E+00
  3.20000000E+02  2.20000000E+02  0.00000000E+00
  3.20000000E+02  2.00000000E+02  0.00000000E+00
  3.20000000E+02  1.80000000E+02  0.00000000E+00
  3.20000000E+02  1.60000000E+02  0.00000000E+00
  3.20000000E+02  1.40000000E+02  0.00000000E+00
  3.20000000E+02  1.20000000E+02  0.00000000E+00
  3.20000000E+02  1.00000000E+02  0.00000000E+00
  3.20000000E+02  8.00000000E+01  0.00000000E+00
  3.20000000E+02  6.00000000E+01  0.00000000E+00
  3.20000000E+02  4.00000000E+01  0.00000000E+00
  3.20000000E+02  2.00000000E+01  0.00000000E+00
  3.20000000E+02  4.99600361E-14  0.00000000E+00
  3.40000000E+02  3.00000000E+02  0.00000000E+00
  3.40000000E+02  2.80000000E+02  0.00000000E+00
  3.40000000E+02  2.60000000E+02  0.00000000E+00
  3.40000000E+02  2.40000000E+02  0.00000000E+00
  3.40000000E+02  2.20000000E+02  0.00000000E+00
  3.40000000E+02  2.00000000E+02  0.00000000E+00
  3.40000000E+02  1.80000000E+02  0.00000000E+00
  3.40000000E+02  1.60000000E+02  0.00000000E+00
  3.40000000E+02  1.40000000E+02  0.00000000E+00
  3.40000000E+02  1.20000000E+02  0.00000000E+00
  3.40000000E+02  1.00000000E+02  0.00000000E+00
  3.40000000E+02  8.00000000E+01  0.00000000E+00
  3.40000000E+02  6.00000000E+01  0.00000000E+00
  3.40000000E+02  4.00000000E+01  0.00000000E+00
  3.40000000E+02  2.00000000E+01  0.00000000E+00
  3.40000000E+02  4.99600361E-14  0.00000000E+00
  3.60000000E+02  3.00000000E+02  0.00000000E+00
  3.60000000E+02  2.80000000E+02  0.00000000E+00
  3.60000000E+02  2.60000000E+02  0.00000000E+00
  3.60000000E+02  2.40000000E+02  0.00000000E+00
  3.60000000E+02  2.20000000E+02  0.00000000E+00
  3.60000000E+02  2.00000000E+02  0.00000000E+00
  3.60000000E+02  1.80000000E+02  0.00000000E+00
  3.60000000E+02  1.60000000E+02  0.00000000E+00
  3.60000000E+02  1.40000000E+02  0.00000000E+00
  3.60000000E+02  1.20000000E+02  0.00000000E+00
  3.60000000E+02  1.00000000E+02  0.00000000E+00
  3.60000000E+02  8.00000000E+01  0.00000000E+00
  3.60000000E+02  6.00000000E+01  0.00000000E+00
  3.60000000E+02  4.00000000E+01  0.00000000E+00
  3.60000000E+02  2.00000000E+01  0.00000000E+00
  3.60000000E+02  4.99600361E-14  0.00000000E+00
  3.80000000E+02  3.00000000E+02  0.00000000E+00
  3.80000000E+02  2.80000000E+02  0.00000000E+00
  3.80000000E+02  2.60000000E+02  0.00000000E+00
  3.80000000E+02  2.40000000E+02  0.00000000E+00
  3.80000000E+02  2.20000000E+02  0.00000000E+00
  3.80000000E+02  2.00000000E+02  0.00000000E+00
  3.80000000E+02  1.80000000E+02  0.00000000E+00
  3.80000000E+02  1.60000000E+02  0.00000000E+00
  3.80000000E+02  1.40000000E+02  0.00000000E+00
  3.80000000E+02  1.20000000E+02  0.00000000E+00
  3.80000000E+02  1.00000000E+02  0.00000000E+00
  3.80000000E+02  8.00000000E+01  0.00000000E+00
  3.80000000E+02  6.00000000E+01  0.00000000E+00
  3.80000000E+02  4.00000000E+01  0.00000000E+00
  3.80000000E+02  2.00000000E+01  0.00000000E+00
  3.80000000E+02  4.99600361E-14  0.00000000E+00
  4.00000000E+02  3.00000000E+02  0.00000000E+00
  4.00000000E+02  2.80000000E+02  0.00000000E+00
  4.00000000E+02  2.60000000E+02  0.00000000E+00
  4.00000000E+02  2.40000000E+02  0.00000000E+00
  4.00000000E+02  2.20000000E+02  0.00000000E+00
  4.00000000E+02  2.00000000E+02  0.00000000E+00
  4.00000000E+02  1.80000000E+02  0.00000000E+00
  4.00000000E+02  1.60000000E+02  0.00000000E+00
  4.00000000E+02  1.40000000E+02  0.00000000E+00
  4.00000000E+02  1.20000000E+02  0.00000000E+00
  4.00000000E+02  1.00000000E+02  0.00000000E+00
  4.00000000E+02  8.00000000E+01  0.00000000E+00
  4.00000000E+02  6.00000000E+01  0.00000000E+00
  4.00000000E+02  4.00000000E+01  0.00000000E+00
  4.00000000E+02  2.00000000E+01  0.00000000E+00
  4.00000000E+02  4.99600361E-14  0.00000000E+00
  4.20000000E+02  3.00000000E+02  0.00000000E+00
  4.20000000E+02  2.80000000E+02  0.00000000E+00
  4.20000000E+02  2.60000000E+02  0.00000000E+00
  4.20000000E+02  2.40000000E+02  0.00000000E+00
  4.20000000E+02  2.20000000E+02  0.00000000E+00
  4.20000000E+02  2.00000000E+02  0.00000000E+00
  4.20000000E+02  1.80000000E+02  0.00000000E+00
  4.20000000E+02  1.60000000E+02  0.00000000E+00
  4.20000000E+02  1.40000000E+02  0.00000000E+00
  4.20000000E+02  1.20000000E+02  0.00000000E+00
  4.20000000E+02  1.00000000E+02  0.00000000E+00
  4.20000000E+02  8.00000000E+01  0.00000000E+00
  4.20000000E+02  6.00000000E+01  0.00000000E+00
  4.20000000E+02  4.00000000E+01  0.00000000E+00
  4.20000000E+02  2.00000000E+01  0.00000000E+00
  4.20000000E+02  4.99600361E-14  0.00000000E+00
  4.40000000E+02  3.00000000E+02  0.00000000E+00
  4.40000000E+02  2.80000000E+02  0.00000000E+00
  4.40000000E+02  2.60000000E+02  0.00000000E+00
  4.40000000E+02  2.40000000E+02  0.00000000E+00
  4.40000000E+02  2.20000000E+02  0.00000000E+00
  4.40000000E+02  2.00000000E+02  0.00000000E+00
  4.40000000E+02  1.80000000E+02  0.00000000E+00
  4.40000000E+02  1.60000000E+02  0.00000000E+00
  4.40000000E+02  1.40000000E+02  0.00000000E+00
  4.40000000E+02  1.20000000E+02  0.00000000E+00
  4.40000000E+02  1.00000000E+02  0.00000000E+00
  4.40000000E+02  8.00000000E+01  0.00000000E+00
  4.40000000E+02  6.00000000E+01  0.00000000E+00
  4.40000000E+02  4.00000000E+01  0.00000000E+00
  4.40000000E+02  2.00000000E+01  0.00000000E+00
  4.40000000E+02  4.99600361E-14  0.00000000E+00
  4.60000000E+02  3.00000000E+02  0.00000000E+00
  4.60000000E+02  2.80000000E+02  0.00000000E+00
  4.60000000E+02  2.60000000E+02  0.00000000E+00
  4.60000000E+02  2.40000000E+02  0.00000000E+00
  4.60000000E+02  2.20000000E+02  0.00000000E+00
  4.60000000E+02  2.00000000E+02  0.00000000E+00
  4.60000000E+02  1.80000000E+02  0.00000000E+00
  4.60000000E+02  1.60000000E+02  0.00000000E+00
  4.60000000E+02  1.40000000E+02  0.00000000E+00
  4.60000000E+02  1.20000000E+02  0.00000000E+00
  4.60000000E+02  1.00000000E+02  0.00000000E+00
  4.60000000E+02  8.00000000E+01  0.00000000E+00
  4.60000000E+02  6.00000000E+01  0.00000000E+00
  4.60000000E+02  4.00000000E+01  0.00000000E+00
  4.60000000E+02  2.00000000E+01  0.00000000E+00
  4.60000000E+02  4.99600361E-14  0.00000000E+00
  4.80000000E+02  3.00000000E+02  0.00000000E+00
  4.80000000E+02  2.80000000E+02  0.00000000E+00
  4.80000000E+02  2.60000000E+02  0.00000000E+00
  4.80000000E+02  2.40000000E+02  0.00000000E+00
  4.80000000E+02  2.20000000E+02  0.00000000E+00
  4.80000000E+02  2.00000000E+02  0.00000000E+00
  4.80000000E+02  1.80000000E+02  0.00000000E+00
  4.80000000E+02  1.60000000E+02  0.00000000E+00
  4.80000000E+02  1.40000000E+02  0.00000000E+00
  4.80000000E+02  1.20000000E+02  0.00000000E+00
  4.80000000E+02  1.00000000E+02  0.00000000E+00
  4.80000000E+02  8.00000000E+01  0.00000000E+00
  4.80000000E+02  6.00000000E+01  0.00000000E+00
  4.80000000E+02  4.00000000E+01  0.00000000E+00
  4.80000000E+02  2.00000000E+01  0.00000000E+00
  4.80000000E+02  4.99600361E-14  0.00000000E+00
  5.00000000E+02  3.00000000E+02  0.00000000E+00
  5.00000000E+02  2.80000000E+02  0.00000000E+00
  5.00000000E+02  2.60000000E+02  0.00000000E+00
  5.00000000E+02  2.40000000E+02  0.00000000E+00
  5.00000000E+02  2.20000000E+02  0.00000000E+00
  5.00000000E+02  2.00000000E+02  0.00000000E+00
  5.00000000E+02  1.80000000E+02  0.00000000E+00
  5.00000000E+02  1.60000000E+02  0.00000000E+00
  5.00000000E+02  1.40000000E+02  0.00000000E+00
  5.00000000E+02  1.20000000E+02  0.00000000E+00
  5.00000000E+02  1.00000000E+02  0.00000000E+00
  5.00000000E+02  8.00000000E+01  0.00000000E+00
  5.00000000E+02  6.00000000E+01  0.00000000E+00
  5.00000000E+02  4.00000000E+01  0.00000000E+00
  5.00000000E+02  2.00000000E+01  0.00000000E+00
  5.00000000E+02  4.99600361E-14  0.00000000E+00
  5.20000000E+02  3.00000000E+02  0.00000000E+00
  5.20000000E+02  2.80000000E+02  0.00000000E+00
  5.20000000E+02  2.60000000E+02  0.00000000E+00
  5.20000000E+02  2.40000000E+02  0.00000000E+00
  5.20000000E+02  2.20000000E+02  0.00000000E+00
  5.20000000E+02  2.00000000E+02  0.00000000E+00
  5.20000000E+02  1.80000000E+02  0.00000000E+00
  5.20000000E+02  1.60000000E+02  0.00000000E+00
  5.20000000E+02  1.40000000E+02  0.00000000E+00
  5.20000000E+02  1.20000000E+02  0.00000000E+00
  5.20000000E+02  1.00000000E+02  0.00000000E+00
  5.20000000E+02  8.00000000E+01  0.00000000E+00
  5.20000000E+02  6.00000000E+01  0.00000000E+00
  5.20000000E+02  4.00000000E+01  0.00000000E+00
  5.20000000E+02  2.00000000E+01  0.00000000E+00
  5.20000000E+02  4.99600361E-14  0.00000000E+00
  5.40000000E+02  3.00000000E+02  0.00000000E+00
  5.40000000E+02  2.80000000E+02  0.00000000E+00
  5.40000000E+02  2.60000000E+02  0.00000000E+00
  5.40000000E+02  2.40000000E+02  0.00000000E+00
  5.40000000E+02  2.20000000E+02  0.00000000E+00
  5.40000000E+02  2.00000000E+02  0.00000000E+00
  5.40000000E+02  1.80000000E+02  0.00000000E+00
  5.40000000E+02  1.60000000E+02  0.00000000E+00
  5.40000000E+02  1.40000000E+02  0.00000000E+00
  5.40000000E+02  1.20000000E+02  0.00000000E+00
  5.40000000E+02  1.00000000E+02  0.00000000E+00
  5.40000000E+02  8.00000000E+01  0.00000000E+00
  5.40000000E+02  6.00000000E+01  0.00000000E+00
  5.40000000E+02  4.00000000E+01  0.00000000E+00
  5.40000000E+02  2.00000000E+01  0.00000000E+00
  5.40000000E+02  4.99600361E-14  0.00000000E+00
  5.60000000E+02  3.00000000E+02  0.00000000E+00
  5.60000000E+02  2.80000000E+02  0.00000000E+00
  5.60000000E+02  2.60000000E+02  0.00000000E+00
  5.60000000E+02  2.40000000E+02  0.00000000E+00
  5.60000000E+02  2.20000000E+02  0.00000000E+00
  5.60000000E+02  2.00000000E+02  0.00000000E+00
  5.60000000E+02  1.80000000E+02  0.00000000E+00
  5.60000000E+02  1.60000000E+02  0.00000000E+00
  5.60000000E+02  1.40000000E+02  0.00000000E+00
  5.60000000E+02  1.20000000E+02  0.00000000E+00
  5.60000000E+02  1.00000000E+02  0.00000000E+00
  5.60000000E+02  8.00000000E+01  0.00000000E+00
  5.60000000E+02  6.00000000E+01  0.00000000E+00
  5.60000000E+02  4.00000000E+01  0.00000000E+00
  5.60000000E+02  2.00000000E+01  0.00000000E+00
  5.60000000E+02  4.99600361E-14  0.00000000E+00
  5.80000000E+02  3.00000000E+02  0.00000000E+00
  5.80000000E+02  2.80000000E+02  0.00000000E+00
  5.80000000E+02  2.60000000E+02  0.00000000E+00
  5.80000000E+02  2.40000000E+02  0.00000000E+00
  5.80000000E+02  2.20000000E+02  0.00000000E+00
  5.80000000E+02  2.00000000E+02  0.00000000E+00
  5.80000000E+02  1.80000000E+02  0.00000000E+00
  5.80000000E+02  1.60000000E+02  0.00000000E+00
  5.80000000E+02  1.40000000E+02  0.00000000E+00
  5.80000000E+02  1.20000000E+02  0.00000000E+00
  5.80000000E+02  1.00000000E+02  0.00000000E+00
  5.80000000E+02  8.00000000E+01  0.00000000E+00
  5.80000000E+02  6.00000000E+01  0.00000000E+00
  5.80000000E+02  4.00000000E+01  0.00000000E+00
  5.80000000E+02  2.00000000E+01  0.00000000E+00
  5.80000000E+02  4.99600361E-14  0.00000000E+00
  6.00000000E+02  3.00000000E+02  0.00000000E+00
  6.00000000E+02  2.80000000E+02  0.00000000E+00
  6.00000000E+02  2.60000000E+02  0.00000000E+00
  6.00000000E+02  2.40000000E+02  0.00000000E+00
  6.00000000E+02  2.20000000E+02  0.00000000E+00
  6.00000000E+02  2.00000000E+02  0.00000000E+00
  6.00000000E+02  1.80000000E+02  0.00000000E+00
  6.00000000E+02  1.60000000E+02  0.00000000E+00
  6.00000000E+02  1.40000000E+02  0.00000000E+00
  6.00000000E+02  1.20000000E+02  0.00000000E+00
  6.00000000E+02  1.00000000E+02  0.00000000E+00
  6.00000000E+02  8.00000000E+01  0.00000000E+00
  6.00000000E+02  6.00000000E+01  0.00000000E+00
  6.00000000E+02  4.00000000E+01  0.00000000E+00
  6.00000000E+02  2.00000000E+01  0.00000000E+00
  6.00000000E+02  4.99600361E-14  0.00000000E+00
CELLS       450      2250
         4           0           1          17          16
         4           1           2          18          17
         4           2           3          19          18
         4           3           4          20          19
         4           4           5          21          20
         4           5           6          22          21
         4           6           7          23          22
         4           7           8          24          23
         4           8           9          25          24
         4           9          10          26          25
         4          10          11          27          26
         4          11          12          28          27
         4          12          13          29          28
         4          13          14          30          29
         4          14          15          31          30
         4          16          17          33          32
         4          17          18          34          33
         4          18          19          35          34
         4          19          20          36          35
         4          20          21          37          36
         4          21          22          38          37
         4          22          23          39          38
         4          23          24          40          39
         4          24          25          41          40
         4          25          26          42          41
         4          26          27          43          42
         4          27          28          44          43
         4          28          29          45          44
         4          29          30          46          45
         4          30          31          47          46
         4          32          33          49          48
         4          33          34          50          49
         4          34          35          51          50
         4          35          36          52          51
         4          36          37          53          52
         4          37          38          54          53
         4          38          39          55          54
         4          39          40          56          55
         4          40          41          57          56
         4          41          42          58          57
         4          42          43          59          58
         4          43          44          60          59
         4          44          45          61          60
         4          45          46          62          61
         4          46          47          63          62
         4          48          49          65          64
         4          49          50          66          65
         4          50          51          67          66
         4          51          52          68          67
         4          52          53          69          68
         4          53          54          70          69
         4          54          55          71          70
         4          55          56          72          71
         4          56          57          73          72
         4          57          58          74          73
         4          58          59          75          74
         4          59          60          76          75
         4          60          61          77          76
         4          61          62          78          77
         4          62          63          79          78
         4          64          65          81          80
         4          65          66          82          81
         4          66          67          83          82
         4          67          68          84          83
         4          68          69          85          84
         4          69          70          86          85
         4          70          71          87          86
         4          71          72          88          87
         4          72          73          89          88
         4          73          74          90          89
         4          74          75          91          90
         4          75          76          92          91
         4          76          77          93          92
         4          77          78          94          93
         4          78          79          95          94
         4          80          81          97          96
         4          81          82          98          97
         4          82          83          99          98
         4          83          84         100          99
         4          84          85         101         100
         4          85          86         102         101
         4          86          87         103         102
         4          87          88         104         103
         4          88          89         105         104
         4          89          90         106         105
         4          90          91         107         106
         4          91          92         108         107
         4          92          93         109         108
         4          93          94         110         109
         4          94          95         111         110
         4          96          97         113         112
         4          97          98         114         113
         4          98          99         115         114
         4          99         100         116         115
         4         100         101         117         116
         4         101         102         118         117
         4         102         103         119         118
         4         103         104         120         119
         4         104         105         121         120
         4         105         106         122         121
         4         106         107         123         122
         4         107         108         124         123
         4         108         109         125         124
         4         109         110         126         125
         4         110         111         127         126
         4         112         113         129         128
         4         113         114         130         129
         4         114         115         131         130
         4         115         116         132         131
         4         116         117         133         132
         4         117         118         134         133
         4         118         119         135         134
         4         119         120         136         135
         4         120         121         137         136
         4         121         122         138         137
         4         122         123         139         138
         4         123         124         140         139
         4         124         125         141         140
         4         125         126         142         141
         4         126         127         143         142
         4         128         129         145         144
         4         129         130         146         145
         4         130         131         147         146
         4         131         132         148         147
         4         132         133         149         148
         4         133         134         150         149
         4         134         135         151         150
         4         135         136         152         151
         4         136         137         153         152
         4         137         138         154         153
         4         138         139         155         154
         4         139         140         156         155
         4         140         141         157         156
         4         141         142         158         157
         4         142         143         159         158
         4         144         145         161         160
         4         145         146         162         161
         4         146         147         163         162
         4         147         148         164         163
         4         148         149         165         164
         4         149         150         166         165
         4         150         151         167         166
         4         151         152         168         167
         4         152         153         169         168
         4         153         154         170         169
         4         154         155         171         170
         4         155         156         172         171
         4         156         157         173         172
         4         157         158         174         173
         4         158         159         175         174
         4         160         161         177         176
         4         161         162         178         177
         4         162         163         179         178
         4         163         164         180         179
         4         164         165         181         180
         4         165         166         182         181
         4         166         167         183         182
         4         167         168         184         183
         4         168         169         185         184
         4         169         170         186         185
         4         170         171         187         186
         4         171         172         188         187
         4         172         173         189         188
         4         173         174         190         189
         4         174         175         191         190
         4         176         177         193         192
         4         177         178         194         193
         4         178         179         195         194
         4         179         180         196         195
         4         180         181         197         196
         4         181         182         198         197
         4         182         183         199         198
         4         183         184         200         199
         4         184         185         201         200
         4         185         186         202         201
         4         186         187         203         202
         4         187         188         204         203
         4         188         189         205         204
         4         189         190         206         205
         4         190         191         207         206
         4         192         193         209         208
         4         193         194         210         209
         4         194         195         211         210
         4         195         196         212         211
         4         196         197         213         212
         4         197         198         214         213
         4         198         199         215         214
         4         199         200         216         215
         4         200         201         217         216
         4         201         202         218         217
         4         202         203         219         218
         4         203         204         220         219
         4         204         205         221         220
         4         205         206         222         221
         4         206         207         223         222
         4         208         209         225         224
         4         209         210         226         225
         4         210         211         227         226
         4         211         212         228         227
         4         212         213         229         228
         4         213         214         230         229
         4         214         215         231         230
         4         215         216         232         231
         4         216         217         233         232
         4         217         218         234         233
         4         218         219         235         234
         4         219         220         236         235
         4         220         221         237         236
         4         221         222         238         237
         4         222         223         239         238
         4         224         225         241         240
         4         225         226         242         241
         4         226         227         243         242
         4         227         228         244         243
         4         228         229         245         244
         4         229         230         246         245
         4         230         231         247         246
         4         231         232         248         247
         4         232         233         249         248
         4         233         234         250         249
         4         234         235         251         250
         4         235         236         252         251
         4         236         237         253         252
         4         237         238         254         253
         4         238         239         255         254
         4         240         241         257         256
         4         241         242         258         257
         4         242         243         259         258
         4         243         244         260         259
         4         244         245         261         260
         4         245         246         262         261
         4         246         247         263         262
         4         247         248         264         263
         4         248         249         265         264
         4         249         250         266         265
         4         250         251         267         266
         4         251         252         268         267
         4         252         253         269         268
         4         253         254         270         269
         4         254         255         271         270
         4         256         257         273         272
         4         257         258         274         273
         4         258         259         275         274
         4         259         260         276         275
         4         260         261         277         276
         4         261         262         278         277
         4         262         263         279         278
         4         263         264         280         279
         4         264         265         281         280
         4         265         266         282         281
         4         266         267         283         282
         4         267         268         284         283
         4         268         269         285         284
         4         269         270         286         285
         4         270         271         287         286
         4         272         273         289         288
         4         273         274         290         289
         4         274         275         291         290
         4         275         276         292         291
         4         276         277         293         292
         4         277         278         294         293
         4         278         279         295         294
         4         279         280         296         295
         4         280         281         297         296
         4         281         282         298         297
         4         282         283         299         298
         4         283         284         300         299
         4         284         285         301         300
         4         285         286         302         301
         4         286         287         303         302
         4         288         289         305         304
         4         289         290         306         305
         4         290         291         307         306
         4         291         292         308         307
         4         292         293         309         308
         4         293         294         310         309
         4         294         295         311         310
         4         295         296         312         311
         4         296         297         313         312
         4         297         298         314         313
         4         298         299         315         314
         4         299         300         316         315
         4         300         301         317         316
         4         301         302         318         317
         4         302         303         319         318
         4         304         305         321         320
         4         305         306         322         321
         4         306         307         323         322
         4         307         308         324         323
         4         308         309         325         324
         4         309         310         326         325
         4         310         311         327         326
         4         311         312         328         327
         4         312         313         329         328
         4         313         314         330         329
         4         314         315         331         330
         4         315         316         332         331
         4         316         317         333         332
         4         317         318         334         333
         4         318         319         335         334
         4         320         321         337         336
         4         321         322         338         337
         4         322         323         339         338
         4         323         324         340         339
         4         324         325         341         340
         4         325         326         342         341
         4         326         327         343         342
         4         327         328         344         343
         4         328         329         345         344
         4         329         330         346         345
         4         330         331         347         346
         4         331         332         348         347
         4         332         333         349         348
         4         333         334         350         349
         4         334         335         351         350
         4         336         337         353         352
         4         337         338         354         353
         4         338         339         355         354
         4         339         340         356         355
         4         340         341         357         356
         4         341         342         358         357
         4         342         343         359         358
         4         343         344         360         359
         4         344         345         361         360
         4         345         346         362         361
         4         346         347         363         362
         4         347         348         364         363
         4         348         349         365         364
         4         349         350         366         365
         4         350         351         367         366
         4         352         353         369         368
         4         353         354         370         369
         4         354         355         371         370
         4         355         356         372         371
         4         356         357         373         372
         4         357         358         374         373
         4         358         359         375         374
         4         359         360         376         375
         4         360         361         377         376
         4         361         362         378         377
         4         362         363         379         378
         4         363         364         380         379
         4         364         365         381         380
         4         365         366         382         381
         4         366         367         383         382
         4         368         369         385         384
         4         369         370         386         385
         4         370         371         387         386
         4         371         372         388         387
         4         372         373         389         388
         4         373         374         390         389
         4         374         375         391         390
         4         375         376         392         391
         4         376         377         393         392
         4         377         378         394         393
         4         378         379         395         394
         4         379         380         396         395
         4         380         381         397         396
         4         381         382         398         397
         4         382         383         399         398
         4         384         385         401         400
         4         385         386         402         401
         4         386         387         403         402
         4         387         388         404         403
         4         388         389         405         404
         4         389         390         406         405
         4         390         391         407         406
         4         391         392         408         407
         4         392         393         409         408
         4         393         394         410         409
         4         394         395         411         410
         4         395         396         412         411
         4         396         397         413         412
         4         397         398         414         413
         4         398         399         415         414
         4         400         401         417         416
         4         401         402         418         417
         4         402         403         419         418
         4         403         404         420         419
         4         404         405         421         420
         4         405         406         422         421
         4         406         407         423         422
         4         407         408         424         423
         4         408         409         425         424
         4         409         410         426         425
         4         410         411         427         426
         4         411         412         428         427
         4         412         413         429         428
         4         413         414         430         429
         4         414         415         431         430
         4         416         417         433         432
         4         417         418         434         433
         4         418         419         435         434
         4         419         420         436         435
         4         420         421         437         436
         4         421         422         438         437
         4         422         423         439         438
         4         423         424         440         439
         4         424         425         441         440
         4         425         426         442         441
         4         426         427         443         442
         4         427         428         444         443
         4         428         429         445         444
         4         429         430         446         445
         4         430         431         447         446
         4         432         433         449         448
         4         433         434         450         449
         4         434         435         451         450
         4         435         436         452         451
         4         436         437         453         452
         4         437         438         454         453
         4         438         439         455         454
         4         439         440         456         455
         4         440         441         457         456
         4         441         442         458         457
         4         442         443         459         458
         4         443         444         460         459
         4         444         445         461         460
         4         445         446         462         461
         4         446         447         463         462
         4         448         449         465         464
         4         449         450         466         465
         4         450         451         467         466
         4         451         452         468         467
         4         452         453         469         468
         4         453         454         470         469
         4         454         455         471         470
         4         455         456         472         471
         4         456         457         473         472
         4         457         458         474         473
         4         458         459         475         474
         4         459         460         476         475
         4         460         461         477         476
         4         461         462         478         477
         4         462         463         479         478
         4         464         465         481         480
         4         465         466         482         481
         4         466         467         483         482
         4         467         468         484         483
         4         468         469         485         484
         4         469         470         486         485
         4         470         471         487         486
         4         471         472         488         487
         4         472         473         489         488
         4         473         474         490         489
         4         474         475         491         490
         4         475         476         492         491
         4         476         477         493         492
         4         477         478         494         493
         4         478         479         495         494
CELL_TYPES        450
9
9
9
9
9
9
9
9
9
9
9
9
9
9
9
9
9
9
9
9
9
9
9
9
9
9
9
9
9
9
9
9
9
9
9
9
9
9
9
9
9
9
9
9
9
9
9
9
9
9
9
9
9
9
9
9
9
9
9
9
9
9
9
9
9
9
9
9
9
9
9
9
9
9
9
9
9
9
9
9
9
9
9
9
9
9
9
9
9
9
9
9
9
9
9
9
9
9
9
9
9
9
9
9
9
9
9
9
9
9
9
9
9
9
9
9
9
9
9
9
9
9
9
9
9
9
9
9
9
9
9
9
9
9
9
9
9
9
9
9
9
9
9
9
9
9
9
9
9
9
9
9
9
9
9
9
9
9
9
9
9
9
9
9
9
9
9
9
9
9
9
9
9
9
9
9
9
9
9
9
9
9
9
9
9
9
9
9
9
9
9
9
9
9
9
9
9
9
9
9
9
9
9
9
9
9
9
9
9
9
9
9
9
9
9
9
9
9
9
9
9
9
9
9
9
9
9
9
9
9
9
9
9
9
9
9
9
9
9
9
9
9
9
9
9
9
9
9
9
9
9
9
9
9
9
9
9
9
9
9
9
9
9
9
9
9
9
9
9
9
9
9
9
9
9
9
9
9
9
9
9
9
9
9
9
9
9
9
9
9
9
9
9
9
9
9
9
9
9
9
9
9
9
9
9
9
9
9
9
9
9
9
9
9
9
9
9
9
9
9
9
9
9
9
9
9
9
9
9
9
9
9
9
9
9
9
9
9
9
9
9
9
9
9
9
9
9
9
9
9
9
9
9
9
9
9
9
9
9
9
9
9
9
9
9
9
9
9
9
9
9
9
9
9
9
9
9
9
9
9
9
9
9
9
9
9
9
9
9
9
9
9
9
9
9
9
9
9
9
9
9
9
9
9
9
9
9
9
9
9
9
9
9
9
9
9
9
9
9
9
9
9
9
9
9
9
9
9
9
9
9
9
9
9
9
9
9
9
9
9
9
9
9
9
9
9
9
9
9
9
POINT_DATA       496
SCALARS p double 
LOOKUP_TABLE default
   85000000.0000000     
   85000000.0000000     
   85000000.0000000     
   85000000.0000000     
   85000000.0000000     
   85000000.0000000     
   85000000.0000000     
   85000000.0000000     
   85000000.0000000     
   85000000.0000000     
   85000000.0000000     
   85000000.0000000     
   85000000.0000000     
   85000000.0000000     
   85000000.0000000     
   85000000.0000000     
   82035025.8774348     
   82034850.4954543     
   82034535.5030343     
   82034282.2781147     
   82034067.7611010     
   82033875.7386461     
   82033701.2405571     
   82033541.0519475     
   82033392.7868576     
   82033254.4049955     
   82033124.0990402     
   82033000.3083012     
   82032881.7600241     
   82032768.4400549     
   82032658.5174503     
   82032603.8064750     
   79101175.4719879     
   79101058.2757527     
   79100751.1067268     
   79100368.5149100     
   79099994.9417414     
   79099645.5754200     
   79099320.8945632     
   79099019.4291872     
   79098738.8462491     
   79098476.6695525     
   79098230.6554516     
   79097999.2408685     
   79097782.5899085     
   79097584.2394959     
   79097426.1679264     
   79097361.9882197     
   76228917.2590065     
   76228788.4705059     
   76228462.7921061     
   76228037.3778966     
   76227577.3876492     
   76227122.6495484     
   76226687.9051661     
   76226277.7397340     
   76225892.9030837     
   76225532.6778017     
   76225196.2835202     
   76224884.1784116     
   76224599.9305211     
   76224355.2104792     
   76224176.1979700     
   76224107.4566149     
   73442981.0699977     
   73442857.8178198     
   73442534.8057695     
   73442095.6186359     
   73441601.4193680     
   73441092.1853577     
   73440591.4569922     
   73440110.8293275     
   73439655.6925205     
   73439228.7053635     
   73438832.0073456     
   73438469.1582602     
   73438147.6807676     
   73437882.2792490     
   73437697.8295411     
   73437629.6699950     
   70761472.2072160     
   70761358.5368369     
   70761054.8848332     
   70760629.0654051     
   70760134.6714338     
   70759610.7143225     
   70759083.2717991     
   70758568.6760148     
   70758076.8025732     
   70757614.1521768     
   70757186.2664445     
   70756799.8547908     
   70756464.9076257     
   70756196.6706290     
   70756016.6923917     
   70755951.8634592     
   68194851.4389476     
   68194750.5665173     
   68194476.0226417     
   68194080.8244179     
   68193610.1513453     
   68193099.6394394     
   68192575.7129762     
   68192057.1031915     
   68191556.9996526     
   68191085.2630574     
   68190650.4907202     
   68190261.8449454     
   68189930.6198745     
   68189671.3189190     
   68189501.7859473     
   68189441.8857193     
   65745819.5046681     
   65745732.2049084     
   65745490.7202835     
   65745135.0605432     
   65744702.0087842     
   65744222.8708411     
   65743722.8457312     
   65743221.5466987     
   65742734.1860091     
   65742273.0567857     
   65741849.0343008     
   65741472.9271662     
   65741156.5154537     
   65740913.0614465     
   65740757.0187094     
   65740702.7072881     
   63409850.5519866     
   63409776.1923672     
   63409567.4096869     
   63409253.5157975     
   63408863.7278944     
   63408424.8031923     
   63407959.9156646     
   63407488.4980188     
   63407026.7334099     
   63406588.3998950     
   63406185.8261898     
   63405830.7586888     
   63405534.9612420     
   63405310.3671313     
   63405168.6147631     
   63405119.8600070     
   61176206.0353255     
   61176143.0409790     
   61175963.7071607     
   61175688.9830776     
   61175341.7451254     
   61174944.5412226     
   61174518.2515923     
   61174081.5203984     
   61173650.7527952     
   61173240.4607717     
   61172863.7548439     
   61172532.8014311     
   61172259.0849936     
   61172053.3343427     
   61171925.0058353     
   61171881.2758745     
   59029231.1364732     
   59029177.4054374     
   59029022.4919606     
   59028781.1342513     
   59028471.2286155     
   59028111.7755333     
   59027721.4872008     
   59027317.9874699     
   59026917.4776817     
   59026534.7149273     
   59026183.1454156     
   59025875.0448472     
   59025621.5348076     
   59025432.3689221     
   59025315.4191049     
   59025275.8434664     
   56949760.9859328     
   56949714.1681811     
   56949577.6912847     
   56949361.9572608     
   56949081.2267319     
   56948751.7792735     
   56948390.5467977     
   56948014.1954302     
   56947638.5810167     
   56947278.4731679     
   56946947.4306619     
   56946657.7131717     
   56946420.1273874     
   56946243.7285848     
   56946135.3315600     
   56946098.8268188     
   54916501.7106936     
   54916459.3832125     
   54916334.9481435     
   54916136.0680516     
   54915874.6270442     
   54915565.0733318     
   54915223.1056025     
   54914864.7027560     
   54914505.4543204     
   54914160.1200964     
   54913842.3329496     
   54913564.3569724     
   54913336.8227559     
   54913168.3807894     
   54913065.2416237     
   54913030.6052755     
   52907294.1281665     
   52907253.8896665     
   52907135.0194744     
   52906943.8095120     
   52906690.9255421     
   52906389.8795262     
   52906055.7670458     
   52905704.2802256     
   52905350.9714249     
   52905010.7172235     
   52904697.3175797     
   52904423.1616004     
   52904198.8982715     
   52904033.0663730     
   52903931.6608191     
   52903897.6403433     
   50900206.9536129     
   50900166.4690070     
   50900046.7907541     
   50899854.0532401     
   50899598.7743932     
   50899294.4018172     
   50898956.0868905     
   50898599.6995509     
   50898241.0666087     
   50897895.3935801     
   50897576.8162756     
   50897298.0244338     
   50897069.9051588     
   50896901.1675896     
   50896797.9301878     
   50896763.2758338     
   48874437.6715048     
   48874394.6935076     
   48874268.0524187     
   48874064.8546831     
   48873796.4773797     
   48873477.1392048     
   48873122.6959463     
   48872749.6700059     
   48872374.4967436     
   48872012.9494363     
   48871679.6917909     
   48871387.9032458     
   48871148.9274769     
   48870971.9074486     
   48870863.3891444     
   48870826.8983731     
   46811021.4785603     
   46810973.8680951     
   46810834.4274721     
   46810612.3395503     
   46810320.8064255     
   46809975.6091312     
   46809593.9155962     
   46809193.3400317     
   46808791.2305259     
   46808404.1409567     
   46808047.4310279     
   46807734.9352756     
   46807478.6478977     
   46807288.3839637     
   46807171.3971047     
   46807131.9567939     
   44693362.5399228     
   44693308.2998427     
   44693150.6671922     
   44692902.0180314     
   44692578.3175394     
   44692197.6467166     
   44691779.0245584     
   44691341.5205534     
   44690903.6229440     
   44690482.8060027     
   44690095.2274775     
   44689755.4857787     
   44689476.3744516     
   44689268.5874110     
   44689140.3504729     
   44689096.9806656     
   42507608.7509615     
   42507546.0805041     
   42507365.4823515     
   42507083.6711608     
   42506720.2865251     
   42506296.3778915     
   42505833.2555404     
   42505351.6922128     
   42504871.4231307     
   42504410.8667570     
   42503986.9770623     
   42503615.1391148     
   42503309.0310188     
   42503080.3945323     
   42502938.6826456     
   42502890.5832836     
   40242893.1156909     
   40242820.4869245     
   40242612.9987989     
   40242292.8767159     
   40241884.3079043     
   40241411.8851646     
   40240899.5159717     
   40240369.7668908     
   40239843.5634386     
   40239340.1363018     
   40238877.0961244     
   40238470.5253932     
   40238134.9917890     
   40237883.4103038     
   40237726.7116063     
   40237673.3116139     
   37891463.5074033     
   37891379.7600971     
   37891142.5857320     
   37890780.9061081     
   37890324.2686831     
   37889801.2551664     
   37889238.4969354     
   37888660.2408895     
   37888088.3402044     
   37887542.5145036     
   37887040.7252334     
   37886599.5289941     
   37886234.2930843     
   37885959.1818369     
   37885786.8545731     
   37885727.8609936     
   35448719.4542599     
   35448623.9024377     
   35448355.6886621     
   35447951.6145696     
   35447447.3067636     
   35446875.6003950     
   35446265.7392958     
   35445643.2803516     
   35445030.4965203     
   35444447.0552666     
   35443910.7776473     
   35443438.3208974     
   35443045.6534449     
   35442748.2087322     
   35442560.6305486     
   35442496.0743404     
   32913170.8249654     
   32913063.3673813     
   32912764.5405248     
   32912320.1990959     
   32911772.6266756     
   32911158.9171318     
   32910510.4963907     
   32909853.5460477     
   32909209.9783203     
   32908598.6438749     
   32908036.5467230     
   32907539.9143662     
   32907124.9947430     
   32906808.4403805     
   32906607.1405188     
   32906537.4153810     
   30286329.6614570     
   30286210.8905994     
   30285884.0107619     
   30285405.1020299     
   30284823.4639103     
   30284180.0662869     
   30283507.6534036     
   30282831.9751691     
   30282173.5346438     
   30281549.4153298     
   30280974.9769449     
   30280465.3379529     
   30280036.5592240     
   30279706.3606231     
   30279494.1298289     
   30279420.0214508     
   27572543.3977133     
   27572414.7102499     
   27572064.8711197     
   27571561.3867077     
   27570960.5579042     
   27570306.2324272     
   27569631.0149928     
   27568958.7674651     
   27568307.3452260     
   27567691.0457053     
   27567122.7013923     
   27566615.5232017     
   27566184.7336945     
   27565848.7907756     
   27565629.7763827     
   27565552.4837310     
   24778775.5514341     
   24778639.2864478     
   24778274.6642202     
   24777761.8725845     
   24777163.4754847     
   24776524.1698997     
   24775874.1794846     
   24775233.6955408     
   24774616.7129929     
   24774033.8944715     
   24773494.7844555     
   24773009.8439263     
   24772592.5486509     
   24772261.4239582     
   24772041.2504352     
   24771962.4057181     
   21914338.7422132     
   21914198.4258412     
   21913831.2652161     
   21913331.3280743     
   21912765.1124993     
   21912174.4140067     
   21911583.9822002     
   21911008.5930296     
   21910457.6172566     
   21909937.7300963     
   21909454.8485156     
   21909015.9481264     
   21908631.5458010     
   21908318.8785716     
   21908104.8936525     
   21908026.6319793     
   18990584.4459883     
   18990445.4480668     
   18990094.2826208     
   18989639.1868016     
   18989144.6453561     
   18988643.1899945     
   18988150.8851912     
   18987676.3683406     
   18987224.5219113     
   18986798.4641333     
   18986400.8294819     
   18986035.0405037     
   18985707.1207092     
   18985430.5687227     
   18985232.5592277     
   18985157.5949359     
   16020554.5756034     
   16020425.9494751     
   16020121.1082483     
   16019758.0584355     
   16019384.4931453     
   16019016.1794715     
   16018660.5304213     
   16018320.9835525     
   16017999.1598181     
   16017695.8051615     
   16017411.3795551     
   16017146.5870216     
   16016903.4117608     
   16016686.6200566     
   16016518.4776186     
   16016451.3206275     
   13018600.0541071     
   13018502.5943222     
   13018302.6332439     
   13018097.0133699     
   13017893.8276438     
   13017697.8643180     
   13017510.8417547     
   13017333.4552571     
   13017165.8478631     
   13017007.8782428     
   13016859.2612431     
   13016719.6868866     
   13016588.8763401     
   13016467.4817514     
   13016353.7688376     
   13016298.2067609     
   10000000.0000000     
   10000000.0000000     
   10000000.0000000     
   10000000.0000000     
   10000000.0000000     
   10000000.0000000     
   10000000.0000000     
   10000000.0000000     
   10000000.0000000     
   10000000.0000000     
   10000000.0000000     
   10000000.0000000     
   10000000.0000000     
  10000000.00000000     
   10000000.0000000     
   10000000.0000000     
VECTORS u double 
    0.00000E+00         0.15946E-01         0.00000E+00
    0.00000E+00         0.14955E-01         0.00000E+00
    0.00000E+00         0.13879E-01         0.00000E+00
    0.00000E+00         0.12826E-01         0.00000E+00
    0.00000E+00         0.11809E-01         0.00000E+00
    0.00000E+00         0.10820E-01         0.00000E+00
    0.00000E+00         0.98535E-02         0.00000E+00
    0.00000E+00         0.89006E-02         0.00000E+00
    0.00000E+00         0.79519E-02         0.00000E+00
    0.00000E+00         0.69964E-02         0.00000E+00
    0.00000E+00         0.60210E-02         0.00000E+00
    0.00000E+00         0.50097E-02         0.00000E+00
    0.00000E+00         0.39419E-02         0.00000E+00
    0.00000E+00         0.27894E-02         0.00000E+00
    0.00000E+00         0.15089E-02         0.00000E+00
    0.00000E+00         0.00000E+00         0.00000E+00
    0.38233E-02         0.15440E-01         0.00000E+00
    0.30848E-02         0.14566E-01         0.00000E+00
    0.26664E-02         0.13594E-01         0.00000E+00
    0.24106E-02         0.12603E-01         0.00000E+00
    0.22120E-02         0.11624E-01         0.00000E+00
    0.20453E-02         0.10664E-01         0.00000E+00
    0.18974E-02         0.97187E-02         0.00000E+00
    0.17598E-02         0.87835E-02         0.00000E+00
    0.16260E-02         0.78500E-02         0.00000E+00
    0.14904E-02         0.69076E-02         0.00000E+00
    0.13470E-02         0.59439E-02         0.00000E+00
    0.11886E-02         0.49431E-02         0.00000E+00
    0.10052E-02         0.38849E-02         0.00000E+00
    0.78023E-03         0.27417E-02         0.00000E+00
    0.48129E-03         0.14705E-02         0.00000E+00
    0.00000E+00         0.00000E+00         0.00000E+00
    0.69157E-02         0.14408E-01         0.00000E+00
    0.58733E-02         0.13643E-01         0.00000E+00
    0.51421E-02         0.12831E-01         0.00000E+00
    0.46241E-02         0.11972E-01         0.00000E+00
    0.42222E-02         0.11091E-01         0.00000E+00
    0.38856E-02         0.10206E-01         0.00000E+00
    0.35875E-02         0.93220E-02         0.00000E+00
    0.33110E-02         0.84382E-02         0.00000E+00
    0.30429E-02         0.75488E-02         0.00000E+00
    0.27719E-02         0.66454E-02         0.00000E+00
    0.24862E-02         0.57167E-02         0.00000E+00
    0.21720E-02         0.47481E-02         0.00000E+00
    0.18103E-02         0.37207E-02         0.00000E+00
    0.13718E-02         0.26092E-02         0.00000E+00
    0.80149E-03         0.13793E-02         0.00000E+00
    0.00000E+00         0.00000E+00         0.00000E+00
    0.97274E-02         0.13013E-01         0.00000E+00
    0.84017E-02         0.12400E-01         0.00000E+00
    0.74110E-02         0.11727E-01         0.00000E+00
    0.66533E-02         0.11009E-01         0.00000E+00
    0.60491E-02         0.10254E-01         0.00000E+00
    0.55405E-02         0.94769E-02         0.00000E+00
    0.50905E-02         0.86850E-02         0.00000E+00
    0.46738E-02         0.78808E-02         0.00000E+00
    0.42712E-02         0.70616E-02         0.00000E+00
    0.38657E-02         0.62214E-02         0.00000E+00
    0.34403E-02         0.53509E-02         0.00000E+00
    0.29756E-02         0.44374E-02         0.00000E+00
    0.24462E-02         0.34649E-02         0.00000E+00
    0.18152E-02         0.24135E-02         0.00000E+00
    0.10267E-02         0.12629E-02         0.00000E+00
    0.00000E+00         0.00000E+00         0.00000E+00
    0.12240E-01         0.11356E-01         0.00000E+00
    0.10682E-01         0.10885E-01         0.00000E+00
    0.94654E-02         0.10361E-01         0.00000E+00
    0.84967E-02         0.97863E-02         0.00000E+00
    0.77019E-02         0.91686E-02         0.00000E+00
    0.70249E-02         0.85167E-02         0.00000E+00
    0.64236E-02         0.78376E-02         0.00000E+00
    0.58673E-02         0.71348E-02         0.00000E+00
    0.53311E-02         0.64079E-02         0.00000E+00
    0.47936E-02         0.56528E-02         0.00000E+00
    0.42332E-02         0.48626E-02         0.00000E+00
    0.36262E-02         0.40273E-02         0.00000E+00
    0.29438E-02         0.31348E-02         0.00000E+00
    0.21478E-02         0.21720E-02         0.00000E+00
    0.11878E-02         0.11280E-02         0.00000E+00
    0.00000E+00         0.00000E+00         0.00000E+00
    0.14458E-01         0.94987E-02         0.00000E+00
    0.12717E-01         0.91673E-02         0.00000E+00
    0.11310E-01         0.87881E-02         0.00000E+00
    0.10155E-01         0.83588E-02         0.00000E+00
    0.91864E-02         0.78827E-02         0.00000E+00
    0.83494E-02         0.73656E-02         0.00000E+00
    0.76015E-02         0.68127E-02         0.00000E+00
    0.69086E-02         0.62274E-02         0.00000E+00
    0.62422E-02         0.56104E-02         0.00000E+00
    0.55770E-02         0.49595E-02         0.00000E+00
    0.48883E-02         0.42698E-02         0.00000E+00
    0.41499E-02         0.35344E-02         0.00000E+00
    0.33316E-02         0.27453E-02         0.00000E+00
    0.23972E-02         0.18948E-02         0.00000E+00
    0.13034E-02         0.97870E-03         0.00000E+00
    0.00000E+00         0.00000E+00         0.00000E+00
    0.16397E-01         0.74930E-02         0.00000E+00
    0.14515E-01         0.72959E-02         0.00000E+00
    0.12949E-01         0.70576E-02         0.00000E+00
    0.11633E-01         0.67717E-02         0.00000E+00
    0.10508E-01         0.64384E-02         0.00000E+00
    0.95231E-02         0.60606E-02         0.00000E+00
    0.86366E-02         0.56421E-02         0.00000E+00
    0.78133E-02         0.51857E-02         0.00000E+00
    0.70223E-02         0.46925E-02         0.00000E+00
    0.62361E-02         0.41617E-02         0.00000E+00
    0.54279E-02         0.35902E-02         0.00000E+00
    0.45701E-02         0.29739E-02         0.00000E+00
    0.36331E-02         0.23081E-02         0.00000E+00
    0.25839E-02         0.15895E-02         0.00000E+00
    0.13858E-02         0.81808E-03         0.00000E+00
    0.00000E+00         0.00000E+00         0.00000E+00
    0.18078E-01         0.53779E-02         0.00000E+00
    0.16086E-01         0.53106E-02         0.00000E+00
    0.14391E-01         0.52081E-02         0.00000E+00
    0.12937E-01         0.50622E-02         0.00000E+00
    0.11673E-01         0.48704E-02         0.00000E+00
    0.10554E-01         0.46338E-02         0.00000E+00
    0.95399E-02         0.43546E-02         0.00000E+00
    0.85949E-02         0.40351E-02         0.00000E+00
    0.76876E-02         0.36764E-02         0.00000E+00
    0.67890E-02         0.32785E-02         0.00000E+00
    0.58715E-02         0.28400E-02         0.00000E+00
    0.49072E-02         0.23588E-02         0.00000E+00
    0.38679E-02         0.18330E-02         0.00000E+00
    0.27238E-02         0.12620E-02         0.00000E+00
    0.14444E-02         0.64842E-03         0.00000E+00
    0.00000E+00         0.00000E+00         0.00000E+00
    0.19519E-01         0.31832E-02         0.00000E+00
    0.17445E-01         0.32414E-02         0.00000E+00
    0.15644E-01         0.32699E-02         0.00000E+00
    0.14073E-01         0.32598E-02         0.00000E+00
    0.12689E-01         0.32074E-02         0.00000E+00
    0.11451E-01         0.31121E-02         0.00000E+00
    0.10321E-01         0.29750E-02         0.00000E+00
    0.92653E-02         0.27978E-02         0.00000E+00
    0.82519E-02         0.25816E-02         0.00000E+00
    0.72514E-02         0.23269E-02         0.00000E+00
    0.62359E-02         0.20333E-02         0.00000E+00
    0.51781E-02         0.17003E-02         0.00000E+00
    0.40513E-02         0.13277E-02         0.00000E+00
    0.28292E-02         0.91679E-03         0.00000E+00
    0.14863E-02         0.47156E-03         0.00000E+00
    0.00000E+00         0.00000E+00         0.00000E+00
    0.20742E-01         0.93050E-03         0.00000E+00
    0.18603E-01         0.11103E-02         0.00000E+00
    0.16717E-01         0.12656E-02         0.00000E+00
    0.15049E-01         0.13876E-02         0.00000E+00
    0.13562E-01         0.14719E-02         0.00000E+00
    0.12220E-01         0.15172E-02         0.00000E+00
    0.10989E-01         0.15238E-02         0.00000E+00
    0.98349E-02         0.14927E-02         0.00000E+00
    0.87271E-02         0.14250E-02         0.00000E+00
    0.76363E-02         0.13213E-02         0.00000E+00
    0.65349E-02         0.11820E-02         0.00000E+00
    0.53964E-02         0.10075E-02         0.00000E+00
    0.41958E-02         0.79868E-03         0.00000E+00
    0.29097E-02         0.55771E-03         0.00000E+00
    0.15168E-02         0.28898E-03         0.00000E+00
    0.00000E+00         0.00000E+00         0.00000E+00
    0.21763E-01        -0.13652E-02         0.00000E+00
    0.19575E-01        -0.10667E-02         0.00000E+00
    0.17620E-01        -0.78812E-03         0.00000E+00
    0.15871E-01        -0.53742E-03         0.00000E+00
    0.14298E-01        -0.31874E-03         0.00000E+00
    0.12869E-01        -0.13380E-03         0.00000E+00
    0.11551E-01         0.17224E-04         0.00000E+00
    0.10312E-01         0.13493E-03         0.00000E+00
    0.91227E-02         0.22011E-03         0.00000E+00
    0.79542E-02         0.27352E-03         0.00000E+00
    0.67794E-02         0.29586E-03         0.00000E+00
    0.55728E-02         0.28792E-03         0.00000E+00
    0.43109E-02         0.25104E-03         0.00000E+00
    0.29725E-02         0.18764E-03         0.00000E+00
    0.15400E-02         0.10183E-03         0.00000E+00
    0.00000E+00         0.00000E+00         0.00000E+00
    0.22598E-01        -0.36940E-02         0.00000E+00
    0.20370E-01        -0.32789E-02         0.00000E+00
    0.18360E-01        -0.28797E-02         0.00000E+00
    0.16547E-01        -0.25028E-02         0.00000E+00
    0.14904E-01        -0.21516E-02         0.00000E+00
    0.13402E-01        -0.18279E-02         0.00000E+00
    0.12012E-01        -0.15319E-02         0.00000E+00
    0.10703E-01        -0.12635E-02         0.00000E+00
    0.94463E-02        -0.10221E-02         0.00000E+00
    0.82134E-02        -0.80695E-03         0.00000E+00
    0.69779E-02        -0.61741E-03         0.00000E+00
    0.57153E-02        -0.45262E-03         0.00000E+00
    0.44035E-02        -0.31124E-03         0.00000E+00
    0.30230E-02        -0.19116E-03         0.00000E+00
    0.15586E-02        -0.89051E-04         0.00000E+00
    0.00000E+00         0.00000E+00         0.00000E+00
    0.23259E-01        -0.60499E-02         0.00000E+00
    0.20998E-01        -0.55196E-02         0.00000E+00
    0.18944E-01        -0.50015E-02         0.00000E+00
    0.17080E-01        -0.44999E-02         0.00000E+00
    0.15382E-01        -0.40174E-02         0.00000E+00
    0.13824E-01        -0.35553E-02         0.00000E+00
    0.12378E-01        -0.31140E-02         0.00000E+00
    0.11013E-01        -0.26933E-02         0.00000E+00
    0.97032E-02        -0.22931E-02         0.00000E+00
    0.84194E-02        -0.19127E-02         0.00000E+00
    0.71362E-02        -0.15517E-02         0.00000E+00
    0.58297E-02        -0.12095E-02         0.00000E+00
    0.44785E-02        -0.88510E-03         0.00000E+00
    0.30648E-02        -0.57701E-03         0.00000E+00
    0.15748E-02        -0.28303E-03         0.00000E+00
    0.00000E+00         0.00000E+00         0.00000E+00
    0.23752E-01        -0.84298E-02         0.00000E+00
    0.21465E-01        -0.77847E-02         0.00000E+00
    0.19377E-01        -0.71483E-02         0.00000E+00
    0.17475E-01        -0.65227E-02         0.00000E+00
    0.15737E-01        -0.59094E-02         0.00000E+00
    0.14138E-01        -0.53089E-02         0.00000E+00
    0.12650E-01        -0.47216E-02         0.00000E+00
    0.11246E-01        -0.41474E-02         0.00000E+00
    0.98969E-02        -0.35862E-02         0.00000E+00
    0.85762E-02        -0.30379E-02         0.00000E+00
    0.72582E-02        -0.25023E-02         0.00000E+00
    0.59194E-02        -0.19792E-02         0.00000E+00
    0.45391E-02        -0.14681E-02         0.00000E+00
    0.31002E-02        -0.96860E-03         0.00000E+00
    0.15896E-02        -0.47965E-03         0.00000E+00
    0.00000E+00         0.00000E+00         0.00000E+00
    0.24084E-01        -0.10832E-01         0.00000E+00
    0.21773E-01        -0.10072E-01         0.00000E+00
    0.19661E-01        -0.93171E-02         0.00000E+00
    0.17733E-01        -0.85673E-02         0.00000E+00
    0.15969E-01        -0.78227E-02         0.00000E+00
    0.14344E-01        -0.70833E-02         0.00000E+00
    0.12831E-01        -0.63490E-02         0.00000E+00
    0.11402E-01        -0.56200E-02         0.00000E+00
    0.10029E-01        -0.48963E-02         0.00000E+00
    0.86854E-02        -0.41780E-02         0.00000E+00
    0.73456E-02        -0.34654E-02         0.00000E+00
    0.59862E-02        -0.27587E-02         0.00000E+00
    0.45867E-02        -0.20585E-02         0.00000E+00
    0.31301E-02        -0.13649E-02         0.00000E+00
    0.16037E-02        -0.67856E-03         0.00000E+00
    0.00000E+00         0.00000E+00         0.00000E+00
    0.24255E-01        -0.13257E-01         0.00000E+00
    0.21925E-01        -0.12380E-01         0.00000E+00
    0.19797E-01        -0.11505E-01         0.00000E+00
    0.17855E-01        -0.10630E-01         0.00000E+00
    0.16079E-01        -0.97533E-02         0.00000E+00
    0.14443E-01        -0.88739E-02         0.00000E+00
    0.12920E-01        -0.79915E-02         0.00000E+00
    0.11481E-01        -0.71063E-02         0.00000E+00
    0.10100E-01        -0.62186E-02         0.00000E+00
    0.87474E-02        -0.53287E-02         0.00000E+00
    0.73988E-02        -0.44375E-02         0.00000E+00
    0.60304E-02        -0.35457E-02         0.00000E+00
    0.46215E-02        -0.26544E-02         0.00000E+00
    0.31546E-02        -0.17650E-02         0.00000E+00
    0.16168E-02        -0.87943E-03         0.00000E+00
    0.00000E+00         0.00000E+00         0.00000E+00
    0.24262E-01        -0.15702E-01         0.00000E+00
    0.21916E-01        -0.14707E-01         0.00000E+00
    0.19781E-01        -0.13711E-01         0.00000E+00
    0.17838E-01        -0.12708E-01         0.00000E+00
    0.16064E-01        -0.11697E-01         0.00000E+00
    0.14432E-01        -0.10676E-01         0.00000E+00
    0.12915E-01        -0.96443E-02         0.00000E+00
    0.11483E-01        -0.86017E-02         0.00000E+00
    0.10107E-01        -0.75487E-02         0.00000E+00
    0.87606E-02        -0.64863E-02         0.00000E+00
    0.74165E-02        -0.54154E-02         0.00000E+00
    0.60508E-02        -0.43375E-02         0.00000E+00
    0.46423E-02        -0.32542E-02         0.00000E+00
    0.31729E-02        -0.21680E-02         0.00000E+00
    0.16286E-02        -0.10819E-02         0.00000E+00
    0.00000E+00         0.00000E+00         0.00000E+00
    0.24098E-01        -0.18165E-01         0.00000E+00
    0.21743E-01        -0.17050E-01         0.00000E+00
    0.19610E-01        -0.15930E-01         0.00000E+00
    0.17679E-01        -0.14798E-01         0.00000E+00
    0.15921E-01        -0.13650E-01         0.00000E+00
    0.14310E-01        -0.12486E-01         0.00000E+00
    0.12814E-01        -0.11302E-01         0.00000E+00
    0.11404E-01        -0.10101E-01         0.00000E+00
    0.10049E-01        -0.88820E-02         0.00000E+00
    0.87225E-02        -0.76464E-02         0.00000E+00
    0.73960E-02        -0.63956E-02         0.00000E+00
    0.60451E-02        -0.51314E-02         0.00000E+00
    0.46473E-02        -0.38561E-02         0.00000E+00
    0.31834E-02        -0.25728E-02         0.00000E+00
    0.16380E-02        -0.12856E-02         0.00000E+00
    0.00000E+00         0.00000E+00         0.00000E+00
    0.23753E-01        -0.20644E-01         0.00000E+00
    0.21397E-01        -0.19405E-01         0.00000E+00
    0.19279E-01        -0.18158E-01         0.00000E+00
    0.17372E-01        -0.16893E-01         0.00000E+00
    0.15647E-01        -0.15606E-01         0.00000E+00
    0.14071E-01        -0.14295E-01         0.00000E+00
    0.12612E-01        -0.12959E-01         0.00000E+00
    0.11240E-01        -0.11598E-01         0.00000E+00
    0.99219E-02        -0.10212E-01         0.00000E+00
    0.86292E-02        -0.88039E-02         0.00000E+00
    0.73337E-02        -0.73738E-02         0.00000E+00
    0.60096E-02        -0.59242E-02         0.00000E+00
    0.46332E-02        -0.44577E-02         0.00000E+00
    0.31839E-02        -0.29779E-02         0.00000E+00
    0.16439E-02        -0.14898E-02         0.00000E+00
    0.00000E+00         0.00000E+00         0.00000E+00
    0.23217E-01        -0.23129E-01         0.00000E+00
    0.20870E-01        -0.21765E-01         0.00000E+00
    0.18779E-01        -0.20386E-01         0.00000E+00
    0.16912E-01        -0.18985E-01         0.00000E+00
    0.15235E-01        -0.17556E-01         0.00000E+00
    0.13711E-01        -0.16097E-01         0.00000E+00
    0.12306E-01        -0.14606E-01         0.00000E+00
    0.10986E-01        -0.13085E-01         0.00000E+00
    0.97198E-02        -0.11533E-01         0.00000E+00
    0.84755E-02        -0.99525E-02         0.00000E+00
    0.72245E-02        -0.83448E-02         0.00000E+00
    0.59398E-02        -0.67118E-02         0.00000E+00
    0.45963E-02        -0.50562E-02         0.00000E+00
    0.31712E-02        -0.33817E-02         0.00000E+00
    0.16445E-02        -0.16938E-02         0.00000E+00
    0.00000E+00         0.00000E+00         0.00000E+00
    0.22474E-01        -0.25612E-01         0.00000E+00
    0.20149E-01        -0.24118E-01         0.00000E+00
    0.18102E-01        -0.22605E-01         0.00000E+00
    0.16292E-01        -0.21065E-01         0.00000E+00
    0.14679E-01        -0.19490E-01         0.00000E+00
    0.13224E-01        -0.17880E-01         0.00000E+00
    0.11889E-01        -0.16233E-01         0.00000E+00
    0.10638E-01        -0.14551E-01         0.00000E+00
    0.94371E-02        -0.12834E-01         0.00000E+00
    0.82552E-02        -0.11084E-01         0.00000E+00
    0.70623E-02        -0.93018E-02         0.00000E+00
    0.58300E-02        -0.74889E-02         0.00000E+00
    0.45315E-02        -0.56477E-02         0.00000E+00
    0.31418E-02        -0.37818E-02         0.00000E+00
    0.16379E-02        -0.18965E-02         0.00000E+00
    0.00000E+00         0.00000E+00         0.00000E+00
    0.21508E-01        -0.28078E-01         0.00000E+00
    0.19223E-01        -0.26451E-01         0.00000E+00
    0.17238E-01        -0.24800E-01         0.00000E+00
    0.15504E-01        -0.23116E-01         0.00000E+00
    0.13974E-01        -0.21393E-01         0.00000E+00
    0.12605E-01        -0.19630E-01         0.00000E+00
    0.11355E-01        -0.17827E-01         0.00000E+00
    0.10187E-01        -0.15985E-01         0.00000E+00
    0.90667E-02        -0.14105E-01         0.00000E+00
    0.79611E-02        -0.12189E-01         0.00000E+00
    0.68397E-02        -0.10237E-01         0.00000E+00
    0.56732E-02        -0.82492E-02         0.00000E+00
    0.44328E-02        -0.62278E-02         0.00000E+00
    0.30911E-02        -0.41754E-02         0.00000E+00
    0.16216E-02        -0.20967E-02         0.00000E+00
    0.00000E+00         0.00000E+00         0.00000E+00
    0.20303E-01        -0.30508E-01         0.00000E+00
    0.18079E-01        -0.28746E-01         0.00000E+00
    0.16178E-01        -0.26953E-01         0.00000E+00
    0.14540E-01        -0.25121E-01         0.00000E+00
    0.13113E-01        -0.23247E-01         0.00000E+00
    0.11846E-01        -0.21329E-01         0.00000E+00
    0.10698E-01        -0.19369E-01         0.00000E+00
    0.96274E-02        -0.17370E-01         0.00000E+00
    0.86005E-02        -0.15331E-01         0.00000E+00
    0.75844E-02        -0.13254E-01         0.00000E+00
    0.65479E-02        -0.11139E-01         0.00000E+00
    0.54608E-02        -0.89846E-02         0.00000E+00
    0.42929E-02        -0.67908E-02         0.00000E+00
    0.30136E-02        -0.45590E-02         0.00000E+00
    0.15925E-02        -0.22929E-02         0.00000E+00
    0.00000E+00         0.00000E+00         0.00000E+00
    0.18840E-01        -0.32879E-01         0.00000E+00
    0.16705E-01        -0.30977E-01         0.00000E+00
    0.14912E-01        -0.29039E-01         0.00000E+00
    0.13394E-01        -0.27056E-01         0.00000E+00
    0.12089E-01        -0.25027E-01         0.00000E+00
    0.10943E-01        -0.22954E-01         0.00000E+00
    0.99098E-02        -0.20840E-01         0.00000E+00
    0.89504E-02        -0.18687E-01         0.00000E+00
    0.80294E-02        -0.16495E-01         0.00000E+00
    0.71149E-02        -0.14266E-01         0.00000E+00
    0.61763E-02        -0.11997E-01         0.00000E+00
    0.51828E-02        -0.96858E-02         0.00000E+00
    0.41027E-02        -0.73300E-02         0.00000E+00
    0.29025E-02        -0.49285E-02         0.00000E+00
    0.15469E-02        -0.24831E-02         0.00000E+00
    0.00000E+00         0.00000E+00         0.00000E+00
    0.17101E-01        -0.35160E-01         0.00000E+00
    0.15087E-01        -0.33117E-01         0.00000E+00
    0.13433E-01        -0.31029E-01         0.00000E+00
    0.12060E-01        -0.28892E-01         0.00000E+00
    0.10898E-01        -0.26707E-01         0.00000E+00
    0.98882E-02        -0.24480E-01         0.00000E+00
    0.89844E-02        -0.22214E-01         0.00000E+00
    0.81471E-02        -0.19913E-01         0.00000E+00
    0.73428E-02        -0.17578E-01         0.00000E+00
    0.65410E-02        -0.15206E-01         0.00000E+00
    0.57123E-02        -0.12796E-01         0.00000E+00
    0.48266E-02        -0.10342E-01         0.00000E+00
    0.38510E-02        -0.78373E-02         0.00000E+00
    0.27491E-02        -0.52791E-02         0.00000E+00
    0.14800E-02        -0.26653E-02         0.00000E+00
    0.00000E+00         0.00000E+00         0.00000E+00
    0.15068E-01        -0.37315E-01         0.00000E+00
    0.13215E-01        -0.35127E-01         0.00000E+00
    0.11735E-01        -0.32886E-01         0.00000E+00
    0.10534E-01        -0.30592E-01         0.00000E+00
    0.95353E-02        -0.28252E-01         0.00000E+00
    0.86772E-02        -0.25873E-01         0.00000E+00
    0.79136E-02        -0.23462E-01         0.00000E+00
    0.72077E-02        -0.21023E-01         0.00000E+00
    0.65286E-02        -0.18555E-01         0.00000E+00
    0.58487E-02        -0.16056E-01         0.00000E+00
    0.51412E-02        -0.13520E-01         0.00000E+00
    0.43772E-02        -0.10939E-01         0.00000E+00
    0.35240E-02        -0.83037E-02         0.00000E+00
    0.25425E-02        -0.56051E-02         0.00000E+00
    0.13857E-02        -0.28371E-02         0.00000E+00
    0.00000E+00         0.00000E+00         0.00000E+00
    0.12726E-01        -0.39299E-01         0.00000E+00
    0.11081E-01        -0.36963E-01         0.00000E+00
    0.98146E-02        -0.34566E-01         0.00000E+00
    0.88152E-02        -0.32114E-01         0.00000E+00
    0.79983E-02        -0.29620E-01         0.00000E+00
    0.73039E-02        -0.27097E-01         0.00000E+00
    0.66887E-02        -0.24552E-01         0.00000E+00
    0.61206E-02        -0.21988E-01         0.00000E+00
    0.55730E-02        -0.19404E-01         0.00000E+00
    0.50224E-02        -0.16794E-01         0.00000E+00
    0.44455E-02        -0.14151E-01         0.00000E+00
    0.38166E-02        -0.11464E-01         0.00000E+00
    0.31044E-02        -0.87183E-02         0.00000E+00
    0.22686E-02        -0.59000E-02         0.00000E+00
    0.12559E-02        -0.29957E-02         0.00000E+00
    0.00000E+00         0.00000E+00         0.00000E+00
    0.10057E-01        -0.41054E-01         0.00000E+00
    0.86812E-02        -0.38569E-01         0.00000E+00
    0.76738E-02        -0.36013E-01         0.00000E+00
    0.69035E-02        -0.33405E-01         0.00000E+00
    0.62841E-02        -0.30767E-01         0.00000E+00
    0.57612E-02        -0.28113E-01         0.00000E+00
    0.52994E-02        -0.25450E-01         0.00000E+00
    0.48726E-02        -0.22780E-01         0.00000E+00
    0.44603E-02        -0.20099E-01         0.00000E+00
    0.40442E-02        -0.17399E-01         0.00000E+00
    0.36055E-02        -0.14671E-01         0.00000E+00
    0.31233E-02        -0.11900E-01         0.00000E+00
    0.25705E-02        -0.90686E-02         0.00000E+00
    0.19083E-02        -0.61557E-02         0.00000E+00
    0.10789E-02        -0.31381E-02         0.00000E+00
    0.00000E+00         0.00000E+00         0.00000E+00
    0.70488E-02        -0.42507E-01         0.00000E+00
    0.60200E-02        -0.39871E-01         0.00000E+00
    0.53201E-02        -0.37156E-01         0.00000E+00
    0.48010E-02        -0.34403E-01         0.00000E+00
    0.43875E-02        -0.31639E-01         0.00000E+00
    0.40397E-02        -0.28878E-01         0.00000E+00
    0.37326E-02        -0.26122E-01         0.00000E+00
    0.34484E-02        -0.23370E-01         0.00000E+00
    0.31733E-02        -0.20615E-01         0.00000E+00
    0.28946E-02        -0.17849E-01         0.00000E+00
    0.25996E-02        -0.15059E-01         0.00000E+00
    0.22732E-02        -0.12229E-01         0.00000E+00
    0.18954E-02        -0.93393E-02         0.00000E+00
    0.14355E-02        -0.63617E-02         0.00000E+00
    0.83725E-03        -0.32599E-02         0.00000E+00
    0.00000E+00         0.00000E+00         0.00000E+00
    0.36908E-02        -0.43555E-01         0.00000E+00
    0.31161E-02        -0.40765E-01         0.00000E+00
    0.27639E-02        -0.37906E-01         0.00000E+00
    0.25045E-02        -0.35040E-01         0.00000E+00
    0.22986E-02        -0.32188E-01         0.00000E+00
    0.21254E-02        -0.29355E-01         0.00000E+00
    0.19724E-02        -0.26538E-01         0.00000E+00
    0.18306E-02        -0.23734E-01         0.00000E+00
    0.16930E-02        -0.20934E-01         0.00000E+00
    0.15534E-02        -0.18127E-01         0.00000E+00
    0.14052E-02        -0.15300E-01         0.00000E+00
    0.12406E-02        -0.12436E-01         0.00000E+00
    0.10490E-02        -0.95125E-02         0.00000E+00
    0.81308E-03        -0.65006E-02         0.00000E+00
    0.49999E-03        -0.33545E-02         0.00000E+00
    0.00000E+00         0.00000E+00         0.00000E+00
    0.00000E+00        -0.44009E-01         0.00000E+00
    0.00000E+00        -0.41097E-01         0.00000E+00
    0.00000E+00        -0.38170E-01         0.00000E+00
    0.00000E+00        -0.35260E-01         0.00000E+00
    0.00000E+00        -0.32376E-01         0.00000E+00
    0.00000E+00        -0.29517E-01         0.00000E+00
    0.00000E+00        -0.26680E-01         0.00000E+00
    0.00000E+00        -0.23857E-01         0.00000E+00
    0.00000E+00        -0.21042E-01         0.00000E+00
    0.00000E+00        -0.18221E-01         0.00000E+00
    0.00000E+00        -0.15382E-01         0.00000E+00
    0.00000E+00        -0.12506E-01         0.00000E+00
    0.00000E+00        -0.95725E-02         0.00000E+00
    0.00000E+00        -0.65504E-02         0.00000E+00
    0.00000E+00        -0.33941E-02         0.00000E+00
    0.00000E+00         0.00000E+00         0.00000E+00
CELL_DATA        450
VECTORS vDarcy double 
    0.21255E-07        -0.62862E-12         0.00000E+00
    0.21248E-07        -0.11286E-11         0.00000E+00
    0.21245E-07        -0.90701E-12         0.00000E+00
    0.21242E-07        -0.76821E-12         0.00000E+00
    0.21240E-07        -0.68754E-12         0.00000E+00
    0.21238E-07        -0.62470E-12         0.00000E+00
    0.21236E-07        -0.57340E-12         0.00000E+00
    0.21235E-07        -0.53066E-12         0.00000E+00
    0.21234E-07        -0.49523E-12         0.00000E+00
    0.21233E-07        -0.46629E-12         0.00000E+00
    0.21232E-07        -0.44293E-12         0.00000E+00
    0.21231E-07        -0.42413E-12         0.00000E+00
    0.21229E-07        -0.40539E-12         0.00000E+00
    0.21228E-07        -0.39319E-12         0.00000E+00
    0.21225E-07        -0.19567E-12         0.00000E+00
    0.21020E-07        -0.10481E-11         0.00000E+00
    0.21016E-07        -0.22284E-11         0.00000E+00
    0.21012E-07        -0.22768E-11         0.00000E+00
    0.21009E-07        -0.21055E-11         0.00000E+00
    0.21007E-07        -0.19380E-11         0.00000E+00
    0.21005E-07        -0.17867E-11         0.00000E+00
    0.21003E-07        -0.16522E-11         0.00000E+00
    0.21002E-07        -0.15346E-11         0.00000E+00
    0.21001E-07        -0.14332E-11         0.00000E+00
    0.21000E-07        -0.13464E-11         0.00000E+00
    0.20999E-07        -0.12707E-11         0.00000E+00
    0.20998E-07        -0.11990E-11         0.00000E+00
    0.20996E-07        -0.11148E-11         0.00000E+00
    0.20995E-07        -0.95844E-12         0.00000E+00
    0.20993E-07        -0.42515E-12         0.00000E+00
    0.20572E-07        -0.88091E-12         0.00000E+00
    0.20568E-07        -0.22659E-11         0.00000E+00
    0.20565E-07        -0.28926E-11         0.00000E+00
    0.20562E-07        -0.29836E-11         0.00000E+00
    0.20560E-07        -0.28778E-11         0.00000E+00
    0.20558E-07        -0.27175E-11         0.00000E+00
    0.20557E-07        -0.25462E-11         0.00000E+00
    0.20555E-07        -0.23806E-11         0.00000E+00
    0.20554E-07        -0.22265E-11         0.00000E+00
    0.20553E-07        -0.20832E-11         0.00000E+00
    0.20552E-07        -0.19440E-11         0.00000E+00
    0.20551E-07        -0.17914E-11         0.00000E+00
    0.20550E-07        -0.15845E-11         0.00000E+00
    0.20548E-07        -0.12053E-11         0.00000E+00
    0.20547E-07        -0.47526E-12         0.00000E+00
    0.19946E-07        -0.90226E-12         0.00000E+00
    0.19944E-07        -0.23219E-11         0.00000E+00
    0.19941E-07        -0.30943E-11         0.00000E+00
    0.19938E-07        -0.34145E-11         0.00000E+00
    0.19936E-07        -0.34490E-11         0.00000E+00
    0.19935E-07        -0.33467E-11         0.00000E+00
    0.19933E-07        -0.31865E-11         0.00000E+00
    0.19932E-07        -0.30045E-11         0.00000E+00
    0.19930E-07        -0.28155E-11         0.00000E+00
    0.19929E-07        -0.26217E-11         0.00000E+00
    0.19928E-07        -0.24136E-11         0.00000E+00
    0.19927E-07        -0.21659E-11         0.00000E+00
    0.19926E-07        -0.18239E-11         0.00000E+00
    0.19925E-07        -0.12995E-11         0.00000E+00
    0.19924E-07        -0.48943E-12         0.00000E+00
    0.19192E-07        -0.84785E-12         0.00000E+00
    0.19190E-07        -0.22423E-11         0.00000E+00
    0.19188E-07        -0.30948E-11         0.00000E+00
    0.19186E-07        -0.35366E-11         0.00000E+00
    0.19184E-07        -0.36958E-11         0.00000E+00
    0.19182E-07        -0.36775E-11         0.00000E+00
    0.19180E-07        -0.35593E-11         0.00000E+00
    0.19179E-07        -0.33866E-11         0.00000E+00
    0.19178E-07        -0.31812E-11         0.00000E+00
    0.19177E-07        -0.29483E-11         0.00000E+00
    0.19175E-07        -0.26788E-11         0.00000E+00
    0.19174E-07        -0.23468E-11         0.00000E+00
    0.19173E-07        -0.19077E-11         0.00000E+00
    0.19172E-07        -0.13027E-11         0.00000E+00
    0.19172E-07        -0.47537E-12         0.00000E+00
    0.18364E-07        -0.76750E-12         0.00000E+00
    0.18362E-07        -0.20683E-11         0.00000E+00
    0.18360E-07        -0.29366E-11         0.00000E+00
    0.18358E-07        -0.34516E-11         0.00000E+00
    0.18357E-07        -0.36995E-11         0.00000E+00
    0.18355E-07        -0.37596E-11         0.00000E+00
    0.18354E-07        -0.36943E-11         0.00000E+00
    0.18352E-07        -0.35467E-11         0.00000E+00
    0.18351E-07        -0.33405E-11         0.00000E+00
    0.18350E-07        -0.30839E-11         0.00000E+00
    0.18349E-07        -0.27706E-11         0.00000E+00
    0.18348E-07        -0.23812E-11         0.00000E+00
    0.18347E-07        -0.18856E-11         0.00000E+00
    0.18346E-07        -0.12492E-11         0.00000E+00
    0.18346E-07        -0.44579E-12         0.00000E+00
    0.17517E-07        -0.67296E-12         0.00000E+00
    0.17516E-07        -0.18454E-11         0.00000E+00
    0.17514E-07        -0.26850E-11         0.00000E+00
    0.17513E-07        -0.32314E-11         0.00000E+00
    0.17511E-07        -0.35383E-11         0.00000E+00
    0.17510E-07        -0.36607E-11         0.00000E+00
    0.17508E-07        -0.36460E-11         0.00000E+00
    0.17507E-07        -0.35298E-11         0.00000E+00
    0.17506E-07        -0.33344E-11         0.00000E+00
    0.17505E-07        -0.30695E-11         0.00000E+00
    0.17504E-07        -0.27332E-11         0.00000E+00
    0.17503E-07        -0.23146E-11         0.00000E+00
    0.17502E-07        -0.17967E-11         0.00000E+00
    0.17502E-07        -0.11635E-11         0.00000E+00
    0.17501E-07        -0.40814E-12         0.00000E+00
    0.16703E-07        -0.57798E-12         0.00000E+00
    0.16702E-07        -0.16098E-11         0.00000E+00
    0.16701E-07        -0.23936E-11         0.00000E+00
    0.16700E-07        -0.29414E-11         0.00000E+00
    0.16699E-07        -0.32816E-11         0.00000E+00
    0.16698E-07        -0.34489E-11         0.00000E+00
    0.16696E-07        -0.34766E-11         0.00000E+00
    0.16695E-07        -0.33921E-11         0.00000E+00
    0.16694E-07        -0.32144E-11         0.00000E+00
    0.16693E-07        -0.29539E-11         0.00000E+00
    0.16692E-07        -0.26128E-11         0.00000E+00
    0.16692E-07        -0.21876E-11         0.00000E+00
    0.16691E-07        -0.16724E-11         0.00000E+00
    0.16690E-07        -0.10640E-11         0.00000E+00
    0.16690E-07        -0.36826E-12         0.00000E+00
    0.15967E-07        -0.49095E-12         0.00000E+00
    0.15967E-07        -0.13872E-11         0.00000E+00
    0.15966E-07        -0.21038E-11         0.00000E+00
    0.15965E-07        -0.26341E-11         0.00000E+00
    0.15964E-07        -0.29881E-11         0.00000E+00
    0.15963E-07        -0.31847E-11         0.00000E+00
    0.15962E-07        -0.32452E-11         0.00000E+00
    0.15961E-07        -0.31892E-11         0.00000E+00
    0.15960E-07        -0.30322E-11         0.00000E+00
    0.15959E-07        -0.27843E-11         0.00000E+00
    0.15958E-07        -0.24510E-11         0.00000E+00
    0.15958E-07        -0.20347E-11         0.00000E+00
    0.15957E-07        -0.15374E-11         0.00000E+00
    0.15957E-07        -0.96487E-12         0.00000E+00
    0.15956E-07        -0.33040E-12         0.00000E+00
    0.15344E-07        -0.41711E-12         0.00000E+00
    0.15344E-07        -0.11944E-11         0.00000E+00
    0.15343E-07        -0.18441E-11         0.00000E+00
    0.15342E-07        -0.23480E-11         0.00000E+00
    0.15341E-07        -0.27035E-11         0.00000E+00
    0.15340E-07        -0.29175E-11         0.00000E+00
    0.15340E-07        -0.30019E-11         0.00000E+00
    0.15339E-07        -0.29698E-11         0.00000E+00
    0.15338E-07        -0.28331E-11         0.00000E+00
    0.15337E-07        -0.26016E-11         0.00000E+00
    0.15337E-07        -0.22828E-11         0.00000E+00
    0.15336E-07        -0.18833E-11         0.00000E+00
    0.15336E-07        -0.14107E-11         0.00000E+00
    0.15335E-07        -0.87613E-12         0.00000E+00
    0.15335E-07        -0.29756E-12         0.00000E+00
    0.14858E-07        -0.35922E-12         0.00000E+00
    0.14858E-07        -0.10410E-11         0.00000E+00
    0.14857E-07        -0.16329E-11         0.00000E+00
    0.14857E-07        -0.21100E-11         0.00000E+00
    0.14856E-07        -0.24609E-11         0.00000E+00
    0.14855E-07        -0.26845E-11         0.00000E+00
    0.14855E-07        -0.27856E-11         0.00000E+00
    0.14854E-07        -0.27722E-11         0.00000E+00
    0.14853E-07        -0.26534E-11         0.00000E+00
    0.14853E-07        -0.24381E-11         0.00000E+00
    0.14852E-07        -0.21352E-11         0.00000E+00
    0.14852E-07        -0.17540E-11         0.00000E+00
    0.14852E-07        -0.13056E-11         0.00000E+00
    0.14851E-07        -0.80481E-12         0.00000E+00
    0.14851E-07        -0.27171E-12         0.00000E+00
    0.14525E-07        -0.31841E-12         0.00000E+00
    0.14525E-07        -0.93192E-12         0.00000E+00
    0.14524E-07        -0.14809E-11         0.00000E+00
    0.14524E-07        -0.19364E-11         0.00000E+00
    0.14523E-07        -0.22822E-11         0.00000E+00
    0.14523E-07        -0.25114E-11         0.00000E+00
    0.14522E-07        -0.26241E-11         0.00000E+00
    0.14522E-07        -0.26244E-11         0.00000E+00
    0.14521E-07        -0.25193E-11         0.00000E+00
    0.14521E-07        -0.23170E-11         0.00000E+00
    0.14520E-07        -0.20272E-11         0.00000E+00
    0.14520E-07        -0.16609E-11         0.00000E+00
    0.14520E-07        -0.12314E-11         0.00000E+00
    0.14520E-07        -0.75537E-12         0.00000E+00
    0.14520E-07        -0.25403E-12         0.00000E+00
    0.14350E-07        -0.29485E-12         0.00000E+00
    0.14350E-07        -0.86885E-12         0.00000E+00
    0.14349E-07        -0.13930E-11         0.00000E+00
    0.14349E-07        -0.18366E-11         0.00000E+00
    0.14349E-07        -0.21803E-11         0.00000E+00
    0.14348E-07        -0.24141E-11         0.00000E+00
    0.14348E-07        -0.25348E-11         0.00000E+00
    0.14348E-07        -0.25443E-11         0.00000E+00
    0.14348E-07        -0.24479E-11         0.00000E+00
    0.14347E-07        -0.22536E-11         0.00000E+00
    0.14347E-07        -0.19714E-11         0.00000E+00
    0.14347E-07        -0.16131E-11         0.00000E+00
    0.14347E-07        -0.11935E-11         0.00000E+00
    0.14347E-07        -0.73029E-12         0.00000E+00
    0.14346E-07        -0.24513E-12         0.00000E+00
    0.14332E-07        -0.28821E-12         0.00000E+00
    0.14332E-07        -0.85168E-12         0.00000E+00
    0.14331E-07        -0.13708E-11         0.00000E+00
    0.14331E-07        -0.18142E-11         0.00000E+00
    0.14331E-07        -0.21614E-11         0.00000E+00
    0.14331E-07        -0.24006E-11         0.00000E+00
    0.14331E-07        -0.25271E-11         0.00000E+00
    0.14331E-07        -0.25416E-11         0.00000E+00
    0.14330E-07        -0.24487E-11         0.00000E+00
    0.14330E-07        -0.22561E-11         0.00000E+00
    0.14330E-07        -0.19739E-11         0.00000E+00
    0.14330E-07        -0.16149E-11         0.00000E+00
    0.14330E-07        -0.11943E-11         0.00000E+00
    0.14330E-07        -0.73053E-12         0.00000E+00
    0.14330E-07        -0.24515E-12         0.00000E+00
    0.14462E-07        -0.29793E-12         0.00000E+00
    0.14462E-07        -0.87924E-12         0.00000E+00
    0.14462E-07        -0.14133E-11         0.00000E+00
    0.14462E-07        -0.18692E-11         0.00000E+00
    0.14462E-07        -0.22263E-11         0.00000E+00
    0.14462E-07        -0.24727E-11         0.00000E+00
    0.14462E-07        -0.26035E-11         0.00000E+00
    0.14462E-07        -0.26192E-11         0.00000E+00
    0.14462E-07        -0.25243E-11         0.00000E+00
    0.14462E-07        -0.23266E-11         0.00000E+00
    0.14462E-07        -0.20365E-11         0.00000E+00
    0.14462E-07        -0.16672E-11         0.00000E+00
    0.14462E-07        -0.12341E-11         0.00000E+00
    0.14462E-07        -0.75580E-12         0.00000E+00
    0.14462E-07        -0.25393E-12         0.00000E+00
    0.14728E-07        -0.32329E-12         0.00000E+00
    0.14728E-07        -0.94958E-12         0.00000E+00
    0.14728E-07        -0.15177E-11         0.00000E+00
    0.14728E-07        -0.19982E-11         0.00000E+00
    0.14728E-07        -0.23715E-11         0.00000E+00
    0.14728E-07        -0.26270E-11         0.00000E+00
    0.14728E-07        -0.27607E-11         0.00000E+00
    0.14728E-07        -0.27739E-11         0.00000E+00
    0.14729E-07        -0.26716E-11         0.00000E+00
    0.14729E-07        -0.24623E-11         0.00000E+00
    0.14729E-07        -0.21565E-11         0.00000E+00
    0.14729E-07        -0.17674E-11         0.00000E+00
    0.14729E-07        -0.13107E-11         0.00000E+00
    0.14729E-07        -0.80474E-12         0.00000E+00
    0.14729E-07        -0.27097E-12         0.00000E+00
    0.15112E-07        -0.36340E-12         0.00000E+00
    0.15112E-07        -0.10599E-11         0.00000E+00
    0.15112E-07        -0.16796E-11         0.00000E+00
    0.15112E-07        -0.21951E-11         0.00000E+00
    0.15112E-07        -0.25899E-11         0.00000E+00
    0.15112E-07        -0.28555E-11         0.00000E+00
    0.15113E-07        -0.29902E-11         0.00000E+00
    0.15113E-07        -0.29971E-11         0.00000E+00
    0.15113E-07        -0.28826E-11         0.00000E+00
    0.15114E-07        -0.26556E-11         0.00000E+00
    0.15114E-07        -0.23272E-11         0.00000E+00
    0.15114E-07        -0.19103E-11         0.00000E+00
    0.15114E-07        -0.14203E-11         0.00000E+00
    0.15114E-07        -0.87497E-12         0.00000E+00
    0.15114E-07        -0.29547E-12         0.00000E+00
    0.15594E-07        -0.41704E-12         0.00000E+00
    0.15594E-07        -0.12065E-11         0.00000E+00
    0.15594E-07        -0.18922E-11         0.00000E+00
    0.15594E-07        -0.24509E-11         0.00000E+00
    0.15595E-07        -0.28701E-11         0.00000E+00
    0.15595E-07        -0.31454E-11         0.00000E+00
    0.15596E-07        -0.32785E-11         0.00000E+00
    0.15596E-07        -0.32754E-11         0.00000E+00
    0.15597E-07        -0.31441E-11         0.00000E+00
    0.15597E-07        -0.28948E-11         0.00000E+00
    0.15598E-07        -0.25385E-11         0.00000E+00
    0.15598E-07        -0.20877E-11         0.00000E+00
    0.15598E-07        -0.15569E-11         0.00000E+00
    0.15598E-07        -0.96303E-12         0.00000E+00
    0.15598E-07        -0.32631E-12         0.00000E+00
    0.16153E-07        -0.48251E-12         0.00000E+00
    0.16153E-07        -0.13840E-11         0.00000E+00
    0.16154E-07        -0.21467E-11         0.00000E+00
    0.16154E-07        -0.27530E-11         0.00000E+00
    0.16155E-07        -0.31967E-11         0.00000E+00
    0.16155E-07        -0.34790E-11         0.00000E+00
    0.16156E-07        -0.36069E-11         0.00000E+00
    0.16157E-07        -0.35897E-11         0.00000E+00
    0.16157E-07        -0.34382E-11         0.00000E+00
    0.16158E-07        -0.31634E-11         0.00000E+00
    0.16158E-07        -0.27764E-11         0.00000E+00
    0.16159E-07        -0.22886E-11         0.00000E+00
    0.16159E-07        -0.17129E-11         0.00000E+00
    0.16159E-07        -0.10644E-11         0.00000E+00
    0.16159E-07        -0.36203E-12         0.00000E+00
    0.16767E-07        -0.55753E-12         0.00000E+00
    0.16767E-07        -0.15854E-11         0.00000E+00
    0.16768E-07        -0.24309E-11         0.00000E+00
    0.16769E-07        -0.30849E-11         0.00000E+00
    0.16769E-07        -0.35493E-11         0.00000E+00
    0.16770E-07        -0.38335E-11         0.00000E+00
    0.16771E-07        -0.39509E-11         0.00000E+00
    0.16772E-07        -0.39157E-11         0.00000E+00
    0.16773E-07        -0.37416E-11         0.00000E+00
    0.16773E-07        -0.34406E-11         0.00000E+00
    0.16774E-07        -0.30232E-11         0.00000E+00
    0.16774E-07        -0.24990E-11         0.00000E+00
    0.16775E-07        -0.18783E-11         0.00000E+00
    0.16775E-07        -0.11734E-11         0.00000E+00
    0.16775E-07        -0.40082E-12         0.00000E+00
    0.17413E-07        -0.63908E-12         0.00000E+00
    0.17414E-07        -0.18014E-11         0.00000E+00
    0.17415E-07        -0.27295E-11         0.00000E+00
    0.17415E-07        -0.34254E-11         0.00000E+00
    0.17416E-07        -0.39023E-11         0.00000E+00
    0.17417E-07        -0.41802E-11         0.00000E+00
    0.17418E-07        -0.42805E-11         0.00000E+00
    0.17419E-07        -0.42235E-11         0.00000E+00
    0.17420E-07        -0.40261E-11         0.00000E+00
    0.17421E-07        -0.37010E-11         0.00000E+00
    0.17422E-07        -0.32576E-11         0.00000E+00
    0.17422E-07        -0.27023E-11         0.00000E+00
    0.17423E-07        -0.20415E-11         0.00000E+00
    0.17423E-07        -0.12833E-11         0.00000E+00
    0.17423E-07        -0.44053E-12         0.00000E+00
    0.18070E-07        -0.72337E-12         0.00000E+00
    0.18070E-07        -0.20206E-11         0.00000E+00
    0.18071E-07        -0.30233E-11         0.00000E+00
    0.18072E-07        -0.37485E-11         0.00000E+00
    0.18073E-07        -0.42246E-11         0.00000E+00
    0.18075E-07        -0.44845E-11         0.00000E+00
    0.18076E-07        -0.45600E-11         0.00000E+00
    0.18077E-07        -0.44780E-11         0.00000E+00
    0.18078E-07        -0.42587E-11         0.00000E+00
    0.18079E-07        -0.39153E-11         0.00000E+00
    0.18080E-07        -0.34545E-11         0.00000E+00
    0.18080E-07        -0.28789E-11         0.00000E+00
    0.18081E-07        -0.21889E-11         0.00000E+00
    0.18081E-07        -0.13863E-11         0.00000E+00
    0.18082E-07        -0.47872E-12         0.00000E+00
    0.18714E-07        -0.80585E-12         0.00000E+00
    0.18715E-07        -0.22289E-11         0.00000E+00
    0.18716E-07        -0.32891E-11         0.00000E+00
    0.18718E-07        -0.40230E-11         0.00000E+00
    0.18719E-07        -0.44789E-11         0.00000E+00
    0.18721E-07        -0.47063E-11         0.00000E+00
    0.18722E-07        -0.47486E-11         0.00000E+00
    0.18723E-07        -0.46397E-11         0.00000E+00
    0.18724E-07        -0.44028E-11         0.00000E+00
    0.18725E-07        -0.40505E-11         0.00000E+00
    0.18726E-07        -0.35864E-11         0.00000E+00
    0.18727E-07        -0.30071E-11         0.00000E+00
    0.18727E-07        -0.23052E-11         0.00000E+00
    0.18728E-07        -0.14740E-11         0.00000E+00
    0.18728E-07        -0.51269E-12         0.00000E+00
    0.19327E-07        -0.88117E-12         0.00000E+00
    0.19329E-07        -0.24099E-11         0.00000E+00
    0.19330E-07        -0.34987E-11         0.00000E+00
    0.19332E-07        -0.42116E-11         0.00000E+00
    0.19333E-07        -0.46224E-11         0.00000E+00
    0.19335E-07        -0.48006E-11         0.00000E+00
    0.19336E-07        -0.48020E-11         0.00000E+00
    0.19338E-07        -0.46667E-11         0.00000E+00
    0.19339E-07        -0.44195E-11         0.00000E+00
    0.19340E-07        -0.40719E-11         0.00000E+00
    0.19341E-07        -0.36233E-11         0.00000E+00
    0.19342E-07        -0.30631E-11         0.00000E+00
    0.19342E-07        -0.23739E-11         0.00000E+00
    0.19343E-07        -0.15369E-11         0.00000E+00
    0.19344E-07        -0.53957E-12         0.00000E+00
    0.19890E-07        -0.94314E-12         0.00000E+00
    0.19892E-07        -0.25435E-11         0.00000E+00
    0.19894E-07        -0.36183E-11         0.00000E+00
    0.19896E-07        -0.42701E-11         0.00000E+00
    0.19897E-07        -0.46066E-11         0.00000E+00
    0.19899E-07        -0.47195E-11         0.00000E+00
    0.19901E-07        -0.46755E-11         0.00000E+00
    0.19902E-07        -0.45180E-11         0.00000E+00
    0.19903E-07        -0.42715E-11         0.00000E+00
    0.19904E-07        -0.39452E-11         0.00000E+00
    0.19905E-07        -0.35346E-11         0.00000E+00
    0.19906E-07        -0.30216E-11         0.00000E+00
    0.19907E-07        -0.23768E-11         0.00000E+00
    0.19908E-07        -0.15649E-11         0.00000E+00
    0.19909E-07        -0.55636E-12         0.00000E+00
    0.20385E-07        -0.98417E-12         0.00000E+00
    0.20388E-07        -0.26043E-11         0.00000E+00
    0.20390E-07        -0.36045E-11         0.00000E+00
    0.20393E-07        -0.41456E-11         0.00000E+00
    0.20395E-07        -0.43789E-11         0.00000E+00
    0.20397E-07        -0.44165E-11         0.00000E+00
    0.20398E-07        -0.43295E-11         0.00000E+00
    0.20399E-07        -0.41592E-11         0.00000E+00
    0.20401E-07        -0.39272E-11         0.00000E+00
    0.20402E-07        -0.36400E-11         0.00000E+00
    0.20403E-07        -0.32907E-11         0.00000E+00
    0.20404E-07        -0.28558E-11         0.00000E+00
    0.20405E-07        -0.22934E-11         0.00000E+00
    0.20406E-07        -0.15467E-11         0.00000E+00
    0.20407E-07        -0.55973E-12         0.00000E+00
    0.20800E-07        -0.99352E-12         0.00000E+00
    0.20803E-07        -0.25555E-11         0.00000E+00
    0.20806E-07        -0.33981E-11         0.00000E+00
    0.20809E-07        -0.37749E-11         0.00000E+00
    0.20811E-07        -0.38871E-11         0.00000E+00
    0.20813E-07        -0.38541E-11         0.00000E+00
    0.20814E-07        -0.37376E-11         0.00000E+00
    0.20816E-07        -0.35704E-11         0.00000E+00
    0.20817E-07        -0.33682E-11         0.00000E+00
    0.20818E-07        -0.31355E-11         0.00000E+00
    0.20819E-07        -0.28657E-11         0.00000E+00
    0.20820E-07        -0.25369E-11         0.00000E+00
    0.20821E-07        -0.20987E-11         0.00000E+00
    0.20823E-07        -0.14675E-11         0.00000E+00
    0.20824E-07        -0.54583E-12         0.00000E+00
    0.21121E-07        -0.95157E-12         0.00000E+00
    0.21125E-07        -0.23330E-11         0.00000E+00
    0.21128E-07        -0.29102E-11         0.00000E+00
    0.21131E-07        -0.30885E-11         0.00000E+00
    0.21134E-07        -0.30948E-11         0.00000E+00
    0.21136E-07        -0.30176E-11         0.00000E+00
    0.21137E-07        -0.28974E-11         0.00000E+00
    0.21139E-07        -0.27539E-11         0.00000E+00
    0.21140E-07        -0.25966E-11         0.00000E+00
    0.21141E-07        -0.24283E-11         0.00000E+00
    0.21142E-07        -0.22452E-11         0.00000E+00
    0.21143E-07        -0.20336E-11         0.00000E+00
    0.21145E-07        -0.17569E-11         0.00000E+00
    0.21146E-07        -0.13040E-11         0.00000E+00
    0.21148E-07        -0.50620E-12         0.00000E+00
    0.21339E-07        -0.80357E-12         0.00000E+00
    0.21345E-07        -0.17947E-11         0.00000E+00
    0.21349E-07        -0.20222E-11         0.00000E+00
    0.21352E-07        -0.20514E-11         0.00000E+00
    0.21354E-07        -0.20073E-11         0.00000E+00
    0.21356E-07        -0.19308E-11         0.00000E+00
    0.21358E-07        -0.18394E-11         0.00000E+00
    0.21359E-07        -0.17418E-11         0.00000E+00
    0.21360E-07        -0.16419E-11         0.00000E+00
    0.21361E-07        -0.15414E-11         0.00000E+00
    0.21362E-07        -0.14395E-11         0.00000E+00
    0.21364E-07        -0.13315E-11         0.00000E+00
    0.21365E-07        -0.12041E-11         0.00000E+00
    0.21367E-07        -0.10037E-11         0.00000E+00
    0.21369E-07        -0.43704E-12         0.00000E+00
    0.21450E-07        -0.34628E-12         0.00000E+00
    0.21457E-07        -0.71072E-12         0.00000E+00
    0.21461E-07        -0.73102E-12         0.00000E+00
    0.21464E-07        -0.72252E-12         0.00000E+00
    0.21466E-07        -0.69696E-12         0.00000E+00
    0.21468E-07        -0.66526E-12         0.00000E+00
    0.21470E-07        -0.63107E-12         0.00000E+00
    0.21471E-07        -0.59635E-12         0.00000E+00
    0.21472E-07        -0.56212E-12         0.00000E+00
    0.21473E-07        -0.52889E-12         0.00000E+00
    0.21474E-07        -0.49676E-12         0.00000E+00
    0.21475E-07        -0.46562E-12         0.00000E+00
    0.21477E-07        -0.43215E-12         0.00000E+00
    0.21478E-07        -0.40485E-12         0.00000E+00
    0.21481E-07        -0.19785E-12         0.00000E+00
POINT_DATA        496
VECTORS vDarcyNodal double 
    0.21255E-07         0.00000E+00         0.00000E+00
    0.21252E-07         0.00000E+00         0.00000E+00
    0.21247E-07         0.00000E+00         0.00000E+00
    0.21243E-07         0.00000E+00         0.00000E+00
    0.21241E-07         0.00000E+00         0.00000E+00
    0.21239E-07         0.00000E+00         0.00000E+00
    0.21237E-07         0.00000E+00         0.00000E+00
    0.21236E-07         0.00000E+00         0.00000E+00
    0.21235E-07         0.00000E+00         0.00000E+00
    0.21233E-07         0.00000E+00         0.00000E+00
    0.21232E-07         0.00000E+00         0.00000E+00
    0.21231E-07         0.00000E+00         0.00000E+00
    0.21230E-07        -0.66634E-22         0.00000E+00
    0.21229E-07        -0.74634E-26         0.00000E+00
    0.21227E-07         0.66627E-22         0.00000E+00
    0.21225E-07         0.00000E+00         0.00000E+00
    0.21138E-07        -0.12569E-11         0.00000E+00
    0.21135E-07        -0.17568E-11         0.00000E+00
    0.21130E-07        -0.20353E-11         0.00000E+00
    0.21127E-07        -0.16750E-11         0.00000E+00
    0.21124E-07        -0.14556E-11         0.00000E+00
    0.21122E-07        -0.13121E-11         0.00000E+00
    0.21121E-07        -0.11980E-11         0.00000E+00
    0.21119E-07        -0.11039E-11         0.00000E+00
    0.21118E-07        -0.10258E-11         0.00000E+00
    0.21117E-07        -0.96142E-12         0.00000E+00
    0.21116E-07        -0.90913E-12         0.00000E+00
    0.21115E-07        -0.86698E-12         0.00000E+00
    0.21114E-07        -0.82944E-12         0.00000E+00
    0.21112E-07        -0.79851E-12         0.00000E+00
    0.21110E-07        -0.58882E-12         0.00000E+00
    0.21109E-07        -0.39132E-12         0.00000E+00
    0.20796E-07        -0.83954E-12         0.00000E+00
    0.20794E-07        -0.15198E-11         0.00000E+00
    0.20790E-07        -0.24698E-11         0.00000E+00
    0.20787E-07        -0.27072E-11         0.00000E+00
    0.20785E-07        -0.25878E-11         0.00000E+00
    0.20783E-07        -0.24124E-11         0.00000E+00
    0.20781E-07        -0.22407E-11         0.00000E+00
    0.20779E-07        -0.20827E-11         0.00000E+00
    0.20778E-07        -0.19419E-11         0.00000E+00
    0.20777E-07        -0.18180E-11         0.00000E+00
    0.20776E-07        -0.17078E-11         0.00000E+00
    0.20775E-07        -0.16027E-11         0.00000E+00
    0.20774E-07        -0.14843E-11         0.00000E+00
    0.20772E-07        -0.12747E-11         0.00000E+00
    0.20771E-07        -0.79477E-12         0.00000E+00
    0.20770E-07        -0.45898E-12         0.00000E+00
    0.20259E-07        -0.92225E-12         0.00000E+00
    0.20258E-07        -0.16270E-11         0.00000E+00
    0.20254E-07        -0.26886E-11         0.00000E+00
    0.20252E-07        -0.31690E-11         0.00000E+00
    0.20249E-07        -0.32735E-11         0.00000E+00
    0.20247E-07        -0.31827E-11         0.00000E+00
    0.20246E-07        -0.30229E-11         0.00000E+00
    0.20244E-07        -0.28440E-11         0.00000E+00
    0.20243E-07        -0.26651E-11         0.00000E+00
    0.20242E-07        -0.24916E-11         0.00000E+00
    0.20241E-07        -0.23193E-11         0.00000E+00
    0.20239E-07        -0.21327E-11         0.00000E+00
    0.20238E-07        -0.18915E-11         0.00000E+00
    0.20237E-07        -0.15151E-11         0.00000E+00
    0.20236E-07        -0.88583E-12         0.00000E+00
    0.20235E-07        -0.49154E-12         0.00000E+00
    0.19569E-07        -0.88229E-12         0.00000E+00
    0.19568E-07        -0.15971E-11         0.00000E+00
    0.19565E-07        -0.27275E-11         0.00000E+00
    0.19563E-07        -0.33398E-11         0.00000E+00
    0.19561E-07        -0.35900E-11         0.00000E+00
    0.19559E-07        -0.36130E-11         0.00000E+00
    0.19557E-07        -0.35103E-11         0.00000E+00
    0.19556E-07        -0.33469E-11         0.00000E+00
    0.19555E-07        -0.31548E-11         0.00000E+00
    0.19553E-07        -0.29455E-11         0.00000E+00
    0.19552E-07        -0.27160E-11         0.00000E+00
    0.19551E-07        -0.24468E-11         0.00000E+00
    0.19550E-07        -0.20983E-11         0.00000E+00
    0.19549E-07        -0.16083E-11         0.00000E+00
    0.19548E-07        -0.90306E-12         0.00000E+00
    0.19548E-07        -0.48731E-12         0.00000E+00
    0.18778E-07        -0.81342E-12         0.00000E+00
    0.18777E-07        -0.14931E-11         0.00000E+00
    0.18775E-07        -0.26097E-11         0.00000E+00
    0.18773E-07        -0.32917E-11         0.00000E+00
    0.18771E-07        -0.36424E-11         0.00000E+00
    0.18769E-07        -0.37603E-11         0.00000E+00
    0.18768E-07        -0.37265E-11         0.00000E+00
    0.18766E-07        -0.35990E-11         0.00000E+00
    0.18765E-07        -0.34130E-11         0.00000E+00
    0.18764E-07        -0.31840E-11         0.00000E+00
    0.18763E-07        -0.29112E-11         0.00000E+00
    0.18762E-07        -0.25788E-11         0.00000E+00
    0.18761E-07        -0.21562E-11         0.00000E+00
    0.18760E-07        -0.16022E-11         0.00000E+00
    0.18759E-07        -0.87504E-12         0.00000E+00
    0.18759E-07        -0.46344E-12         0.00000E+00
    0.17940E-07        -0.72161E-12         0.00000E+00
    0.17940E-07        -0.13427E-11         0.00000E+00
    0.17938E-07        -0.23953E-11         0.00000E+00
    0.17936E-07        -0.30965E-11         0.00000E+00
    0.17935E-07        -0.35086E-11         0.00000E+00
    0.17933E-07        -0.36988E-11         0.00000E+00
    0.17932E-07        -0.37274E-11         0.00000E+00
    0.17930E-07        -0.36420E-11         0.00000E+00
    0.17929E-07        -0.34742E-11         0.00000E+00
    0.17928E-07        -0.32404E-11         0.00000E+00
    0.17927E-07        -0.29433E-11         0.00000E+00
    0.17926E-07        -0.25730E-11         0.00000E+00
    0.17925E-07        -0.21106E-11         0.00000E+00
    0.17924E-07        -0.15326E-11         0.00000E+00
    0.17924E-07        -0.81996E-12         0.00000E+00
    0.17923E-07        -0.42814E-12         0.00000E+00
    0.17110E-07        -0.62433E-12         0.00000E+00
    0.17110E-07        -0.11756E-11         0.00000E+00
    0.17108E-07        -0.21351E-11         0.00000E+00
    0.17107E-07        -0.28198E-11         0.00000E+00
    0.17106E-07        -0.32611E-11         0.00000E+00
    0.17104E-07        -0.35003E-11         0.00000E+00
    0.17103E-07        -0.35793E-11         0.00000E+00
    0.17102E-07        -0.35338E-11         0.00000E+00
    0.17101E-07        -0.33901E-11         0.00000E+00
    0.17100E-07        -0.31635E-11         0.00000E+00
    0.17099E-07        -0.28595E-11         0.00000E+00
    0.17098E-07        -0.24748E-11         0.00000E+00
    0.17097E-07        -0.20007E-11         0.00000E+00
    0.17096E-07        -0.14276E-11         0.00000E+00
    0.17096E-07        -0.75166E-12         0.00000E+00
    0.17096E-07        -0.38814E-12         0.00000E+00
    0.16335E-07        -0.53164E-12         0.00000E+00
    0.16335E-07        -0.10121E-11         0.00000E+00
    0.16334E-07        -0.18683E-11         0.00000E+00
    0.16333E-07        -0.25152E-11         0.00000E+00
    0.16332E-07        -0.29620E-11         0.00000E+00
    0.16331E-07        -0.32302E-11         0.00000E+00
    0.16330E-07        -0.33462E-11         0.00000E+00
    0.16329E-07        -0.33349E-11         0.00000E+00
    0.16328E-07        -0.32165E-11         0.00000E+00
    0.16327E-07        -0.30048E-11         0.00000E+00
    0.16326E-07        -0.27072E-11         0.00000E+00
    0.16325E-07        -0.23256E-11         0.00000E+00
    0.16324E-07        -0.18593E-11         0.00000E+00
    0.16324E-07        -0.13089E-11         0.00000E+00
    0.16323E-07        -0.68064E-12         0.00000E+00
    0.16323E-07        -0.34838E-12         0.00000E+00
    0.15656E-07        -0.45027E-12         0.00000E+00
    0.15656E-07        -0.86603E-12         0.00000E+00
    0.15655E-07        -0.16227E-11         0.00000E+00
    0.15654E-07        -0.22226E-11         0.00000E+00
    0.15653E-07        -0.26602E-11         0.00000E+00
    0.15652E-07        -0.29426E-11         0.00000E+00
    0.15651E-07        -0.30837E-11         0.00000E+00
    0.15650E-07        -0.30995E-11         0.00000E+00
    0.15649E-07        -0.30050E-11         0.00000E+00
    0.15649E-07        -0.28117E-11         0.00000E+00
    0.15648E-07        -0.25282E-11         0.00000E+00
    0.15647E-07        -0.21602E-11         0.00000E+00
    0.15647E-07        -0.17128E-11         0.00000E+00
    0.15646E-07        -0.11934E-11         0.00000E+00
    0.15646E-07        -0.61463E-12         0.00000E+00
    0.15646E-07        -0.31243E-12         0.00000E+00
    0.15101E-07        -0.38397E-12         0.00000E+00
    0.15101E-07        -0.74548E-12         0.00000E+00
    0.15100E-07        -0.14158E-11         0.00000E+00
    0.15100E-07        -0.19695E-11         0.00000E+00
    0.15099E-07        -0.23914E-11         0.00000E+00
    0.15098E-07        -0.26785E-11         0.00000E+00
    0.15097E-07        -0.28357E-11         0.00000E+00
    0.15097E-07        -0.28722E-11         0.00000E+00
    0.15096E-07        -0.27980E-11         0.00000E+00
    0.15095E-07        -0.26231E-11         0.00000E+00
    0.15095E-07        -0.23563E-11         0.00000E+00
    0.15094E-07        -0.20060E-11         0.00000E+00
    0.15094E-07        -0.15811E-11         0.00000E+00
    0.15093E-07        -0.10934E-11         0.00000E+00
    0.15093E-07        -0.55906E-12         0.00000E+00
    0.15093E-07        -0.28270E-12         0.00000E+00
    0.14692E-07        -0.33449E-12         0.00000E+00
    0.14691E-07        -0.65476E-12         0.00000E+00
    0.14691E-07        -0.12581E-11         0.00000E+00
    0.14691E-07        -0.17734E-11         0.00000E+00
    0.14690E-07        -0.21795E-11         0.00000E+00
    0.14689E-07        -0.24670E-11         0.00000E+00
    0.14689E-07        -0.26344E-11         0.00000E+00
    0.14688E-07        -0.26857E-11         0.00000E+00
    0.14688E-07        -0.26277E-11         0.00000E+00
    0.14687E-07        -0.24684E-11         0.00000E+00
    0.14687E-07        -0.22170E-11         0.00000E+00
    0.14686E-07        -0.18832E-11         0.00000E+00
    0.14686E-07        -0.14784E-11         0.00000E+00
    0.14686E-07        -0.10171E-11         0.00000E+00
    0.14685E-07        -0.51747E-12         0.00000E+00
    0.14685E-07        -0.26073E-12         0.00000E+00
    0.14438E-07        -0.30234E-12         0.00000E+00
    0.14437E-07        -0.59558E-12         0.00000E+00
    0.14437E-07        -0.11547E-11         0.00000E+00
    0.14437E-07        -0.16439E-11         0.00000E+00
    0.14436E-07        -0.20391E-11         0.00000E+00
    0.14436E-07        -0.23267E-11         0.00000E+00
    0.14435E-07        -0.25011E-11         0.00000E+00
    0.14435E-07        -0.25627E-11         0.00000E+00
    0.14435E-07        -0.25160E-11         0.00000E+00
    0.14434E-07        -0.23679E-11         0.00000E+00
    0.14434E-07        -0.21273E-11         0.00000E+00
    0.14434E-07        -0.18050E-11         0.00000E+00
    0.14433E-07        -0.14139E-11         0.00000E+00
    0.14433E-07        -0.96971E-12         0.00000E+00
    0.14433E-07        -0.49194E-12         0.00000E+00
    0.14433E-07        -0.24734E-12         0.00000E+00
    0.14341E-07        -0.28736E-12         0.00000E+00
    0.14341E-07        -0.56812E-12         0.00000E+00
    0.14341E-07        -0.11072E-11         0.00000E+00
    0.14340E-07        -0.15857E-11         0.00000E+00
    0.14340E-07        -0.19778E-11         0.00000E+00
    0.14340E-07        -0.22678E-11         0.00000E+00
    0.14340E-07        -0.24478E-11         0.00000E+00
    0.14339E-07        -0.25163E-11         0.00000E+00
    0.14339E-07        -0.24762E-11         0.00000E+00
    0.14339E-07        -0.23337E-11         0.00000E+00
    0.14339E-07        -0.20977E-11         0.00000E+00
    0.14339E-07        -0.17794E-11         0.00000E+00
    0.14338E-07        -0.13927E-11         0.00000E+00
    0.14338E-07        -0.95405E-12         0.00000E+00
    0.14338E-07        -0.48348E-12         0.00000E+00
    0.14338E-07        -0.24291E-12         0.00000E+00
    0.14397E-07        -0.28906E-12         0.00000E+00
    0.14397E-07        -0.57177E-12         0.00000E+00
    0.14397E-07        -0.11153E-11         0.00000E+00
    0.14397E-07        -0.15993E-11         0.00000E+00
    0.14397E-07        -0.19978E-11         0.00000E+00
    0.14396E-07        -0.22942E-11         0.00000E+00
    0.14396E-07        -0.24799E-11         0.00000E+00
    0.14396E-07        -0.25524E-11         0.00000E+00
    0.14396E-07        -0.25141E-11         0.00000E+00
    0.14396E-07        -0.23711E-11         0.00000E+00
    0.14396E-07        -0.21324E-11         0.00000E+00
    0.14396E-07        -0.18094E-11         0.00000E+00
    0.14396E-07        -0.14166E-11         0.00000E+00
    0.14396E-07        -0.97081E-12         0.00000E+00
    0.14396E-07        -0.49220E-12         0.00000E+00
    0.14396E-07        -0.24739E-12         0.00000E+00
    0.14595E-07        -0.30679E-12         0.00000E+00
    0.14595E-07        -0.60540E-12         0.00000E+00
    0.14595E-07        -0.11772E-11         0.00000E+00
    0.14595E-07        -0.16831E-11         0.00000E+00
    0.14595E-07        -0.20976E-11         0.00000E+00
    0.14595E-07        -0.24047E-11         0.00000E+00
    0.14595E-07        -0.25963E-11         0.00000E+00
    0.14595E-07        -0.26703E-11         0.00000E+00
    0.14595E-07        -0.26293E-11         0.00000E+00
    0.14595E-07        -0.24797E-11         0.00000E+00
    0.14595E-07        -0.22308E-11         0.00000E+00
    0.14595E-07        -0.18943E-11         0.00000E+00
    0.14595E-07        -0.14847E-11         0.00000E+00
    0.14595E-07        -0.10191E-11         0.00000E+00
    0.14595E-07        -0.51752E-12         0.00000E+00
    0.14595E-07        -0.26046E-12         0.00000E+00
    0.14920E-07        -0.33979E-12         0.00000E+00
    0.14920E-07        -0.66747E-12         0.00000E+00
    0.14920E-07        -0.12901E-11         0.00000E+00
    0.14920E-07        -0.18328E-11         0.00000E+00
    0.14920E-07        -0.22721E-11         0.00000E+00
    0.14920E-07        -0.25938E-11         0.00000E+00
    0.14920E-07        -0.27914E-11         0.00000E+00
    0.14921E-07        -0.28642E-11         0.00000E+00
    0.14921E-07        -0.28161E-11         0.00000E+00
    0.14921E-07        -0.26541E-11         0.00000E+00
    0.14921E-07        -0.23880E-11         0.00000E+00
    0.14921E-07        -0.20296E-11         0.00000E+00
    0.14922E-07        -0.15934E-11         0.00000E+00
    0.14922E-07        -0.10964E-11         0.00000E+00
    0.14922E-07        -0.55818E-12         0.00000E+00
    0.14922E-07        -0.28147E-12         0.00000E+00
    0.15353E-07        -0.38701E-12         0.00000E+00
    0.15353E-07        -0.75587E-12         0.00000E+00
    0.15353E-07        -0.14494E-11         0.00000E+00
    0.15353E-07        -0.20419E-11         0.00000E+00
    0.15353E-07        -0.25129E-11         0.00000E+00
    0.15354E-07        -0.28515E-11         0.00000E+00
    0.15354E-07        -0.30543E-11         0.00000E+00
    0.15354E-07        -0.31231E-11         0.00000E+00
    0.15355E-07        -0.30636E-11         0.00000E+00
    0.15355E-07        -0.28841E-11         0.00000E+00
    0.15356E-07        -0.25949E-11         0.00000E+00
    0.15356E-07        -0.22079E-11         0.00000E+00
    0.15356E-07        -0.17371E-11         0.00000E+00
    0.15356E-07        -0.11988E-11         0.00000E+00
    0.15356E-07        -0.61225E-12         0.00000E+00
    0.15356E-07        -0.30946E-12         0.00000E+00
    0.15873E-07        -0.44705E-12         0.00000E+00
    0.15874E-07        -0.86767E-12         0.00000E+00
    0.15874E-07        -0.16493E-11         0.00000E+00
    0.15874E-07        -0.23012E-11         0.00000E+00
    0.15875E-07        -0.28081E-11         0.00000E+00
    0.15875E-07        -0.31639E-11         0.00000E+00
    0.15876E-07        -0.33696E-11         0.00000E+00
    0.15876E-07        -0.34308E-11         0.00000E+00
    0.15877E-07        -0.33559E-11         0.00000E+00
    0.15877E-07        -0.31548E-11         0.00000E+00
    0.15878E-07        -0.28384E-11         0.00000E+00
    0.15878E-07        -0.24183E-11         0.00000E+00
    0.15878E-07        -0.19075E-11         0.00000E+00
    0.15879E-07        -0.13211E-11         0.00000E+00
    0.15879E-07        -0.67708E-12         0.00000E+00
    0.15879E-07        -0.34315E-12         0.00000E+00
    0.16460E-07        -0.51796E-12         0.00000E+00
    0.16460E-07        -0.99884E-12         0.00000E+00
    0.16461E-07        -0.18814E-11         0.00000E+00
    0.16461E-07        -0.25984E-11         0.00000E+00
    0.16462E-07        -0.31416E-11         0.00000E+00
    0.16462E-07        -0.35118E-11         0.00000E+00
    0.16463E-07        -0.37163E-11         0.00000E+00
    0.16464E-07        -0.37657E-11         0.00000E+00
    0.16465E-07        -0.36719E-11         0.00000E+00
    0.16465E-07        -0.34467E-11         0.00000E+00
    0.16466E-07        -0.31014E-11         0.00000E+00
    0.16466E-07        -0.26467E-11         0.00000E+00
    0.16467E-07        -0.20939E-11         0.00000E+00
    0.16467E-07        -0.14561E-11         0.00000E+00
    0.16467E-07        -0.74932E-12         0.00000E+00
    0.16467E-07        -0.38091E-12         0.00000E+00
    0.17090E-07        -0.59709E-12         0.00000E+00
    0.17090E-07        -0.11440E-11         0.00000E+00
    0.17091E-07        -0.21349E-11         0.00000E+00
    0.17092E-07        -0.29173E-11         0.00000E+00
    0.17092E-07        -0.34925E-11         0.00000E+00
    0.17093E-07        -0.38710E-11         0.00000E+00
    0.17094E-07        -0.40681E-11         0.00000E+00
    0.17095E-07        -0.41008E-11         0.00000E+00
    0.17096E-07        -0.39853E-11         0.00000E+00
    0.17097E-07        -0.37354E-11         0.00000E+00
    0.17097E-07        -0.33624E-11         0.00000E+00
    0.17098E-07        -0.28756E-11         0.00000E+00
    0.17099E-07        -0.22834E-11         0.00000E+00
    0.17099E-07        -0.15955E-11         0.00000E+00
    0.17099E-07        -0.82487E-12         0.00000E+00
    0.17099E-07        -0.42073E-12         0.00000E+00
    0.17741E-07        -0.68105E-12         0.00000E+00
    0.17742E-07        -0.12964E-11         0.00000E+00
    0.17742E-07        -0.23960E-11         0.00000E+00
    0.17743E-07        -0.32375E-11         0.00000E+00
    0.17744E-07        -0.38351E-11         0.00000E+00
    0.17745E-07        -0.42115E-11         0.00000E+00
    0.17747E-07        -0.43926E-11         0.00000E+00
    0.17748E-07        -0.44032E-11         0.00000E+00
    0.17749E-07        -0.42643E-11         0.00000E+00
    0.17749E-07        -0.39917E-11         0.00000E+00
    0.17750E-07        -0.35962E-11         0.00000E+00
    0.17751E-07        -0.30843E-11         0.00000E+00
    0.17752E-07        -0.24604E-11         0.00000E+00
    0.17752E-07        -0.17292E-11         0.00000E+00
    0.17752E-07        -0.89894E-12         0.00000E+00
    0.17752E-07        -0.46033E-12         0.00000E+00
    0.18392E-07        -0.76567E-12         0.00000E+00
    0.18392E-07        -0.14475E-11         0.00000E+00
    0.18393E-07        -0.26478E-11         0.00000E+00
    0.18394E-07        -0.35343E-11         0.00000E+00
    0.18396E-07        -0.41380E-11         0.00000E+00
    0.18397E-07        -0.44975E-11         0.00000E+00
    0.18398E-07        -0.46519E-11         0.00000E+00
    0.18399E-07        -0.46348E-11         0.00000E+00
    0.18400E-07        -0.44725E-11         0.00000E+00
    0.18401E-07        -0.41823E-11         0.00000E+00
    0.18402E-07        -0.37736E-11         0.00000E+00
    0.18403E-07        -0.32492E-11         0.00000E+00
    0.18404E-07        -0.26074E-11         0.00000E+00
    0.18404E-07        -0.18460E-11         0.00000E+00
    0.18405E-07        -0.96612E-12         0.00000E+00
    0.18405E-07        -0.49710E-12         0.00000E+00
    0.19021E-07        -0.84600E-12         0.00000E+00
    0.19021E-07        -0.15873E-11         0.00000E+00
    0.19023E-07        -0.28701E-11         0.00000E+00
    0.19024E-07        -0.37777E-11         0.00000E+00
    0.19026E-07        -0.43640E-11         0.00000E+00
    0.19027E-07        -0.46876E-11         0.00000E+00
    0.19028E-07        -0.48030E-11         0.00000E+00
    0.19030E-07        -0.47535E-11         0.00000E+00
    0.19031E-07        -0.45700E-11         0.00000E+00
    0.19032E-07        -0.42710E-11         0.00000E+00
    0.19033E-07        -0.38632E-11         0.00000E+00
    0.19034E-07        -0.33443E-11         0.00000E+00
    0.19035E-07        -0.27049E-11         0.00000E+00
    0.19035E-07        -0.19332E-11         0.00000E+00
    0.19036E-07        -0.10205E-11         0.00000E+00
    0.19036E-07        -0.52827E-12         0.00000E+00
    0.19608E-07        -0.91633E-12         0.00000E+00
    0.19609E-07        -0.17038E-11         0.00000E+00
    0.19611E-07        -0.30385E-11         0.00000E+00
    0.19613E-07        -0.39325E-11         0.00000E+00
    0.19615E-07        -0.44700E-11         0.00000E+00
    0.19616E-07        -0.47354E-11         0.00000E+00
    0.19618E-07        -0.47996E-11         0.00000E+00
    0.19619E-07        -0.47152E-11         0.00000E+00
    0.19620E-07        -0.45162E-11         0.00000E+00
    0.19621E-07        -0.42205E-11         0.00000E+00
    0.19623E-07        -0.38320E-11         0.00000E+00
    0.19624E-07        -0.33421E-11         0.00000E+00
    0.19624E-07        -0.27321E-11         0.00000E+00
    0.19625E-07        -0.19775E-11         0.00000E+00
    0.19626E-07        -0.10559E-11         0.00000E+00
    0.19626E-07        -0.55088E-12         0.00000E+00
    0.20137E-07        -0.96993E-12         0.00000E+00
    0.20139E-07        -0.17828E-11         0.00000E+00
    0.20141E-07        -0.31233E-11         0.00000E+00
    0.20143E-07        -0.39558E-11         0.00000E+00
    0.20145E-07        -0.44067E-11         0.00000E+00
    0.20147E-07        -0.45908E-11         0.00000E+00
    0.20149E-07        -0.45954E-11         0.00000E+00
    0.20150E-07        -0.44783E-11         0.00000E+00
    0.20151E-07        -0.42733E-11         0.00000E+00
    0.20152E-07        -0.39962E-11         0.00000E+00
    0.20154E-07        -0.36478E-11         0.00000E+00
    0.20155E-07        -0.32141E-11         0.00000E+00
    0.20156E-07        -0.26663E-11         0.00000E+00
    0.20157E-07        -0.19642E-11         0.00000E+00
    0.20157E-07        -0.10654E-11         0.00000E+00
    0.20158E-07        -0.56185E-12         0.00000E+00
    0.20592E-07        -0.99840E-12         0.00000E+00
    0.20594E-07        -0.18056E-11         0.00000E+00
    0.20597E-07        -0.30855E-11         0.00000E+00
    0.20599E-07        -0.37944E-11         0.00000E+00
    0.20602E-07        -0.41179E-11         0.00000E+00
    0.20604E-07        -0.42046E-11         0.00000E+00
    0.20605E-07        -0.41505E-11         0.00000E+00
    0.20607E-07        -0.40105E-11         0.00000E+00
    0.20608E-07        -0.38132E-11         0.00000E+00
    0.20609E-07        -0.35710E-11         0.00000E+00
    0.20610E-07        -0.32829E-11         0.00000E+00
    0.20612E-07        -0.29324E-11         0.00000E+00
    0.20613E-07        -0.24829E-11         0.00000E+00
    0.20614E-07        -0.18760E-11         0.00000E+00
    0.20615E-07        -0.10411E-11         0.00000E+00
    0.20615E-07        -0.55761E-12         0.00000E+00
    0.20960E-07        -0.98864E-12         0.00000E+00
    0.20962E-07        -0.17434E-11         0.00000E+00
    0.20966E-07        -0.28681E-11         0.00000E+00
    0.20969E-07        -0.33787E-11         0.00000E+00
    0.20971E-07        -0.35442E-11         0.00000E+00
    0.20973E-07        -0.35367E-11         0.00000E+00
    0.20975E-07        -0.34412E-11         0.00000E+00
    0.20976E-07        -0.32976E-11         0.00000E+00
    0.20978E-07        -0.31254E-11         0.00000E+00
    0.20979E-07        -0.29327E-11         0.00000E+00
    0.20980E-07        -0.27183E-11         0.00000E+00
    0.20981E-07        -0.24703E-11         0.00000E+00
    0.20982E-07        -0.21527E-11         0.00000E+00
    0.20984E-07        -0.16902E-11         0.00000E+00
    0.20985E-07        -0.97228E-12         0.00000E+00
    0.20986E-07        -0.53404E-12         0.00000E+00
    0.21230E-07        -0.91452E-12         0.00000E+00
    0.21233E-07        -0.15412E-11         0.00000E+00
    0.21237E-07        -0.23752E-11         0.00000E+00
    0.21240E-07        -0.26201E-11         0.00000E+00
    0.21243E-07        -0.26392E-11         0.00000E+00
    0.21245E-07        -0.25759E-11         0.00000E+00
    0.21247E-07        -0.24739E-11         0.00000E+00
    0.21248E-07        -0.23538E-11         0.00000E+00
    0.21249E-07        -0.22252E-11         0.00000E+00
    0.21251E-07        -0.20923E-11         0.00000E+00
    0.21252E-07        -0.19552E-11         0.00000E+00
    0.21253E-07        -0.18085E-11         0.00000E+00
    0.21254E-07        -0.16378E-11         0.00000E+00
    0.21255E-07        -0.13707E-11         0.00000E+00
    0.21257E-07        -0.83796E-12         0.00000E+00
    0.21258E-07        -0.47836E-12         0.00000E+00
    0.21395E-07        -0.69268E-12         0.00000E+00
    0.21398E-07        -0.10572E-11         0.00000E+00
    0.21403E-07        -0.14419E-11         0.00000E+00
    0.21406E-07        -0.14537E-11         0.00000E+00
    0.21409E-07        -0.14196E-11         0.00000E+00
    0.21411E-07        -0.13624E-11         0.00000E+00
    0.21413E-07        -0.12965E-11         0.00000E+00
    0.21414E-07        -0.12275E-11         0.00000E+00
    0.21416E-07        -0.11586E-11         0.00000E+00
    0.21417E-07        -0.10911E-11         0.00000E+00
    0.21418E-07        -0.10258E-11         0.00000E+00
    0.21419E-07        -0.96248E-12         0.00000E+00
    0.21420E-07        -0.89785E-12         0.00000E+00
    0.21422E-07        -0.83707E-12         0.00000E+00
    0.21424E-07        -0.60274E-12         0.00000E+00
    0.21425E-07        -0.39572E-12         0.00000E+00
    0.21450E-07         0.00000E+00         0.00000E+00
    0.21453E-07         0.00000E+00         0.00000E+00
    0.21459E-07        -0.62082E-22         0.00000E+00
    0.21462E-07         0.13037E-25         0.00000E+00
    0.21465E-07         0.66235E-22         0.00000E+00
    0.21467E-07         0.00000E+00         0.00000E+00
    0.21469E-07         0.00000E+00         0.00000E+00
    0.21470E-07        -0.62131E-22         0.00000E+00
    0.21471E-07        -0.62131E-22         0.00000E+00
    0.21473E-07         0.62144E-22         0.00000E+00
    0.21474E-07         0.66287E-22         0.00000E+00
    0.21475E-07        -0.66301E-22         0.00000E+00
    0.21476E-07        -0.41377E-23         0.00000E+00
    0.21478E-07         0.66308E-22         0.00000E+00
    0.21480E-07         0.82894E-23         0.00000E+00
    0.21481E-07         0.00000E+00         0.00000E+00
CELL_DATA        450
TENSORS stressef double 
    0.44318E+08        -0.21220E+06         0.00000E+00
   -0.21220E+06         0.23569E+08         0.00000E+00
    0.00000E+00         0.00000E+00         0.15785E+08
 
    0.40710E+08        -0.62360E+06         0.00000E+00
   -0.62360E+06         0.22655E+08         0.00000E+00
    0.00000E+00         0.00000E+00         0.12673E+08
 
    0.36322E+08        -0.61473E+06         0.00000E+00
   -0.61473E+06         0.21538E+08         0.00000E+00
    0.00000E+00         0.00000E+00         0.11572E+08
 
    0.33291E+08        -0.50773E+06         0.00000E+00
   -0.50773E+06         0.20488E+08         0.00000E+00
    0.00000E+00         0.00000E+00         0.10756E+08
 
    0.30840E+08        -0.42438E+06         0.00000E+00
   -0.42438E+06         0.19588E+08         0.00000E+00
    0.00000E+00         0.00000E+00         0.10086E+08
 
    0.28734E+08        -0.34960E+06         0.00000E+00
   -0.34960E+06         0.18832E+08         0.00000E+00
    0.00000E+00         0.00000E+00         0.95132E+07
 
    0.26840E+08        -0.27858E+06         0.00000E+00
   -0.27858E+06         0.18215E+08         0.00000E+00
    0.00000E+00         0.00000E+00         0.90110E+07
 
    0.25066E+08        -0.20784E+06         0.00000E+00
   -0.20784E+06         0.17737E+08         0.00000E+00
    0.00000E+00         0.00000E+00         0.85605E+07
 
    0.23340E+08        -0.13444E+06         0.00000E+00
   -0.13444E+06         0.17400E+08         0.00000E+00
    0.00000E+00         0.00000E+00         0.81481E+07
 
    0.21594E+08        -0.54927E+05         0.00000E+00
   -0.54927E+05         0.17215E+08         0.00000E+00
    0.00000E+00         0.00000E+00         0.77618E+07
 
    0.19751E+08         0.35663E+05         0.00000E+00
    0.35663E+05         0.17199E+08         0.00000E+00
    0.00000E+00         0.00000E+00         0.73900E+07
 
    0.17714E+08         0.14582E+06         0.00000E+00
    0.14582E+06         0.17383E+08         0.00000E+00
    0.00000E+00         0.00000E+00         0.70196E+07
 
    0.15336E+08         0.29348E+06         0.00000E+00
    0.29348E+06         0.17824E+08         0.00000E+00
    0.00000E+00         0.00000E+00         0.66319E+07
 
    0.12346E+08         0.51899E+06         0.00000E+00
    0.51899E+06         0.18636E+08         0.00000E+00
    0.00000E+00         0.00000E+00         0.61965E+07
 
    0.79698E+07         0.10796E+07         0.00000E+00
    0.10796E+07         0.20148E+08         0.00000E+00
    0.00000E+00         0.00000E+00         0.56236E+07
 
    0.40881E+08        -0.42257E+06         0.00000E+00
   -0.42257E+06         0.20211E+08         0.00000E+00
    0.00000E+00         0.00000E+00         0.12224E+08
 
    0.37117E+08        -0.13092E+07         0.00000E+00
   -0.13092E+07         0.20151E+08         0.00000E+00
    0.00000E+00         0.00000E+00         0.11453E+08
 
    0.33486E+08        -0.15141E+07         0.00000E+00
   -0.15141E+07         0.19644E+08         0.00000E+00
    0.00000E+00         0.00000E+00         0.10626E+08
 
    0.30477E+08        -0.13764E+07         0.00000E+00
   -0.13764E+07         0.18954E+08         0.00000E+00
    0.00000E+00         0.00000E+00         0.98862E+07
 
    0.28027E+08        -0.11898E+07         0.00000E+00
   -0.11898E+07         0.18254E+08         0.00000E+00
    0.00000E+00         0.00000E+00         0.92564E+07
 
    0.25919E+08        -0.99599E+06         0.00000E+00
   -0.99599E+06         0.17623E+08         0.00000E+00
    0.00000E+00         0.00000E+00         0.87084E+07
 
    0.24025E+08        -0.79918E+06         0.00000E+00
   -0.79918E+06         0.17091E+08         0.00000E+00
    0.00000E+00         0.00000E+00         0.82231E+07
 
    0.22256E+08        -0.59650E+06         0.00000E+00
   -0.59650E+06         0.16673E+08         0.00000E+00
    0.00000E+00         0.00000E+00         0.77857E+07
 
    0.20539E+08        -0.38211E+06         0.00000E+00
   -0.38211E+06         0.16382E+08         0.00000E+00
    0.00000E+00         0.00000E+00         0.73844E+07
 
    0.18810E+08        -0.14706E+06         0.00000E+00
   -0.14706E+06         0.16235E+08         0.00000E+00
    0.00000E+00         0.00000E+00         0.70090E+07
 
    0.16997E+08         0.12286E+06         0.00000E+00
    0.12286E+06         0.16250E+08         0.00000E+00
    0.00000E+00         0.00000E+00         0.66495E+07
 
    0.15014E+08         0.45295E+06         0.00000E+00
    0.45295E+06         0.16462E+08         0.00000E+00
    0.00000E+00         0.00000E+00         0.62952E+07
 
    0.12742E+08         0.89411E+06         0.00000E+00
    0.89411E+06         0.16925E+08         0.00000E+00
    0.00000E+00         0.00000E+00         0.59335E+07
 
    0.99907E+07         0.15733E+07         0.00000E+00
    0.15733E+07         0.17739E+08         0.00000E+00
    0.00000E+00         0.00000E+00         0.55460E+07
 
    0.67122E+07         0.29044E+07         0.00000E+00
    0.29044E+07         0.19044E+08         0.00000E+00
    0.00000E+00         0.00000E+00         0.51512E+07
 
    0.36951E+08        -0.66031E+06         0.00000E+00
   -0.66031E+06         0.17641E+08         0.00000E+00
    0.00000E+00         0.00000E+00         0.10918E+08
 
    0.33594E+08        -0.15224E+07         0.00000E+00
   -0.15224E+07         0.17442E+08         0.00000E+00
    0.00000E+00         0.00000E+00         0.10207E+08
 
    0.30501E+08        -0.19267E+07         0.00000E+00
   -0.19267E+07         0.17238E+08         0.00000E+00
    0.00000E+00         0.00000E+00         0.95479E+07
 
    0.27722E+08        -0.19338E+07         0.00000E+00
   -0.19338E+07         0.16898E+08         0.00000E+00
    0.00000E+00         0.00000E+00         0.89240E+07
 
    0.25333E+08        -0.17551E+07         0.00000E+00
   -0.17551E+07         0.16464E+08         0.00000E+00
    0.00000E+00         0.00000E+00         0.83593E+07
 
    0.23249E+08        -0.15059E+07         0.00000E+00
   -0.15059E+07         0.16023E+08         0.00000E+00
    0.00000E+00         0.00000E+00         0.78544E+07
 
    0.21371E+08        -0.12217E+07         0.00000E+00
   -0.12217E+07         0.15629E+08         0.00000E+00
    0.00000E+00         0.00000E+00         0.74000E+07
 
    0.19618E+08        -0.91132E+06         0.00000E+00
   -0.91132E+06         0.15316E+08         0.00000E+00
    0.00000E+00         0.00000E+00         0.69869E+07
 
    0.17927E+08        -0.57176E+06         0.00000E+00
   -0.57176E+06         0.15107E+08         0.00000E+00
    0.00000E+00         0.00000E+00         0.66067E+07
 
    0.16235E+08        -0.19183E+06         0.00000E+00
   -0.19183E+06         0.15023E+08         0.00000E+00
    0.00000E+00         0.00000E+00         0.62517E+07
 
    0.14484E+08         0.24963E+06         0.00000E+00
    0.24963E+06         0.15090E+08         0.00000E+00
    0.00000E+00         0.00000E+00         0.59147E+07
 
    0.12606E+08         0.79106E+06         0.00000E+00
    0.79106E+06         0.15338E+08         0.00000E+00
    0.00000E+00         0.00000E+00         0.55889E+07
 
    0.10530E+08         0.15064E+07         0.00000E+00
    0.15064E+07         0.15812E+08         0.00000E+00
    0.00000E+00         0.00000E+00         0.52684E+07
 
    0.82143E+07         0.25515E+07         0.00000E+00
    0.25515E+07         0.16560E+08         0.00000E+00
    0.00000E+00         0.00000E+00         0.49549E+07
 
    0.57572E+07         0.41725E+07         0.00000E+00
    0.41725E+07         0.17540E+08         0.00000E+00
    0.00000E+00         0.00000E+00         0.46594E+07
 
    0.32913E+08        -0.70161E+06         0.00000E+00
   -0.70161E+06         0.14833E+08         0.00000E+00
    0.00000E+00         0.00000E+00         0.95492E+07
 
    0.30120E+08        -0.16411E+07         0.00000E+00
   -0.16411E+07         0.14819E+08         0.00000E+00
    0.00000E+00         0.00000E+00         0.89878E+07
 
    0.27438E+08        -0.21023E+07         0.00000E+00
   -0.21023E+07         0.14741E+08         0.00000E+00
    0.00000E+00         0.00000E+00         0.84358E+07
 
    0.24956E+08        -0.22166E+07         0.00000E+00
   -0.22166E+07         0.14601E+08         0.00000E+00
    0.00000E+00         0.00000E+00         0.79114E+07
 
    0.22714E+08        -0.20968E+07         0.00000E+00
   -0.20968E+07         0.14388E+08         0.00000E+00
    0.00000E+00         0.00000E+00         0.74206E+07
 
    0.20704E+08        -0.18436E+07         0.00000E+00
   -0.18436E+07         0.14140E+08         0.00000E+00
    0.00000E+00         0.00000E+00         0.69687E+07
 
    0.18872E+08        -0.15120E+07         0.00000E+00
   -0.15120E+07         0.13901E+08         0.00000E+00
    0.00000E+00         0.00000E+00         0.65546E+07
 
    0.17159E+08        -0.11234E+07         0.00000E+00
   -0.11234E+07         0.13711E+08         0.00000E+00
    0.00000E+00         0.00000E+00         0.61741E+07
 
    0.15513E+08        -0.68054E+06         0.00000E+00
   -0.68054E+06         0.13599E+08         0.00000E+00
    0.00000E+00         0.00000E+00         0.58225E+07
 
    0.13883E+08        -0.17328E+06         0.00000E+00
   -0.17328E+06         0.13591E+08         0.00000E+00
    0.00000E+00         0.00000E+00         0.54950E+07
 
    0.12224E+08         0.42232E+06         0.00000E+00
    0.42232E+06         0.13713E+08         0.00000E+00
    0.00000E+00         0.00000E+00         0.51874E+07
 
    0.10494E+08         0.11497E+07         0.00000E+00
    0.11497E+07         0.13988E+08         0.00000E+00
    0.00000E+00         0.00000E+00         0.48966E+07
 
    0.86701E+07         0.20847E+07         0.00000E+00
    0.20847E+07         0.14441E+08         0.00000E+00
    0.00000E+00         0.00000E+00         0.46223E+07
 
    0.67762E+07         0.33442E+07         0.00000E+00
    0.33442E+07         0.15067E+08         0.00000E+00
    0.00000E+00         0.00000E+00         0.43687E+07
 
    0.49328E+07         0.50690E+07         0.00000E+00
    0.50690E+07         0.15803E+08         0.00000E+00
    0.00000E+00         0.00000E+00         0.41471E+07
 
    0.28948E+08        -0.67558E+06         0.00000E+00
   -0.67558E+06         0.12124E+08         0.00000E+00
    0.00000E+00         0.00000E+00         0.82145E+07
 
    0.26686E+08        -0.16260E+07         0.00000E+00
   -0.16260E+07         0.12176E+08         0.00000E+00
    0.00000E+00         0.00000E+00         0.77724E+07
 
    0.24402E+08        -0.21376E+07         0.00000E+00
   -0.21376E+07         0.12220E+08         0.00000E+00
    0.00000E+00         0.00000E+00         0.73242E+07
 
    0.22207E+08        -0.23149E+07         0.00000E+00
   -0.23149E+07         0.12217E+08         0.00000E+00
    0.00000E+00         0.00000E+00         0.68847E+07
 
    0.20158E+08        -0.22496E+07         0.00000E+00
   -0.22496E+07         0.12164E+08         0.00000E+00
    0.00000E+00         0.00000E+00         0.64643E+07
 
    0.18268E+08        -0.20157E+07         0.00000E+00
   -0.20157E+07         0.12074E+08         0.00000E+00
    0.00000E+00         0.00000E+00         0.60684E+07
 
    0.16518E+08        -0.16651E+07         0.00000E+00
   -0.16651E+07         0.11978E+08         0.00000E+00
    0.00000E+00         0.00000E+00         0.56993E+07
 
    0.14875E+08        -0.12246E+07         0.00000E+00
   -0.12246E+07         0.11908E+08         0.00000E+00
    0.00000E+00         0.00000E+00         0.53565E+07
 
    0.13299E+08        -0.70212E+06         0.00000E+00
   -0.70212E+06         0.11893E+08         0.00000E+00
    0.00000E+00         0.00000E+00         0.50383E+07
 
    0.11756E+08        -0.90274E+05         0.00000E+00
   -0.90274E+05         0.11957E+08         0.00000E+00
    0.00000E+00         0.00000E+00         0.47426E+07
 
    0.10214E+08         0.63299E+06         0.00000E+00
    0.63299E+06         0.12125E+08         0.00000E+00
    0.00000E+00         0.00000E+00         0.44679E+07
 
    0.86568E+07         0.15072E+07         0.00000E+00
    0.15072E+07         0.12412E+08         0.00000E+00
    0.00000E+00         0.00000E+00         0.42137E+07
 
    0.70880E+07         0.25925E+07         0.00000E+00
    0.25925E+07         0.12822E+08         0.00000E+00
    0.00000E+00         0.00000E+00         0.39820E+07
 
    0.55569E+07         0.39669E+07         0.00000E+00
    0.39669E+07         0.13333E+08         0.00000E+00
    0.00000E+00         0.00000E+00         0.37781E+07
 
    0.41742E+07         0.57085E+07         0.00000E+00
    0.57085E+07         0.13881E+08         0.00000E+00
    0.00000E+00         0.00000E+00         0.36110E+07
 
    0.25151E+08        -0.62018E+06         0.00000E+00
   -0.62018E+06         0.95073E+07         0.00000E+00
    0.00000E+00         0.00000E+00         0.69316E+07
 
    0.23346E+08        -0.15337E+07         0.00000E+00
   -0.15337E+07         0.95998E+07         0.00000E+00
    0.00000E+00         0.00000E+00         0.65891E+07
 
    0.21428E+08        -0.20645E+07         0.00000E+00
   -0.20645E+07         0.97151E+07         0.00000E+00
    0.00000E+00         0.00000E+00         0.62285E+07
 
    0.19515E+08        -0.22844E+07         0.00000E+00
   -0.22844E+07         0.98110E+07         0.00000E+00
    0.00000E+00         0.00000E+00         0.58651E+07
 
    0.17674E+08        -0.22607E+07         0.00000E+00
   -0.22607E+07         0.98721E+07         0.00000E+00
    0.00000E+00         0.00000E+00         0.55093E+07
 
    0.15936E+08        -0.20506E+07         0.00000E+00
   -0.20506E+07         0.99036E+07         0.00000E+00
    0.00000E+00         0.00000E+00         0.51679E+07
 
    0.14301E+08        -0.16964E+07         0.00000E+00
   -0.16964E+07         0.99228E+07         0.00000E+00
    0.00000E+00         0.00000E+00         0.48448E+07
 
    0.12755E+08        -0.12242E+07         0.00000E+00
   -0.12242E+07         0.99537E+07         0.00000E+00
    0.00000E+00         0.00000E+00         0.45417E+07
 
    0.11276E+08        -0.64414E+06         0.00000E+00
   -0.64414E+06         0.10021E+08         0.00000E+00
    0.00000E+00         0.00000E+00         0.42592E+07
 
    0.98408E+07         0.47601E+05         0.00000E+00
    0.47601E+05         0.10145E+08         0.00000E+00
    0.00000E+00         0.00000E+00         0.39973E+07
 
    0.84351E+07         0.86789E+06         0.00000E+00
    0.86789E+06         0.10346E+08         0.00000E+00
    0.00000E+00         0.00000E+00         0.37561E+07
 
    0.70559E+07         0.18466E+07         0.00000E+00
    0.18466E+07         0.10630E+08         0.00000E+00
    0.00000E+00         0.00000E+00         0.35371E+07
 
    0.57234E+07         0.30253E+07         0.00000E+00
    0.30253E+07         0.10993E+08         0.00000E+00
    0.00000E+00         0.00000E+00         0.33432E+07
 
    0.44915E+07         0.44510E+07         0.00000E+00
    0.44510E+07         0.11406E+08         0.00000E+00
    0.00000E+00         0.00000E+00         0.31795E+07
 
    0.34557E+07         0.61633E+07         0.00000E+00
    0.61633E+07         0.11813E+08         0.00000E+00
    0.00000E+00         0.00000E+00         0.30538E+07
 
    0.21568E+08        -0.55287E+06         0.00000E+00
   -0.55287E+06         0.70025E+07         0.00000E+00
    0.00000E+00         0.00000E+00         0.57140E+07
 
    0.20140E+08        -0.13993E+07         0.00000E+00
   -0.13993E+07         0.71124E+07         0.00000E+00
    0.00000E+00         0.00000E+00         0.54505E+07
 
    0.18547E+08        -0.19229E+07         0.00000E+00
   -0.19229E+07         0.72683E+07         0.00000E+00
    0.00000E+00         0.00000E+00         0.51631E+07
 
    0.16902E+08        -0.21652E+07         0.00000E+00
   -0.21652E+07         0.74253E+07         0.00000E+00
    0.00000E+00         0.00000E+00         0.48655E+07
 
    0.15276E+08        -0.21713E+07         0.00000E+00
   -0.21713E+07         0.75629E+07         0.00000E+00
    0.00000E+00         0.00000E+00         0.45678E+07
 
    0.13708E+08        -0.19826E+07         0.00000E+00
   -0.19826E+07         0.76785E+07         0.00000E+00
    0.00000E+00         0.00000E+00         0.42773E+07
 
    0.12213E+08        -0.16322E+07         0.00000E+00
   -0.16322E+07         0.77814E+07         0.00000E+00
    0.00000E+00         0.00000E+00         0.39988E+07
 
    0.10789E+08        -0.11421E+07         0.00000E+00
   -0.11421E+07         0.78881E+07         0.00000E+00
    0.00000E+00         0.00000E+00         0.37354E+07
 
    0.94272E+07        -0.52301E+06         0.00000E+00
   -0.52301E+06         0.80167E+07         0.00000E+00
    0.00000E+00         0.00000E+00         0.34888E+07
 
    0.81185E+07         0.22527E+06         0.00000E+00
    0.22527E+06         0.81842E+07         0.00000E+00
    0.00000E+00         0.00000E+00         0.32605E+07
 
    0.68580E+07         0.11132E+07         0.00000E+00
    0.11132E+07         0.84023E+07         0.00000E+00
    0.00000E+00         0.00000E+00         0.30521E+07
 
    0.56533E+07         0.21598E+07         0.00000E+00
    0.21598E+07         0.86746E+07         0.00000E+00
    0.00000E+00         0.00000E+00         0.28656E+07
 
    0.45305E+07         0.33897E+07         0.00000E+00
    0.33897E+07         0.89912E+07         0.00000E+00
    0.00000E+00         0.00000E+00         0.27043E+07
 
    0.35408E+07         0.48267E+07         0.00000E+00
    0.48267E+07         0.93248E+07         0.00000E+00
    0.00000E+00         0.00000E+00         0.25731E+07
 
    0.27642E+07         0.64852E+07         0.00000E+00
    0.64852E+07         0.96275E+07         0.00000E+00
    0.00000E+00         0.00000E+00         0.24784E+07
 
    0.18216E+08        -0.48254E+06         0.00000E+00
   -0.48254E+06         0.46098E+07         0.00000E+00
    0.00000E+00         0.00000E+00         0.45651E+07
 
    0.17092E+08        -0.12469E+07         0.00000E+00
   -0.12469E+07         0.47239E+07         0.00000E+00
    0.00000E+00         0.00000E+00         0.43633E+07
 
    0.15781E+08        -0.17444E+07         0.00000E+00
   -0.17444E+07         0.48961E+07         0.00000E+00
    0.00000E+00         0.00000E+00         0.41354E+07
 
    0.14384E+08        -0.19926E+07         0.00000E+00
   -0.19926E+07         0.50841E+07         0.00000E+00
    0.00000E+00         0.00000E+00         0.38935E+07
 
    0.12970E+08        -0.20172E+07         0.00000E+00
   -0.20172E+07         0.52651E+07         0.00000E+00
    0.00000E+00         0.00000E+00         0.36470E+07
 
    0.11583E+08        -0.18455E+07         0.00000E+00
   -0.18455E+07         0.54318E+07         0.00000E+00
    0.00000E+00         0.00000E+00         0.34029E+07
 
    0.10243E+08        -0.15013E+07         0.00000E+00
   -0.15013E+07         0.55879E+07         0.00000E+00
    0.00000E+00         0.00000E+00         0.31662E+07
 
    0.89603E+07        -0.10024E+07         0.00000E+00
   -0.10024E+07         0.57433E+07         0.00000E+00
    0.00000E+00         0.00000E+00         0.29407E+07
 
    0.77340E+07        -0.35907E+06         0.00000E+00
   -0.35907E+06         0.59108E+07         0.00000E+00
    0.00000E+00         0.00000E+00         0.27290E+07
 
    0.65636E+07         0.42608E+06         0.00000E+00
    0.42608E+06         0.61021E+07         0.00000E+00
    0.00000E+00         0.00000E+00         0.25331E+07
 
    0.54523E+07         0.13572E+07         0.00000E+00
    0.13572E+07         0.63245E+07         0.00000E+00
    0.00000E+00         0.00000E+00         0.23554E+07
 
    0.44131E+07         0.24432E+07         0.00000E+00
    0.24432E+07         0.65780E+07         0.00000E+00
    0.00000E+00         0.00000E+00         0.21982E+07
 
    0.34732E+07         0.36948E+07         0.00000E+00
    0.36948E+07         0.68518E+07         0.00000E+00
    0.00000E+00         0.00000E+00         0.20650E+07
 
    0.26778E+07         0.51191E+07         0.00000E+00
    0.51191E+07         0.71214E+07         0.00000E+00
    0.00000E+00         0.00000E+00         0.19598E+07
 
    0.20922E+07         0.67127E+07         0.00000E+00
    0.67127E+07         0.73479E+07         0.00000E+00
    0.00000E+00         0.00000E+00         0.18880E+07
 
    0.15091E+08        -0.41485E+06         0.00000E+00
   -0.41485E+06         0.23227E+07         0.00000E+00
    0.00000E+00         0.00000E+00         0.34828E+07
 
    0.14207E+08        -0.10929E+07         0.00000E+00
   -0.10929E+07         0.24316E+07         0.00000E+00
    0.00000E+00         0.00000E+00         0.33278E+07
 
    0.13135E+08        -0.15538E+07         0.00000E+00
   -0.15538E+07         0.26021E+07         0.00000E+00
    0.00000E+00         0.00000E+00         0.31475E+07
 
    0.11964E+08        -0.17960E+07         0.00000E+00
   -0.17960E+07         0.27969E+07         0.00000E+00
    0.00000E+00         0.00000E+00         0.29522E+07
 
    0.10756E+08        -0.18295E+07         0.00000E+00
   -0.18295E+07         0.29938E+07         0.00000E+00
    0.00000E+00         0.00000E+00         0.27500E+07
 
    0.95535E+07        -0.16696E+07         0.00000E+00
   -0.16696E+07         0.31831E+07         0.00000E+00
    0.00000E+00         0.00000E+00         0.25473E+07
 
    0.83811E+07        -0.13320E+07         0.00000E+00
   -0.13320E+07         0.33645E+07         0.00000E+00
    0.00000E+00         0.00000E+00         0.23491E+07
 
    0.72521E+07        -0.82998E+06         0.00000E+00
   -0.82998E+06         0.35433E+07         0.00000E+00
    0.00000E+00         0.00000E+00         0.21591E+07
 
    0.61730E+07        -0.17301E+06         0.00000E+00
   -0.17301E+06         0.37276E+07         0.00000E+00
    0.00000E+00         0.00000E+00         0.19801E+07
 
    0.51488E+07         0.63394E+06         0.00000E+00
    0.63394E+06         0.39250E+07         0.00000E+00
    0.00000E+00         0.00000E+00         0.18147E+07
 
    0.41872E+07         0.15896E+07         0.00000E+00
    0.15896E+07         0.41394E+07         0.00000E+00
    0.00000E+00         0.00000E+00         0.16653E+07
 
    0.33030E+07         0.26948E+07         0.00000E+00
    0.26948E+07         0.43688E+07         0.00000E+00
    0.00000E+00         0.00000E+00         0.15344E+07
 
    0.25218E+07         0.39493E+07         0.00000E+00
    0.39493E+07         0.46028E+07         0.00000E+00
    0.00000E+00         0.00000E+00         0.14249E+07
 
    0.18816E+07         0.53479E+07         0.00000E+00
    0.53479E+07         0.48211E+07         0.00000E+00
    0.00000E+00         0.00000E+00         0.13405E+07
 
    0.14341E+07         0.68752E+07         0.00000E+00
    0.68752E+07         0.49931E+07         0.00000E+00
    0.00000E+00         0.00000E+00         0.12854E+07
 
    0.12175E+08        -0.35378E+06         0.00000E+00
   -0.35378E+06         0.12856E+06         0.00000E+00
    0.00000E+00         0.00000E+00         0.24607E+07
 
    0.11476E+08        -0.94968E+06         0.00000E+00
   -0.94968E+06         0.22533E+06         0.00000E+00
    0.00000E+00         0.00000E+00         0.23403E+07
 
    0.10607E+08        -0.13699E+07         0.00000E+00
   -0.13699E+07         0.38079E+06         0.00000E+00
    0.00000E+00         0.00000E+00         0.21975E+07
 
    0.96395E+07        -0.15989E+07         0.00000E+00
   -0.15989E+07         0.56365E+06         0.00000E+00
    0.00000E+00         0.00000E+00         0.20406E+07
 
    0.86282E+07        -0.16344E+07         0.00000E+00
   -0.16344E+07         0.75408E+06         0.00000E+00
    0.00000E+00         0.00000E+00         0.18765E+07
 
    0.76105E+07        -0.14816E+07         0.00000E+00
   -0.14816E+07         0.94201E+06         0.00000E+00
    0.00000E+00         0.00000E+00         0.17105E+07
 
    0.66108E+07        -0.11495E+07         0.00000E+00
   -0.11495E+07         0.11248E+07         0.00000E+00
    0.00000E+00         0.00000E+00         0.15471E+07
 
    0.56442E+07        -0.64744E+06         0.00000E+00
   -0.64744E+06         0.13048E+07         0.00000E+00
    0.00000E+00         0.00000E+00         0.13898E+07
 
    0.47202E+07         0.16098E+05         0.00000E+00
    0.16098E+05         0.14865E+07         0.00000E+00
    0.00000E+00         0.00000E+00         0.12413E+07
 
    0.38466E+07         0.83444E+06         0.00000E+00
    0.83444E+06         0.16742E+07         0.00000E+00
    0.00000E+00         0.00000E+00         0.11042E+07
 
    0.30328E+07         0.18021E+07         0.00000E+00
    0.18021E+07         0.18699E+07         0.00000E+00
    0.00000E+00         0.00000E+00         0.98055E+06
 
    0.22936E+07         0.29135E+07         0.00000E+00
    0.29135E+07         0.20706E+07         0.00000E+00
    0.00000E+00         0.00000E+00         0.87286E+06
 
    0.16508E+07         0.41604E+07         0.00000E+00
    0.41604E+07         0.22675E+07         0.00000E+00
    0.00000E+00         0.00000E+00         0.78366E+06
 
    0.11350E+07         0.55287E+07         0.00000E+00
    0.55287E+07         0.24443E+07         0.00000E+00
    0.00000E+00         0.00000E+00         0.71585E+06
 
    0.78541E+06         0.69947E+07         0.00000E+00
    0.69947E+07         0.25779E+07         0.00000E+00
    0.00000E+00         0.00000E+00         0.67265E+06
 
    0.94362E+07        -0.30220E+06         0.00000E+00
   -0.30220E+06        -0.19896E+07         0.00000E+00
    0.00000E+00         0.00000E+00         0.14893E+07
 
    0.88791E+07        -0.82594E+06         0.00000E+00
   -0.82594E+06        -0.19099E+07         0.00000E+00
    0.00000E+00         0.00000E+00         0.13938E+07
 
    0.81812E+07        -0.12070E+07         0.00000E+00
   -0.12070E+07        -0.17796E+07         0.00000E+00
    0.00000E+00         0.00000E+00         0.12803E+07
 
    0.73985E+07        -0.14198E+07         0.00000E+00
   -0.14198E+07        -0.16229E+07         0.00000E+00
    0.00000E+00         0.00000E+00         0.11551E+07
 
    0.65740E+07        -0.14527E+07         0.00000E+00
   -0.14527E+07        -0.14564E+07         0.00000E+00
    0.00000E+00         0.00000E+00         0.10235E+07
 
    0.57389E+07        -0.13033E+07         0.00000E+00
   -0.13033E+07        -0.12889E+07         0.00000E+00
    0.00000E+00         0.00000E+00         0.88999E+06
 
    0.49146E+07        -0.97507E+06         0.00000E+00
   -0.97507E+06        -0.11241E+07         0.00000E+00
    0.00000E+00         0.00000E+00         0.75809E+06
 
    0.41153E+07        -0.47421E+06         0.00000E+00
   -0.47421E+06        -0.96150E+06         0.00000E+00
    0.00000E+00         0.00000E+00         0.63077E+06
 
    0.33511E+07         0.19187E+06         0.00000E+00
    0.19187E+06        -0.79874E+06         0.00000E+00
    0.00000E+00         0.00000E+00         0.51047E+06
 
    0.26301E+07         0.10153E+07         0.00000E+00
    0.10153E+07        -0.63355E+06         0.00000E+00
    0.00000E+00         0.00000E+00         0.39931E+06
 
    0.19617E+07         0.19875E+07         0.00000E+00
    0.19875E+07        -0.46543E+06         0.00000E+00
    0.00000E+00         0.00000E+00         0.29925E+06
 
    0.13585E+07         0.30981E+07         0.00000E+00
    0.30981E+07        -0.29717E+06         0.00000E+00
    0.00000E+00         0.00000E+00         0.21227E+06
 
    0.83802E+06         0.43332E+07         0.00000E+00
    0.43332E+07        -0.13588E+06         0.00000E+00
    0.00000E+00         0.00000E+00         0.14043E+06
 
    0.42314E+06         0.56727E+07         0.00000E+00
    0.56727E+07         0.64783E+04         0.00000E+00
    0.00000E+00         0.00000E+00         0.85923E+05
 
    0.14213E+06         0.70875E+07         0.00000E+00
    0.70875E+07         0.11339E+06         0.00000E+00
    0.00000E+00         0.00000E+00         0.51104E+05
 
    0.68369E+07        -0.26216E+06         0.00000E+00
   -0.26216E+06        -0.40516E+07         0.00000E+00
    0.00000E+00         0.00000E+00         0.55706E+06
 
    0.63886E+07        -0.72811E+06         0.00000E+00
   -0.72811E+06        -0.39926E+07         0.00000E+00
    0.00000E+00         0.00000E+00         0.47920E+06
 
    0.58376E+07        -0.10758E+07         0.00000E+00
   -0.10758E+07        -0.38944E+07         0.00000E+00
    0.00000E+00         0.00000E+00         0.38865E+06
 
    0.52233E+07        -0.12727E+07         0.00000E+00
   -0.12727E+07        -0.37744E+07         0.00000E+00
    0.00000E+00         0.00000E+00         0.28980E+06
 
    0.45768E+07        -0.13007E+07         0.00000E+00
   -0.13007E+07        -0.36446E+07         0.00000E+00
    0.00000E+00         0.00000E+00         0.18643E+06
 
    0.39211E+07        -0.11520E+07         0.00000E+00
   -0.11520E+07        -0.35123E+07         0.00000E+00
    0.00000E+00         0.00000E+00         0.81768E+05
 
    0.32729E+07        -0.82586E+06         0.00000E+00
   -0.82586E+06        -0.33804E+07         0.00000E+00
    0.00000E+00         0.00000E+00        -0.21516E+05
 
    0.26436E+07        -0.32600E+06         0.00000E+00
   -0.32600E+06        -0.32495E+07         0.00000E+00
    0.00000E+00         0.00000E+00        -0.12119E+06
 
    0.20416E+07         0.34101E+06         0.00000E+00
    0.34101E+06        -0.31185E+07         0.00000E+00
    0.00000E+00         0.00000E+00        -0.21538E+06
 
    0.14739E+07         0.11665E+07         0.00000E+00
    0.11665E+07        -0.29862E+07         0.00000E+00
    0.00000E+00         0.00000E+00        -0.30245E+06
 
    0.94825E+06         0.21399E+07         0.00000E+00
    0.21399E+07        -0.28526E+07         0.00000E+00
    0.00000E+00         0.00000E+00        -0.38086E+06
 
    0.47407E+06         0.32475E+07         0.00000E+00
    0.32475E+07        -0.27199E+07         0.00000E+00
    0.00000E+00         0.00000E+00        -0.44917E+06
 
    0.63833E+05         0.44715E+07         0.00000E+00
    0.44715E+07        -0.25932E+07         0.00000E+00
    0.00000E+00         0.00000E+00        -0.50587E+06
 
   -0.26679E+06         0.57880E+07         0.00000E+00
    0.57880E+07        -0.24804E+07         0.00000E+00
    0.00000E+00         0.00000E+00        -0.54944E+06
 
   -0.49950E+06         0.71649E+07         0.00000E+00
    0.71649E+07        -0.23922E+07         0.00000E+00
    0.00000E+00         0.00000E+00        -0.57835E+06
 
    0.43340E+07        -0.23498E+06         0.00000E+00
   -0.23498E+06        -0.60789E+07         0.00000E+00
    0.00000E+00         0.00000E+00        -0.34899E+06
 
    0.39717E+07        -0.66047E+06         0.00000E+00
   -0.66047E+06        -0.60426E+07         0.00000E+00
    0.00000E+00         0.00000E+00        -0.41419E+06
 
    0.35503E+07        -0.98349E+06         0.00000E+00
   -0.98349E+06        -0.59812E+07         0.00000E+00
    0.00000E+00         0.00000E+00        -0.48619E+06
 
    0.30924E+07        -0.11675E+07         0.00000E+00
   -0.11675E+07        -0.59048E+07         0.00000E+00
    0.00000E+00         0.00000E+00        -0.56248E+06
 
    0.26168E+07        -0.11903E+07         0.00000E+00
   -0.11903E+07        -0.58208E+07         0.00000E+00
    0.00000E+00         0.00000E+00        -0.64081E+06
 
    0.21376E+07        -0.10405E+07         0.00000E+00
   -0.10405E+07        -0.57338E+07         0.00000E+00
    0.00000E+00         0.00000E+00        -0.71924E+06
 
    0.16652E+07        -0.71465E+06         0.00000E+00
   -0.71465E+06        -0.56457E+07         0.00000E+00
    0.00000E+00         0.00000E+00        -0.79609E+06
 
    0.12071E+07        -0.21471E+06         0.00000E+00
   -0.21471E+06        -0.55569E+07         0.00000E+00
    0.00000E+00         0.00000E+00        -0.86996E+06
 
    0.76866E+06         0.45340E+06         0.00000E+00
    0.45340E+06        -0.54669E+07         0.00000E+00
    0.00000E+00         0.00000E+00        -0.93965E+06
 
    0.35451E+06         0.12806E+07         0.00000E+00
    0.12806E+07        -0.53749E+07         0.00000E+00
    0.00000E+00         0.00000E+00        -0.10041E+07
 
   -0.30574E+05         0.22549E+07         0.00000E+00
    0.22549E+07        -0.52810E+07         0.00000E+00
    0.00000E+00         0.00000E+00        -0.10623E+07
 
   -0.38079E+06         0.33606E+07         0.00000E+00
    0.33606E+07        -0.51863E+07         0.00000E+00
    0.00000E+00         0.00000E+00        -0.11134E+07
 
   -0.68884E+06         0.45777E+07         0.00000E+00
    0.45777E+07        -0.50937E+07         0.00000E+00
    0.00000E+00         0.00000E+00        -0.11565E+07
 
   -0.94603E+06         0.58800E+07         0.00000E+00
    0.58800E+07        -0.50075E+07         0.00000E+00
    0.00000E+00         0.00000E+00        -0.11907E+07
 
   -0.11429E+07         0.72341E+07         0.00000E+00
    0.72341E+07        -0.49333E+07         0.00000E+00
    0.00000E+00         0.00000E+00        -0.12152E+07
 
    0.18816E+07        -0.22134E+06         0.00000E+00
   -0.22134E+06        -0.80933E+07         0.00000E+00
    0.00000E+00         0.00000E+00        -0.12423E+07
 
    0.15927E+07        -0.62551E+06         0.00000E+00
   -0.62551E+06        -0.80808E+07         0.00000E+00
    0.00000E+00         0.00000E+00        -0.12976E+07
 
    0.12906E+07        -0.93456E+06         0.00000E+00
   -0.93456E+06        -0.80586E+07         0.00000E+00
    0.00000E+00         0.00000E+00        -0.13536E+07
 
    0.98187E+06        -0.11104E+07         0.00000E+00
   -0.11104E+07        -0.80297E+07         0.00000E+00
    0.00000E+00         0.00000E+00        -0.14096E+07
 
    0.67264E+06        -0.11291E+07         0.00000E+00
   -0.11291E+07        -0.79968E+07         0.00000E+00
    0.00000E+00         0.00000E+00        -0.14648E+07
 
    0.36786E+06        -0.97736E+06         0.00000E+00
   -0.97736E+06        -0.79612E+07         0.00000E+00
    0.00000E+00         0.00000E+00        -0.15187E+07
 
    0.71140E+05        -0.65017E+06         0.00000E+00
   -0.65017E+06        -0.79235E+07         0.00000E+00
    0.00000E+00         0.00000E+00        -0.15705E+07
 
   -0.21508E+06        -0.14852E+06         0.00000E+00
   -0.14852E+06        -0.78835E+07         0.00000E+00
    0.00000E+00         0.00000E+00        -0.16197E+07
 
   -0.48912E+06         0.52204E+06         0.00000E+00
    0.52204E+06        -0.78405E+07         0.00000E+00
    0.00000E+00         0.00000E+00        -0.16659E+07
 
   -0.74969E+06         0.13522E+07         0.00000E+00
    0.13522E+07        -0.77937E+07         0.00000E+00
    0.00000E+00         0.00000E+00        -0.17087E+07
 
   -0.99538E+06         0.23293E+07         0.00000E+00
    0.23293E+07        -0.77428E+07         0.00000E+00
    0.00000E+00         0.00000E+00        -0.17476E+07
 
   -0.12245E+07         0.34366E+07         0.00000E+00
    0.34366E+07        -0.76877E+07         0.00000E+00
    0.00000E+00         0.00000E+00        -0.17824E+07
 
   -0.14348E+07         0.46530E+07         0.00000E+00
    0.46530E+07        -0.76291E+07         0.00000E+00
    0.00000E+00         0.00000E+00        -0.18128E+07
 
   -0.16242E+07         0.59517E+07         0.00000E+00
    0.59517E+07        -0.75681E+07         0.00000E+00
    0.00000E+00         0.00000E+00        -0.18385E+07
 
   -0.17909E+07         0.72989E+07         0.00000E+00
    0.72989E+07        -0.75056E+07         0.00000E+00
    0.00000E+00         0.00000E+00        -0.18593E+07
 
   -0.56615E+06        -0.22135E+06         0.00000E+00
   -0.22135E+06        -0.10116E+08         0.00000E+00
    0.00000E+00         0.00000E+00        -0.21364E+07
 
   -0.78481E+06        -0.62406E+06         0.00000E+00
   -0.62406E+06        -0.10127E+08         0.00000E+00
    0.00000E+00         0.00000E+00        -0.21824E+07
 
   -0.97086E+06        -0.93096E+06         0.00000E+00
   -0.93096E+06        -0.10145E+08         0.00000E+00
    0.00000E+00         0.00000E+00        -0.22231E+07
 
   -0.11330E+07        -0.11047E+07         0.00000E+00
   -0.11047E+07        -0.10165E+08         0.00000E+00
    0.00000E+00         0.00000E+00        -0.22595E+07
 
   -0.12773E+07        -0.11213E+07         0.00000E+00
   -0.11213E+07        -0.10185E+08         0.00000E+00
    0.00000E+00         0.00000E+00        -0.22924E+07
 
   -0.14081E+07        -0.96728E+06         0.00000E+00
   -0.96728E+06        -0.10203E+08         0.00000E+00
    0.00000E+00         0.00000E+00        -0.23222E+07
 
   -0.15289E+07        -0.63729E+06         0.00000E+00
   -0.63729E+06        -0.10219E+08         0.00000E+00
    0.00000E+00         0.00000E+00        -0.23496E+07
 
   -0.16426E+07        -0.13207E+06         0.00000E+00
   -0.13207E+06        -0.10231E+08         0.00000E+00
    0.00000E+00         0.00000E+00        -0.23746E+07
 
   -0.17515E+07         0.54293E+06         0.00000E+00
    0.54293E+06        -0.10237E+08         0.00000E+00
    0.00000E+00         0.00000E+00        -0.23978E+07
 
   -0.18580E+07         0.13784E+07         0.00000E+00
    0.13784E+07        -0.10238E+08         0.00000E+00
    0.00000E+00         0.00000E+00        -0.24192E+07
 
   -0.19644E+07         0.23614E+07         0.00000E+00
    0.23614E+07        -0.10232E+08         0.00000E+00
    0.00000E+00         0.00000E+00        -0.24392E+07
 
   -0.20730E+07         0.34750E+07         0.00000E+00
    0.34750E+07        -0.10217E+08         0.00000E+00
    0.00000E+00         0.00000E+00        -0.24580E+07
 
   -0.21868E+07         0.46981E+07         0.00000E+00
    0.46981E+07        -0.10193E+08         0.00000E+00
    0.00000E+00         0.00000E+00        -0.24759E+07
 
   -0.23094E+07         0.60041E+07         0.00000E+00
    0.60041E+07        -0.10156E+08         0.00000E+00
    0.00000E+00         0.00000E+00        -0.24932E+07
 
   -0.24462E+07         0.73603E+07         0.00000E+00
    0.73603E+07        -0.10106E+08         0.00000E+00
    0.00000E+00         0.00000E+00        -0.25104E+07
 
   -0.30537E+07        -0.23466E+06         0.00000E+00
   -0.23466E+06        -0.12166E+08         0.00000E+00
    0.00000E+00         0.00000E+00        -0.30440E+07
 
   -0.31964E+07        -0.65559E+06         0.00000E+00
   -0.65559E+06        -0.12201E+08         0.00000E+00
    0.00000E+00         0.00000E+00        -0.30794E+07
 
   -0.32628E+07        -0.97241E+06         0.00000E+00
   -0.97241E+06        -0.12256E+08         0.00000E+00
    0.00000E+00         0.00000E+00        -0.31038E+07
 
   -0.32761E+07        -0.11504E+07         0.00000E+00
   -0.11504E+07        -0.12324E+08         0.00000E+00
    0.00000E+00         0.00000E+00        -0.31200E+07
 
   -0.32539E+07        -0.11675E+07         0.00000E+00
   -0.11675E+07        -0.12396E+08         0.00000E+00
    0.00000E+00         0.00000E+00        -0.31299E+07
 
   -0.32095E+07        -0.10113E+07         0.00000E+00
   -0.10113E+07        -0.12468E+08         0.00000E+00
    0.00000E+00         0.00000E+00        -0.31354E+07
 
   -0.31533E+07        -0.67728E+06         0.00000E+00
   -0.67728E+06        -0.12536E+08         0.00000E+00
    0.00000E+00         0.00000E+00        -0.31379E+07
 
   -0.30933E+07        -0.16667E+06         0.00000E+00
   -0.16667E+06        -0.12599E+08         0.00000E+00
    0.00000E+00         0.00000E+00        -0.31385E+07
 
   -0.30360E+07         0.51491E+06         0.00000E+00
    0.51491E+06        -0.12656E+08         0.00000E+00
    0.00000E+00         0.00000E+00        -0.31383E+07
 
   -0.29875E+07         0.13582E+07         0.00000E+00
    0.13582E+07        -0.12704E+08         0.00000E+00
    0.00000E+00         0.00000E+00        -0.31382E+07
 
   -0.29534E+07         0.23504E+07         0.00000E+00
    0.23504E+07        -0.12742E+08         0.00000E+00
    0.00000E+00         0.00000E+00        -0.31390E+07
 
   -0.29402E+07         0.34754E+07         0.00000E+00
    0.34754E+07        -0.12767E+08         0.00000E+00
    0.00000E+00         0.00000E+00        -0.31415E+07
 
   -0.29555E+07         0.47127E+07         0.00000E+00
    0.47127E+07        -0.12778E+08         0.00000E+00
    0.00000E+00         0.00000E+00        -0.31466E+07
 
   -0.30085E+07         0.60369E+07         0.00000E+00
    0.60369E+07        -0.12767E+08         0.00000E+00
    0.00000E+00         0.00000E+00        -0.31551E+07
 
   -0.31107E+07         0.74171E+07         0.00000E+00
    0.74171E+07        -0.12730E+08         0.00000E+00
    0.00000E+00         0.00000E+00        -0.31681E+07
 
   -0.56223E+07        -0.26048E+06         0.00000E+00
   -0.26048E+06        -0.14262E+08         0.00000E+00
    0.00000E+00         0.00000E+00        -0.39770E+07
 
   -0.56750E+07        -0.71828E+06         0.00000E+00
   -0.71828E+06        -0.14318E+08         0.00000E+00
    0.00000E+00         0.00000E+00        -0.39985E+07
 
   -0.56119E+07        -0.10566E+07         0.00000E+00
   -0.10566E+07        -0.14409E+08         0.00000E+00
    0.00000E+00         0.00000E+00        -0.40042E+07
 
   -0.54695E+07        -0.12451E+07         0.00000E+00
   -0.12451E+07        -0.14520E+08         0.00000E+00
    0.00000E+00         0.00000E+00        -0.39980E+07
 
   -0.52761E+07        -0.12652E+07         0.00000E+00
   -0.12652E+07        -0.14641E+08         0.00000E+00
    0.00000E+00         0.00000E+00        -0.39833E+07
 
   -0.50534E+07        -0.11070E+07         0.00000E+00
   -0.11070E+07        -0.14762E+08         0.00000E+00
    0.00000E+00         0.00000E+00        -0.39631E+07
 
   -0.48182E+07        -0.76801E+06         0.00000E+00
   -0.76801E+06        -0.14879E+08         0.00000E+00
    0.00000E+00         0.00000E+00        -0.39395E+07
 
   -0.45831E+07        -0.25045E+06         0.00000E+00
   -0.25045E+06        -0.14990E+08         0.00000E+00
    0.00000E+00         0.00000E+00        -0.39147E+07
 
   -0.43584E+07         0.43951E+06         0.00000E+00
    0.43951E+06        -0.15093E+08         0.00000E+00
    0.00000E+00         0.00000E+00        -0.38903E+07
 
   -0.41532E+07         0.12927E+07         0.00000E+00
    0.12927E+07        -0.15186E+08         0.00000E+00
    0.00000E+00         0.00000E+00        -0.38678E+07
 
   -0.39764E+07         0.22972E+07         0.00000E+00
    0.22972E+07        -0.15267E+08         0.00000E+00
    0.00000E+00         0.00000E+00        -0.38486E+07
 
   -0.38381E+07         0.34380E+07         0.00000E+00
    0.34380E+07        -0.15332E+08         0.00000E+00
    0.00000E+00         0.00000E+00        -0.38341E+07
 
   -0.37502E+07         0.46961E+07         0.00000E+00
    0.46961E+07        -0.15377E+08         0.00000E+00
    0.00000E+00         0.00000E+00        -0.38254E+07
 
   -0.37269E+07         0.60483E+07         0.00000E+00
    0.60483E+07        -0.15394E+08         0.00000E+00
    0.00000E+00         0.00000E+00        -0.38242E+07
 
   -0.37856E+07         0.74660E+07         0.00000E+00
    0.74660E+07        -0.15373E+08         0.00000E+00
    0.00000E+00         0.00000E+00        -0.38318E+07
 
   -0.83091E+07        -0.29766E+06         0.00000E+00
   -0.29766E+06        -0.16419E+08         0.00000E+00
    0.00000E+00         0.00000E+00        -0.49456E+07
 
   -0.82501E+07        -0.80923E+06         0.00000E+00
   -0.80923E+06        -0.16493E+08         0.00000E+00
    0.00000E+00         0.00000E+00        -0.49486E+07
 
   -0.80415E+07        -0.11794E+07         0.00000E+00
   -0.11794E+07        -0.16616E+08         0.00000E+00
    0.00000E+00         0.00000E+00        -0.49315E+07
 
   -0.77322E+07        -0.13839E+07         0.00000E+00
   -0.13839E+07        -0.16766E+08         0.00000E+00
    0.00000E+00         0.00000E+00        -0.48996E+07
 
   -0.73601E+07        -0.14090E+07         0.00000E+00
   -0.14090E+07        -0.16927E+08         0.00000E+00
    0.00000E+00         0.00000E+00        -0.48575E+07
 
   -0.69547E+07        -0.12490E+07         0.00000E+00
   -0.12490E+07        -0.17091E+08         0.00000E+00
    0.00000E+00         0.00000E+00        -0.48091E+07
 
   -0.65378E+07        -0.90408E+06         0.00000E+00
   -0.90408E+06        -0.17250E+08         0.00000E+00
    0.00000E+00         0.00000E+00        -0.47576E+07
 
   -0.61260E+07        -0.37851E+06         0.00000E+00
   -0.37851E+06        -0.17402E+08         0.00000E+00
    0.00000E+00         0.00000E+00        -0.47057E+07
 
   -0.57324E+07         0.32088E+06         0.00000E+00
    0.32088E+06        -0.17546E+08         0.00000E+00
    0.00000E+00         0.00000E+00        -0.46556E+07
 
   -0.53685E+07         0.11852E+07         0.00000E+00
    0.11852E+07        -0.17678E+08         0.00000E+00
    0.00000E+00         0.00000E+00        -0.46094E+07
 
   -0.50458E+07         0.22036E+07         0.00000E+00
    0.22036E+07        -0.17799E+08         0.00000E+00
    0.00000E+00         0.00000E+00        -0.45689E+07
 
   -0.47772E+07         0.33630E+07         0.00000E+00
    0.33630E+07        -0.17902E+08         0.00000E+00
    0.00000E+00         0.00000E+00        -0.45359E+07
 
   -0.45787E+07         0.46470E+07         0.00000E+00
    0.46470E+07        -0.17983E+08         0.00000E+00
    0.00000E+00         0.00000E+00        -0.45123E+07
 
   -0.44692E+07         0.60352E+07         0.00000E+00
    0.60352E+07        -0.18030E+08         0.00000E+00
    0.00000E+00         0.00000E+00        -0.44998E+07
 
   -0.44718E+07         0.75020E+07         0.00000E+00
    0.75020E+07        -0.18030E+08         0.00000E+00
    0.00000E+00         0.00000E+00        -0.45004E+07
 
   -0.11146E+08        -0.34475E+06         0.00000E+00
   -0.34475E+06        -0.18648E+08         0.00000E+00
    0.00000E+00         0.00000E+00        -0.59588E+07
 
   -0.10946E+08        -0.92453E+06         0.00000E+00
   -0.92453E+06        -0.18738E+08         0.00000E+00
    0.00000E+00         0.00000E+00        -0.59369E+07
 
   -0.10571E+08        -0.13350E+07         0.00000E+00
   -0.13350E+07        -0.18887E+08         0.00000E+00
    0.00000E+00         0.00000E+00        -0.58915E+07
 
   -0.10080E+08        -0.15593E+07         0.00000E+00
   -0.15593E+07        -0.19067E+08         0.00000E+00
    0.00000E+00         0.00000E+00        -0.58294E+07
 
   -0.95190E+07        -0.15905E+07         0.00000E+00
   -0.15905E+07        -0.19262E+08         0.00000E+00
    0.00000E+00         0.00000E+00        -0.57561E+07
 
   -0.89250E+07        -0.14283E+07         0.00000E+00
   -0.14283E+07        -0.19457E+08         0.00000E+00
    0.00000E+00         0.00000E+00        -0.56765E+07
 
   -0.83234E+07        -0.10769E+07         0.00000E+00
   -0.10769E+07        -0.19648E+08         0.00000E+00
    0.00000E+00         0.00000E+00        -0.55944E+07
 
   -0.77335E+07        -0.54292E+06         0.00000E+00
   -0.54292E+06        -0.19832E+08         0.00000E+00
    0.00000E+00         0.00000E+00        -0.55131E+07
 
   -0.71699E+07         0.16571E+06         0.00000E+00
    0.16571E+06        -0.20007E+08         0.00000E+00
    0.00000E+00         0.00000E+00        -0.54353E+07
 
   -0.66453E+07         0.10406E+07         0.00000E+00
    0.10406E+07        -0.20173E+08         0.00000E+00
    0.00000E+00         0.00000E+00        -0.53636E+07
 
   -0.61726E+07         0.20725E+07         0.00000E+00
    0.20725E+07        -0.20328E+08         0.00000E+00
    0.00000E+00         0.00000E+00        -0.53001E+07
 
   -0.57672E+07         0.32512E+07         0.00000E+00
    0.32512E+07        -0.20467E+08         0.00000E+00
    0.00000E+00         0.00000E+00        -0.52469E+07
 
   -0.54481E+07         0.45638E+07         0.00000E+00
    0.45638E+07        -0.20584E+08         0.00000E+00
    0.00000E+00         0.00000E+00        -0.52063E+07
 
   -0.52392E+07         0.59934E+07         0.00000E+00
    0.59934E+07        -0.20664E+08         0.00000E+00
    0.00000E+00         0.00000E+00        -0.51806E+07
 
   -0.51691E+07         0.75184E+07         0.00000E+00
    0.75184E+07        -0.20692E+08         0.00000E+00
    0.00000E+00         0.00000E+00        -0.51722E+07
 
   -0.14158E+08        -0.40003E+06         0.00000E+00
   -0.40003E+06        -0.20960E+08         0.00000E+00
    0.00000E+00         0.00000E+00        -0.70236E+07
 
   -0.13783E+08        -0.10594E+07         0.00000E+00
   -0.10594E+07        -0.21062E+08         0.00000E+00
    0.00000E+00         0.00000E+00        -0.69690E+07
 
   -0.13214E+08        -0.15158E+07         0.00000E+00
   -0.15158E+07        -0.21229E+08         0.00000E+00
    0.00000E+00         0.00000E+00        -0.68887E+07
 
   -0.12522E+08        -0.17618E+07         0.00000E+00
   -0.17618E+07        -0.21431E+08         0.00000E+00
    0.00000E+00         0.00000E+00        -0.67907E+07
 
   -0.11762E+08        -0.17987E+07         0.00000E+00
   -0.17987E+07        -0.21646E+08         0.00000E+00
    0.00000E+00         0.00000E+00        -0.66816E+07
 
   -0.10973E+08        -0.16332E+07         0.00000E+00
   -0.16332E+07        -0.21861E+08         0.00000E+00
    0.00000E+00         0.00000E+00        -0.65668E+07
 
   -0.10184E+08        -0.12746E+07         0.00000E+00
   -0.12746E+07        -0.22070E+08         0.00000E+00
    0.00000E+00         0.00000E+00        -0.64509E+07
 
   -0.94157E+07        -0.73275E+06         0.00000E+00
   -0.73275E+06        -0.22272E+08         0.00000E+00
    0.00000E+00         0.00000E+00        -0.63375E+07
 
   -0.86817E+07        -0.16744E+05         0.00000E+00
   -0.16744E+05        -0.22467E+08         0.00000E+00
    0.00000E+00         0.00000E+00        -0.62297E+07
 
   -0.79946E+07         0.86578E+06         0.00000E+00
    0.86578E+06        -0.22657E+08         0.00000E+00
    0.00000E+00         0.00000E+00        -0.61303E+07
 
   -0.73676E+07         0.19081E+07         0.00000E+00
    0.19081E+07        -0.22840E+08         0.00000E+00
    0.00000E+00         0.00000E+00        -0.60416E+07
 
   -0.68172E+07         0.31036E+07         0.00000E+00
    0.31036E+07        -0.23013E+08         0.00000E+00
    0.00000E+00         0.00000E+00        -0.59661E+07
 
   -0.63655E+07         0.44440E+07         0.00000E+00
    0.44440E+07        -0.23166E+08         0.00000E+00
    0.00000E+00         0.00000E+00        -0.59063E+07
 
   -0.60406E+07         0.59174E+07         0.00000E+00
    0.59174E+07        -0.23284E+08         0.00000E+00
    0.00000E+00         0.00000E+00        -0.58650E+07
 
   -0.58772E+07         0.75068E+07         0.00000E+00
    0.75068E+07        -0.23347E+08         0.00000E+00
    0.00000E+00         0.00000E+00        -0.58449E+07
 
   -0.17365E+08        -0.46157E+06         0.00000E+00
   -0.46157E+06        -0.23359E+08         0.00000E+00
    0.00000E+00         0.00000E+00        -0.81448E+07
 
   -0.16773E+08        -0.12081E+07         0.00000E+00
   -0.12081E+07        -0.23469E+08         0.00000E+00
    0.00000E+00         0.00000E+00        -0.80484E+07
 
   -0.15980E+08        -0.17127E+07         0.00000E+00
   -0.17127E+07        -0.23648E+08         0.00000E+00
    0.00000E+00         0.00000E+00        -0.79255E+07
 
   -0.15066E+08        -0.19792E+07         0.00000E+00
   -0.19792E+07        -0.23859E+08         0.00000E+00
    0.00000E+00         0.00000E+00        -0.77850E+07
 
   -0.14093E+08        -0.20192E+07         0.00000E+00
   -0.20192E+07        -0.24080E+08         0.00000E+00
    0.00000E+00         0.00000E+00        -0.76345E+07
 
   -0.13103E+08        -0.18482E+07         0.00000E+00
   -0.18482E+07        -0.24298E+08         0.00000E+00
    0.00000E+00         0.00000E+00        -0.74802E+07
 
   -0.12126E+08        -0.14819E+07         0.00000E+00
   -0.14819E+07        -0.24508E+08         0.00000E+00
    0.00000E+00         0.00000E+00        -0.73268E+07
 
   -0.11181E+08        -0.93404E+06         0.00000E+00
   -0.93404E+06        -0.24711E+08         0.00000E+00
    0.00000E+00         0.00000E+00        -0.71784E+07
 
   -0.10278E+08        -0.21468E+06         0.00000E+00
   -0.21468E+06        -0.24912E+08         0.00000E+00
    0.00000E+00         0.00000E+00        -0.70380E+07
 
   -0.94275E+07         0.66965E+06         0.00000E+00
    0.66965E+06        -0.25115E+08         0.00000E+00
    0.00000E+00         0.00000E+00        -0.69084E+07
 
   -0.86419E+07         0.17155E+07         0.00000E+00
    0.17155E+07        -0.25319E+08         0.00000E+00
    0.00000E+00         0.00000E+00        -0.67922E+07
 
   -0.79375E+07         0.29212E+07         0.00000E+00
    0.29212E+07        -0.25522E+08         0.00000E+00
    0.00000E+00         0.00000E+00        -0.66918E+07
 
   -0.73383E+07         0.42846E+07         0.00000E+00
    0.42846E+07        -0.25712E+08         0.00000E+00
    0.00000E+00         0.00000E+00        -0.66101E+07
 
   -0.68770E+07         0.58002E+07         0.00000E+00
    0.58002E+07        -0.25874E+08         0.00000E+00
    0.00000E+00         0.00000E+00        -0.65503E+07
 
   -0.65953E+07         0.74570E+07         0.00000E+00
    0.74570E+07        -0.25983E+08         0.00000E+00
    0.00000E+00         0.00000E+00        -0.65156E+07
 
   -0.20778E+08        -0.52725E+06         0.00000E+00
   -0.52725E+06        -0.25850E+08         0.00000E+00
    0.00000E+00         0.00000E+00        -0.93256E+07
 
   -0.19921E+08        -0.13641E+07         0.00000E+00
   -0.13641E+07        -0.25963E+08         0.00000E+00
    0.00000E+00         0.00000E+00        -0.91769E+07
 
   -0.18868E+08        -0.19146E+07         0.00000E+00
   -0.19146E+07        -0.26143E+08         0.00000E+00
    0.00000E+00         0.00000E+00        -0.90022E+07
 
   -0.17709E+08        -0.21965E+07         0.00000E+00
   -0.21965E+07        -0.26350E+08         0.00000E+00
    0.00000E+00         0.00000E+00        -0.88118E+07
 
   -0.16511E+08        -0.22344E+07         0.00000E+00
   -0.22344E+07        -0.26558E+08         0.00000E+00
    0.00000E+00         0.00000E+00        -0.86139E+07
 
   -0.15318E+08        -0.20546E+07         0.00000E+00
   -0.20546E+07        -0.26758E+08         0.00000E+00
    0.00000E+00         0.00000E+00        -0.84152E+07
 
   -0.14154E+08        -0.16804E+07         0.00000E+00
   -0.16804E+07        -0.26949E+08         0.00000E+00
    0.00000E+00         0.00000E+00        -0.82206E+07
 
   -0.13035E+08        -0.11297E+07         0.00000E+00
   -0.11297E+07        -0.27135E+08         0.00000E+00
    0.00000E+00         0.00000E+00        -0.80340E+07
 
   -0.11967E+08        -0.41376E+06         0.00000E+00
   -0.41376E+06        -0.27325E+08         0.00000E+00
    0.00000E+00         0.00000E+00        -0.78584E+07
 
   -0.10955E+08         0.46279E+06         0.00000E+00
    0.46279E+06        -0.27526E+08         0.00000E+00
    0.00000E+00         0.00000E+00        -0.76963E+07
 
   -0.10008E+08         0.15008E+07         0.00000E+00
    0.15008E+07        -0.27742E+08         0.00000E+00
    0.00000E+00         0.00000E+00        -0.75499E+07
 
   -0.91393E+07         0.27051E+07         0.00000E+00
    0.27051E+07        -0.27971E+08         0.00000E+00
    0.00000E+00         0.00000E+00        -0.74220E+07
 
   -0.83753E+07         0.40814E+07         0.00000E+00
    0.40814E+07        -0.28201E+08         0.00000E+00
    0.00000E+00         0.00000E+00        -0.73153E+07
 
   -0.77531E+07         0.56329E+07         0.00000E+00
    0.56329E+07        -0.28414E+08         0.00000E+00
    0.00000E+00         0.00000E+00        -0.72335E+07
 
   -0.73223E+07         0.73561E+07         0.00000E+00
    0.73561E+07        -0.28580E+08         0.00000E+00
    0.00000E+00         0.00000E+00        -0.71804E+07
 
   -0.24402E+08        -0.59481E+06         0.00000E+00
   -0.59481E+06        -0.28431E+08         0.00000E+00
    0.00000E+00         0.00000E+00        -0.10567E+08
 
   -0.23225E+08        -0.15197E+07         0.00000E+00
   -0.15197E+07        -0.28543E+08         0.00000E+00
    0.00000E+00         0.00000E+00        -0.10354E+08
 
   -0.21873E+08        -0.21082E+07         0.00000E+00
   -0.21082E+07        -0.28713E+08         0.00000E+00
    0.00000E+00         0.00000E+00        -0.10117E+08
 
   -0.20445E+08        -0.23955E+07         0.00000E+00
   -0.23955E+07        -0.28897E+08         0.00000E+00
    0.00000E+00         0.00000E+00        -0.98684E+07
 
   -0.19012E+08        -0.24227E+07         0.00000E+00
   -0.24227E+07        -0.29071E+08         0.00000E+00
    0.00000E+00         0.00000E+00        -0.96166E+07
 
   -0.17614E+08        -0.22295E+07         0.00000E+00
   -0.22295E+07        -0.29229E+08         0.00000E+00
    0.00000E+00         0.00000E+00        -0.93685E+07
 
   -0.16270E+08        -0.18478E+07         0.00000E+00
   -0.18478E+07        -0.29375E+08         0.00000E+00
    0.00000E+00         0.00000E+00        -0.91290E+07
 
   -0.14986E+08        -0.12998E+07         0.00000E+00
   -0.12998E+07        -0.29521E+08         0.00000E+00
    0.00000E+00         0.00000E+00        -0.89015E+07
 
   -0.13761E+08        -0.59734E+06         0.00000E+00
   -0.59734E+06        -0.29681E+08         0.00000E+00
    0.00000E+00         0.00000E+00        -0.86883E+07
 
   -0.12591E+08         0.25754E+06         0.00000E+00
    0.25754E+06        -0.29865E+08         0.00000E+00
    0.00000E+00         0.00000E+00        -0.84913E+07
 
   -0.11480E+08         0.12711E+07         0.00000E+00
    0.12711E+07        -0.30083E+08         0.00000E+00
    0.00000E+00         0.00000E+00        -0.83124E+07
 
   -0.10437E+08         0.24563E+07         0.00000E+00
    0.24563E+07        -0.30333E+08         0.00000E+00
    0.00000E+00         0.00000E+00        -0.81540E+07
 
   -0.94882E+07         0.38290E+07         0.00000E+00
    0.38290E+07        -0.30606E+08         0.00000E+00
    0.00000E+00         0.00000E+00        -0.80189E+07
 
   -0.86753E+07         0.54040E+07         0.00000E+00
    0.54040E+07        -0.30880E+08         0.00000E+00
    0.00000E+00         0.00000E+00        -0.79110E+07
 
   -0.80574E+07         0.71884E+07         0.00000E+00
    0.71884E+07        -0.31118E+08         0.00000E+00
    0.00000E+00         0.00000E+00        -0.78351E+07
 
   -0.28232E+08        -0.66180E+06         0.00000E+00
   -0.66180E+06        -0.31101E+08         0.00000E+00
    0.00000E+00         0.00000E+00        -0.11866E+08
 
   -0.26673E+08        -0.16658E+07         0.00000E+00
   -0.16658E+07        -0.31205E+08         0.00000E+00
    0.00000E+00         0.00000E+00        -0.11576E+08
 
   -0.24978E+08        -0.22768E+07         0.00000E+00
   -0.22768E+07        -0.31350E+08         0.00000E+00
    0.00000E+00         0.00000E+00        -0.11266E+08
 
   -0.23259E+08        -0.25532E+07         0.00000E+00
   -0.25532E+07        -0.31488E+08         0.00000E+00
    0.00000E+00         0.00000E+00        -0.10949E+08
 
   -0.21584E+08        -0.25580E+07         0.00000E+00
   -0.25580E+07        -0.31601E+08         0.00000E+00
    0.00000E+00         0.00000E+00        -0.10637E+08
 
   -0.19987E+08        -0.23462E+07         0.00000E+00
   -0.23462E+07        -0.31688E+08         0.00000E+00
    0.00000E+00         0.00000E+00        -0.10335E+08
 
   -0.18474E+08        -0.19590E+07         0.00000E+00
   -0.19590E+07        -0.31763E+08         0.00000E+00
    0.00000E+00         0.00000E+00        -0.10047E+08
 
   -0.17040E+08        -0.14221E+07         0.00000E+00
   -0.14221E+07        -0.31844E+08         0.00000E+00
    0.00000E+00         0.00000E+00        -0.97768E+07
 
   -0.15670E+08        -0.74693E+06         0.00000E+00
   -0.74693E+06        -0.31952E+08         0.00000E+00
    0.00000E+00         0.00000E+00        -0.95243E+07
 
   -0.14350E+08         0.67699E+05         0.00000E+00
    0.67699E+05        -0.32103E+08         0.00000E+00
    0.00000E+00         0.00000E+00        -0.92907E+07
 
   -0.13075E+08         0.10344E+07         0.00000E+00
    0.10344E+07        -0.32310E+08         0.00000E+00
    0.00000E+00         0.00000E+00        -0.90771E+07
 
   -0.11848E+08         0.21756E+07         0.00000E+00
    0.21756E+07        -0.32577E+08         0.00000E+00
    0.00000E+00         0.00000E+00        -0.88852E+07
 
   -0.10693E+08         0.35204E+07         0.00000E+00
    0.35204E+07        -0.32897E+08         0.00000E+00
    0.00000E+00         0.00000E+00        -0.87178E+07
 
   -0.96529E+07         0.50990E+07         0.00000E+00
    0.50990E+07        -0.33243E+08         0.00000E+00
    0.00000E+00         0.00000E+00        -0.85791E+07
 
   -0.88007E+07         0.69338E+07         0.00000E+00
    0.69338E+07        -0.33573E+08         0.00000E+00
    0.00000E+00         0.00000E+00        -0.84748E+07
 
   -0.32255E+08        -0.72557E+06         0.00000E+00
   -0.72557E+06        -0.33853E+08         0.00000E+00
    0.00000E+00         0.00000E+00        -0.13222E+08
 
   -0.30241E+08        -0.17909E+07         0.00000E+00
   -0.17909E+07        -0.33940E+08         0.00000E+00
    0.00000E+00         0.00000E+00        -0.12836E+08
 
   -0.28157E+08        -0.23985E+07         0.00000E+00
   -0.23985E+07        -0.34041E+08         0.00000E+00
    0.00000E+00         0.00000E+00        -0.12440E+08
 
   -0.26127E+08        -0.26406E+07         0.00000E+00
   -0.26406E+07        -0.34105E+08         0.00000E+00
    0.00000E+00         0.00000E+00        -0.12046E+08
 
   -0.24213E+08        -0.26084E+07         0.00000E+00
   -0.26084E+07        -0.34121E+08         0.00000E+00
    0.00000E+00         0.00000E+00        -0.11667E+08
 
   -0.22431E+08        -0.23742E+07         0.00000E+00
   -0.23742E+07        -0.34104E+08         0.00000E+00
    0.00000E+00         0.00000E+00        -0.11307E+08
 
   -0.20769E+08        -0.19868E+07         0.00000E+00
   -0.19868E+07        -0.34078E+08         0.00000E+00
    0.00000E+00         0.00000E+00        -0.10969E+08
 
   -0.19204E+08        -0.14732E+07         0.00000E+00
   -0.14732E+07        -0.34069E+08         0.00000E+00
    0.00000E+00         0.00000E+00        -0.10655E+08
 
   -0.17706E+08        -0.84332E+06         0.00000E+00
   -0.84332E+06        -0.34105E+08         0.00000E+00
    0.00000E+00         0.00000E+00        -0.10362E+08
 
   -0.16250E+08        -0.91969E+05         0.00000E+00
   -0.91969E+05        -0.34206E+08         0.00000E+00
    0.00000E+00         0.00000E+00        -0.10091E+08
 
   -0.14816E+08         0.79970E+06         0.00000E+00
    0.79970E+06        -0.34390E+08         0.00000E+00
    0.00000E+00         0.00000E+00        -0.98413E+07
 
   -0.13398E+08         0.18644E+07         0.00000E+00
    0.18644E+07        -0.34668E+08         0.00000E+00
    0.00000E+00         0.00000E+00        -0.96132E+07
 
   -0.12010E+08         0.31472E+07         0.00000E+00
    0.31472E+07        -0.35037E+08         0.00000E+00
    0.00000E+00         0.00000E+00        -0.94094E+07
 
   -0.10701E+08         0.46996E+07         0.00000E+00
    0.46996E+07        -0.35471E+08         0.00000E+00
    0.00000E+00         0.00000E+00        -0.92342E+07
 
   -0.95539E+07         0.65665E+07         0.00000E+00
    0.65665E+07        -0.35918E+08         0.00000E+00
    0.00000E+00         0.00000E+00        -0.90945E+07
 
   -0.36449E+08        -0.78293E+06         0.00000E+00
   -0.78293E+06        -0.36678E+08         0.00000E+00
    0.00000E+00         0.00000E+00        -0.14625E+08
 
   -0.33891E+08        -0.18781E+07         0.00000E+00
   -0.18781E+07        -0.36738E+08         0.00000E+00
    0.00000E+00         0.00000E+00        -0.14126E+08
 
   -0.31370E+08        -0.24423E+07         0.00000E+00
   -0.24423E+07        -0.36764E+08         0.00000E+00
    0.00000E+00         0.00000E+00        -0.13627E+08
 
   -0.29020E+08        -0.26195E+07         0.00000E+00
   -0.26195E+07        -0.36712E+08         0.00000E+00
    0.00000E+00         0.00000E+00        -0.13146E+08
 
   -0.26882E+08        -0.25366E+07         0.00000E+00
   -0.25366E+07        -0.36590E+08         0.00000E+00
    0.00000E+00         0.00000E+00        -0.12695E+08
 
   -0.24941E+08        -0.22813E+07         0.00000E+00
   -0.22813E+07        -0.36433E+08         0.00000E+00
    0.00000E+00         0.00000E+00        -0.12275E+08
 
   -0.23158E+08        -0.19048E+07         0.00000E+00
   -0.19048E+07        -0.36278E+08         0.00000E+00
    0.00000E+00         0.00000E+00        -0.11887E+08
 
   -0.21487E+08        -0.14319E+07         0.00000E+00
   -0.14319E+07        -0.36158E+08         0.00000E+00
    0.00000E+00         0.00000E+00        -0.11529E+08
 
   -0.19884E+08        -0.86868E+06         0.00000E+00
   -0.86868E+06        -0.36103E+08         0.00000E+00
    0.00000E+00         0.00000E+00        -0.11197E+08
 
   -0.18309E+08        -0.20670E+06         0.00000E+00
   -0.20670E+06        -0.36138E+08         0.00000E+00
    0.00000E+00         0.00000E+00        -0.10890E+08
 
   -0.16727E+08         0.57759E+06         0.00000E+00
    0.57759E+06        -0.36288E+08         0.00000E+00
    0.00000E+00         0.00000E+00        -0.10603E+08
 
   -0.15115E+08         0.15258E+07         0.00000E+00
    0.15258E+07        -0.36568E+08         0.00000E+00
    0.00000E+00         0.00000E+00        -0.10337E+08
 
   -0.13473E+08         0.27005E+07         0.00000E+00
    0.27005E+07        -0.36987E+08         0.00000E+00
    0.00000E+00         0.00000E+00        -0.10092E+08
 
   -0.11842E+08         0.41825E+07         0.00000E+00
    0.41825E+07        -0.37526E+08         0.00000E+00
    0.00000E+00         0.00000E+00        -0.98735E+07
 
   -0.10322E+08         0.60523E+07         0.00000E+00
    0.60523E+07        -0.38124E+08         0.00000E+00
    0.00000E+00         0.00000E+00        -0.96893E+07
 
   -0.40776E+08        -0.82924E+06         0.00000E+00
   -0.82924E+06        -0.39566E+08         0.00000E+00
    0.00000E+00         0.00000E+00        -0.16068E+08
 
   -0.37562E+08        -0.18996E+07         0.00000E+00
   -0.18996E+07        -0.39575E+08         0.00000E+00
    0.00000E+00         0.00000E+00        -0.15428E+08
 
   -0.34564E+08        -0.23606E+07         0.00000E+00
   -0.23606E+07        -0.39477E+08         0.00000E+00
    0.00000E+00         0.00000E+00        -0.14808E+08
 
   -0.31908E+08        -0.24396E+07         0.00000E+00
   -0.24396E+07        -0.39250E+08         0.00000E+00
    0.00000E+00         0.00000E+00        -0.14232E+08
 
   -0.29582E+08        -0.23016E+07         0.00000E+00
   -0.23016E+07        -0.38942E+08         0.00000E+00
    0.00000E+00         0.00000E+00        -0.13705E+08
 
   -0.27520E+08        -0.20381E+07         0.00000E+00
   -0.20381E+07        -0.38612E+08         0.00000E+00
    0.00000E+00         0.00000E+00        -0.13227E+08
 
   -0.25648E+08        -0.16925E+07         0.00000E+00
   -0.16925E+07        -0.38308E+08         0.00000E+00
    0.00000E+00         0.00000E+00        -0.12791E+08
 
   -0.23901E+08        -0.12825E+07         0.00000E+00
   -0.12825E+07        -0.38064E+08         0.00000E+00
    0.00000E+00         0.00000E+00        -0.12393E+08
 
   -0.22219E+08        -0.80978E+06         0.00000E+00
   -0.80978E+06        -0.37909E+08         0.00000E+00
    0.00000E+00         0.00000E+00        -0.12025E+08
 
   -0.20547E+08        -0.26367E+06         0.00000E+00
   -0.26367E+06        -0.37869E+08         0.00000E+00
    0.00000E+00         0.00000E+00        -0.11683E+08
 
   -0.18836E+08         0.38046E+06         0.00000E+00
    0.38046E+06        -0.37971E+08         0.00000E+00
    0.00000E+00         0.00000E+00        -0.11361E+08
 
   -0.17039E+08         0.11673E+07         0.00000E+00
    0.11673E+07        -0.38242E+08         0.00000E+00
    0.00000E+00         0.00000E+00        -0.11056E+08
 
   -0.15126E+08         0.21742E+07         0.00000E+00
    0.21742E+07        -0.38706E+08         0.00000E+00
    0.00000E+00         0.00000E+00        -0.10766E+08
 
   -0.13115E+08         0.35195E+07         0.00000E+00
    0.35195E+07        -0.39365E+08         0.00000E+00
    0.00000E+00         0.00000E+00        -0.10496E+08
 
   -0.11118E+08         0.53441E+07         0.00000E+00
    0.53441E+07        -0.40157E+08         0.00000E+00
    0.00000E+00         0.00000E+00        -0.10255E+08
 
   -0.45173E+08        -0.85455E+06         0.00000E+00
   -0.85455E+06        -0.42500E+08         0.00000E+00
    0.00000E+00         0.00000E+00        -0.17535E+08
 
   -0.41161E+08        -0.17990E+07         0.00000E+00
   -0.17990E+07        -0.42409E+08         0.00000E+00
    0.00000E+00         0.00000E+00        -0.16714E+08
 
   -0.37678E+08        -0.20766E+07         0.00000E+00
   -0.20766E+07        -0.42093E+08         0.00000E+00
    0.00000E+00         0.00000E+00        -0.15954E+08
 
   -0.34772E+08        -0.20411E+07         0.00000E+00
   -0.20411E+07        -0.41612E+08         0.00000E+00
    0.00000E+00         0.00000E+00        -0.15277E+08
 
   -0.32317E+08        -0.18689E+07         0.00000E+00
   -0.18689E+07        -0.41078E+08         0.00000E+00
    0.00000E+00         0.00000E+00        -0.14679E+08
 
   -0.30179E+08        -0.16271E+07         0.00000E+00
   -0.16271E+07        -0.40562E+08         0.00000E+00
    0.00000E+00         0.00000E+00        -0.14148E+08
 
   -0.28253E+08        -0.13418E+07         0.00000E+00
   -0.13418E+07        -0.40106E+08         0.00000E+00
    0.00000E+00         0.00000E+00        -0.13672E+08
 
   -0.26457E+08        -0.10209E+07         0.00000E+00
   -0.10209E+07        -0.39740E+08         0.00000E+00
    0.00000E+00         0.00000E+00        -0.13239E+08
 
   -0.24720E+08        -0.66231E+06         0.00000E+00
   -0.66231E+06        -0.39488E+08         0.00000E+00
    0.00000E+00         0.00000E+00        -0.12842E+08
 
   -0.22978E+08        -0.25537E+06         0.00000E+00
   -0.25537E+06        -0.39372E+08         0.00000E+00
    0.00000E+00         0.00000E+00        -0.12470E+08
 
   -0.21165E+08         0.22094E+06         0.00000E+00
    0.22094E+06        -0.39420E+08         0.00000E+00
    0.00000E+00         0.00000E+00        -0.12117E+08
 
   -0.19210E+08         0.80554E+06         0.00000E+00
    0.80554E+06        -0.39665E+08         0.00000E+00
    0.00000E+00         0.00000E+00        -0.11775E+08
 
   -0.17033E+08         0.15732E+07         0.00000E+00
    0.15732E+07        -0.40153E+08         0.00000E+00
    0.00000E+00         0.00000E+00        -0.11437E+08
 
   -0.14589E+08         0.26807E+07         0.00000E+00
    0.26807E+07        -0.40938E+08         0.00000E+00
    0.00000E+00         0.00000E+00        -0.11105E+08
 
   -0.11968E+08         0.43739E+07         0.00000E+00
    0.43739E+07        -0.41980E+08         0.00000E+00
    0.00000E+00         0.00000E+00        -0.10789E+08
 
   -0.49520E+08        -0.82446E+06         0.00000E+00
   -0.82446E+06        -0.45445E+08         0.00000E+00
    0.00000E+00         0.00000E+00        -0.18993E+08
 
   -0.44549E+08        -0.14423E+07         0.00000E+00
   -0.14423E+07        -0.45103E+08         0.00000E+00
    0.00000E+00         0.00000E+00        -0.17930E+08
 
   -0.40674E+08        -0.14834E+07         0.00000E+00
   -0.14834E+07        -0.44412E+08         0.00000E+00
    0.00000E+00         0.00000E+00        -0.17017E+08
 
   -0.37631E+08        -0.13822E+07         0.00000E+00
   -0.13822E+07        -0.43630E+08         0.00000E+00
    0.00000E+00         0.00000E+00        -0.16252E+08
 
   -0.35112E+08        -0.12309E+07         0.00000E+00
   -0.12309E+07        -0.42872E+08         0.00000E+00
    0.00000E+00         0.00000E+00        -0.15597E+08
 
   -0.32938E+08        -0.10559E+07         0.00000E+00
   -0.10559E+07        -0.42189E+08         0.00000E+00
    0.00000E+00         0.00000E+00        -0.15025E+08
 
   -0.30986E+08        -0.86517E+06         0.00000E+00
   -0.86517E+06        -0.41606E+08         0.00000E+00
    0.00000E+00         0.00000E+00        -0.14518E+08
 
   -0.29164E+08        -0.65942E+06         0.00000E+00
   -0.65942E+06        -0.41141E+08         0.00000E+00
    0.00000E+00         0.00000E+00        -0.14061E+08
 
   -0.27396E+08        -0.43507E+06         0.00000E+00
   -0.43507E+06        -0.40811E+08         0.00000E+00
    0.00000E+00         0.00000E+00        -0.13641E+08
 
   -0.25609E+08        -0.18442E+06         0.00000E+00
   -0.18442E+06        -0.40632E+08         0.00000E+00
    0.00000E+00         0.00000E+00        -0.13248E+08
 
   -0.23728E+08         0.10634E+06         0.00000E+00
    0.10634E+06        -0.40629E+08         0.00000E+00
    0.00000E+00         0.00000E+00        -0.12872E+08
 
   -0.21660E+08         0.46250E+06         0.00000E+00
    0.46250E+06        -0.40838E+08         0.00000E+00
    0.00000E+00         0.00000E+00        -0.12500E+08
 
   -0.19280E+08         0.93525E+06         0.00000E+00
    0.93525E+06        -0.41318E+08         0.00000E+00
    0.00000E+00         0.00000E+00        -0.12120E+08
 
   -0.16391E+08         0.16521E+07         0.00000E+00
    0.16521E+07        -0.42171E+08         0.00000E+00
    0.00000E+00         0.00000E+00        -0.11712E+08
 
   -0.12941E+08         0.30288E+07         0.00000E+00
    0.30288E+07        -0.43542E+08         0.00000E+00
    0.00000E+00         0.00000E+00        -0.11296E+08
 
   -0.53509E+08        -0.51400E+06         0.00000E+00
   -0.51400E+06        -0.48118E+08         0.00000E+00
    0.00000E+00         0.00000E+00        -0.20325E+08
 
   -0.47623E+08        -0.59401E+06         0.00000E+00
   -0.59401E+06        -0.47169E+08         0.00000E+00
    0.00000E+00         0.00000E+00        -0.18958E+08
 
   -0.43629E+08        -0.54766E+06         0.00000E+00
   -0.54766E+06        -0.46100E+08         0.00000E+00
    0.00000E+00         0.00000E+00        -0.17946E+08
 
   -0.40543E+08        -0.49244E+06         0.00000E+00
   -0.49244E+06        -0.45094E+08         0.00000E+00
    0.00000E+00         0.00000E+00        -0.17127E+08
 
   -0.38007E+08        -0.43107E+06         0.00000E+00
   -0.43107E+06        -0.44191E+08         0.00000E+00
    0.00000E+00         0.00000E+00        -0.16439E+08
 
   -0.35822E+08        -0.36657E+06         0.00000E+00
   -0.36657E+06        -0.43407E+08         0.00000E+00
    0.00000E+00         0.00000E+00        -0.15846E+08
 
   -0.33862E+08        -0.29919E+06         0.00000E+00
   -0.29919E+06        -0.42750E+08         0.00000E+00
    0.00000E+00         0.00000E+00        -0.15322E+08
 
   -0.32029E+08        -0.22816E+06         0.00000E+00
   -0.22816E+06        -0.42230E+08         0.00000E+00
    0.00000E+00         0.00000E+00        -0.14852E+08
 
   -0.30247E+08        -0.15177E+06         0.00000E+00
   -0.15177E+06        -0.41855E+08         0.00000E+00
    0.00000E+00         0.00000E+00        -0.14420E+08
 
   -0.28439E+08        -0.67187E+05         0.00000E+00
   -0.67187E+05        -0.41641E+08         0.00000E+00
    0.00000E+00         0.00000E+00        -0.14016E+08
 
   -0.26524E+08         0.30313E+05         0.00000E+00
    0.30313E+05        -0.41607E+08         0.00000E+00
    0.00000E+00         0.00000E+00        -0.13626E+08
 
   -0.24399E+08         0.14917E+06         0.00000E+00
    0.14917E+06        -0.41789E+08         0.00000E+00
    0.00000E+00         0.00000E+00        -0.13238E+08
 
   -0.21908E+08         0.30737E+06         0.00000E+00
    0.30737E+06        -0.42246E+08         0.00000E+00
    0.00000E+00         0.00000E+00        -0.12831E+08
 
   -0.18776E+08         0.54527E+06         0.00000E+00
    0.54527E+06        -0.43099E+08         0.00000E+00
    0.00000E+00         0.00000E+00        -0.12375E+08
 
   -0.14217E+08         0.11222E+07         0.00000E+00
    0.11222E+07        -0.44679E+08         0.00000E+00
    0.00000E+00         0.00000E+00        -0.11779E+08
 
TENSORS stresstot double 
   -0.39200E+08        -0.21220E+06         0.00000E+00
   -0.21220E+06        -0.59949E+08         0.00000E+00
    0.00000E+00         0.00000E+00        -0.67732E+08
 
   -0.42808E+08        -0.62360E+06         0.00000E+00
   -0.62360E+06        -0.60862E+08         0.00000E+00
    0.00000E+00         0.00000E+00        -0.70844E+08
 
   -0.47195E+08        -0.61473E+06         0.00000E+00
   -0.61473E+06        -0.61979E+08         0.00000E+00
    0.00000E+00         0.00000E+00        -0.71945E+08
 
   -0.50226E+08        -0.50773E+06         0.00000E+00
   -0.50773E+06        -0.63029E+08         0.00000E+00
    0.00000E+00         0.00000E+00        -0.72761E+08
 
   -0.52677E+08        -0.42438E+06         0.00000E+00
   -0.42438E+06        -0.63929E+08         0.00000E+00
    0.00000E+00         0.00000E+00        -0.73431E+08
 
   -0.54783E+08        -0.34960E+06         0.00000E+00
   -0.34960E+06        -0.64685E+08         0.00000E+00
    0.00000E+00         0.00000E+00        -0.74004E+08
 
   -0.56677E+08        -0.27858E+06         0.00000E+00
   -0.27858E+06        -0.65302E+08         0.00000E+00
    0.00000E+00         0.00000E+00        -0.74506E+08
 
   -0.58451E+08        -0.20784E+06         0.00000E+00
   -0.20784E+06        -0.65780E+08         0.00000E+00
    0.00000E+00         0.00000E+00        -0.74956E+08
 
   -0.60176E+08        -0.13444E+06         0.00000E+00
   -0.13444E+06        -0.66117E+08         0.00000E+00
    0.00000E+00         0.00000E+00        -0.75369E+08
 
   -0.61923E+08        -0.54927E+05         0.00000E+00
   -0.54927E+05        -0.66301E+08         0.00000E+00
    0.00000E+00         0.00000E+00        -0.75755E+08
 
   -0.63766E+08         0.35663E+05         0.00000E+00
    0.35663E+05        -0.66317E+08         0.00000E+00
    0.00000E+00         0.00000E+00        -0.76127E+08
 
   -0.65802E+08         0.14582E+06         0.00000E+00
    0.14582E+06        -0.66133E+08         0.00000E+00
    0.00000E+00         0.00000E+00        -0.76497E+08
 
   -0.68180E+08         0.29348E+06         0.00000E+00
    0.29348E+06        -0.65693E+08         0.00000E+00
    0.00000E+00         0.00000E+00        -0.76884E+08
 
   -0.71170E+08         0.51899E+06         0.00000E+00
    0.51899E+06        -0.64880E+08         0.00000E+00
    0.00000E+00         0.00000E+00        -0.77320E+08
 
   -0.75546E+08         0.10796E+07         0.00000E+00
    0.10796E+07        -0.63368E+08         0.00000E+00
    0.00000E+00         0.00000E+00        -0.77893E+08
 
   -0.39687E+08        -0.42257E+06         0.00000E+00
   -0.42257E+06        -0.60357E+08         0.00000E+00
    0.00000E+00         0.00000E+00        -0.68344E+08
 
   -0.43451E+08        -0.13092E+07         0.00000E+00
   -0.13092E+07        -0.60417E+08         0.00000E+00
    0.00000E+00         0.00000E+00        -0.69114E+08
 
   -0.47081E+08        -0.15141E+07         0.00000E+00
   -0.15141E+07        -0.60924E+08         0.00000E+00
    0.00000E+00         0.00000E+00        -0.69942E+08
 
   -0.50090E+08        -0.13764E+07         0.00000E+00
   -0.13764E+07        -0.61613E+08         0.00000E+00
    0.00000E+00         0.00000E+00        -0.70681E+08
 
   -0.52540E+08        -0.11898E+07         0.00000E+00
   -0.11898E+07        -0.62313E+08         0.00000E+00
    0.00000E+00         0.00000E+00        -0.71311E+08
 
   -0.54648E+08        -0.99599E+06         0.00000E+00
   -0.99599E+06        -0.62944E+08         0.00000E+00
    0.00000E+00         0.00000E+00        -0.71858E+08
 
   -0.56542E+08        -0.79918E+06         0.00000E+00
   -0.79918E+06        -0.63476E+08         0.00000E+00
    0.00000E+00         0.00000E+00        -0.72343E+08
 
   -0.58311E+08        -0.59650E+06         0.00000E+00
   -0.59650E+06        -0.63893E+08         0.00000E+00
    0.00000E+00         0.00000E+00        -0.72781E+08
 
   -0.60026E+08        -0.38211E+06         0.00000E+00
   -0.38211E+06        -0.64184E+08         0.00000E+00
    0.00000E+00         0.00000E+00        -0.73182E+08
 
   -0.61756E+08        -0.14706E+06         0.00000E+00
   -0.14706E+06        -0.64331E+08         0.00000E+00
    0.00000E+00         0.00000E+00        -0.73557E+08
 
   -0.63568E+08         0.12286E+06         0.00000E+00
    0.12286E+06        -0.64315E+08         0.00000E+00
    0.00000E+00         0.00000E+00        -0.73916E+08
 
   -0.65551E+08         0.45295E+06         0.00000E+00
    0.45295E+06        -0.64103E+08         0.00000E+00
    0.00000E+00         0.00000E+00        -0.74270E+08
 
   -0.67823E+08         0.89411E+06         0.00000E+00
    0.89411E+06        -0.63640E+08         0.00000E+00
    0.00000E+00         0.00000E+00        -0.74632E+08
 
   -0.70574E+08         0.15733E+07         0.00000E+00
    0.15733E+07        -0.62826E+08         0.00000E+00
    0.00000E+00         0.00000E+00        -0.75019E+08
 
   -0.73853E+08         0.29044E+07         0.00000E+00
    0.29044E+07        -0.61521E+08         0.00000E+00
    0.00000E+00         0.00000E+00        -0.75414E+08
 
   -0.40714E+08        -0.66031E+06         0.00000E+00
   -0.66031E+06        -0.60024E+08         0.00000E+00
    0.00000E+00         0.00000E+00        -0.66747E+08
 
   -0.44071E+08        -0.15224E+07         0.00000E+00
   -0.15224E+07        -0.60223E+08         0.00000E+00
    0.00000E+00         0.00000E+00        -0.67457E+08
 
   -0.47163E+08        -0.19267E+07         0.00000E+00
   -0.19267E+07        -0.60426E+08         0.00000E+00
    0.00000E+00         0.00000E+00        -0.68116E+08
 
   -0.49942E+08        -0.19338E+07         0.00000E+00
   -0.19338E+07        -0.60766E+08         0.00000E+00
    0.00000E+00         0.00000E+00        -0.68740E+08
 
   -0.52331E+08        -0.17551E+07         0.00000E+00
   -0.17551E+07        -0.61200E+08         0.00000E+00
    0.00000E+00         0.00000E+00        -0.69304E+08
 
   -0.54414E+08        -0.15059E+07         0.00000E+00
   -0.15059E+07        -0.61640E+08         0.00000E+00
    0.00000E+00         0.00000E+00        -0.69809E+08
 
   -0.56292E+08        -0.12217E+07         0.00000E+00
   -0.12217E+07        -0.62033E+08         0.00000E+00
    0.00000E+00         0.00000E+00        -0.70263E+08
 
   -0.58044E+08        -0.91132E+06         0.00000E+00
   -0.91132E+06        -0.62346E+08         0.00000E+00
    0.00000E+00         0.00000E+00        -0.70676E+08
 
   -0.59735E+08        -0.57176E+06         0.00000E+00
   -0.57176E+06        -0.62555E+08         0.00000E+00
    0.00000E+00         0.00000E+00        -0.71055E+08
 
   -0.61427E+08        -0.19183E+06         0.00000E+00
   -0.19183E+06        -0.62639E+08         0.00000E+00
    0.00000E+00         0.00000E+00        -0.71410E+08
 
   -0.63178E+08         0.24963E+06         0.00000E+00
    0.24963E+06        -0.62572E+08         0.00000E+00
    0.00000E+00         0.00000E+00        -0.71747E+08
 
   -0.65055E+08         0.79106E+06         0.00000E+00
    0.79106E+06        -0.62323E+08         0.00000E+00
    0.00000E+00         0.00000E+00        -0.72072E+08
 
   -0.67131E+08         0.15064E+07         0.00000E+00
    0.15064E+07        -0.61849E+08         0.00000E+00
    0.00000E+00         0.00000E+00        -0.72393E+08
 
   -0.69447E+08         0.25515E+07         0.00000E+00
    0.25515E+07        -0.61101E+08         0.00000E+00
    0.00000E+00         0.00000E+00        -0.72706E+08
 
   -0.71904E+08         0.41725E+07         0.00000E+00
    0.41725E+07        -0.60121E+08         0.00000E+00
    0.00000E+00         0.00000E+00        -0.73001E+08
 
   -0.41923E+08        -0.70161E+06         0.00000E+00
   -0.70161E+06        -0.60003E+08         0.00000E+00
    0.00000E+00         0.00000E+00        -0.65287E+08
 
   -0.44716E+08        -0.16411E+07         0.00000E+00
   -0.16411E+07        -0.60016E+08         0.00000E+00
    0.00000E+00         0.00000E+00        -0.65848E+08
 
   -0.47398E+08        -0.21023E+07         0.00000E+00
   -0.21023E+07        -0.60094E+08         0.00000E+00
    0.00000E+00         0.00000E+00        -0.66399E+08
 
   -0.49879E+08        -0.22166E+07         0.00000E+00
   -0.22166E+07        -0.60234E+08         0.00000E+00
    0.00000E+00         0.00000E+00        -0.66923E+08
 
   -0.52120E+08        -0.20968E+07         0.00000E+00
   -0.20968E+07        -0.60446E+08         0.00000E+00
    0.00000E+00         0.00000E+00        -0.67414E+08
 
   -0.54130E+08        -0.18436E+07         0.00000E+00
   -0.18436E+07        -0.60694E+08         0.00000E+00
    0.00000E+00         0.00000E+00        -0.67865E+08
 
   -0.55962E+08        -0.15120E+07         0.00000E+00
   -0.15120E+07        -0.60932E+08         0.00000E+00
    0.00000E+00         0.00000E+00        -0.68279E+08
 
   -0.57674E+08        -0.11234E+07         0.00000E+00
   -0.11234E+07        -0.61122E+08         0.00000E+00
    0.00000E+00         0.00000E+00        -0.68659E+08
 
   -0.59319E+08        -0.68054E+06         0.00000E+00
   -0.68054E+06        -0.61233E+08         0.00000E+00
    0.00000E+00         0.00000E+00        -0.69010E+08
 
   -0.60949E+08        -0.17328E+06         0.00000E+00
   -0.17328E+06        -0.61241E+08         0.00000E+00
    0.00000E+00         0.00000E+00        -0.69337E+08
 
   -0.62608E+08         0.42232E+06         0.00000E+00
    0.42232E+06        -0.61119E+08         0.00000E+00
    0.00000E+00         0.00000E+00        -0.69644E+08
 
   -0.64337E+08         0.11497E+07         0.00000E+00
    0.11497E+07        -0.60843E+08         0.00000E+00
    0.00000E+00         0.00000E+00        -0.69935E+08
 
   -0.66161E+08         0.20847E+07         0.00000E+00
    0.20847E+07        -0.60390E+08         0.00000E+00
    0.00000E+00         0.00000E+00        -0.70209E+08
 
   -0.68055E+08         0.33442E+07         0.00000E+00
    0.33442E+07        -0.59764E+08         0.00000E+00
    0.00000E+00         0.00000E+00        -0.70462E+08
 
   -0.69898E+08         0.50690E+07         0.00000E+00
    0.50690E+07        -0.59028E+08         0.00000E+00
    0.00000E+00         0.00000E+00        -0.70684E+08
 
   -0.43154E+08        -0.67558E+06         0.00000E+00
   -0.67558E+06        -0.59978E+08         0.00000E+00
    0.00000E+00         0.00000E+00        -0.63888E+08
 
   -0.45416E+08        -0.16260E+07         0.00000E+00
   -0.16260E+07        -0.59926E+08         0.00000E+00
    0.00000E+00         0.00000E+00        -0.64330E+08
 
   -0.47700E+08        -0.21376E+07         0.00000E+00
   -0.21376E+07        -0.59882E+08         0.00000E+00
    0.00000E+00         0.00000E+00        -0.64777E+08
 
   -0.49894E+08        -0.23149E+07         0.00000E+00
   -0.23149E+07        -0.59884E+08         0.00000E+00
    0.00000E+00         0.00000E+00        -0.65216E+08
 
   -0.51943E+08        -0.22496E+07         0.00000E+00
   -0.22496E+07        -0.59937E+08         0.00000E+00
    0.00000E+00         0.00000E+00        -0.65636E+08
 
   -0.53832E+08        -0.20157E+07         0.00000E+00
   -0.20157E+07        -0.60026E+08         0.00000E+00
    0.00000E+00         0.00000E+00        -0.66032E+08
 
   -0.55581E+08        -0.16651E+07         0.00000E+00
   -0.16651E+07        -0.60121E+08         0.00000E+00
    0.00000E+00         0.00000E+00        -0.66400E+08
 
   -0.57225E+08        -0.12246E+07         0.00000E+00
   -0.12246E+07        -0.60191E+08         0.00000E+00
    0.00000E+00         0.00000E+00        -0.66743E+08
 
   -0.58800E+08        -0.70212E+06         0.00000E+00
   -0.70212E+06        -0.60206E+08         0.00000E+00
    0.00000E+00         0.00000E+00        -0.67060E+08
 
   -0.60343E+08        -0.90274E+05         0.00000E+00
   -0.90274E+05        -0.60141E+08         0.00000E+00
    0.00000E+00         0.00000E+00        -0.67356E+08
 
   -0.61883E+08         0.63299E+06         0.00000E+00
    0.63299E+06        -0.59973E+08         0.00000E+00
    0.00000E+00         0.00000E+00        -0.67630E+08
 
   -0.63441E+08         0.15072E+07         0.00000E+00
    0.15072E+07        -0.59686E+08         0.00000E+00
    0.00000E+00         0.00000E+00        -0.67884E+08
 
   -0.65009E+08         0.25925E+07         0.00000E+00
    0.25925E+07        -0.59275E+08         0.00000E+00
    0.00000E+00         0.00000E+00        -0.68115E+08
 
   -0.66540E+08         0.39669E+07         0.00000E+00
    0.39669E+07        -0.58764E+08         0.00000E+00
    0.00000E+00         0.00000E+00        -0.68319E+08
 
   -0.67923E+08         0.57085E+07         0.00000E+00
    0.57085E+07        -0.58216E+08         0.00000E+00
    0.00000E+00         0.00000E+00        -0.68486E+08
 
   -0.44327E+08        -0.62018E+06         0.00000E+00
   -0.62018E+06        -0.59971E+08         0.00000E+00
    0.00000E+00         0.00000E+00        -0.62546E+08
 
   -0.46132E+08        -0.15337E+07         0.00000E+00
   -0.15337E+07        -0.59878E+08         0.00000E+00
    0.00000E+00         0.00000E+00        -0.62889E+08
 
   -0.48050E+08        -0.20645E+07         0.00000E+00
   -0.20645E+07        -0.59762E+08         0.00000E+00
    0.00000E+00         0.00000E+00        -0.63249E+08
 
   -0.49963E+08        -0.22844E+07         0.00000E+00
   -0.22844E+07        -0.59666E+08         0.00000E+00
    0.00000E+00         0.00000E+00        -0.63612E+08
 
   -0.51802E+08        -0.22607E+07         0.00000E+00
   -0.22607E+07        -0.59604E+08         0.00000E+00
    0.00000E+00         0.00000E+00        -0.63967E+08
 
   -0.53540E+08        -0.20506E+07         0.00000E+00
   -0.20506E+07        -0.59573E+08         0.00000E+00
    0.00000E+00         0.00000E+00        -0.64308E+08
 
   -0.55174E+08        -0.16964E+07         0.00000E+00
   -0.16964E+07        -0.59553E+08         0.00000E+00
    0.00000E+00         0.00000E+00        -0.64631E+08
 
   -0.56720E+08        -0.12242E+07         0.00000E+00
   -0.12242E+07        -0.59521E+08         0.00000E+00
    0.00000E+00         0.00000E+00        -0.64933E+08
 
   -0.58199E+08        -0.64414E+06         0.00000E+00
   -0.64414E+06        -0.59454E+08         0.00000E+00
    0.00000E+00         0.00000E+00        -0.65215E+08
 
   -0.59633E+08         0.47601E+05         0.00000E+00
    0.47601E+05        -0.59329E+08         0.00000E+00
    0.00000E+00         0.00000E+00        -0.65477E+08
 
   -0.61039E+08         0.86789E+06         0.00000E+00
    0.86789E+06        -0.59128E+08         0.00000E+00
    0.00000E+00         0.00000E+00        -0.65718E+08
 
   -0.62417E+08         0.18466E+07         0.00000E+00
    0.18466E+07        -0.58844E+08         0.00000E+00
    0.00000E+00         0.00000E+00        -0.65936E+08
 
   -0.63750E+08         0.30253E+07         0.00000E+00
    0.30253E+07        -0.58480E+08         0.00000E+00
    0.00000E+00         0.00000E+00        -0.66130E+08
 
   -0.64981E+08         0.44510E+07         0.00000E+00
    0.44510E+07        -0.58067E+08         0.00000E+00
    0.00000E+00         0.00000E+00        -0.66293E+08
 
   -0.66017E+08         0.61633E+07         0.00000E+00
    0.61633E+07        -0.57660E+08         0.00000E+00
    0.00000E+00         0.00000E+00        -0.66419E+08
 
   -0.45403E+08        -0.55287E+06         0.00000E+00
   -0.55287E+06        -0.59968E+08         0.00000E+00
    0.00000E+00         0.00000E+00        -0.61256E+08
 
   -0.46830E+08        -0.13993E+07         0.00000E+00
   -0.13993E+07        -0.59858E+08         0.00000E+00
    0.00000E+00         0.00000E+00        -0.61520E+08
 
   -0.48422E+08        -0.19229E+07         0.00000E+00
   -0.19229E+07        -0.59701E+08         0.00000E+00
    0.00000E+00         0.00000E+00        -0.61807E+08
 
   -0.50067E+08        -0.21652E+07         0.00000E+00
   -0.21652E+07        -0.59544E+08         0.00000E+00
    0.00000E+00         0.00000E+00        -0.62104E+08
 
   -0.51693E+08        -0.21713E+07         0.00000E+00
   -0.21713E+07        -0.59406E+08         0.00000E+00
    0.00000E+00         0.00000E+00        -0.62401E+08
 
   -0.53260E+08        -0.19826E+07         0.00000E+00
   -0.19826E+07        -0.59290E+08         0.00000E+00
    0.00000E+00         0.00000E+00        -0.62691E+08
 
   -0.54755E+08        -0.16322E+07         0.00000E+00
   -0.16322E+07        -0.59186E+08         0.00000E+00
    0.00000E+00         0.00000E+00        -0.62969E+08
 
   -0.56179E+08        -0.11421E+07         0.00000E+00
   -0.11421E+07        -0.59079E+08         0.00000E+00
    0.00000E+00         0.00000E+00        -0.63232E+08
 
   -0.57540E+08        -0.52301E+06         0.00000E+00
   -0.52301E+06        -0.58950E+08         0.00000E+00
    0.00000E+00         0.00000E+00        -0.63478E+08
 
   -0.58848E+08         0.22527E+06         0.00000E+00
    0.22527E+06        -0.58782E+08         0.00000E+00
    0.00000E+00         0.00000E+00        -0.63706E+08
 
   -0.60108E+08         0.11132E+07         0.00000E+00
    0.11132E+07        -0.58564E+08         0.00000E+00
    0.00000E+00         0.00000E+00        -0.63914E+08
 
   -0.61312E+08         0.21598E+07         0.00000E+00
    0.21598E+07        -0.58291E+08         0.00000E+00
    0.00000E+00         0.00000E+00        -0.64100E+08
 
   -0.62435E+08         0.33897E+07         0.00000E+00
    0.33897E+07        -0.57974E+08         0.00000E+00
    0.00000E+00         0.00000E+00        -0.64261E+08
 
   -0.63424E+08         0.48267E+07         0.00000E+00
    0.48267E+07        -0.57640E+08         0.00000E+00
    0.00000E+00         0.00000E+00        -0.64392E+08
 
   -0.64201E+08         0.64852E+07         0.00000E+00
    0.64852E+07        -0.57338E+08         0.00000E+00
    0.00000E+00         0.00000E+00        -0.64487E+08
 
   -0.46362E+08        -0.48254E+06         0.00000E+00
   -0.48254E+06        -0.59968E+08         0.00000E+00
    0.00000E+00         0.00000E+00        -0.60013E+08
 
   -0.47485E+08        -0.12469E+07         0.00000E+00
   -0.12469E+07        -0.59854E+08         0.00000E+00
    0.00000E+00         0.00000E+00        -0.60214E+08
 
   -0.48797E+08        -0.17444E+07         0.00000E+00
   -0.17444E+07        -0.59681E+08         0.00000E+00
    0.00000E+00         0.00000E+00        -0.60442E+08
 
   -0.50193E+08        -0.19926E+07         0.00000E+00
   -0.19926E+07        -0.59493E+08         0.00000E+00
    0.00000E+00         0.00000E+00        -0.60683E+08
 
   -0.51607E+08        -0.20172E+07         0.00000E+00
   -0.20172E+07        -0.59311E+08         0.00000E+00
    0.00000E+00         0.00000E+00        -0.60930E+08
 
   -0.52993E+08        -0.18455E+07         0.00000E+00
   -0.18455E+07        -0.59144E+08         0.00000E+00
    0.00000E+00         0.00000E+00        -0.61173E+08
 
   -0.54332E+08        -0.15013E+07         0.00000E+00
   -0.15013E+07        -0.58988E+08         0.00000E+00
    0.00000E+00         0.00000E+00        -0.61409E+08
 
   -0.55615E+08        -0.10024E+07         0.00000E+00
   -0.10024E+07        -0.58832E+08         0.00000E+00
    0.00000E+00         0.00000E+00        -0.61634E+08
 
   -0.56841E+08        -0.35907E+06         0.00000E+00
   -0.35907E+06        -0.58664E+08         0.00000E+00
    0.00000E+00         0.00000E+00        -0.61846E+08
 
   -0.58011E+08         0.42608E+06         0.00000E+00
    0.42608E+06        -0.58472E+08         0.00000E+00
    0.00000E+00         0.00000E+00        -0.62041E+08
 
   -0.59121E+08         0.13572E+07         0.00000E+00
    0.13572E+07        -0.58249E+08         0.00000E+00
    0.00000E+00         0.00000E+00        -0.62218E+08
 
   -0.60160E+08         0.24432E+07         0.00000E+00
    0.24432E+07        -0.57995E+08         0.00000E+00
    0.00000E+00         0.00000E+00        -0.62375E+08
 
   -0.61100E+08         0.36948E+07         0.00000E+00
    0.36948E+07        -0.57721E+08         0.00000E+00
    0.00000E+00         0.00000E+00        -0.62508E+08
 
   -0.61895E+08         0.51191E+07         0.00000E+00
    0.51191E+07        -0.57452E+08         0.00000E+00
    0.00000E+00         0.00000E+00        -0.62613E+08
 
   -0.62481E+08         0.67127E+07         0.00000E+00
    0.67127E+07        -0.57225E+08         0.00000E+00
    0.00000E+00         0.00000E+00        -0.62685E+08
 
   -0.47202E+08        -0.41485E+06         0.00000E+00
   -0.41485E+06        -0.59970E+08         0.00000E+00
    0.00000E+00         0.00000E+00        -0.58810E+08
 
   -0.48086E+08        -0.10929E+07         0.00000E+00
   -0.10929E+07        -0.59861E+08         0.00000E+00
    0.00000E+00         0.00000E+00        -0.58965E+08
 
   -0.49157E+08        -0.15538E+07         0.00000E+00
   -0.15538E+07        -0.59690E+08         0.00000E+00
    0.00000E+00         0.00000E+00        -0.59145E+08
 
   -0.50328E+08        -0.17960E+07         0.00000E+00
   -0.17960E+07        -0.59495E+08         0.00000E+00
    0.00000E+00         0.00000E+00        -0.59340E+08
 
   -0.51536E+08        -0.18295E+07         0.00000E+00
   -0.18295E+07        -0.59298E+08         0.00000E+00
    0.00000E+00         0.00000E+00        -0.59542E+08
 
   -0.52738E+08        -0.16696E+07         0.00000E+00
   -0.16696E+07        -0.59108E+08         0.00000E+00
    0.00000E+00         0.00000E+00        -0.59744E+08
 
   -0.53910E+08        -0.13320E+07         0.00000E+00
   -0.13320E+07        -0.58927E+08         0.00000E+00
    0.00000E+00         0.00000E+00        -0.59942E+08
 
   -0.55038E+08        -0.82998E+06         0.00000E+00
   -0.82998E+06        -0.58747E+08         0.00000E+00
    0.00000E+00         0.00000E+00        -0.60131E+08
 
   -0.56117E+08        -0.17301E+06         0.00000E+00
   -0.17301E+06        -0.58562E+08         0.00000E+00
    0.00000E+00         0.00000E+00        -0.60310E+08
 
   -0.57141E+08         0.63394E+06         0.00000E+00
    0.63394E+06        -0.58365E+08         0.00000E+00
    0.00000E+00         0.00000E+00        -0.60475E+08
 
   -0.58102E+08         0.15896E+07         0.00000E+00
    0.15896E+07        -0.58150E+08         0.00000E+00
    0.00000E+00         0.00000E+00        -0.60624E+08
 
   -0.58986E+08         0.26948E+07         0.00000E+00
    0.26948E+07        -0.57920E+08         0.00000E+00
    0.00000E+00         0.00000E+00        -0.60755E+08
 
   -0.59767E+08         0.39493E+07         0.00000E+00
    0.39493E+07        -0.57686E+08         0.00000E+00
    0.00000E+00         0.00000E+00        -0.60864E+08
 
   -0.60407E+08         0.53479E+07         0.00000E+00
    0.53479E+07        -0.57468E+08         0.00000E+00
    0.00000E+00         0.00000E+00        -0.60948E+08
 
   -0.60854E+08         0.68752E+07         0.00000E+00
    0.68752E+07        -0.57295E+08         0.00000E+00
    0.00000E+00         0.00000E+00        -0.61003E+08
 
   -0.47928E+08        -0.35378E+06         0.00000E+00
   -0.35378E+06        -0.59974E+08         0.00000E+00
    0.00000E+00         0.00000E+00        -0.57642E+08
 
   -0.48627E+08        -0.94968E+06         0.00000E+00
   -0.94968E+06        -0.59877E+08         0.00000E+00
    0.00000E+00         0.00000E+00        -0.57762E+08
 
   -0.49496E+08        -0.13699E+07         0.00000E+00
   -0.13699E+07        -0.59722E+08         0.00000E+00
    0.00000E+00         0.00000E+00        -0.57905E+08
 
   -0.50463E+08        -0.15989E+07         0.00000E+00
   -0.15989E+07        -0.59538E+08         0.00000E+00
    0.00000E+00         0.00000E+00        -0.58061E+08
 
   -0.51474E+08        -0.16344E+07         0.00000E+00
   -0.16344E+07        -0.59348E+08         0.00000E+00
    0.00000E+00         0.00000E+00        -0.58225E+08
 
   -0.52491E+08        -0.14816E+07         0.00000E+00
   -0.14816E+07        -0.59159E+08         0.00000E+00
    0.00000E+00         0.00000E+00        -0.58391E+08
 
   -0.53490E+08        -0.11495E+07         0.00000E+00
   -0.11495E+07        -0.58976E+08         0.00000E+00
    0.00000E+00         0.00000E+00        -0.58554E+08
 
   -0.54456E+08        -0.64744E+06         0.00000E+00
   -0.64744E+06        -0.58796E+08         0.00000E+00
    0.00000E+00         0.00000E+00        -0.58711E+08
 
   -0.55380E+08         0.16098E+05         0.00000E+00
    0.16098E+05        -0.58614E+08         0.00000E+00
    0.00000E+00         0.00000E+00        -0.58859E+08
 
   -0.56253E+08         0.83444E+06         0.00000E+00
    0.83444E+06        -0.58425E+08         0.00000E+00
    0.00000E+00         0.00000E+00        -0.58996E+08
 
   -0.57067E+08         0.18021E+07         0.00000E+00
    0.18021E+07        -0.58229E+08         0.00000E+00
    0.00000E+00         0.00000E+00        -0.59119E+08
 
   -0.57805E+08         0.29135E+07         0.00000E+00
    0.29135E+07        -0.58028E+08         0.00000E+00
    0.00000E+00         0.00000E+00        -0.59226E+08
 
   -0.58448E+08         0.41604E+07         0.00000E+00
    0.41604E+07        -0.57831E+08         0.00000E+00
    0.00000E+00         0.00000E+00        -0.59315E+08
 
   -0.58964E+08         0.55287E+07         0.00000E+00
    0.55287E+07        -0.57654E+08         0.00000E+00
    0.00000E+00         0.00000E+00        -0.59383E+08
 
   -0.59313E+08         0.69947E+07         0.00000E+00
    0.69947E+07        -0.57521E+08         0.00000E+00
    0.00000E+00         0.00000E+00        -0.59426E+08
 
   -0.48553E+08        -0.30220E+06         0.00000E+00
   -0.30220E+06        -0.59979E+08         0.00000E+00
    0.00000E+00         0.00000E+00        -0.56500E+08
 
   -0.49110E+08        -0.82594E+06         0.00000E+00
   -0.82594E+06        -0.59899E+08         0.00000E+00
    0.00000E+00         0.00000E+00        -0.56596E+08
 
   -0.49808E+08        -0.12070E+07         0.00000E+00
   -0.12070E+07        -0.59769E+08         0.00000E+00
    0.00000E+00         0.00000E+00        -0.56709E+08
 
   -0.50590E+08        -0.14198E+07         0.00000E+00
   -0.14198E+07        -0.59612E+08         0.00000E+00
    0.00000E+00         0.00000E+00        -0.56834E+08
 
   -0.51415E+08        -0.14527E+07         0.00000E+00
   -0.14527E+07        -0.59445E+08         0.00000E+00
    0.00000E+00         0.00000E+00        -0.56965E+08
 
   -0.52249E+08        -0.13033E+07         0.00000E+00
   -0.13033E+07        -0.59277E+08         0.00000E+00
    0.00000E+00         0.00000E+00        -0.57098E+08
 
   -0.53073E+08        -0.97507E+06         0.00000E+00
   -0.97507E+06        -0.59112E+08         0.00000E+00
    0.00000E+00         0.00000E+00        -0.57230E+08
 
   -0.53872E+08        -0.47421E+06         0.00000E+00
   -0.47421E+06        -0.58949E+08         0.00000E+00
    0.00000E+00         0.00000E+00        -0.57357E+08
 
   -0.54636E+08         0.19187E+06         0.00000E+00
    0.19187E+06        -0.58786E+08         0.00000E+00
    0.00000E+00         0.00000E+00        -0.57477E+08
 
   -0.55357E+08         0.10153E+07         0.00000E+00
    0.10153E+07        -0.58620E+08         0.00000E+00
    0.00000E+00         0.00000E+00        -0.57587E+08
 
   -0.56025E+08         0.19875E+07         0.00000E+00
    0.19875E+07        -0.58452E+08         0.00000E+00
    0.00000E+00         0.00000E+00        -0.57687E+08
 
   -0.56628E+08         0.30981E+07         0.00000E+00
    0.30981E+07        -0.58283E+08         0.00000E+00
    0.00000E+00         0.00000E+00        -0.57774E+08
 
   -0.57148E+08         0.43332E+07         0.00000E+00
    0.43332E+07        -0.58122E+08         0.00000E+00
    0.00000E+00         0.00000E+00        -0.57846E+08
 
   -0.57563E+08         0.56727E+07         0.00000E+00
    0.56727E+07        -0.57979E+08         0.00000E+00
    0.00000E+00         0.00000E+00        -0.57900E+08
 
   -0.57844E+08         0.70875E+07         0.00000E+00
    0.70875E+07        -0.57872E+08         0.00000E+00
    0.00000E+00         0.00000E+00        -0.57935E+08
 
   -0.49096E+08        -0.26216E+06         0.00000E+00
   -0.26216E+06        -0.59985E+08         0.00000E+00
    0.00000E+00         0.00000E+00        -0.55376E+08
 
   -0.49544E+08        -0.72811E+06         0.00000E+00
   -0.72811E+06        -0.59926E+08         0.00000E+00
    0.00000E+00         0.00000E+00        -0.55454E+08
 
   -0.50095E+08        -0.10758E+07         0.00000E+00
   -0.10758E+07        -0.59827E+08         0.00000E+00
    0.00000E+00         0.00000E+00        -0.55544E+08
 
   -0.50709E+08        -0.12727E+07         0.00000E+00
   -0.12727E+07        -0.59707E+08         0.00000E+00
    0.00000E+00         0.00000E+00        -0.55643E+08
 
   -0.51356E+08        -0.13007E+07         0.00000E+00
   -0.13007E+07        -0.59577E+08         0.00000E+00
    0.00000E+00         0.00000E+00        -0.55746E+08
 
   -0.52011E+08        -0.11520E+07         0.00000E+00
   -0.11520E+07        -0.59444E+08         0.00000E+00
    0.00000E+00         0.00000E+00        -0.55850E+08
 
   -0.52659E+08        -0.82586E+06         0.00000E+00
   -0.82586E+06        -0.59312E+08         0.00000E+00
    0.00000E+00         0.00000E+00        -0.55953E+08
 
   -0.53288E+08        -0.32600E+06         0.00000E+00
   -0.32600E+06        -0.59181E+08         0.00000E+00
    0.00000E+00         0.00000E+00        -0.56052E+08
 
   -0.53889E+08         0.34101E+06         0.00000E+00
    0.34101E+06        -0.59049E+08         0.00000E+00
    0.00000E+00         0.00000E+00        -0.56146E+08
 
   -0.54457E+08         0.11665E+07         0.00000E+00
    0.11665E+07        -0.58917E+08         0.00000E+00
    0.00000E+00         0.00000E+00        -0.56233E+08
 
   -0.54982E+08         0.21399E+07         0.00000E+00
    0.21399E+07        -0.58783E+08         0.00000E+00
    0.00000E+00         0.00000E+00        -0.56311E+08
 
   -0.55456E+08         0.32475E+07         0.00000E+00
    0.32475E+07        -0.58650E+08         0.00000E+00
    0.00000E+00         0.00000E+00        -0.56379E+08
 
   -0.55866E+08         0.44715E+07         0.00000E+00
    0.44715E+07        -0.58523E+08         0.00000E+00
    0.00000E+00         0.00000E+00        -0.56436E+08
 
   -0.56196E+08         0.57880E+07         0.00000E+00
    0.57880E+07        -0.58410E+08         0.00000E+00
    0.00000E+00         0.00000E+00        -0.56479E+08
 
   -0.56429E+08         0.71649E+07         0.00000E+00
    0.71649E+07        -0.58322E+08         0.00000E+00
    0.00000E+00         0.00000E+00        -0.56508E+08
 
   -0.49578E+08        -0.23498E+06         0.00000E+00
   -0.23498E+06        -0.59991E+08         0.00000E+00
    0.00000E+00         0.00000E+00        -0.54261E+08
 
   -0.49940E+08        -0.66047E+06         0.00000E+00
   -0.66047E+06        -0.59954E+08         0.00000E+00
    0.00000E+00         0.00000E+00        -0.54326E+08
 
   -0.50361E+08        -0.98349E+06         0.00000E+00
   -0.98349E+06        -0.59893E+08         0.00000E+00
    0.00000E+00         0.00000E+00        -0.54398E+08
 
   -0.50819E+08        -0.11675E+07         0.00000E+00
   -0.11675E+07        -0.59816E+08         0.00000E+00
    0.00000E+00         0.00000E+00        -0.54474E+08
 
   -0.51294E+08        -0.11903E+07         0.00000E+00
   -0.11903E+07        -0.59732E+08         0.00000E+00
    0.00000E+00         0.00000E+00        -0.54552E+08
 
   -0.51773E+08        -0.10405E+07         0.00000E+00
   -0.10405E+07        -0.59645E+08         0.00000E+00
    0.00000E+00         0.00000E+00        -0.54630E+08
 
   -0.52245E+08        -0.71465E+06         0.00000E+00
   -0.71465E+06        -0.59556E+08         0.00000E+00
    0.00000E+00         0.00000E+00        -0.54707E+08
 
   -0.52703E+08        -0.21471E+06         0.00000E+00
   -0.21471E+06        -0.59467E+08         0.00000E+00
    0.00000E+00         0.00000E+00        -0.54780E+08
 
   -0.53141E+08         0.45340E+06         0.00000E+00
    0.45340E+06        -0.59377E+08         0.00000E+00
    0.00000E+00         0.00000E+00        -0.54849E+08
 
   -0.53555E+08         0.12806E+07         0.00000E+00
    0.12806E+07        -0.59284E+08         0.00000E+00
    0.00000E+00         0.00000E+00        -0.54914E+08
 
   -0.53940E+08         0.22549E+07         0.00000E+00
    0.22549E+07        -0.59190E+08         0.00000E+00
    0.00000E+00         0.00000E+00        -0.54971E+08
 
   -0.54290E+08         0.33606E+07         0.00000E+00
    0.33606E+07        -0.59095E+08         0.00000E+00
    0.00000E+00         0.00000E+00        -0.55022E+08
 
   -0.54598E+08         0.45777E+07         0.00000E+00
    0.45777E+07        -0.59002E+08         0.00000E+00
    0.00000E+00         0.00000E+00        -0.55065E+08
 
   -0.54855E+08         0.58800E+07         0.00000E+00
    0.58800E+07        -0.58916E+08         0.00000E+00
    0.00000E+00         0.00000E+00        -0.55099E+08
 
   -0.55051E+08         0.72341E+07         0.00000E+00
    0.72341E+07        -0.58842E+08         0.00000E+00
    0.00000E+00         0.00000E+00        -0.55124E+08
 
   -0.50022E+08        -0.22134E+06         0.00000E+00
   -0.22134E+06        -0.59997E+08         0.00000E+00
    0.00000E+00         0.00000E+00        -0.53146E+08
 
   -0.50311E+08        -0.62551E+06         0.00000E+00
   -0.62551E+06        -0.59984E+08         0.00000E+00
    0.00000E+00         0.00000E+00        -0.53201E+08
 
   -0.50613E+08        -0.93456E+06         0.00000E+00
   -0.93456E+06        -0.59962E+08         0.00000E+00
    0.00000E+00         0.00000E+00        -0.53257E+08
 
   -0.50921E+08        -0.11104E+07         0.00000E+00
   -0.11104E+07        -0.59933E+08         0.00000E+00
    0.00000E+00         0.00000E+00        -0.53313E+08
 
   -0.51230E+08        -0.11291E+07         0.00000E+00
   -0.11291E+07        -0.59900E+08         0.00000E+00
    0.00000E+00         0.00000E+00        -0.53368E+08
 
   -0.51535E+08        -0.97736E+06         0.00000E+00
   -0.97736E+06        -0.59864E+08         0.00000E+00
    0.00000E+00         0.00000E+00        -0.53421E+08
 
   -0.51831E+08        -0.65017E+06         0.00000E+00
   -0.65017E+06        -0.59826E+08         0.00000E+00
    0.00000E+00         0.00000E+00        -0.53473E+08
 
   -0.52117E+08        -0.14852E+06         0.00000E+00
   -0.14852E+06        -0.59786E+08         0.00000E+00
    0.00000E+00         0.00000E+00        -0.53522E+08
 
   -0.52391E+08         0.52204E+06         0.00000E+00
    0.52204E+06        -0.59742E+08         0.00000E+00
    0.00000E+00         0.00000E+00        -0.53568E+08
 
   -0.52651E+08         0.13522E+07         0.00000E+00
    0.13522E+07        -0.59695E+08         0.00000E+00
    0.00000E+00         0.00000E+00        -0.53610E+08
 
   -0.52896E+08         0.23293E+07         0.00000E+00
    0.23293E+07        -0.59644E+08         0.00000E+00
    0.00000E+00         0.00000E+00        -0.53649E+08
 
   -0.53125E+08         0.34366E+07         0.00000E+00
    0.34366E+07        -0.59588E+08         0.00000E+00
    0.00000E+00         0.00000E+00        -0.53683E+08
 
   -0.53335E+08         0.46530E+07         0.00000E+00
    0.46530E+07        -0.59530E+08         0.00000E+00
    0.00000E+00         0.00000E+00        -0.53713E+08
 
   -0.53525E+08         0.59517E+07         0.00000E+00
    0.59517E+07        -0.59468E+08         0.00000E+00
    0.00000E+00         0.00000E+00        -0.53739E+08
 
   -0.53691E+08         0.72989E+07         0.00000E+00
    0.72989E+07        -0.59406E+08         0.00000E+00
    0.00000E+00         0.00000E+00        -0.53760E+08
 
   -0.50453E+08        -0.22135E+06         0.00000E+00
   -0.22135E+06        -0.60003E+08         0.00000E+00
    0.00000E+00         0.00000E+00        -0.52024E+08
 
   -0.50672E+08        -0.62406E+06         0.00000E+00
   -0.62406E+06        -0.60014E+08         0.00000E+00
    0.00000E+00         0.00000E+00        -0.52070E+08
 
   -0.50858E+08        -0.93096E+06         0.00000E+00
   -0.93096E+06        -0.60032E+08         0.00000E+00
    0.00000E+00         0.00000E+00        -0.52110E+08
 
   -0.51020E+08        -0.11047E+07         0.00000E+00
   -0.11047E+07        -0.60051E+08         0.00000E+00
    0.00000E+00         0.00000E+00        -0.52146E+08
 
   -0.51164E+08        -0.11213E+07         0.00000E+00
   -0.11213E+07        -0.60071E+08         0.00000E+00
    0.00000E+00         0.00000E+00        -0.52179E+08
 
   -0.51294E+08        -0.96728E+06         0.00000E+00
   -0.96728E+06        -0.60089E+08         0.00000E+00
    0.00000E+00         0.00000E+00        -0.52208E+08
 
   -0.51415E+08        -0.63729E+06         0.00000E+00
   -0.63729E+06        -0.60105E+08         0.00000E+00
    0.00000E+00         0.00000E+00        -0.52235E+08
 
   -0.51528E+08        -0.13207E+06         0.00000E+00
   -0.13207E+06        -0.60116E+08         0.00000E+00
    0.00000E+00         0.00000E+00        -0.52260E+08
 
   -0.51637E+08         0.54293E+06         0.00000E+00
    0.54293E+06        -0.60122E+08         0.00000E+00
    0.00000E+00         0.00000E+00        -0.52283E+08
 
   -0.51743E+08         0.13784E+07         0.00000E+00
    0.13784E+07        -0.60123E+08         0.00000E+00
    0.00000E+00         0.00000E+00        -0.52304E+08
 
   -0.51849E+08         0.23614E+07         0.00000E+00
    0.23614E+07        -0.60116E+08         0.00000E+00
    0.00000E+00         0.00000E+00        -0.52324E+08
 
   -0.51957E+08         0.34750E+07         0.00000E+00
    0.34750E+07        -0.60101E+08         0.00000E+00
    0.00000E+00         0.00000E+00        -0.52342E+08
 
   -0.52071E+08         0.46981E+07         0.00000E+00
    0.46981E+07        -0.60077E+08         0.00000E+00
    0.00000E+00         0.00000E+00        -0.52360E+08
 
   -0.52193E+08         0.60041E+07         0.00000E+00
    0.60041E+07        -0.60040E+08         0.00000E+00
    0.00000E+00         0.00000E+00        -0.52377E+08
 
   -0.52330E+08         0.73603E+07         0.00000E+00
    0.73603E+07        -0.59989E+08         0.00000E+00
    0.00000E+00         0.00000E+00        -0.52394E+08
 
   -0.50896E+08        -0.23466E+06         0.00000E+00
   -0.23466E+06        -0.60009E+08         0.00000E+00
    0.00000E+00         0.00000E+00        -0.50887E+08
 
   -0.51039E+08        -0.65559E+06         0.00000E+00
   -0.65559E+06        -0.60043E+08         0.00000E+00
    0.00000E+00         0.00000E+00        -0.50922E+08
 
   -0.51105E+08        -0.97241E+06         0.00000E+00
   -0.97241E+06        -0.60099E+08         0.00000E+00
    0.00000E+00         0.00000E+00        -0.50946E+08
 
   -0.51118E+08        -0.11504E+07         0.00000E+00
   -0.11504E+07        -0.60166E+08         0.00000E+00
    0.00000E+00         0.00000E+00        -0.50962E+08
 
   -0.51096E+08        -0.11675E+07         0.00000E+00
   -0.11675E+07        -0.60238E+08         0.00000E+00
    0.00000E+00         0.00000E+00        -0.50972E+08
 
   -0.51051E+08        -0.10113E+07         0.00000E+00
   -0.10113E+07        -0.60309E+08         0.00000E+00
    0.00000E+00         0.00000E+00        -0.50977E+08
 
   -0.50994E+08        -0.67728E+06         0.00000E+00
   -0.67728E+06        -0.60377E+08         0.00000E+00
    0.00000E+00         0.00000E+00        -0.50979E+08
 
   -0.50934E+08        -0.16667E+06         0.00000E+00
   -0.16667E+06        -0.60440E+08         0.00000E+00
    0.00000E+00         0.00000E+00        -0.50979E+08
 
   -0.50876E+08         0.51491E+06         0.00000E+00
    0.51491E+06        -0.60496E+08         0.00000E+00
    0.00000E+00         0.00000E+00        -0.50979E+08
 
   -0.50827E+08         0.13582E+07         0.00000E+00
    0.13582E+07        -0.60544E+08         0.00000E+00
    0.00000E+00         0.00000E+00        -0.50978E+08
 
   -0.50793E+08         0.23504E+07         0.00000E+00
    0.23504E+07        -0.60581E+08         0.00000E+00
    0.00000E+00         0.00000E+00        -0.50979E+08
 
   -0.50780E+08         0.34754E+07         0.00000E+00
    0.34754E+07        -0.60607E+08         0.00000E+00
    0.00000E+00         0.00000E+00        -0.50981E+08
 
   -0.50795E+08         0.47127E+07         0.00000E+00
    0.47127E+07        -0.60617E+08         0.00000E+00
    0.00000E+00         0.00000E+00        -0.50986E+08
 
   -0.50848E+08         0.60369E+07         0.00000E+00
    0.60369E+07        -0.60606E+08         0.00000E+00
    0.00000E+00         0.00000E+00        -0.50994E+08
 
   -0.50950E+08         0.74171E+07         0.00000E+00
    0.74171E+07        -0.60569E+08         0.00000E+00
    0.00000E+00         0.00000E+00        -0.51007E+08
 
   -0.51374E+08        -0.26048E+06         0.00000E+00
   -0.26048E+06        -0.60015E+08         0.00000E+00
    0.00000E+00         0.00000E+00        -0.49729E+08
 
   -0.51427E+08        -0.71828E+06         0.00000E+00
   -0.71828E+06        -0.60070E+08         0.00000E+00
    0.00000E+00         0.00000E+00        -0.49751E+08
 
   -0.51364E+08        -0.10566E+07         0.00000E+00
   -0.10566E+07        -0.60161E+08         0.00000E+00
    0.00000E+00         0.00000E+00        -0.49756E+08
 
   -0.51221E+08        -0.12451E+07         0.00000E+00
   -0.12451E+07        -0.60272E+08         0.00000E+00
    0.00000E+00         0.00000E+00        -0.49750E+08
 
   -0.51027E+08        -0.12652E+07         0.00000E+00
   -0.12652E+07        -0.60392E+08         0.00000E+00
    0.00000E+00         0.00000E+00        -0.49735E+08
 
   -0.50804E+08        -0.11070E+07         0.00000E+00
   -0.11070E+07        -0.60513E+08         0.00000E+00
    0.00000E+00         0.00000E+00        -0.49714E+08
 
   -0.50569E+08        -0.76801E+06         0.00000E+00
   -0.76801E+06        -0.60630E+08         0.00000E+00
    0.00000E+00         0.00000E+00        -0.49690E+08
 
   -0.50333E+08        -0.25045E+06         0.00000E+00
   -0.25045E+06        -0.60740E+08         0.00000E+00
    0.00000E+00         0.00000E+00        -0.49665E+08
 
   -0.50108E+08         0.43951E+06         0.00000E+00
    0.43951E+06        -0.60843E+08         0.00000E+00
    0.00000E+00         0.00000E+00        -0.49640E+08
 
   -0.49902E+08         0.12927E+07         0.00000E+00
    0.12927E+07        -0.60935E+08         0.00000E+00
    0.00000E+00         0.00000E+00        -0.49617E+08
 
   -0.49725E+08         0.22972E+07         0.00000E+00
    0.22972E+07        -0.61016E+08         0.00000E+00
    0.00000E+00         0.00000E+00        -0.49598E+08
 
   -0.49587E+08         0.34380E+07         0.00000E+00
    0.34380E+07        -0.61081E+08         0.00000E+00
    0.00000E+00         0.00000E+00        -0.49583E+08
 
   -0.49499E+08         0.46961E+07         0.00000E+00
    0.46961E+07        -0.61125E+08         0.00000E+00
    0.00000E+00         0.00000E+00        -0.49574E+08
 
   -0.49475E+08         0.60483E+07         0.00000E+00
    0.60483E+07        -0.61142E+08         0.00000E+00
    0.00000E+00         0.00000E+00        -0.49572E+08
 
   -0.49534E+08         0.74660E+07         0.00000E+00
    0.74660E+07        -0.61121E+08         0.00000E+00
    0.00000E+00         0.00000E+00        -0.49580E+08
 
   -0.51910E+08        -0.29766E+06         0.00000E+00
   -0.29766E+06        -0.60019E+08         0.00000E+00
    0.00000E+00         0.00000E+00        -0.48546E+08
 
   -0.51850E+08        -0.80923E+06         0.00000E+00
   -0.80923E+06        -0.60093E+08         0.00000E+00
    0.00000E+00         0.00000E+00        -0.48549E+08
 
   -0.51642E+08        -0.11794E+07         0.00000E+00
   -0.11794E+07        -0.60216E+08         0.00000E+00
    0.00000E+00         0.00000E+00        -0.48532E+08
 
   -0.51332E+08        -0.13839E+07         0.00000E+00
   -0.13839E+07        -0.60365E+08         0.00000E+00
    0.00000E+00         0.00000E+00        -0.48499E+08
 
   -0.50960E+08        -0.14090E+07         0.00000E+00
   -0.14090E+07        -0.60527E+08         0.00000E+00
    0.00000E+00         0.00000E+00        -0.48457E+08
 
   -0.50554E+08        -0.12490E+07         0.00000E+00
   -0.12490E+07        -0.60690E+08         0.00000E+00
    0.00000E+00         0.00000E+00        -0.48408E+08
 
   -0.50136E+08        -0.90408E+06         0.00000E+00
   -0.90408E+06        -0.60849E+08         0.00000E+00
    0.00000E+00         0.00000E+00        -0.48356E+08
 
   -0.49724E+08        -0.37851E+06         0.00000E+00
   -0.37851E+06        -0.61000E+08         0.00000E+00
    0.00000E+00         0.00000E+00        -0.48304E+08
 
   -0.49330E+08         0.32088E+06         0.00000E+00
    0.32088E+06        -0.61143E+08         0.00000E+00
    0.00000E+00         0.00000E+00        -0.48253E+08
 
   -0.48966E+08         0.11852E+07         0.00000E+00
    0.11852E+07        -0.61276E+08         0.00000E+00
    0.00000E+00         0.00000E+00        -0.48207E+08
 
   -0.48643E+08         0.22036E+07         0.00000E+00
    0.22036E+07        -0.61396E+08         0.00000E+00
    0.00000E+00         0.00000E+00        -0.48166E+08
 
   -0.48374E+08         0.33630E+07         0.00000E+00
    0.33630E+07        -0.61499E+08         0.00000E+00
    0.00000E+00         0.00000E+00        -0.48132E+08
 
   -0.48175E+08         0.46470E+07         0.00000E+00
    0.46470E+07        -0.61579E+08         0.00000E+00
    0.00000E+00         0.00000E+00        -0.48109E+08
 
   -0.48065E+08         0.60352E+07         0.00000E+00
    0.60352E+07        -0.61626E+08         0.00000E+00
    0.00000E+00         0.00000E+00        -0.48096E+08
 
   -0.48068E+08         0.75020E+07         0.00000E+00
    0.75020E+07        -0.61626E+08         0.00000E+00
    0.00000E+00         0.00000E+00        -0.48096E+08
 
   -0.52521E+08        -0.34475E+06         0.00000E+00
   -0.34475E+06        -0.60024E+08         0.00000E+00
    0.00000E+00         0.00000E+00        -0.47334E+08
 
   -0.52322E+08        -0.92453E+06         0.00000E+00
   -0.92453E+06        -0.60113E+08         0.00000E+00
    0.00000E+00         0.00000E+00        -0.47312E+08
 
   -0.51946E+08        -0.13350E+07         0.00000E+00
   -0.13350E+07        -0.60262E+08         0.00000E+00
    0.00000E+00         0.00000E+00        -0.47266E+08
 
   -0.51454E+08        -0.15593E+07         0.00000E+00
   -0.15593E+07        -0.60442E+08         0.00000E+00
    0.00000E+00         0.00000E+00        -0.47204E+08
 
   -0.50893E+08        -0.15905E+07         0.00000E+00
   -0.15905E+07        -0.60636E+08         0.00000E+00
    0.00000E+00         0.00000E+00        -0.47130E+08
 
   -0.50299E+08        -0.14283E+07         0.00000E+00
   -0.14283E+07        -0.60831E+08         0.00000E+00
    0.00000E+00         0.00000E+00        -0.47050E+08
 
   -0.49697E+08        -0.10769E+07         0.00000E+00
   -0.10769E+07        -0.61022E+08         0.00000E+00
    0.00000E+00         0.00000E+00        -0.46967E+08
 
   -0.49106E+08        -0.54292E+06         0.00000E+00
   -0.54292E+06        -0.61204E+08         0.00000E+00
    0.00000E+00         0.00000E+00        -0.46886E+08
 
   -0.48542E+08         0.16571E+06         0.00000E+00
    0.16571E+06        -0.61379E+08         0.00000E+00
    0.00000E+00         0.00000E+00        -0.46807E+08
 
   -0.48017E+08         0.10406E+07         0.00000E+00
    0.10406E+07        -0.61544E+08         0.00000E+00
    0.00000E+00         0.00000E+00        -0.46735E+08
 
   -0.47544E+08         0.20725E+07         0.00000E+00
    0.20725E+07        -0.61699E+08         0.00000E+00
    0.00000E+00         0.00000E+00        -0.46671E+08
 
   -0.47138E+08         0.32512E+07         0.00000E+00
    0.32512E+07        -0.61838E+08         0.00000E+00
    0.00000E+00         0.00000E+00        -0.46618E+08
 
   -0.46819E+08         0.45638E+07         0.00000E+00
    0.45638E+07        -0.61954E+08         0.00000E+00
    0.00000E+00         0.00000E+00        -0.46577E+08
 
   -0.46610E+08         0.59934E+07         0.00000E+00
    0.59934E+07        -0.62034E+08         0.00000E+00
    0.00000E+00         0.00000E+00        -0.46551E+08
 
   -0.46539E+08         0.75184E+07         0.00000E+00
    0.75184E+07        -0.62062E+08         0.00000E+00
    0.00000E+00         0.00000E+00        -0.46543E+08
 
   -0.53225E+08        -0.40003E+06         0.00000E+00
   -0.40003E+06        -0.60027E+08         0.00000E+00
    0.00000E+00         0.00000E+00        -0.46091E+08
 
   -0.52850E+08        -0.10594E+07         0.00000E+00
   -0.10594E+07        -0.60129E+08         0.00000E+00
    0.00000E+00         0.00000E+00        -0.46036E+08
 
   -0.52281E+08        -0.15158E+07         0.00000E+00
   -0.15158E+07        -0.60296E+08         0.00000E+00
    0.00000E+00         0.00000E+00        -0.45955E+08
 
   -0.51589E+08        -0.17618E+07         0.00000E+00
   -0.17618E+07        -0.60498E+08         0.00000E+00
    0.00000E+00         0.00000E+00        -0.45857E+08
 
   -0.50828E+08        -0.17987E+07         0.00000E+00
   -0.17987E+07        -0.60712E+08         0.00000E+00
    0.00000E+00         0.00000E+00        -0.45747E+08
 
   -0.50038E+08        -0.16332E+07         0.00000E+00
   -0.16332E+07        -0.60926E+08         0.00000E+00
    0.00000E+00         0.00000E+00        -0.45632E+08
 
   -0.49249E+08        -0.12746E+07         0.00000E+00
   -0.12746E+07        -0.61135E+08         0.00000E+00
    0.00000E+00         0.00000E+00        -0.45516E+08
 
   -0.48480E+08        -0.73275E+06         0.00000E+00
   -0.73275E+06        -0.61336E+08         0.00000E+00
    0.00000E+00         0.00000E+00        -0.45402E+08
 
   -0.47745E+08        -0.16744E+05         0.00000E+00
   -0.16744E+05        -0.61531E+08         0.00000E+00
    0.00000E+00         0.00000E+00        -0.45293E+08
 
   -0.47058E+08         0.86578E+06         0.00000E+00
    0.86578E+06        -0.61720E+08         0.00000E+00
    0.00000E+00         0.00000E+00        -0.45193E+08
 
   -0.46430E+08         0.19081E+07         0.00000E+00
    0.19081E+07        -0.61903E+08         0.00000E+00
    0.00000E+00         0.00000E+00        -0.45104E+08
 
   -0.45880E+08         0.31036E+07         0.00000E+00
    0.31036E+07        -0.62075E+08         0.00000E+00
    0.00000E+00         0.00000E+00        -0.45028E+08
 
   -0.45428E+08         0.44440E+07         0.00000E+00
    0.44440E+07        -0.62228E+08         0.00000E+00
    0.00000E+00         0.00000E+00        -0.44968E+08
 
   -0.45102E+08         0.59174E+07         0.00000E+00
    0.59174E+07        -0.62346E+08         0.00000E+00
    0.00000E+00         0.00000E+00        -0.44927E+08
 
   -0.44939E+08         0.75068E+07         0.00000E+00
    0.75068E+07        -0.62409E+08         0.00000E+00
    0.00000E+00         0.00000E+00        -0.44907E+08
 
   -0.54035E+08        -0.46157E+06         0.00000E+00
   -0.46157E+06        -0.60029E+08         0.00000E+00
    0.00000E+00         0.00000E+00        -0.44815E+08
 
   -0.53443E+08        -0.12081E+07         0.00000E+00
   -0.12081E+07        -0.60139E+08         0.00000E+00
    0.00000E+00         0.00000E+00        -0.44718E+08
 
   -0.52649E+08        -0.17127E+07         0.00000E+00
   -0.17127E+07        -0.60317E+08         0.00000E+00
    0.00000E+00         0.00000E+00        -0.44595E+08
 
   -0.51735E+08        -0.19792E+07         0.00000E+00
   -0.19792E+07        -0.60528E+08         0.00000E+00
    0.00000E+00         0.00000E+00        -0.44454E+08
 
   -0.50761E+08        -0.20192E+07         0.00000E+00
   -0.20192E+07        -0.60749E+08         0.00000E+00
    0.00000E+00         0.00000E+00        -0.44303E+08
 
   -0.49771E+08        -0.18482E+07         0.00000E+00
   -0.18482E+07        -0.60966E+08         0.00000E+00
    0.00000E+00         0.00000E+00        -0.44148E+08
 
   -0.48794E+08        -0.14819E+07         0.00000E+00
   -0.14819E+07        -0.61175E+08         0.00000E+00
    0.00000E+00         0.00000E+00        -0.43994E+08
 
   -0.47847E+08        -0.93404E+06         0.00000E+00
   -0.93404E+06        -0.61378E+08         0.00000E+00
    0.00000E+00         0.00000E+00        -0.43845E+08
 
   -0.46944E+08        -0.21468E+06         0.00000E+00
   -0.21468E+06        -0.61579E+08         0.00000E+00
    0.00000E+00         0.00000E+00        -0.43704E+08
 
   -0.46093E+08         0.66965E+06         0.00000E+00
    0.66965E+06        -0.61780E+08         0.00000E+00
    0.00000E+00         0.00000E+00        -0.43574E+08
 
   -0.45307E+08         0.17155E+07         0.00000E+00
    0.17155E+07        -0.61984E+08         0.00000E+00
    0.00000E+00         0.00000E+00        -0.43457E+08
 
   -0.44602E+08         0.29212E+07         0.00000E+00
    0.29212E+07        -0.62186E+08         0.00000E+00
    0.00000E+00         0.00000E+00        -0.43357E+08
 
   -0.44003E+08         0.42846E+07         0.00000E+00
    0.42846E+07        -0.62377E+08         0.00000E+00
    0.00000E+00         0.00000E+00        -0.43275E+08
 
   -0.43541E+08         0.58002E+07         0.00000E+00
    0.58002E+07        -0.62539E+08         0.00000E+00
    0.00000E+00         0.00000E+00        -0.43215E+08
 
   -0.43259E+08         0.74570E+07         0.00000E+00
    0.74570E+07        -0.62647E+08         0.00000E+00
    0.00000E+00         0.00000E+00        -0.43180E+08
 
   -0.54959E+08        -0.52725E+06         0.00000E+00
   -0.52725E+06        -0.60031E+08         0.00000E+00
    0.00000E+00         0.00000E+00        -0.43506E+08
 
   -0.54102E+08        -0.13641E+07         0.00000E+00
   -0.13641E+07        -0.60144E+08         0.00000E+00
    0.00000E+00         0.00000E+00        -0.43358E+08
 
   -0.53048E+08        -0.19146E+07         0.00000E+00
   -0.19146E+07        -0.60324E+08         0.00000E+00
    0.00000E+00         0.00000E+00        -0.43183E+08
 
   -0.51889E+08        -0.21965E+07         0.00000E+00
   -0.21965E+07        -0.60530E+08         0.00000E+00
    0.00000E+00         0.00000E+00        -0.42992E+08
 
   -0.50691E+08        -0.22344E+07         0.00000E+00
   -0.22344E+07        -0.60738E+08         0.00000E+00
    0.00000E+00         0.00000E+00        -0.42793E+08
 
   -0.49496E+08        -0.20546E+07         0.00000E+00
   -0.20546E+07        -0.60937E+08         0.00000E+00
    0.00000E+00         0.00000E+00        -0.42594E+08
 
   -0.48332E+08        -0.16804E+07         0.00000E+00
   -0.16804E+07        -0.61127E+08         0.00000E+00
    0.00000E+00         0.00000E+00        -0.42399E+08
 
   -0.47213E+08        -0.11297E+07         0.00000E+00
   -0.11297E+07        -0.61312E+08         0.00000E+00
    0.00000E+00         0.00000E+00        -0.42211E+08
 
   -0.46144E+08        -0.41376E+06         0.00000E+00
   -0.41376E+06        -0.61502E+08         0.00000E+00
    0.00000E+00         0.00000E+00        -0.42035E+08
 
   -0.45132E+08         0.46279E+06         0.00000E+00
    0.46279E+06        -0.61702E+08         0.00000E+00
    0.00000E+00         0.00000E+00        -0.41872E+08
 
   -0.44183E+08         0.15008E+07         0.00000E+00
    0.15008E+07        -0.61918E+08         0.00000E+00
    0.00000E+00         0.00000E+00        -0.41726E+08
 
   -0.43315E+08         0.27051E+07         0.00000E+00
    0.27051E+07        -0.62146E+08         0.00000E+00
    0.00000E+00         0.00000E+00        -0.41597E+08
 
   -0.42550E+08         0.40814E+07         0.00000E+00
    0.40814E+07        -0.62376E+08         0.00000E+00
    0.00000E+00         0.00000E+00        -0.41490E+08
 
   -0.41928E+08         0.56329E+07         0.00000E+00
    0.56329E+07        -0.62589E+08         0.00000E+00
    0.00000E+00         0.00000E+00        -0.41408E+08
 
   -0.41497E+08         0.73561E+07         0.00000E+00
    0.73561E+07        -0.62754E+08         0.00000E+00
    0.00000E+00         0.00000E+00        -0.41355E+08
 
   -0.56001E+08        -0.59481E+06         0.00000E+00
   -0.59481E+06        -0.60031E+08         0.00000E+00
    0.00000E+00         0.00000E+00        -0.42166E+08
 
   -0.54825E+08        -0.15197E+07         0.00000E+00
   -0.15197E+07        -0.60143E+08         0.00000E+00
    0.00000E+00         0.00000E+00        -0.41953E+08
 
   -0.53472E+08        -0.21082E+07         0.00000E+00
   -0.21082E+07        -0.60312E+08         0.00000E+00
    0.00000E+00         0.00000E+00        -0.41716E+08
 
   -0.52044E+08        -0.23955E+07         0.00000E+00
   -0.23955E+07        -0.60495E+08         0.00000E+00
    0.00000E+00         0.00000E+00        -0.41467E+08
 
   -0.50610E+08        -0.24227E+07         0.00000E+00
   -0.24227E+07        -0.60669E+08         0.00000E+00
    0.00000E+00         0.00000E+00        -0.41215E+08
 
   -0.49211E+08        -0.22295E+07         0.00000E+00
   -0.22295E+07        -0.60826E+08         0.00000E+00
    0.00000E+00         0.00000E+00        -0.40966E+08
 
   -0.47867E+08        -0.18478E+07         0.00000E+00
   -0.18478E+07        -0.60972E+08         0.00000E+00
    0.00000E+00         0.00000E+00        -0.40726E+08
 
   -0.46582E+08        -0.12998E+07         0.00000E+00
   -0.12998E+07        -0.61117E+08         0.00000E+00
    0.00000E+00         0.00000E+00        -0.40498E+08
 
   -0.45356E+08        -0.59734E+06         0.00000E+00
   -0.59734E+06        -0.61276E+08         0.00000E+00
    0.00000E+00         0.00000E+00        -0.40284E+08
 
   -0.44186E+08         0.25754E+06         0.00000E+00
    0.25754E+06        -0.61460E+08         0.00000E+00
    0.00000E+00         0.00000E+00        -0.40086E+08
 
   -0.43074E+08         0.12711E+07         0.00000E+00
    0.12711E+07        -0.61677E+08         0.00000E+00
    0.00000E+00         0.00000E+00        -0.39907E+08
 
   -0.42031E+08         0.24563E+07         0.00000E+00
    0.24563E+07        -0.61927E+08         0.00000E+00
    0.00000E+00         0.00000E+00        -0.39748E+08
 
   -0.41082E+08         0.38290E+07         0.00000E+00
    0.38290E+07        -0.62200E+08         0.00000E+00
    0.00000E+00         0.00000E+00        -0.39612E+08
 
   -0.40268E+08         0.54040E+07         0.00000E+00
    0.54040E+07        -0.62473E+08         0.00000E+00
    0.00000E+00         0.00000E+00        -0.39504E+08
 
   -0.39650E+08         0.71884E+07         0.00000E+00
    0.71884E+07        -0.62711E+08         0.00000E+00
    0.00000E+00         0.00000E+00        -0.39428E+08
 
   -0.57161E+08        -0.66180E+06         0.00000E+00
   -0.66180E+06        -0.60030E+08         0.00000E+00
    0.00000E+00         0.00000E+00        -0.40796E+08
 
   -0.55602E+08        -0.16658E+07         0.00000E+00
   -0.16658E+07        -0.60134E+08         0.00000E+00
    0.00000E+00         0.00000E+00        -0.40505E+08
 
   -0.53907E+08        -0.22768E+07         0.00000E+00
   -0.22768E+07        -0.60278E+08         0.00000E+00
    0.00000E+00         0.00000E+00        -0.40194E+08
 
   -0.52187E+08        -0.25532E+07         0.00000E+00
   -0.25532E+07        -0.60416E+08         0.00000E+00
    0.00000E+00         0.00000E+00        -0.39878E+08
 
   -0.50511E+08        -0.25580E+07         0.00000E+00
   -0.25580E+07        -0.60528E+08         0.00000E+00
    0.00000E+00         0.00000E+00        -0.39565E+08
 
   -0.48914E+08        -0.23462E+07         0.00000E+00
   -0.23462E+07        -0.60615E+08         0.00000E+00
    0.00000E+00         0.00000E+00        -0.39262E+08
 
   -0.47401E+08        -0.19590E+07         0.00000E+00
   -0.19590E+07        -0.60689E+08         0.00000E+00
    0.00000E+00         0.00000E+00        -0.38974E+08
 
   -0.45965E+08        -0.14221E+07         0.00000E+00
   -0.14221E+07        -0.60770E+08         0.00000E+00
    0.00000E+00         0.00000E+00        -0.38702E+08
 
   -0.44595E+08        -0.74693E+06         0.00000E+00
   -0.74693E+06        -0.60877E+08         0.00000E+00
    0.00000E+00         0.00000E+00        -0.38449E+08
 
   -0.43275E+08         0.67699E+05         0.00000E+00
    0.67699E+05        -0.61027E+08         0.00000E+00
    0.00000E+00         0.00000E+00        -0.38215E+08
 
   -0.41999E+08         0.10344E+07         0.00000E+00
    0.10344E+07        -0.61234E+08         0.00000E+00
    0.00000E+00         0.00000E+00        -0.38001E+08
 
   -0.40772E+08         0.21756E+07         0.00000E+00
    0.21756E+07        -0.61501E+08         0.00000E+00
    0.00000E+00         0.00000E+00        -0.37809E+08
 
   -0.39615E+08         0.35204E+07         0.00000E+00
    0.35204E+07        -0.61819E+08         0.00000E+00
    0.00000E+00         0.00000E+00        -0.37641E+08
 
   -0.38576E+08         0.50990E+07         0.00000E+00
    0.50990E+07        -0.62165E+08         0.00000E+00
    0.00000E+00         0.00000E+00        -0.37502E+08
 
   -0.37723E+08         0.69338E+07         0.00000E+00
    0.69338E+07        -0.62496E+08         0.00000E+00
    0.00000E+00         0.00000E+00        -0.37397E+08
 
   -0.58431E+08        -0.72557E+06         0.00000E+00
   -0.72557E+06        -0.60028E+08         0.00000E+00
    0.00000E+00         0.00000E+00        -0.39397E+08
 
   -0.56417E+08        -0.17909E+07         0.00000E+00
   -0.17909E+07        -0.60116E+08         0.00000E+00
    0.00000E+00         0.00000E+00        -0.39012E+08
 
   -0.54332E+08        -0.23985E+07         0.00000E+00
   -0.23985E+07        -0.60216E+08         0.00000E+00
    0.00000E+00         0.00000E+00        -0.38614E+08
 
   -0.52301E+08        -0.26406E+07         0.00000E+00
   -0.26406E+07        -0.60279E+08         0.00000E+00
    0.00000E+00         0.00000E+00        -0.38221E+08
 
   -0.50386E+08        -0.26084E+07         0.00000E+00
   -0.26084E+07        -0.60295E+08         0.00000E+00
    0.00000E+00         0.00000E+00        -0.37841E+08
 
   -0.48604E+08        -0.23742E+07         0.00000E+00
   -0.23742E+07        -0.60277E+08         0.00000E+00
    0.00000E+00         0.00000E+00        -0.37480E+08
 
   -0.46942E+08        -0.19868E+07         0.00000E+00
   -0.19868E+07        -0.60250E+08         0.00000E+00
    0.00000E+00         0.00000E+00        -0.37142E+08
 
   -0.45376E+08        -0.14732E+07         0.00000E+00
   -0.14732E+07        -0.60241E+08         0.00000E+00
    0.00000E+00         0.00000E+00        -0.36826E+08
 
   -0.43877E+08        -0.84332E+06         0.00000E+00
   -0.84332E+06        -0.60276E+08         0.00000E+00
    0.00000E+00         0.00000E+00        -0.36533E+08
 
   -0.42421E+08        -0.91969E+05         0.00000E+00
   -0.91969E+05        -0.60376E+08         0.00000E+00
    0.00000E+00         0.00000E+00        -0.36262E+08
 
   -0.40986E+08         0.79970E+06         0.00000E+00
    0.79970E+06        -0.60560E+08         0.00000E+00
    0.00000E+00         0.00000E+00        -0.36011E+08
 
   -0.39567E+08         0.18644E+07         0.00000E+00
    0.18644E+07        -0.60838E+08         0.00000E+00
    0.00000E+00         0.00000E+00        -0.35783E+08
 
   -0.38180E+08         0.31472E+07         0.00000E+00
    0.31472E+07        -0.61206E+08         0.00000E+00
    0.00000E+00         0.00000E+00        -0.35579E+08
 
   -0.36870E+08         0.46996E+07         0.00000E+00
    0.46996E+07        -0.61639E+08         0.00000E+00
    0.00000E+00         0.00000E+00        -0.35403E+08
 
   -0.35723E+08         0.65665E+07         0.00000E+00
    0.65665E+07        -0.62087E+08         0.00000E+00
    0.00000E+00         0.00000E+00        -0.35263E+08
 
   -0.59795E+08        -0.78293E+06         0.00000E+00
   -0.78293E+06        -0.60025E+08         0.00000E+00
    0.00000E+00         0.00000E+00        -0.37972E+08
 
   -0.57237E+08        -0.18781E+07         0.00000E+00
   -0.18781E+07        -0.60084E+08         0.00000E+00
    0.00000E+00         0.00000E+00        -0.37472E+08
 
   -0.54716E+08        -0.24423E+07         0.00000E+00
   -0.24423E+07        -0.60109E+08         0.00000E+00
    0.00000E+00         0.00000E+00        -0.36973E+08
 
   -0.52365E+08        -0.26195E+07         0.00000E+00
   -0.26195E+07        -0.60057E+08         0.00000E+00
    0.00000E+00         0.00000E+00        -0.36492E+08
 
   -0.50227E+08        -0.25366E+07         0.00000E+00
   -0.25366E+07        -0.59935E+08         0.00000E+00
    0.00000E+00         0.00000E+00        -0.36039E+08
 
   -0.48285E+08        -0.22813E+07         0.00000E+00
   -0.22813E+07        -0.59777E+08         0.00000E+00
    0.00000E+00         0.00000E+00        -0.35619E+08
 
   -0.46502E+08        -0.19048E+07         0.00000E+00
   -0.19048E+07        -0.59621E+08         0.00000E+00
    0.00000E+00         0.00000E+00        -0.35231E+08
 
   -0.44830E+08        -0.14319E+07         0.00000E+00
   -0.14319E+07        -0.59501E+08         0.00000E+00
    0.00000E+00         0.00000E+00        -0.34872E+08
 
   -0.43227E+08        -0.86868E+06         0.00000E+00
   -0.86868E+06        -0.59445E+08         0.00000E+00
    0.00000E+00         0.00000E+00        -0.34540E+08
 
   -0.41651E+08        -0.20670E+06         0.00000E+00
   -0.20670E+06        -0.59480E+08         0.00000E+00
    0.00000E+00         0.00000E+00        -0.34231E+08
 
   -0.40069E+08         0.57759E+06         0.00000E+00
    0.57759E+06        -0.59629E+08         0.00000E+00
    0.00000E+00         0.00000E+00        -0.33944E+08
 
   -0.38456E+08         0.15258E+07         0.00000E+00
    0.15258E+07        -0.59909E+08         0.00000E+00
    0.00000E+00         0.00000E+00        -0.33678E+08
 
   -0.36813E+08         0.27005E+07         0.00000E+00
    0.27005E+07        -0.60328E+08         0.00000E+00
    0.00000E+00         0.00000E+00        -0.33433E+08
 
   -0.35182E+08         0.41825E+07         0.00000E+00
    0.41825E+07        -0.60866E+08         0.00000E+00
    0.00000E+00         0.00000E+00        -0.33214E+08
 
   -0.33662E+08         0.60523E+07         0.00000E+00
    0.60523E+07        -0.61464E+08         0.00000E+00
    0.00000E+00         0.00000E+00        -0.33029E+08
 
   -0.61228E+08        -0.82924E+06         0.00000E+00
   -0.82924E+06        -0.60019E+08         0.00000E+00
    0.00000E+00         0.00000E+00        -0.36521E+08
 
   -0.58015E+08        -0.18996E+07         0.00000E+00
   -0.18996E+07        -0.60028E+08         0.00000E+00
    0.00000E+00         0.00000E+00        -0.35880E+08
 
   -0.55016E+08        -0.23606E+07         0.00000E+00
   -0.23606E+07        -0.59929E+08         0.00000E+00
    0.00000E+00         0.00000E+00        -0.35260E+08
 
   -0.52360E+08        -0.24396E+07         0.00000E+00
   -0.24396E+07        -0.59701E+08         0.00000E+00
    0.00000E+00         0.00000E+00        -0.34683E+08
 
   -0.50033E+08        -0.23016E+07         0.00000E+00
   -0.23016E+07        -0.59393E+08         0.00000E+00
    0.00000E+00         0.00000E+00        -0.34156E+08
 
   -0.47970E+08        -0.20381E+07         0.00000E+00
   -0.20381E+07        -0.59063E+08         0.00000E+00
    0.00000E+00         0.00000E+00        -0.33677E+08
 
   -0.46098E+08        -0.16925E+07         0.00000E+00
   -0.16925E+07        -0.58758E+08         0.00000E+00
    0.00000E+00         0.00000E+00        -0.33241E+08
 
   -0.44350E+08        -0.12825E+07         0.00000E+00
   -0.12825E+07        -0.58513E+08         0.00000E+00
    0.00000E+00         0.00000E+00        -0.32842E+08
 
   -0.42667E+08        -0.80978E+06         0.00000E+00
   -0.80978E+06        -0.58357E+08         0.00000E+00
    0.00000E+00         0.00000E+00        -0.32474E+08
 
   -0.40995E+08        -0.26367E+06         0.00000E+00
   -0.26367E+06        -0.58317E+08         0.00000E+00
    0.00000E+00         0.00000E+00        -0.32131E+08
 
   -0.39284E+08         0.38046E+06         0.00000E+00
    0.38046E+06        -0.58419E+08         0.00000E+00
    0.00000E+00         0.00000E+00        -0.31809E+08
 
   -0.37486E+08         0.11673E+07         0.00000E+00
    0.11673E+07        -0.58689E+08         0.00000E+00
    0.00000E+00         0.00000E+00        -0.31503E+08
 
   -0.35573E+08         0.21742E+07         0.00000E+00
    0.21742E+07        -0.59154E+08         0.00000E+00
    0.00000E+00         0.00000E+00        -0.31213E+08
 
   -0.33562E+08         0.35195E+07         0.00000E+00
    0.35195E+07        -0.59812E+08         0.00000E+00
    0.00000E+00         0.00000E+00        -0.30943E+08
 
   -0.31564E+08         0.53441E+07         0.00000E+00
    0.53441E+07        -0.60604E+08         0.00000E+00
    0.00000E+00         0.00000E+00        -0.30702E+08
 
   -0.62679E+08        -0.85455E+06         0.00000E+00
   -0.85455E+06        -0.60005E+08         0.00000E+00
    0.00000E+00         0.00000E+00        -0.35040E+08
 
   -0.58666E+08        -0.17990E+07         0.00000E+00
   -0.17990E+07        -0.59914E+08         0.00000E+00
    0.00000E+00         0.00000E+00        -0.34219E+08
 
   -0.55183E+08        -0.20766E+07         0.00000E+00
   -0.20766E+07        -0.59598E+08         0.00000E+00
    0.00000E+00         0.00000E+00        -0.33459E+08
 
   -0.52277E+08        -0.20411E+07         0.00000E+00
   -0.20411E+07        -0.59117E+08         0.00000E+00
    0.00000E+00         0.00000E+00        -0.32781E+08
 
   -0.49821E+08        -0.18689E+07         0.00000E+00
   -0.18689E+07        -0.58582E+08         0.00000E+00
    0.00000E+00         0.00000E+00        -0.32183E+08
 
   -0.47682E+08        -0.16271E+07         0.00000E+00
   -0.16271E+07        -0.58065E+08         0.00000E+00
    0.00000E+00         0.00000E+00        -0.31652E+08
 
   -0.45756E+08        -0.13418E+07         0.00000E+00
   -0.13418E+07        -0.57609E+08         0.00000E+00
    0.00000E+00         0.00000E+00        -0.31175E+08
 
   -0.43959E+08        -0.10209E+07         0.00000E+00
   -0.10209E+07        -0.57243E+08         0.00000E+00
    0.00000E+00         0.00000E+00        -0.30742E+08
 
   -0.42222E+08        -0.66231E+06         0.00000E+00
   -0.66231E+06        -0.56990E+08         0.00000E+00
    0.00000E+00         0.00000E+00        -0.30344E+08
 
   -0.40480E+08        -0.25537E+06         0.00000E+00
   -0.25537E+06        -0.56874E+08         0.00000E+00
    0.00000E+00         0.00000E+00        -0.29972E+08
 
   -0.38667E+08         0.22094E+06         0.00000E+00
    0.22094E+06        -0.56922E+08         0.00000E+00
    0.00000E+00         0.00000E+00        -0.29619E+08
 
   -0.36712E+08         0.80554E+06         0.00000E+00
    0.80554E+06        -0.57166E+08         0.00000E+00
    0.00000E+00         0.00000E+00        -0.29276E+08
 
   -0.34535E+08         0.15732E+07         0.00000E+00
    0.15732E+07        -0.57654E+08         0.00000E+00
    0.00000E+00         0.00000E+00        -0.28938E+08
 
   -0.32090E+08         0.26807E+07         0.00000E+00
    0.26807E+07        -0.58439E+08         0.00000E+00
    0.00000E+00         0.00000E+00        -0.28606E+08
 
   -0.29469E+08         0.43739E+07         0.00000E+00
    0.43739E+07        -0.59480E+08         0.00000E+00
    0.00000E+00         0.00000E+00        -0.28290E+08
 
   -0.64039E+08        -0.82446E+06         0.00000E+00
   -0.82446E+06        -0.59965E+08         0.00000E+00
    0.00000E+00         0.00000E+00        -0.33512E+08
 
   -0.59068E+08        -0.14423E+07         0.00000E+00
   -0.14423E+07        -0.59622E+08         0.00000E+00
    0.00000E+00         0.00000E+00        -0.32450E+08
 
   -0.55193E+08        -0.14834E+07         0.00000E+00
   -0.14834E+07        -0.58931E+08         0.00000E+00
    0.00000E+00         0.00000E+00        -0.31536E+08
 
   -0.52150E+08        -0.13822E+07         0.00000E+00
   -0.13822E+07        -0.58149E+08         0.00000E+00
    0.00000E+00         0.00000E+00        -0.30771E+08
 
   -0.49631E+08        -0.12309E+07         0.00000E+00
   -0.12309E+07        -0.57391E+08         0.00000E+00
    0.00000E+00         0.00000E+00        -0.30115E+08
 
   -0.47457E+08        -0.10559E+07         0.00000E+00
   -0.10559E+07        -0.56707E+08         0.00000E+00
    0.00000E+00         0.00000E+00        -0.29544E+08
 
   -0.45504E+08        -0.86517E+06         0.00000E+00
   -0.86517E+06        -0.56124E+08         0.00000E+00
    0.00000E+00         0.00000E+00        -0.29036E+08
 
   -0.43682E+08        -0.65942E+06         0.00000E+00
   -0.65942E+06        -0.55659E+08         0.00000E+00
    0.00000E+00         0.00000E+00        -0.28579E+08
 
   -0.41913E+08        -0.43507E+06         0.00000E+00
   -0.43507E+06        -0.55328E+08         0.00000E+00
    0.00000E+00         0.00000E+00        -0.28159E+08
 
   -0.40127E+08        -0.18442E+06         0.00000E+00
   -0.18442E+06        -0.55149E+08         0.00000E+00
    0.00000E+00         0.00000E+00        -0.27766E+08
 
   -0.38245E+08         0.10634E+06         0.00000E+00
    0.10634E+06        -0.55146E+08         0.00000E+00
    0.00000E+00         0.00000E+00        -0.27389E+08
 
   -0.36177E+08         0.46250E+06         0.00000E+00
    0.46250E+06        -0.55355E+08         0.00000E+00
    0.00000E+00         0.00000E+00        -0.27017E+08
 
   -0.33797E+08         0.93525E+06         0.00000E+00
    0.93525E+06        -0.55835E+08         0.00000E+00
    0.00000E+00         0.00000E+00        -0.26636E+08
 
   -0.30907E+08         0.16521E+07         0.00000E+00
    0.16521E+07        -0.56688E+08         0.00000E+00
    0.00000E+00         0.00000E+00        -0.26229E+08
 
   -0.27457E+08         0.30288E+07         0.00000E+00
    0.30288E+07        -0.58058E+08         0.00000E+00
    0.00000E+00         0.00000E+00        -0.25813E+08
 
   -0.65018E+08        -0.51400E+06         0.00000E+00
   -0.51400E+06        -0.59627E+08         0.00000E+00
    0.00000E+00         0.00000E+00        -0.31835E+08
 
   -0.59132E+08        -0.59401E+06         0.00000E+00
   -0.59401E+06        -0.58678E+08         0.00000E+00
    0.00000E+00         0.00000E+00        -0.30468E+08
 
   -0.55139E+08        -0.54766E+06         0.00000E+00
   -0.54766E+06        -0.57609E+08         0.00000E+00
    0.00000E+00         0.00000E+00        -0.29455E+08
 
   -0.52052E+08        -0.49244E+06         0.00000E+00
   -0.49244E+06        -0.56603E+08         0.00000E+00
    0.00000E+00         0.00000E+00        -0.28636E+08
 
   -0.49516E+08        -0.43107E+06         0.00000E+00
   -0.43107E+06        -0.55700E+08         0.00000E+00
    0.00000E+00         0.00000E+00        -0.27948E+08
 
   -0.47331E+08        -0.36657E+06         0.00000E+00
   -0.36657E+06        -0.54915E+08         0.00000E+00
    0.00000E+00         0.00000E+00        -0.27355E+08
 
   -0.45370E+08        -0.29919E+06         0.00000E+00
   -0.29919E+06        -0.54259E+08         0.00000E+00
    0.00000E+00         0.00000E+00        -0.26831E+08
 
   -0.43538E+08        -0.22816E+06         0.00000E+00
   -0.22816E+06        -0.53739E+08         0.00000E+00
    0.00000E+00         0.00000E+00        -0.26360E+08
 
   -0.41755E+08        -0.15177E+06         0.00000E+00
   -0.15177E+06        -0.53364E+08         0.00000E+00
    0.00000E+00         0.00000E+00        -0.25929E+08
 
   -0.39947E+08        -0.67187E+05         0.00000E+00
   -0.67187E+05        -0.53149E+08         0.00000E+00
    0.00000E+00         0.00000E+00        -0.25524E+08
 
   -0.38033E+08         0.30313E+05         0.00000E+00
    0.30313E+05        -0.53115E+08         0.00000E+00
    0.00000E+00         0.00000E+00        -0.25135E+08
 
   -0.35907E+08         0.14917E+06         0.00000E+00
    0.14917E+06        -0.53297E+08         0.00000E+00
    0.00000E+00         0.00000E+00        -0.24746E+08
 
   -0.33417E+08         0.30737E+06         0.00000E+00
    0.30737E+06        -0.53755E+08         0.00000E+00
    0.00000E+00         0.00000E+00        -0.24339E+08
 
   -0.30284E+08         0.54527E+06         0.00000E+00
    0.54527E+06        -0.54607E+08         0.00000E+00
    0.00000E+00         0.00000E+00        -0.23883E+08
 
   -0.25725E+08         0.11222E+07         0.00000E+00
    0.11222E+07        -0.56187E+08         0.00000E+00
    0.00000E+00         0.00000E+00        -0.23287E+08
 
SCALARS stressS double 
LOOKUP_TABLE default
  -55626975.5587022     
  -58171436.2790952     
  -60373017.1942646     
  -62005501.1428725     
  -63345848.4166514     
  -64490499.4459583     
  -65494873.8311652     
  -66395641.0231956     
  -67220495.8376113     
  -67993065.3269393     
  -68736495.8468362     
  -69477356.0965967     
  -70252534.7606000     
  -71123372.7333047     
  -72269162.0781570     
  -56129540.6735008     
  -57660807.5357452     
  -59315660.3178479     
  -60794763.7406504     
  -62054194.8599791     
  -63149875.7896339     
  -64120270.8850982     
  -64994864.2890736     
  -65797213.4770155     
  -66547857.9077409     
  -67266608.7150638     
  -67974977.4843507     
  -68698298.7277118     
  -69473175.9966568     
  -70262601.5995123     
  -55828154.3478678     
  -57250191.2741473     
  -58568553.9627927     
  -59816032.9127115     
  -60944931.1920456     
  -61954368.9533922     
  -62862814.4698373     
  -63688675.3780644     
  -64448809.7086828     
  -65158540.8013220     
  -65832234.2698970     
  -66483429.1479591     
  -67124246.9425554     
  -67751144.4315053     
  -68341886.0581362     
  -55737416.4605559     
  -56860036.5975762     
  -57963677.3582207     
  -59012083.7241822     
  -59993204.1107114     
  -60896476.1446939     
  -61724213.1321597     
  -62484709.8887345     
  -63187580.3729012     
  -63842257.5883916     
  -64457113.6949400     
  -65038378.5112108     
  -65586651.8503217     
  -66093546.8100729     
  -66536779.6549686     
  -55673253.7143666     
  -56557152.3771461     
  -57453140.4832978     
  -58331774.6587312     
  -59172006.0687929     
  -59963211.3109492     
  -60700929.7472394     
  -61386035.9423150     
  -62022019.1770044     
  -62612959.8997540     
  -63162083.9329839     
  -63670079.6602100     
  -64133179.3744878     
  -64540843.4283658     
  -64874727.0764448     
  -55614860.0559186     
  -56299708.0384830     
  -57020522.5112586     
  -57746903.9644067     
  -58458058.4838680     
  -59140298.3203056     
  -59785983.4710894     
  -60391583.7854197     
  -60956137.5951772     
  -61479615.1031690     
  -61961437.2049364     
  -62399079.5178329     
  -62786660.9891486     
  -63113830.3178416     
  -63365216.0998158     
  -55542216.9286009     
  -56069019.1241025     
  -56643536.2461252     
  -57238449.2346327     
  -57833320.5527719     
  -58413785.2692680     
  -58970249.5346762     
  -59496691.7576337     
  -59989337.0034951     
  -60445406.2990098     
  -60861913.4139417     
  -61234552.4993057     
  -61556743.4371649     
  -61818940.7967461     
  -62008391.1451976     
  -55447552.8941274     
  -55851129.6012153     
  -56306591.8634770     
  -56789961.9715770     
  -57282545.2752177     
  -57770311.9685010     
  -58243102.5323249     
  -58693677.0277737     
  -59116742.2800661     
  -59507973.0706687     
  -59863088.6311306     
  -60177024.1586319     
  -60443257.3644288     
  -60653369.1355872     
  -60796905.6244367     
  -55327406.5842844     
  -55637345.0752272     
  -55997610.6592911     
  -56387920.6523467     
  -56791915.0706488     
  -57196796.5453003     
  -57592775.5567828     
  -57972406.7847876     
  -58329865.1765465     
  -58660219.8897895     
  -58958746.5953076     
  -59220324.9139570     
  -59438968.6937528     
  -59607537.1021936     
  -59717664.4577584     
  -55181323.5879459     
  -55422024.1764797     
  -55707339.8974885     
  -56020804.9471116     
  -56348798.4840747     
  -56680326.4716207     
  -57006664.2243042     
  -57320898.6226188     
  -57617417.6289738     
  -57891388.2466339     
  -58138263.8941345     
  -58353359.2556556     
  -58531529.9984486     
  -58666990.5375084     
  -58753293.4838302     
  -55010841.5343627     
  -55201721.3531473     
  -55428539.9603340     
  -55678700.0919414     
  -55941548.2961890     
  -56208271.6517077     
  -56471684.2736483     
  -56725933.0499086     
  -56966155.4915662     
  -57188124.0595543     
  -57387909.7274031     
  -57561596.1895497     
  -57705073.4535319     
  -57813935.3458409     
  -57883498.8091561     
  -54818979.4936000     
  -54974620.5763426     
  -55155552.5242549     
  -55353022.4638949     
  -55559456.0878247     
  -55768446.5206009     
  -55974654.5589465     
  -56173642.2221693     
  -56361665.0379561     
  -56535449.3984715     
  -56691980.9838605     
  -56828328.7498654     
  -56941526.7035910     
  -57028532.3308757     
  -57086276.2253489     
  -54609864.3625662     
  -54740185.4877561     
  -54884020.5740234     
  -55036370.4397309     
  -55192757.3232381     
  -55349288.9861333     
  -55502649.2707023     
  -55650033.3685968     
  -55789047.4827225     
  -55917593.0377422     
  -56033755.1002879     
  -56135713.5122010     
  -56221693.4809632     
  -56289970.1160238     
  -56338938.8053356     
  -54388428.7484846     
  -54498894.3430405     
  -54610690.0146905     
  -54722421.4912769     
  -54832649.4402775     
  -54940012.6862743     
  -55043290.4926993     
  -55141419.3446651     
  -55233479.5080110     
  -55318666.1571968     
  -55396259.0883629     
  -55465604.0240719     
  -55526117.3507278     
  -55577324.8531633     
  -55618943.7211353     
  -54160140.8200229     
  -54252010.3364286     
  -54333236.2195188     
  -54405835.1783691     
  -54471288.8076429     
  -54530710.5241619     
  -54584964.0270818     
  -54634746.1712245     
  -54680645.4934480     
  -54723186.1609798     
  -54762865.9040018     
  -54800195.5977732     
  -54835747.5551671     
  -54870219.2310016     
  -54904518.8695162     
  -53930753.4829091     
  -54001361.7959432     
  -54050088.4582579     
  -54082137.1841602     
  -54101748.9744993     
  -54112398.1498112     
  -54116954.1214824     
  -54117819.1800121     
  -54117049.3281079     
  -54116462.6092768     
  -54117737.7081194     
  -54122504.8371436     
  -54132430.9498460     
  -54149301.9372786     
  -54175105.4544659     
  -53706067.7348477     
  -53749121.5948379     
  -53760238.8388856     
  -53747572.5244099     
  -53717932.1493029     
  -53676994.8832060     
  -53629500.4817978     
  -53579437.2629491     
  -53530221.1727185     
  -53484866.0836563     
  -53446141.3520742     
  -53416712.1950254     
  -53399259.3092799     
  -53396575.9683401     
  -53411643.2166494     
  -53491708.0579716     
  -53497580.6220421     
  -53463028.9600910     
  -53398921.8066063     
  -53314430.9054974     
  -53217243.8580433     
  -53113785.1248814     
  -53009448.8244175     
  -52908838.6307477     
  -52816004.6678836     
  -52734664.9661680     
  -52668399.2652395     
  -52620805.0249020     
  -52595608.8742575     
  -52596730.9068980     
  -53292908.2958434     
  -53248910.8907386     
  -53157907.9934196     
  -53033274.7619108     
  -52886337.3767308     
  -52726573.6957924     
  -52561857.5611799     
  -52398744.4390376     
  -52242783.5309479     
  -52098834.6722894     
  -51971366.5713901     
  -51864714.6403438     
  -51783280.4961516     
  -51731660.4918162     
  -51714697.1150950     
  -53114306.1056092     
  -53004910.9332239     
  -52844151.5583255     
  -52647750.6737868     
  -52428993.3385682     
  -52198901.3826953     
  -51966505.4532946     
  -51739200.9365870     
  -51523156.0215474     
  -51323733.2793664     
  -51145887.0710729     
  -50994503.8134944     
  -50874658.1091657     
  -50791764.9176955     
  -50751617.0038883     
  -52959742.7168950     
  -52766719.1467123     
  -52520520.9350690     
  -52239145.5591119     
  -51937666.8661476     
  -51628371.0865968     
  -51321075.3998098     
  -51023590.8249139     
  -50742267.9474657     
  -50482561.8613100     
  -50249561.7631275     
  -50048440.8301090     
  -49884789.7964667     
  -49764804.6116675     
  -49695309.9953638     
  -52832061.1164257     
  -52534467.0805251     
  -52184824.1631600     
  -51803469.4886279     
  -51407129.8166771     
  -51009017.7320363     
  -50619246.5074498     
  -50245470.9591650     
  -49893638.3215397     
  -49568750.4178289     
  -49275567.4122898     
  -49019203.5219116     
  -48805569.3880693     
  -48641617.1572291     
  -48535352.9126136     
  -52732886.7716457     
  -52306817.5250997     
  -51833307.9194062     
  -51335310.9474007     
  -50831095.8258026     
  -50334340.1631775     
  -49854760.9570488     
  -49399066.7560951     
  -48972015.3453875     
  -48577435.3726702     
  -48219146.3583077     
  -47901741.6252002     
  -47631190.2021538     
  -47415181.7377863     
  -47263143.5538358     
  -52662352.5957190     
  -52080276.0905693     
  -51459747.1785389     
  -50826923.3870578     
  -50201464.4118361     
  -49596774.1155299     
  -49021126.7174467     
  -48479175.0558800     
  -47973449.7567634     
  -47505682.5984798     
  -47077952.9043434     
  -46693701.2719007     
  -46358568.8736789     
  -46080949.3060997     
  -45872052.5174879     
  -52618677.1825242     
  -51848037.0687545     
  -51053978.4932034     
  -50266866.0368170     
  -49507317.7833718     
  -48787089.0144158     
  -48111338.5687714     
  -47481120.2218839     
  -46895438.9899541     
  -46352812.7258252     
  -45852569.8644153     
  -45396086.9758601     
  -44988052.8617025     
  -44637415.9639069     
  -44357715.5820485     
  -52597346.4073751     
  -51597825.0207868     
  -50599365.2093838     
  -49637959.1717589     
  -48733687.2722970     
  -47893831.3815639     
  -47117731.1908798     
  -46400811.4341565     
  -45737128.9467708     
  -45120813.6631141     
  -44547198.3577866     
  -44014300.2604124     
  -43524592.0911692     
  -43087166.2223394     
  -42718539.4968350     
  -52589265.6552183     
  -51307285.3934298     
  -50068193.9939163     
  -48914354.1390176     
  -47860381.9461523     
  -46903194.8360356     
  -46032145.2907272     
  -45234952.6758860     
  -44499522.7805064     
  -43814653.0645151     
  -43170516.3229784     
  -42559565.3198067     
  -41979939.0391466     
  -41438724.3246832     
  -40956723.0994146     
  -52574850.6217350     
  -50933235.8294465     
  -49413054.8510425     
  -48058245.0504948     
  -46862299.3526970     
  -45799812.0285548     
  -44846631.5932418     
  -43981436.6994545     
  -43185576.1315077     
  -42442265.1166096     
  -41735818.9281966     
  -41051446.0954885     
  -40375813.4464550     
  -39711467.0418430     
  -39079772.4043023     
  -52505461.2298005     
  -50379974.6480926     
  -48553533.7190955     
  -47023122.5060363     
  -45712287.9018984     
  -44569027.4680895     
  -43554773.4276304     
  -42639898.5316250     
  -41800089.9346298     
  -41013802.1166107     
  -40260100.4203502     
  -39516306.0517326     
  -38755926.5799073     
  -37941203.1491152     
  -37109394.9923989     
  -52160037.2146090     
  -49425958.1470862     
  -47400925.9066883     
  -45763600.4632785     
  -44387823.2949097     
  -43200389.3386859     
  -42153463.8144905     
  -41212325.3670142     
  -40349352.8155730     
  -39540240.1209634     
  -38760857.4487895     
  -37983529.5130236     
  -37170204.4797929     
  -36258321.5541298     
  -35066363.0095701     
SCALARS 2waySource double 
LOOKUP_TABLE default
  0.000000000000000E+000
  0.000000000000000E+000
  0.000000000000000E+000
  0.000000000000000E+000
  0.000000000000000E+000
  0.000000000000000E+000
  0.000000000000000E+000
  0.000000000000000E+000
  0.000000000000000E+000
  0.000000000000000E+000
  0.000000000000000E+000
  0.000000000000000E+000
  0.000000000000000E+000
  0.000000000000000E+000
  0.000000000000000E+000
  0.000000000000000E+000
  0.000000000000000E+000
  0.000000000000000E+000
  0.000000000000000E+000
  0.000000000000000E+000
  0.000000000000000E+000
  0.000000000000000E+000
  0.000000000000000E+000
  0.000000000000000E+000
  0.000000000000000E+000
  0.000000000000000E+000
  0.000000000000000E+000
  0.000000000000000E+000
  0.000000000000000E+000
  0.000000000000000E+000
  0.000000000000000E+000
  0.000000000000000E+000
  0.000000000000000E+000
  0.000000000000000E+000
  0.000000000000000E+000
  0.000000000000000E+000
  0.000000000000000E+000
  0.000000000000000E+000
  0.000000000000000E+000
  0.000000000000000E+000
  0.000000000000000E+000
  0.000000000000000E+000
  0.000000000000000E+000
  0.000000000000000E+000
  0.000000000000000E+000
  0.000000000000000E+000
  0.000000000000000E+000
  0.000000000000000E+000
  0.000000000000000E+000
  0.000000000000000E+000
  0.000000000000000E+000
  0.000000000000000E+000
  0.000000000000000E+000
  0.000000000000000E+000
  0.000000000000000E+000
  0.000000000000000E+000
  0.000000000000000E+000
  0.000000000000000E+000
  0.000000000000000E+000
  0.000000000000000E+000
  0.000000000000000E+000
  0.000000000000000E+000
  0.000000000000000E+000
  0.000000000000000E+000
  0.000000000000000E+000
  0.000000000000000E+000
  0.000000000000000E+000
  0.000000000000000E+000
  0.000000000000000E+000
  0.000000000000000E+000
  0.000000000000000E+000
  0.000000000000000E+000
  0.000000000000000E+000
  0.000000000000000E+000
  0.000000000000000E+000
  0.000000000000000E+000
  0.000000000000000E+000
  0.000000000000000E+000
  0.000000000000000E+000
  0.000000000000000E+000
  0.000000000000000E+000
  0.000000000000000E+000
  0.000000000000000E+000
  0.000000000000000E+000
  0.000000000000000E+000
  0.000000000000000E+000
  0.000000000000000E+000
  0.000000000000000E+000
  0.000000000000000E+000
  0.000000000000000E+000
  0.000000000000000E+000
  0.000000000000000E+000
  0.000000000000000E+000
  0.000000000000000E+000
  0.000000000000000E+000
  0.000000000000000E+000
  0.000000000000000E+000
  0.000000000000000E+000
  0.000000000000000E+000
  0.000000000000000E+000
  0.000000000000000E+000
  0.000000000000000E+000
  0.000000000000000E+000
  0.000000000000000E+000
  0.000000000000000E+000
  0.000000000000000E+000
  0.000000000000000E+000
  0.000000000000000E+000
  0.000000000000000E+000
  0.000000000000000E+000
  0.000000000000000E+000
  0.000000000000000E+000
  0.000000000000000E+000
  0.000000000000000E+000
  0.000000000000000E+000
  0.000000000000000E+000
  0.000000000000000E+000
  0.000000000000000E+000
  0.000000000000000E+000
  0.000000000000000E+000
  0.000000000000000E+000
  0.000000000000000E+000
  0.000000000000000E+000
  0.000000000000000E+000
  0.000000000000000E+000
  0.000000000000000E+000
  0.000000000000000E+000
  0.000000000000000E+000
  0.000000000000000E+000
  0.000000000000000E+000
  0.000000000000000E+000
  0.000000000000000E+000
  0.000000000000000E+000
  0.000000000000000E+000
  0.000000000000000E+000
  0.000000000000000E+000
  0.000000000000000E+000
  0.000000000000000E+000
  0.000000000000000E+000
  0.000000000000000E+000
  0.000000000000000E+000
  0.000000000000000E+000
  0.000000000000000E+000
  0.000000000000000E+000
  0.000000000000000E+000
  0.000000000000000E+000
  0.000000000000000E+000
  0.000000000000000E+000
  0.000000000000000E+000
  0.000000000000000E+000
  0.000000000000000E+000
  0.000000000000000E+000
  0.000000000000000E+000
  0.000000000000000E+000
  0.000000000000000E+000
  0.000000000000000E+000
  0.000000000000000E+000
  0.000000000000000E+000
  0.000000000000000E+000
  0.000000000000000E+000
  0.000000000000000E+000
  0.000000000000000E+000
  0.000000000000000E+000
  0.000000000000000E+000
  0.000000000000000E+000
  0.000000000000000E+000
  0.000000000000000E+000
  0.000000000000000E+000
  0.000000000000000E+000
  0.000000000000000E+000
  0.000000000000000E+000
  0.000000000000000E+000
  0.000000000000000E+000
  0.000000000000000E+000
  0.000000000000000E+000
  0.000000000000000E+000
  0.000000000000000E+000
  0.000000000000000E+000
  0.000000000000000E+000
  0.000000000000000E+000
  0.000000000000000E+000
  0.000000000000000E+000
  0.000000000000000E+000
  0.000000000000000E+000
  0.000000000000000E+000
  0.000000000000000E+000
  0.000000000000000E+000
  0.000000000000000E+000
  0.000000000000000E+000
  0.000000000000000E+000
  0.000000000000000E+000
  0.000000000000000E+000
  0.000000000000000E+000
  0.000000000000000E+000
  0.000000000000000E+000
  0.000000000000000E+000
  0.000000000000000E+000
  0.000000000000000E+000
  0.000000000000000E+000
  0.000000000000000E+000
  0.000000000000000E+000
  0.000000000000000E+000
  0.000000000000000E+000
  0.000000000000000E+000
  0.000000000000000E+000
  0.000000000000000E+000
  0.000000000000000E+000
  0.000000000000000E+000
  0.000000000000000E+000
  0.000000000000000E+000
  0.000000000000000E+000
  0.000000000000000E+000
  0.000000000000000E+000
  0.000000000000000E+000
  0.000000000000000E+000
  0.000000000000000E+000
  0.000000000000000E+000
  0.000000000000000E+000
  0.000000000000000E+000
  0.000000000000000E+000
  0.000000000000000E+000
  0.000000000000000E+000
  0.000000000000000E+000
  0.000000000000000E+000
  0.000000000000000E+000
  0.000000000000000E+000
  0.000000000000000E+000
  0.000000000000000E+000
  0.000000000000000E+000
  0.000000000000000E+000
  0.000000000000000E+000
  0.000000000000000E+000
  0.000000000000000E+000
  0.000000000000000E+000
  0.000000000000000E+000
  0.000000000000000E+000
  0.000000000000000E+000
  0.000000000000000E+000
  0.000000000000000E+000
  0.000000000000000E+000
  0.000000000000000E+000
  0.000000000000000E+000
  0.000000000000000E+000
  0.000000000000000E+000
  0.000000000000000E+000
  0.000000000000000E+000
  0.000000000000000E+000
  0.000000000000000E+000
  0.000000000000000E+000
  0.000000000000000E+000
  0.000000000000000E+000
  0.000000000000000E+000
  0.000000000000000E+000
  0.000000000000000E+000
  0.000000000000000E+000
  0.000000000000000E+000
  0.000000000000000E+000
  0.000000000000000E+000
  0.000000000000000E+000
  0.000000000000000E+000
  0.000000000000000E+000
  0.000000000000000E+000
  0.000000000000000E+000
  0.000000000000000E+000
  0.000000000000000E+000
  0.000000000000000E+000
  0.000000000000000E+000
  0.000000000000000E+000
  0.000000000000000E+000
  0.000000000000000E+000
  0.000000000000000E+000
  0.000000000000000E+000
  0.000000000000000E+000
  0.000000000000000E+000
  0.000000000000000E+000
  0.000000000000000E+000
  0.000000000000000E+000
  0.000000000000000E+000
  0.000000000000000E+000
  0.000000000000000E+000
  0.000000000000000E+000
  0.000000000000000E+000
  0.000000000000000E+000
  0.000000000000000E+000
  0.000000000000000E+000
  0.000000000000000E+000
  0.000000000000000E+000
  0.000000000000000E+000
  0.000000000000000E+000
  0.000000000000000E+000
  0.000000000000000E+000
  0.000000000000000E+000
  0.000000000000000E+000
  0.000000000000000E+000
  0.000000000000000E+000
  0.000000000000000E+000
  0.000000000000000E+000
  0.000000000000000E+000
  0.000000000000000E+000
  0.000000000000000E+000
  0.000000000000000E+000
  0.000000000000000E+000
  0.000000000000000E+000
  0.000000000000000E+000
  0.000000000000000E+000
  0.000000000000000E+000
  0.000000000000000E+000
  0.000000000000000E+000
  0.000000000000000E+000
  0.000000000000000E+000
  0.000000000000000E+000
  0.000000000000000E+000
  0.000000000000000E+000
  0.000000000000000E+000
  0.000000000000000E+000
  0.000000000000000E+000
  0.000000000000000E+000
  0.000000000000000E+000
  0.000000000000000E+000
  0.000000000000000E+000
  0.000000000000000E+000
  0.000000000000000E+000
  0.000000000000000E+000
  0.000000000000000E+000
  0.000000000000000E+000
  0.000000000000000E+000
  0.000000000000000E+000
  0.000000000000000E+000
  0.000000000000000E+000
  0.000000000000000E+000
  0.000000000000000E+000
  0.000000000000000E+000
  0.000000000000000E+000
  0.000000000000000E+000
  0.000000000000000E+000
  0.000000000000000E+000
  0.000000000000000E+000
  0.000000000000000E+000
  0.000000000000000E+000
  0.000000000000000E+000
  0.000000000000000E+000
  0.000000000000000E+000
  0.000000000000000E+000
  0.000000000000000E+000
  0.000000000000000E+000
  0.000000000000000E+000
  0.000000000000000E+000
  0.000000000000000E+000
  0.000000000000000E+000
  0.000000000000000E+000
  0.000000000000000E+000
  0.000000000000000E+000
  0.000000000000000E+000
  0.000000000000000E+000
  0.000000000000000E+000
  0.000000000000000E+000
  0.000000000000000E+000
  0.000000000000000E+000
  0.000000000000000E+000
  0.000000000000000E+000
  0.000000000000000E+000
  0.000000000000000E+000
  0.000000000000000E+000
  0.000000000000000E+000
  0.000000000000000E+000
  0.000000000000000E+000
  0.000000000000000E+000
  0.000000000000000E+000
  0.000000000000000E+000
  0.000000000000000E+000
  0.000000000000000E+000
  0.000000000000000E+000
  0.000000000000000E+000
  0.000000000000000E+000
  0.000000000000000E+000
  0.000000000000000E+000
  0.000000000000000E+000
  0.000000000000000E+000
  0.000000000000000E+000
  0.000000000000000E+000
  0.000000000000000E+000
  0.000000000000000E+000
  0.000000000000000E+000
  0.000000000000000E+000
  0.000000000000000E+000
  0.000000000000000E+000
  0.000000000000000E+000
  0.000000000000000E+000
  0.000000000000000E+000
  0.000000000000000E+000
  0.000000000000000E+000
  0.000000000000000E+000
  0.000000000000000E+000
  0.000000000000000E+000
  0.000000000000000E+000
  0.000000000000000E+000
  0.000000000000000E+000
  0.000000000000000E+000
  0.000000000000000E+000
  0.000000000000000E+000
  0.000000000000000E+000
  0.000000000000000E+000
  0.000000000000000E+000
  0.000000000000000E+000
  0.000000000000000E+000
  0.000000000000000E+000
  0.000000000000000E+000
  0.000000000000000E+000
  0.000000000000000E+000
  0.000000000000000E+000
  0.000000000000000E+000
  0.000000000000000E+000
  0.000000000000000E+000
  0.000000000000000E+000
  0.000000000000000E+000
  0.000000000000000E+000
  0.000000000000000E+000
  0.000000000000000E+000
  0.000000000000000E+000
  0.000000000000000E+000
  0.000000000000000E+000
  0.000000000000000E+000
  0.000000000000000E+000
  0.000000000000000E+000
  0.000000000000000E+000
  0.000000000000000E+000
  0.000000000000000E+000
  0.000000000000000E+000
  0.000000000000000E+000
  0.000000000000000E+000
  0.000000000000000E+000
  0.000000000000000E+000
  0.000000000000000E+000
  0.000000000000000E+000
  0.000000000000000E+000
  0.000000000000000E+000
  0.000000000000000E+000
  0.000000000000000E+000
  0.000000000000000E+000
  0.000000000000000E+000
  0.000000000000000E+000
  0.000000000000000E+000
  0.000000000000000E+000
  0.000000000000000E+000
  0.000000000000000E+000
  0.000000000000000E+000
  0.000000000000000E+000
  0.000000000000000E+000
  0.000000000000000E+000
  0.000000000000000E+000
SCALARS poroP double 
LOOKUP_TABLE default
  4.764269657097791E-006
  0.000000000000000E+000
  0.000000000000000E+000
  0.000000000000000E+000
  0.000000000000000E+000
  0.000000000000000E+000
  0.000000000000000E+000
  0.000000000000000E+000
  0.000000000000000E+000
  0.000000000000000E+000
  0.000000000000000E+000
  0.000000000000000E+000
  0.000000000000000E+000
  0.000000000000000E+000
  0.000000000000000E+000
  1.129319219895866E-008
  0.000000000000000E+000
  0.000000000000000E+000
  0.000000000000000E+000
  0.000000000000000E+000
  0.000000000000000E+000
  0.000000000000000E+000
  0.000000000000000E+000
  0.000000000000000E+000
  0.000000000000000E+000
  0.000000000000000E+000
  0.000000000000000E+000
  0.000000000000000E+000
  0.000000000000000E+000
  0.000000000000000E+000
  0.000000000000000E+000
  0.000000000000000E+000
  0.000000000000000E+000
  0.000000000000000E+000
  0.000000000000000E+000
  0.000000000000000E+000
  0.000000000000000E+000
  0.000000000000000E+000
  0.000000000000000E+000
  0.000000000000000E+000
  0.000000000000000E+000
  0.000000000000000E+000
  0.000000000000000E+000
  0.000000000000000E+000
  0.000000000000000E+000
  0.000000000000000E+000
  0.000000000000000E+000
  0.000000000000000E+000
  0.000000000000000E+000
  0.000000000000000E+000
  0.000000000000000E+000
  0.000000000000000E+000
  0.000000000000000E+000
  0.000000000000000E+000
  0.000000000000000E+000
  0.000000000000000E+000
  0.000000000000000E+000
  0.000000000000000E+000
  0.000000000000000E+000
  0.000000000000000E+000
  0.000000000000000E+000
  0.000000000000000E+000
  0.000000000000000E+000
  0.000000000000000E+000
  0.000000000000000E+000
  0.000000000000000E+000
  0.000000000000000E+000
  0.000000000000000E+000
  0.000000000000000E+000
  0.000000000000000E+000
  0.000000000000000E+000
  0.000000000000000E+000
  0.000000000000000E+000
  0.000000000000000E+000
  0.000000000000000E+000
  0.000000000000000E+000
  0.000000000000000E+000
  0.000000000000000E+000
  0.000000000000000E+000
  0.000000000000000E+000
  0.000000000000000E+000
  0.000000000000000E+000
  0.000000000000000E+000
  0.000000000000000E+000
  0.000000000000000E+000
  0.000000000000000E+000
  0.000000000000000E+000
  0.000000000000000E+000
  0.000000000000000E+000
  0.000000000000000E+000
  0.000000000000000E+000
  0.000000000000000E+000
  0.000000000000000E+000
  0.000000000000000E+000
  0.000000000000000E+000
  0.000000000000000E+000
  0.000000000000000E+000
  0.000000000000000E+000
  0.000000000000000E+000
  0.000000000000000E+000
  0.000000000000000E+000
  0.000000000000000E+000
  0.000000000000000E+000
  0.000000000000000E+000
  0.000000000000000E+000
  0.000000000000000E+000
  0.000000000000000E+000
  0.000000000000000E+000
  0.000000000000000E+000
  0.000000000000000E+000
  0.000000000000000E+000
  0.000000000000000E+000
  0.000000000000000E+000
  0.000000000000000E+000
  0.000000000000000E+000
  0.000000000000000E+000
  0.000000000000000E+000
  0.000000000000000E+000
  0.000000000000000E+000
  0.000000000000000E+000
  0.000000000000000E+000
  0.000000000000000E+000
  0.000000000000000E+000
  0.000000000000000E+000
  0.000000000000000E+000
  0.000000000000000E+000
  0.000000000000000E+000
  0.000000000000000E+000
  0.000000000000000E+000
  0.000000000000000E+000
  0.000000000000000E+000
  0.000000000000000E+000
  0.000000000000000E+000
  0.000000000000000E+000
  0.000000000000000E+000
  0.000000000000000E+000
  0.000000000000000E+000
  0.000000000000000E+000
  0.000000000000000E+000
  0.000000000000000E+000
  0.000000000000000E+000
  0.000000000000000E+000
  0.000000000000000E+000
  0.000000000000000E+000
  0.000000000000000E+000
  0.000000000000000E+000
  0.000000000000000E+000
  0.000000000000000E+000
  0.000000000000000E+000
  0.000000000000000E+000
  0.000000000000000E+000
  0.000000000000000E+000
  0.000000000000000E+000
  0.000000000000000E+000
  0.000000000000000E+000
  0.000000000000000E+000
  0.000000000000000E+000
  0.000000000000000E+000
  0.000000000000000E+000
  0.000000000000000E+000
  0.000000000000000E+000
  0.000000000000000E+000
  0.000000000000000E+000
  0.000000000000000E+000
  0.000000000000000E+000
  0.000000000000000E+000
  0.000000000000000E+000
  0.000000000000000E+000
  0.000000000000000E+000
  0.000000000000000E+000
  0.000000000000000E+000
  0.000000000000000E+000
  0.000000000000000E+000
  0.000000000000000E+000
  0.000000000000000E+000
  0.000000000000000E+000
  0.000000000000000E+000
  0.000000000000000E+000
  0.000000000000000E+000
  0.000000000000000E+000
  0.000000000000000E+000
  0.000000000000000E+000
  0.000000000000000E+000
  0.000000000000000E+000
  0.000000000000000E+000
  0.000000000000000E+000
  0.000000000000000E+000
  0.000000000000000E+000
  0.000000000000000E+000
  0.000000000000000E+000
  0.000000000000000E+000
  0.000000000000000E+000
  0.000000000000000E+000
  0.000000000000000E+000
  0.000000000000000E+000
  0.000000000000000E+000
  0.000000000000000E+000
  0.000000000000000E+000
  0.000000000000000E+000
  0.000000000000000E+000
  0.000000000000000E+000
  0.000000000000000E+000
  0.000000000000000E+000
  0.000000000000000E+000
  0.000000000000000E+000
  0.000000000000000E+000
  0.000000000000000E+000
  0.000000000000000E+000
  0.000000000000000E+000
  0.000000000000000E+000
  0.000000000000000E+000
  0.000000000000000E+000
  0.000000000000000E+000
  0.000000000000000E+000
  0.000000000000000E+000
  0.000000000000000E+000
  0.000000000000000E+000
  0.000000000000000E+000
  0.000000000000000E+000
  0.000000000000000E+000
  0.000000000000000E+000
  0.000000000000000E+000
  0.000000000000000E+000
  0.000000000000000E+000
  0.000000000000000E+000
  0.000000000000000E+000
  0.000000000000000E+000
  0.000000000000000E+000
  0.000000000000000E+000
  0.000000000000000E+000
  0.000000000000000E+000
  0.000000000000000E+000
  0.000000000000000E+000
  0.000000000000000E+000
  0.000000000000000E+000
  0.000000000000000E+000
  0.000000000000000E+000
  0.000000000000000E+000
  0.000000000000000E+000
  0.000000000000000E+000
  0.000000000000000E+000
  0.000000000000000E+000
  0.000000000000000E+000
  0.000000000000000E+000
  0.000000000000000E+000
  0.000000000000000E+000
  0.000000000000000E+000
  0.000000000000000E+000
  0.000000000000000E+000
  0.000000000000000E+000
  0.000000000000000E+000
  0.000000000000000E+000
  0.000000000000000E+000
  0.000000000000000E+000
  0.000000000000000E+000
  0.000000000000000E+000
  0.000000000000000E+000
  0.000000000000000E+000
  0.000000000000000E+000
  0.000000000000000E+000
  0.000000000000000E+000
  0.000000000000000E+000
  0.000000000000000E+000
  0.000000000000000E+000
  0.000000000000000E+000
  0.000000000000000E+000
  0.000000000000000E+000
  0.000000000000000E+000
  0.000000000000000E+000
  0.000000000000000E+000
  0.000000000000000E+000
  0.000000000000000E+000
  0.000000000000000E+000
  0.000000000000000E+000
  0.000000000000000E+000
  0.000000000000000E+000
  0.000000000000000E+000
  0.000000000000000E+000
  0.000000000000000E+000
  0.000000000000000E+000
  0.000000000000000E+000
  0.000000000000000E+000
  0.000000000000000E+000
  0.000000000000000E+000
  0.000000000000000E+000
  0.000000000000000E+000
  0.000000000000000E+000
  0.000000000000000E+000
  0.000000000000000E+000
  0.000000000000000E+000
  0.000000000000000E+000
  0.000000000000000E+000
  0.000000000000000E+000
  0.000000000000000E+000
  0.000000000000000E+000
  0.000000000000000E+000
  0.000000000000000E+000
  0.000000000000000E+000
  0.000000000000000E+000
  0.000000000000000E+000
  0.000000000000000E+000
  0.000000000000000E+000
  0.000000000000000E+000
  0.000000000000000E+000
  0.000000000000000E+000
  0.000000000000000E+000
  0.000000000000000E+000
  0.000000000000000E+000
  0.000000000000000E+000
  0.000000000000000E+000
  0.000000000000000E+000
  0.000000000000000E+000
  0.000000000000000E+000
  0.000000000000000E+000
  0.000000000000000E+000
  0.000000000000000E+000
  0.000000000000000E+000
  0.000000000000000E+000
  0.000000000000000E+000
  0.000000000000000E+000
  0.000000000000000E+000
  0.000000000000000E+000
  0.000000000000000E+000
  0.000000000000000E+000
  0.000000000000000E+000
  0.000000000000000E+000
  0.000000000000000E+000
  0.000000000000000E+000
  0.000000000000000E+000
  0.000000000000000E+000
  0.000000000000000E+000
  0.000000000000000E+000
  0.000000000000000E+000
  0.000000000000000E+000
  0.000000000000000E+000
  0.000000000000000E+000
  0.000000000000000E+000
  0.000000000000000E+000
  0.000000000000000E+000
  0.000000000000000E+000
  0.000000000000000E+000
  0.000000000000000E+000
  0.000000000000000E+000
  0.000000000000000E+000
  0.000000000000000E+000
  0.000000000000000E+000
  0.000000000000000E+000
  0.000000000000000E+000
  0.000000000000000E+000
  0.000000000000000E+000
  0.000000000000000E+000
  0.000000000000000E+000
  0.000000000000000E+000
  0.000000000000000E+000
  0.000000000000000E+000
  0.000000000000000E+000
  0.000000000000000E+000
  0.000000000000000E+000
  0.000000000000000E+000
  0.000000000000000E+000
  0.000000000000000E+000
  0.000000000000000E+000
  0.000000000000000E+000
  0.000000000000000E+000
  0.000000000000000E+000
  0.000000000000000E+000
  0.000000000000000E+000
  0.000000000000000E+000
  0.000000000000000E+000
  0.000000000000000E+000
  0.000000000000000E+000
  0.000000000000000E+000
  0.000000000000000E+000
  0.000000000000000E+000
  0.000000000000000E+000
  0.000000000000000E+000
  0.000000000000000E+000
  0.000000000000000E+000
  0.000000000000000E+000
  0.000000000000000E+000
  0.000000000000000E+000
  0.000000000000000E+000
  0.000000000000000E+000
  0.000000000000000E+000
  0.000000000000000E+000
  0.000000000000000E+000
  0.000000000000000E+000
  0.000000000000000E+000
  0.000000000000000E+000
  0.000000000000000E+000
  0.000000000000000E+000
  0.000000000000000E+000
  0.000000000000000E+000
  0.000000000000000E+000
  0.000000000000000E+000
  0.000000000000000E+000
  0.000000000000000E+000
  0.000000000000000E+000
  0.000000000000000E+000
  0.000000000000000E+000
  0.000000000000000E+000
  0.000000000000000E+000
  0.000000000000000E+000
  0.000000000000000E+000
  0.000000000000000E+000
  0.000000000000000E+000
  0.000000000000000E+000
  0.000000000000000E+000
  0.000000000000000E+000
  0.000000000000000E+000
  0.000000000000000E+000
  0.000000000000000E+000
  0.000000000000000E+000
  0.000000000000000E+000
  0.000000000000000E+000
  0.000000000000000E+000
  0.000000000000000E+000
  0.000000000000000E+000
  0.000000000000000E+000
  0.000000000000000E+000
  0.000000000000000E+000
  0.000000000000000E+000
  0.000000000000000E+000
  0.000000000000000E+000
  0.000000000000000E+000
  0.000000000000000E+000
  0.000000000000000E+000
  0.000000000000000E+000
  0.000000000000000E+000
  0.000000000000000E+000
  0.000000000000000E+000
  0.000000000000000E+000
  0.000000000000000E+000
  0.000000000000000E+000
  0.000000000000000E+000
  0.000000000000000E+000
  0.000000000000000E+000
  0.000000000000000E+000
  0.000000000000000E+000
  0.000000000000000E+000
  0.000000000000000E+000
  0.000000000000000E+000
  0.000000000000000E+000
  0.000000000000000E+000
  0.000000000000000E+000
  0.000000000000000E+000
  0.000000000000000E+000
  0.000000000000000E+000
  0.000000000000000E+000
  0.000000000000000E+000
SCALARS elementIsPlast double 
LOOKUP_TABLE default
   1.00000000000000     
  0.000000000000000E+000
  0.000000000000000E+000
  0.000000000000000E+000
  0.000000000000000E+000
  0.000000000000000E+000
  0.000000000000000E+000
  0.000000000000000E+000
  0.000000000000000E+000
  0.000000000000000E+000
  0.000000000000000E+000
  0.000000000000000E+000
  0.000000000000000E+000
  0.000000000000000E+000
  0.000000000000000E+000
   1.00000000000000     
  0.000000000000000E+000
  0.000000000000000E+000
  0.000000000000000E+000
  0.000000000000000E+000
  0.000000000000000E+000
  0.000000000000000E+000
  0.000000000000000E+000
  0.000000000000000E+000
  0.000000000000000E+000
  0.000000000000000E+000
  0.000000000000000E+000
  0.000000000000000E+000
  0.000000000000000E+000
  0.000000000000000E+000
  0.000000000000000E+000
  0.000000000000000E+000
  0.000000000000000E+000
  0.000000000000000E+000
  0.000000000000000E+000
  0.000000000000000E+000
  0.000000000000000E+000
  0.000000000000000E+000
  0.000000000000000E+000
  0.000000000000000E+000
  0.000000000000000E+000
  0.000000000000000E+000
  0.000000000000000E+000
  0.000000000000000E+000
  0.000000000000000E+000
  0.000000000000000E+000
  0.000000000000000E+000
  0.000000000000000E+000
  0.000000000000000E+000
  0.000000000000000E+000
  0.000000000000000E+000
  0.000000000000000E+000
  0.000000000000000E+000
  0.000000000000000E+000
  0.000000000000000E+000
  0.000000000000000E+000
  0.000000000000000E+000
  0.000000000000000E+000
  0.000000000000000E+000
  0.000000000000000E+000
  0.000000000000000E+000
  0.000000000000000E+000
  0.000000000000000E+000
  0.000000000000000E+000
  0.000000000000000E+000
  0.000000000000000E+000
  0.000000000000000E+000
  0.000000000000000E+000
  0.000000000000000E+000
  0.000000000000000E+000
  0.000000000000000E+000
  0.000000000000000E+000
  0.000000000000000E+000
  0.000000000000000E+000
  0.000000000000000E+000
  0.000000000000000E+000
  0.000000000000000E+000
  0.000000000000000E+000
  0.000000000000000E+000
  0.000000000000000E+000
  0.000000000000000E+000
  0.000000000000000E+000
  0.000000000000000E+000
  0.000000000000000E+000
  0.000000000000000E+000
  0.000000000000000E+000
  0.000000000000000E+000
  0.000000000000000E+000
  0.000000000000000E+000
  0.000000000000000E+000
  0.000000000000000E+000
  0.000000000000000E+000
  0.000000000000000E+000
  0.000000000000000E+000
  0.000000000000000E+000
  0.000000000000000E+000
  0.000000000000000E+000
  0.000000000000000E+000
  0.000000000000000E+000
  0.000000000000000E+000
  0.000000000000000E+000
  0.000000000000000E+000
  0.000000000000000E+000
  0.000000000000000E+000
  0.000000000000000E+000
  0.000000000000000E+000
  0.000000000000000E+000
  0.000000000000000E+000
  0.000000000000000E+000
  0.000000000000000E+000
  0.000000000000000E+000
  0.000000000000000E+000
  0.000000000000000E+000
  0.000000000000000E+000
  0.000000000000000E+000
  0.000000000000000E+000
  0.000000000000000E+000
  0.000000000000000E+000
  0.000000000000000E+000
  0.000000000000000E+000
  0.000000000000000E+000
  0.000000000000000E+000
  0.000000000000000E+000
  0.000000000000000E+000
  0.000000000000000E+000
  0.000000000000000E+000
  0.000000000000000E+000
  0.000000000000000E+000
  0.000000000000000E+000
  0.000000000000000E+000
  0.000000000000000E+000
  0.000000000000000E+000
  0.000000000000000E+000
  0.000000000000000E+000
  0.000000000000000E+000
  0.000000000000000E+000
  0.000000000000000E+000
  0.000000000000000E+000
  0.000000000000000E+000
  0.000000000000000E+000
  0.000000000000000E+000
  0.000000000000000E+000
  0.000000000000000E+000
  0.000000000000000E+000
  0.000000000000000E+000
  0.000000000000000E+000
  0.000000000000000E+000
  0.000000000000000E+000
  0.000000000000000E+000
  0.000000000000000E+000
  0.000000000000000E+000
  0.000000000000000E+000
  0.000000000000000E+000
  0.000000000000000E+000
  0.000000000000000E+000
  0.000000000000000E+000
  0.000000000000000E+000
  0.000000000000000E+000
  0.000000000000000E+000
  0.000000000000000E+000
  0.000000000000000E+000
  0.000000000000000E+000
  0.000000000000000E+000
  0.000000000000000E+000
  0.000000000000000E+000
  0.000000000000000E+000
  0.000000000000000E+000
  0.000000000000000E+000
  0.000000000000000E+000
  0.000000000000000E+000
  0.000000000000000E+000
  0.000000000000000E+000
  0.000000000000000E+000
  0.000000000000000E+000
  0.000000000000000E+000
  0.000000000000000E+000
  0.000000000000000E+000
  0.000000000000000E+000
  0.000000000000000E+000
  0.000000000000000E+000
  0.000000000000000E+000
  0.000000000000000E+000
  0.000000000000000E+000
  0.000000000000000E+000
  0.000000000000000E+000
  0.000000000000000E+000
  0.000000000000000E+000
  0.000000000000000E+000
  0.000000000000000E+000
  0.000000000000000E+000
  0.000000000000000E+000
  0.000000000000000E+000
  0.000000000000000E+000
  0.000000000000000E+000
  0.000000000000000E+000
  0.000000000000000E+000
  0.000000000000000E+000
  0.000000000000000E+000
  0.000000000000000E+000
  0.000000000000000E+000
  0.000000000000000E+000
  0.000000000000000E+000
  0.000000000000000E+000
  0.000000000000000E+000
  0.000000000000000E+000
  0.000000000000000E+000
  0.000000000000000E+000
  0.000000000000000E+000
  0.000000000000000E+000
  0.000000000000000E+000
  0.000000000000000E+000
  0.000000000000000E+000
  0.000000000000000E+000
  0.000000000000000E+000
  0.000000000000000E+000
  0.000000000000000E+000
  0.000000000000000E+000
  0.000000000000000E+000
  0.000000000000000E+000
  0.000000000000000E+000
  0.000000000000000E+000
  0.000000000000000E+000
  0.000000000000000E+000
  0.000000000000000E+000
  0.000000000000000E+000
  0.000000000000000E+000
  0.000000000000000E+000
  0.000000000000000E+000
  0.000000000000000E+000
  0.000000000000000E+000
  0.000000000000000E+000
  0.000000000000000E+000
  0.000000000000000E+000
  0.000000000000000E+000
  0.000000000000000E+000
  0.000000000000000E+000
  0.000000000000000E+000
  0.000000000000000E+000
  0.000000000000000E+000
  0.000000000000000E+000
  0.000000000000000E+000
  0.000000000000000E+000
  0.000000000000000E+000
  0.000000000000000E+000
  0.000000000000000E+000
  0.000000000000000E+000
  0.000000000000000E+000
  0.000000000000000E+000
  0.000000000000000E+000
  0.000000000000000E+000
  0.000000000000000E+000
  0.000000000000000E+000
  0.000000000000000E+000
  0.000000000000000E+000
  0.000000000000000E+000
  0.000000000000000E+000
  0.000000000000000E+000
  0.000000000000000E+000
  0.000000000000000E+000
  0.000000000000000E+000
  0.000000000000000E+000
  0.000000000000000E+000
  0.000000000000000E+000
  0.000000000000000E+000
  0.000000000000000E+000
  0.000000000000000E+000
  0.000000000000000E+000
  0.000000000000000E+000
  0.000000000000000E+000
  0.000000000000000E+000
  0.000000000000000E+000
  0.000000000000000E+000
  0.000000000000000E+000
  0.000000000000000E+000
  0.000000000000000E+000
  0.000000000000000E+000
  0.000000000000000E+000
  0.000000000000000E+000
  0.000000000000000E+000
  0.000000000000000E+000
  0.000000000000000E+000
  0.000000000000000E+000
  0.000000000000000E+000
  0.000000000000000E+000
  0.000000000000000E+000
  0.000000000000000E+000
  0.000000000000000E+000
  0.000000000000000E+000
  0.000000000000000E+000
  0.000000000000000E+000
  0.000000000000000E+000
  0.000000000000000E+000
  0.000000000000000E+000
  0.000000000000000E+000
  0.000000000000000E+000
  0.000000000000000E+000
  0.000000000000000E+000
  0.000000000000000E+000
  0.000000000000000E+000
  0.000000000000000E+000
  0.000000000000000E+000
  0.000000000000000E+000
  0.000000000000000E+000
  0.000000000000000E+000
  0.000000000000000E+000
  0.000000000000000E+000
  0.000000000000000E+000
  0.000000000000000E+000
  0.000000000000000E+000
  0.000000000000000E+000
  0.000000000000000E+000
  0.000000000000000E+000
  0.000000000000000E+000
  0.000000000000000E+000
  0.000000000000000E+000
  0.000000000000000E+000
  0.000000000000000E+000
  0.000000000000000E+000
  0.000000000000000E+000
  0.000000000000000E+000
  0.000000000000000E+000
  0.000000000000000E+000
  0.000000000000000E+000
  0.000000000000000E+000
  0.000000000000000E+000
  0.000000000000000E+000
  0.000000000000000E+000
  0.000000000000000E+000
  0.000000000000000E+000
  0.000000000000000E+000
  0.000000000000000E+000
  0.000000000000000E+000
  0.000000000000000E+000
  0.000000000000000E+000
  0.000000000000000E+000
  0.000000000000000E+000
  0.000000000000000E+000
  0.000000000000000E+000
  0.000000000000000E+000
  0.000000000000000E+000
  0.000000000000000E+000
  0.000000000000000E+000
  0.000000000000000E+000
  0.000000000000000E+000
  0.000000000000000E+000
  0.000000000000000E+000
  0.000000000000000E+000
  0.000000000000000E+000
  0.000000000000000E+000
  0.000000000000000E+000
  0.000000000000000E+000
  0.000000000000000E+000
  0.000000000000000E+000
  0.000000000000000E+000
  0.000000000000000E+000
  0.000000000000000E+000
  0.000000000000000E+000
  0.000000000000000E+000
  0.000000000000000E+000
  0.000000000000000E+000
  0.000000000000000E+000
  0.000000000000000E+000
  0.000000000000000E+000
  0.000000000000000E+000
  0.000000000000000E+000
  0.000000000000000E+000
  0.000000000000000E+000
  0.000000000000000E+000
  0.000000000000000E+000
  0.000000000000000E+000
  0.000000000000000E+000
  0.000000000000000E+000
  0.000000000000000E+000
  0.000000000000000E+000
  0.000000000000000E+000
  0.000000000000000E+000
  0.000000000000000E+000
  0.000000000000000E+000
  0.000000000000000E+000
  0.000000000000000E+000
  0.000000000000000E+000
  0.000000000000000E+000
  0.000000000000000E+000
  0.000000000000000E+000
  0.000000000000000E+000
  0.000000000000000E+000
  0.000000000000000E+000
  0.000000000000000E+000
  0.000000000000000E+000
  0.000000000000000E+000
  0.000000000000000E+000
  0.000000000000000E+000
  0.000000000000000E+000
  0.000000000000000E+000
  0.000000000000000E+000
  0.000000000000000E+000
  0.000000000000000E+000
  0.000000000000000E+000
  0.000000000000000E+000
  0.000000000000000E+000
  0.000000000000000E+000
  0.000000000000000E+000
  0.000000000000000E+000
  0.000000000000000E+000
  0.000000000000000E+000
  0.000000000000000E+000
  0.000000000000000E+000
  0.000000000000000E+000
  0.000000000000000E+000
  0.000000000000000E+000
  0.000000000000000E+000
  0.000000000000000E+000
  0.000000000000000E+000
  0.000000000000000E+000
  0.000000000000000E+000
  0.000000000000000E+000
  0.000000000000000E+000
  0.000000000000000E+000
  0.000000000000000E+000
  0.000000000000000E+000
  0.000000000000000E+000
  0.000000000000000E+000
  0.000000000000000E+000
  0.000000000000000E+000
  0.000000000000000E+000
  0.000000000000000E+000
  0.000000000000000E+000
  0.000000000000000E+000
  0.000000000000000E+000
  0.000000000000000E+000
  0.000000000000000E+000
  0.000000000000000E+000
  0.000000000000000E+000
  0.000000000000000E+000
  0.000000000000000E+000
  0.000000000000000E+000
  0.000000000000000E+000
  0.000000000000000E+000
  0.000000000000000E+000
  0.000000000000000E+000
  0.000000000000000E+000
  0.000000000000000E+000
  0.000000000000000E+000
  0.000000000000000E+000
  0.000000000000000E+000
  0.000000000000000E+000
  0.000000000000000E+000
  0.000000000000000E+000
  0.000000000000000E+000
  0.000000000000000E+000
SCALARS poroL double 
LOOKUP_TABLE default
  0.156219306527615     
  0.156194968540158     
  0.156178032209623     
  0.156165473741284     
  0.156155162595833     
  0.156146356883068     
  0.156138630282630     
  0.156131700711050     
  0.156125355122772     
  0.156119411763839     
  0.156113692578885     
  0.156107993187850     
  0.156102029829149     
  0.156095330646201     
  0.156086516565406     
  0.156187999653628     
  0.156176207625458     
  0.156163475569483     
  0.156152095497179     
  0.156142405393417     
  0.156133975077482     
  0.156126508652069     
  0.156119779297996     
  0.156113605786153     
  0.156107830104227     
  0.156102299845083     
  0.156096849526849     
  0.156091284273305     
  0.156085322564189     
  0.156079249315542     
  0.156167975619396     
  0.156157035183747     
  0.156146891161424     
  0.156137292012637     
  0.156128605030358     
  0.156120837117714     
  0.156113846246326     
  0.156107490821935     
  0.156101641158196     
  0.156096179371310     
  0.156090994948613     
  0.156085983748746     
  0.156081052565770     
  0.156076228777096     
  0.156071683706881     
  0.156146911305337     
  0.156138274033646     
  0.156129781579157     
  0.156121713417128     
  0.156114162648460     
  0.156107210749266     
  0.156100840029620     
  0.156094986726173     
  0.156089576900937     
  0.156084537998693     
  0.156079805628553     
  0.156075331897891     
  0.156071112264807     
  0.156067211392840     
  0.156063800947181     
  0.156126376259182     
  0.156119575377955     
  0.156112680293157     
  0.156105918004115     
  0.156099450797529     
  0.156093360639201     
  0.156087681990856     
  0.156082408208137     
  0.156077512497393     
  0.156072963502947     
  0.156068736445298     
  0.156064826082617     
  0.156061261488539     
  0.156058123884151     
  0.156055554591826     
  0.156106640370242     
  0.156101370784340     
  0.156095823366831     
  0.156090232382413     
  0.156084758117771     
  0.156079506107803     
  0.156074535290153     
  0.156069872931615     
  0.156065526505455     
  0.156061496299538     
  0.156057786826225     
  0.156054417575300     
  0.156051433883770     
  0.156048915509993     
  0.156046980861208     
  0.156087908242309     
  0.156083854563496     
  0.156079432764699     
  0.156074853329051     
  0.156070273754729     
  0.156065804769215     
  0.156061520344365     
  0.156057466928471     
  0.156053673656714     
  0.156050161985863     
  0.156046954962772     
  0.156044085792135     
  0.156041605188014     
  0.156039586692304     
  0.156038128536186     
  0.156070232628610     
  0.156067127015620     
  0.156063621306255     
  0.156059900204667     
  0.156056107754442     
  0.156052352081849     
  0.156048711505148     
  0.156045241851640     
  0.156041983948569     
  0.156038971161605     
  0.156036236507734     
  0.156033819035631     
  0.156031769010476     
  0.156030151293307     
  0.156029046395583     
  0.156053581441314     
  0.156051196288556     
  0.156048423136497     
  0.156045418202620     
  0.156042307527952     
  0.156039189733328     
  0.156036140280690     
  0.156033216577626     
  0.156030463549309     
  0.156027919228620     
  0.156025620051461     
  0.156023605496059     
  0.156021921698024     
  0.156020623670987     
  0.156019775840241     
  0.156037856660128     
  0.156036004249884     
  0.156033807878320     
  0.156031394352505     
  0.156028868606450     
  0.156026315365710     
  0.156023801889134     
  0.156021381487015     
  0.156019097447866     
  0.156016987055941     
  0.156015085383019     
  0.156013428560468     
  0.156012056242941     
  0.156011013007650     
  0.156010348506940     
  0.156022912533766     
  0.156021443473739     
  0.156019697275834     
  0.156017770952267     
  0.156015746582357     
  0.156013692094196     
  0.156011662898312     
  0.156009704146235     
  0.156007853360155     
  0.156006143168319     
  0.156004603893124     
  0.156003265749350     
  0.156002160430665     
  0.156001321895125     
  0.156000786211893     
  0.156008570227449     
  0.156007372315164     
  0.156005979231861     
  0.156004458392353     
  0.156002868169914     
  0.156001257970043     
  0.155999668989067     
  0.155998135488548     
  0.155996686389378     
  0.155995346982237     
  0.155994140553651     
  0.155993089738502     
  0.155992217427395     
  0.155991547083383     
  0.155991102355969     
  0.155994630868580     
  0.155993627771711     
  0.155992520129902     
  0.155991346468599     
  0.155990141329255     
  0.155988934765156     
  0.155987752405332     
  0.155986615946028     
  0.155985543917947     
  0.155984552573725     
  0.155983656743785     
  0.155982870517675     
  0.155982207621624     
  0.155981681380549     
  0.155981304172936     
  0.155980886935474     
  0.155980036586148     
  0.155979175422335     
  0.155978314233842     
  0.155977464185039     
  0.155976635856520     
  0.155975838757429     
  0.155975081189691     
  0.155974370346378     
  0.155973712530031     
  0.155973113382628     
  0.155972578026718     
  0.155972111026220     
  0.155971716085408     
  0.155971395414659     
  0.155967132004822     
  0.155966424682038     
  0.155965798632448     
  0.155965238410473     
  0.155964732714543     
  0.155964273092745     
  0.155963853023162     
  0.155963467269708     
  0.155963111426793     
  0.155962781577321     
  0.155962473997730     
  0.155962184850710     
  0.155961909810937     
  0.155961643572058     
  0.155961379184645     
  0.155953168872654     
  0.155952625045880     
  0.155952248895848     
  0.155952000472580     
  0.155951847257950     
  0.155951762647617     
  0.155951724698338     
  0.155951715061572     
  0.155951718049049     
  0.155951719795723     
  0.155951707498325     
  0.155951668713587     
  0.155951590700130     
  0.155951459783324     
  0.155951260715045     
  0.155938816144706     
  0.155938484194006     
  0.155938397200186     
  0.155938492544969     
  0.155938717968813     
  0.155939029935891     
  0.155939392126680     
  0.155939774001274     
  0.155940149417518     
  0.155940495317829     
  0.155940790514752     
  0.155941014608968     
  0.155941147066840     
  0.155941166470857     
  0.155941049938112     
  0.155923913448922     
  0.155923867400080     
  0.155924131511535     
  0.155924622302052     
  0.155925269363474     
  0.155926013713216     
  0.155926806086526     
  0.155927605140310     
  0.155928375604223     
  0.155929086456165     
  0.155929709217240     
  0.155930216459557     
  0.155930580604400     
  0.155930773062535     
  0.155930763736480     
  0.155908325452405     
  0.155908662887472     
  0.155909361005876     
  0.155910317080951     
  0.155911444160290     
  0.155912669512022     
  0.155913932738434     
  0.155915183574403     
  0.155916379484357     
  0.155917483223821     
  0.155918460545100     
  0.155919278213704     
  0.155919902472775     
  0.155920298052369     
  0.155920427770825     
  0.155891944870092     
  0.155892785215574     
  0.155894019659873     
  0.155895527460893     
  0.155897206631467     
  0.155898972587735     
  0.155900756050399     
  0.155902500304164     
  0.155904158058593     
  0.155905688206451     
  0.155907052768445     
  0.155908214277087     
  0.155909133806616     
  0.155909769800938     
  0.155910077782160     
  0.155874694645686     
  0.155876178125673     
  0.155878069513567     
  0.155880230618961     
  0.155882545732628     
  0.155884920570664     
  0.155887279819535     
  0.155889563575112     
  0.155891723147340     
  0.155893716718514     
  0.155895505273654     
  0.155897049143223     
  0.155898305438752     
  0.155899226608517     
  0.155899760252767     
  0.155856529486699     
  0.155858817190725     
  0.155861504029597     
  0.155864433872678     
  0.155867478336893     
  0.155870536038125     
  0.155873529398139     
  0.155876399718201     
  0.155879101409400     
  0.155881596137216     
  0.155883847415212     
  0.155885816028453     
  0.155887456634125     
  0.155888715876522     
  0.155889532287712     
  0.155837436976265     
  0.155840712793671     
  0.155844352196490     
  0.155848178995389     
  0.155852052984175     
  0.155855869224001     
  0.155859553192005     
  0.155863053465403     
  0.155866333596520     
  0.155869364265562     
  0.155872116214121     
  0.155874554231357     
  0.155876632529897     
  0.155878292094462     
  0.155879460547100     
  0.155817438631302     
  0.155821914365616     
  0.155826684474339     
  0.155831548186466     
  0.155836354639756     
  0.155841001016356     
  0.155845423889502     
  0.155849587637306     
  0.155853472927527     
  0.155857066553357     
  0.155860352628696     
  0.155863304802051     
  0.155865879809518     
  0.155868013234295     
  0.155869619012195     
  0.155796591661953     
  0.155802517779340     
  0.155808622593888     
  0.155814673044510     
  0.155820510929427     
  0.155826046114498     
  0.155831239121889     
  0.155836081991603     
  0.155840582486613     
  0.155844752099082     
  0.155848596083453     
  0.155852103951435     
  0.155855239761635     
  0.155857934841127     
  0.155860085237669     
  0.155774993396878     
  0.155782680083767     
  0.155790357189024     
  0.155797748432888     
  0.155804699765544     
  0.155811155444653     
  0.155817120722475     
  0.155822630905543     
  0.155827731788784     
  0.155832468589625     
  0.155836877273065     
  0.155840973170855     
  0.155844737376985     
  0.155848100118379     
  0.155850934571528     
  0.155752793277772     
  0.155762652745862     
  0.155772181000167     
  0.155781052814840     
  0.155789156153033     
  0.155796514948322     
  0.155803211228204     
  0.155809339531533     
  0.155814992936945     
  0.155820257653104     
  0.155825209310336     
  0.155829906016108     
  0.155834362176841     
  0.155838523441541     
  0.155842230056312     
  0.155730235784485     
  0.155742861814367     
  0.155754552679292     
  0.155764971050350     
  0.155774167290572     
  0.155782336966675     
  0.155789665927682     
  0.155796318219684     
  0.155802437333510     
  0.155808152396177     
  0.155813584073315     
  0.155818846168804     
  0.155824041296030     
  0.155829150000112     
  0.155834008212183     
  0.155707800458181     
  0.155724148949409     
  0.155738196430648     
  0.155749966621862     
  0.155760047770686     
  0.155768839952968     
  0.155776639869424     
  0.155783675433308     
  0.155790133671063     
  0.155796180318957     
  0.155801976413910     
  0.155807696412221     
  0.155813544115520     
  0.155819810026446     
  0.155826207772700     
  0.155687301834212     
  0.155708332639691     
  0.155723909030807     
  0.155736503055746     
  0.155747085189447     
  0.155756218560291     
  0.155764271132767     
  0.155771509995837     
  0.155778147620123     
  0.155784370974338     
  0.155790365671448     
  0.155796344597137     
  0.155802600458536     
  0.155809614490450     
  0.155818783076803     
