# vtk DataFile Version 3.0
vtk output
ASCII
DATASET UNSTRUCTURED_GRID
POINTS       496 double 
  0.00000000E+00  3.00000000E+02  0.00000000E+00
  0.00000000E+00  2.80000000E+02  0.00000000E+00
  0.00000000E+00  2.60000000E+02  0.00000000E+00
  0.00000000E+00  2.40000000E+02  0.00000000E+00
  0.00000000E+00  2.20000000E+02  0.00000000E+00
  0.00000000E+00  2.00000000E+02  0.00000000E+00
  0.00000000E+00  1.80000000E+02  0.00000000E+00
  0.00000000E+00  1.60000000E+02  0.00000000E+00
  0.00000000E+00  1.40000000E+02  0.00000000E+00
  0.00000000E+00  1.20000000E+02  0.00000000E+00
  0.00000000E+00  1.00000000E+02  0.00000000E+00
  0.00000000E+00  8.00000000E+01  0.00000000E+00
  0.00000000E+00  6.00000000E+01  0.00000000E+00
  0.00000000E+00  4.00000000E+01  0.00000000E+00
  0.00000000E+00  2.00000000E+01  0.00000000E+00
  0.00000000E+00  4.99600361E-14  0.00000000E+00
  2.00000000E+01  3.00000000E+02  0.00000000E+00
  2.00000000E+01  2.80000000E+02  0.00000000E+00
  2.00000000E+01  2.60000000E+02  0.00000000E+00
  2.00000000E+01  2.40000000E+02  0.00000000E+00
  2.00000000E+01  2.20000000E+02  0.00000000E+00
  2.00000000E+01  2.00000000E+02  0.00000000E+00
  2.00000000E+01  1.80000000E+02  0.00000000E+00
  2.00000000E+01  1.60000000E+02  0.00000000E+00
  2.00000000E+01  1.40000000E+02  0.00000000E+00
  2.00000000E+01  1.20000000E+02  0.00000000E+00
  2.00000000E+01  1.00000000E+02  0.00000000E+00
  2.00000000E+01  8.00000000E+01  0.00000000E+00
  2.00000000E+01  6.00000000E+01  0.00000000E+00
  2.00000000E+01  4.00000000E+01  0.00000000E+00
  2.00000000E+01  2.00000000E+01  0.00000000E+00
  2.00000000E+01  4.99600361E-14  0.00000000E+00
  4.00000000E+01  3.00000000E+02  0.00000000E+00
  4.00000000E+01  2.80000000E+02  0.00000000E+00
  4.00000000E+01  2.60000000E+02  0.00000000E+00
  4.00000000E+01  2.40000000E+02  0.00000000E+00
  4.00000000E+01  2.20000000E+02  0.00000000E+00
  4.00000000E+01  2.00000000E+02  0.00000000E+00
  4.00000000E+01  1.80000000E+02  0.00000000E+00
  4.00000000E+01  1.60000000E+02  0.00000000E+00
  4.00000000E+01  1.40000000E+02  0.00000000E+00
  4.00000000E+01  1.20000000E+02  0.00000000E+00
  4.00000000E+01  1.00000000E+02  0.00000000E+00
  4.00000000E+01  8.00000000E+01  0.00000000E+00
  4.00000000E+01  6.00000000E+01  0.00000000E+00
  4.00000000E+01  4.00000000E+01  0.00000000E+00
  4.00000000E+01  2.00000000E+01  0.00000000E+00
  4.00000000E+01  4.99600361E-14  0.00000000E+00
  6.00000000E+01  3.00000000E+02  0.00000000E+00
  6.00000000E+01  2.80000000E+02  0.00000000E+00
  6.00000000E+01  2.60000000E+02  0.00000000E+00
  6.00000000E+01  2.40000000E+02  0.00000000E+00
  6.00000000E+01  2.20000000E+02  0.00000000E+00
  6.00000000E+01  2.00000000E+02  0.00000000E+00
  6.00000000E+01  1.80000000E+02  0.00000000E+00
  6.00000000E+01  1.60000000E+02  0.00000000E+00
  6.00000000E+01  1.40000000E+02  0.00000000E+00
  6.00000000E+01  1.20000000E+02  0.00000000E+00
  6.00000000E+01  1.00000000E+02  0.00000000E+00
  6.00000000E+01  8.00000000E+01  0.00000000E+00
  6.00000000E+01  6.00000000E+01  0.00000000E+00
  6.00000000E+01  4.00000000E+01  0.00000000E+00
  6.00000000E+01  2.00000000E+01  0.00000000E+00
  6.00000000E+01  4.99600361E-14  0.00000000E+00
  8.00000000E+01  3.00000000E+02  0.00000000E+00
  8.00000000E+01  2.80000000E+02  0.00000000E+00
  8.00000000E+01  2.60000000E+02  0.00000000E+00
  8.00000000E+01  2.40000000E+02  0.00000000E+00
  8.00000000E+01  2.20000000E+02  0.00000000E+00
  8.00000000E+01  2.00000000E+02  0.00000000E+00
  8.00000000E+01  1.80000000E+02  0.00000000E+00
  8.00000000E+01  1.60000000E+02  0.00000000E+00
  8.00000000E+01  1.40000000E+02  0.00000000E+00
  8.00000000E+01  1.20000000E+02  0.00000000E+00
  8.00000000E+01  1.00000000E+02  0.00000000E+00
  8.00000000E+01  8.00000000E+01  0.00000000E+00
  8.00000000E+01  6.00000000E+01  0.00000000E+00
  8.00000000E+01  4.00000000E+01  0.00000000E+00
  8.00000000E+01  2.00000000E+01  0.00000000E+00
  8.00000000E+01  4.99600361E-14  0.00000000E+00
  1.00000000E+02  3.00000000E+02  0.00000000E+00
  1.00000000E+02  2.80000000E+02  0.00000000E+00
  1.00000000E+02  2.60000000E+02  0.00000000E+00
  1.00000000E+02  2.40000000E+02  0.00000000E+00
  1.00000000E+02  2.20000000E+02  0.00000000E+00
  1.00000000E+02  2.00000000E+02  0.00000000E+00
  1.00000000E+02  1.80000000E+02  0.00000000E+00
  1.00000000E+02  1.60000000E+02  0.00000000E+00
  1.00000000E+02  1.40000000E+02  0.00000000E+00
  1.00000000E+02  1.20000000E+02  0.00000000E+00
  1.00000000E+02  1.00000000E+02  0.00000000E+00
  1.00000000E+02  8.00000000E+01  0.00000000E+00
  1.00000000E+02  6.00000000E+01  0.00000000E+00
  1.00000000E+02  4.00000000E+01  0.00000000E+00
  1.00000000E+02  2.00000000E+01  0.00000000E+00
  1.00000000E+02  4.99600361E-14  0.00000000E+00
  1.20000000E+02  3.00000000E+02  0.00000000E+00
  1.20000000E+02  2.80000000E+02  0.00000000E+00
  1.20000000E+02  2.60000000E+02  0.00000000E+00
  1.20000000E+02  2.40000000E+02  0.00000000E+00
  1.20000000E+02  2.20000000E+02  0.00000000E+00
  1.20000000E+02  2.00000000E+02  0.00000000E+00
  1.20000000E+02  1.80000000E+02  0.00000000E+00
  1.20000000E+02  1.60000000E+02  0.00000000E+00
  1.20000000E+02  1.40000000E+02  0.00000000E+00
  1.20000000E+02  1.20000000E+02  0.00000000E+00
  1.20000000E+02  1.00000000E+02  0.00000000E+00
  1.20000000E+02  8.00000000E+01  0.00000000E+00
  1.20000000E+02  6.00000000E+01  0.00000000E+00
  1.20000000E+02  4.00000000E+01  0.00000000E+00
  1.20000000E+02  2.00000000E+01  0.00000000E+00
  1.20000000E+02  4.99600361E-14  0.00000000E+00
  1.40000000E+02  3.00000000E+02  0.00000000E+00
  1.40000000E+02  2.80000000E+02  0.00000000E+00
  1.40000000E+02  2.60000000E+02  0.00000000E+00
  1.40000000E+02  2.40000000E+02  0.00000000E+00
  1.40000000E+02  2.20000000E+02  0.00000000E+00
  1.40000000E+02  2.00000000E+02  0.00000000E+00
  1.40000000E+02  1.80000000E+02  0.00000000E+00
  1.40000000E+02  1.60000000E+02  0.00000000E+00
  1.40000000E+02  1.40000000E+02  0.00000000E+00
  1.40000000E+02  1.20000000E+02  0.00000000E+00
  1.40000000E+02  1.00000000E+02  0.00000000E+00
  1.40000000E+02  8.00000000E+01  0.00000000E+00
  1.40000000E+02  6.00000000E+01  0.00000000E+00
  1.40000000E+02  4.00000000E+01  0.00000000E+00
  1.40000000E+02  2.00000000E+01  0.00000000E+00
  1.40000000E+02  4.99600361E-14  0.00000000E+00
  1.60000000E+02  3.00000000E+02  0.00000000E+00
  1.60000000E+02  2.80000000E+02  0.00000000E+00
  1.60000000E+02  2.60000000E+02  0.00000000E+00
  1.60000000E+02  2.40000000E+02  0.00000000E+00
  1.60000000E+02  2.20000000E+02  0.00000000E+00
  1.60000000E+02  2.00000000E+02  0.00000000E+00
  1.60000000E+02  1.80000000E+02  0.00000000E+00
  1.60000000E+02  1.60000000E+02  0.00000000E+00
  1.60000000E+02  1.40000000E+02  0.00000000E+00
  1.60000000E+02  1.20000000E+02  0.00000000E+00
  1.60000000E+02  1.00000000E+02  0.00000000E+00
  1.60000000E+02  8.00000000E+01  0.00000000E+00
  1.60000000E+02  6.00000000E+01  0.00000000E+00
  1.60000000E+02  4.00000000E+01  0.00000000E+00
  1.60000000E+02  2.00000000E+01  0.00000000E+00
  1.60000000E+02  4.99600361E-14  0.00000000E+00
  1.80000000E+02  3.00000000E+02  0.00000000E+00
  1.80000000E+02  2.80000000E+02  0.00000000E+00
  1.80000000E+02  2.60000000E+02  0.00000000E+00
  1.80000000E+02  2.40000000E+02  0.00000000E+00
  1.80000000E+02  2.20000000E+02  0.00000000E+00
  1.80000000E+02  2.00000000E+02  0.00000000E+00
  1.80000000E+02  1.80000000E+02  0.00000000E+00
  1.80000000E+02  1.60000000E+02  0.00000000E+00
  1.80000000E+02  1.40000000E+02  0.00000000E+00
  1.80000000E+02  1.20000000E+02  0.00000000E+00
  1.80000000E+02  1.00000000E+02  0.00000000E+00
  1.80000000E+02  8.00000000E+01  0.00000000E+00
  1.80000000E+02  6.00000000E+01  0.00000000E+00
  1.80000000E+02  4.00000000E+01  0.00000000E+00
  1.80000000E+02  2.00000000E+01  0.00000000E+00
  1.80000000E+02  4.99600361E-14  0.00000000E+00
  2.00000000E+02  3.00000000E+02  0.00000000E+00
  2.00000000E+02  2.80000000E+02  0.00000000E+00
  2.00000000E+02  2.60000000E+02  0.00000000E+00
  2.00000000E+02  2.40000000E+02  0.00000000E+00
  2.00000000E+02  2.20000000E+02  0.00000000E+00
  2.00000000E+02  2.00000000E+02  0.00000000E+00
  2.00000000E+02  1.80000000E+02  0.00000000E+00
  2.00000000E+02  1.60000000E+02  0.00000000E+00
  2.00000000E+02  1.40000000E+02  0.00000000E+00
  2.00000000E+02  1.20000000E+02  0.00000000E+00
  2.00000000E+02  1.00000000E+02  0.00000000E+00
  2.00000000E+02  8.00000000E+01  0.00000000E+00
  2.00000000E+02  6.00000000E+01  0.00000000E+00
  2.00000000E+02  4.00000000E+01  0.00000000E+00
  2.00000000E+02  2.00000000E+01  0.00000000E+00
  2.00000000E+02  4.99600361E-14  0.00000000E+00
  2.20000000E+02  3.00000000E+02  0.00000000E+00
  2.20000000E+02  2.80000000E+02  0.00000000E+00
  2.20000000E+02  2.60000000E+02  0.00000000E+00
  2.20000000E+02  2.40000000E+02  0.00000000E+00
  2.20000000E+02  2.20000000E+02  0.00000000E+00
  2.20000000E+02  2.00000000E+02  0.00000000E+00
  2.20000000E+02  1.80000000E+02  0.00000000E+00
  2.20000000E+02  1.60000000E+02  0.00000000E+00
  2.20000000E+02  1.40000000E+02  0.00000000E+00
  2.20000000E+02  1.20000000E+02  0.00000000E+00
  2.20000000E+02  1.00000000E+02  0.00000000E+00
  2.20000000E+02  8.00000000E+01  0.00000000E+00
  2.20000000E+02  6.00000000E+01  0.00000000E+00
  2.20000000E+02  4.00000000E+01  0.00000000E+00
  2.20000000E+02  2.00000000E+01  0.00000000E+00
  2.20000000E+02  4.99600361E-14  0.00000000E+00
  2.40000000E+02  3.00000000E+02  0.00000000E+00
  2.40000000E+02  2.80000000E+02  0.00000000E+00
  2.40000000E+02  2.60000000E+02  0.00000000E+00
  2.40000000E+02  2.40000000E+02  0.00000000E+00
  2.40000000E+02  2.20000000E+02  0.00000000E+00
  2.40000000E+02  2.00000000E+02  0.00000000E+00
  2.40000000E+02  1.80000000E+02  0.00000000E+00
  2.40000000E+02  1.60000000E+02  0.00000000E+00
  2.40000000E+02  1.40000000E+02  0.00000000E+00
  2.40000000E+02  1.20000000E+02  0.00000000E+00
  2.40000000E+02  1.00000000E+02  0.00000000E+00
  2.40000000E+02  8.00000000E+01  0.00000000E+00
  2.40000000E+02  6.00000000E+01  0.00000000E+00
  2.40000000E+02  4.00000000E+01  0.00000000E+00
  2.40000000E+02  2.00000000E+01  0.00000000E+00
  2.40000000E+02  4.99600361E-14  0.00000000E+00
  2.60000000E+02  3.00000000E+02  0.00000000E+00
  2.60000000E+02  2.80000000E+02  0.00000000E+00
  2.60000000E+02  2.60000000E+02  0.00000000E+00
  2.60000000E+02  2.40000000E+02  0.00000000E+00
  2.60000000E+02  2.20000000E+02  0.00000000E+00
  2.60000000E+02  2.00000000E+02  0.00000000E+00
  2.60000000E+02  1.80000000E+02  0.00000000E+00
  2.60000000E+02  1.60000000E+02  0.00000000E+00
  2.60000000E+02  1.40000000E+02  0.00000000E+00
  2.60000000E+02  1.20000000E+02  0.00000000E+00
  2.60000000E+02  1.00000000E+02  0.00000000E+00
  2.60000000E+02  8.00000000E+01  0.00000000E+00
  2.60000000E+02  6.00000000E+01  0.00000000E+00
  2.60000000E+02  4.00000000E+01  0.00000000E+00
  2.60000000E+02  2.00000000E+01  0.00000000E+00
  2.60000000E+02  4.99600361E-14  0.00000000E+00
  2.80000000E+02  3.00000000E+02  0.00000000E+00
  2.80000000E+02  2.80000000E+02  0.00000000E+00
  2.80000000E+02  2.60000000E+02  0.00000000E+00
  2.80000000E+02  2.40000000E+02  0.00000000E+00
  2.80000000E+02  2.20000000E+02  0.00000000E+00
  2.80000000E+02  2.00000000E+02  0.00000000E+00
  2.80000000E+02  1.80000000E+02  0.00000000E+00
  2.80000000E+02  1.60000000E+02  0.00000000E+00
  2.80000000E+02  1.40000000E+02  0.00000000E+00
  2.80000000E+02  1.20000000E+02  0.00000000E+00
  2.80000000E+02  1.00000000E+02  0.00000000E+00
  2.80000000E+02  8.00000000E+01  0.00000000E+00
  2.80000000E+02  6.00000000E+01  0.00000000E+00
  2.80000000E+02  4.00000000E+01  0.00000000E+00
  2.80000000E+02  2.00000000E+01  0.00000000E+00
  2.80000000E+02  4.99600361E-14  0.00000000E+00
  3.00000000E+02  3.00000000E+02  0.00000000E+00
  3.00000000E+02  2.80000000E+02  0.00000000E+00
  3.00000000E+02  2.60000000E+02  0.00000000E+00
  3.00000000E+02  2.40000000E+02  0.00000000E+00
  3.00000000E+02  2.20000000E+02  0.00000000E+00
  3.00000000E+02  2.00000000E+02  0.00000000E+00
  3.00000000E+02  1.80000000E+02  0.00000000E+00
  3.00000000E+02  1.60000000E+02  0.00000000E+00
  3.00000000E+02  1.40000000E+02  0.00000000E+00
  3.00000000E+02  1.20000000E+02  0.00000000E+00
  3.00000000E+02  1.00000000E+02  0.00000000E+00
  3.00000000E+02  8.00000000E+01  0.00000000E+00
  3.00000000E+02  6.00000000E+01  0.00000000E+00
  3.00000000E+02  4.00000000E+01  0.00000000E+00
  3.00000000E+02  2.00000000E+01  0.00000000E+00
  3.00000000E+02  4.99600361E-14  0.00000000E+00
  3.20000000E+02  3.00000000E+02  0.00000000E+00
  3.20000000E+02  2.80000000E+02  0.00000000E+00
  3.20000000E+02  2.60000000E+02  0.00000000E+00
  3.20000000E+02  2.40000000E+02  0.00000000E+00
  3.20000000E+02  2.20000000E+02  0.00000000E+00
  3.20000000E+02  2.00000000E+02  0.00000000E+00
  3.20000000E+02  1.80000000E+02  0.00000000E+00
  3.20000000E+02  1.60000000E+02  0.00000000E+00
  3.20000000E+02  1.40000000E+02  0.00000000E+00
  3.20000000E+02  1.20000000E+02  0.00000000E+00
  3.20000000E+02  1.00000000E+02  0.00000000E+00
  3.20000000E+02  8.00000000E+01  0.00000000E+00
  3.20000000E+02  6.00000000E+01  0.00000000E+00
  3.20000000E+02  4.00000000E+01  0.00000000E+00
  3.20000000E+02  2.00000000E+01  0.00000000E+00
  3.20000000E+02  4.99600361E-14  0.00000000E+00
  3.40000000E+02  3.00000000E+02  0.00000000E+00
  3.40000000E+02  2.80000000E+02  0.00000000E+00
  3.40000000E+02  2.60000000E+02  0.00000000E+00
  3.40000000E+02  2.40000000E+02  0.00000000E+00
  3.40000000E+02  2.20000000E+02  0.00000000E+00
  3.40000000E+02  2.00000000E+02  0.00000000E+00
  3.40000000E+02  1.80000000E+02  0.00000000E+00
  3.40000000E+02  1.60000000E+02  0.00000000E+00
  3.40000000E+02  1.40000000E+02  0.00000000E+00
  3.40000000E+02  1.20000000E+02  0.00000000E+00
  3.40000000E+02  1.00000000E+02  0.00000000E+00
  3.40000000E+02  8.00000000E+01  0.00000000E+00
  3.40000000E+02  6.00000000E+01  0.00000000E+00
  3.40000000E+02  4.00000000E+01  0.00000000E+00
  3.40000000E+02  2.00000000E+01  0.00000000E+00
  3.40000000E+02  4.99600361E-14  0.00000000E+00
  3.60000000E+02  3.00000000E+02  0.00000000E+00
  3.60000000E+02  2.80000000E+02  0.00000000E+00
  3.60000000E+02  2.60000000E+02  0.00000000E+00
  3.60000000E+02  2.40000000E+02  0.00000000E+00
  3.60000000E+02  2.20000000E+02  0.00000000E+00
  3.60000000E+02  2.00000000E+02  0.00000000E+00
  3.60000000E+02  1.80000000E+02  0.00000000E+00
  3.60000000E+02  1.60000000E+02  0.00000000E+00
  3.60000000E+02  1.40000000E+02  0.00000000E+00
  3.60000000E+02  1.20000000E+02  0.00000000E+00
  3.60000000E+02  1.00000000E+02  0.00000000E+00
  3.60000000E+02  8.00000000E+01  0.00000000E+00
  3.60000000E+02  6.00000000E+01  0.00000000E+00
  3.60000000E+02  4.00000000E+01  0.00000000E+00
  3.60000000E+02  2.00000000E+01  0.00000000E+00
  3.60000000E+02  4.99600361E-14  0.00000000E+00
  3.80000000E+02  3.00000000E+02  0.00000000E+00
  3.80000000E+02  2.80000000E+02  0.00000000E+00
  3.80000000E+02  2.60000000E+02  0.00000000E+00
  3.80000000E+02  2.40000000E+02  0.00000000E+00
  3.80000000E+02  2.20000000E+02  0.00000000E+00
  3.80000000E+02  2.00000000E+02  0.00000000E+00
  3.80000000E+02  1.80000000E+02  0.00000000E+00
  3.80000000E+02  1.60000000E+02  0.00000000E+00
  3.80000000E+02  1.40000000E+02  0.00000000E+00
  3.80000000E+02  1.20000000E+02  0.00000000E+00
  3.80000000E+02  1.00000000E+02  0.00000000E+00
  3.80000000E+02  8.00000000E+01  0.00000000E+00
  3.80000000E+02  6.00000000E+01  0.00000000E+00
  3.80000000E+02  4.00000000E+01  0.00000000E+00
  3.80000000E+02  2.00000000E+01  0.00000000E+00
  3.80000000E+02  4.99600361E-14  0.00000000E+00
  4.00000000E+02  3.00000000E+02  0.00000000E+00
  4.00000000E+02  2.80000000E+02  0.00000000E+00
  4.00000000E+02  2.60000000E+02  0.00000000E+00
  4.00000000E+02  2.40000000E+02  0.00000000E+00
  4.00000000E+02  2.20000000E+02  0.00000000E+00
  4.00000000E+02  2.00000000E+02  0.00000000E+00
  4.00000000E+02  1.80000000E+02  0.00000000E+00
  4.00000000E+02  1.60000000E+02  0.00000000E+00
  4.00000000E+02  1.40000000E+02  0.00000000E+00
  4.00000000E+02  1.20000000E+02  0.00000000E+00
  4.00000000E+02  1.00000000E+02  0.00000000E+00
  4.00000000E+02  8.00000000E+01  0.00000000E+00
  4.00000000E+02  6.00000000E+01  0.00000000E+00
  4.00000000E+02  4.00000000E+01  0.00000000E+00
  4.00000000E+02  2.00000000E+01  0.00000000E+00
  4.00000000E+02  4.99600361E-14  0.00000000E+00
  4.20000000E+02  3.00000000E+02  0.00000000E+00
  4.20000000E+02  2.80000000E+02  0.00000000E+00
  4.20000000E+02  2.60000000E+02  0.00000000E+00
  4.20000000E+02  2.40000000E+02  0.00000000E+00
  4.20000000E+02  2.20000000E+02  0.00000000E+00
  4.20000000E+02  2.00000000E+02  0.00000000E+00
  4.20000000E+02  1.80000000E+02  0.00000000E+00
  4.20000000E+02  1.60000000E+02  0.00000000E+00
  4.20000000E+02  1.40000000E+02  0.00000000E+00
  4.20000000E+02  1.20000000E+02  0.00000000E+00
  4.20000000E+02  1.00000000E+02  0.00000000E+00
  4.20000000E+02  8.00000000E+01  0.00000000E+00
  4.20000000E+02  6.00000000E+01  0.00000000E+00
  4.20000000E+02  4.00000000E+01  0.00000000E+00
  4.20000000E+02  2.00000000E+01  0.00000000E+00
  4.20000000E+02  4.99600361E-14  0.00000000E+00
  4.40000000E+02  3.00000000E+02  0.00000000E+00
  4.40000000E+02  2.80000000E+02  0.00000000E+00
  4.40000000E+02  2.60000000E+02  0.00000000E+00
  4.40000000E+02  2.40000000E+02  0.00000000E+00
  4.40000000E+02  2.20000000E+02  0.00000000E+00
  4.40000000E+02  2.00000000E+02  0.00000000E+00
  4.40000000E+02  1.80000000E+02  0.00000000E+00
  4.40000000E+02  1.60000000E+02  0.00000000E+00
  4.40000000E+02  1.40000000E+02  0.00000000E+00
  4.40000000E+02  1.20000000E+02  0.00000000E+00
  4.40000000E+02  1.00000000E+02  0.00000000E+00
  4.40000000E+02  8.00000000E+01  0.00000000E+00
  4.40000000E+02  6.00000000E+01  0.00000000E+00
  4.40000000E+02  4.00000000E+01  0.00000000E+00
  4.40000000E+02  2.00000000E+01  0.00000000E+00
  4.40000000E+02  4.99600361E-14  0.00000000E+00
  4.60000000E+02  3.00000000E+02  0.00000000E+00
  4.60000000E+02  2.80000000E+02  0.00000000E+00
  4.60000000E+02  2.60000000E+02  0.00000000E+00
  4.60000000E+02  2.40000000E+02  0.00000000E+00
  4.60000000E+02  2.20000000E+02  0.00000000E+00
  4.60000000E+02  2.00000000E+02  0.00000000E+00
  4.60000000E+02  1.80000000E+02  0.00000000E+00
  4.60000000E+02  1.60000000E+02  0.00000000E+00
  4.60000000E+02  1.40000000E+02  0.00000000E+00
  4.60000000E+02  1.20000000E+02  0.00000000E+00
  4.60000000E+02  1.00000000E+02  0.00000000E+00
  4.60000000E+02  8.00000000E+01  0.00000000E+00
  4.60000000E+02  6.00000000E+01  0.00000000E+00
  4.60000000E+02  4.00000000E+01  0.00000000E+00
  4.60000000E+02  2.00000000E+01  0.00000000E+00
  4.60000000E+02  4.99600361E-14  0.00000000E+00
  4.80000000E+02  3.00000000E+02  0.00000000E+00
  4.80000000E+02  2.80000000E+02  0.00000000E+00
  4.80000000E+02  2.60000000E+02  0.00000000E+00
  4.80000000E+02  2.40000000E+02  0.00000000E+00
  4.80000000E+02  2.20000000E+02  0.00000000E+00
  4.80000000E+02  2.00000000E+02  0.00000000E+00
  4.80000000E+02  1.80000000E+02  0.00000000E+00
  4.80000000E+02  1.60000000E+02  0.00000000E+00
  4.80000000E+02  1.40000000E+02  0.00000000E+00
  4.80000000E+02  1.20000000E+02  0.00000000E+00
  4.80000000E+02  1.00000000E+02  0.00000000E+00
  4.80000000E+02  8.00000000E+01  0.00000000E+00
  4.80000000E+02  6.00000000E+01  0.00000000E+00
  4.80000000E+02  4.00000000E+01  0.00000000E+00
  4.80000000E+02  2.00000000E+01  0.00000000E+00
  4.80000000E+02  4.99600361E-14  0.00000000E+00
  5.00000000E+02  3.00000000E+02  0.00000000E+00
  5.00000000E+02  2.80000000E+02  0.00000000E+00
  5.00000000E+02  2.60000000E+02  0.00000000E+00
  5.00000000E+02  2.40000000E+02  0.00000000E+00
  5.00000000E+02  2.20000000E+02  0.00000000E+00
  5.00000000E+02  2.00000000E+02  0.00000000E+00
  5.00000000E+02  1.80000000E+02  0.00000000E+00
  5.00000000E+02  1.60000000E+02  0.00000000E+00
  5.00000000E+02  1.40000000E+02  0.00000000E+00
  5.00000000E+02  1.20000000E+02  0.00000000E+00
  5.00000000E+02  1.00000000E+02  0.00000000E+00
  5.00000000E+02  8.00000000E+01  0.00000000E+00
  5.00000000E+02  6.00000000E+01  0.00000000E+00
  5.00000000E+02  4.00000000E+01  0.00000000E+00
  5.00000000E+02  2.00000000E+01  0.00000000E+00
  5.00000000E+02  4.99600361E-14  0.00000000E+00
  5.20000000E+02  3.00000000E+02  0.00000000E+00
  5.20000000E+02  2.80000000E+02  0.00000000E+00
  5.20000000E+02  2.60000000E+02  0.00000000E+00
  5.20000000E+02  2.40000000E+02  0.00000000E+00
  5.20000000E+02  2.20000000E+02  0.00000000E+00
  5.20000000E+02  2.00000000E+02  0.00000000E+00
  5.20000000E+02  1.80000000E+02  0.00000000E+00
  5.20000000E+02  1.60000000E+02  0.00000000E+00
  5.20000000E+02  1.40000000E+02  0.00000000E+00
  5.20000000E+02  1.20000000E+02  0.00000000E+00
  5.20000000E+02  1.00000000E+02  0.00000000E+00
  5.20000000E+02  8.00000000E+01  0.00000000E+00
  5.20000000E+02  6.00000000E+01  0.00000000E+00
  5.20000000E+02  4.00000000E+01  0.00000000E+00
  5.20000000E+02  2.00000000E+01  0.00000000E+00
  5.20000000E+02  4.99600361E-14  0.00000000E+00
  5.40000000E+02  3.00000000E+02  0.00000000E+00
  5.40000000E+02  2.80000000E+02  0.00000000E+00
  5.40000000E+02  2.60000000E+02  0.00000000E+00
  5.40000000E+02  2.40000000E+02  0.00000000E+00
  5.40000000E+02  2.20000000E+02  0.00000000E+00
  5.40000000E+02  2.00000000E+02  0.00000000E+00
  5.40000000E+02  1.80000000E+02  0.00000000E+00
  5.40000000E+02  1.60000000E+02  0.00000000E+00
  5.40000000E+02  1.40000000E+02  0.00000000E+00
  5.40000000E+02  1.20000000E+02  0.00000000E+00
  5.40000000E+02  1.00000000E+02  0.00000000E+00
  5.40000000E+02  8.00000000E+01  0.00000000E+00
  5.40000000E+02  6.00000000E+01  0.00000000E+00
  5.40000000E+02  4.00000000E+01  0.00000000E+00
  5.40000000E+02  2.00000000E+01  0.00000000E+00
  5.40000000E+02  4.99600361E-14  0.00000000E+00
  5.60000000E+02  3.00000000E+02  0.00000000E+00
  5.60000000E+02  2.80000000E+02  0.00000000E+00
  5.60000000E+02  2.60000000E+02  0.00000000E+00
  5.60000000E+02  2.40000000E+02  0.00000000E+00
  5.60000000E+02  2.20000000E+02  0.00000000E+00
  5.60000000E+02  2.00000000E+02  0.00000000E+00
  5.60000000E+02  1.80000000E+02  0.00000000E+00
  5.60000000E+02  1.60000000E+02  0.00000000E+00
  5.60000000E+02  1.40000000E+02  0.00000000E+00
  5.60000000E+02  1.20000000E+02  0.00000000E+00
  5.60000000E+02  1.00000000E+02  0.00000000E+00
  5.60000000E+02  8.00000000E+01  0.00000000E+00
  5.60000000E+02  6.00000000E+01  0.00000000E+00
  5.60000000E+02  4.00000000E+01  0.00000000E+00
  5.60000000E+02  2.00000000E+01  0.00000000E+00
  5.60000000E+02  4.99600361E-14  0.00000000E+00
  5.80000000E+02  3.00000000E+02  0.00000000E+00
  5.80000000E+02  2.80000000E+02  0.00000000E+00
  5.80000000E+02  2.60000000E+02  0.00000000E+00
  5.80000000E+02  2.40000000E+02  0.00000000E+00
  5.80000000E+02  2.20000000E+02  0.00000000E+00
  5.80000000E+02  2.00000000E+02  0.00000000E+00
  5.80000000E+02  1.80000000E+02  0.00000000E+00
  5.80000000E+02  1.60000000E+02  0.00000000E+00
  5.80000000E+02  1.40000000E+02  0.00000000E+00
  5.80000000E+02  1.20000000E+02  0.00000000E+00
  5.80000000E+02  1.00000000E+02  0.00000000E+00
  5.80000000E+02  8.00000000E+01  0.00000000E+00
  5.80000000E+02  6.00000000E+01  0.00000000E+00
  5.80000000E+02  4.00000000E+01  0.00000000E+00
  5.80000000E+02  2.00000000E+01  0.00000000E+00
  5.80000000E+02  4.99600361E-14  0.00000000E+00
  6.00000000E+02  3.00000000E+02  0.00000000E+00
  6.00000000E+02  2.80000000E+02  0.00000000E+00
  6.00000000E+02  2.60000000E+02  0.00000000E+00
  6.00000000E+02  2.40000000E+02  0.00000000E+00
  6.00000000E+02  2.20000000E+02  0.00000000E+00
  6.00000000E+02  2.00000000E+02  0.00000000E+00
  6.00000000E+02  1.80000000E+02  0.00000000E+00
  6.00000000E+02  1.60000000E+02  0.00000000E+00
  6.00000000E+02  1.40000000E+02  0.00000000E+00
  6.00000000E+02  1.20000000E+02  0.00000000E+00
  6.00000000E+02  1.00000000E+02  0.00000000E+00
  6.00000000E+02  8.00000000E+01  0.00000000E+00
  6.00000000E+02  6.00000000E+01  0.00000000E+00
  6.00000000E+02  4.00000000E+01  0.00000000E+00
  6.00000000E+02  2.00000000E+01  0.00000000E+00
  6.00000000E+02  4.99600361E-14  0.00000000E+00
CELLS       450      2250
         4           0           1          17          16
         4           1           2          18          17
         4           2           3          19          18
         4           3           4          20          19
         4           4           5          21          20
         4           5           6          22          21
         4           6           7          23          22
         4           7           8          24          23
         4           8           9          25          24
         4           9          10          26          25
         4          10          11          27          26
         4          11          12          28          27
         4          12          13          29          28
         4          13          14          30          29
         4          14          15          31          30
         4          16          17          33          32
         4          17          18          34          33
         4          18          19          35          34
         4          19          20          36          35
         4          20          21          37          36
         4          21          22          38          37
         4          22          23          39          38
         4          23          24          40          39
         4          24          25          41          40
         4          25          26          42          41
         4          26          27          43          42
         4          27          28          44          43
         4          28          29          45          44
         4          29          30          46          45
         4          30          31          47          46
         4          32          33          49          48
         4          33          34          50          49
         4          34          35          51          50
         4          35          36          52          51
         4          36          37          53          52
         4          37          38          54          53
         4          38          39          55          54
         4          39          40          56          55
         4          40          41          57          56
         4          41          42          58          57
         4          42          43          59          58
         4          43          44          60          59
         4          44          45          61          60
         4          45          46          62          61
         4          46          47          63          62
         4          48          49          65          64
         4          49          50          66          65
         4          50          51          67          66
         4          51          52          68          67
         4          52          53          69          68
         4          53          54          70          69
         4          54          55          71          70
         4          55          56          72          71
         4          56          57          73          72
         4          57          58          74          73
         4          58          59          75          74
         4          59          60          76          75
         4          60          61          77          76
         4          61          62          78          77
         4          62          63          79          78
         4          64          65          81          80
         4          65          66          82          81
         4          66          67          83          82
         4          67          68          84          83
         4          68          69          85          84
         4          69          70          86          85
         4          70          71          87          86
         4          71          72          88          87
         4          72          73          89          88
         4          73          74          90          89
         4          74          75          91          90
         4          75          76          92          91
         4          76          77          93          92
         4          77          78          94          93
         4          78          79          95          94
         4          80          81          97          96
         4          81          82          98          97
         4          82          83          99          98
         4          83          84         100          99
         4          84          85         101         100
         4          85          86         102         101
         4          86          87         103         102
         4          87          88         104         103
         4          88          89         105         104
         4          89          90         106         105
         4          90          91         107         106
         4          91          92         108         107
         4          92          93         109         108
         4          93          94         110         109
         4          94          95         111         110
         4          96          97         113         112
         4          97          98         114         113
         4          98          99         115         114
         4          99         100         116         115
         4         100         101         117         116
         4         101         102         118         117
         4         102         103         119         118
         4         103         104         120         119
         4         104         105         121         120
         4         105         106         122         121
         4         106         107         123         122
         4         107         108         124         123
         4         108         109         125         124
         4         109         110         126         125
         4         110         111         127         126
         4         112         113         129         128
         4         113         114         130         129
         4         114         115         131         130
         4         115         116         132         131
         4         116         117         133         132
         4         117         118         134         133
         4         118         119         135         134
         4         119         120         136         135
         4         120         121         137         136
         4         121         122         138         137
         4         122         123         139         138
         4         123         124         140         139
         4         124         125         141         140
         4         125         126         142         141
         4         126         127         143         142
         4         128         129         145         144
         4         129         130         146         145
         4         130         131         147         146
         4         131         132         148         147
         4         132         133         149         148
         4         133         134         150         149
         4         134         135         151         150
         4         135         136         152         151
         4         136         137         153         152
         4         137         138         154         153
         4         138         139         155         154
         4         139         140         156         155
         4         140         141         157         156
         4         141         142         158         157
         4         142         143         159         158
         4         144         145         161         160
         4         145         146         162         161
         4         146         147         163         162
         4         147         148         164         163
         4         148         149         165         164
         4         149         150         166         165
         4         150         151         167         166
         4         151         152         168         167
         4         152         153         169         168
         4         153         154         170         169
         4         154         155         171         170
         4         155         156         172         171
         4         156         157         173         172
         4         157         158         174         173
         4         158         159         175         174
         4         160         161         177         176
         4         161         162         178         177
         4         162         163         179         178
         4         163         164         180         179
         4         164         165         181         180
         4         165         166         182         181
         4         166         167         183         182
         4         167         168         184         183
         4         168         169         185         184
         4         169         170         186         185
         4         170         171         187         186
         4         171         172         188         187
         4         172         173         189         188
         4         173         174         190         189
         4         174         175         191         190
         4         176         177         193         192
         4         177         178         194         193
         4         178         179         195         194
         4         179         180         196         195
         4         180         181         197         196
         4         181         182         198         197
         4         182         183         199         198
         4         183         184         200         199
         4         184         185         201         200
         4         185         186         202         201
         4         186         187         203         202
         4         187         188         204         203
         4         188         189         205         204
         4         189         190         206         205
         4         190         191         207         206
         4         192         193         209         208
         4         193         194         210         209
         4         194         195         211         210
         4         195         196         212         211
         4         196         197         213         212
         4         197         198         214         213
         4         198         199         215         214
         4         199         200         216         215
         4         200         201         217         216
         4         201         202         218         217
         4         202         203         219         218
         4         203         204         220         219
         4         204         205         221         220
         4         205         206         222         221
         4         206         207         223         222
         4         208         209         225         224
         4         209         210         226         225
         4         210         211         227         226
         4         211         212         228         227
         4         212         213         229         228
         4         213         214         230         229
         4         214         215         231         230
         4         215         216         232         231
         4         216         217         233         232
         4         217         218         234         233
         4         218         219         235         234
         4         219         220         236         235
         4         220         221         237         236
         4         221         222         238         237
         4         222         223         239         238
         4         224         225         241         240
         4         225         226         242         241
         4         226         227         243         242
         4         227         228         244         243
         4         228         229         245         244
         4         229         230         246         245
         4         230         231         247         246
         4         231         232         248         247
         4         232         233         249         248
         4         233         234         250         249
         4         234         235         251         250
         4         235         236         252         251
         4         236         237         253         252
         4         237         238         254         253
         4         238         239         255         254
         4         240         241         257         256
         4         241         242         258         257
         4         242         243         259         258
         4         243         244         260         259
         4         244         245         261         260
         4         245         246         262         261
         4         246         247         263         262
         4         247         248         264         263
         4         248         249         265         264
         4         249         250         266         265
         4         250         251         267         266
         4         251         252         268         267
         4         252         253         269         268
         4         253         254         270         269
         4         254         255         271         270
         4         256         257         273         272
         4         257         258         274         273
         4         258         259         275         274
         4         259         260         276         275
         4         260         261         277         276
         4         261         262         278         277
         4         262         263         279         278
         4         263         264         280         279
         4         264         265         281         280
         4         265         266         282         281
         4         266         267         283         282
         4         267         268         284         283
         4         268         269         285         284
         4         269         270         286         285
         4         270         271         287         286
         4         272         273         289         288
         4         273         274         290         289
         4         274         275         291         290
         4         275         276         292         291
         4         276         277         293         292
         4         277         278         294         293
         4         278         279         295         294
         4         279         280         296         295
         4         280         281         297         296
         4         281         282         298         297
         4         282         283         299         298
         4         283         284         300         299
         4         284         285         301         300
         4         285         286         302         301
         4         286         287         303         302
         4         288         289         305         304
         4         289         290         306         305
         4         290         291         307         306
         4         291         292         308         307
         4         292         293         309         308
         4         293         294         310         309
         4         294         295         311         310
         4         295         296         312         311
         4         296         297         313         312
         4         297         298         314         313
         4         298         299         315         314
         4         299         300         316         315
         4         300         301         317         316
         4         301         302         318         317
         4         302         303         319         318
         4         304         305         321         320
         4         305         306         322         321
         4         306         307         323         322
         4         307         308         324         323
         4         308         309         325         324
         4         309         310         326         325
         4         310         311         327         326
         4         311         312         328         327
         4         312         313         329         328
         4         313         314         330         329
         4         314         315         331         330
         4         315         316         332         331
         4         316         317         333         332
         4         317         318         334         333
         4         318         319         335         334
         4         320         321         337         336
         4         321         322         338         337
         4         322         323         339         338
         4         323         324         340         339
         4         324         325         341         340
         4         325         326         342         341
         4         326         327         343         342
         4         327         328         344         343
         4         328         329         345         344
         4         329         330         346         345
         4         330         331         347         346
         4         331         332         348         347
         4         332         333         349         348
         4         333         334         350         349
         4         334         335         351         350
         4         336         337         353         352
         4         337         338         354         353
         4         338         339         355         354
         4         339         340         356         355
         4         340         341         357         356
         4         341         342         358         357
         4         342         343         359         358
         4         343         344         360         359
         4         344         345         361         360
         4         345         346         362         361
         4         346         347         363         362
         4         347         348         364         363
         4         348         349         365         364
         4         349         350         366         365
         4         350         351         367         366
         4         352         353         369         368
         4         353         354         370         369
         4         354         355         371         370
         4         355         356         372         371
         4         356         357         373         372
         4         357         358         374         373
         4         358         359         375         374
         4         359         360         376         375
         4         360         361         377         376
         4         361         362         378         377
         4         362         363         379         378
         4         363         364         380         379
         4         364         365         381         380
         4         365         366         382         381
         4         366         367         383         382
         4         368         369         385         384
         4         369         370         386         385
         4         370         371         387         386
         4         371         372         388         387
         4         372         373         389         388
         4         373         374         390         389
         4         374         375         391         390
         4         375         376         392         391
         4         376         377         393         392
         4         377         378         394         393
         4         378         379         395         394
         4         379         380         396         395
         4         380         381         397         396
         4         381         382         398         397
         4         382         383         399         398
         4         384         385         401         400
         4         385         386         402         401
         4         386         387         403         402
         4         387         388         404         403
         4         388         389         405         404
         4         389         390         406         405
         4         390         391         407         406
         4         391         392         408         407
         4         392         393         409         408
         4         393         394         410         409
         4         394         395         411         410
         4         395         396         412         411
         4         396         397         413         412
         4         397         398         414         413
         4         398         399         415         414
         4         400         401         417         416
         4         401         402         418         417
         4         402         403         419         418
         4         403         404         420         419
         4         404         405         421         420
         4         405         406         422         421
         4         406         407         423         422
         4         407         408         424         423
         4         408         409         425         424
         4         409         410         426         425
         4         410         411         427         426
         4         411         412         428         427
         4         412         413         429         428
         4         413         414         430         429
         4         414         415         431         430
         4         416         417         433         432
         4         417         418         434         433
         4         418         419         435         434
         4         419         420         436         435
         4         420         421         437         436
         4         421         422         438         437
         4         422         423         439         438
         4         423         424         440         439
         4         424         425         441         440
         4         425         426         442         441
         4         426         427         443         442
         4         427         428         444         443
         4         428         429         445         444
         4         429         430         446         445
         4         430         431         447         446
         4         432         433         449         448
         4         433         434         450         449
         4         434         435         451         450
         4         435         436         452         451
         4         436         437         453         452
         4         437         438         454         453
         4         438         439         455         454
         4         439         440         456         455
         4         440         441         457         456
         4         441         442         458         457
         4         442         443         459         458
         4         443         444         460         459
         4         444         445         461         460
         4         445         446         462         461
         4         446         447         463         462
         4         448         449         465         464
         4         449         450         466         465
         4         450         451         467         466
         4         451         452         468         467
         4         452         453         469         468
         4         453         454         470         469
         4         454         455         471         470
         4         455         456         472         471
         4         456         457         473         472
         4         457         458         474         473
         4         458         459         475         474
         4         459         460         476         475
         4         460         461         477         476
         4         461         462         478         477
         4         462         463         479         478
         4         464         465         481         480
         4         465         466         482         481
         4         466         467         483         482
         4         467         468         484         483
         4         468         469         485         484
         4         469         470         486         485
         4         470         471         487         486
         4         471         472         488         487
         4         472         473         489         488
         4         473         474         490         489
         4         474         475         491         490
         4         475         476         492         491
         4         476         477         493         492
         4         477         478         494         493
         4         478         479         495         494
CELL_TYPES        450
9
9
9
9
9
9
9
9
9
9
9
9
9
9
9
9
9
9
9
9
9
9
9
9
9
9
9
9
9
9
9
9
9
9
9
9
9
9
9
9
9
9
9
9
9
9
9
9
9
9
9
9
9
9
9
9
9
9
9
9
9
9
9
9
9
9
9
9
9
9
9
9
9
9
9
9
9
9
9
9
9
9
9
9
9
9
9
9
9
9
9
9
9
9
9
9
9
9
9
9
9
9
9
9
9
9
9
9
9
9
9
9
9
9
9
9
9
9
9
9
9
9
9
9
9
9
9
9
9
9
9
9
9
9
9
9
9
9
9
9
9
9
9
9
9
9
9
9
9
9
9
9
9
9
9
9
9
9
9
9
9
9
9
9
9
9
9
9
9
9
9
9
9
9
9
9
9
9
9
9
9
9
9
9
9
9
9
9
9
9
9
9
9
9
9
9
9
9
9
9
9
9
9
9
9
9
9
9
9
9
9
9
9
9
9
9
9
9
9
9
9
9
9
9
9
9
9
9
9
9
9
9
9
9
9
9
9
9
9
9
9
9
9
9
9
9
9
9
9
9
9
9
9
9
9
9
9
9
9
9
9
9
9
9
9
9
9
9
9
9
9
9
9
9
9
9
9
9
9
9
9
9
9
9
9
9
9
9
9
9
9
9
9
9
9
9
9
9
9
9
9
9
9
9
9
9
9
9
9
9
9
9
9
9
9
9
9
9
9
9
9
9
9
9
9
9
9
9
9
9
9
9
9
9
9
9
9
9
9
9
9
9
9
9
9
9
9
9
9
9
9
9
9
9
9
9
9
9
9
9
9
9
9
9
9
9
9
9
9
9
9
9
9
9
9
9
9
9
9
9
9
9
9
9
9
9
9
9
9
9
9
9
9
9
9
9
9
9
9
9
9
9
9
9
9
9
9
9
9
9
9
9
9
9
9
9
9
9
9
9
9
9
9
9
9
9
9
9
9
9
9
9
9
9
9
9
9
9
9
9
9
9
9
9
9
9
9
9
9
9
POINT_DATA       496
SCALARS p double 
LOOKUP_TABLE default
   90000000.0000000     
   90000000.0000000     
   90000000.0000000     
   90000000.0000000     
   90000000.0000000     
   90000000.0000000     
   90000000.0000000     
   90000000.0000000     
   90000000.0000000     
   90000000.0000000     
   90000000.0000000     
   90000000.0000000     
   90000000.0000000     
   90000000.0000000     
   90000000.0000000     
   90000000.0000000     
   85858809.9146414     
   85856246.5394799     
   85856692.6802722     
   85861291.7872548     
   85869957.0458265     
   85880665.8803423     
   85892801.3632400     
   85905223.8982950     
   85917348.3824416     
   85928766.2439349     
   85939124.6091172     
   85948050.9766798     
   85955098.8989817     
   85959731.3239340     
   85961417.6840258     
   85960335.1173394     
   81791559.5089301     
   81793976.6358067     
   81803024.5631475     
   81816736.2402720     
   81834859.2022477     
   81855230.8635498     
   81877017.0564213     
   81899185.1326510     
   81920874.4186487     
   81941438.4053746     
   81960328.6382788     
   81976991.9051363     
   81990801.6006347     
   82001051.6926734     
   82007112.4647403     
   82009110.5873350     
   77886126.3129206     
   77893231.6728602     
   77910013.0089426     
   77931350.1390853     
   77956706.3245018     
   77984543.4795071     
   78013488.5989251     
   78042554.8225241     
   78070926.9533368     
   78097953.6304144     
   78123065.5283595     
   78145686.8751850     
   78165158.8832353     
   78180691.2458521     
   78191355.0698331     
   78195803.2550240     
   74193924.4011459     
   74202940.3032687     
   74224454.4730725     
   74252110.0754734     
   74282996.7668166     
   74315592.0433957     
   74348728.2469082     
   74381572.4824265     
   74413499.9257832     
   74444002.4265262     
   74472616.1833305     
   74498836.0755803     
   74522019.7226852     
   74541261.2569045     
   74555147.3348182     
   74561211.0934947     
   70745734.1774363     
   70756415.4056051     
   70780469.9628315     
   70810981.5951907     
   70844219.6513190     
   70878341.3616001     
   70912352.4301351     
   70945660.7365369     
   70977885.9156636     
   71008732.9869922     
   71037903.1163159     
   71065003.0748580     
   71089424.7191377     
   71110153.6109601     
   71125432.4091955     
   71132179.5433592     
   67557489.2616230     
   67568093.1818502     
   67591856.1994533     
   67621602.3775934     
   67653480.3056486     
   67685578.6316979     
   67717036.9047983     
   67747499.0140794     
   67776829.4453784     
   67804955.2356552     
   67831757.9670438     
   67856972.2878025     
   67880050.6877628     
   67899951.7429022     
   67914801.8156791     
   67921386.4492837     
   64625275.2713649     
   64634537.0232115     
   64655238.8198972     
   64680878.9894701     
   64707903.4908548     
   64734597.8021373     
   64760295.7846707     
   64784865.3018710     
   64808397.4606368     
   64831025.7130322     
   64852806.6065104     
   64873612.9091455     
   64892999.4015143     
   64910005.3315099     
   64922863.5396863     
   64928602.5969656     
   61930804.0949725     
   61937842.7116431     
   61953397.4337132     
   61972264.1798457     
   61991587.8680306     
   62010065.2262263     
   62027318.9795764     
   62043456.0951199     
   62058781.1879561     
   62073617.9720960     
   62088190.5961595     
   62102522.2843462     
   62116316.6418452     
   62128794.6620423     
   62138471.1987746     
   62142872.6019387     
   59445793.4441676     
   59450095.6443667     
   59459185.7427160     
   59469490.1679137     
   59479122.0727439     
   59487363.3762963     
   59494215.1814704     
   59500055.9455399     
   59505405.4080252     
   59510770.5920252     
   59516541.9747367     
   59522908.4003456     
   59529764.1782225     
   59536589.6763654     
   59542298.0715593     
   59545057.0778075     
   57135970.5252319     
   57137332.2936148     
   57139348.2989594     
   57140174.8286572     
   57139025.8043878     
   57135877.2632964     
   57131177.9038054     
   57125611.6388731     
   57119924.9415857     
   57114810.8163443     
   57110830.9767087     
   57108355.2645390     
   57107500.0529900     
   57108053.8595182     
   57109388.3043874     
   57110365.8188682     
   54964381.3632902     
   54962839.5028343     
   54957756.0653065     
   54948952.6887992     
   54936761.2153801     
   54921893.3995283     
   54905283.0748340     
   54887944.1130446     
   54870862.6952603     
   54854924.9831307     
   54840871.3568624     
   54829264.7511649     
   54820461.7722874     
   54814580.1034302     
   54811463.5072912     
   54810655.9348637     
   52893945.2400118     
   52889709.8703253     
   52877944.9347067     
   52859968.9216095     
   52837163.6695558     
   52810959.6772743     
   52782779.2359475     
   52753974.1945581     
   52725777.4568532     
   52699273.8776680     
   52675387.8543404     
   52654881.2336213     
   52638355.3846920     
   52626254.6178049     
   52618873.8591147     
   52616380.9087750     
   50889296.1651387     
   50882691.6399223     
   50864972.6957243     
   50838729.0570874     
   50806268.5093979     
   50769678.3621613     
   50730841.6305696     
   50691437.2163893     
   50652941.1446066     
   50616636.1078237     
   50583630.0582383     
   50554881.4059823     
   50531228.1438880     
   50513420.3797793     
   50502159.7264345     
   50498154.1021679     
   48918013.9461603     
   48909431.0049958     
   48886680.1818110     
   48853373.5099178     
   48812588.5968036     
   48766976.7718803     
   48718829.1420255     
   48670122.7306188     
   48622560.6833839     
   48577613.6597629     
   48536564.7551583     
   48500557.7897162     
   48470648.3787120     
   48447858.5115489     
   48433237.9500399     
   48427939.0461224     
   46951367.8023399     
   46941227.1631367     
   46914469.2217566     
   46875478.6493196     
   46827932.8830280     
   46774936.0901489     
   46719117.0279528     
   46662706.9192231     
   46607608.1292808     
   46555459.8033224     
   46507703.2915986     
   46465648.3362499     
   46430540.5424438     
   46403631.3743559     
   46386253.4610404     
   46379905.9260142     
   44964692.5048843     
   44953418.6800169     
   44923711.4757877     
   44880491.5404639     
   44827865.0341782     
   44769269.3832938     
   44707589.5291611     
   44645255.9584892     
   44584332.4519588     
   44526598.4961401     
   44473629.0859301     
   44426873.3423895     
   44387732.9496219     
   44357641.7193956     
   44338148.3774431     
   44331005.6036740     
   42937501.6833461     
   42925505.2110324     
   42893889.8992786     
   42847896.0424554     
   42791894.5333296     
   42729535.5188321     
   42663873.4852108     
   42597476.3951013     
   42532524.5224215     
   42470902.8088499     
   42414289.1646464     
   42364240.2521169     
   42322275.9045621     
   42289963.3440124     
   42269002.5949445     
   42261314.7185552     
   40853422.8393749     
   40841089.0300216     
   40808556.3882641     
   40761191.7726910     
   40703478.7057125     
   40639163.7262793     
   40571383.7601918     
   40502779.4828909     
   40435598.6599423     
   40371792.4599681     
   40313106.9039323     
   40261171.0130255     
   40217582.8442497     
   40183994.3914949     
   40162196.1585775     
   40154201.9222841     
   38700018.3655995     
   38687700.8470898     
   38655170.0443952     
   38607749.6469029     
   38549897.8809208     
   38485348.9054173     
   38417238.1126000     
   38348214.5240545     
   38280543.2585710     
   38216200.6475619     
   38156964.1033094     
   38104498.3944088     
   38060439.5857365     
   38026477.5160558     
   38004437.2141898     
   37996358.9760140     
   36468538.9783555     
   36456556.6345934     
   36424863.1878380     
   36378591.1757791     
   36322050.3995327     
   36258863.4247425     
   36192085.9378351     
   36124314.1484881     
   36057781.9010314     
   35994450.1449818     
   35936091.0917688     
   35884368.9440695     
   35840918.6277590     
   35807423.4530670     
   35785691.9529801     
   35777733.1564830     
   34153641.5223983     
   34142277.7590650     
   34112168.0005735     
   34068124.8304323     
   34014200.8796291     
   33953818.5950623     
   33889883.5827396     
   33824883.5923888     
   33760976.3231334     
   33700069.3413887     
   33643894.9426365     
   33594082.1882507     
   33552227.8159368     
   33519967.2026560     
   33499045.8116489     
   33491390.3213108     
   31753092.2949071     
   31742595.8700732     
   31714725.8052777     
   31673861.9756627     
   31623704.5666552     
   31567398.8107313     
   31507639.2890332     
   31446757.0329147     
   31386794.2422487     
   31329571.1662856     
   31276748.6469401     
   31229888.8486091     
   31190516.1235330     
   31160179.6424062     
   31140518.8786570     
   31133331.6903703     
   29267469.5428508     
   29258056.4139907     
   29232993.1880735     
   29196126.8616525     
   29150722.5154940     
   29099583.4351147     
   29045143.2749038     
   28989536.9871444     
   28934658.5515127     
   28882211.8206057     
   28833758.4716987     
   28790765.4826994     
   28754654.0504024     
   28726852.1561121     
   28708853.2099918     
   28702282.1399093     
   26699873.9952103     
   26691729.6912912     
   26669953.7768010     
   26637769.2520290     
   26597936.1420171     
   26552865.3468003     
   26504692.6419860     
   26455327.4417457     
   26406489.5425235     
   26359741.8440892     
   26316522.6664107     
   26278179.0458376     
   26246002.2035028     
   26221267.7786626     
   26205285.5323775     
   26199463.5346983     
   24055653.4431080     
   24048935.2419420     
   24030840.4728149     
   24003883.2984793     
   23970264.2873503     
   23931969.8698930     
   23890816.1463836     
   23848467.3325299     
   23806448.3031412     
   23766158.9915777     
   23728891.9703691     
   23695852.3133381     
   23668178.9001282     
   23646969.2527570     
   23633315.3633563     
   23628363.0823753     
   21342145.7756504     
   21336983.1093466     
   21322868.7613129     
   21301530.4456687     
   21274579.9499322     
   21243572.7618754     
   21209999.9207232     
   21175267.8300350     
   21140686.8084444     
   21107470.1749245     
   21076740.6723120     
   21049539.7437410     
   21026836.1717933     
   21009532.1076896     
   20998475.5115225     
   20994503.3808762     
   18568444.3480108     
   18564933.2792430     
   18554974.4270431     
   18539454.3614666     
   18519415.7395973     
   18496010.7899440     
   18470411.9331864     
   18443754.4438439     
   18417107.9661550     
   18391467.6678384     
   18367755.3685322     
   18346823.2775736     
   18329453.6882002     
   18316349.9530897     
   18308108.4290787     
   18305217.1611990     
   15745193.8453894     
   15743370.0934390     
   15737530.8018534     
   15727756.4910059     
   15714637.4856586     
   15698974.3881016     
   15681621.5401019     
   15663413.4157860     
   15645136.4420512     
   15627521.5941257     
   15611246.0017379     
   15596936.1686093     
   15585166.1705897     
   15576440.0005528     
   15571149.6329331     
   15569420.4444378     
   12884440.3866976     
   12884182.3238310     
   12881953.9653746     
   12877474.9291508     
   12871059.2196234     
   12863175.3787766     
   12854313.0449498     
   12844941.6175110     
   12835497.8756159     
   12826385.1012804     
   12817976.6204395     
   12810619.9726672     
   12804638.0373515     
   12800321.0635394     
   12797886.8685887     
   12797388.4277499     
   10000000.0000000     
   10000000.0000000     
   10000000.0000000     
   10000000.0000000     
   10000000.0000000     
   10000000.0000000     
   10000000.0000000     
   10000000.0000000     
   10000000.0000000     
   10000000.0000000     
   10000000.0000000     
   10000000.0000000     
   10000000.0000000     
  10000000.00000000     
   10000000.0000000     
   10000000.0000000     
VECTORS u double 
    0.00000E+00         0.18228E-01         0.00000E+00
    0.00000E+00         0.17569E-01         0.00000E+00
    0.00000E+00         0.16528E-01         0.00000E+00
    0.00000E+00         0.15268E-01         0.00000E+00
    0.00000E+00         0.13921E-01         0.00000E+00
    0.00000E+00         0.12606E-01         0.00000E+00
    0.00000E+00         0.11362E-01         0.00000E+00
    0.00000E+00         0.10184E-01         0.00000E+00
    0.00000E+00         0.90459E-02         0.00000E+00
    0.00000E+00         0.79270E-02         0.00000E+00
    0.00000E+00         0.68056E-02         0.00000E+00
    0.00000E+00         0.56584E-02         0.00000E+00
    0.00000E+00         0.44574E-02         0.00000E+00
    0.00000E+00         0.31650E-02         0.00000E+00
    0.00000E+00         0.17241E-02         0.00000E+00
    0.00000E+00         0.00000E+00         0.00000E+00
    0.60417E-02         0.17514E-01         0.00000E+00
    0.51135E-02         0.16831E-01         0.00000E+00
    0.42087E-02         0.15843E-01         0.00000E+00
    0.34387E-02         0.14697E-01         0.00000E+00
    0.28089E-02         0.13500E-01         0.00000E+00
    0.24394E-02         0.12309E-01         0.00000E+00
    0.22360E-02         0.11142E-01         0.00000E+00
    0.20740E-02         0.10008E-01         0.00000E+00
    0.19253E-02         0.89013E-02         0.00000E+00
    0.17770E-02         0.78055E-02         0.00000E+00
    0.16197E-02         0.67025E-02         0.00000E+00
    0.14434E-02         0.55707E-02         0.00000E+00
    0.12344E-02         0.43828E-02         0.00000E+00
    0.97061E-03         0.31024E-02         0.00000E+00
    0.60839E-03         0.16730E-02         0.00000E+00
    0.00000E+00         0.00000E+00         0.00000E+00
    0.10283E-01         0.16296E-01         0.00000E+00
    0.86556E-02         0.15431E-01         0.00000E+00
    0.71725E-02         0.14499E-01         0.00000E+00
    0.60092E-02         0.13529E-01         0.00000E+00
    0.51925E-02         0.12539E-01         0.00000E+00
    0.46171E-02         0.11540E-01         0.00000E+00
    0.42050E-02         0.10526E-01         0.00000E+00
    0.38729E-02         0.95041E-02         0.00000E+00
    0.35706E-02         0.84801E-02         0.00000E+00
    0.32721E-02         0.74497E-02         0.00000E+00
    0.29577E-02         0.64006E-02         0.00000E+00
    0.26076E-02         0.53148E-02         0.00000E+00
    0.21961E-02         0.41684E-02         0.00000E+00
    0.16837E-02         0.29290E-02         0.00000E+00
    0.99662E-03         0.15525E-02         0.00000E+00
    0.00000E+00         0.00000E+00         0.00000E+00
    0.13126E-01         0.14381E-01         0.00000E+00
    0.11191E-01         0.13622E-01         0.00000E+00
    0.95911E-02         0.12849E-01         0.00000E+00
    0.82968E-02         0.12077E-01         0.00000E+00
    0.72992E-02         0.11285E-01         0.00000E+00
    0.65359E-02         0.10461E-01         0.00000E+00
    0.59340E-02         0.96067E-02         0.00000E+00
    0.54288E-02         0.87240E-02         0.00000E+00
    0.49691E-02         0.78168E-02         0.00000E+00
    0.45185E-02         0.68847E-02         0.00000E+00
    0.40483E-02         0.59205E-02         0.00000E+00
    0.35300E-02         0.49110E-02         0.00000E+00
    0.29290E-02         0.38373E-02         0.00000E+00
    0.21958E-02         0.26755E-02         0.00000E+00
    0.12555E-02         0.14010E-02         0.00000E+00
    0.00000E+00         0.00000E+00         0.00000E+00
    0.15538E-01         0.12143E-01         0.00000E+00
    0.13442E-01         0.11597E-01         0.00000E+00
    0.11714E-01         0.11022E-01         0.00000E+00
    0.10294E-01         0.10427E-01         0.00000E+00
    0.91414E-02         0.98084E-02         0.00000E+00
    0.82079E-02         0.91544E-02         0.00000E+00
    0.74346E-02         0.84605E-02         0.00000E+00
    0.67646E-02         0.77268E-02         0.00000E+00
    0.61492E-02         0.69549E-02         0.00000E+00
    0.55482E-02         0.61445E-02         0.00000E+00
    0.49265E-02         0.52910E-02         0.00000E+00
    0.42496E-02         0.43857E-02         0.00000E+00
    0.34776E-02         0.34157E-02         0.00000E+00
    0.25596E-02         0.23669E-02         0.00000E+00
    0.14285E-02         0.12282E-02         0.00000E+00
    0.00000E+00         0.00000E+00         0.00000E+00
    0.17624E-01         0.97744E-02         0.00000E+00
    0.15413E-01         0.94160E-02         0.00000E+00
    0.13566E-01         0.90303E-02         0.00000E+00
    0.12023E-01         0.86144E-02         0.00000E+00
    0.10733E-01         0.81649E-02         0.00000E+00
    0.96497E-02         0.76757E-02         0.00000E+00
    0.87218E-02         0.71423E-02         0.00000E+00
    0.78993E-02         0.65628E-02         0.00000E+00
    0.71360E-02         0.59372E-02         0.00000E+00
    0.63909E-02         0.52648E-02         0.00000E+00
    0.56260E-02         0.45428E-02         0.00000E+00
    0.48034E-02         0.37657E-02         0.00000E+00
    0.38821E-02         0.29265E-02         0.00000E+00
    0.28138E-02         0.20187E-02         0.00000E+00
    0.15414E-02         0.10404E-02         0.00000E+00
    0.00000E+00         0.00000E+00         0.00000E+00
    0.19400E-01         0.73169E-02         0.00000E+00
    0.17108E-01         0.71319E-02         0.00000E+00
    0.15162E-01         0.69211E-02         0.00000E+00
    0.13508E-01         0.66768E-02         0.00000E+00
    0.12096E-01         0.63939E-02         0.00000E+00
    0.10880E-01         0.60677E-02         0.00000E+00
    0.98139E-02         0.56946E-02         0.00000E+00
    0.88527E-02         0.52727E-02         0.00000E+00
    0.79529E-02         0.48009E-02         0.00000E+00
    0.70740E-02         0.42786E-02         0.00000E+00
    0.61774E-02         0.37041E-02         0.00000E+00
    0.52248E-02         0.30747E-02         0.00000E+00
    0.41760E-02         0.23878E-02         0.00000E+00
    0.29875E-02         0.16423E-02         0.00000E+00
    0.16120E-02         0.84224E-03         0.00000E+00
    0.00000E+00         0.00000E+00         0.00000E+00
    0.20890E-01         0.48076E-02         0.00000E+00
    0.18543E-01         0.47819E-02         0.00000E+00
    0.16519E-01         0.47336E-02         0.00000E+00
    0.14770E-01         0.46520E-02         0.00000E+00
    0.13250E-01         0.45306E-02         0.00000E+00
    0.11918E-01         0.43650E-02         0.00000E+00
    0.10730E-01         0.41520E-02         0.00000E+00
    0.96450E-02         0.38897E-02         0.00000E+00
    0.86221E-02         0.35773E-02         0.00000E+00
    0.76223E-02         0.32139E-02         0.00000E+00
    0.66079E-02         0.27992E-02         0.00000E+00
    0.55417E-02         0.23325E-02         0.00000E+00
    0.43862E-02         0.18141E-02         0.00000E+00
    0.31030E-02         0.12466E-02         0.00000E+00
    0.16533E-02         0.63721E-03         0.00000E+00
    0.00000E+00         0.00000E+00         0.00000E+00
    0.22117E-01         0.22742E-02         0.00000E+00
    0.19739E-01         0.23960E-02         0.00000E+00
    0.17655E-01         0.24988E-02         0.00000E+00
    0.15827E-01         0.25708E-02         0.00000E+00
    0.14216E-01         0.26049E-02         0.00000E+00
    0.12783E-01         0.25963E-02         0.00000E+00
    0.11489E-01         0.25422E-02         0.00000E+00
    0.10295E-01         0.24409E-02         0.00000E+00
    0.91638E-02         0.22915E-02         0.00000E+00
    0.80575E-02         0.20938E-02         0.00000E+00
    0.69405E-02         0.18480E-02         0.00000E+00
    0.57774E-02         0.15550E-02         0.00000E+00
    0.45341E-02         0.12169E-02         0.00000E+00
    0.31770E-02         0.83836E-03         0.00000E+00
    0.16748E-02         0.42799E-03         0.00000E+00
    0.00000E+00         0.00000E+00         0.00000E+00
    0.23109E-01        -0.26340E-03         0.00000E+00
    0.20716E-01        -0.44117E-05         0.00000E+00
    0.18588E-01         0.23961E-03         0.00000E+00
    0.16697E-01         0.45692E-03         0.00000E+00
    0.15010E-01         0.64015E-03         0.00000E+00
    0.13492E-01         0.78468E-03         0.00000E+00
    0.12107E-01         0.88771E-03         0.00000E+00
    0.10821E-01         0.94766E-03         0.00000E+00
    0.95959E-02         0.96385E-03         0.00000E+00
    0.83984E-02         0.93635E-03         0.00000E+00
    0.71941E-02         0.86594E-03         0.00000E+00
    0.59504E-02         0.75432E-03         0.00000E+00
    0.46361E-02         0.60469E-03         0.00000E+00
    0.32223E-02         0.42252E-03         0.00000E+00
    0.16836E-02         0.21658E-03         0.00000E+00
    0.00000E+00         0.00000E+00         0.00000E+00
    0.23889E-01        -0.27929E-02         0.00000E+00
    0.21491E-01        -0.24047E-02         0.00000E+00
    0.19334E-01        -0.20277E-02         0.00000E+00
    0.17395E-01        -0.16724E-02         0.00000E+00
    0.15647E-01        -0.13458E-02         0.00000E+00
    0.14059E-01        -0.10521E-02         0.00000E+00
    0.12600E-01        -0.79412E-03         0.00000E+00
    0.11236E-01        -0.57328E-03         0.00000E+00
    0.99335E-02        -0.39013E-03         0.00000E+00
    0.86603E-02        -0.24444E-03         0.00000E+00
    0.73842E-02        -0.13513E-03         0.00000E+00
    0.60751E-02        -0.60151E-04         0.00000E+00
    0.47048E-02        -0.15987E-04         0.00000E+00
    0.32483E-02         0.28293E-05         0.00000E+00
    0.16849E-02         0.43904E-05         0.00000E+00
    0.00000E+00         0.00000E+00         0.00000E+00
    0.24478E-01        -0.53076E-02         0.00000E+00
    0.22084E-01        -0.47965E-02         0.00000E+00
    0.19907E-01        -0.42929E-02         0.00000E+00
    0.17933E-01        -0.38055E-02         0.00000E+00
    0.16139E-01        -0.33402E-02         0.00000E+00
    0.14497E-01        -0.29010E-02         0.00000E+00
    0.12979E-01        -0.24903E-02         0.00000E+00
    0.11553E-01        -0.21093E-02         0.00000E+00
    0.10189E-01        -0.17587E-02         0.00000E+00
    0.88552E-02        -0.14381E-02         0.00000E+00
    0.75224E-02        -0.11464E-02         0.00000E+00
    0.61623E-02        -0.88165E-03         0.00000E+00
    0.47494E-02        -0.64051E-03         0.00000E+00
    0.32617E-02        -0.41811E-03         0.00000E+00
    0.16822E-02        -0.20763E-03         0.00000E+00
    0.00000E+00         0.00000E+00         0.00000E+00
    0.24894E-01        -0.78055E-02         0.00000E+00
    0.22506E-01        -0.71757E-02         0.00000E+00
    0.20320E-01        -0.65501E-02         0.00000E+00
    0.18322E-01        -0.59349E-02         0.00000E+00
    0.16495E-01        -0.53348E-02         0.00000E+00
    0.14814E-01        -0.47530E-02         0.00000E+00
    0.13252E-01        -0.41914E-02         0.00000E+00
    0.11781E-01        -0.36513E-02         0.00000E+00
    0.10371E-01        -0.31332E-02         0.00000E+00
    0.89921E-02        -0.26369E-02         0.00000E+00
    0.76172E-02        -0.21615E-02         0.00000E+00
    0.62197E-02        -0.17053E-02         0.00000E+00
    0.47762E-02        -0.12656E-02         0.00000E+00
    0.32672E-02        -0.83857E-03         0.00000E+00
    0.16779E-02        -0.41889E-03         0.00000E+00
    0.00000E+00         0.00000E+00         0.00000E+00
    0.25149E-01        -0.10287E-01         0.00000E+00
    0.22770E-01        -0.95415E-02         0.00000E+00
    0.20580E-01        -0.87968E-02         0.00000E+00
    0.18570E-01        -0.80567E-02         0.00000E+00
    0.16723E-01        -0.73244E-02         0.00000E+00
    0.15018E-01        -0.66019E-02         0.00000E+00
    0.13428E-01        -0.58910E-02         0.00000E+00
    0.11927E-01        -0.51927E-02         0.00000E+00
    0.10486E-01        -0.45075E-02         0.00000E+00
    0.90773E-02        -0.38354E-02         0.00000E+00
    0.76744E-02        -0.31759E-02         0.00000E+00
    0.62524E-02        -0.25278E-02         0.00000E+00
    0.47894E-02        -0.18892E-02         0.00000E+00
    0.32674E-02        -0.12574E-02         0.00000E+00
    0.16733E-02        -0.62907E-03         0.00000E+00
    0.00000E+00         0.00000E+00         0.00000E+00
    0.25251E-01        -0.12756E-01         0.00000E+00
    0.22881E-01        -0.11895E-01         0.00000E+00
    0.20694E-01        -0.11033E-01         0.00000E+00
    0.18682E-01        -0.10169E-01         0.00000E+00
    0.16829E-01        -0.93059E-02         0.00000E+00
    0.15113E-01        -0.84441E-02         0.00000E+00
    0.13510E-01        -0.75848E-02         0.00000E+00
    0.11995E-01        -0.67290E-02         0.00000E+00
    0.10538E-01        -0.58772E-02         0.00000E+00
    0.91144E-02        -0.50297E-02         0.00000E+00
    0.76973E-02        -0.41864E-02         0.00000E+00
    0.62631E-02        -0.33467E-02         0.00000E+00
    0.47910E-02        -0.25097E-02         0.00000E+00
    0.32637E-02        -0.16740E-02         0.00000E+00
    0.16689E-02        -0.83799E-03         0.00000E+00
    0.00000E+00         0.00000E+00         0.00000E+00
    0.25204E-01        -0.15213E-01         0.00000E+00
    0.22843E-01        -0.14238E-01         0.00000E+00
    0.20665E-01        -0.13258E-01         0.00000E+00
    0.18660E-01        -0.12271E-01         0.00000E+00
    0.16813E-01        -0.11277E-01         0.00000E+00
    0.15101E-01        -0.10277E-01         0.00000E+00
    0.13501E-01        -0.92697E-02         0.00000E+00
    0.11986E-01        -0.82569E-02         0.00000E+00
    0.10530E-01        -0.72392E-02         0.00000E+00
    0.91050E-02        -0.62170E-02         0.00000E+00
    0.76872E-02        -0.51907E-02         0.00000E+00
    0.62529E-02        -0.41604E-02         0.00000E+00
    0.47815E-02        -0.31261E-02         0.00000E+00
    0.32563E-02        -0.20878E-02         0.00000E+00
    0.16647E-02        -0.10456E-02         0.00000E+00
    0.00000E+00         0.00000E+00         0.00000E+00
    0.25006E-01        -0.17663E-01         0.00000E+00
    0.22656E-01        -0.16572E-01         0.00000E+00
    0.20493E-01        -0.15474E-01         0.00000E+00
    0.18506E-01        -0.14363E-01         0.00000E+00
    0.16677E-01        -0.13238E-01         0.00000E+00
    0.14984E-01        -0.12098E-01         0.00000E+00
    0.13401E-01        -0.10943E-01         0.00000E+00
    0.11902E-01        -0.97734E-02         0.00000E+00
    0.10460E-01        -0.85904E-02         0.00000E+00
    0.90490E-02        -0.73945E-02         0.00000E+00
    0.76437E-02        -0.61865E-02         0.00000E+00
    0.62210E-02        -0.49672E-02         0.00000E+00
    0.47602E-02        -0.37374E-02         0.00000E+00
    0.32443E-02        -0.24983E-02         0.00000E+00
    0.16602E-02        -0.12517E-02         0.00000E+00
    0.00000E+00         0.00000E+00         0.00000E+00
    0.24654E-01        -0.20106E-01         0.00000E+00
    0.22316E-01        -0.18898E-01         0.00000E+00
    0.20176E-01        -0.17679E-01         0.00000E+00
    0.18218E-01        -0.16442E-01         0.00000E+00
    0.16420E-01        -0.15185E-01         0.00000E+00
    0.14759E-01        -0.13904E-01         0.00000E+00
    0.13208E-01        -0.12601E-01         0.00000E+00
    0.11740E-01        -0.11275E-01         0.00000E+00
    0.10328E-01        -0.99279E-02         0.00000E+00
    0.89445E-02        -0.85596E-02         0.00000E+00
    0.75649E-02        -0.71717E-02         0.00000E+00
    0.61655E-02        -0.57655E-02         0.00000E+00
    0.47252E-02        -0.43426E-02         0.00000E+00
    0.32262E-02        -0.29051E-02         0.00000E+00
    0.16543E-02        -0.14561E-02         0.00000E+00
    0.00000E+00         0.00000E+00         0.00000E+00
    0.24138E-01        -0.22542E-01         0.00000E+00
    0.21819E-01        -0.21214E-01         0.00000E+00
    0.19710E-01        -0.19872E-01         0.00000E+00
    0.17792E-01        -0.18507E-01         0.00000E+00
    0.16039E-01        -0.17115E-01         0.00000E+00
    0.14424E-01        -0.15693E-01         0.00000E+00
    0.12920E-01        -0.14241E-01         0.00000E+00
    0.11498E-01        -0.12759E-01         0.00000E+00
    0.10130E-01        -0.11248E-01         0.00000E+00
    0.87885E-02        -0.97088E-02         0.00000E+00
    0.74476E-02        -0.81434E-02         0.00000E+00
    0.60833E-02        -0.65532E-02         0.00000E+00
    0.46737E-02        -0.49402E-02         0.00000E+00
    0.31998E-02        -0.33073E-02         0.00000E+00
    0.16458E-02        -0.16587E-02         0.00000E+00
    0.00000E+00         0.00000E+00         0.00000E+00
    0.23450E-01        -0.24966E-01         0.00000E+00
    0.21155E-01        -0.23516E-01         0.00000E+00
    0.19089E-01        -0.22048E-01         0.00000E+00
    0.17223E-01        -0.20552E-01         0.00000E+00
    0.15529E-01        -0.19022E-01         0.00000E+00
    0.13976E-01        -0.17457E-01         0.00000E+00
    0.12534E-01        -0.15856E-01         0.00000E+00
    0.11173E-01        -0.14218E-01         0.00000E+00
    0.98630E-02        -0.12545E-01         0.00000E+00
    0.85767E-02        -0.10838E-01         0.00000E+00
    0.72874E-02        -0.90979E-02         0.00000E+00
    0.59702E-02        -0.73274E-02         0.00000E+00
    0.46021E-02        -0.55282E-02         0.00000E+00
    0.31624E-02        -0.37038E-02         0.00000E+00
    0.16331E-02        -0.18587E-02         0.00000E+00
    0.00000E+00         0.00000E+00         0.00000E+00
    0.22574E-01        -0.27371E-01         0.00000E+00
    0.20316E-01        -0.25796E-01         0.00000E+00
    0.18304E-01        -0.24199E-01         0.00000E+00
    0.16506E-01        -0.22569E-01         0.00000E+00
    0.14886E-01        -0.20900E-01         0.00000E+00
    0.13410E-01        -0.19190E-01         0.00000E+00
    0.12045E-01        -0.17438E-01         0.00000E+00
    0.10759E-01        -0.15645E-01         0.00000E+00
    0.95211E-02        -0.13812E-01         0.00000E+00
    0.83036E-02        -0.11940E-01         0.00000E+00
    0.70789E-02        -0.10030E-01         0.00000E+00
    0.58211E-02        -0.80842E-02         0.00000E+00
    0.45058E-02        -0.61040E-02         0.00000E+00
    0.31104E-02        -0.40928E-02         0.00000E+00
    0.16143E-02        -0.20556E-02         0.00000E+00
    0.00000E+00         0.00000E+00         0.00000E+00
    0.21497E-01        -0.29747E-01         0.00000E+00
    0.19289E-01        -0.28044E-01         0.00000E+00
    0.17348E-01        -0.26314E-01         0.00000E+00
    0.15634E-01        -0.24546E-01         0.00000E+00
    0.14104E-01        -0.22735E-01         0.00000E+00
    0.12720E-01        -0.20879E-01         0.00000E+00
    0.11447E-01        -0.18977E-01         0.00000E+00
    0.10250E-01        -0.17030E-01         0.00000E+00
    0.90983E-02        -0.15040E-01         0.00000E+00
    0.79627E-02        -0.13008E-01         0.00000E+00
    0.68153E-02        -0.10934E-01         0.00000E+00
    0.56295E-02        -0.88186E-02         0.00000E+00
    0.43793E-02        -0.66639E-02         0.00000E+00
    0.30397E-02        -0.44723E-02         0.00000E+00
    0.15871E-02        -0.22484E-02         0.00000E+00
    0.00000E+00         0.00000E+00         0.00000E+00
    0.20202E-01        -0.32077E-01         0.00000E+00
    0.18063E-01        -0.30244E-01         0.00000E+00
    0.16212E-01        -0.28378E-01         0.00000E+00
    0.14600E-01        -0.26469E-01         0.00000E+00
    0.13178E-01        -0.24513E-01         0.00000E+00
    0.11902E-01        -0.22509E-01         0.00000E+00
    0.10735E-01        -0.20457E-01         0.00000E+00
    0.96406E-02        -0.18360E-01         0.00000E+00
    0.85874E-02        -0.16218E-01         0.00000E+00
    0.75461E-02        -0.14031E-01         0.00000E+00
    0.64886E-02        -0.11800E-01         0.00000E+00
    0.53876E-02        -0.95240E-02         0.00000E+00
    0.42156E-02        -0.72034E-02         0.00000E+00
    0.29451E-02        -0.48394E-02         0.00000E+00
    0.15487E-02        -0.24359E-02         0.00000E+00
    0.00000E+00         0.00000E+00         0.00000E+00
    0.18672E-01        -0.34342E-01         0.00000E+00
    0.16625E-01        -0.32375E-01         0.00000E+00
    0.14888E-01        -0.30370E-01         0.00000E+00
    0.13398E-01        -0.28317E-01         0.00000E+00
    0.12102E-01        -0.26214E-01         0.00000E+00
    0.10950E-01        -0.24062E-01         0.00000E+00
    0.99027E-02        -0.21862E-01         0.00000E+00
    0.89231E-02        -0.19618E-01         0.00000E+00
    0.79800E-02        -0.17329E-01         0.00000E+00
    0.70445E-02        -0.14997E-01         0.00000E+00
    0.60891E-02        -0.12618E-01         0.00000E+00
    0.50861E-02        -0.10192E-01         0.00000E+00
    0.40066E-02        -0.77169E-02         0.00000E+00
    0.28203E-02        -0.51908E-02         0.00000E+00
    0.14956E-02        -0.26164E-02         0.00000E+00
    0.00000E+00         0.00000E+00         0.00000E+00
    0.16890E-01        -0.36516E-01         0.00000E+00
    0.14964E-01        -0.34413E-01         0.00000E+00
    0.13366E-01        -0.32264E-01         0.00000E+00
    0.12023E-01        -0.30064E-01         0.00000E+00
    0.10871E-01        -0.27813E-01         0.00000E+00
    0.98589E-02        -0.25513E-01         0.00000E+00
    0.89434E-02        -0.23170E-01         0.00000E+00
    0.80893E-02        -0.20785E-01         0.00000E+00
    0.72663E-02        -0.18359E-01         0.00000E+00
    0.64472E-02        -0.15891E-01         0.00000E+00
    0.56053E-02        -0.13377E-01         0.00000E+00
    0.47134E-02        -0.10815E-01         0.00000E+00
    0.37418E-02        -0.81975E-02         0.00000E+00
    0.26574E-02        -0.55224E-02         0.00000E+00
    0.14234E-02        -0.27885E-02         0.00000E+00
    0.00000E+00         0.00000E+00         0.00000E+00
    0.14838E-01        -0.38564E-01         0.00000E+00
    0.13069E-01        -0.36323E-01         0.00000E+00
    0.11642E-01        -0.34028E-01         0.00000E+00
    0.10470E-01        -0.31678E-01         0.00000E+00
    0.94822E-02        -0.29279E-01         0.00000E+00
    0.86228E-02        -0.26835E-01         0.00000E+00
    0.78498E-02        -0.24354E-01         0.00000E+00
    0.71298E-02        -0.21837E-01         0.00000E+00
    0.64352E-02        -0.19285E-01         0.00000E+00
    0.57411E-02        -0.16695E-01         0.00000E+00
    0.50232E-02        -0.14062E-01         0.00000E+00
    0.42556E-02        -0.11379E-01         0.00000E+00
    0.34084E-02        -0.86372E-02         0.00000E+00
    0.24463E-02        -0.58293E-02         0.00000E+00
    0.13264E-02        -0.29499E-02         0.00000E+00
    0.00000E+00         0.00000E+00         0.00000E+00
    0.12498E-01        -0.40447E-01         0.00000E+00
    0.10931E-01        -0.38065E-01         0.00000E+00
    0.97123E-02        -0.35621E-01         0.00000E+00
    0.87385E-02        -0.33121E-01         0.00000E+00
    0.79316E-02        -0.30575E-01         0.00000E+00
    0.72364E-02        -0.27994E-01         0.00000E+00
    0.66136E-02        -0.25385E-01         0.00000E+00
    0.60340E-02        -0.22750E-01         0.00000E+00
    0.54737E-02        -0.20087E-01         0.00000E+00
    0.49116E-02        -0.17391E-01         0.00000E+00
    0.43267E-02        -0.14657E-01         0.00000E+00
    0.36957E-02        -0.11873E-01         0.00000E+00
    0.29903E-02        -0.90267E-02         0.00000E+00
    0.21736E-02        -0.61058E-02         0.00000E+00
    0.11971E-02        -0.30983E-02         0.00000E+00
    0.00000E+00         0.00000E+00         0.00000E+00
    0.98559E-02        -0.42112E-01         0.00000E+00
    0.85460E-02        -0.39587E-01         0.00000E+00
    0.75776E-02        -0.36992E-01         0.00000E+00
    0.68278E-02        -0.34342E-01         0.00000E+00
    0.62162E-02        -0.31659E-01         0.00000E+00
    0.56927E-02        -0.28954E-01         0.00000E+00
    0.52248E-02        -0.26232E-01         0.00000E+00
    0.47891E-02        -0.23496E-01         0.00000E+00
    0.43669E-02        -0.20741E-01         0.00000E+00
    0.39417E-02        -0.17960E-01         0.00000E+00
    0.34970E-02        -0.15145E-01         0.00000E+00
    0.30136E-02        -0.12282E-01         0.00000E+00
    0.24669E-02        -0.93548E-02         0.00000E+00
    0.18216E-02        -0.63448E-02         0.00000E+00
    0.10245E-02        -0.32312E-02         0.00000E+00
    0.00000E+00         0.00000E+00         0.00000E+00
    0.68956E-02        -0.43491E-01         0.00000E+00
    0.59164E-02        -0.40821E-01         0.00000E+00
    0.52442E-02        -0.38074E-01         0.00000E+00
    0.47391E-02        -0.35286E-01         0.00000E+00
    0.43307E-02        -0.32483E-01         0.00000E+00
    0.39822E-02        -0.29675E-01         0.00000E+00
    0.36707E-02        -0.26865E-01         0.00000E+00
    0.33801E-02        -0.24051E-01         0.00000E+00
    0.30979E-02        -0.21226E-01         0.00000E+00
    0.28130E-02        -0.18383E-01         0.00000E+00
    0.25137E-02        -0.15509E-01         0.00000E+00
    0.21865E-02        -0.12590E-01         0.00000E+00
    0.18132E-02        -0.96075E-02         0.00000E+00
    0.13657E-02        -0.65369E-02         0.00000E+00
    0.79235E-03        -0.33445E-02         0.00000E+00
    0.00000E+00         0.00000E+00         0.00000E+00
    0.36057E-02        -0.44486E-01         0.00000E+00
    0.30587E-02        -0.41669E-01         0.00000E+00
    0.27205E-02        -0.38784E-01         0.00000E+00
    0.24681E-02        -0.35889E-01         0.00000E+00
    0.22646E-02        -0.33001E-01         0.00000E+00
    0.20908E-02        -0.30125E-01         0.00000E+00
    0.19353E-02        -0.27257E-01         0.00000E+00
    0.17900E-02        -0.24394E-01         0.00000E+00
    0.16487E-02        -0.21525E-01         0.00000E+00
    0.15057E-02        -0.18643E-01         0.00000E+00
    0.13551E-02        -0.15734E-01         0.00000E+00
    0.11900E-02        -0.12783E-01         0.00000E+00
    0.10007E-02        -0.97689E-02         0.00000E+00
    0.77140E-03        -0.66660E-02         0.00000E+00
    0.47170E-03        -0.34324E-02         0.00000E+00
    0.00000E+00         0.00000E+00         0.00000E+00
    0.00000E+00        -0.44917E-01         0.00000E+00
    0.00000E+00        -0.41984E-01         0.00000E+00
    0.00000E+00        -0.39034E-01         0.00000E+00
    0.00000E+00        -0.36097E-01         0.00000E+00
    0.00000E+00        -0.33178E-01         0.00000E+00
    0.00000E+00        -0.30277E-01         0.00000E+00
    0.00000E+00        -0.27390E-01         0.00000E+00
    0.00000E+00        -0.24509E-01         0.00000E+00
    0.00000E+00        -0.21626E-01         0.00000E+00
    0.00000E+00        -0.18731E-01         0.00000E+00
    0.00000E+00        -0.15810E-01         0.00000E+00
    0.00000E+00        -0.12848E-01         0.00000E+00
    0.00000E+00        -0.98247E-02         0.00000E+00
    0.00000E+00        -0.67123E-02         0.00000E+00
    0.00000E+00        -0.34692E-02         0.00000E+00
    0.00000E+00         0.00000E+00         0.00000E+00
CELL_DATA        450
VECTORS vDarcy double 
    0.29742E-07        -0.92022E-11         0.00000E+00
    0.29735E-07         0.16008E-11         0.00000E+00
    0.29701E-07         0.16494E-10         0.00000E+00
    0.29638E-07         0.31060E-10         0.00000E+00
    0.29556E-07         0.38368E-10         0.00000E+00
    0.29466E-07         0.43468E-10         0.00000E+00
    0.29373E-07         0.44487E-10         0.00000E+00
    0.29280E-07         0.43413E-10         0.00000E+00
    0.29192E-07         0.40878E-10         0.00000E+00
    0.29111E-07         0.37080E-10         0.00000E+00
    0.29038E-07         0.31950E-10         0.00000E+00
    0.28978E-07         0.25224E-10         0.00000E+00
    0.28933E-07         0.16577E-10         0.00000E+00
    0.28906E-07         0.60338E-11         0.00000E+00
    0.28899E-07        -0.38727E-11         0.00000E+00
    0.29146E-07        -0.52433E-12         0.00000E+00
    0.29086E-07         0.34025E-10         0.00000E+00
    0.29014E-07         0.65602E-10         0.00000E+00
    0.28941E-07         0.95954E-10         0.00000E+00
    0.28868E-07         0.11131E-09         0.00000E+00
    0.28794E-07         0.12147E-09         0.00000E+00
    0.28719E-07         0.12384E-09         0.00000E+00
    0.28646E-07         0.12104E-09         0.00000E+00
    0.28576E-07         0.11447E-09         0.00000E+00
    0.28509E-07         0.10467E-09         0.00000E+00
    0.28448E-07         0.91570E-10         0.00000E+00
    0.28393E-07         0.74629E-10         0.00000E+00
    0.28345E-07         0.53244E-10         0.00000E+00
    0.28306E-07         0.27713E-10         0.00000E+00
    0.28276E-07         0.32747E-11         0.00000E+00
    0.27960E-07         0.34107E-10         0.00000E+00
    0.27911E-07         0.92501E-10         0.00000E+00
    0.27854E-07         0.12551E-09         0.00000E+00
    0.27798E-07         0.15568E-09         0.00000E+00
    0.27741E-07         0.17259E-09         0.00000E+00
    0.27685E-07         0.18160E-09         0.00000E+00
    0.27631E-07         0.18337E-09         0.00000E+00
    0.27579E-07         0.17915E-09         0.00000E+00
    0.27529E-07         0.17029E-09         0.00000E+00
    0.27480E-07         0.15743E-09         0.00000E+00
    0.27434E-07         0.14054E-09         0.00000E+00
    0.27390E-07         0.11905E-09         0.00000E+00
    0.27348E-07         0.92219E-10         0.00000E+00
    0.27310E-07         0.59815E-10         0.00000E+00
    0.27283E-07         0.23053E-10         0.00000E+00
    0.26431E-07         0.57718E-10         0.00000E+00
    0.26405E-07         0.13709E-09         0.00000E+00
    0.26362E-07         0.17537E-09         0.00000E+00
    0.26317E-07         0.20130E-09         0.00000E+00
    0.26278E-07         0.21627E-09         0.00000E+00
    0.26243E-07         0.22215E-09         0.00000E+00
    0.26211E-07         0.22152E-09         0.00000E+00
    0.26182E-07         0.21573E-09         0.00000E+00
    0.26155E-07         0.20580E-09         0.00000E+00
    0.26127E-07         0.19217E-09         0.00000E+00
    0.26100E-07         0.17469E-09         0.00000E+00
    0.26071E-07         0.15255E-09         0.00000E+00
    0.26043E-07         0.12435E-09         0.00000E+00
    0.26016E-07         0.87785E-10         0.00000E+00
    0.25997E-07         0.37586E-10         0.00000E+00
    0.24674E-07         0.70491E-10         0.00000E+00
    0.24658E-07         0.16307E-09         0.00000E+00
    0.24636E-07         0.20813E-09         0.00000E+00
    0.24616E-07         0.22943E-09         0.00000E+00
    0.24600E-07         0.23869E-09         0.00000E+00
    0.24589E-07         0.24020E-09         0.00000E+00
    0.24582E-07         0.23662E-09         0.00000E+00
    0.24577E-07         0.22945E-09         0.00000E+00
    0.24572E-07         0.21941E-09         0.00000E+00
    0.24567E-07         0.20664E-09         0.00000E+00
    0.24560E-07         0.19066E-09         0.00000E+00
    0.24551E-07         0.17021E-09         0.00000E+00
    0.24540E-07         0.14291E-09         0.00000E+00
    0.24528E-07         0.10427E-09         0.00000E+00
    0.24520E-07         0.45798E-10         0.00000E+00
    0.22811E-07         0.76144E-10         0.00000E+00
    0.22811E-07         0.17105E-09         0.00000E+00
    0.22814E-07         0.21554E-09         0.00000E+00
    0.22820E-07         0.23290E-09         0.00000E+00
    0.22830E-07         0.23683E-09         0.00000E+00
    0.22845E-07         0.23413E-09         0.00000E+00
    0.22863E-07         0.22804E-09         0.00000E+00
    0.22881E-07         0.22010E-09         0.00000E+00
    0.22900E-07         0.21085E-09         0.00000E+00
    0.22916E-07         0.20011E-09         0.00000E+00
    0.22930E-07         0.18702E-09         0.00000E+00
    0.22940E-07         0.16980E-09         0.00000E+00
    0.22947E-07         0.14523E-09         0.00000E+00
    0.22951E-07         0.10769E-09         0.00000E+00
    0.22952E-07         0.47652E-10         0.00000E+00
    0.20976E-07         0.71041E-10         0.00000E+00
    0.20991E-07         0.15900E-09         0.00000E+00
    0.21016E-07         0.19805E-09         0.00000E+00
    0.21047E-07         0.21061E-09         0.00000E+00
    0.21082E-07         0.21021E-09         0.00000E+00
    0.21121E-07         0.20434E-09         0.00000E+00
    0.21161E-07         0.19674E-09         0.00000E+00
    0.21202E-07         0.18897E-09         0.00000E+00
    0.21241E-07         0.18142E-09         0.00000E+00
    0.21278E-07         0.17365E-09         0.00000E+00
    0.21310E-07         0.16448E-09         0.00000E+00
    0.21338E-07         0.15177E-09         0.00000E+00
    0.21361E-07         0.13190E-09         0.00000E+00
    0.21378E-07         0.99022E-10         0.00000E+00
    0.21387E-07         0.44041E-10         0.00000E+00
    0.19273E-07         0.58272E-10         0.00000E+00
    0.19299E-07         0.12961E-09         0.00000E+00
    0.19341E-07         0.15910E-09         0.00000E+00
    0.19392E-07         0.16567E-09         0.00000E+00
    0.19448E-07         0.16146E-09         0.00000E+00
    0.19506E-07         0.15352E-09         0.00000E+00
    0.19566E-07         0.14549E-09         0.00000E+00
    0.19624E-07         0.13887E-09         0.00000E+00
    0.19680E-07         0.13389E-09         0.00000E+00
    0.19733E-07         0.12991E-09         0.00000E+00
    0.19781E-07         0.12556E-09         0.00000E+00
    0.19824E-07         0.11856E-09         0.00000E+00
    0.19859E-07         0.10535E-09         0.00000E+00
    0.19886E-07         0.80518E-10         0.00000E+00
    0.19902E-07         0.36232E-10         0.00000E+00
    0.17771E-07         0.40529E-10         0.00000E+00
    0.17804E-07         0.88074E-10         0.00000E+00
    0.17858E-07         0.10425E-09         0.00000E+00
    0.17922E-07         0.10347E-09         0.00000E+00
    0.17993E-07         0.95478E-10         0.00000E+00
    0.18066E-07         0.86137E-10         0.00000E+00
    0.18139E-07         0.78531E-10         0.00000E+00
    0.18211E-07         0.73871E-10         0.00000E+00
    0.18280E-07         0.72180E-10         0.00000E+00
    0.18344E-07         0.72684E-10         0.00000E+00
    0.18404E-07         0.73947E-10         0.00000E+00
    0.18456E-07         0.73774E-10         0.00000E+00
    0.18501E-07         0.68961E-10         0.00000E+00
    0.18535E-07         0.54961E-10         0.00000E+00
    0.18555E-07         0.25580E-10         0.00000E+00
    0.16515E-07         0.20236E-10         0.00000E+00
    0.16551E-07         0.39679E-10         0.00000E+00
    0.16610E-07         0.39768E-10         0.00000E+00
    0.16682E-07         0.30306E-10         0.00000E+00
    0.16761E-07         0.18194E-10         0.00000E+00
    0.16842E-07         0.76895E-11         0.00000E+00
    0.16924E-07         0.98061E-12         0.00000E+00
    0.17004E-07        -0.12047E-11         0.00000E+00
    0.17080E-07         0.89682E-12         0.00000E+00
    0.17152E-07         0.63995E-11         0.00000E+00
    0.17218E-07         0.13897E-10         0.00000E+00
    0.17276E-07         0.21433E-10         0.00000E+00
    0.17326E-07         0.26357E-10         0.00000E+00
    0.17364E-07         0.25155E-10         0.00000E+00
    0.17386E-07         0.13346E-10         0.00000E+00
    0.15524E-07        -0.64326E-12         0.00000E+00
    0.15559E-07        -0.10956E-10         0.00000E+00
    0.15619E-07        -0.28492E-10         0.00000E+00
    0.15693E-07        -0.47649E-10         0.00000E+00
    0.15774E-07        -0.64349E-10         0.00000E+00
    0.15858E-07        -0.76111E-10         0.00000E+00
    0.15942E-07        -0.81808E-10         0.00000E+00
    0.16024E-07        -0.81316E-10         0.00000E+00
    0.16103E-07        -0.75185E-10         0.00000E+00
    0.16178E-07        -0.64403E-10         0.00000E+00
    0.16246E-07        -0.50292E-10         0.00000E+00
    0.16307E-07        -0.34491E-10         0.00000E+00
    0.16358E-07        -0.19027E-10         0.00000E+00
    0.16396E-07        -0.63643E-11         0.00000E+00
    0.16419E-07         0.60688E-12         0.00000E+00
    0.14797E-07        -0.20630E-10         0.00000E+00
    0.14830E-07        -0.60165E-10         0.00000E+00
    0.14887E-07        -0.95629E-10         0.00000E+00
    0.14957E-07        -0.12497E-09         0.00000E+00
    0.15035E-07        -0.14666E-09         0.00000E+00
    0.15117E-07        -0.15994E-09         0.00000E+00
    0.15199E-07        -0.16477E-09         0.00000E+00
    0.15279E-07        -0.16168E-09         0.00000E+00
    0.15357E-07        -0.15154E-09         0.00000E+00
    0.15429E-07        -0.13547E-09         0.00000E+00
    0.15496E-07        -0.11466E-09         0.00000E+00
    0.15555E-07        -0.90438E-10         0.00000E+00
    0.15605E-07        -0.64207E-10         0.00000E+00
    0.15642E-07        -0.37481E-10         0.00000E+00
    0.15663E-07        -0.11785E-10         0.00000E+00
    0.14322E-07        -0.38700E-10         0.00000E+00
    0.14352E-07        -0.10526E-09         0.00000E+00
    0.14403E-07        -0.15787E-09         0.00000E+00
    0.14467E-07        -0.19731E-09         0.00000E+00
    0.14538E-07        -0.22418E-09         0.00000E+00
    0.14613E-07        -0.23926E-09         0.00000E+00
    0.14689E-07        -0.24351E-09         0.00000E+00
    0.14763E-07        -0.23810E-09         0.00000E+00
    0.14835E-07        -0.22423E-09         0.00000E+00
    0.14902E-07        -0.20310E-09         0.00000E+00
    0.14964E-07        -0.17584E-09         0.00000E+00
    0.15019E-07        -0.14344E-09         0.00000E+00
    0.15065E-07        -0.10677E-09         0.00000E+00
    0.15099E-07        -0.66548E-10         0.00000E+00
    0.15118E-07        -0.23199E-10         0.00000E+00
    0.14080E-07        -0.54210E-10         0.00000E+00
    0.14105E-07        -0.14445E-09         0.00000E+00
    0.14148E-07        -0.21256E-09         0.00000E+00
    0.14203E-07        -0.26144E-09         0.00000E+00
    0.14265E-07        -0.29341E-09         0.00000E+00
    0.14330E-07        -0.31048E-09         0.00000E+00
    0.14396E-07        -0.31450E-09         0.00000E+00
    0.14462E-07        -0.30717E-09         0.00000E+00
    0.14525E-07        -0.29001E-09         0.00000E+00
    0.14584E-07        -0.26432E-09         0.00000E+00
    0.14639E-07        -0.23113E-09         0.00000E+00
    0.14687E-07        -0.19118E-09         0.00000E+00
    0.14727E-07        -0.14490E-09         0.00000E+00
    0.14757E-07        -0.92377E-10         0.00000E+00
    0.14774E-07        -0.33210E-10         0.00000E+00
    0.14042E-07        -0.66817E-10         0.00000E+00
    0.14062E-07        -0.17668E-09         0.00000E+00
    0.14096E-07        -0.25800E-09         0.00000E+00
    0.14141E-07        -0.31522E-09         0.00000E+00
    0.14191E-07        -0.35190E-09         0.00000E+00
    0.14245E-07        -0.37102E-09         0.00000E+00
    0.14300E-07        -0.37512E-09         0.00000E+00
    0.14354E-07        -0.36636E-09         0.00000E+00
    0.14407E-07        -0.34650E-09         0.00000E+00
    0.14457E-07        -0.31692E-09         0.00000E+00
    0.14502E-07        -0.27858E-09         0.00000E+00
    0.14542E-07        -0.23202E-09         0.00000E+00
    0.14576E-07        -0.17736E-09         0.00000E+00
    0.14600E-07        -0.11419E-09         0.00000E+00
    0.14614E-07        -0.41562E-10         0.00000E+00
    0.14180E-07        -0.76403E-10         0.00000E+00
    0.14195E-07        -0.20146E-09         0.00000E+00
    0.14221E-07        -0.29332E-09         0.00000E+00
    0.14254E-07        -0.35740E-09         0.00000E+00
    0.14292E-07        -0.39815E-09         0.00000E+00
    0.14333E-07        -0.41923E-09         0.00000E+00
    0.14375E-07        -0.42367E-09         0.00000E+00
    0.14417E-07        -0.41396E-09         0.00000E+00
    0.14458E-07        -0.39206E-09         0.00000E+00
    0.14497E-07        -0.35939E-09         0.00000E+00
    0.14532E-07        -0.31688E-09         0.00000E+00
    0.14563E-07        -0.26492E-09         0.00000E+00
    0.14589E-07        -0.20338E-09         0.00000E+00
    0.14608E-07        -0.13156E-09         0.00000E+00
    0.14618E-07        -0.48134E-10         0.00000E+00
    0.14465E-07        -0.83006E-10         0.00000E+00
    0.14474E-07        -0.21874E-09         0.00000E+00
    0.14491E-07        -0.31823E-09         0.00000E+00
    0.14513E-07        -0.38749E-09         0.00000E+00
    0.14539E-07        -0.43146E-09         0.00000E+00
    0.14566E-07        -0.45425E-09         0.00000E+00
    0.14595E-07        -0.45921E-09         0.00000E+00
    0.14624E-07        -0.44903E-09         0.00000E+00
    0.14653E-07        -0.42578E-09         0.00000E+00
    0.14680E-07        -0.39092E-09         0.00000E+00
    0.14705E-07        -0.34534E-09         0.00000E+00
    0.14727E-07        -0.28933E-09         0.00000E+00
    0.14745E-07        -0.22262E-09         0.00000E+00
    0.14758E-07        -0.14432E-09         0.00000E+00
    0.14765E-07        -0.52907E-10         0.00000E+00
    0.14866E-07        -0.86767E-10         0.00000E+00
    0.14870E-07        -0.22877E-09         0.00000E+00
    0.14879E-07        -0.33294E-09         0.00000E+00
    0.14890E-07        -0.40554E-09         0.00000E+00
    0.14903E-07        -0.45177E-09         0.00000E+00
    0.14918E-07        -0.47591E-09         0.00000E+00
    0.14934E-07        -0.48148E-09         0.00000E+00
    0.14950E-07        -0.47126E-09         0.00000E+00
    0.14966E-07        -0.44735E-09         0.00000E+00
    0.14981E-07        -0.41123E-09         0.00000E+00
    0.14995E-07        -0.36375E-09         0.00000E+00
    0.15008E-07        -0.30515E-09         0.00000E+00
    0.15019E-07        -0.23506E-09         0.00000E+00
    0.15026E-07        -0.15251E-09         0.00000E+00
    0.15030E-07        -0.55935E-10         0.00000E+00
    0.15355E-07        -0.87891E-10         0.00000E+00
    0.15355E-07        -0.23198E-09         0.00000E+00
    0.15356E-07        -0.33795E-09         0.00000E+00
    0.15357E-07        -0.41205E-09         0.00000E+00
    0.15359E-07        -0.45948E-09         0.00000E+00
    0.15361E-07        -0.48455E-09         0.00000E+00
    0.15364E-07        -0.49075E-09         0.00000E+00
    0.15368E-07        -0.48086E-09         0.00000E+00
    0.15372E-07        -0.45697E-09         0.00000E+00
    0.15376E-07        -0.42051E-09         0.00000E+00
    0.15380E-07        -0.37230E-09         0.00000E+00
    0.15384E-07        -0.31256E-09         0.00000E+00
    0.15387E-07        -0.24090E-09         0.00000E+00
    0.15389E-07        -0.15634E-09         0.00000E+00
    0.15390E-07        -0.57318E-10         0.00000E+00
    0.15907E-07        -0.86616E-10         0.00000E+00
    0.15903E-07        -0.22893E-09         0.00000E+00
    0.15896E-07        -0.33398E-09         0.00000E+00
    0.15888E-07        -0.40778E-09         0.00000E+00
    0.15879E-07        -0.45536E-09         0.00000E+00
    0.15870E-07        -0.48087E-09         0.00000E+00
    0.15861E-07        -0.48768E-09         0.00000E+00
    0.15853E-07        -0.47846E-09         0.00000E+00
    0.15846E-07        -0.45519E-09         0.00000E+00
    0.15839E-07        -0.41927E-09         0.00000E+00
    0.15834E-07        -0.37147E-09         0.00000E+00
    0.15830E-07        -0.31201E-09         0.00000E+00
    0.15826E-07        -0.24052E-09         0.00000E+00
    0.15823E-07        -0.15607E-09         0.00000E+00
    0.15822E-07        -0.57182E-10         0.00000E+00
    0.16496E-07        -0.83194E-10         0.00000E+00
    0.16489E-07        -0.22024E-09         0.00000E+00
    0.16476E-07        -0.32186E-09         0.00000E+00
    0.16459E-07        -0.39368E-09         0.00000E+00
    0.16440E-07        -0.44040E-09         0.00000E+00
    0.16421E-07        -0.46588E-09         0.00000E+00
    0.16402E-07        -0.47324E-09         0.00000E+00
    0.16383E-07        -0.46494E-09         0.00000E+00
    0.16366E-07        -0.44286E-09         0.00000E+00
    0.16350E-07        -0.40827E-09         0.00000E+00
    0.16336E-07        -0.36195E-09         0.00000E+00
    0.16323E-07        -0.30410E-09         0.00000E+00
    0.16314E-07        -0.23442E-09         0.00000E+00
    0.16307E-07        -0.15206E-09         0.00000E+00
    0.16303E-07        -0.55666E-10         0.00000E+00
    0.17101E-07        -0.77877E-10         0.00000E+00
    0.17091E-07        -0.20656E-09         0.00000E+00
    0.17072E-07        -0.30251E-09         0.00000E+00
    0.17048E-07        -0.37084E-09         0.00000E+00
    0.17021E-07        -0.41578E-09         0.00000E+00
    0.16992E-07        -0.44077E-09         0.00000E+00
    0.16964E-07        -0.44858E-09         0.00000E+00
    0.16936E-07        -0.44144E-09         0.00000E+00
    0.16909E-07        -0.42100E-09         0.00000E+00
    0.16885E-07        -0.38846E-09         0.00000E+00
    0.16863E-07        -0.34455E-09         0.00000E+00
    0.16844E-07        -0.28951E-09         0.00000E+00
    0.16829E-07        -0.22312E-09         0.00000E+00
    0.16818E-07        -0.14465E-09         0.00000E+00
    0.16812E-07        -0.52906E-10         0.00000E+00
    0.17701E-07        -0.70907E-10         0.00000E+00
    0.17688E-07        -0.18853E-09         0.00000E+00
    0.17665E-07        -0.27687E-09         0.00000E+00
    0.17635E-07        -0.34040E-09         0.00000E+00
    0.17601E-07        -0.38275E-09         0.00000E+00
    0.17564E-07        -0.40684E-09         0.00000E+00
    0.17528E-07        -0.41502E-09         0.00000E+00
    0.17492E-07        -0.40917E-09         0.00000E+00
    0.17458E-07        -0.39077E-09         0.00000E+00
    0.17426E-07        -0.36088E-09         0.00000E+00
    0.17397E-07        -0.32019E-09         0.00000E+00
    0.17373E-07        -0.26900E-09         0.00000E+00
    0.17353E-07        -0.20719E-09         0.00000E+00
    0.17338E-07        -0.13421E-09         0.00000E+00
    0.17330E-07        -0.49033E-10         0.00000E+00
    0.18279E-07        -0.62511E-10         0.00000E+00
    0.18264E-07        -0.16678E-09         0.00000E+00
    0.18237E-07        -0.24588E-09         0.00000E+00
    0.18202E-07        -0.30355E-09         0.00000E+00
    0.18162E-07        -0.34265E-09         0.00000E+00
    0.18119E-07        -0.36548E-09         0.00000E+00
    0.18076E-07        -0.37391E-09         0.00000E+00
    0.18033E-07        -0.36946E-09         0.00000E+00
    0.17993E-07        -0.35337E-09         0.00000E+00
    0.17955E-07        -0.32660E-09         0.00000E+00
    0.17920E-07        -0.28979E-09         0.00000E+00
    0.17891E-07        -0.24331E-09         0.00000E+00
    0.17866E-07        -0.18719E-09         0.00000E+00
    0.17849E-07        -0.12108E-09         0.00000E+00
    0.17840E-07        -0.44161E-10         0.00000E+00
    0.18818E-07        -0.52899E-10         0.00000E+00
    0.18801E-07        -0.14192E-09         0.00000E+00
    0.18771E-07        -0.21054E-09         0.00000E+00
    0.18732E-07        -0.26151E-09         0.00000E+00
    0.18688E-07        -0.29683E-09         0.00000E+00
    0.18640E-07        -0.31808E-09         0.00000E+00
    0.18592E-07        -0.32661E-09         0.00000E+00
    0.18544E-07        -0.32358E-09         0.00000E+00
    0.18498E-07        -0.31000E-09         0.00000E+00
    0.18455E-07        -0.28669E-09         0.00000E+00
    0.18416E-07        -0.25428E-09         0.00000E+00
    0.18382E-07        -0.21321E-09         0.00000E+00
    0.18355E-07        -0.16368E-09         0.00000E+00
    0.18335E-07        -0.10558E-09         0.00000E+00
    0.18324E-07        -0.38387E-10         0.00000E+00
    0.19304E-07        -0.42273E-10         0.00000E+00
    0.19287E-07        -0.11462E-09         0.00000E+00
    0.19255E-07        -0.17188E-09         0.00000E+00
    0.19213E-07        -0.21559E-09         0.00000E+00
    0.19166E-07        -0.24669E-09         0.00000E+00
    0.19115E-07        -0.26603E-09         0.00000E+00
    0.19063E-07        -0.27444E-09         0.00000E+00
    0.19011E-07        -0.27275E-09         0.00000E+00
    0.18960E-07        -0.26176E-09         0.00000E+00
    0.18913E-07        -0.24215E-09         0.00000E+00
    0.18871E-07        -0.21455E-09         0.00000E+00
    0.18833E-07        -0.17943E-09         0.00000E+00
    0.18803E-07        -0.13718E-09         0.00000E+00
    0.18781E-07        -0.88023E-10         0.00000E+00
    0.18769E-07        -0.31792E-10         0.00000E+00
    0.19725E-07        -0.30851E-10         0.00000E+00
    0.19708E-07        -0.85637E-10         0.00000E+00
    0.19675E-07        -0.13114E-09         0.00000E+00
    0.19633E-07        -0.16721E-09         0.00000E+00
    0.19583E-07        -0.19364E-09         0.00000E+00
    0.19530E-07        -0.21061E-09         0.00000E+00
    0.19475E-07        -0.21853E-09         0.00000E+00
    0.19420E-07        -0.21797E-09         0.00000E+00
    0.19367E-07        -0.20955E-09         0.00000E+00
    0.19316E-07        -0.19385E-09         0.00000E+00
    0.19270E-07        -0.17140E-09         0.00000E+00
    0.19231E-07        -0.14271E-09         0.00000E+00
    0.19198E-07        -0.10829E-09         0.00000E+00
    0.19174E-07        -0.68733E-10         0.00000E+00
    0.19162E-07        -0.24446E-10         0.00000E+00
    0.20070E-07        -0.18968E-10         0.00000E+00
    0.20054E-07        -0.56182E-10         0.00000E+00
    0.20022E-07        -0.89970E-10         0.00000E+00
    0.19981E-07        -0.11796E-09         0.00000E+00
    0.19931E-07        -0.13901E-09         0.00000E+00
    0.19877E-07        -0.15284E-09         0.00000E+00
    0.19820E-07        -0.15967E-09         0.00000E+00
    0.19762E-07        -0.15989E-09         0.00000E+00
    0.19706E-07        -0.15397E-09         0.00000E+00
    0.19653E-07        -0.14235E-09         0.00000E+00
    0.19604E-07        -0.12547E-09         0.00000E+00
    0.19562E-07        -0.10375E-09         0.00000E+00
    0.19528E-07        -0.77733E-10         0.00000E+00
    0.19504E-07        -0.48189E-10         0.00000E+00
    0.19491E-07        -0.16455E-10         0.00000E+00
    0.20330E-07        -0.73994E-11         0.00000E+00
    0.20317E-07        -0.28682E-10         0.00000E+00
    0.20290E-07        -0.50685E-10         0.00000E+00
    0.20251E-07        -0.69479E-10         0.00000E+00
    0.20203E-07        -0.83762E-10         0.00000E+00
    0.20148E-07        -0.93267E-10         0.00000E+00
    0.20089E-07        -0.98133E-10         0.00000E+00
    0.20028E-07        -0.98646E-10         0.00000E+00
    0.19968E-07        -0.95122E-10         0.00000E+00
    0.19912E-07        -0.87858E-10         0.00000E+00
    0.19861E-07        -0.77124E-10         0.00000E+00
    0.19818E-07        -0.63196E-10         0.00000E+00
    0.19783E-07        -0.46437E-10         0.00000E+00
    0.19759E-07        -0.27504E-10         0.00000E+00
    0.19747E-07        -0.79325E-11         0.00000E+00
    0.20497E-07        -0.91694E-12         0.00000E+00
    0.20495E-07        -0.79203E-11         0.00000E+00
    0.20476E-07        -0.15924E-10         0.00000E+00
    0.20441E-07        -0.22814E-10         0.00000E+00
    0.20394E-07        -0.28039E-10         0.00000E+00
    0.20337E-07        -0.31524E-10         0.00000E+00
    0.20275E-07        -0.33339E-10         0.00000E+00
    0.20210E-07        -0.33600E-10         0.00000E+00
    0.20147E-07        -0.32426E-10         0.00000E+00
    0.20086E-07        -0.29923E-10         0.00000E+00
    0.20032E-07        -0.26182E-10         0.00000E+00
    0.19986E-07        -0.21292E-10         0.00000E+00
    0.19952E-07        -0.15367E-10         0.00000E+00
    0.19930E-07        -0.86659E-11         0.00000E+00
    0.19922E-07        -0.17747E-11         0.00000E+00
POINT_DATA        496
VECTORS vDarcyNodal double 
    0.29733E-07         0.00000E+00         0.00000E+00
    0.29744E-07         0.00000E+00         0.00000E+00
    0.29726E-07         0.00000E+00         0.00000E+00
    0.29677E-07         0.00000E+00         0.00000E+00
    0.29601E-07         0.00000E+00         0.00000E+00
    0.29514E-07         0.00000E+00         0.00000E+00
    0.29420E-07         0.00000E+00         0.00000E+00
    0.29326E-07         0.00000E+00         0.00000E+00
    0.29235E-07         0.00000E+00         0.00000E+00
    0.29149E-07         0.00000E+00         0.00000E+00
    0.29072E-07         0.00000E+00         0.00000E+00
    0.29005E-07         0.00000E+00         0.00000E+00
    0.28951E-07        -0.66654E-22         0.00000E+00
    0.28914E-07        -0.90246E-26         0.00000E+00
    0.28897E-07         0.66645E-22         0.00000E+00
    0.28902E-07         0.00000E+00         0.00000E+00
    0.29448E-07        -0.18392E-10         0.00000E+00
    0.29433E-07        -0.75963E-11         0.00000E+00
    0.29388E-07         0.18085E-10         0.00000E+00
    0.29328E-07         0.47535E-10         0.00000E+00
    0.29253E-07         0.69410E-10         0.00000E+00
    0.29172E-07         0.81821E-10         0.00000E+00
    0.29088E-07         0.87942E-10         0.00000E+00
    0.29004E-07         0.87888E-10         0.00000E+00
    0.28923E-07         0.84280E-10         0.00000E+00
    0.28845E-07         0.77947E-10         0.00000E+00
    0.28774E-07         0.69021E-10         0.00000E+00
    0.28712E-07         0.57167E-10         0.00000E+00
    0.28659E-07         0.41796E-10         0.00000E+00
    0.28619E-07         0.22608E-10         0.00000E+00
    0.28593E-07         0.21607E-11         0.00000E+00
    0.28584E-07        -0.77448E-11         0.00000E+00
    0.28570E-07         0.17323E-10         0.00000E+00
    0.28532E-07         0.41076E-10         0.00000E+00
    0.28467E-07         0.81527E-10         0.00000E+00
    0.28401E-07         0.11402E-09         0.00000E+00
    0.28337E-07         0.13785E-09         0.00000E+00
    0.28272E-07         0.15094E-09         0.00000E+00
    0.28207E-07         0.15735E-09         0.00000E+00
    0.28144E-07         0.15698E-09         0.00000E+00
    0.28082E-07         0.15122E-09         0.00000E+00
    0.28023E-07         0.14119E-09         0.00000E+00
    0.27967E-07         0.12722E-09         0.00000E+00
    0.27915E-07         0.10903E-09         0.00000E+00
    0.27868E-07         0.86072E-10         0.00000E+00
    0.27826E-07         0.58345E-10         0.00000E+00
    0.27791E-07         0.28825E-10         0.00000E+00
    0.27770E-07         0.14292E-10         0.00000E+00
    0.27207E-07         0.50888E-10         0.00000E+00
    0.27182E-07         0.85531E-10         0.00000E+00
    0.27134E-07         0.13648E-09         0.00000E+00
    0.27082E-07         0.16716E-09         0.00000E+00
    0.27033E-07         0.19041E-09         0.00000E+00
    0.26986E-07         0.20323E-09         0.00000E+00
    0.26942E-07         0.20761E-09         0.00000E+00
    0.26901E-07         0.20553E-09         0.00000E+00
    0.26861E-07         0.19821E-09         0.00000E+00
    0.26823E-07         0.18653E-09         0.00000E+00
    0.26785E-07         0.17075E-09         0.00000E+00
    0.26749E-07         0.15056E-09         0.00000E+00
    0.26713E-07         0.12520E-09         0.00000E+00
    0.26678E-07         0.93685E-10         0.00000E+00
    0.26648E-07         0.54041E-10         0.00000E+00
    0.26633E-07         0.31812E-10         0.00000E+00
    0.25559E-07         0.64545E-10         0.00000E+00
    0.25545E-07         0.10928E-09         0.00000E+00
    0.25517E-07         0.17598E-09         0.00000E+00
    0.25482E-07         0.20950E-09         0.00000E+00
    0.25451E-07         0.22716E-09         0.00000E+00
    0.25426E-07         0.23519E-09         0.00000E+00
    0.25405E-07         0.23605E-09         0.00000E+00
    0.25388E-07         0.23171E-09         0.00000E+00
    0.25372E-07         0.22331E-09         0.00000E+00
    0.25356E-07         0.21144E-09         0.00000E+00
    0.25339E-07         0.19610E-09         0.00000E+00
    0.25321E-07         0.17667E-09         0.00000E+00
    0.25301E-07         0.15170E-09         0.00000E+00
    0.25281E-07         0.11845E-09         0.00000E+00
    0.25263E-07         0.71328E-10         0.00000E+00
    0.25254E-07         0.43359E-10         0.00000E+00
    0.23746E-07         0.76436E-10         0.00000E+00
    0.23739E-07         0.12428E-09         0.00000E+00
    0.23730E-07         0.19522E-09         0.00000E+00
    0.23720E-07         0.22806E-09         0.00000E+00
    0.23715E-07         0.24096E-09         0.00000E+00
    0.23715E-07         0.24370E-09         0.00000E+00
    0.23719E-07         0.24077E-09         0.00000E+00
    0.23725E-07         0.23437E-09         0.00000E+00
    0.23733E-07         0.22555E-09         0.00000E+00
    0.23739E-07         0.21461E-09         0.00000E+00
    0.23744E-07         0.20119E-09         0.00000E+00
    0.23746E-07         0.18420E-09         0.00000E+00
    0.23745E-07         0.16141E-09         0.00000E+00
    0.23742E-07         0.12872E-09         0.00000E+00
    0.23737E-07         0.78736E-10         0.00000E+00
    0.23735E-07         0.48237E-10         0.00000E+00
    0.21891E-07         0.75854E-10         0.00000E+00
    0.21896E-07         0.12292E-09         0.00000E+00
    0.21907E-07         0.19137E-09         0.00000E+00
    0.21923E-07         0.22038E-09         0.00000E+00
    0.21944E-07         0.22878E-09         0.00000E+00
    0.21969E-07         0.22727E-09         0.00000E+00
    0.21997E-07         0.22140E-09         0.00000E+00
    0.22027E-07         0.21378E-09         0.00000E+00
    0.22057E-07         0.20541E-09         0.00000E+00
    0.22084E-07         0.19636E-09         0.00000E+00
    0.22110E-07         0.18594E-09         0.00000E+00
    0.22131E-07         0.17262E-09         0.00000E+00
    0.22148E-07         0.15362E-09         0.00000E+00
    0.22160E-07         0.12421E-09         0.00000E+00
    0.22168E-07         0.76609E-10         0.00000E+00
    0.22172E-07         0.47067E-10         0.00000E+00
    0.20118E-07         0.66230E-10         0.00000E+00
    0.20131E-07         0.10713E-09         0.00000E+00
    0.20159E-07         0.16569E-09         0.00000E+00
    0.20197E-07         0.18828E-09         0.00000E+00
    0.20241E-07         0.19204E-09         0.00000E+00
    0.20289E-07         0.18729E-09         0.00000E+00
    0.20339E-07         0.17969E-09         0.00000E+00
    0.20389E-07         0.17193E-09         0.00000E+00
    0.20438E-07         0.16499E-09         0.00000E+00
    0.20484E-07         0.15872E-09         0.00000E+00
    0.20527E-07         0.15220E-09         0.00000E+00
    0.20565E-07         0.14364E-09         0.00000E+00
    0.20597E-07         0.13005E-09         0.00000E+00
    0.20623E-07         0.10672E-09         0.00000E+00
    0.20641E-07         0.66455E-10         0.00000E+00
    0.20649E-07         0.41015E-10         0.00000E+00
    0.18513E-07         0.50316E-10         0.00000E+00
    0.18531E-07         0.80755E-10         0.00000E+00
    0.18572E-07         0.12303E-09         0.00000E+00
    0.18626E-07         0.13650E-09         0.00000E+00
    0.18688E-07         0.13510E-09         0.00000E+00
    0.18753E-07         0.12770E-09         0.00000E+00
    0.18819E-07         0.11933E-09         0.00000E+00
    0.18886E-07         0.11243E-09         0.00000E+00
    0.18950E-07         0.10778E-09         0.00000E+00
    0.19011E-07         0.10509E-09         0.00000E+00
    0.19067E-07         0.10328E-09         0.00000E+00
    0.19118E-07         0.10049E-09         0.00000E+00
    0.19162E-07         0.93868E-10         0.00000E+00
    0.19198E-07         0.79153E-10         0.00000E+00
    0.19223E-07         0.50297E-10         0.00000E+00
    0.19234E-07         0.31450E-10         0.00000E+00
    0.17133E-07         0.30746E-10         0.00000E+00
    0.17154E-07         0.47854E-10         0.00000E+00
    0.17202E-07         0.69301E-10         0.00000E+00
    0.17266E-07         0.71235E-10         0.00000E+00
    0.17339E-07         0.63862E-10         0.00000E+00
    0.17415E-07         0.53927E-10         0.00000E+00
    0.17493E-07         0.45348E-10         0.00000E+00
    0.17570E-07         0.39979E-10         0.00000E+00
    0.17645E-07         0.38279E-10         0.00000E+00
    0.17715E-07         0.39785E-10         0.00000E+00
    0.17781E-07         0.43360E-10         0.00000E+00
    0.17840E-07         0.47233E-10         0.00000E+00
    0.17892E-07         0.48872E-10         0.00000E+00
    0.17935E-07         0.44773E-10         0.00000E+00
    0.17964E-07         0.30246E-10         0.00000E+00
    0.17977E-07         0.19711E-10         0.00000E+00
    0.16009E-07         0.97293E-11         0.00000E+00
    0.16030E-07         0.12066E-10         0.00000E+00
    0.16080E-07         0.10154E-10         0.00000E+00
    0.16149E-07        -0.11520E-11         0.00000E+00
    0.16226E-07        -0.15352E-10         0.00000E+00
    0.16308E-07        -0.28033E-10         0.00000E+00
    0.16392E-07        -0.36669E-10         0.00000E+00
    0.16474E-07        -0.40195E-10         0.00000E+00
    0.16554E-07        -0.38579E-10         0.00000E+00
    0.16629E-07        -0.32481E-10         0.00000E+00
    0.16700E-07        -0.23057E-10         0.00000E+00
    0.16764E-07        -0.11897E-10         0.00000E+00
    0.16819E-07        -0.10765E-11         0.00000E+00
    0.16865E-07         0.67438E-11         0.00000E+00
    0.16896E-07         0.82570E-11         0.00000E+00
    0.16909E-07         0.69823E-11         0.00000E+00
    0.15150E-07        -0.11013E-10         0.00000E+00
    0.15170E-07        -0.23662E-10         0.00000E+00
    0.15219E-07        -0.49596E-10         0.00000E+00
    0.15286E-07        -0.74981E-10         0.00000E+00
    0.15363E-07        -0.96638E-10         0.00000E+00
    0.15446E-07        -0.11242E-09         0.00000E+00
    0.15529E-07        -0.12124E-09         0.00000E+00
    0.15612E-07        -0.12292E-09         0.00000E+00
    0.15692E-07        -0.11791E-09         0.00000E+00
    0.15768E-07        -0.10710E-09         0.00000E+00
    0.15839E-07        -0.91632E-10         0.00000E+00
    0.15903E-07        -0.72881E-10         0.00000E+00
    0.15959E-07        -0.52437E-10         0.00000E+00
    0.16004E-07        -0.32131E-10         0.00000E+00
    0.16035E-07        -0.14012E-10         0.00000E+00
    0.16047E-07        -0.57674E-11         0.00000E+00
    0.14550E-07        -0.30245E-10         0.00000E+00
    0.14569E-07        -0.57130E-10         0.00000E+00
    0.14614E-07        -0.10619E-09         0.00000E+00
    0.14676E-07        -0.14561E-09         0.00000E+00
    0.14748E-07        -0.17499E-09         0.00000E+00
    0.14826E-07        -0.19418E-09         0.00000E+00
    0.14905E-07        -0.20346E-09         0.00000E+00
    0.14983E-07        -0.20352E-09         0.00000E+00
    0.15060E-07        -0.19530E-09         0.00000E+00
    0.15132E-07        -0.17991E-09         0.00000E+00
    0.15200E-07        -0.15849E-09         0.00000E+00
    0.15261E-07        -0.13222E-09         0.00000E+00
    0.15314E-07        -0.10220E-09         0.00000E+00
    0.15356E-07        -0.69553E-10         0.00000E+00
    0.15385E-07        -0.35251E-10         0.00000E+00
    0.15396E-07        -0.17801E-10         0.00000E+00
    0.14193E-07        -0.47153E-10         0.00000E+00
    0.14209E-07        -0.86829E-10         0.00000E+00
    0.14248E-07        -0.15694E-09         0.00000E+00
    0.14303E-07        -0.20956E-09         0.00000E+00
    0.14367E-07        -0.24650E-09         0.00000E+00
    0.14436E-07        -0.26926E-09         0.00000E+00
    0.14507E-07        -0.27930E-09         0.00000E+00
    0.14578E-07        -0.27808E-09         0.00000E+00
    0.14647E-07        -0.26702E-09         0.00000E+00
    0.14713E-07        -0.24742E-09         0.00000E+00
    0.14774E-07        -0.22044E-09         0.00000E+00
    0.14829E-07        -0.18705E-09         0.00000E+00
    0.14877E-07        -0.14800E-09         0.00000E+00
    0.14915E-07        -0.10376E-09         0.00000E+00
    0.14941E-07        -0.54494E-10         0.00000E+00
    0.14951E-07        -0.28597E-10         0.00000E+00
    0.14054E-07        -0.61265E-10         0.00000E+00
    0.14067E-07        -0.11183E-09         0.00000E+00
    0.14099E-07        -0.20007E-09         0.00000E+00
    0.14145E-07        -0.26443E-09         0.00000E+00
    0.14199E-07        -0.30835E-09         0.00000E+00
    0.14257E-07        -0.33463E-09         0.00000E+00
    0.14318E-07        -0.34567E-09         0.00000E+00
    0.14379E-07        -0.34358E-09         0.00000E+00
    0.14438E-07        -0.33016E-09         0.00000E+00
    0.14494E-07        -0.30692E-09         0.00000E+00
    0.14547E-07        -0.27501E-09         0.00000E+00
    0.14594E-07        -0.23525E-09         0.00000E+00
    0.14635E-07        -0.18808E-09         0.00000E+00
    0.14668E-07        -0.13352E-09         0.00000E+00
    0.14689E-07        -0.71092E-10         0.00000E+00
    0.14698E-07        -0.37823E-10         0.00000E+00
    0.14106E-07        -0.72368E-10         0.00000E+00
    0.14116E-07        -0.13166E-09         0.00000E+00
    0.14141E-07        -0.23461E-09         0.00000E+00
    0.14176E-07        -0.30878E-09         0.00000E+00
    0.14219E-07        -0.35876E-09         0.00000E+00
    0.14265E-07        -0.38829E-09         0.00000E+00
    0.14313E-07        -0.40047E-09         0.00000E+00
    0.14362E-07        -0.39790E-09         0.00000E+00
    0.14410E-07        -0.38269E-09         0.00000E+00
    0.14455E-07        -0.35649E-09         0.00000E+00
    0.14498E-07        -0.32048E-09         0.00000E+00
    0.14536E-07        -0.27534E-09         0.00000E+00
    0.14569E-07        -0.22130E-09         0.00000E+00
    0.14595E-07        -0.15803E-09         0.00000E+00
    0.14613E-07        -0.84660E-10         0.00000E+00
    0.14619E-07        -0.45300E-10         0.00000E+00
    0.14319E-07        -0.80437E-10         0.00000E+00
    0.14326E-07        -0.14620E-09         0.00000E+00
    0.14343E-07        -0.26016E-09         0.00000E+00
    0.14368E-07        -0.34193E-09         0.00000E+00
    0.14399E-07        -0.39679E-09         0.00000E+00
    0.14432E-07        -0.42909E-09         0.00000E+00
    0.14467E-07        -0.44243E-09         0.00000E+00
    0.14503E-07        -0.43973E-09         0.00000E+00
    0.14538E-07        -0.42333E-09         0.00000E+00
    0.14572E-07        -0.39495E-09         0.00000E+00
    0.14604E-07        -0.35579E-09         0.00000E+00
    0.14633E-07        -0.30645E-09         0.00000E+00
    0.14657E-07        -0.24700E-09         0.00000E+00
    0.14676E-07        -0.17690E-09         0.00000E+00
    0.14689E-07        -0.95030E-10         0.00000E+00
    0.14694E-07        -0.50967E-10         0.00000E+00
    0.14663E-07        -0.85574E-10         0.00000E+00
    0.14667E-07        -0.15555E-09         0.00000E+00
    0.14677E-07        -0.27681E-09         0.00000E+00
    0.14692E-07        -0.36379E-09         0.00000E+00
    0.14711E-07        -0.42216E-09         0.00000E+00
    0.14731E-07        -0.45663E-09         0.00000E+00
    0.14753E-07        -0.47103E-09         0.00000E+00
    0.14776E-07        -0.46851E-09         0.00000E+00
    0.14798E-07        -0.45148E-09         0.00000E+00
    0.14820E-07        -0.42174E-09         0.00000E+00
    0.14841E-07        -0.38047E-09         0.00000E+00
    0.14859E-07        -0.32822E-09         0.00000E+00
    0.14875E-07        -0.26495E-09         0.00000E+00
    0.14888E-07        -0.19003E-09         0.00000E+00
    0.14896E-07        -0.10219E-09         0.00000E+00
    0.14899E-07        -0.54847E-10         0.00000E+00
    0.15110E-07        -0.87959E-10         0.00000E+00
    0.15111E-07        -0.15999E-09         0.00000E+00
    0.15115E-07        -0.28490E-09         0.00000E+00
    0.15120E-07        -0.37470E-09         0.00000E+00
    0.15127E-07        -0.43515E-09         0.00000E+00
    0.15135E-07        -0.47106E-09         0.00000E+00
    0.15144E-07        -0.48636E-09         0.00000E+00
    0.15154E-07        -0.48423E-09         0.00000E+00
    0.15164E-07        -0.46713E-09         0.00000E+00
    0.15174E-07        -0.43684E-09         0.00000E+00
    0.15183E-07        -0.39452E-09         0.00000E+00
    0.15192E-07        -0.34068E-09         0.00000E+00
    0.15200E-07        -0.27525E-09         0.00000E+00
    0.15206E-07        -0.19754E-09         0.00000E+00
    0.15210E-07        -0.10626E-09         0.00000E+00
    0.15211E-07        -0.57023E-10         0.00000E+00
    0.15632E-07        -0.87821E-10         0.00000E+00
    0.15631E-07        -0.15988E-09         0.00000E+00
    0.15628E-07        -0.28503E-09         0.00000E+00
    0.15624E-07        -0.37530E-09         0.00000E+00
    0.15621E-07        -0.43638E-09         0.00000E+00
    0.15617E-07        -0.47297E-09         0.00000E+00
    0.15614E-07        -0.48893E-09         0.00000E+00
    0.15611E-07        -0.48738E-09         0.00000E+00
    0.15609E-07        -0.47070E-09         0.00000E+00
    0.15608E-07        -0.44064E-09         0.00000E+00
    0.15607E-07        -0.39830E-09         0.00000E+00
    0.15607E-07        -0.34419E-09         0.00000E+00
    0.15606E-07        -0.27821E-09         0.00000E+00
    0.15606E-07        -0.19970E-09         0.00000E+00
    0.15606E-07        -0.10740E-09         0.00000E+00
    0.15606E-07        -0.57613E-10         0.00000E+00
    0.16203E-07        -0.85410E-10         0.00000E+00
    0.16200E-07        -0.15566E-09         0.00000E+00
    0.16192E-07        -0.27788E-09         0.00000E+00
    0.16180E-07        -0.36645E-09         0.00000E+00
    0.16167E-07        -0.42675E-09         0.00000E+00
    0.16153E-07        -0.46326E-09         0.00000E+00
    0.16138E-07        -0.47962E-09         0.00000E+00
    0.16124E-07        -0.47876E-09         0.00000E+00
    0.16112E-07        -0.46295E-09         0.00000E+00
    0.16100E-07        -0.43382E-09         0.00000E+00
    0.16089E-07        -0.39245E-09         0.00000E+00
    0.16080E-07        -0.33930E-09         0.00000E+00
    0.16073E-07        -0.27433E-09         0.00000E+00
    0.16067E-07        -0.19690E-09         0.00000E+00
    0.16063E-07        -0.10586E-09         0.00000E+00
    0.16062E-07        -0.56752E-10         0.00000E+00
    0.16801E-07        -0.80978E-10         0.00000E+00
    0.16796E-07        -0.14777E-09         0.00000E+00
    0.16783E-07        -0.26422E-09         0.00000E+00
    0.16765E-07        -0.34909E-09         0.00000E+00
    0.16743E-07        -0.40733E-09         0.00000E+00
    0.16719E-07        -0.44303E-09         0.00000E+00
    0.16695E-07        -0.45950E-09         0.00000E+00
    0.16671E-07        -0.45942E-09         0.00000E+00
    0.16648E-07        -0.44485E-09         0.00000E+00
    0.16627E-07        -0.41731E-09         0.00000E+00
    0.16608E-07        -0.37778E-09         0.00000E+00
    0.16591E-07        -0.32675E-09         0.00000E+00
    0.16577E-07        -0.26419E-09         0.00000E+00
    0.16566E-07        -0.18958E-09         0.00000E+00
    0.16559E-07        -0.10187E-09         0.00000E+00
    0.16556E-07        -0.54580E-10         0.00000E+00
    0.17404E-07        -0.74776E-10         0.00000E+00
    0.17398E-07        -0.13667E-09         0.00000E+00
    0.17381E-07        -0.24485E-09         0.00000E+00
    0.17356E-07        -0.32426E-09         0.00000E+00
    0.17327E-07        -0.37929E-09         0.00000E+00
    0.17295E-07        -0.41352E-09         0.00000E+00
    0.17262E-07        -0.42985E-09         0.00000E+00
    0.17229E-07        -0.43060E-09         0.00000E+00
    0.17198E-07        -0.41758E-09         0.00000E+00
    0.17169E-07        -0.39216E-09         0.00000E+00
    0.17142E-07        -0.35524E-09         0.00000E+00
    0.17118E-07        -0.30732E-09         0.00000E+00
    0.17098E-07        -0.24844E-09         0.00000E+00
    0.17083E-07        -0.17819E-09         0.00000E+00
    0.17073E-07        -0.95690E-10         0.00000E+00
    0.17069E-07        -0.51233E-10         0.00000E+00
    0.17994E-07        -0.67039E-10         0.00000E+00
    0.17986E-07        -0.12277E-09         0.00000E+00
    0.17966E-07        -0.22055E-09         0.00000E+00
    0.17936E-07        -0.29301E-09         0.00000E+00
    0.17901E-07        -0.34387E-09         0.00000E+00
    0.17862E-07        -0.37607E-09         0.00000E+00
    0.17822E-07        -0.39201E-09         0.00000E+00
    0.17782E-07        -0.39360E-09         0.00000E+00
    0.17743E-07        -0.38237E-09         0.00000E+00
    0.17707E-07        -0.35949E-09         0.00000E+00
    0.17674E-07        -0.32583E-09         0.00000E+00
    0.17644E-07        -0.28187E-09         0.00000E+00
    0.17619E-07        -0.22775E-09         0.00000E+00
    0.17600E-07        -0.16321E-09         0.00000E+00
    0.17587E-07        -0.87557E-10         0.00000E+00
    0.17582E-07        -0.46834E-10         0.00000E+00
    0.18553E-07        -0.57984E-10         0.00000E+00
    0.18544E-07        -0.10652E-09         0.00000E+00
    0.18521E-07        -0.19211E-09         0.00000E+00
    0.18487E-07        -0.25642E-09         0.00000E+00
    0.18447E-07        -0.30233E-09         0.00000E+00
    0.18403E-07        -0.33206E-09         0.00000E+00
    0.18357E-07        -0.34738E-09         0.00000E+00
    0.18311E-07        -0.34977E-09         0.00000E+00
    0.18266E-07        -0.34047E-09         0.00000E+00
    0.18224E-07        -0.32048E-09         0.00000E+00
    0.18186E-07        -0.29056E-09         0.00000E+00
    0.18151E-07        -0.25123E-09         0.00000E+00
    0.18122E-07        -0.20276E-09         0.00000E+00
    0.18099E-07        -0.14507E-09         0.00000E+00
    0.18084E-07        -0.77689E-10         0.00000E+00
    0.18079E-07        -0.41489E-10         0.00000E+00
    0.19066E-07        -0.47815E-10         0.00000E+00
    0.19057E-07        -0.88307E-10         0.00000E+00
    0.19031E-07        -0.16035E-09         0.00000E+00
    0.18995E-07        -0.21563E-09         0.00000E+00
    0.18951E-07        -0.25601E-09         0.00000E+00
    0.18903E-07        -0.28286E-09         0.00000E+00
    0.18852E-07        -0.29732E-09         0.00000E+00
    0.18802E-07        -0.30043E-09         0.00000E+00
    0.18753E-07        -0.29312E-09         0.00000E+00
    0.18706E-07        -0.27622E-09         0.00000E+00
    0.18663E-07        -0.25041E-09         0.00000E+00
    0.18624E-07        -0.21626E-09         0.00000E+00
    0.18592E-07        -0.17413E-09         0.00000E+00
    0.18566E-07        -0.12420E-09         0.00000E+00
    0.18549E-07        -0.66284E-10         0.00000E+00
    0.18543E-07        -0.35286E-10         0.00000E+00
    0.19520E-07        -0.36732E-10         0.00000E+00
    0.19510E-07        -0.68583E-10         0.00000E+00
    0.19484E-07        -0.12615E-09         0.00000E+00
    0.19446E-07        -0.17184E-09         0.00000E+00
    0.19400E-07        -0.20628E-09         0.00000E+00
    0.19349E-07        -0.22987E-09         0.00000E+00
    0.19296E-07        -0.24316E-09         0.00000E+00
    0.19242E-07        -0.24677E-09         0.00000E+00
    0.19189E-07        -0.24139E-09         0.00000E+00
    0.19138E-07        -0.22770E-09         0.00000E+00
    0.19091E-07        -0.20629E-09         0.00000E+00
    0.19050E-07        -0.17773E-09         0.00000E+00
    0.19014E-07        -0.14249E-09         0.00000E+00
    0.18987E-07        -0.10101E-09         0.00000E+00
    0.18968E-07        -0.53532E-10         0.00000E+00
    0.18962E-07        -0.28298E-10         0.00000E+00
    0.19904E-07        -0.24972E-10         0.00000E+00
    0.19894E-07        -0.47908E-10         0.00000E+00
    0.19868E-07        -0.90633E-10         0.00000E+00
    0.19830E-07        -0.12651E-09         0.00000E+00
    0.19783E-07        -0.15458E-09         0.00000E+00
    0.19731E-07        -0.17439E-09         0.00000E+00
    0.19676E-07        -0.18598E-09         0.00000E+00
    0.19619E-07        -0.18973E-09         0.00000E+00
    0.19563E-07        -0.18613E-09         0.00000E+00
    0.19509E-07        -0.17570E-09         0.00000E+00
    0.19459E-07        -0.15895E-09         0.00000E+00
    0.19415E-07        -0.13638E-09         0.00000E+00
    0.19378E-07        -0.10851E-09         0.00000E+00
    0.19349E-07        -0.76015E-10         0.00000E+00
    0.19329E-07        -0.39649E-10         0.00000E+00
    0.19322E-07        -0.20595E-10         0.00000E+00
    0.20206E-07        -0.12967E-10         0.00000E+00
    0.20197E-07        -0.27246E-10         0.00000E+00
    0.20174E-07        -0.55525E-10         0.00000E+00
    0.20138E-07        -0.81427E-10         0.00000E+00
    0.20093E-07        -0.10239E-09         0.00000E+00
    0.20041E-07        -0.11747E-09         0.00000E+00
    0.19984E-07        -0.12654E-09         0.00000E+00
    0.19925E-07        -0.12984E-09         0.00000E+00
    0.19866E-07        -0.12774E-09         0.00000E+00
    0.19809E-07        -0.12063E-09         0.00000E+00
    0.19756E-07        -0.10888E-09         0.00000E+00
    0.19709E-07        -0.92846E-10         0.00000E+00
    0.19671E-07        -0.72974E-10         0.00000E+00
    0.19641E-07        -0.49908E-10         0.00000E+00
    0.19622E-07        -0.24996E-10         0.00000E+00
    0.19614E-07        -0.12316E-10         0.00000E+00
    0.20417E-07        -0.18342E-11         0.00000E+00
    0.20413E-07        -0.88384E-11         0.00000E+00
    0.20398E-07        -0.23847E-10         0.00000E+00
    0.20368E-07        -0.38742E-10         0.00000E+00
    0.20325E-07        -0.50858E-10         0.00000E+00
    0.20272E-07        -0.59569E-10         0.00000E+00
    0.20213E-07        -0.64869E-10         0.00000E+00
    0.20151E-07        -0.66945E-10         0.00000E+00
    0.20088E-07        -0.66032E-10         0.00000E+00
    0.20027E-07        -0.62354E-10         0.00000E+00
    0.19971E-07        -0.56110E-10         0.00000E+00
    0.19922E-07        -0.47478E-10         0.00000E+00
    0.19882E-07        -0.36662E-10         0.00000E+00
    0.19853E-07        -0.24035E-10         0.00000E+00
    0.19836E-07        -0.10441E-10         0.00000E+00
    0.19831E-07        -0.35497E-11         0.00000E+00
    0.20498E-07         0.00000E+00         0.00000E+00
    0.20499E-07         0.00000E+00         0.00000E+00
    0.20489E-07        -0.57943E-22         0.00000E+00
    0.20462E-07         0.11539E-25         0.00000E+00
    0.20420E-07         0.62095E-22         0.00000E+00
    0.20367E-07         0.00000E+00         0.00000E+00
    0.20307E-07         0.00000E+00         0.00000E+00
    0.20243E-07        -0.57987E-22         0.00000E+00
    0.20178E-07        -0.57987E-22         0.00000E+00
    0.20115E-07         0.57999E-22         0.00000E+00
    0.20057E-07         0.62142E-22         0.00000E+00
    0.20007E-07        -0.62154E-22         0.00000E+00
    0.19966E-07        -0.41382E-23         0.00000E+00
    0.19938E-07         0.62161E-22         0.00000E+00
    0.19923E-07         0.82889E-23         0.00000E+00
    0.19921E-07         0.00000E+00         0.00000E+00
CELL_DATA        450
TENSORS stressef double 
    0.45406E+08         0.69697E+05         0.00000E+00
    0.69697E+05         0.29015E+08         0.00000E+00
    0.00000E+00         0.00000E+00         0.27140E+08
 
    0.44477E+08        -0.24629E+06         0.00000E+00
   -0.24629E+06         0.28612E+08         0.00000E+00
    0.00000E+00         0.00000E+00         0.24009E+08
 
    0.42451E+08        -0.57362E+06         0.00000E+00
   -0.57362E+06         0.27569E+08         0.00000E+00
    0.00000E+00         0.00000E+00         0.20088E+08
 
    0.40067E+08        -0.62428E+06         0.00000E+00
   -0.62428E+06         0.26175E+08         0.00000E+00
    0.00000E+00         0.00000E+00         0.16089E+08
 
    0.37614E+08        -0.81140E+06         0.00000E+00
   -0.81140E+06         0.24724E+08         0.00000E+00
    0.00000E+00         0.00000E+00         0.12851E+08
 
    0.34307E+08        -0.76331E+06         0.00000E+00
   -0.76331E+06         0.23267E+08         0.00000E+00
    0.00000E+00         0.00000E+00         0.11515E+08
 
    0.31772E+08        -0.56950E+06         0.00000E+00
   -0.56950E+06         0.22032E+08         0.00000E+00
    0.00000E+00         0.00000E+00         0.10761E+08
 
    0.29643E+08        -0.41765E+06         0.00000E+00
   -0.41765E+06         0.21090E+08         0.00000E+00
    0.00000E+00         0.00000E+00         0.10147E+08
 
    0.27664E+08        -0.28743E+06         0.00000E+00
   -0.28743E+06         0.20412E+08         0.00000E+00
    0.00000E+00         0.00000E+00         0.96152E+07
 
    0.25694E+08        -0.16404E+06         0.00000E+00
   -0.16404E+06         0.19978E+08         0.00000E+00
    0.00000E+00         0.00000E+00         0.91343E+07
 
    0.23614E+08        -0.35185E+05         0.00000E+00
   -0.35185E+05         0.19791E+08         0.00000E+00
    0.00000E+00         0.00000E+00         0.86810E+07
 
    0.21287E+08         0.11361E+06         0.00000E+00
    0.11361E+06         0.19879E+08         0.00000E+00
    0.00000E+00         0.00000E+00         0.82333E+07
 
    0.18513E+08         0.30848E+06         0.00000E+00
    0.30848E+06         0.20306E+08         0.00000E+00
    0.00000E+00         0.00000E+00         0.77640E+07
 
    0.14928E+08         0.60567E+06         0.00000E+00
    0.60567E+06         0.21223E+08         0.00000E+00
    0.00000E+00         0.00000E+00         0.72302E+07
 
    0.94747E+07         0.13584E+07         0.00000E+00
    0.13584E+07         0.23069E+08         0.00000E+00
    0.00000E+00         0.00000E+00         0.65088E+07
 
    0.41208E+08         0.12853E+06         0.00000E+00
    0.12853E+06         0.23010E+08         0.00000E+00
    0.00000E+00         0.00000E+00         0.18480E+08
 
    0.39760E+08        -0.57244E+06         0.00000E+00
   -0.57244E+06         0.22754E+08         0.00000E+00
    0.00000E+00         0.00000E+00         0.15625E+08
 
    0.38164E+08        -0.12999E+07         0.00000E+00
   -0.12999E+07         0.22595E+08         0.00000E+00
    0.00000E+00         0.00000E+00         0.12924E+08
 
    0.35755E+08        -0.16664E+07         0.00000E+00
   -0.16664E+07         0.22265E+08         0.00000E+00
    0.00000E+00         0.00000E+00         0.11604E+08
 
    0.33207E+08        -0.19163E+07         0.00000E+00
   -0.19163E+07         0.21649E+08         0.00000E+00
    0.00000E+00         0.00000E+00         0.10971E+08
 
    0.30497E+08        -0.18757E+07         0.00000E+00
   -0.18757E+07         0.20913E+08         0.00000E+00
    0.00000E+00         0.00000E+00         0.10282E+08
 
    0.27995E+08        -0.15255E+07         0.00000E+00
   -0.15255E+07         0.20136E+08         0.00000E+00
    0.00000E+00         0.00000E+00         0.96261E+07
 
    0.25850E+08        -0.11564E+07         0.00000E+00
   -0.11564E+07         0.19448E+08         0.00000E+00
    0.00000E+00         0.00000E+00         0.90597E+07
 
    0.23868E+08        -0.80469E+06         0.00000E+00
   -0.80469E+06         0.18923E+08         0.00000E+00
    0.00000E+00         0.00000E+00         0.85583E+07
 
    0.21912E+08        -0.45348E+06         0.00000E+00
   -0.45348E+06         0.18592E+08         0.00000E+00
    0.00000E+00         0.00000E+00         0.81009E+07
 
    0.19868E+08        -0.76416E+05         0.00000E+00
   -0.76416E+05         0.18481E+08         0.00000E+00
    0.00000E+00         0.00000E+00         0.76698E+07
 
    0.17612E+08         0.36606E+06         0.00000E+00
    0.36606E+06         0.18627E+08         0.00000E+00
    0.00000E+00         0.00000E+00         0.72479E+07
 
    0.14981E+08         0.94675E+06         0.00000E+00
    0.94675E+06         0.19100E+08         0.00000E+00
    0.00000E+00         0.00000E+00         0.68163E+07
 
    0.11718E+08         0.18415E+07         0.00000E+00
    0.18415E+07         0.20028E+08         0.00000E+00
    0.00000E+00         0.00000E+00         0.63493E+07
 
    0.77649E+07         0.36185E+07         0.00000E+00
    0.36185E+07         0.21596E+08         0.00000E+00
    0.00000E+00         0.00000E+00         0.58722E+07
 
    0.37061E+08        -0.37812E+06         0.00000E+00
   -0.37812E+06         0.19267E+08         0.00000E+00
    0.00000E+00         0.00000E+00         0.11566E+08
 
    0.34975E+08        -0.91248E+06         0.00000E+00
   -0.91248E+06         0.19135E+08         0.00000E+00
    0.00000E+00         0.00000E+00         0.10822E+08
 
    0.33422E+08        -0.15696E+07         0.00000E+00
   -0.15696E+07         0.18975E+08         0.00000E+00
    0.00000E+00         0.00000E+00         0.10479E+08
 
    0.31459E+08        -0.21745E+07         0.00000E+00
   -0.21745E+07         0.18724E+08         0.00000E+00
    0.00000E+00         0.00000E+00         0.10037E+08
 
    0.29128E+08        -0.24233E+07         0.00000E+00
   -0.24233E+07         0.18388E+08         0.00000E+00
    0.00000E+00         0.00000E+00         0.95032E+07
 
    0.26747E+08        -0.23995E+07         0.00000E+00
   -0.23995E+07         0.18068E+08         0.00000E+00
    0.00000E+00         0.00000E+00         0.89629E+07
 
    0.24448E+08        -0.21020E+07         0.00000E+00
   -0.21020E+07         0.17720E+08         0.00000E+00
    0.00000E+00         0.00000E+00         0.84336E+07
 
    0.22342E+08        -0.16607E+07         0.00000E+00
   -0.16607E+07         0.17353E+08         0.00000E+00
    0.00000E+00         0.00000E+00         0.79390E+07
 
    0.20381E+08        -0.11679E+07         0.00000E+00
   -0.11679E+07         0.17054E+08         0.00000E+00
    0.00000E+00         0.00000E+00         0.74869E+07
 
    0.18462E+08        -0.63496E+06         0.00000E+00
   -0.63496E+06         0.16884E+08         0.00000E+00
    0.00000E+00         0.00000E+00         0.70692E+07
 
    0.16489E+08        -0.37780E+05         0.00000E+00
   -0.37780E+05         0.16891E+08         0.00000E+00
    0.00000E+00         0.00000E+00         0.66760E+07
 
    0.14367E+08         0.67676E+06         0.00000E+00
    0.67676E+06         0.17120E+08         0.00000E+00
    0.00000E+00         0.00000E+00         0.62975E+07
 
    0.11994E+08         0.16112E+07         0.00000E+00
    0.16112E+07         0.17631E+08         0.00000E+00
    0.00000E+00         0.00000E+00         0.59250E+07
 
    0.93196E+07         0.29797E+07         0.00000E+00
    0.29797E+07         0.18484E+08         0.00000E+00
    0.00000E+00         0.00000E+00         0.55608E+07
 
    0.64825E+07         0.51205E+07         0.00000E+00
    0.51205E+07         0.19619E+08         0.00000E+00
    0.00000E+00         0.00000E+00         0.52202E+07
 
    0.32431E+08        -0.57108E+06         0.00000E+00
   -0.57108E+06         0.16061E+08         0.00000E+00
    0.00000E+00         0.00000E+00         0.96983E+07
 
    0.30624E+08        -0.12796E+07         0.00000E+00
   -0.12796E+07         0.15868E+08         0.00000E+00
    0.00000E+00         0.00000E+00         0.92983E+07
 
    0.29005E+08        -0.18567E+07         0.00000E+00
   -0.18567E+07         0.15584E+08         0.00000E+00
    0.00000E+00         0.00000E+00         0.89179E+07
 
    0.27248E+08        -0.23772E+07         0.00000E+00
   -0.23772E+07         0.15410E+08         0.00000E+00
    0.00000E+00         0.00000E+00         0.85316E+07
 
    0.25243E+08        -0.26469E+07         0.00000E+00
   -0.26469E+07         0.15315E+08         0.00000E+00
    0.00000E+00         0.00000E+00         0.81116E+07
 
    0.23138E+08        -0.26264E+07         0.00000E+00
   -0.26264E+07         0.15219E+08         0.00000E+00
    0.00000E+00         0.00000E+00         0.76714E+07
 
    0.21062E+08        -0.23601E+07         0.00000E+00
   -0.23601E+07         0.15115E+08         0.00000E+00
    0.00000E+00         0.00000E+00         0.72354E+07
 
    0.19081E+08        -0.19109E+07         0.00000E+00
   -0.19109E+07         0.15002E+08         0.00000E+00
    0.00000E+00         0.00000E+00         0.68167E+07
 
    0.17195E+08        -0.13417E+07         0.00000E+00
   -0.13417E+07         0.14918E+08         0.00000E+00
    0.00000E+00         0.00000E+00         0.64226E+07
 
    0.15355E+08        -0.67729E+06         0.00000E+00
   -0.67729E+06         0.14915E+08         0.00000E+00
    0.00000E+00         0.00000E+00         0.60540E+07
 
    0.13497E+08         0.98531E+05         0.00000E+00
    0.98531E+05         0.15043E+08         0.00000E+00
    0.00000E+00         0.00000E+00         0.57080E+07
 
    0.11563E+08         0.10389E+07         0.00000E+00
    0.10389E+07         0.15344E+08         0.00000E+00
    0.00000E+00         0.00000E+00         0.53816E+07
 
    0.95220E+07         0.22450E+07         0.00000E+00
    0.22450E+07         0.15851E+08         0.00000E+00
    0.00000E+00         0.00000E+00         0.50747E+07
 
    0.74097E+07         0.38754E+07         0.00000E+00
    0.38754E+07         0.16558E+08         0.00000E+00
    0.00000E+00         0.00000E+00         0.47935E+07
 
    0.53965E+07         0.61210E+07         0.00000E+00
    0.61210E+07         0.17371E+08         0.00000E+00
    0.00000E+00         0.00000E+00         0.45535E+07
 
    0.27834E+08        -0.59083E+06         0.00000E+00
   -0.59083E+06         0.12471E+08         0.00000E+00
    0.00000E+00         0.00000E+00         0.80611E+07
 
    0.26401E+08        -0.14564E+07         0.00000E+00
   -0.14564E+07         0.12453E+08         0.00000E+00
    0.00000E+00         0.00000E+00         0.77708E+07
 
    0.24913E+08        -0.20491E+07         0.00000E+00
   -0.20491E+07         0.12385E+08         0.00000E+00
    0.00000E+00         0.00000E+00         0.74596E+07
 
    0.23319E+08        -0.24730E+07         0.00000E+00
   -0.24730E+07         0.12341E+08         0.00000E+00
    0.00000E+00         0.00000E+00         0.71320E+07
 
    0.21576E+08        -0.26943E+07         0.00000E+00
   -0.26943E+07         0.12360E+08         0.00000E+00
    0.00000E+00         0.00000E+00         0.67870E+07
 
    0.19733E+08        -0.26706E+07         0.00000E+00
   -0.26706E+07         0.12413E+08         0.00000E+00
    0.00000E+00         0.00000E+00         0.64293E+07
 
    0.17876E+08        -0.24124E+07         0.00000E+00
   -0.24124E+07         0.12471E+08         0.00000E+00
    0.00000E+00         0.00000E+00         0.60694E+07
 
    0.16061E+08        -0.19578E+07         0.00000E+00
   -0.19578E+07         0.12531E+08         0.00000E+00
    0.00000E+00         0.00000E+00         0.57183E+07
 
    0.14302E+08        -0.13437E+07         0.00000E+00
   -0.13437E+07         0.12612E+08         0.00000E+00
    0.00000E+00         0.00000E+00         0.53827E+07
 
    0.12585E+08        -0.58832E+06         0.00000E+00
   -0.58832E+06         0.12747E+08         0.00000E+00
    0.00000E+00         0.00000E+00         0.50662E+07
 
    0.10881E+08         0.31968E+06         0.00000E+00
    0.31968E+06         0.12972E+08         0.00000E+00
    0.00000E+00         0.00000E+00         0.47706E+07
 
    0.91694E+07         0.14238E+07         0.00000E+00
    0.14238E+07         0.13317E+08         0.00000E+00
    0.00000E+00         0.00000E+00         0.44973E+07
 
    0.74613E+07         0.28004E+07         0.00000E+00
    0.28004E+07         0.13789E+08         0.00000E+00
    0.00000E+00         0.00000E+00         0.42500E+07
 
    0.58262E+07         0.45519E+07         0.00000E+00
    0.45519E+07         0.14357E+08         0.00000E+00
    0.00000E+00         0.00000E+00         0.40366E+07
 
    0.44202E+07         0.67813E+07         0.00000E+00
    0.67813E+07         0.14929E+08         0.00000E+00
    0.00000E+00         0.00000E+00         0.38699E+07
 
    0.23448E+08        -0.57926E+06         0.00000E+00
   -0.57926E+06         0.91728E+07         0.00000E+00
    0.00000E+00         0.00000E+00         0.65241E+07
 
    0.22360E+08        -0.14649E+07         0.00000E+00
   -0.14649E+07         0.92258E+07         0.00000E+00
    0.00000E+00         0.00000E+00         0.63172E+07
 
    0.21099E+08        -0.20698E+07         0.00000E+00
   -0.20698E+07         0.92973E+07         0.00000E+00
    0.00000E+00         0.00000E+00         0.60794E+07
 
    0.19699E+08        -0.24553E+07         0.00000E+00
   -0.24553E+07         0.93882E+07         0.00000E+00
    0.00000E+00         0.00000E+00         0.58175E+07
 
    0.18176E+08        -0.26319E+07         0.00000E+00
   -0.26319E+07         0.95126E+07         0.00000E+00
    0.00000E+00         0.00000E+00         0.55378E+07
 
    0.16567E+08        -0.25882E+07         0.00000E+00
   -0.25882E+07         0.96659E+07         0.00000E+00
    0.00000E+00         0.00000E+00         0.52466E+07
 
    0.14924E+08        -0.23253E+07         0.00000E+00
   -0.23253E+07         0.98335E+07         0.00000E+00
    0.00000E+00         0.00000E+00         0.49514E+07
 
    0.13291E+08        -0.18607E+07         0.00000E+00
   -0.18607E+07         0.10010E+08         0.00000E+00
    0.00000E+00         0.00000E+00         0.46601E+07
 
    0.11692E+08        -0.12150E+07         0.00000E+00
   -0.12150E+07         0.10203E+08         0.00000E+00
    0.00000E+00         0.00000E+00         0.43790E+07
 
    0.10132E+08        -0.39817E+06         0.00000E+00
   -0.39817E+06         0.10434E+08         0.00000E+00
    0.00000E+00         0.00000E+00         0.41131E+07
 
    0.86087E+07         0.59836E+06         0.00000E+00
    0.59836E+06         0.10722E+08         0.00000E+00
    0.00000E+00         0.00000E+00         0.38662E+07
 
    0.71292E+07         0.18048E+07         0.00000E+00
    0.18048E+07         0.11082E+08         0.00000E+00
    0.00000E+00         0.00000E+00         0.36423E+07
 
    0.57267E+07         0.32706E+07         0.00000E+00
    0.32706E+07         0.11506E+08         0.00000E+00
    0.00000E+00         0.00000E+00         0.34466E+07
 
    0.44784E+07         0.50541E+07         0.00000E+00
    0.50541E+07         0.11957E+08         0.00000E+00
    0.00000E+00         0.00000E+00         0.32870E+07
 
    0.35183E+07         0.72033E+07         0.00000E+00
    0.72033E+07         0.12352E+08         0.00000E+00
    0.00000E+00         0.00000E+00         0.31740E+07
 
    0.19355E+08        -0.53623E+06         0.00000E+00
   -0.53623E+06         0.61225E+07         0.00000E+00
    0.00000E+00         0.00000E+00         0.50955E+07
 
    0.18575E+08        -0.13835E+07         0.00000E+00
   -0.13835E+07         0.62230E+07         0.00000E+00
    0.00000E+00         0.00000E+00         0.49595E+07
 
    0.17554E+08        -0.19705E+07         0.00000E+00
   -0.19705E+07         0.63742E+07         0.00000E+00
    0.00000E+00         0.00000E+00         0.47857E+07
 
    0.16365E+08        -0.23320E+07         0.00000E+00
   -0.23320E+07         0.65549E+07         0.00000E+00
    0.00000E+00         0.00000E+00         0.45840E+07
 
    0.15052E+08        -0.24807E+07         0.00000E+00
   -0.24807E+07         0.67599E+07         0.00000E+00
    0.00000E+00         0.00000E+00         0.43623E+07
 
    0.13655E+08        -0.24173E+07         0.00000E+00
   -0.24173E+07         0.69851E+07         0.00000E+00
    0.00000E+00         0.00000E+00         0.41280E+07
 
    0.12217E+08        -0.21434E+07         0.00000E+00
   -0.21434E+07         0.72237E+07         0.00000E+00
    0.00000E+00         0.00000E+00         0.38881E+07
 
    0.10774E+08        -0.16670E+07         0.00000E+00
   -0.16670E+07         0.74724E+07         0.00000E+00
    0.00000E+00         0.00000E+00         0.36492E+07
 
    0.93523E+07        -0.99841E+06         0.00000E+00
   -0.99841E+06         0.77349E+07         0.00000E+00
    0.00000E+00         0.00000E+00         0.34174E+07
 
    0.79694E+07        -0.14253E+06         0.00000E+00
   -0.14253E+06         0.80206E+07         0.00000E+00
    0.00000E+00         0.00000E+00         0.31980E+07
 
    0.66394E+07         0.90622E+06         0.00000E+00
    0.90622E+06         0.83388E+07         0.00000E+00
    0.00000E+00         0.00000E+00         0.29956E+07
 
    0.53854E+07         0.21656E+07         0.00000E+00
    0.21656E+07         0.86913E+07         0.00000E+00
    0.00000E+00         0.00000E+00         0.28153E+07
 
    0.42505E+07         0.36621E+07         0.00000E+00
    0.36621E+07         0.90634E+07         0.00000E+00
    0.00000E+00         0.00000E+00         0.26628E+07
 
    0.33092E+07         0.54224E+07         0.00000E+00
    0.54224E+07         0.94167E+07         0.00000E+00
    0.00000E+00         0.00000E+00         0.25452E+07
 
    0.26724E+07         0.74593E+07         0.00000E+00
    0.74593E+07         0.96835E+07         0.00000E+00
    0.00000E+00         0.00000E+00         0.24712E+07
 
    0.15596E+08        -0.47488E+06         0.00000E+00
   -0.47488E+06         0.33135E+07         0.00000E+00
    0.00000E+00         0.00000E+00         0.37819E+07
 
    0.15071E+08        -0.12499E+07         0.00000E+00
   -0.12499E+07         0.34356E+07         0.00000E+00
    0.00000E+00         0.00000E+00         0.37013E+07
 
    0.14275E+08        -0.18000E+07         0.00000E+00
   -0.18000E+07         0.36270E+07         0.00000E+00
    0.00000E+00         0.00000E+00         0.35805E+07
 
    0.13294E+08        -0.21363E+07         0.00000E+00
   -0.21363E+07         0.38557E+07         0.00000E+00
    0.00000E+00         0.00000E+00         0.34300E+07
 
    0.12184E+08        -0.22644E+07         0.00000E+00
   -0.22644E+07         0.41075E+07         0.00000E+00
    0.00000E+00         0.00000E+00         0.32583E+07
 
    0.10989E+08        -0.21855E+07         0.00000E+00
   -0.21855E+07         0.43749E+07         0.00000E+00
    0.00000E+00         0.00000E+00         0.30729E+07
 
    0.97496E+07        -0.19009E+07         0.00000E+00
   -0.19009E+07         0.46529E+07         0.00000E+00
    0.00000E+00         0.00000E+00         0.28805E+07
 
    0.84979E+07        -0.14143E+07         0.00000E+00
   -0.14143E+07         0.49390E+07         0.00000E+00
    0.00000E+00         0.00000E+00         0.26874E+07
 
    0.72616E+07        -0.73083E+06         0.00000E+00
   -0.73083E+06         0.52340E+07         0.00000E+00
    0.00000E+00         0.00000E+00         0.24991E+07
 
    0.60640E+07         0.14651E+06         0.00000E+00
    0.14651E+06         0.55410E+07         0.00000E+00
    0.00000E+00         0.00000E+00         0.23210E+07
 
    0.49281E+07         0.12197E+07         0.00000E+00
    0.12197E+07         0.58616E+07         0.00000E+00
    0.00000E+00         0.00000E+00         0.21579E+07
 
    0.38847E+07         0.24961E+07         0.00000E+00
    0.24961E+07         0.61904E+07         0.00000E+00
    0.00000E+00         0.00000E+00         0.20150E+07
 
    0.29791E+07         0.39848E+07         0.00000E+00
    0.39848E+07         0.65096E+07         0.00000E+00
    0.00000E+00         0.00000E+00         0.18977E+07
 
    0.22779E+07         0.56903E+07         0.00000E+00
    0.56903E+07         0.67839E+07         0.00000E+00
    0.00000E+00         0.00000E+00         0.18124E+07
 
    0.18707E+07         0.76021E+07         0.00000E+00
    0.76021E+07         0.69587E+07         0.00000E+00
    0.00000E+00         0.00000E+00         0.17659E+07
 
    0.12173E+08        -0.40657E+06         0.00000E+00
   -0.40657E+06         0.72326E+06         0.00000E+00
    0.00000E+00         0.00000E+00         0.25792E+07
 
    0.11847E+08        -0.10929E+07         0.00000E+00
   -0.10929E+07         0.84825E+06         0.00000E+00
    0.00000E+00         0.00000E+00         0.25390E+07
 
    0.11250E+08        -0.15942E+07         0.00000E+00
   -0.15942E+07         0.10491E+07         0.00000E+00
    0.00000E+00         0.00000E+00         0.24598E+07
 
    0.10464E+08        -0.19017E+07         0.00000E+00
   -0.19017E+07         0.12919E+07         0.00000E+00
    0.00000E+00         0.00000E+00         0.23511E+07
 
    0.95481E+07        -0.20111E+07         0.00000E+00
   -0.20111E+07         0.15585E+07         0.00000E+00
    0.00000E+00         0.00000E+00         0.22213E+07
 
    0.85485E+07        -0.19196E+07         0.00000E+00
   -0.19196E+07         0.18389E+07         0.00000E+00
    0.00000E+00         0.00000E+00         0.20775E+07
 
    0.75019E+07        -0.16264E+07         0.00000E+00
   -0.16264E+07         0.21276E+07         0.00000E+00
    0.00000E+00         0.00000E+00         0.19259E+07
 
    0.64401E+07        -0.11330E+07         0.00000E+00
   -0.11330E+07         0.24217E+07         0.00000E+00
    0.00000E+00         0.00000E+00         0.17724E+07
 
    0.53905E+07        -0.44212E+06         0.00000E+00
   -0.44212E+06         0.27199E+07         0.00000E+00
    0.00000E+00         0.00000E+00         0.16221E+07
 
    0.43785E+07         0.44315E+06         0.00000E+00
    0.44315E+06         0.30216E+07         0.00000E+00
    0.00000E+00         0.00000E+00         0.14800E+07
 
    0.34307E+07         0.15211E+07         0.00000E+00
    0.15211E+07         0.33235E+07         0.00000E+00
    0.00000E+00         0.00000E+00         0.13509E+07
 
    0.25797E+07         0.27905E+07         0.00000E+00
    0.27905E+07         0.36170E+07         0.00000E+00
    0.00000E+00         0.00000E+00         0.12393E+07
 
    0.18683E+07         0.42482E+07         0.00000E+00
    0.42482E+07         0.38839E+07         0.00000E+00
    0.00000E+00         0.00000E+00         0.11504E+07
 
    0.13532E+07         0.58833E+07         0.00000E+00
    0.58833E+07         0.40939E+07         0.00000E+00
    0.00000E+00         0.00000E+00         0.10894E+07
 
    0.11048E+07         0.76707E+07         0.00000E+00
    0.76707E+07         0.42040E+07         0.00000E+00
    0.00000E+00         0.00000E+00         0.10618E+07
 
    0.90613E+07        -0.33978E+06         0.00000E+00
   -0.33978E+06        -0.16780E+07         0.00000E+00
    0.00000E+00         0.00000E+00         0.14767E+07
 
    0.88830E+07        -0.93382E+06         0.00000E+00
   -0.93382E+06        -0.15636E+07         0.00000E+00
    0.00000E+00         0.00000E+00         0.14639E+07
 
    0.84535E+07        -0.13810E+07         0.00000E+00
   -0.13810E+07        -0.13759E+07         0.00000E+00
    0.00000E+00         0.00000E+00         0.14155E+07
 
    0.78457E+07        -0.16569E+07         0.00000E+00
   -0.16569E+07        -0.11458E+07         0.00000E+00
    0.00000E+00         0.00000E+00         0.13400E+07
 
    0.71145E+07        -0.17475E+07         0.00000E+00
   -0.17475E+07        -0.89163E+06         0.00000E+00
    0.00000E+00         0.00000E+00         0.12446E+07
 
    0.63026E+07        -0.16448E+07         0.00000E+00
   -0.16448E+07        -0.62426E+06         0.00000E+00
    0.00000E+00         0.00000E+00         0.11357E+07
 
    0.54446E+07        -0.13452E+07         0.00000E+00
   -0.13452E+07        -0.34989E+06         0.00000E+00
    0.00000E+00         0.00000E+00         0.10189E+07
 
    0.45698E+07        -0.84819E+06         0.00000E+00
   -0.84819E+06        -0.72279E+05         0.00000E+00
    0.00000E+00         0.00000E+00         0.89951E+06
 
    0.37047E+07        -0.15600E+06         0.00000E+00
   -0.15600E+06         0.20591E+06         0.00000E+00
    0.00000E+00         0.00000E+00         0.78213E+06
 
    0.28743E+07         0.72756E+06         0.00000E+00
    0.72756E+06         0.48162E+06         0.00000E+00
    0.00000E+00         0.00000E+00         0.67119E+06
 
    0.21052E+07         0.17973E+07         0.00000E+00
    0.17973E+07         0.74953E+06         0.00000E+00
    0.00000E+00         0.00000E+00         0.57096E+06
 
    0.14282E+07         0.30456E+07         0.00000E+00
    0.30456E+07         0.99975E+06         0.00000E+00
    0.00000E+00         0.00000E+00         0.48560E+06
 
    0.88097E+06         0.44604E+07         0.00000E+00
    0.44604E+07         0.12157E+07         0.00000E+00
    0.00000E+00         0.00000E+00         0.41933E+06
 
    0.50942E+06         0.60211E+07         0.00000E+00
    0.60211E+07         0.13728E+07         0.00000E+00
    0.00000E+00         0.00000E+00         0.37644E+06
 
    0.36741E+06         0.76934E+07         0.00000E+00
    0.76934E+07         0.14384E+07         0.00000E+00
    0.00000E+00         0.00000E+00         0.36116E+06
 
    0.62202E+07        -0.28033E+06         0.00000E+00
   -0.28033E+06        -0.39248E+07         0.00000E+00
    0.00000E+00         0.00000E+00         0.45909E+06
 
    0.61454E+07        -0.78815E+06         0.00000E+00
   -0.78815E+06        -0.38300E+07         0.00000E+00
    0.00000E+00         0.00000E+00         0.46308E+06
 
    0.58550E+07        -0.11816E+07         0.00000E+00
   -0.11816E+07        -0.36714E+07         0.00000E+00
    0.00000E+00         0.00000E+00         0.43673E+06
 
    0.54078E+07        -0.14251E+07         0.00000E+00
   -0.14251E+07        -0.34738E+07         0.00000E+00
    0.00000E+00         0.00000E+00         0.38681E+06
 
    0.48501E+07        -0.14966E+07         0.00000E+00
   -0.14966E+07        -0.32535E+07         0.00000E+00
    0.00000E+00         0.00000E+00         0.31932E+06
 
    0.42187E+07        -0.13832E+07         0.00000E+00
   -0.13832E+07        -0.30205E+07         0.00000E+00
    0.00000E+00         0.00000E+00         0.23966E+06
 
    0.35443E+07        -0.10785E+07         0.00000E+00
   -0.10785E+07        -0.27811E+07         0.00000E+00
    0.00000E+00         0.00000E+00         0.15264E+06
 
    0.28528E+07        -0.58045E+06         0.00000E+00
   -0.58045E+06        -0.25396E+07         0.00000E+00
    0.00000E+00         0.00000E+00         0.62651E+05
 
    0.21682E+07         0.10896E+06         0.00000E+00
    0.10896E+06        -0.22995E+07         0.00000E+00
    0.00000E+00         0.00000E+00        -0.26258E+05
 
    0.15135E+07         0.98479E+06         0.00000E+00
    0.98479E+06        -0.20650E+07         0.00000E+00
    0.00000E+00         0.00000E+00        -0.11030E+06
 
    0.91277E+06         0.20390E+07         0.00000E+00
    0.20390E+07        -0.18421E+07         0.00000E+00
    0.00000E+00         0.00000E+00        -0.18586E+06
 
    0.39305E+06         0.32594E+07         0.00000E+00
    0.32594E+07        -0.16403E+07         0.00000E+00
    0.00000E+00         0.00000E+00        -0.24945E+06
 
   -0.14588E+05         0.46280E+07         0.00000E+00
    0.46280E+07        -0.14735E+07         0.00000E+00
    0.00000E+00         0.00000E+00        -0.29762E+06
 
   -0.27453E+06         0.61181E+07         0.00000E+00
    0.61181E+07        -0.13608E+07         0.00000E+00
    0.00000E+00         0.00000E+00        -0.32706E+06
 
   -0.34771E+06         0.76904E+07         0.00000E+00
    0.76904E+07        -0.13254E+07         0.00000E+00
    0.00000E+00         0.00000E+00        -0.33462E+06
 
    0.35971E+07        -0.23195E+06         0.00000E+00
   -0.23195E+06        -0.60530E+07         0.00000E+00
    0.00000E+00         0.00000E+00        -0.49117E+06
 
    0.35920E+07        -0.66636E+06         0.00000E+00
   -0.66636E+06        -0.59834E+07         0.00000E+00
    0.00000E+00         0.00000E+00        -0.47827E+06
 
    0.34171E+07        -0.10114E+07         0.00000E+00
   -0.10114E+07        -0.58643E+07         0.00000E+00
    0.00000E+00         0.00000E+00        -0.48945E+06
 
    0.31148E+07        -0.12241E+07         0.00000E+00
   -0.12241E+07        -0.57132E+07         0.00000E+00
    0.00000E+00         0.00000E+00        -0.51969E+06
 
    0.27202E+07        -0.12769E+07         0.00000E+00
   -0.12769E+07        -0.55422E+07         0.00000E+00
    0.00000E+00         0.00000E+00        -0.56441E+06
 
    0.22626E+07        -0.11531E+07         0.00000E+00
   -0.11531E+07        -0.53596E+07         0.00000E+00
    0.00000E+00         0.00000E+00        -0.61941E+06
 
    0.17667E+07        -0.84377E+06         0.00000E+00
   -0.84377E+06        -0.51710E+07         0.00000E+00
    0.00000E+00         0.00000E+00        -0.68085E+06
 
    0.12543E+07        -0.34595E+06         0.00000E+00
   -0.34595E+06        -0.49803E+07         0.00000E+00
    0.00000E+00         0.00000E+00        -0.74521E+06
 
    0.74551E+06         0.33858E+06         0.00000E+00
    0.33858E+06        -0.47916E+07         0.00000E+00
    0.00000E+00         0.00000E+00        -0.80922E+06
 
    0.25998E+06         0.12039E+07         0.00000E+00
    0.12039E+07        -0.46091E+07         0.00000E+00
    0.00000E+00         0.00000E+00        -0.86982E+06
 
   -0.18195E+06         0.22397E+07         0.00000E+00
    0.22397E+07        -0.44386E+07         0.00000E+00
    0.00000E+00         0.00000E+00        -0.92411E+06
 
   -0.55835E+06         0.34309E+07         0.00000E+00
    0.34309E+07        -0.42883E+07         0.00000E+00
    0.00000E+00         0.00000E+00        -0.96933E+06
 
   -0.84517E+06         0.47558E+07         0.00000E+00
    0.47558E+07        -0.41690E+07         0.00000E+00
    0.00000E+00         0.00000E+00        -0.10028E+07
 
   -0.10166E+07         0.61843E+07         0.00000E+00
    0.61843E+07        -0.40942E+07         0.00000E+00
    0.00000E+00         0.00000E+00        -0.10222E+07
 
   -0.10462E+07         0.76752E+07         0.00000E+00
    0.76752E+07        -0.40794E+07         0.00000E+00
    0.00000E+00         0.00000E+00        -0.10251E+07
 
    0.11349E+07        -0.19682E+06         0.00000E+00
   -0.19682E+06        -0.80983E+07         0.00000E+00
    0.00000E+00         0.00000E+00        -0.13927E+07
 
    0.11764E+07        -0.57511E+06         0.00000E+00
   -0.57511E+06        -0.80567E+07         0.00000E+00
    0.00000E+00         0.00000E+00        -0.13760E+07
 
    0.10996E+07        -0.88048E+06         0.00000E+00
   -0.88048E+06        -0.79832E+07         0.00000E+00
    0.00000E+00         0.00000E+00        -0.13767E+07
 
    0.92994E+06        -0.10664E+07         0.00000E+00
   -0.10664E+07        -0.78871E+07         0.00000E+00
    0.00000E+00         0.00000E+00        -0.13914E+07
 
    0.69013E+06        -0.11020E+07         0.00000E+00
   -0.11020E+07        -0.77757E+07         0.00000E+00
    0.00000E+00         0.00000E+00        -0.14171E+07
 
    0.40035E+06        -0.96817E+06         0.00000E+00
   -0.96817E+06        -0.76543E+07         0.00000E+00
    0.00000E+00         0.00000E+00        -0.14508E+07
 
    0.78519E+05        -0.65431E+06         0.00000E+00
   -0.65431E+06        -0.75271E+07         0.00000E+00
    0.00000E+00         0.00000E+00        -0.14897E+07
 
   -0.25897E+06        -0.15680E+06         0.00000E+00
   -0.15680E+06        -0.73975E+07         0.00000E+00
    0.00000E+00         0.00000E+00        -0.15313E+07
 
   -0.59654E+06         0.52256E+06         0.00000E+00
    0.52256E+06        -0.72689E+07         0.00000E+00
    0.00000E+00         0.00000E+00        -0.15731E+07
 
   -0.91882E+06         0.13770E+07         0.00000E+00
    0.13770E+07        -0.71453E+07         0.00000E+00
    0.00000E+00         0.00000E+00        -0.16128E+07
 
   -0.12101E+07         0.23951E+07         0.00000E+00
    0.23951E+07        -0.70317E+07         0.00000E+00
    0.00000E+00         0.00000E+00        -0.16483E+07
 
   -0.14540E+07         0.35596E+07         0.00000E+00
    0.35596E+07        -0.69342E+07         0.00000E+00
    0.00000E+00         0.00000E+00        -0.16776E+07
 
   -0.16334E+07         0.48473E+07         0.00000E+00
    0.48473E+07        -0.68606E+07         0.00000E+00
    0.00000E+00         0.00000E+00        -0.16988E+07
 
   -0.17316E+07         0.62265E+07         0.00000E+00
    0.62265E+07        -0.68195E+07         0.00000E+00
    0.00000E+00         0.00000E+00        -0.17102E+07
 
   -0.17329E+07         0.76561E+07         0.00000E+00
    0.76561E+07        -0.68193E+07         0.00000E+00
    0.00000E+00         0.00000E+00        -0.17104E+07
 
   -0.12248E+07        -0.17594E+06         0.00000E+00
   -0.17594E+06        -0.10094E+08         0.00000E+00
    0.00000E+00         0.00000E+00        -0.22637E+07
 
   -0.11489E+07        -0.51808E+06         0.00000E+00
   -0.51808E+06        -0.10081E+08         0.00000E+00
    0.00000E+00         0.00000E+00        -0.22460E+07
 
   -0.11378E+07        -0.79520E+06         0.00000E+00
   -0.79520E+06        -0.10056E+08         0.00000E+00
    0.00000E+00         0.00000E+00        -0.22388E+07
 
   -0.11828E+07        -0.96021E+06         0.00000E+00
   -0.96021E+06        -0.10019E+08         0.00000E+00
    0.00000E+00         0.00000E+00        -0.22404E+07
 
   -0.12737E+07        -0.98115E+06         0.00000E+00
   -0.98115E+06        -0.99724E+07         0.00000E+00
    0.00000E+00         0.00000E+00        -0.22492E+07
 
   -0.14001E+07        -0.83782E+06         0.00000E+00
   -0.83782E+06        -0.99182E+07         0.00000E+00
    0.00000E+00         0.00000E+00        -0.22637E+07
 
   -0.15516E+07        -0.51915E+06         0.00000E+00
   -0.51915E+06        -0.98584E+07         0.00000E+00
    0.00000E+00         0.00000E+00        -0.22820E+07
 
   -0.17177E+07        -0.21196E+05         0.00000E+00
   -0.21196E+05        -0.97954E+07         0.00000E+00
    0.00000E+00         0.00000E+00        -0.23026E+07
 
   -0.18880E+07         0.65405E+06         0.00000E+00
    0.65405E+06        -0.97318E+07         0.00000E+00
    0.00000E+00         0.00000E+00        -0.23240E+07
 
   -0.20519E+07         0.14994E+07         0.00000E+00
    0.14994E+07        -0.96707E+07         0.00000E+00
    0.00000E+00         0.00000E+00        -0.23445E+07
 
   -0.21987E+07         0.25025E+07         0.00000E+00
    0.25025E+07        -0.96159E+07         0.00000E+00
    0.00000E+00         0.00000E+00        -0.23629E+07
 
   -0.23176E+07         0.36457E+07         0.00000E+00
    0.36457E+07        -0.95715E+07         0.00000E+00
    0.00000E+00         0.00000E+00        -0.23778E+07
 
   -0.23983E+07         0.49048E+07         0.00000E+00
    0.49048E+07        -0.95420E+07         0.00000E+00
    0.00000E+00         0.00000E+00        -0.23881E+07
 
   -0.24320E+07         0.62485E+07         0.00000E+00
    0.62485E+07        -0.95316E+07         0.00000E+00
    0.00000E+00         0.00000E+00        -0.23927E+07
 
   -0.24123E+07         0.76372E+07         0.00000E+00
    0.76372E+07        -0.95430E+07         0.00000E+00
    0.00000E+00         0.00000E+00        -0.23911E+07
 
   -0.35384E+07        -0.16951E+06         0.00000E+00
   -0.16951E+06        -0.12070E+08         0.00000E+00
    0.00000E+00         0.00000E+00        -0.31218E+07
 
   -0.34304E+07        -0.49659E+06         0.00000E+00
   -0.49659E+06        -0.12086E+08         0.00000E+00
    0.00000E+00         0.00000E+00        -0.31033E+07
 
   -0.33347E+07        -0.75834E+06         0.00000E+00
   -0.75834E+06        -0.12108E+08         0.00000E+00
    0.00000E+00         0.00000E+00        -0.30886E+07
 
   -0.32580E+07        -0.90951E+06         0.00000E+00
   -0.90951E+06        -0.12131E+08         0.00000E+00
    0.00000E+00         0.00000E+00        -0.30778E+07
 
   -0.32027E+07        -0.91905E+06         0.00000E+00
   -0.91905E+06        -0.12150E+08         0.00000E+00
    0.00000E+00         0.00000E+00        -0.30706E+07
 
   -0.31682E+07        -0.76723E+06         0.00000E+00
   -0.76723E+06        -0.12165E+08         0.00000E+00
    0.00000E+00         0.00000E+00        -0.30666E+07
 
   -0.31517E+07        -0.44332E+06         0.00000E+00
   -0.44332E+06        -0.12174E+08         0.00000E+00
    0.00000E+00         0.00000E+00        -0.30652E+07
 
   -0.31492E+07         0.56310E+05         0.00000E+00
    0.56310E+05        -0.12180E+08         0.00000E+00
    0.00000E+00         0.00000E+00        -0.30658E+07
 
   -0.31553E+07         0.72936E+06         0.00000E+00
    0.72936E+06        -0.12182E+08         0.00000E+00
    0.00000E+00         0.00000E+00        -0.30675E+07
 
   -0.31644E+07         0.15684E+07         0.00000E+00
    0.15684E+07        -0.12184E+08         0.00000E+00
    0.00000E+00         0.00000E+00        -0.30697E+07
 
   -0.31707E+07         0.25608E+07         0.00000E+00
    0.25608E+07        -0.12188E+08         0.00000E+00
    0.00000E+00         0.00000E+00        -0.30717E+07
 
   -0.31691E+07         0.36891E+07         0.00000E+00
    0.36891E+07        -0.12196E+08         0.00000E+00
    0.00000E+00         0.00000E+00        -0.30729E+07
 
   -0.31554E+07         0.49296E+07         0.00000E+00
    0.49296E+07        -0.12209E+08         0.00000E+00
    0.00000E+00         0.00000E+00        -0.30728E+07
 
   -0.31278E+07         0.62522E+07         0.00000E+00
    0.62522E+07        -0.12227E+08         0.00000E+00
    0.00000E+00         0.00000E+00        -0.30711E+07
 
   -0.30879E+07         0.76197E+07         0.00000E+00
    0.76197E+07        -0.12250E+08         0.00000E+00
    0.00000E+00         0.00000E+00        -0.30676E+07
 
   -0.58586E+07        -0.17709E+06         0.00000E+00
   -0.17709E+06        -0.14054E+08         0.00000E+00
    0.00000E+00         0.00000E+00        -0.39825E+07
 
   -0.57116E+07        -0.51014E+06         0.00000E+00
   -0.51014E+06        -0.14096E+08         0.00000E+00
    0.00000E+00         0.00000E+00        -0.39616E+07
 
   -0.55274E+07        -0.76990E+06         0.00000E+00
   -0.76990E+06        -0.14164E+08         0.00000E+00
    0.00000E+00         0.00000E+00        -0.39383E+07
 
   -0.53272E+07        -0.91495E+06         0.00000E+00
   -0.91495E+06        -0.14244E+08         0.00000E+00
    0.00000E+00         0.00000E+00        -0.39142E+07
 
   -0.51252E+07        -0.91683E+06         0.00000E+00
   -0.91683E+06        -0.14327E+08         0.00000E+00
    0.00000E+00         0.00000E+00        -0.38903E+07
 
   -0.49301E+07        -0.75771E+06         0.00000E+00
   -0.75771E+06        -0.14408E+08         0.00000E+00
    0.00000E+00         0.00000E+00        -0.38675E+07
 
   -0.47469E+07        -0.42813E+06         0.00000E+00
   -0.42813E+06        -0.14484E+08         0.00000E+00
    0.00000E+00         0.00000E+00        -0.38462E+07
 
   -0.45772E+07         0.74598E+05         0.00000E+00
    0.74598E+05        -0.14555E+08         0.00000E+00
    0.00000E+00         0.00000E+00        -0.38265E+07
 
   -0.44211E+07         0.74771E+06         0.00000E+00
    0.74771E+06        -0.14622E+08         0.00000E+00
    0.00000E+00         0.00000E+00        -0.38086E+07
 
   -0.42776E+07         0.15836E+07         0.00000E+00
    0.15836E+07        -0.14685E+08         0.00000E+00
    0.00000E+00         0.00000E+00        -0.37925E+07
 
   -0.41456E+07         0.25701E+07         0.00000E+00
    0.25701E+07        -0.14745E+08         0.00000E+00
    0.00000E+00         0.00000E+00        -0.37781E+07
 
   -0.40250E+07         0.36904E+07         0.00000E+00
    0.36904E+07        -0.14803E+08         0.00000E+00
    0.00000E+00         0.00000E+00        -0.37656E+07
 
   -0.39173E+07         0.49222E+07         0.00000E+00
    0.49222E+07        -0.14857E+08         0.00000E+00
    0.00000E+00         0.00000E+00        -0.37549E+07
 
   -0.38271E+07         0.62375E+07         0.00000E+00
    0.62375E+07        -0.14905E+08         0.00000E+00
    0.00000E+00         0.00000E+00        -0.37464E+07
 
   -0.37626E+07         0.76020E+07         0.00000E+00
    0.76020E+07        -0.14939E+08         0.00000E+00
    0.00000E+00         0.00000E+00        -0.37404E+07
 
   -0.82330E+07        -0.19778E+06         0.00000E+00
   -0.19778E+06        -0.16067E+08         0.00000E+00
    0.00000E+00         0.00000E+00        -0.48600E+07
 
   -0.80317E+07        -0.55684E+06         0.00000E+00
   -0.55684E+06        -0.16133E+08         0.00000E+00
    0.00000E+00         0.00000E+00        -0.48330E+07
 
   -0.77488E+07        -0.82764E+06         0.00000E+00
   -0.82764E+06        -0.16242E+08         0.00000E+00
    0.00000E+00         0.00000E+00        -0.47982E+07
 
   -0.74185E+07        -0.97418E+06         0.00000E+00
   -0.97418E+06        -0.16374E+08         0.00000E+00
    0.00000E+00         0.00000E+00        -0.47585E+07
 
   -0.70659E+07        -0.97221E+06         0.00000E+00
   -0.97221E+06        -0.16515E+08         0.00000E+00
    0.00000E+00         0.00000E+00        -0.47162E+07
 
   -0.67086E+07        -0.80700E+06         0.00000E+00
   -0.80700E+06        -0.16657E+08         0.00000E+00
    0.00000E+00         0.00000E+00        -0.46730E+07
 
   -0.63582E+07        -0.47143E+06         0.00000E+00
   -0.47143E+06        -0.16794E+08         0.00000E+00
    0.00000E+00         0.00000E+00        -0.46305E+07
 
   -0.60221E+07         0.35738E+05         0.00000E+00
    0.35738E+05        -0.16926E+08         0.00000E+00
    0.00000E+00         0.00000E+00        -0.45897E+07
 
   -0.57049E+07         0.71100E+06         0.00000E+00
    0.71100E+06        -0.17052E+08         0.00000E+00
    0.00000E+00         0.00000E+00        -0.45513E+07
 
   -0.54096E+07         0.15468E+07         0.00000E+00
    0.15468E+07        -0.17171E+08         0.00000E+00
    0.00000E+00         0.00000E+00        -0.45161E+07
 
   -0.51395E+07         0.25317E+07         0.00000E+00
    0.25317E+07        -0.17284E+08         0.00000E+00
    0.00000E+00         0.00000E+00        -0.44847E+07
 
   -0.48989E+07         0.36503E+07         0.00000E+00
    0.36503E+07        -0.17390E+08         0.00000E+00
    0.00000E+00         0.00000E+00        -0.44577E+07
 
   -0.46944E+07         0.48824E+07         0.00000E+00
    0.48824E+07        -0.17484E+08         0.00000E+00
    0.00000E+00         0.00000E+00        -0.44357E+07
 
   -0.45361E+07         0.62028E+07         0.00000E+00
    0.62028E+07        -0.17561E+08         0.00000E+00
    0.00000E+00         0.00000E+00        -0.44194E+07
 
   -0.44384E+07         0.75806E+07         0.00000E+00
    0.75806E+07        -0.17610E+08         0.00000E+00
    0.00000E+00         0.00000E+00        -0.44097E+07
 
   -0.10703E+08        -0.23033E+06         0.00000E+00
   -0.23033E+06        -0.18128E+08         0.00000E+00
    0.00000E+00         0.00000E+00        -0.57662E+07
 
   -0.10425E+08        -0.63366E+06         0.00000E+00
   -0.63366E+06        -0.18215E+08         0.00000E+00
    0.00000E+00         0.00000E+00        -0.57280E+07
 
   -0.10027E+08        -0.92737E+06         0.00000E+00
   -0.92737E+06        -0.18360E+08         0.00000E+00
    0.00000E+00         0.00000E+00        -0.56774E+07
 
   -0.95557E+07        -0.10823E+07         0.00000E+00
   -0.10823E+07        -0.18536E+08         0.00000E+00
    0.00000E+00         0.00000E+00        -0.56184E+07
 
   -0.90456E+07        -0.10798E+07         0.00000E+00
   -0.10798E+07        -0.18727E+08         0.00000E+00
    0.00000E+00         0.00000E+00        -0.55545E+07
 
   -0.85223E+07        -0.90961E+06         0.00000E+00
   -0.90961E+06        -0.18921E+08         0.00000E+00
    0.00000E+00         0.00000E+00        -0.54886E+07
 
   -0.80033E+07        -0.56777E+06         0.00000E+00
   -0.56777E+06        -0.19111E+08         0.00000E+00
    0.00000E+00         0.00000E+00        -0.54229E+07
 
   -0.75007E+07        -0.55189E+05         0.00000E+00
   -0.55189E+05        -0.19295E+08         0.00000E+00
    0.00000E+00         0.00000E+00        -0.53591E+07
 
   -0.70227E+07         0.62370E+06         0.00000E+00
    0.62370E+06        -0.19471E+08         0.00000E+00
    0.00000E+00         0.00000E+00        -0.52988E+07
 
   -0.65756E+07         0.14615E+07         0.00000E+00
    0.14615E+07        -0.19640E+08         0.00000E+00
    0.00000E+00         0.00000E+00        -0.52432E+07
 
   -0.61661E+07         0.24480E+07         0.00000E+00
    0.24480E+07        -0.19801E+08         0.00000E+00
    0.00000E+00         0.00000E+00        -0.51934E+07
 
   -0.58022E+07         0.35698E+07         0.00000E+00
    0.35698E+07        -0.19951E+08         0.00000E+00
    0.00000E+00         0.00000E+00        -0.51506E+07
 
   -0.54952E+07         0.48096E+07         0.00000E+00
    0.48096E+07        -0.20084E+08         0.00000E+00
    0.00000E+00         0.00000E+00        -0.51158E+07
 
   -0.52601E+07         0.61455E+07         0.00000E+00
    0.61455E+07        -0.20191E+08         0.00000E+00
    0.00000E+00         0.00000E+00        -0.50903E+07
 
   -0.51166E+07         0.75503E+07         0.00000E+00
    0.75503E+07        -0.20260E+08         0.00000E+00
    0.00000E+00         0.00000E+00        -0.50753E+07
 
   -0.13303E+08        -0.27326E+06         0.00000E+00
   -0.27326E+06        -0.20251E+08         0.00000E+00
    0.00000E+00         0.00000E+00        -0.67109E+07
 
   -0.12919E+08        -0.73666E+06         0.00000E+00
   -0.73666E+06        -0.20356E+08         0.00000E+00
    0.00000E+00         0.00000E+00        -0.66550E+07
 
   -0.12385E+08        -0.10633E+07         0.00000E+00
   -0.10633E+07        -0.20529E+08         0.00000E+00
    0.00000E+00         0.00000E+00        -0.65829E+07
 
   -0.11758E+08        -0.12321E+07         0.00000E+00
   -0.12321E+07        -0.20742E+08         0.00000E+00
    0.00000E+00         0.00000E+00        -0.64999E+07
 
   -0.11081E+08        -0.12315E+07         0.00000E+00
   -0.12315E+07        -0.20972E+08         0.00000E+00
    0.00000E+00         0.00000E+00        -0.64105E+07
 
   -0.10386E+08        -0.10569E+07         0.00000E+00
   -0.10569E+07        -0.21206E+08         0.00000E+00
    0.00000E+00         0.00000E+00        -0.63184E+07
 
   -0.96965E+07        -0.70860E+06         0.00000E+00
   -0.70860E+06        -0.21436E+08         0.00000E+00
    0.00000E+00         0.00000E+00        -0.62265E+07
 
   -0.90270E+07        -0.19020E+06         0.00000E+00
   -0.19020E+06        -0.21660E+08         0.00000E+00
    0.00000E+00         0.00000E+00        -0.61375E+07
 
   -0.83883E+07         0.49272E+06         0.00000E+00
    0.49272E+06        -0.21877E+08         0.00000E+00
    0.00000E+00         0.00000E+00        -0.60531E+07
 
   -0.77888E+07         0.13331E+07         0.00000E+00
    0.13331E+07        -0.22087E+08         0.00000E+00
    0.00000E+00         0.00000E+00        -0.59752E+07
 
   -0.72374E+07         0.23224E+07         0.00000E+00
    0.23224E+07        -0.22289E+08         0.00000E+00
    0.00000E+00         0.00000E+00        -0.59053E+07
 
   -0.67451E+07         0.34501E+07         0.00000E+00
    0.34501E+07        -0.22479E+08         0.00000E+00
    0.00000E+00         0.00000E+00        -0.58448E+07
 
   -0.63270E+07         0.47024E+07         0.00000E+00
    0.47024E+07        -0.22650E+08         0.00000E+00
    0.00000E+00         0.00000E+00        -0.57954E+07
 
   -0.60030E+07         0.60615E+07         0.00000E+00
    0.60615E+07        -0.22790E+08         0.00000E+00
    0.00000E+00         0.00000E+00        -0.57587E+07
 
   -0.57981E+07         0.75047E+07         0.00000E+00
    0.75047E+07        -0.22884E+08         0.00000E+00
    0.00000E+00         0.00000E+00        -0.57363E+07
 
   -0.16062E+08        -0.32487E+06         0.00000E+00
   -0.32487E+06        -0.22447E+08         0.00000E+00
    0.00000E+00         0.00000E+00        -0.77018E+07
 
   -0.15537E+08        -0.86110E+06         0.00000E+00
   -0.86110E+06        -0.22565E+08         0.00000E+00
    0.00000E+00         0.00000E+00        -0.76204E+07
 
   -0.14840E+08        -0.12280E+07         0.00000E+00
   -0.12280E+07        -0.22760E+08         0.00000E+00
    0.00000E+00         0.00000E+00        -0.75200E+07
 
   -0.14038E+08        -0.14142E+07         0.00000E+00
   -0.14142E+07        -0.22997E+08         0.00000E+00
    0.00000E+00         0.00000E+00        -0.74071E+07
 
   -0.13183E+08        -0.14164E+07         0.00000E+00
   -0.14164E+07        -0.23253E+08         0.00000E+00
    0.00000E+00         0.00000E+00        -0.72873E+07
 
   -0.12311E+08        -0.12372E+07         0.00000E+00
   -0.12372E+07        -0.23513E+08         0.00000E+00
    0.00000E+00         0.00000E+00        -0.71649E+07
 
   -0.11449E+08        -0.88224E+06         0.00000E+00
   -0.88224E+06        -0.23769E+08         0.00000E+00
    0.00000E+00         0.00000E+00        -0.70436E+07
 
   -0.10612E+08        -0.35844E+06         0.00000E+00
   -0.35844E+06        -0.24019E+08         0.00000E+00
    0.00000E+00         0.00000E+00        -0.69263E+07
 
   -0.98135E+07         0.32736E+06         0.00000E+00
    0.32736E+06        -0.24264E+08         0.00000E+00
    0.00000E+00         0.00000E+00        -0.68154E+07
 
   -0.90608E+07         0.11687E+07         0.00000E+00
    0.11687E+07        -0.24504E+08         0.00000E+00
    0.00000E+00         0.00000E+00        -0.67129E+07
 
   -0.83643E+07         0.21594E+07         0.00000E+00
    0.21594E+07        -0.24739E+08         0.00000E+00
    0.00000E+00         0.00000E+00        -0.66206E+07
 
   -0.77369E+07         0.32925E+07         0.00000E+00
    0.32925E+07        -0.24965E+08         0.00000E+00
    0.00000E+00         0.00000E+00        -0.65403E+07
 
   -0.71968E+07         0.45589E+07         0.00000E+00
    0.45589E+07        -0.25173E+08         0.00000E+00
    0.00000E+00         0.00000E+00        -0.64740E+07
 
   -0.67686E+07         0.59460E+07         0.00000E+00
    0.59460E+07        -0.25349E+08         0.00000E+00
    0.00000E+00         0.00000E+00        -0.64236E+07
 
   -0.64830E+07         0.74358E+07         0.00000E+00
    0.74358E+07        -0.25474E+08         0.00000E+00
    0.00000E+00         0.00000E+00        -0.63914E+07
 
   -0.19001E+08        -0.38332E+06         0.00000E+00
   -0.38332E+06        -0.24723E+08         0.00000E+00
    0.00000E+00         0.00000E+00        -0.87447E+07
 
   -0.18294E+08        -0.10016E+07         0.00000E+00
   -0.10016E+07        -0.24849E+08         0.00000E+00
    0.00000E+00         0.00000E+00        -0.86286E+07
 
   -0.17403E+08        -0.14128E+07         0.00000E+00
   -0.14128E+07        -0.25057E+08         0.00000E+00
    0.00000E+00         0.00000E+00        -0.84920E+07
 
   -0.16406E+08        -0.16168E+07         0.00000E+00
   -0.16168E+07        -0.25307E+08         0.00000E+00
    0.00000E+00         0.00000E+00        -0.83425E+07
 
   -0.15359E+08        -0.16206E+07         0.00000E+00
   -0.16206E+07        -0.25574E+08         0.00000E+00
    0.00000E+00         0.00000E+00        -0.81866E+07
 
   -0.14305E+08        -0.14356E+07         0.00000E+00
   -0.14356E+07        -0.25842E+08         0.00000E+00
    0.00000E+00         0.00000E+00        -0.80292E+07
 
   -0.13268E+08        -0.10739E+07         0.00000E+00
   -0.10739E+07        -0.26105E+08         0.00000E+00
    0.00000E+00         0.00000E+00        -0.78747E+07
 
   -0.12267E+08        -0.54619E+06         0.00000E+00
   -0.54619E+06        -0.26363E+08         0.00000E+00
    0.00000E+00         0.00000E+00        -0.77260E+07
 
   -0.11309E+08         0.13931E+06         0.00000E+00
    0.13931E+06        -0.26620E+08         0.00000E+00
    0.00000E+00         0.00000E+00        -0.75857E+07
 
   -0.10403E+08         0.97720E+06         0.00000E+00
    0.97720E+06        -0.26877E+08         0.00000E+00
    0.00000E+00         0.00000E+00        -0.74561E+07
 
   -0.95580E+07         0.19643E+07         0.00000E+00
    0.19643E+07        -0.27136E+08         0.00000E+00
    0.00000E+00         0.00000E+00        -0.73389E+07
 
   -0.87875E+07         0.30985E+07         0.00000E+00
    0.30985E+07        -0.27394E+08         0.00000E+00
    0.00000E+00         0.00000E+00        -0.72362E+07
 
   -0.81120E+07         0.43767E+07         0.00000E+00
    0.43767E+07        -0.27639E+08         0.00000E+00
    0.00000E+00         0.00000E+00        -0.71502E+07
 
   -0.75608E+07         0.57924E+07         0.00000E+00
    0.57924E+07        -0.27856E+08         0.00000E+00
    0.00000E+00         0.00000E+00        -0.70833E+07
 
   -0.71710E+07         0.73337E+07         0.00000E+00
    0.73337E+07        -0.28021E+08         0.00000E+00
    0.00000E+00         0.00000E+00        -0.70383E+07
 
   -0.22133E+08        -0.44665E+06         0.00000E+00
   -0.44665E+06        -0.27082E+08         0.00000E+00
    0.00000E+00         0.00000E+00        -0.98429E+07
 
   -0.21197E+08        -0.11518E+07         0.00000E+00
   -0.11518E+07        -0.27212E+08         0.00000E+00
    0.00000E+00         0.00000E+00        -0.96819E+07
 
   -0.20078E+08        -0.16071E+07         0.00000E+00
   -0.16071E+07        -0.27423E+08         0.00000E+00
    0.00000E+00         0.00000E+00        -0.95001E+07
 
   -0.18862E+08        -0.18256E+07         0.00000E+00
   -0.18256E+07        -0.27671E+08         0.00000E+00
    0.00000E+00         0.00000E+00        -0.93064E+07
 
   -0.17611E+08        -0.18273E+07         0.00000E+00
   -0.18273E+07        -0.27929E+08         0.00000E+00
    0.00000E+00         0.00000E+00        -0.91081E+07
 
   -0.16370E+08        -0.16340E+07         0.00000E+00
   -0.16340E+07        -0.28185E+08         0.00000E+00
    0.00000E+00         0.00000E+00        -0.89109E+07
 
   -0.15161E+08        -0.12655E+07         0.00000E+00
   -0.12655E+07        -0.28434E+08         0.00000E+00
    0.00000E+00         0.00000E+00        -0.87190E+07
 
   -0.13997E+08        -0.73686E+06         0.00000E+00
   -0.73686E+06        -0.28681E+08         0.00000E+00
    0.00000E+00         0.00000E+00        -0.85356E+07
 
   -0.12885E+08        -0.57400E+05         0.00000E+00
   -0.57400E+05        -0.28931E+08         0.00000E+00
    0.00000E+00         0.00000E+00        -0.83632E+07
 
   -0.11827E+08         0.76907E+06         0.00000E+00
    0.76907E+06        -0.29191E+08         0.00000E+00
    0.00000E+00         0.00000E+00        -0.82037E+07
 
   -0.10831E+08         0.17434E+07         0.00000E+00
    0.17434E+07        -0.29464E+08         0.00000E+00
    0.00000E+00         0.00000E+00        -0.80590E+07
 
   -0.99080E+07         0.28696E+07         0.00000E+00
    0.28696E+07        -0.29748E+08         0.00000E+00
    0.00000E+00         0.00000E+00        -0.79312E+07
 
   -0.90813E+07         0.41521E+07         0.00000E+00
    0.41521E+07        -0.30031E+08         0.00000E+00
    0.00000E+00         0.00000E+00        -0.78225E+07
 
   -0.83843E+07         0.55926E+07         0.00000E+00
    0.55926E+07        -0.30295E+08         0.00000E+00
    0.00000E+00         0.00000E+00        -0.77358E+07
 
   -0.78618E+07         0.71867E+07         0.00000E+00
    0.71867E+07        -0.30510E+08         0.00000E+00
    0.00000E+00         0.00000E+00        -0.76744E+07
 
   -0.25465E+08        -0.51277E+06         0.00000E+00
   -0.51277E+06        -0.29525E+08         0.00000E+00
    0.00000E+00         0.00000E+00        -0.10998E+08
 
   -0.24248E+08        -0.13048E+07         0.00000E+00
   -0.13048E+07        -0.29654E+08         0.00000E+00
    0.00000E+00         0.00000E+00        -0.10780E+08
 
   -0.22861E+08        -0.17983E+07         0.00000E+00
   -0.17983E+07        -0.29856E+08         0.00000E+00
    0.00000E+00         0.00000E+00        -0.10543E+08
 
   -0.21401E+08        -0.20233E+07         0.00000E+00
   -0.20233E+07        -0.30084E+08         0.00000E+00
    0.00000E+00         0.00000E+00        -0.10297E+08
 
   -0.19937E+08        -0.20157E+07         0.00000E+00
   -0.20157E+07        -0.30312E+08         0.00000E+00
    0.00000E+00         0.00000E+00        -0.10050E+08
 
   -0.18506E+08        -0.18105E+07         0.00000E+00
   -0.18105E+07        -0.30531E+08         0.00000E+00
    0.00000E+00         0.00000E+00        -0.98075E+07
 
   -0.17130E+08        -0.14358E+07         0.00000E+00
   -0.14358E+07        -0.30742E+08         0.00000E+00
    0.00000E+00         0.00000E+00        -0.95743E+07
 
   -0.15812E+08        -0.91117E+06         0.00000E+00
   -0.91117E+06        -0.30954E+08         0.00000E+00
    0.00000E+00         0.00000E+00        -0.93532E+07
 
   -0.14552E+08        -0.24659E+06         0.00000E+00
   -0.24659E+06        -0.31178E+08         0.00000E+00
    0.00000E+00         0.00000E+00        -0.91461E+07
 
   -0.13347E+08         0.55642E+06         0.00000E+00
    0.55642E+06        -0.31425E+08         0.00000E+00
    0.00000E+00         0.00000E+00        -0.89543E+07
 
   -0.12197E+08         0.15038E+07         0.00000E+00
    0.15038E+07        -0.31701E+08         0.00000E+00
    0.00000E+00         0.00000E+00        -0.87795E+07
 
   -0.11113E+08         0.26070E+07         0.00000E+00
    0.26070E+07        -0.32005E+08         0.00000E+00
    0.00000E+00         0.00000E+00        -0.86235E+07
 
   -0.10116E+08         0.38802E+07         0.00000E+00
    0.38802E+07        -0.32327E+08         0.00000E+00
    0.00000E+00         0.00000E+00        -0.84887E+07
 
   -0.92455E+07         0.53362E+07         0.00000E+00
    0.53362E+07        -0.32646E+08         0.00000E+00
    0.00000E+00         0.00000E+00        -0.83783E+07
 
   -0.85553E+07         0.69802E+07         0.00000E+00
    0.69802E+07        -0.32926E+08         0.00000E+00
    0.00000E+00         0.00000E+00        -0.82963E+07
 
   -0.28997E+08        -0.57951E+06         0.00000E+00
   -0.57951E+06        -0.32051E+08         0.00000E+00
    0.00000E+00         0.00000E+00        -0.12210E+08
 
   -0.27437E+08        -0.14519E+07         0.00000E+00
   -0.14519E+07        -0.32173E+08         0.00000E+00
    0.00000E+00         0.00000E+00        -0.11922E+08
 
   -0.25740E+08        -0.19707E+07         0.00000E+00
   -0.19707E+07        -0.32351E+08         0.00000E+00
    0.00000E+00         0.00000E+00        -0.11618E+08
 
   -0.24013E+08        -0.21881E+07         0.00000E+00
   -0.21881E+07        -0.32538E+08         0.00000E+00
    0.00000E+00         0.00000E+00        -0.11310E+08
 
   -0.22327E+08        -0.21610E+07         0.00000E+00
   -0.21610E+07        -0.32709E+08         0.00000E+00
    0.00000E+00         0.00000E+00        -0.11007E+08
 
   -0.20712E+08        -0.19395E+07         0.00000E+00
   -0.19395E+07        -0.32862E+08         0.00000E+00
    0.00000E+00         0.00000E+00        -0.10715E+08
 
   -0.19179E+08        -0.15607E+07         0.00000E+00
   -0.15607E+07        -0.33006E+08         0.00000E+00
    0.00000E+00         0.00000E+00        -0.10437E+08
 
   -0.17719E+08        -0.10477E+07         0.00000E+00
   -0.10477E+07        -0.33159E+08         0.00000E+00
    0.00000E+00         0.00000E+00        -0.10176E+08
 
   -0.16323E+08        -0.41040E+06         0.00000E+00
   -0.41040E+06        -0.33336E+08         0.00000E+00
    0.00000E+00         0.00000E+00        -0.99317E+07
 
   -0.14977E+08         0.35263E+06         0.00000E+00
    0.35263E+06        -0.33552E+08         0.00000E+00
    0.00000E+00         0.00000E+00        -0.97058E+07
 
   -0.13674E+08         0.12532E+07         0.00000E+00
    0.12532E+07        -0.33819E+08         0.00000E+00
    0.00000E+00         0.00000E+00        -0.94986E+07
 
   -0.12419E+08         0.23118E+07         0.00000E+00
    0.23118E+07        -0.34138E+08         0.00000E+00
    0.00000E+00         0.00000E+00        -0.93114E+07
 
   -0.11232E+08         0.35549E+07         0.00000E+00
    0.35549E+07        -0.34502E+08         0.00000E+00
    0.00000E+00         0.00000E+00        -0.91467E+07
 
   -0.10154E+08         0.50097E+07         0.00000E+00
    0.50097E+07        -0.34886E+08         0.00000E+00
    0.00000E+00         0.00000E+00        -0.90080E+07
 
   -0.92522E+07         0.66957E+07         0.00000E+00
    0.66957E+07        -0.35249E+08         0.00000E+00
    0.00000E+00         0.00000E+00        -0.89003E+07
 
   -0.32720E+08        -0.64448E+06         0.00000E+00
   -0.64448E+06        -0.34655E+08         0.00000E+00
    0.00000E+00         0.00000E+00        -0.13475E+08
 
   -0.30746E+08        -0.15825E+07         0.00000E+00
   -0.15825E+07        -0.34761E+08         0.00000E+00
    0.00000E+00         0.00000E+00        -0.13101E+08
 
   -0.28691E+08        -0.21037E+07         0.00000E+00
   -0.21037E+07        -0.34898E+08         0.00000E+00
    0.00000E+00         0.00000E+00        -0.12718E+08
 
   -0.26679E+08        -0.22924E+07         0.00000E+00
   -0.22924E+07        -0.35013E+08         0.00000E+00
    0.00000E+00         0.00000E+00        -0.12338E+08
 
   -0.24770E+08        -0.22329E+07         0.00000E+00
   -0.22329E+07        -0.35094E+08         0.00000E+00
    0.00000E+00         0.00000E+00        -0.11973E+08
 
   -0.22984E+08        -0.19918E+07         0.00000E+00
   -0.19918E+07        -0.35149E+08         0.00000E+00
    0.00000E+00         0.00000E+00        -0.11626E+08
 
   -0.21310E+08        -0.16140E+07         0.00000E+00
   -0.16140E+07        -0.35198E+08         0.00000E+00
    0.00000E+00         0.00000E+00        -0.11302E+08
 
   -0.19727E+08        -0.11240E+07         0.00000E+00
   -0.11240E+07        -0.35266E+08         0.00000E+00
    0.00000E+00         0.00000E+00        -0.10999E+08
 
   -0.18210E+08        -0.53039E+06         0.00000E+00
   -0.53039E+06        -0.35375E+08         0.00000E+00
    0.00000E+00         0.00000E+00        -0.10717E+08
 
   -0.16735E+08         0.17192E+06         0.00000E+00
    0.17192E+06        -0.35544E+08         0.00000E+00
    0.00000E+00         0.00000E+00        -0.10456E+08
 
   -0.15284E+08         0.10005E+07         0.00000E+00
    0.10005E+07        -0.35789E+08         0.00000E+00
    0.00000E+00         0.00000E+00        -0.10214E+08
 
   -0.13851E+08         0.19856E+07         0.00000E+00
    0.19856E+07        -0.36117E+08         0.00000E+00
    0.00000E+00         0.00000E+00        -0.99935E+07
 
   -0.12449E+08         0.31684E+07         0.00000E+00
    0.31684E+07        -0.36525E+08         0.00000E+00
    0.00000E+00         0.00000E+00        -0.97948E+07
 
   -0.11125E+08         0.45962E+07         0.00000E+00
    0.45962E+07        -0.36988E+08         0.00000E+00
    0.00000E+00         0.00000E+00        -0.96224E+07
 
   -0.99549E+07         0.63093E+07         0.00000E+00
    0.63093E+07        -0.37457E+08         0.00000E+00
    0.00000E+00         0.00000E+00        -0.94823E+07
 
   -0.36615E+08        -0.70478E+06         0.00000E+00
   -0.70478E+06        -0.37330E+08         0.00000E+00
    0.00000E+00         0.00000E+00        -0.14789E+08
 
   -0.34140E+08        -0.16809E+07         0.00000E+00
   -0.16809E+07        -0.37410E+08         0.00000E+00
    0.00000E+00         0.00000E+00        -0.14310E+08
 
   -0.31682E+08        -0.21678E+07         0.00000E+00
   -0.21678E+07        -0.37475E+08         0.00000E+00
    0.00000E+00         0.00000E+00        -0.13831E+08
 
   -0.29372E+08        -0.22999E+07         0.00000E+00
   -0.22999E+07        -0.37480E+08         0.00000E+00
    0.00000E+00         0.00000E+00        -0.13370E+08
 
   -0.27255E+08        -0.21955E+07         0.00000E+00
   -0.21955E+07        -0.37430E+08         0.00000E+00
    0.00000E+00         0.00000E+00        -0.12937E+08
 
   -0.25319E+08        -0.19367E+07         0.00000E+00
   -0.19367E+07        -0.37351E+08         0.00000E+00
    0.00000E+00         0.00000E+00        -0.12534E+08
 
   -0.23530E+08        -0.15705E+07         0.00000E+00
   -0.15705E+07        -0.37278E+08         0.00000E+00
    0.00000E+00         0.00000E+00        -0.12162E+08
 
   -0.21847E+08        -0.11196E+07         0.00000E+00
   -0.11196E+07        -0.37240E+08         0.00000E+00
    0.00000E+00         0.00000E+00        -0.11817E+08
 
   -0.20230E+08        -0.58941E+06         0.00000E+00
   -0.58941E+06        -0.37263E+08         0.00000E+00
    0.00000E+00         0.00000E+00        -0.11499E+08
 
   -0.18642E+08         0.28420E+05         0.00000E+00
    0.28420E+05        -0.37370E+08         0.00000E+00
    0.00000E+00         0.00000E+00        -0.11202E+08
 
   -0.17051E+08         0.75582E+06         0.00000E+00
    0.75582E+06        -0.37580E+08         0.00000E+00
    0.00000E+00         0.00000E+00        -0.10926E+08
 
   -0.15437E+08         0.16312E+07         0.00000E+00
    0.16312E+07        -0.37908E+08         0.00000E+00
    0.00000E+00         0.00000E+00        -0.10669E+08
 
   -0.13800E+08         0.27125E+07         0.00000E+00
    0.27125E+07        -0.38361E+08         0.00000E+00
    0.00000E+00         0.00000E+00        -0.10432E+08
 
   -0.12179E+08         0.40739E+07         0.00000E+00
    0.40739E+07        -0.38918E+08         0.00000E+00
    0.00000E+00         0.00000E+00        -0.10219E+08
 
   -0.10669E+08         0.57891E+07         0.00000E+00
    0.57891E+07        -0.39523E+08         0.00000E+00
    0.00000E+00         0.00000E+00        -0.10039E+08
 
   -0.40653E+08        -0.75611E+06         0.00000E+00
   -0.75611E+06        -0.40068E+08         0.00000E+00
    0.00000E+00         0.00000E+00        -0.16144E+08
 
   -0.37567E+08        -0.17204E+07         0.00000E+00
   -0.17204E+07        -0.40100E+08         0.00000E+00
    0.00000E+00         0.00000E+00        -0.15533E+08
 
   -0.34663E+08        -0.21178E+07         0.00000E+00
   -0.21178E+07        -0.40046E+08         0.00000E+00
    0.00000E+00         0.00000E+00        -0.14942E+08
 
   -0.32067E+08        -0.21624E+07         0.00000E+00
   -0.21624E+07        -0.39884E+08         0.00000E+00
    0.00000E+00         0.00000E+00        -0.14390E+08
 
   -0.29773E+08        -0.20098E+07         0.00000E+00
   -0.20098E+07        -0.39655E+08         0.00000E+00
    0.00000E+00         0.00000E+00        -0.13886E+08
 
   -0.27722E+08        -0.17457E+07         0.00000E+00
   -0.17457E+07        -0.39412E+08         0.00000E+00
    0.00000E+00         0.00000E+00        -0.13427E+08
 
   -0.25849E+08        -0.14102E+07         0.00000E+00
   -0.14102E+07        -0.39196E+08         0.00000E+00
    0.00000E+00         0.00000E+00        -0.13009E+08
 
   -0.24091E+08        -0.10195E+07         0.00000E+00
   -0.10195E+07        -0.39040E+08         0.00000E+00
    0.00000E+00         0.00000E+00        -0.12626E+08
 
   -0.22397E+08        -0.57478E+06         0.00000E+00
   -0.57478E+06        -0.38967E+08         0.00000E+00
    0.00000E+00         0.00000E+00        -0.12273E+08
 
   -0.20716E+08        -0.65686E+05         0.00000E+00
   -0.65686E+05        -0.39001E+08         0.00000E+00
    0.00000E+00         0.00000E+00        -0.11943E+08
 
   -0.19003E+08         0.53074E+06         0.00000E+00
    0.53074E+06        -0.39164E+08         0.00000E+00
    0.00000E+00         0.00000E+00        -0.11633E+08
 
   -0.17216E+08         0.12559E+07         0.00000E+00
    0.12559E+07        -0.39481E+08         0.00000E+00
    0.00000E+00         0.00000E+00        -0.11339E+08
 
   -0.15327E+08         0.21814E+07         0.00000E+00
    0.21814E+07        -0.39973E+08         0.00000E+00
    0.00000E+00         0.00000E+00        -0.11060E+08
 
   -0.13356E+08         0.34167E+07         0.00000E+00
    0.34167E+07        -0.40639E+08         0.00000E+00
    0.00000E+00         0.00000E+00        -0.10799E+08
 
   -0.11407E+08         0.50914E+07         0.00000E+00
    0.50914E+07        -0.41422E+08         0.00000E+00
    0.00000E+00         0.00000E+00        -0.10566E+08
 
   -0.44777E+08        -0.78907E+06         0.00000E+00
   -0.78907E+06        -0.42854E+08         0.00000E+00
    0.00000E+00         0.00000E+00        -0.17526E+08
 
   -0.40941E+08        -0.16474E+07         0.00000E+00
   -0.16474E+07        -0.42789E+08         0.00000E+00
    0.00000E+00         0.00000E+00        -0.16746E+08
 
   -0.37579E+08        -0.18800E+07         0.00000E+00
   -0.18800E+07        -0.42528E+08         0.00000E+00
    0.00000E+00         0.00000E+00        -0.16022E+08
 
   -0.34749E+08        -0.18227E+07         0.00000E+00
   -0.18227E+07        -0.42123E+08         0.00000E+00
    0.00000E+00         0.00000E+00        -0.15374E+08
 
   -0.32333E+08        -0.16424E+07         0.00000E+00
   -0.16424E+07        -0.41678E+08         0.00000E+00
    0.00000E+00         0.00000E+00        -0.14802E+08
 
   -0.30208E+08        -0.14019E+07         0.00000E+00
   -0.14019E+07        -0.41255E+08         0.00000E+00
    0.00000E+00         0.00000E+00        -0.14293E+08
 
   -0.28280E+08        -0.11254E+07         0.00000E+00
   -0.11254E+07        -0.40895E+08         0.00000E+00
    0.00000E+00         0.00000E+00        -0.13835E+08
 
   -0.26473E+08        -0.81963E+06         0.00000E+00
   -0.81963E+06        -0.40621E+08         0.00000E+00
    0.00000E+00         0.00000E+00        -0.13419E+08
 
   -0.24725E+08        -0.48233E+06         0.00000E+00
   -0.48233E+06        -0.40454E+08         0.00000E+00
    0.00000E+00         0.00000E+00        -0.13036E+08
 
   -0.22975E+08        -0.10337E+06         0.00000E+00
   -0.10337E+06        -0.40415E+08         0.00000E+00
    0.00000E+00         0.00000E+00        -0.12678E+08
 
   -0.21164E+08         0.33698E+06         0.00000E+00
    0.33698E+06        -0.40525E+08         0.00000E+00
    0.00000E+00         0.00000E+00        -0.12338E+08
 
   -0.19227E+08         0.87485E+06         0.00000E+00
    0.87485E+06        -0.40815E+08         0.00000E+00
    0.00000E+00         0.00000E+00        -0.12008E+08
 
   -0.17093E+08         0.15795E+07         0.00000E+00
    0.15795E+07        -0.41327E+08         0.00000E+00
    0.00000E+00         0.00000E+00        -0.11684E+08
 
   -0.14720E+08         0.25962E+07         0.00000E+00
    0.25962E+07        -0.42107E+08         0.00000E+00
    0.00000E+00         0.00000E+00        -0.11365E+08
 
   -0.12195E+08         0.41525E+07         0.00000E+00
    0.41525E+07        -0.43119E+08         0.00000E+00
    0.00000E+00         0.00000E+00        -0.11063E+08
 
   -0.48876E+08        -0.77074E+06         0.00000E+00
   -0.77074E+06        -0.45657E+08         0.00000E+00
    0.00000E+00         0.00000E+00        -0.18907E+08
 
   -0.44131E+08        -0.13333E+07         0.00000E+00
   -0.13333E+07        -0.45352E+08         0.00000E+00
    0.00000E+00         0.00000E+00        -0.17897E+08
 
   -0.40401E+08        -0.13518E+07         0.00000E+00
   -0.13518E+07        -0.44732E+08         0.00000E+00
    0.00000E+00         0.00000E+00        -0.17027E+08
 
   -0.37439E+08        -0.12402E+07         0.00000E+00
   -0.12402E+07        -0.44038E+08         0.00000E+00
    0.00000E+00         0.00000E+00        -0.16296E+08
 
   -0.34961E+08        -0.10856E+07         0.00000E+00
   -0.10856E+07        -0.43378E+08         0.00000E+00
    0.00000E+00         0.00000E+00        -0.15668E+08
 
   -0.32799E+08        -0.91225E+06         0.00000E+00
   -0.91225E+06        -0.42795E+08         0.00000E+00
    0.00000E+00         0.00000E+00        -0.15119E+08
 
   -0.30842E+08        -0.72740E+06         0.00000E+00
   -0.72740E+06        -0.42311E+08         0.00000E+00
    0.00000E+00         0.00000E+00        -0.14631E+08
 
   -0.29006E+08        -0.53134E+06         0.00000E+00
   -0.53134E+06        -0.41942E+08         0.00000E+00
    0.00000E+00         0.00000E+00        -0.14190E+08
 
   -0.27222E+08        -0.32041E+06         0.00000E+00
   -0.32041E+06        -0.41699E+08         0.00000E+00
    0.00000E+00         0.00000E+00        -0.13784E+08
 
   -0.25425E+08        -0.87236E+05         0.00000E+00
   -0.87236E+05        -0.41598E+08         0.00000E+00
    0.00000E+00         0.00000E+00        -0.13405E+08
 
   -0.23547E+08         0.18112E+06         0.00000E+00
    0.18112E+06        -0.41658E+08         0.00000E+00
    0.00000E+00         0.00000E+00        -0.13041E+08
 
   -0.21502E+08         0.50818E+06         0.00000E+00
    0.50818E+06        -0.41913E+08         0.00000E+00
    0.00000E+00         0.00000E+00        -0.12683E+08
 
   -0.19177E+08         0.94140E+06         0.00000E+00
    0.94140E+06        -0.42414E+08         0.00000E+00
    0.00000E+00         0.00000E+00        -0.12318E+08
 
   -0.16390E+08         0.15990E+07         0.00000E+00
    0.15990E+07        -0.43256E+08         0.00000E+00
    0.00000E+00         0.00000E+00        -0.11929E+08
 
   -0.13097E+08         0.28667E+07         0.00000E+00
    0.28667E+07        -0.44571E+08         0.00000E+00
    0.00000E+00         0.00000E+00        -0.11533E+08
 
   -0.52663E+08        -0.48560E+06         0.00000E+00
   -0.48560E+06        -0.48207E+08         0.00000E+00
    0.00000E+00         0.00000E+00        -0.20174E+08
 
   -0.47047E+08        -0.55223E+06         0.00000E+00
   -0.55223E+06        -0.47321E+08         0.00000E+00
    0.00000E+00         0.00000E+00        -0.18874E+08
 
   -0.43203E+08        -0.50060E+06         0.00000E+00
   -0.50060E+06        -0.46339E+08         0.00000E+00
    0.00000E+00         0.00000E+00        -0.17908E+08
 
   -0.40198E+08        -0.44253E+06         0.00000E+00
   -0.44253E+06        -0.45430E+08         0.00000E+00
    0.00000E+00         0.00000E+00        -0.17126E+08
 
   -0.37698E+08        -0.38027E+06         0.00000E+00
   -0.38027E+06        -0.44629E+08         0.00000E+00
    0.00000E+00         0.00000E+00        -0.16466E+08
 
   -0.35521E+08        -0.31644E+06         0.00000E+00
   -0.31644E+06        -0.43948E+08         0.00000E+00
    0.00000E+00         0.00000E+00        -0.15894E+08
 
   -0.33550E+08        -0.25111E+06         0.00000E+00
   -0.25111E+06        -0.43393E+08         0.00000E+00
    0.00000E+00         0.00000E+00        -0.15389E+08
 
   -0.31697E+08        -0.18340E+06         0.00000E+00
   -0.18340E+06        -0.42968E+08         0.00000E+00
    0.00000E+00         0.00000E+00        -0.14933E+08
 
   -0.29892E+08        -0.11162E+06         0.00000E+00
   -0.11162E+06        -0.42682E+08         0.00000E+00
    0.00000E+00         0.00000E+00        -0.14515E+08
 
   -0.28069E+08        -0.33039E+05         0.00000E+00
   -0.33039E+05        -0.42544E+08         0.00000E+00
    0.00000E+00         0.00000E+00        -0.14123E+08
 
   -0.26153E+08         0.56781E+05         0.00000E+00
    0.56781E+05        -0.42573E+08         0.00000E+00
    0.00000E+00         0.00000E+00        -0.13745E+08
 
   -0.24050E+08         0.16569E+06         0.00000E+00
    0.16569E+06        -0.42800E+08         0.00000E+00
    0.00000E+00         0.00000E+00        -0.13370E+08
 
   -0.21619E+08         0.31037E+06         0.00000E+00
    0.31037E+06        -0.43279E+08         0.00000E+00
    0.00000E+00         0.00000E+00        -0.12980E+08
 
   -0.18605E+08         0.52826E+06         0.00000E+00
    0.52826E+06        -0.44119E+08         0.00000E+00
    0.00000E+00         0.00000E+00        -0.12545E+08
 
   -0.14281E+08         0.10602E+07         0.00000E+00
    0.10602E+07        -0.45627E+08         0.00000E+00
    0.00000E+00         0.00000E+00        -0.11982E+08
 
TENSORS stresstot double 
   -0.42523E+08         0.69697E+05         0.00000E+00
    0.69697E+05        -0.58914E+08         0.00000E+00
    0.00000E+00         0.00000E+00        -0.60789E+08
 
   -0.43451E+08        -0.24629E+06         0.00000E+00
   -0.24629E+06        -0.59316E+08         0.00000E+00
    0.00000E+00         0.00000E+00        -0.63919E+08
 
   -0.45478E+08        -0.57362E+06         0.00000E+00
   -0.57362E+06        -0.60360E+08         0.00000E+00
    0.00000E+00         0.00000E+00        -0.67842E+08
 
   -0.47866E+08        -0.62428E+06         0.00000E+00
   -0.62428E+06        -0.61758E+08         0.00000E+00
    0.00000E+00         0.00000E+00        -0.71844E+08
 
   -0.50324E+08        -0.81140E+06         0.00000E+00
   -0.81140E+06        -0.63213E+08         0.00000E+00
    0.00000E+00         0.00000E+00        -0.75087E+08
 
   -0.53636E+08        -0.76331E+06         0.00000E+00
   -0.76331E+06        -0.64677E+08         0.00000E+00
    0.00000E+00         0.00000E+00        -0.76429E+08
 
   -0.56178E+08        -0.56950E+06         0.00000E+00
   -0.56950E+06        -0.65918E+08         0.00000E+00
    0.00000E+00         0.00000E+00        -0.77189E+08
 
   -0.58312E+08        -0.41765E+06         0.00000E+00
   -0.41765E+06        -0.66865E+08         0.00000E+00
    0.00000E+00         0.00000E+00        -0.77809E+08
 
   -0.60298E+08        -0.28743E+06         0.00000E+00
   -0.28743E+06        -0.67550E+08         0.00000E+00
    0.00000E+00         0.00000E+00        -0.78346E+08
 
   -0.62273E+08        -0.16404E+06         0.00000E+00
   -0.16404E+06        -0.67989E+08         0.00000E+00
    0.00000E+00         0.00000E+00        -0.78833E+08
 
   -0.64358E+08        -0.35185E+05         0.00000E+00
   -0.35185E+05        -0.68180E+08         0.00000E+00
    0.00000E+00         0.00000E+00        -0.79291E+08
 
   -0.66688E+08         0.11361E+06         0.00000E+00
    0.11361E+06        -0.68097E+08         0.00000E+00
    0.00000E+00         0.00000E+00        -0.79742E+08
 
   -0.69465E+08         0.30848E+06         0.00000E+00
    0.30848E+06        -0.67672E+08         0.00000E+00
    0.00000E+00         0.00000E+00        -0.80215E+08
 
   -0.73053E+08         0.60567E+06         0.00000E+00
    0.60567E+06        -0.66757E+08         0.00000E+00
    0.00000E+00         0.00000E+00        -0.80750E+08
 
   -0.78506E+08         0.13584E+07         0.00000E+00
    0.13584E+07        -0.64911E+08         0.00000E+00
    0.00000E+00         0.00000E+00        -0.81472E+08
 
   -0.42618E+08         0.12853E+06         0.00000E+00
    0.12853E+06        -0.60815E+08         0.00000E+00
    0.00000E+00         0.00000E+00        -0.65345E+08
 
   -0.44067E+08        -0.57244E+06         0.00000E+00
   -0.57244E+06        -0.61074E+08         0.00000E+00
    0.00000E+00         0.00000E+00        -0.68203E+08
 
   -0.45670E+08        -0.12999E+07         0.00000E+00
   -0.12999E+07        -0.61239E+08         0.00000E+00
    0.00000E+00         0.00000E+00        -0.70911E+08
 
   -0.48090E+08        -0.16664E+07         0.00000E+00
   -0.16664E+07        -0.61581E+08         0.00000E+00
    0.00000E+00         0.00000E+00        -0.72242E+08
 
   -0.50653E+08        -0.19163E+07         0.00000E+00
   -0.19163E+07        -0.62212E+08         0.00000E+00
    0.00000E+00         0.00000E+00        -0.72889E+08
 
   -0.53380E+08        -0.18757E+07         0.00000E+00
   -0.18757E+07        -0.62964E+08         0.00000E+00
    0.00000E+00         0.00000E+00        -0.73595E+08
 
   -0.55899E+08        -0.15255E+07         0.00000E+00
   -0.15255E+07        -0.63758E+08         0.00000E+00
    0.00000E+00         0.00000E+00        -0.74267E+08
 
   -0.58060E+08        -0.11564E+07         0.00000E+00
   -0.11564E+07        -0.64462E+08         0.00000E+00
    0.00000E+00         0.00000E+00        -0.74851E+08
 
   -0.60059E+08        -0.80469E+06         0.00000E+00
   -0.80469E+06        -0.65004E+08         0.00000E+00
    0.00000E+00         0.00000E+00        -0.75369E+08
 
   -0.62030E+08        -0.45348E+06         0.00000E+00
   -0.45348E+06        -0.65350E+08         0.00000E+00
    0.00000E+00         0.00000E+00        -0.75842E+08
 
   -0.64088E+08        -0.76416E+05         0.00000E+00
   -0.76416E+05        -0.65475E+08         0.00000E+00
    0.00000E+00         0.00000E+00        -0.76286E+08
 
   -0.66356E+08         0.36606E+06         0.00000E+00
    0.36606E+06        -0.65340E+08         0.00000E+00
    0.00000E+00         0.00000E+00        -0.76720E+08
 
   -0.68996E+08         0.94675E+06         0.00000E+00
    0.94675E+06        -0.64876E+08         0.00000E+00
    0.00000E+00         0.00000E+00        -0.77160E+08
 
   -0.72264E+08         0.18415E+07         0.00000E+00
    0.18415E+07        -0.63954E+08         0.00000E+00
    0.00000E+00         0.00000E+00        -0.77633E+08
 
   -0.76220E+08         0.36185E+07         0.00000E+00
    0.36185E+07        -0.62388E+08         0.00000E+00
    0.00000E+00         0.00000E+00        -0.78112E+08
 
   -0.42780E+08        -0.37812E+06         0.00000E+00
   -0.37812E+06        -0.60574E+08         0.00000E+00
    0.00000E+00         0.00000E+00        -0.68275E+08
 
   -0.44875E+08        -0.91248E+06         0.00000E+00
   -0.91248E+06        -0.60715E+08         0.00000E+00
    0.00000E+00         0.00000E+00        -0.69028E+08
 
   -0.46444E+08        -0.15696E+07         0.00000E+00
   -0.15696E+07        -0.60891E+08         0.00000E+00
    0.00000E+00         0.00000E+00        -0.69386E+08
 
   -0.48426E+08        -0.21745E+07         0.00000E+00
   -0.21745E+07        -0.61161E+08         0.00000E+00
    0.00000E+00         0.00000E+00        -0.69848E+08
 
   -0.50780E+08        -0.24233E+07         0.00000E+00
   -0.24233E+07        -0.61520E+08         0.00000E+00
    0.00000E+00         0.00000E+00        -0.70405E+08
 
   -0.53186E+08        -0.23995E+07         0.00000E+00
   -0.23995E+07        -0.61864E+08         0.00000E+00
    0.00000E+00         0.00000E+00        -0.70970E+08
 
   -0.55510E+08        -0.21020E+07         0.00000E+00
   -0.21020E+07        -0.62238E+08         0.00000E+00
    0.00000E+00         0.00000E+00        -0.71524E+08
 
   -0.57641E+08        -0.16607E+07         0.00000E+00
   -0.16607E+07        -0.62630E+08         0.00000E+00
    0.00000E+00         0.00000E+00        -0.72044E+08
 
   -0.59627E+08        -0.11679E+07         0.00000E+00
   -0.11679E+07        -0.62954E+08         0.00000E+00
    0.00000E+00         0.00000E+00        -0.72521E+08
 
   -0.61569E+08        -0.63496E+06         0.00000E+00
   -0.63496E+06        -0.63146E+08         0.00000E+00
    0.00000E+00         0.00000E+00        -0.72961E+08
 
   -0.63562E+08        -0.37780E+05         0.00000E+00
   -0.37780E+05        -0.63161E+08         0.00000E+00
    0.00000E+00         0.00000E+00        -0.73375E+08
 
   -0.65702E+08         0.67676E+06         0.00000E+00
    0.67676E+06        -0.62949E+08         0.00000E+00
    0.00000E+00         0.00000E+00        -0.73772E+08
 
   -0.68090E+08         0.16112E+07         0.00000E+00
    0.16112E+07        -0.62454E+08         0.00000E+00
    0.00000E+00         0.00000E+00        -0.74159E+08
 
   -0.70775E+08         0.29797E+07         0.00000E+00
    0.29797E+07        -0.61611E+08         0.00000E+00
    0.00000E+00         0.00000E+00        -0.74534E+08
 
   -0.73618E+08         0.51205E+07         0.00000E+00
    0.51205E+07        -0.60482E+08         0.00000E+00
    0.00000E+00         0.00000E+00        -0.74881E+08
 
   -0.43613E+08        -0.57108E+06         0.00000E+00
   -0.57108E+06        -0.59983E+08         0.00000E+00
    0.00000E+00         0.00000E+00        -0.66346E+08
 
   -0.45434E+08        -0.12796E+07         0.00000E+00
   -0.12796E+07        -0.60190E+08         0.00000E+00
    0.00000E+00         0.00000E+00        -0.66759E+08
 
   -0.47074E+08        -0.18567E+07         0.00000E+00
   -0.18567E+07        -0.60495E+08         0.00000E+00
    0.00000E+00         0.00000E+00        -0.67162E+08
 
   -0.48858E+08        -0.23772E+07         0.00000E+00
   -0.23772E+07        -0.60696E+08         0.00000E+00
    0.00000E+00         0.00000E+00        -0.67574E+08
 
   -0.50892E+08        -0.26469E+07         0.00000E+00
   -0.26469E+07        -0.60820E+08         0.00000E+00
    0.00000E+00         0.00000E+00        -0.68023E+08
 
   -0.53028E+08        -0.26264E+07         0.00000E+00
   -0.26264E+07        -0.60946E+08         0.00000E+00
    0.00000E+00         0.00000E+00        -0.68494E+08
 
   -0.55134E+08        -0.23601E+07         0.00000E+00
   -0.23601E+07        -0.61082E+08         0.00000E+00
    0.00000E+00         0.00000E+00        -0.68961E+08
 
   -0.57146E+08        -0.19109E+07         0.00000E+00
   -0.19109E+07        -0.61225E+08         0.00000E+00
    0.00000E+00         0.00000E+00        -0.69410E+08
 
   -0.59061E+08        -0.13417E+07         0.00000E+00
   -0.13417E+07        -0.61339E+08         0.00000E+00
    0.00000E+00         0.00000E+00        -0.69834E+08
 
   -0.60930E+08        -0.67729E+06         0.00000E+00
   -0.67729E+06        -0.61369E+08         0.00000E+00
    0.00000E+00         0.00000E+00        -0.70230E+08
 
   -0.62813E+08         0.98531E+05         0.00000E+00
    0.98531E+05        -0.61267E+08         0.00000E+00
    0.00000E+00         0.00000E+00        -0.70602E+08
 
   -0.64769E+08         0.10389E+07         0.00000E+00
    0.10389E+07        -0.60989E+08         0.00000E+00
    0.00000E+00         0.00000E+00        -0.70951E+08
 
   -0.66830E+08         0.22450E+07         0.00000E+00
    0.22450E+07        -0.60501E+08         0.00000E+00
    0.00000E+00         0.00000E+00        -0.71278E+08
 
   -0.68957E+08         0.38754E+07         0.00000E+00
    0.38754E+07        -0.59809E+08         0.00000E+00
    0.00000E+00         0.00000E+00        -0.71574E+08
 
   -0.70979E+08         0.61210E+07         0.00000E+00
    0.61210E+07        -0.59005E+08         0.00000E+00
    0.00000E+00         0.00000E+00        -0.71822E+08
 
   -0.44640E+08        -0.59083E+06         0.00000E+00
   -0.59083E+06        -0.60004E+08         0.00000E+00
    0.00000E+00         0.00000E+00        -0.64414E+08
 
   -0.46090E+08        -0.14564E+07         0.00000E+00
   -0.14564E+07        -0.60038E+08         0.00000E+00
    0.00000E+00         0.00000E+00        -0.64720E+08
 
   -0.47604E+08        -0.20491E+07         0.00000E+00
   -0.20491E+07        -0.60132E+08         0.00000E+00
    0.00000E+00         0.00000E+00        -0.65057E+08
 
   -0.49229E+08        -0.24730E+07         0.00000E+00
   -0.24730E+07        -0.60207E+08         0.00000E+00
    0.00000E+00         0.00000E+00        -0.65416E+08
 
   -0.51005E+08        -0.26943E+07         0.00000E+00
   -0.26943E+07        -0.60221E+08         0.00000E+00
    0.00000E+00         0.00000E+00        -0.65793E+08
 
   -0.52880E+08        -0.26706E+07         0.00000E+00
   -0.26706E+07        -0.60201E+08         0.00000E+00
    0.00000E+00         0.00000E+00        -0.66184E+08
 
   -0.54771E+08        -0.24124E+07         0.00000E+00
   -0.24124E+07        -0.60176E+08         0.00000E+00
    0.00000E+00         0.00000E+00        -0.66578E+08
 
   -0.56619E+08        -0.19578E+07         0.00000E+00
   -0.19578E+07        -0.60149E+08         0.00000E+00
    0.00000E+00         0.00000E+00        -0.66961E+08
 
   -0.58409E+08        -0.13437E+07         0.00000E+00
   -0.13437E+07        -0.60099E+08         0.00000E+00
    0.00000E+00         0.00000E+00        -0.67328E+08
 
   -0.60156E+08        -0.58832E+06         0.00000E+00
   -0.58832E+06        -0.59994E+08         0.00000E+00
    0.00000E+00         0.00000E+00        -0.67675E+08
 
   -0.61888E+08         0.31968E+06         0.00000E+00
    0.31968E+06        -0.59796E+08         0.00000E+00
    0.00000E+00         0.00000E+00        -0.67998E+08
 
   -0.63624E+08         0.14238E+07         0.00000E+00
    0.14238E+07        -0.59477E+08         0.00000E+00
    0.00000E+00         0.00000E+00        -0.68297E+08
 
   -0.65354E+08         0.28004E+07         0.00000E+00
    0.28004E+07        -0.59027E+08         0.00000E+00
    0.00000E+00         0.00000E+00        -0.68566E+08
 
   -0.67007E+08         0.45519E+07         0.00000E+00
    0.45519E+07        -0.58476E+08         0.00000E+00
    0.00000E+00         0.00000E+00        -0.68796E+08
 
   -0.68423E+08         0.67813E+07         0.00000E+00
    0.67813E+07        -0.57914E+08         0.00000E+00
    0.00000E+00         0.00000E+00        -0.68974E+08
 
   -0.45709E+08        -0.57926E+06         0.00000E+00
   -0.57926E+06        -0.59984E+08         0.00000E+00
    0.00000E+00         0.00000E+00        -0.62633E+08
 
   -0.46814E+08        -0.14649E+07         0.00000E+00
   -0.14649E+07        -0.59948E+08         0.00000E+00
    0.00000E+00         0.00000E+00        -0.62857E+08
 
   -0.48102E+08        -0.20698E+07         0.00000E+00
   -0.20698E+07        -0.59904E+08         0.00000E+00
    0.00000E+00         0.00000E+00        -0.63122E+08
 
   -0.49533E+08        -0.24553E+07         0.00000E+00
   -0.24553E+07        -0.59844E+08         0.00000E+00
    0.00000E+00         0.00000E+00        -0.63415E+08
 
   -0.51089E+08        -0.26319E+07         0.00000E+00
   -0.26319E+07        -0.59753E+08         0.00000E+00
    0.00000E+00         0.00000E+00        -0.63728E+08
 
   -0.52731E+08        -0.25882E+07         0.00000E+00
   -0.25882E+07        -0.59632E+08         0.00000E+00
    0.00000E+00         0.00000E+00        -0.64052E+08
 
   -0.54407E+08        -0.23253E+07         0.00000E+00
   -0.23253E+07        -0.59497E+08         0.00000E+00
    0.00000E+00         0.00000E+00        -0.64379E+08
 
   -0.56071E+08        -0.18607E+07         0.00000E+00
   -0.18607E+07        -0.59352E+08         0.00000E+00
    0.00000E+00         0.00000E+00        -0.64702E+08
 
   -0.57700E+08        -0.12150E+07         0.00000E+00
   -0.12150E+07        -0.59189E+08         0.00000E+00
    0.00000E+00         0.00000E+00        -0.65013E+08
 
   -0.59289E+08        -0.39817E+06         0.00000E+00
   -0.39817E+06        -0.58987E+08         0.00000E+00
    0.00000E+00         0.00000E+00        -0.65308E+08
 
   -0.60839E+08         0.59836E+06         0.00000E+00
    0.59836E+06        -0.58725E+08         0.00000E+00
    0.00000E+00         0.00000E+00        -0.65582E+08
 
   -0.62344E+08         0.18048E+07         0.00000E+00
    0.18048E+07        -0.58391E+08         0.00000E+00
    0.00000E+00         0.00000E+00        -0.65831E+08
 
   -0.63768E+08         0.32706E+07         0.00000E+00
    0.32706E+07        -0.57989E+08         0.00000E+00
    0.00000E+00         0.00000E+00        -0.66048E+08
 
   -0.65034E+08         0.50541E+07         0.00000E+00
    0.50541E+07        -0.57556E+08         0.00000E+00
    0.00000E+00         0.00000E+00        -0.66226E+08
 
   -0.66005E+08         0.72033E+07         0.00000E+00
    0.72033E+07        -0.57172E+08         0.00000E+00
    0.00000E+00         0.00000E+00        -0.66349E+08
 
   -0.46741E+08        -0.53623E+06         0.00000E+00
   -0.53623E+06        -0.59974E+08         0.00000E+00
    0.00000E+00         0.00000E+00        -0.61001E+08
 
   -0.47538E+08        -0.13835E+07         0.00000E+00
   -0.13835E+07        -0.59889E+08         0.00000E+00
    0.00000E+00         0.00000E+00        -0.61153E+08
 
   -0.48583E+08        -0.19705E+07         0.00000E+00
   -0.19705E+07        -0.59763E+08         0.00000E+00
    0.00000E+00         0.00000E+00        -0.61352E+08
 
   -0.49801E+08        -0.23320E+07         0.00000E+00
   -0.23320E+07        -0.59611E+08         0.00000E+00
    0.00000E+00         0.00000E+00        -0.61582E+08
 
   -0.51144E+08        -0.24807E+07         0.00000E+00
   -0.24807E+07        -0.59435E+08         0.00000E+00
    0.00000E+00         0.00000E+00        -0.61833E+08
 
   -0.52569E+08        -0.24173E+07         0.00000E+00
   -0.24173E+07        -0.59239E+08         0.00000E+00
    0.00000E+00         0.00000E+00        -0.62096E+08
 
   -0.54036E+08        -0.21434E+07         0.00000E+00
   -0.21434E+07        -0.59029E+08         0.00000E+00
    0.00000E+00         0.00000E+00        -0.62364E+08
 
   -0.55506E+08        -0.16670E+07         0.00000E+00
   -0.16670E+07        -0.58807E+08         0.00000E+00
    0.00000E+00         0.00000E+00        -0.62630E+08
 
   -0.56953E+08        -0.99841E+06         0.00000E+00
   -0.99841E+06        -0.58570E+08         0.00000E+00
    0.00000E+00         0.00000E+00        -0.62888E+08
 
   -0.58361E+08        -0.14253E+06         0.00000E+00
   -0.14253E+06        -0.58310E+08         0.00000E+00
    0.00000E+00         0.00000E+00        -0.63132E+08
 
   -0.59714E+08         0.90622E+06         0.00000E+00
    0.90622E+06        -0.58015E+08         0.00000E+00
    0.00000E+00         0.00000E+00        -0.63358E+08
 
   -0.60991E+08         0.21656E+07         0.00000E+00
    0.21656E+07        -0.57685E+08         0.00000E+00
    0.00000E+00         0.00000E+00        -0.63561E+08
 
   -0.62145E+08         0.36621E+07         0.00000E+00
    0.36621E+07        -0.57332E+08         0.00000E+00
    0.00000E+00         0.00000E+00        -0.63733E+08
 
   -0.63103E+08         0.54224E+07         0.00000E+00
    0.54224E+07        -0.56995E+08         0.00000E+00
    0.00000E+00         0.00000E+00        -0.63867E+08
 
   -0.63750E+08         0.74593E+07         0.00000E+00
    0.74593E+07        -0.56738E+08         0.00000E+00
    0.00000E+00         0.00000E+00        -0.63951E+08
 
   -0.47686E+08        -0.47488E+06         0.00000E+00
   -0.47488E+06        -0.59969E+08         0.00000E+00
    0.00000E+00         0.00000E+00        -0.59500E+08
 
   -0.48225E+08        -0.12499E+07         0.00000E+00
   -0.12499E+07        -0.59860E+08         0.00000E+00
    0.00000E+00         0.00000E+00        -0.59594E+08
 
   -0.49040E+08        -0.18000E+07         0.00000E+00
   -0.18000E+07        -0.59688E+08         0.00000E+00
    0.00000E+00         0.00000E+00        -0.59735E+08
 
   -0.50044E+08        -0.21363E+07         0.00000E+00
   -0.21363E+07        -0.59482E+08         0.00000E+00
    0.00000E+00         0.00000E+00        -0.59908E+08
 
   -0.51177E+08        -0.22644E+07         0.00000E+00
   -0.22644E+07        -0.59254E+08         0.00000E+00
    0.00000E+00         0.00000E+00        -0.60103E+08
 
   -0.52394E+08        -0.21855E+07         0.00000E+00
   -0.21855E+07        -0.59008E+08         0.00000E+00
    0.00000E+00         0.00000E+00        -0.60310E+08
 
   -0.53654E+08        -0.19009E+07         0.00000E+00
   -0.19009E+07        -0.58751E+08         0.00000E+00
    0.00000E+00         0.00000E+00        -0.60523E+08
 
   -0.54926E+08        -0.14143E+07         0.00000E+00
   -0.14143E+07        -0.58485E+08         0.00000E+00
    0.00000E+00         0.00000E+00        -0.60737E+08
 
   -0.56181E+08        -0.73083E+06         0.00000E+00
   -0.73083E+06        -0.58209E+08         0.00000E+00
    0.00000E+00         0.00000E+00        -0.60944E+08
 
   -0.57397E+08         0.14651E+06         0.00000E+00
    0.14651E+06        -0.57920E+08         0.00000E+00
    0.00000E+00         0.00000E+00        -0.61140E+08
 
   -0.58551E+08         0.12197E+07         0.00000E+00
    0.12197E+07        -0.57618E+08         0.00000E+00
    0.00000E+00         0.00000E+00        -0.61321E+08
 
   -0.59612E+08         0.24961E+07         0.00000E+00
    0.24961E+07        -0.57306E+08         0.00000E+00
    0.00000E+00         0.00000E+00        -0.61481E+08
 
   -0.60533E+08         0.39848E+07         0.00000E+00
    0.39848E+07        -0.57002E+08         0.00000E+00
    0.00000E+00         0.00000E+00        -0.61614E+08
 
   -0.61247E+08         0.56903E+07         0.00000E+00
    0.56903E+07        -0.56741E+08         0.00000E+00
    0.00000E+00         0.00000E+00        -0.61713E+08
 
   -0.61662E+08         0.76021E+07         0.00000E+00
    0.76021E+07        -0.56574E+08         0.00000E+00
    0.00000E+00         0.00000E+00        -0.61767E+08
 
   -0.48518E+08        -0.40657E+06         0.00000E+00
   -0.40657E+06        -0.59968E+08         0.00000E+00
    0.00000E+00         0.00000E+00        -0.58112E+08
 
   -0.48853E+08        -0.10929E+07         0.00000E+00
   -0.10929E+07        -0.59852E+08         0.00000E+00
    0.00000E+00         0.00000E+00        -0.58161E+08
 
   -0.49464E+08        -0.15942E+07         0.00000E+00
   -0.15942E+07        -0.59664E+08         0.00000E+00
    0.00000E+00         0.00000E+00        -0.58254E+08
 
   -0.50264E+08        -0.19017E+07         0.00000E+00
   -0.19017E+07        -0.59436E+08         0.00000E+00
    0.00000E+00         0.00000E+00        -0.58377E+08
 
   -0.51194E+08        -0.20111E+07         0.00000E+00
   -0.20111E+07        -0.59184E+08         0.00000E+00
    0.00000E+00         0.00000E+00        -0.58521E+08
 
   -0.52206E+08        -0.19196E+07         0.00000E+00
   -0.19196E+07        -0.58916E+08         0.00000E+00
    0.00000E+00         0.00000E+00        -0.58677E+08
 
   -0.53264E+08        -0.16264E+07         0.00000E+00
   -0.16264E+07        -0.58639E+08         0.00000E+00
    0.00000E+00         0.00000E+00        -0.58840E+08
 
   -0.54337E+08        -0.11330E+07         0.00000E+00
   -0.11330E+07        -0.58355E+08         0.00000E+00
    0.00000E+00         0.00000E+00        -0.59005E+08
 
   -0.55397E+08        -0.44212E+06         0.00000E+00
   -0.44212E+06        -0.58067E+08         0.00000E+00
    0.00000E+00         0.00000E+00        -0.59165E+08
 
   -0.56419E+08         0.44315E+06         0.00000E+00
    0.44315E+06        -0.57776E+08         0.00000E+00
    0.00000E+00         0.00000E+00        -0.59317E+08
 
   -0.57377E+08         0.15211E+07         0.00000E+00
    0.15211E+07        -0.57484E+08         0.00000E+00
    0.00000E+00         0.00000E+00        -0.59457E+08
 
   -0.58238E+08         0.27905E+07         0.00000E+00
    0.27905E+07        -0.57201E+08         0.00000E+00
    0.00000E+00         0.00000E+00        -0.59579E+08
 
   -0.58960E+08         0.42482E+07         0.00000E+00
    0.42482E+07        -0.56944E+08         0.00000E+00
    0.00000E+00         0.00000E+00        -0.59677E+08
 
   -0.59483E+08         0.58833E+07         0.00000E+00
    0.58833E+07        -0.56743E+08         0.00000E+00
    0.00000E+00         0.00000E+00        -0.59747E+08
 
   -0.59737E+08         0.76707E+07         0.00000E+00
    0.76707E+07        -0.56638E+08         0.00000E+00
    0.00000E+00         0.00000E+00        -0.59780E+08
 
   -0.49231E+08        -0.33978E+06         0.00000E+00
   -0.33978E+06        -0.59970E+08         0.00000E+00
    0.00000E+00         0.00000E+00        -0.56816E+08
 
   -0.49413E+08        -0.93382E+06         0.00000E+00
   -0.93382E+06        -0.59860E+08         0.00000E+00
    0.00000E+00         0.00000E+00        -0.56833E+08
 
   -0.49849E+08        -0.13810E+07         0.00000E+00
   -0.13810E+07        -0.59678E+08         0.00000E+00
    0.00000E+00         0.00000E+00        -0.56887E+08
 
   -0.50461E+08        -0.16569E+07         0.00000E+00
   -0.16569E+07        -0.59453E+08         0.00000E+00
    0.00000E+00         0.00000E+00        -0.56967E+08
 
   -0.51196E+08        -0.17475E+07         0.00000E+00
   -0.17475E+07        -0.59202E+08         0.00000E+00
    0.00000E+00         0.00000E+00        -0.57066E+08
 
   -0.52010E+08        -0.16448E+07         0.00000E+00
   -0.16448E+07        -0.58936E+08         0.00000E+00
    0.00000E+00         0.00000E+00        -0.57176E+08
 
   -0.52868E+08        -0.13452E+07         0.00000E+00
   -0.13452E+07        -0.58663E+08         0.00000E+00
    0.00000E+00         0.00000E+00        -0.57294E+08
 
   -0.53743E+08        -0.84819E+06         0.00000E+00
   -0.84819E+06        -0.58385E+08         0.00000E+00
    0.00000E+00         0.00000E+00        -0.57413E+08
 
   -0.54608E+08        -0.15600E+06         0.00000E+00
   -0.15600E+06        -0.58107E+08         0.00000E+00
    0.00000E+00         0.00000E+00        -0.57531E+08
 
   -0.55439E+08         0.72756E+06         0.00000E+00
    0.72756E+06        -0.57832E+08         0.00000E+00
    0.00000E+00         0.00000E+00        -0.57642E+08
 
   -0.56209E+08         0.17973E+07         0.00000E+00
    0.17973E+07        -0.57565E+08         0.00000E+00
    0.00000E+00         0.00000E+00        -0.57744E+08
 
   -0.56889E+08         0.30456E+07         0.00000E+00
    0.30456E+07        -0.57317E+08         0.00000E+00
    0.00000E+00         0.00000E+00        -0.57832E+08
 
   -0.57440E+08         0.44604E+07         0.00000E+00
    0.44604E+07        -0.57105E+08         0.00000E+00
    0.00000E+00         0.00000E+00        -0.57901E+08
 
   -0.57815E+08         0.60211E+07         0.00000E+00
    0.60211E+07        -0.56951E+08         0.00000E+00
    0.00000E+00         0.00000E+00        -0.57948E+08
 
   -0.57959E+08         0.76934E+07         0.00000E+00
    0.76934E+07        -0.56888E+08         0.00000E+00
    0.00000E+00         0.00000E+00        -0.57966E+08
 
   -0.49830E+08        -0.28033E+06         0.00000E+00
   -0.28033E+06        -0.59975E+08         0.00000E+00
    0.00000E+00         0.00000E+00        -0.55591E+08
 
   -0.49904E+08        -0.78815E+06         0.00000E+00
   -0.78815E+06        -0.59879E+08         0.00000E+00
    0.00000E+00         0.00000E+00        -0.55586E+08
 
   -0.50192E+08        -0.11816E+07         0.00000E+00
   -0.11816E+07        -0.59718E+08         0.00000E+00
    0.00000E+00         0.00000E+00        -0.55610E+08
 
   -0.50633E+08        -0.14251E+07         0.00000E+00
   -0.14251E+07        -0.59515E+08         0.00000E+00
    0.00000E+00         0.00000E+00        -0.55654E+08
 
   -0.51183E+08        -0.14966E+07         0.00000E+00
   -0.14966E+07        -0.59287E+08         0.00000E+00
    0.00000E+00         0.00000E+00        -0.55714E+08
 
   -0.51805E+08        -0.13832E+07         0.00000E+00
   -0.13832E+07        -0.59044E+08         0.00000E+00
    0.00000E+00         0.00000E+00        -0.55784E+08
 
   -0.52468E+08        -0.10785E+07         0.00000E+00
   -0.10785E+07        -0.58794E+08         0.00000E+00
    0.00000E+00         0.00000E+00        -0.55860E+08
 
   -0.53148E+08        -0.58045E+06         0.00000E+00
   -0.58045E+06        -0.58541E+08         0.00000E+00
    0.00000E+00         0.00000E+00        -0.55938E+08
 
   -0.53822E+08         0.10896E+06         0.00000E+00
    0.10896E+06        -0.58290E+08         0.00000E+00
    0.00000E+00         0.00000E+00        -0.56016E+08
 
   -0.54467E+08         0.98479E+06         0.00000E+00
    0.98479E+06        -0.58045E+08         0.00000E+00
    0.00000E+00         0.00000E+00        -0.56091E+08
 
   -0.55060E+08         0.20390E+07         0.00000E+00
    0.20390E+07        -0.57814E+08         0.00000E+00
    0.00000E+00         0.00000E+00        -0.56158E+08
 
   -0.55573E+08         0.32594E+07         0.00000E+00
    0.32594E+07        -0.57607E+08         0.00000E+00
    0.00000E+00         0.00000E+00        -0.56216E+08
 
   -0.55977E+08         0.46280E+07         0.00000E+00
    0.46280E+07        -0.57436E+08         0.00000E+00
    0.00000E+00         0.00000E+00        -0.56260E+08
 
   -0.56235E+08         0.61181E+07         0.00000E+00
    0.61181E+07        -0.57322E+08         0.00000E+00
    0.00000E+00         0.00000E+00        -0.56288E+08
 
   -0.56308E+08         0.76904E+07         0.00000E+00
    0.76904E+07        -0.57286E+08         0.00000E+00
    0.00000E+00         0.00000E+00        -0.56295E+08
 
   -0.50331E+08        -0.23195E+06         0.00000E+00
   -0.23195E+06        -0.59981E+08         0.00000E+00
    0.00000E+00         0.00000E+00        -0.54419E+08
 
   -0.50330E+08        -0.66636E+06         0.00000E+00
   -0.66636E+06        -0.59905E+08         0.00000E+00
    0.00000E+00         0.00000E+00        -0.54400E+08
 
   -0.50494E+08        -0.10114E+07         0.00000E+00
   -0.10114E+07        -0.59775E+08         0.00000E+00
    0.00000E+00         0.00000E+00        -0.54401E+08
 
   -0.50781E+08        -0.12241E+07         0.00000E+00
   -0.12241E+07        -0.59609E+08         0.00000E+00
    0.00000E+00         0.00000E+00        -0.54415E+08
 
   -0.51156E+08        -0.12769E+07         0.00000E+00
   -0.12769E+07        -0.59419E+08         0.00000E+00
    0.00000E+00         0.00000E+00        -0.54441E+08
 
   -0.51593E+08        -0.11531E+07         0.00000E+00
   -0.11531E+07        -0.59215E+08         0.00000E+00
    0.00000E+00         0.00000E+00        -0.54475E+08
 
   -0.52066E+08        -0.84377E+06         0.00000E+00
   -0.84377E+06        -0.59003E+08         0.00000E+00
    0.00000E+00         0.00000E+00        -0.54513E+08
 
   -0.52555E+08        -0.34595E+06         0.00000E+00
   -0.34595E+06        -0.58790E+08         0.00000E+00
    0.00000E+00         0.00000E+00        -0.54555E+08
 
   -0.53042E+08         0.33858E+06         0.00000E+00
    0.33858E+06        -0.58579E+08         0.00000E+00
    0.00000E+00         0.00000E+00        -0.54597E+08
 
   -0.53508E+08         0.12039E+07         0.00000E+00
    0.12039E+07        -0.58377E+08         0.00000E+00
    0.00000E+00         0.00000E+00        -0.54637E+08
 
   -0.53932E+08         0.22397E+07         0.00000E+00
    0.22397E+07        -0.58189E+08         0.00000E+00
    0.00000E+00         0.00000E+00        -0.54674E+08
 
   -0.54294E+08         0.34309E+07         0.00000E+00
    0.34309E+07        -0.58024E+08         0.00000E+00
    0.00000E+00         0.00000E+00        -0.54705E+08
 
   -0.54570E+08         0.47558E+07         0.00000E+00
    0.47558E+07        -0.57894E+08         0.00000E+00
    0.00000E+00         0.00000E+00        -0.54728E+08
 
   -0.54734E+08         0.61843E+07         0.00000E+00
    0.61843E+07        -0.57812E+08         0.00000E+00
    0.00000E+00         0.00000E+00        -0.54740E+08
 
   -0.54761E+08         0.76752E+07         0.00000E+00
    0.76752E+07        -0.57794E+08         0.00000E+00
    0.00000E+00         0.00000E+00        -0.54739E+08
 
   -0.50754E+08        -0.19682E+06         0.00000E+00
   -0.19682E+06        -0.59987E+08         0.00000E+00
    0.00000E+00         0.00000E+00        -0.53282E+08
 
   -0.50702E+08        -0.57511E+06         0.00000E+00
   -0.57511E+06        -0.59936E+08         0.00000E+00
    0.00000E+00         0.00000E+00        -0.53255E+08
 
   -0.50761E+08        -0.88048E+06         0.00000E+00
   -0.88048E+06        -0.59844E+08         0.00000E+00
    0.00000E+00         0.00000E+00        -0.53237E+08
 
   -0.50906E+08        -0.10664E+07         0.00000E+00
   -0.10664E+07        -0.59723E+08         0.00000E+00
    0.00000E+00         0.00000E+00        -0.53227E+08
 
   -0.51116E+08        -0.11020E+07         0.00000E+00
   -0.11020E+07        -0.59582E+08         0.00000E+00
    0.00000E+00         0.00000E+00        -0.53223E+08
 
   -0.51373E+08        -0.96817E+06         0.00000E+00
   -0.96817E+06        -0.59428E+08         0.00000E+00
    0.00000E+00         0.00000E+00        -0.53224E+08
 
   -0.51661E+08        -0.65431E+06         0.00000E+00
   -0.65431E+06        -0.59267E+08         0.00000E+00
    0.00000E+00         0.00000E+00        -0.53229E+08
 
   -0.51965E+08        -0.15680E+06         0.00000E+00
   -0.15680E+06        -0.59103E+08         0.00000E+00
    0.00000E+00         0.00000E+00        -0.53237E+08
 
   -0.52270E+08         0.52256E+06         0.00000E+00
    0.52256E+06        -0.58943E+08         0.00000E+00
    0.00000E+00         0.00000E+00        -0.53247E+08
 
   -0.52563E+08         0.13770E+07         0.00000E+00
    0.13770E+07        -0.58789E+08         0.00000E+00
    0.00000E+00         0.00000E+00        -0.53257E+08
 
   -0.52827E+08         0.23951E+07         0.00000E+00
    0.23951E+07        -0.58649E+08         0.00000E+00
    0.00000E+00         0.00000E+00        -0.53266E+08
 
   -0.53049E+08         0.35596E+07         0.00000E+00
    0.35596E+07        -0.58529E+08         0.00000E+00
    0.00000E+00         0.00000E+00        -0.53272E+08
 
   -0.53211E+08         0.48473E+07         0.00000E+00
    0.48473E+07        -0.58438E+08         0.00000E+00
    0.00000E+00         0.00000E+00        -0.53276E+08
 
   -0.53297E+08         0.62265E+07         0.00000E+00
    0.62265E+07        -0.58385E+08         0.00000E+00
    0.00000E+00         0.00000E+00        -0.53275E+08
 
   -0.53292E+08         0.76561E+07         0.00000E+00
    0.76561E+07        -0.58378E+08         0.00000E+00
    0.00000E+00         0.00000E+00        -0.53269E+08
 
   -0.51125E+08        -0.17594E+06         0.00000E+00
   -0.17594E+06        -0.59994E+08         0.00000E+00
    0.00000E+00         0.00000E+00        -0.52164E+08
 
   -0.51035E+08        -0.51808E+06         0.00000E+00
   -0.51808E+06        -0.59967E+08         0.00000E+00
    0.00000E+00         0.00000E+00        -0.52132E+08
 
   -0.50999E+08        -0.79520E+06         0.00000E+00
   -0.79520E+06        -0.59917E+08         0.00000E+00
    0.00000E+00         0.00000E+00        -0.52100E+08
 
   -0.51011E+08        -0.96021E+06         0.00000E+00
   -0.96021E+06        -0.59847E+08         0.00000E+00
    0.00000E+00         0.00000E+00        -0.52068E+08
 
   -0.51063E+08        -0.98115E+06         0.00000E+00
   -0.98115E+06        -0.59761E+08         0.00000E+00
    0.00000E+00         0.00000E+00        -0.52038E+08
 
   -0.51147E+08        -0.83782E+06         0.00000E+00
   -0.83782E+06        -0.59665E+08         0.00000E+00
    0.00000E+00         0.00000E+00        -0.52010E+08
 
   -0.51254E+08        -0.51915E+06         0.00000E+00
   -0.51915E+06        -0.59561E+08         0.00000E+00
    0.00000E+00         0.00000E+00        -0.51985E+08
 
   -0.51377E+08        -0.21196E+05         0.00000E+00
   -0.21196E+05        -0.59455E+08         0.00000E+00
    0.00000E+00         0.00000E+00        -0.51962E+08
 
   -0.51505E+08         0.65405E+06         0.00000E+00
    0.65405E+06        -0.59349E+08         0.00000E+00
    0.00000E+00         0.00000E+00        -0.51941E+08
 
   -0.51631E+08         0.14994E+07         0.00000E+00
    0.14994E+07        -0.59249E+08         0.00000E+00
    0.00000E+00         0.00000E+00        -0.51923E+08
 
   -0.51743E+08         0.25025E+07         0.00000E+00
    0.25025E+07        -0.59160E+08         0.00000E+00
    0.00000E+00         0.00000E+00        -0.51907E+08
 
   -0.51832E+08         0.36457E+07         0.00000E+00
    0.36457E+07        -0.59086E+08         0.00000E+00
    0.00000E+00         0.00000E+00        -0.51892E+08
 
   -0.51889E+08         0.49048E+07         0.00000E+00
    0.49048E+07        -0.59033E+08         0.00000E+00
    0.00000E+00         0.00000E+00        -0.51879E+08
 
   -0.51906E+08         0.62485E+07         0.00000E+00
    0.62485E+07        -0.59006E+08         0.00000E+00
    0.00000E+00         0.00000E+00        -0.51867E+08
 
   -0.51878E+08         0.76372E+07         0.00000E+00
    0.76372E+07        -0.59008E+08         0.00000E+00
    0.00000E+00         0.00000E+00        -0.51856E+08
 
   -0.51468E+08        -0.16951E+06         0.00000E+00
   -0.16951E+06        -0.60000E+08         0.00000E+00
    0.00000E+00         0.00000E+00        -0.51052E+08
 
   -0.51343E+08        -0.49659E+06         0.00000E+00
   -0.49659E+06        -0.59999E+08         0.00000E+00
    0.00000E+00         0.00000E+00        -0.51016E+08
 
   -0.51217E+08        -0.75834E+06         0.00000E+00
   -0.75834E+06        -0.59991E+08         0.00000E+00
    0.00000E+00         0.00000E+00        -0.50971E+08
 
   -0.51100E+08        -0.90951E+06         0.00000E+00
   -0.90951E+06        -0.59973E+08         0.00000E+00
    0.00000E+00         0.00000E+00        -0.50920E+08
 
   -0.50998E+08        -0.91905E+06         0.00000E+00
   -0.91905E+06        -0.59946E+08         0.00000E+00
    0.00000E+00         0.00000E+00        -0.50866E+08
 
   -0.50913E+08        -0.76723E+06         0.00000E+00
   -0.76723E+06        -0.59910E+08         0.00000E+00
    0.00000E+00         0.00000E+00        -0.50812E+08
 
   -0.50844E+08        -0.44332E+06         0.00000E+00
   -0.44332E+06        -0.59867E+08         0.00000E+00
    0.00000E+00         0.00000E+00        -0.50758E+08
 
   -0.50790E+08         0.56310E+05         0.00000E+00
    0.56310E+05        -0.59820E+08         0.00000E+00
    0.00000E+00         0.00000E+00        -0.50707E+08
 
   -0.50746E+08         0.72936E+06         0.00000E+00
    0.72936E+06        -0.59773E+08         0.00000E+00
    0.00000E+00         0.00000E+00        -0.50658E+08
 
   -0.50709E+08         0.15684E+07         0.00000E+00
    0.15684E+07        -0.59728E+08         0.00000E+00
    0.00000E+00         0.00000E+00        -0.50614E+08
 
   -0.50673E+08         0.25608E+07         0.00000E+00
    0.25608E+07        -0.59690E+08         0.00000E+00
    0.00000E+00         0.00000E+00        -0.50574E+08
 
   -0.50636E+08         0.36891E+07         0.00000E+00
    0.36891E+07        -0.59662E+08         0.00000E+00
    0.00000E+00         0.00000E+00        -0.50540E+08
 
   -0.50594E+08         0.49296E+07         0.00000E+00
    0.49296E+07        -0.59647E+08         0.00000E+00
    0.00000E+00         0.00000E+00        -0.50511E+08
 
   -0.50546E+08         0.62522E+07         0.00000E+00
    0.62522E+07        -0.59645E+08         0.00000E+00
    0.00000E+00         0.00000E+00        -0.50489E+08
 
   -0.50495E+08         0.76197E+07         0.00000E+00
    0.76197E+07        -0.59657E+08         0.00000E+00
    0.00000E+00         0.00000E+00        -0.50474E+08
 
   -0.51811E+08        -0.17709E+06         0.00000E+00
   -0.17709E+06        -0.60007E+08         0.00000E+00
    0.00000E+00         0.00000E+00        -0.49935E+08
 
   -0.51645E+08        -0.51014E+06         0.00000E+00
   -0.51014E+06        -0.60029E+08         0.00000E+00
    0.00000E+00         0.00000E+00        -0.49895E+08
 
   -0.51426E+08        -0.76990E+06         0.00000E+00
   -0.76990E+06        -0.60062E+08         0.00000E+00
    0.00000E+00         0.00000E+00        -0.49837E+08
 
   -0.51180E+08        -0.91495E+06         0.00000E+00
   -0.91495E+06        -0.60097E+08         0.00000E+00
    0.00000E+00         0.00000E+00        -0.49767E+08
 
   -0.50925E+08        -0.91683E+06         0.00000E+00
   -0.91683E+06        -0.60127E+08         0.00000E+00
    0.00000E+00         0.00000E+00        -0.49690E+08
 
   -0.50673E+08        -0.75771E+06         0.00000E+00
   -0.75771E+06        -0.60150E+08         0.00000E+00
    0.00000E+00         0.00000E+00        -0.49610E+08
 
   -0.50431E+08        -0.42813E+06         0.00000E+00
   -0.42813E+06        -0.60168E+08         0.00000E+00
    0.00000E+00         0.00000E+00        -0.49530E+08
 
   -0.50202E+08         0.74598E+05         0.00000E+00
    0.74598E+05        -0.60180E+08         0.00000E+00
    0.00000E+00         0.00000E+00        -0.49451E+08
 
   -0.49990E+08         0.74771E+06         0.00000E+00
    0.74771E+06        -0.60190E+08         0.00000E+00
    0.00000E+00         0.00000E+00        -0.49377E+08
 
   -0.49793E+08         0.15836E+07         0.00000E+00
    0.15836E+07        -0.60201E+08         0.00000E+00
    0.00000E+00         0.00000E+00        -0.49308E+08
 
   -0.49614E+08         0.25701E+07         0.00000E+00
    0.25701E+07        -0.60213E+08         0.00000E+00
    0.00000E+00         0.00000E+00        -0.49247E+08
 
   -0.49453E+08         0.36904E+07         0.00000E+00
    0.36904E+07        -0.60231E+08         0.00000E+00
    0.00000E+00         0.00000E+00        -0.49193E+08
 
   -0.49312E+08         0.49222E+07         0.00000E+00
    0.49222E+07        -0.60252E+08         0.00000E+00
    0.00000E+00         0.00000E+00        -0.49150E+08
 
   -0.49198E+08         0.62375E+07         0.00000E+00
    0.62375E+07        -0.60276E+08         0.00000E+00
    0.00000E+00         0.00000E+00        -0.49118E+08
 
   -0.49121E+08         0.76020E+07         0.00000E+00
    0.76020E+07        -0.60298E+08         0.00000E+00
    0.00000E+00         0.00000E+00        -0.49099E+08
 
   -0.52178E+08        -0.19778E+06         0.00000E+00
   -0.19778E+06        -0.60012E+08         0.00000E+00
    0.00000E+00         0.00000E+00        -0.48805E+08
 
   -0.51956E+08        -0.55684E+06         0.00000E+00
   -0.55684E+06        -0.60058E+08         0.00000E+00
    0.00000E+00         0.00000E+00        -0.48757E+08
 
   -0.51635E+08        -0.82764E+06         0.00000E+00
   -0.82764E+06        -0.60129E+08         0.00000E+00
    0.00000E+00         0.00000E+00        -0.48685E+08
 
   -0.51256E+08        -0.97418E+06         0.00000E+00
   -0.97418E+06        -0.60211E+08         0.00000E+00
    0.00000E+00         0.00000E+00        -0.48596E+08
 
   -0.50846E+08        -0.97221E+06         0.00000E+00
   -0.97221E+06        -0.60295E+08         0.00000E+00
    0.00000E+00         0.00000E+00        -0.48496E+08
 
   -0.50426E+08        -0.80700E+06         0.00000E+00
   -0.80700E+06        -0.60374E+08         0.00000E+00
    0.00000E+00         0.00000E+00        -0.48391E+08
 
   -0.50012E+08        -0.47143E+06         0.00000E+00
   -0.47143E+06        -0.60448E+08         0.00000E+00
    0.00000E+00         0.00000E+00        -0.48284E+08
 
   -0.49612E+08         0.35738E+05         0.00000E+00
    0.35738E+05        -0.60516E+08         0.00000E+00
    0.00000E+00         0.00000E+00        -0.48180E+08
 
   -0.49233E+08         0.71100E+06         0.00000E+00
    0.71100E+06        -0.60580E+08         0.00000E+00
    0.00000E+00         0.00000E+00        -0.48080E+08
 
   -0.48881E+08         0.15468E+07         0.00000E+00
    0.15468E+07        -0.60642E+08         0.00000E+00
    0.00000E+00         0.00000E+00        -0.47987E+08
 
   -0.48559E+08         0.25317E+07         0.00000E+00
    0.25317E+07        -0.60704E+08         0.00000E+00
    0.00000E+00         0.00000E+00        -0.47904E+08
 
   -0.48274E+08         0.36503E+07         0.00000E+00
    0.36503E+07        -0.60765E+08         0.00000E+00
    0.00000E+00         0.00000E+00        -0.47833E+08
 
   -0.48034E+08         0.48824E+07         0.00000E+00
    0.48824E+07        -0.60823E+08         0.00000E+00
    0.00000E+00         0.00000E+00        -0.47775E+08
 
   -0.47850E+08         0.62028E+07         0.00000E+00
    0.62028E+07        -0.60874E+08         0.00000E+00
    0.00000E+00         0.00000E+00        -0.47733E+08
 
   -0.47738E+08         0.75806E+07         0.00000E+00
    0.75806E+07        -0.60910E+08         0.00000E+00
    0.00000E+00         0.00000E+00        -0.47710E+08
 
   -0.52592E+08        -0.23033E+06         0.00000E+00
   -0.23033E+06        -0.60017E+08         0.00000E+00
    0.00000E+00         0.00000E+00        -0.47656E+08
 
   -0.52292E+08        -0.63366E+06         0.00000E+00
   -0.63366E+06        -0.60082E+08         0.00000E+00
    0.00000E+00         0.00000E+00        -0.47595E+08
 
   -0.51855E+08        -0.92737E+06         0.00000E+00
   -0.92737E+06        -0.60188E+08         0.00000E+00
    0.00000E+00         0.00000E+00        -0.47505E+08
 
   -0.51332E+08        -0.10823E+07         0.00000E+00
   -0.10823E+07        -0.60312E+08         0.00000E+00
    0.00000E+00         0.00000E+00        -0.47395E+08
 
   -0.50762E+08        -0.10798E+07         0.00000E+00
   -0.10798E+07        -0.60443E+08         0.00000E+00
    0.00000E+00         0.00000E+00        -0.47271E+08
 
   -0.50173E+08        -0.90961E+06         0.00000E+00
   -0.90961E+06        -0.60572E+08         0.00000E+00
    0.00000E+00         0.00000E+00        -0.47140E+08
 
   -0.49587E+08        -0.56777E+06         0.00000E+00
   -0.56777E+06        -0.60695E+08         0.00000E+00
    0.00000E+00         0.00000E+00        -0.47007E+08
 
   -0.49018E+08        -0.55189E+05         0.00000E+00
   -0.55189E+05        -0.60812E+08         0.00000E+00
    0.00000E+00         0.00000E+00        -0.46876E+08
 
   -0.48475E+08         0.62370E+06         0.00000E+00
    0.62370E+06        -0.60924E+08         0.00000E+00
    0.00000E+00         0.00000E+00        -0.46751E+08
 
   -0.47968E+08         0.14615E+07         0.00000E+00
    0.14615E+07        -0.61033E+08         0.00000E+00
    0.00000E+00         0.00000E+00        -0.46636E+08
 
   -0.47504E+08         0.24480E+07         0.00000E+00
    0.24480E+07        -0.61139E+08         0.00000E+00
    0.00000E+00         0.00000E+00        -0.46532E+08
 
   -0.47094E+08         0.35698E+07         0.00000E+00
    0.35698E+07        -0.61242E+08         0.00000E+00
    0.00000E+00         0.00000E+00        -0.46442E+08
 
   -0.46749E+08         0.48096E+07         0.00000E+00
    0.48096E+07        -0.61337E+08         0.00000E+00
    0.00000E+00         0.00000E+00        -0.46369E+08
 
   -0.46486E+08         0.61455E+07         0.00000E+00
    0.61455E+07        -0.61418E+08         0.00000E+00
    0.00000E+00         0.00000E+00        -0.46317E+08
 
   -0.46328E+08         0.75503E+07         0.00000E+00
    0.75503E+07        -0.61472E+08         0.00000E+00
    0.00000E+00         0.00000E+00        -0.46287E+08
 
   -0.53074E+08        -0.27326E+06         0.00000E+00
   -0.27326E+06        -0.60022E+08         0.00000E+00
    0.00000E+00         0.00000E+00        -0.46481E+08
 
   -0.52667E+08        -0.73666E+06         0.00000E+00
   -0.73666E+06        -0.60104E+08         0.00000E+00
    0.00000E+00         0.00000E+00        -0.46403E+08
 
   -0.52093E+08        -0.10633E+07         0.00000E+00
   -0.10633E+07        -0.60237E+08         0.00000E+00
    0.00000E+00         0.00000E+00        -0.46291E+08
 
   -0.51413E+08        -0.12321E+07         0.00000E+00
   -0.12321E+07        -0.60397E+08         0.00000E+00
    0.00000E+00         0.00000E+00        -0.46155E+08
 
   -0.50675E+08        -0.12315E+07         0.00000E+00
   -0.12315E+07        -0.60566E+08         0.00000E+00
    0.00000E+00         0.00000E+00        -0.46005E+08
 
   -0.49914E+08        -0.10569E+07         0.00000E+00
   -0.10569E+07        -0.60734E+08         0.00000E+00
    0.00000E+00         0.00000E+00        -0.45847E+08
 
   -0.49156E+08        -0.70860E+06         0.00000E+00
   -0.70860E+06        -0.60896E+08         0.00000E+00
    0.00000E+00         0.00000E+00        -0.45686E+08
 
   -0.48419E+08        -0.19020E+06         0.00000E+00
   -0.19020E+06        -0.61052E+08         0.00000E+00
    0.00000E+00         0.00000E+00        -0.45529E+08
 
   -0.47714E+08         0.49272E+06         0.00000E+00
    0.49272E+06        -0.61203E+08         0.00000E+00
    0.00000E+00         0.00000E+00        -0.45379E+08
 
   -0.47053E+08         0.13331E+07         0.00000E+00
    0.13331E+07        -0.61352E+08         0.00000E+00
    0.00000E+00         0.00000E+00        -0.45240E+08
 
   -0.46446E+08         0.23224E+07         0.00000E+00
    0.23224E+07        -0.61498E+08         0.00000E+00
    0.00000E+00         0.00000E+00        -0.45114E+08
 
   -0.45906E+08         0.34501E+07         0.00000E+00
    0.34501E+07        -0.61640E+08         0.00000E+00
    0.00000E+00         0.00000E+00        -0.45006E+08
 
   -0.45449E+08         0.47024E+07         0.00000E+00
    0.47024E+07        -0.61772E+08         0.00000E+00
    0.00000E+00         0.00000E+00        -0.44918E+08
 
   -0.45097E+08         0.60615E+07         0.00000E+00
    0.60615E+07        -0.61885E+08         0.00000E+00
    0.00000E+00         0.00000E+00        -0.44853E+08
 
   -0.44877E+08         0.75047E+07         0.00000E+00
    0.75047E+07        -0.61963E+08         0.00000E+00
    0.00000E+00         0.00000E+00        -0.44816E+08
 
   -0.53640E+08        -0.32487E+06         0.00000E+00
   -0.32487E+06        -0.60025E+08         0.00000E+00
    0.00000E+00         0.00000E+00        -0.45280E+08
 
   -0.53093E+08        -0.86110E+06         0.00000E+00
   -0.86110E+06        -0.60121E+08         0.00000E+00
    0.00000E+00         0.00000E+00        -0.45176E+08
 
   -0.52357E+08        -0.12280E+07         0.00000E+00
   -0.12280E+07        -0.60276E+08         0.00000E+00
    0.00000E+00         0.00000E+00        -0.45037E+08
 
   -0.51503E+08        -0.14142E+07         0.00000E+00
   -0.14142E+07        -0.60462E+08         0.00000E+00
    0.00000E+00         0.00000E+00        -0.44872E+08
 
   -0.50587E+08        -0.14164E+07         0.00000E+00
   -0.14164E+07        -0.60657E+08         0.00000E+00
    0.00000E+00         0.00000E+00        -0.44691E+08
 
   -0.49650E+08        -0.12372E+07         0.00000E+00
   -0.12372E+07        -0.60851E+08         0.00000E+00
    0.00000E+00         0.00000E+00        -0.44503E+08
 
   -0.48719E+08        -0.88224E+06         0.00000E+00
   -0.88224E+06        -0.61040E+08         0.00000E+00
    0.00000E+00         0.00000E+00        -0.44314E+08
 
   -0.47815E+08        -0.35844E+06         0.00000E+00
   -0.35844E+06        -0.61222E+08         0.00000E+00
    0.00000E+00         0.00000E+00        -0.44129E+08
 
   -0.46951E+08         0.32736E+06         0.00000E+00
    0.32736E+06        -0.61401E+08         0.00000E+00
    0.00000E+00         0.00000E+00        -0.43953E+08
 
   -0.46137E+08         0.11687E+07         0.00000E+00
    0.11687E+07        -0.61580E+08         0.00000E+00
    0.00000E+00         0.00000E+00        -0.43789E+08
 
   -0.45385E+08         0.21594E+07         0.00000E+00
    0.21594E+07        -0.61759E+08         0.00000E+00
    0.00000E+00         0.00000E+00        -0.43641E+08
 
   -0.44709E+08         0.32925E+07         0.00000E+00
    0.32925E+07        -0.61937E+08         0.00000E+00
    0.00000E+00         0.00000E+00        -0.43513E+08
 
   -0.44131E+08         0.45589E+07         0.00000E+00
    0.45589E+07        -0.62107E+08         0.00000E+00
    0.00000E+00         0.00000E+00        -0.43408E+08
 
   -0.43675E+08         0.59460E+07         0.00000E+00
    0.59460E+07        -0.62255E+08         0.00000E+00
    0.00000E+00         0.00000E+00        -0.43330E+08
 
   -0.43374E+08         0.74358E+07         0.00000E+00
    0.74358E+07        -0.62365E+08         0.00000E+00
    0.00000E+00         0.00000E+00        -0.43282E+08
 
   -0.54306E+08        -0.38332E+06         0.00000E+00
   -0.38332E+06        -0.60028E+08         0.00000E+00
    0.00000E+00         0.00000E+00        -0.44050E+08
 
   -0.53578E+08        -0.10016E+07         0.00000E+00
   -0.10016E+07        -0.60133E+08         0.00000E+00
    0.00000E+00         0.00000E+00        -0.43913E+08
 
   -0.52649E+08        -0.14128E+07         0.00000E+00
   -0.14128E+07        -0.60303E+08         0.00000E+00
    0.00000E+00         0.00000E+00        -0.43738E+08
 
   -0.51601E+08        -0.16168E+07         0.00000E+00
   -0.16168E+07        -0.60503E+08         0.00000E+00
    0.00000E+00         0.00000E+00        -0.43538E+08
 
   -0.50496E+08        -0.16206E+07         0.00000E+00
   -0.16206E+07        -0.60711E+08         0.00000E+00
    0.00000E+00         0.00000E+00        -0.43324E+08
 
   -0.49378E+08        -0.14356E+07         0.00000E+00
   -0.14356E+07        -0.60915E+08         0.00000E+00
    0.00000E+00         0.00000E+00        -0.43103E+08
 
   -0.48276E+08        -0.10739E+07         0.00000E+00
   -0.10739E+07        -0.61113E+08         0.00000E+00
    0.00000E+00         0.00000E+00        -0.42882E+08
 
   -0.47209E+08        -0.54619E+06         0.00000E+00
   -0.54619E+06        -0.61305E+08         0.00000E+00
    0.00000E+00         0.00000E+00        -0.42668E+08
 
   -0.46187E+08         0.13931E+06         0.00000E+00
    0.13931E+06        -0.61498E+08         0.00000E+00
    0.00000E+00         0.00000E+00        -0.42464E+08
 
   -0.45222E+08         0.97720E+06         0.00000E+00
    0.97720E+06        -0.61696E+08         0.00000E+00
    0.00000E+00         0.00000E+00        -0.42275E+08
 
   -0.44323E+08         0.19643E+07         0.00000E+00
    0.19643E+07        -0.61901E+08         0.00000E+00
    0.00000E+00         0.00000E+00        -0.42103E+08
 
   -0.43505E+08         0.30985E+07         0.00000E+00
    0.30985E+07        -0.62111E+08         0.00000E+00
    0.00000E+00         0.00000E+00        -0.41954E+08
 
   -0.42792E+08         0.43767E+07         0.00000E+00
    0.43767E+07        -0.62319E+08         0.00000E+00
    0.00000E+00         0.00000E+00        -0.41830E+08
 
   -0.42214E+08         0.57924E+07         0.00000E+00
    0.57924E+07        -0.62509E+08         0.00000E+00
    0.00000E+00         0.00000E+00        -0.41736E+08
 
   -0.41809E+08         0.73337E+07         0.00000E+00
    0.73337E+07        -0.62659E+08         0.00000E+00
    0.00000E+00         0.00000E+00        -0.41677E+08
 
   -0.55081E+08        -0.44665E+06         0.00000E+00
   -0.44665E+06        -0.60030E+08         0.00000E+00
    0.00000E+00         0.00000E+00        -0.42791E+08
 
   -0.54125E+08        -0.11518E+07         0.00000E+00
   -0.11518E+07        -0.60140E+08         0.00000E+00
    0.00000E+00         0.00000E+00        -0.42610E+08
 
   -0.52970E+08        -0.16071E+07         0.00000E+00
   -0.16071E+07        -0.60315E+08         0.00000E+00
    0.00000E+00         0.00000E+00        -0.42392E+08
 
   -0.51707E+08        -0.18256E+07         0.00000E+00
   -0.18256E+07        -0.60516E+08         0.00000E+00
    0.00000E+00         0.00000E+00        -0.42151E+08
 
   -0.50401E+08        -0.18273E+07         0.00000E+00
   -0.18273E+07        -0.60719E+08         0.00000E+00
    0.00000E+00         0.00000E+00        -0.41898E+08
 
   -0.49099E+08        -0.16340E+07         0.00000E+00
   -0.16340E+07        -0.60914E+08         0.00000E+00
    0.00000E+00         0.00000E+00        -0.41641E+08
 
   -0.47828E+08        -0.12655E+07         0.00000E+00
   -0.12655E+07        -0.61101E+08         0.00000E+00
    0.00000E+00         0.00000E+00        -0.41386E+08
 
   -0.46602E+08        -0.73686E+06         0.00000E+00
   -0.73686E+06        -0.61286E+08         0.00000E+00
    0.00000E+00         0.00000E+00        -0.41140E+08
 
   -0.45429E+08        -0.57400E+05         0.00000E+00
   -0.57400E+05        -0.61476E+08         0.00000E+00
    0.00000E+00         0.00000E+00        -0.40908E+08
 
   -0.44315E+08         0.76907E+06         0.00000E+00
    0.76907E+06        -0.61679E+08         0.00000E+00
    0.00000E+00         0.00000E+00        -0.40691E+08
 
   -0.43267E+08         0.17434E+07         0.00000E+00
    0.17434E+07        -0.61901E+08         0.00000E+00
    0.00000E+00         0.00000E+00        -0.40495E+08
 
   -0.42300E+08         0.28696E+07         0.00000E+00
    0.28696E+07        -0.62139E+08         0.00000E+00
    0.00000E+00         0.00000E+00        -0.40323E+08
 
   -0.41437E+08         0.41521E+07         0.00000E+00
    0.41521E+07        -0.62387E+08         0.00000E+00
    0.00000E+00         0.00000E+00        -0.40178E+08
 
   -0.40714E+08         0.55926E+07         0.00000E+00
    0.55926E+07        -0.62625E+08         0.00000E+00
    0.00000E+00         0.00000E+00        -0.40066E+08
 
   -0.40178E+08         0.71867E+07         0.00000E+00
    0.71867E+07        -0.62826E+08         0.00000E+00
    0.00000E+00         0.00000E+00        -0.39990E+08
 
   -0.55970E+08        -0.51277E+06         0.00000E+00
   -0.51277E+06        -0.60030E+08         0.00000E+00
    0.00000E+00         0.00000E+00        -0.41503E+08
 
   -0.54735E+08        -0.13048E+07         0.00000E+00
   -0.13048E+07        -0.60141E+08         0.00000E+00
    0.00000E+00         0.00000E+00        -0.41267E+08
 
   -0.53315E+08        -0.17983E+07         0.00000E+00
   -0.17983E+07        -0.60310E+08         0.00000E+00
    0.00000E+00         0.00000E+00        -0.40998E+08
 
   -0.51813E+08        -0.20233E+07         0.00000E+00
   -0.20233E+07        -0.60495E+08         0.00000E+00
    0.00000E+00         0.00000E+00        -0.40708E+08
 
   -0.50297E+08        -0.20157E+07         0.00000E+00
   -0.20157E+07        -0.60673E+08         0.00000E+00
    0.00000E+00         0.00000E+00        -0.40410E+08
 
   -0.48811E+08        -0.18105E+07         0.00000E+00
   -0.18105E+07        -0.60836E+08         0.00000E+00
    0.00000E+00         0.00000E+00        -0.40112E+08
 
   -0.47377E+08        -0.14358E+07         0.00000E+00
   -0.14358E+07        -0.60989E+08         0.00000E+00
    0.00000E+00         0.00000E+00        -0.39822E+08
 
   -0.46002E+08        -0.91117E+06         0.00000E+00
   -0.91117E+06        -0.61143E+08         0.00000E+00
    0.00000E+00         0.00000E+00        -0.39543E+08
 
   -0.44686E+08        -0.24659E+06         0.00000E+00
   -0.24659E+06        -0.61311E+08         0.00000E+00
    0.00000E+00         0.00000E+00        -0.39279E+08
 
   -0.43427E+08         0.55642E+06         0.00000E+00
    0.55642E+06        -0.61506E+08         0.00000E+00
    0.00000E+00         0.00000E+00        -0.39035E+08
 
   -0.42230E+08         0.15038E+07         0.00000E+00
    0.15038E+07        -0.61734E+08         0.00000E+00
    0.00000E+00         0.00000E+00        -0.38812E+08
 
   -0.41104E+08         0.26070E+07         0.00000E+00
    0.26070E+07        -0.61996E+08         0.00000E+00
    0.00000E+00         0.00000E+00        -0.38615E+08
 
   -0.40074E+08         0.38802E+07         0.00000E+00
    0.38802E+07        -0.62285E+08         0.00000E+00
    0.00000E+00         0.00000E+00        -0.38447E+08
 
   -0.39180E+08         0.53362E+07         0.00000E+00
    0.53362E+07        -0.62580E+08         0.00000E+00
    0.00000E+00         0.00000E+00        -0.38312E+08
 
   -0.38477E+08         0.69802E+07         0.00000E+00
    0.69802E+07        -0.62848E+08         0.00000E+00
    0.00000E+00         0.00000E+00        -0.38218E+08
 
   -0.56976E+08        -0.57951E+06         0.00000E+00
   -0.57951E+06        -0.60030E+08         0.00000E+00
    0.00000E+00         0.00000E+00        -0.40189E+08
 
   -0.55400E+08        -0.14519E+07         0.00000E+00
   -0.14519E+07        -0.60136E+08         0.00000E+00
    0.00000E+00         0.00000E+00        -0.39885E+08
 
   -0.53674E+08        -0.19707E+07         0.00000E+00
   -0.19707E+07        -0.60285E+08         0.00000E+00
    0.00000E+00         0.00000E+00        -0.39552E+08
 
   -0.51909E+08        -0.21881E+07         0.00000E+00
   -0.21881E+07        -0.60433E+08         0.00000E+00
    0.00000E+00         0.00000E+00        -0.39206E+08
 
   -0.50177E+08        -0.21610E+07         0.00000E+00
   -0.21610E+07        -0.60559E+08         0.00000E+00
    0.00000E+00         0.00000E+00        -0.38857E+08
 
   -0.48513E+08        -0.19395E+07         0.00000E+00
   -0.19395E+07        -0.60662E+08         0.00000E+00
    0.00000E+00         0.00000E+00        -0.38515E+08
 
   -0.46927E+08        -0.15607E+07         0.00000E+00
   -0.15607E+07        -0.60755E+08         0.00000E+00
    0.00000E+00         0.00000E+00        -0.38186E+08
 
   -0.45416E+08        -0.10477E+07         0.00000E+00
   -0.10477E+07        -0.60855E+08         0.00000E+00
    0.00000E+00         0.00000E+00        -0.37872E+08
 
   -0.43969E+08        -0.41040E+06         0.00000E+00
   -0.41040E+06        -0.60982E+08         0.00000E+00
    0.00000E+00         0.00000E+00        -0.37578E+08
 
   -0.42575E+08         0.35263E+06         0.00000E+00
    0.35263E+06        -0.61150E+08         0.00000E+00
    0.00000E+00         0.00000E+00        -0.37304E+08
 
   -0.41229E+08         0.12532E+07         0.00000E+00
    0.12532E+07        -0.61374E+08         0.00000E+00
    0.00000E+00         0.00000E+00        -0.37053E+08
 
   -0.39936E+08         0.23118E+07         0.00000E+00
    0.23118E+07        -0.61656E+08         0.00000E+00
    0.00000E+00         0.00000E+00        -0.36829E+08
 
   -0.38719E+08         0.35549E+07         0.00000E+00
    0.35549E+07        -0.61989E+08         0.00000E+00
    0.00000E+00         0.00000E+00        -0.36634E+08
 
   -0.37620E+08         0.50097E+07         0.00000E+00
    0.50097E+07        -0.62352E+08         0.00000E+00
    0.00000E+00         0.00000E+00        -0.36474E+08
 
   -0.36706E+08         0.66957E+07         0.00000E+00
    0.66957E+07        -0.62703E+08         0.00000E+00
    0.00000E+00         0.00000E+00        -0.36354E+08
 
   -0.58094E+08        -0.64448E+06         0.00000E+00
   -0.64448E+06        -0.60029E+08         0.00000E+00
    0.00000E+00         0.00000E+00        -0.38849E+08
 
   -0.56106E+08        -0.15825E+07         0.00000E+00
   -0.15825E+07        -0.60122E+08         0.00000E+00
    0.00000E+00         0.00000E+00        -0.38462E+08
 
   -0.54027E+08        -0.21037E+07         0.00000E+00
   -0.21037E+07        -0.60233E+08         0.00000E+00
    0.00000E+00         0.00000E+00        -0.38053E+08
 
   -0.51981E+08        -0.22924E+07         0.00000E+00
   -0.22924E+07        -0.60316E+08         0.00000E+00
    0.00000E+00         0.00000E+00        -0.37641E+08
 
   -0.50034E+08        -0.22329E+07         0.00000E+00
   -0.22329E+07        -0.60357E+08         0.00000E+00
    0.00000E+00         0.00000E+00        -0.37236E+08
 
   -0.48204E+08        -0.19918E+07         0.00000E+00
   -0.19918E+07        -0.60369E+08         0.00000E+00
    0.00000E+00         0.00000E+00        -0.36847E+08
 
   -0.46485E+08        -0.16140E+07         0.00000E+00
   -0.16140E+07        -0.60373E+08         0.00000E+00
    0.00000E+00         0.00000E+00        -0.36476E+08
 
   -0.44857E+08        -0.11240E+07         0.00000E+00
   -0.11240E+07        -0.60395E+08         0.00000E+00
    0.00000E+00         0.00000E+00        -0.36128E+08
 
   -0.43295E+08        -0.53039E+06         0.00000E+00
   -0.53039E+06        -0.60460E+08         0.00000E+00
    0.00000E+00         0.00000E+00        -0.35802E+08
 
   -0.41778E+08         0.17192E+06         0.00000E+00
    0.17192E+06        -0.60587E+08         0.00000E+00
    0.00000E+00         0.00000E+00        -0.35499E+08
 
   -0.40289E+08         0.10005E+07         0.00000E+00
    0.10005E+07        -0.60793E+08         0.00000E+00
    0.00000E+00         0.00000E+00        -0.35219E+08
 
   -0.38823E+08         0.19856E+07         0.00000E+00
    0.19856E+07        -0.61089E+08         0.00000E+00
    0.00000E+00         0.00000E+00        -0.34966E+08
 
   -0.37395E+08         0.31684E+07         0.00000E+00
    0.31684E+07        -0.61470E+08         0.00000E+00
    0.00000E+00         0.00000E+00        -0.34740E+08
 
   -0.36051E+08         0.45962E+07         0.00000E+00
    0.45962E+07        -0.61914E+08         0.00000E+00
    0.00000E+00         0.00000E+00        -0.34549E+08
 
   -0.34872E+08         0.63093E+07         0.00000E+00
    0.63093E+07        -0.62373E+08         0.00000E+00
    0.00000E+00         0.00000E+00        -0.34399E+08
 
   -0.59311E+08        -0.70478E+06         0.00000E+00
   -0.70478E+06        -0.60026E+08         0.00000E+00
    0.00000E+00         0.00000E+00        -0.37485E+08
 
   -0.56825E+08        -0.16809E+07         0.00000E+00
   -0.16809E+07        -0.60095E+08         0.00000E+00
    0.00000E+00         0.00000E+00        -0.36995E+08
 
   -0.54346E+08        -0.21678E+07         0.00000E+00
   -0.21678E+07        -0.60140E+08         0.00000E+00
    0.00000E+00         0.00000E+00        -0.36496E+08
 
   -0.52010E+08        -0.22999E+07         0.00000E+00
   -0.22999E+07        -0.60118E+08         0.00000E+00
    0.00000E+00         0.00000E+00        -0.36008E+08
 
   -0.49860E+08        -0.21955E+07         0.00000E+00
   -0.21955E+07        -0.60035E+08         0.00000E+00
    0.00000E+00         0.00000E+00        -0.35542E+08
 
   -0.47888E+08        -0.19367E+07         0.00000E+00
   -0.19367E+07        -0.59920E+08         0.00000E+00
    0.00000E+00         0.00000E+00        -0.35103E+08
 
   -0.46061E+08        -0.15705E+07         0.00000E+00
   -0.15705E+07        -0.59809E+08         0.00000E+00
    0.00000E+00         0.00000E+00        -0.34693E+08
 
   -0.44340E+08        -0.11196E+07         0.00000E+00
   -0.11196E+07        -0.59733E+08         0.00000E+00
    0.00000E+00         0.00000E+00        -0.34310E+08
 
   -0.42685E+08        -0.58941E+06         0.00000E+00
   -0.58941E+06        -0.59718E+08         0.00000E+00
    0.00000E+00         0.00000E+00        -0.33954E+08
 
   -0.41062E+08         0.28420E+05         0.00000E+00
    0.28420E+05        -0.59790E+08         0.00000E+00
    0.00000E+00         0.00000E+00        -0.33622E+08
 
   -0.39439E+08         0.75582E+06         0.00000E+00
    0.75582E+06        -0.59967E+08         0.00000E+00
    0.00000E+00         0.00000E+00        -0.33314E+08
 
   -0.37797E+08         0.16312E+07         0.00000E+00
    0.16312E+07        -0.60268E+08         0.00000E+00
    0.00000E+00         0.00000E+00        -0.33029E+08
 
   -0.36138E+08         0.27125E+07         0.00000E+00
    0.27125E+07        -0.60699E+08         0.00000E+00
    0.00000E+00         0.00000E+00        -0.32770E+08
 
   -0.34502E+08         0.40739E+07         0.00000E+00
    0.40739E+07        -0.61240E+08         0.00000E+00
    0.00000E+00         0.00000E+00        -0.32542E+08
 
   -0.32983E+08         0.57891E+07         0.00000E+00
    0.57891E+07        -0.61837E+08         0.00000E+00
    0.00000E+00         0.00000E+00        -0.32352E+08
 
   -0.60606E+08        -0.75611E+06         0.00000E+00
   -0.75611E+06        -0.60021E+08         0.00000E+00
    0.00000E+00         0.00000E+00        -0.36097E+08
 
   -0.57512E+08        -0.17204E+07         0.00000E+00
   -0.17204E+07        -0.60045E+08         0.00000E+00
    0.00000E+00         0.00000E+00        -0.35478E+08
 
   -0.54593E+08        -0.21178E+07         0.00000E+00
   -0.21178E+07        -0.59976E+08         0.00000E+00
    0.00000E+00         0.00000E+00        -0.34872E+08
 
   -0.51976E+08        -0.21624E+07         0.00000E+00
   -0.21624E+07        -0.59793E+08         0.00000E+00
    0.00000E+00         0.00000E+00        -0.34299E+08
 
   -0.49657E+08        -0.20098E+07         0.00000E+00
   -0.20098E+07        -0.59538E+08         0.00000E+00
    0.00000E+00         0.00000E+00        -0.33769E+08
 
   -0.47577E+08        -0.17457E+07         0.00000E+00
   -0.17457E+07        -0.59267E+08         0.00000E+00
    0.00000E+00         0.00000E+00        -0.33282E+08
 
   -0.45673E+08        -0.14102E+07         0.00000E+00
   -0.14102E+07        -0.59021E+08         0.00000E+00
    0.00000E+00         0.00000E+00        -0.32834E+08
 
   -0.43885E+08        -0.10195E+07         0.00000E+00
   -0.10195E+07        -0.58834E+08         0.00000E+00
    0.00000E+00         0.00000E+00        -0.32420E+08
 
   -0.42161E+08        -0.57478E+06         0.00000E+00
   -0.57478E+06        -0.58731E+08         0.00000E+00
    0.00000E+00         0.00000E+00        -0.32037E+08
 
   -0.40452E+08        -0.65686E+05         0.00000E+00
   -0.65686E+05        -0.58737E+08         0.00000E+00
    0.00000E+00         0.00000E+00        -0.31679E+08
 
   -0.38713E+08         0.53074E+06         0.00000E+00
    0.53074E+06        -0.58874E+08         0.00000E+00
    0.00000E+00         0.00000E+00        -0.31344E+08
 
   -0.36904E+08         0.12559E+07         0.00000E+00
    0.12559E+07        -0.59169E+08         0.00000E+00
    0.00000E+00         0.00000E+00        -0.31028E+08
 
   -0.34998E+08         0.21814E+07         0.00000E+00
    0.21814E+07        -0.59644E+08         0.00000E+00
    0.00000E+00         0.00000E+00        -0.30731E+08
 
   -0.33014E+08         0.34167E+07         0.00000E+00
    0.34167E+07        -0.60298E+08         0.00000E+00
    0.00000E+00         0.00000E+00        -0.30457E+08
 
   -0.31059E+08         0.50914E+07         0.00000E+00
    0.50914E+07        -0.61074E+08         0.00000E+00
    0.00000E+00         0.00000E+00        -0.30217E+08
 
   -0.61933E+08        -0.78907E+06         0.00000E+00
   -0.78907E+06        -0.60009E+08         0.00000E+00
    0.00000E+00         0.00000E+00        -0.34682E+08
 
   -0.58091E+08        -0.16474E+07         0.00000E+00
   -0.16474E+07        -0.59940E+08         0.00000E+00
    0.00000E+00         0.00000E+00        -0.33896E+08
 
   -0.54719E+08        -0.18800E+07         0.00000E+00
   -0.18800E+07        -0.59668E+08         0.00000E+00
    0.00000E+00         0.00000E+00        -0.33161E+08
 
   -0.51874E+08        -0.18227E+07         0.00000E+00
   -0.18227E+07        -0.59249E+08         0.00000E+00
    0.00000E+00         0.00000E+00        -0.32500E+08
 
   -0.49440E+08        -0.16424E+07         0.00000E+00
   -0.16424E+07        -0.58785E+08         0.00000E+00
    0.00000E+00         0.00000E+00        -0.31909E+08
 
   -0.47295E+08        -0.14019E+07         0.00000E+00
   -0.14019E+07        -0.58342E+08         0.00000E+00
    0.00000E+00         0.00000E+00        -0.31379E+08
 
   -0.45345E+08        -0.11254E+07         0.00000E+00
   -0.11254E+07        -0.57959E+08         0.00000E+00
    0.00000E+00         0.00000E+00        -0.30900E+08
 
   -0.43516E+08        -0.81963E+06         0.00000E+00
   -0.81963E+06        -0.57663E+08         0.00000E+00
    0.00000E+00         0.00000E+00        -0.30461E+08
 
   -0.41745E+08        -0.48233E+06         0.00000E+00
   -0.48233E+06        -0.57475E+08         0.00000E+00
    0.00000E+00         0.00000E+00        -0.30056E+08
 
   -0.39974E+08        -0.10337E+06         0.00000E+00
   -0.10337E+06        -0.57414E+08         0.00000E+00
    0.00000E+00         0.00000E+00        -0.29677E+08
 
   -0.38144E+08         0.33698E+06         0.00000E+00
    0.33698E+06        -0.57506E+08         0.00000E+00
    0.00000E+00         0.00000E+00        -0.29318E+08
 
   -0.36192E+08         0.87485E+06         0.00000E+00
    0.87485E+06        -0.57780E+08         0.00000E+00
    0.00000E+00         0.00000E+00        -0.28973E+08
 
   -0.34045E+08         0.15795E+07         0.00000E+00
    0.15795E+07        -0.58279E+08         0.00000E+00
    0.00000E+00         0.00000E+00        -0.28636E+08
 
   -0.31663E+08         0.25962E+07         0.00000E+00
    0.25962E+07        -0.59050E+08         0.00000E+00
    0.00000E+00         0.00000E+00        -0.28308E+08
 
   -0.29133E+08         0.41525E+07         0.00000E+00
    0.41525E+07        -0.60057E+08         0.00000E+00
    0.00000E+00         0.00000E+00        -0.28001E+08
 
   -0.63191E+08        -0.77074E+06         0.00000E+00
   -0.77074E+06        -0.59971E+08         0.00000E+00
    0.00000E+00         0.00000E+00        -0.33221E+08
 
   -0.58443E+08        -0.13333E+07         0.00000E+00
   -0.13333E+07        -0.59664E+08         0.00000E+00
    0.00000E+00         0.00000E+00        -0.32209E+08
 
   -0.54707E+08        -0.13518E+07         0.00000E+00
   -0.13518E+07        -0.59038E+08         0.00000E+00
    0.00000E+00         0.00000E+00        -0.31333E+08
 
   -0.51737E+08        -0.12402E+07         0.00000E+00
   -0.12402E+07        -0.58336E+08         0.00000E+00
    0.00000E+00         0.00000E+00        -0.30593E+08
 
   -0.49248E+08        -0.10856E+07         0.00000E+00
   -0.10856E+07        -0.57665E+08         0.00000E+00
    0.00000E+00         0.00000E+00        -0.29955E+08
 
   -0.47074E+08        -0.91225E+06         0.00000E+00
   -0.91225E+06        -0.57069E+08         0.00000E+00
    0.00000E+00         0.00000E+00        -0.29393E+08
 
   -0.45103E+08        -0.72740E+06         0.00000E+00
   -0.72740E+06        -0.56572E+08         0.00000E+00
    0.00000E+00         0.00000E+00        -0.28892E+08
 
   -0.43253E+08        -0.53134E+06         0.00000E+00
   -0.53134E+06        -0.56189E+08         0.00000E+00
    0.00000E+00         0.00000E+00        -0.28437E+08
 
   -0.41456E+08        -0.32041E+06         0.00000E+00
   -0.32041E+06        -0.55933E+08         0.00000E+00
    0.00000E+00         0.00000E+00        -0.28018E+08
 
   -0.39646E+08        -0.87236E+05         0.00000E+00
   -0.87236E+05        -0.55818E+08         0.00000E+00
    0.00000E+00         0.00000E+00        -0.27625E+08
 
   -0.37756E+08         0.18112E+06         0.00000E+00
    0.18112E+06        -0.55868E+08         0.00000E+00
    0.00000E+00         0.00000E+00        -0.27250E+08
 
   -0.35701E+08         0.50818E+06         0.00000E+00
    0.50818E+06        -0.56112E+08         0.00000E+00
    0.00000E+00         0.00000E+00        -0.26882E+08
 
   -0.33368E+08         0.94140E+06         0.00000E+00
    0.94140E+06        -0.56606E+08         0.00000E+00
    0.00000E+00         0.00000E+00        -0.26510E+08
 
   -0.30576E+08         0.15990E+07         0.00000E+00
    0.15990E+07        -0.57443E+08         0.00000E+00
    0.00000E+00         0.00000E+00        -0.26116E+08
 
   -0.27281E+08         0.28667E+07         0.00000E+00
    0.28667E+07        -0.58755E+08         0.00000E+00
    0.00000E+00         0.00000E+00        -0.25717E+08
 
   -0.64105E+08        -0.48560E+06         0.00000E+00
   -0.48560E+06        -0.59649E+08         0.00000E+00
    0.00000E+00         0.00000E+00        -0.31616E+08
 
   -0.58488E+08        -0.55223E+06         0.00000E+00
   -0.55223E+06        -0.58763E+08         0.00000E+00
    0.00000E+00         0.00000E+00        -0.30315E+08
 
   -0.54643E+08        -0.50060E+06         0.00000E+00
   -0.50060E+06        -0.57779E+08         0.00000E+00
    0.00000E+00         0.00000E+00        -0.29348E+08
 
   -0.51635E+08        -0.44253E+06         0.00000E+00
   -0.44253E+06        -0.56868E+08         0.00000E+00
    0.00000E+00         0.00000E+00        -0.28563E+08
 
   -0.49132E+08        -0.38027E+06         0.00000E+00
   -0.38027E+06        -0.56063E+08         0.00000E+00
    0.00000E+00         0.00000E+00        -0.27899E+08
 
   -0.46951E+08        -0.31644E+06         0.00000E+00
   -0.31644E+06        -0.55378E+08         0.00000E+00
    0.00000E+00         0.00000E+00        -0.27323E+08
 
   -0.44974E+08        -0.25111E+06         0.00000E+00
   -0.25111E+06        -0.54818E+08         0.00000E+00
    0.00000E+00         0.00000E+00        -0.26813E+08
 
   -0.43117E+08        -0.18340E+06         0.00000E+00
   -0.18340E+06        -0.54388E+08         0.00000E+00
    0.00000E+00         0.00000E+00        -0.26353E+08
 
   -0.41308E+08        -0.11162E+06         0.00000E+00
   -0.11162E+06        -0.54097E+08         0.00000E+00
    0.00000E+00         0.00000E+00        -0.25930E+08
 
   -0.39480E+08        -0.33039E+05         0.00000E+00
   -0.33039E+05        -0.53955E+08         0.00000E+00
    0.00000E+00         0.00000E+00        -0.25534E+08
 
   -0.37560E+08         0.56781E+05         0.00000E+00
    0.56781E+05        -0.53980E+08         0.00000E+00
    0.00000E+00         0.00000E+00        -0.25152E+08
 
   -0.35454E+08         0.16569E+06         0.00000E+00
    0.16569E+06        -0.54204E+08         0.00000E+00
    0.00000E+00         0.00000E+00        -0.24774E+08
 
   -0.33020E+08         0.31037E+06         0.00000E+00
    0.31037E+06        -0.54680E+08         0.00000E+00
    0.00000E+00         0.00000E+00        -0.24381E+08
 
   -0.30004E+08         0.52826E+06         0.00000E+00
    0.52826E+06        -0.55518E+08         0.00000E+00
    0.00000E+00         0.00000E+00        -0.23944E+08
 
   -0.25680E+08         0.10602E+07         0.00000E+00
    0.10602E+07        -0.57025E+08         0.00000E+00
    0.00000E+00         0.00000E+00        -0.23380E+08
 
SCALARS stressS double 
LOOKUP_TABLE default
  -54074923.5307159     
  -55562022.6071103     
  -57893357.3966108     
  -60489076.6711498     
  -62874794.4895537     
  -64913733.3899318     
  -66428115.3349121     
  -67662179.4770295     
  -68731147.5227460     
  -69698304.5914808     
  -70609767.9761765     
  -71509197.8483293     
  -72450735.6320064     
  -73519973.1919299     
  -74962867.7279770     
  -56259183.8615948     
  -57781314.0554596     
  -59273369.0408804     
  -60637630.9292564     
  -61917909.1419550     
  -63312617.9965877     
  -64641421.8472413     
  -65791174.6359508     
  -66810586.1136921     
  -67740608.6277326     
  -68616457.2957053     
  -69472015.4488212     
  -70344153.8495850     
  -71283718.8243781     
  -72240060.1462902     
  -57210079.8436687     
  -58205960.0274184     
  -58906711.5604182     
  -59811811.3147743     
  -60901472.0147310     
  -62006684.9598371     
  -63090905.6261971     
  -64105286.2809221     
  -65033903.8087090     
  -65892215.2777176     
  -66699432.1446289     
  -67474569.2067336     
  -68234352.4587599     
  -68973488.8639457     
  -69660398.1893554     
  -56647402.7633981     
  -57460992.8252754     
  -58243744.4559867     
  -59042539.6112158     
  -59911839.5637572     
  -60822872.2477498     
  -61725731.4321147     
  -62593741.2649935     
  -63411468.2302873     
  -64176437.1656324     
  -64894014.2079807     
  -65569824.2275724     
  -66202906.4412951     
  -66780137.4116298     
  -67268892.5341920     
  -56352578.8528179     
  -56949464.6275250     
  -57597806.4624707     
  -58283655.9097251     
  -59006197.9965949     
  -59755220.3903454     
  -60508223.8345106     
  -61243046.6266809     
  -61945640.5043323     
  -62608318.8276054     
  -63227434.2710390     
  -63799288.0741254     
  -64315688.3778124     
  -64759750.5100901     
  -65103740.2564298     
  -56108778.1303193     
  -56539749.2491732     
  -57042526.0933878     
  -57597536.2342349     
  -58189759.7632426     
  -58805138.6953246     
  -59427808.3206952     
  -60041865.8485742     
  -60634060.4683102     
  -61194567.6169978     
  -61715446.5799381     
  -62188322.9253685     
  -62601682.8012236     
  -62938597.8540627     
  -63175376.2702542     
  -55905288.7662524     
  -56193332.9418394     
  -56565988.7396089     
  -56998000.9488511     
  -57470730.8234070     
  -57968336.1118323     
  -58476265.2566971     
  -58980983.9582867     
  -59470443.5262710     
  -59934160.7051323     
  -60362494.6159011     
  -60745257.2355766     
  -61070169.6995999     
  -61321545.3832049     
  -61479589.2832135     
  -55718270.6244020     
  -55892745.6898936     
  -56154488.8227153     
  -56478227.3284241     
  -56844461.9101460     
  -57237298.6387886     
  -57642961.0951844     
  -58049135.8197516     
  -58444691.0583024     
  -58819398.4451553     
  -59163384.2997175     
  -59466321.0132404     
  -59716535.1379785     
  -59900286.8788403     
  -60001420.8824792     
  -55532728.2911862     
  -55622077.0355860     
  -55794081.6505957     
  -56025892.7086480     
  -56299409.6551556     
  -56599805.4793975     
  -56914451.5966685     
  -57232205.3688594     
  -57542957.8596117     
  -57837250.2396701     
  -58105839.5852276     
  -58339191.7616973     
  -58526980.8580506     
  -58657719.2942145     
  -58718641.1887476     
  -55338981.4787111     
  -55368740.5449334     
  -55471027.0453714     
  -55626986.5051891     
  -55821197.9719184     
  -56040829.4104675     
  -56274900.9659839     
  -56513722.9571207     
  -56748473.0720993     
  -56970849.8462709     
  -57172746.7458485     
  -57345937.3211888     
  -57481807.7523913     
  -57571203.4247666     
  -57604459.9634151     
  -55131960.3105994     
  -55123153.7047224     
  -55173091.0036129     
  -55267617.3157171     
  -55394743.1191842     
  -55544242.4405514     
  -55707229.4234141     
  -55875784.2384454     
  -56042646.0708060     
  -56200959.4106537     
  -56344058.5444432     
  -56465290.3408464     
  -56557897.3738504     
  -56614999.3410711     
  -56629716.0175300     
  -54910055.9615136     
  -54878610.6625233     
  -54890045.9042261     
  -54935087.7945192     
  -55005509.3427150     
  -55094039.7128306     
  -55194188.2346148     
  -55300053.0880828     
  -55406147.9451305     
  -55507257.9475405     
  -55598328.6345076     
  -55674395.3188557     
  -55730569.1338854     
  -55762104.0374510     
  -55764572.6976121     
  -54674241.7543110     
  -54630927.7220376     
  -54613829.5978593     
  -54618407.4777417     
  -54640242.1428868     
  -54675148.0007041     
  -54719181.2014868     
  -54768601.4369984     
  -54819823.4265645     
  -54869377.8822351     
  -54913893.7472342     
  -54950112.2327185     
  -54974945.8995383     
  -54985599.5387133     
  -54979771.7359326     
  -54427357.5854139     
  -54378034.2999801     
  -54338448.6284427     
  -54308463.6997710     
  -54287325.4668525     
  -54273900.1865657     
  -54266810.6075058     
  -54264516.5615658     
  -54265371.4980171     
  -54267675.1592439     
  -54269735.5708907     
  -54269950.6889850     
  -54266920.0930721     
  -54259598.4044822     
  -54247503.2395520     
  -54173534.6729739     
  -54119545.1688103     
  -54059740.2661010     
  -53997966.2539075     
  -53936878.9686345     
  -53878248.7826459     
  -53823180.2404918     
  -53772279.9173710     
  -53725796.8939438     
  -53683752.1216472     
  -53646067.2875940     
  -53612700.8273333     
  -53583797.9451136     
  -53559861.9642160     
  -53541955.1239044     
  -53917723.7577199     
  -53856342.3634850     
  -53775057.1355386     
  -53681251.4067164     
  -53580676.9581440     
  -53477786.5362077     
  -53376003.5447865     
  -53277952.1208513     
  -53185663.9401400     
  -53100771.8146411     
  -53024695.5970731     
  -52958823.4409368     
  -52904690.8104508     
  -52864160.1959425     
  -52839605.5692409     
  -53665302.1278846     
  -53590178.2886576     
  -53482914.8247596     
  -53354000.6773277     
  -53211949.1065554     
  -53063629.8867683     
  -52914565.6866310     
  -52769207.1800497     
  -52631194.8039823     
  -52503609.4211718     
  -52389210.3854829     
  -52290657.8246304     
  -52210716.0506726     
  -52152436.3465822     
  -52119319.3377285     
  -53421741.0339376     
  -53323303.4487013     
  -53182624.0530341     
  -53012908.5837240     
  -52825103.4460585     
  -52628207.7006170     
  -52429581.4613627     
  -52235257.5388288     
  -52050254.9186590     
  -51878886.7203112     
  -51725052.1645774     
  -51592501.5073265     
  -51485064.2624137     
  -51406833.7294989     
  -51362304.2766543     
  -53192319.4959141     
  -53058115.4832613     
  -52873914.8417187     
  -52655315.9913733     
  -52415395.3711588     
  -52164984.0138295     
  -51912981.4918801     
  -51666705.6178235     
  -51432264.6868625     
  -51214932.4438329     
  -51019503.9459008     
  -50850611.6946719     
  -50712984.6015443     
  -50611636.8460868     
  -50551979.1779243     
  -52981873.0437153     
  -52796819.7624198     
  -52556547.3301345     
  -52278810.0652267     
  -51978550.9884096     
  -51668130.5513328     
  -51357649.3611305     
  -51055350.6420055     
  -50768071.7430806     
  -50501707.7147729     
  -50261650.8959091     
  -50053174.8161081     
  -49881736.1285781     
  -49753174.6236485     
  -49673799.2225241     
  -52794566.8247790     
  -52541083.5629036     
  -52229889.7550563     
  -51880775.7219408     
  -51510338.3038378     
  -51132152.8912853     
  -50757123.6712530     
  -50393973.5596457     
  -50049813.9623051     
  -49730732.9293614     
  -49442349.1374677     
  -49190288.9646664     
  -48980551.2798127     
  -48819730.8293355     
  -48715081.1213094     
  -52633680.7496422     
  -52291652.4388166     
  -51892424.5854850     
  -51457863.9559134     
  -51006064.2815384     
  -50551463.8926154     
  -50105272.9012595     
  -49676119.1863943     
  -49270801.0455295     
  -48895051.2377448     
  -48554245.1407083     
  -48254005.2738321     
  -48000658.9039708     
  -47801506.6286399     
  -47664867.1599305     
  -52501387.0948662     
  -52047871.7876750     
  -51541111.6854412     
  -51005315.1621725     
  -50459959.3349596     
  -49919891.4439231     
  -49395949.7925421     
  -48895894.6654811     
  -48425442.0360408     
  -47989263.6096627     
  -47591889.5150300     
  -47238479.4742515     
  -46935421.1414069     
  -46690684.6222862     
  -46513866.2406619     
  -52398480.6801194     
  -51807003.4739541     
  -51170477.9560052     
  -50516034.6822227     
  -49864395.8969239     
  -49230111.1574958     
  -48622640.9616880     
  -48047808.5392356     
  -47509245.3225221     
  -47009669.0265221     
  -46551991.3884074     
  -46140296.8734275     
  -45780654.4188118     
  -45481658.1778413     
  -45254511.5415492     
  -52323972.2662215     
  -51563105.4634399     
  -50771186.7403571     
  -49979256.6418181     
  -49208887.6117161     
  -48473025.9189629     
  -47778156.2394863     
  -47126685.1593990     
  -46518912.2493170     
  -45954528.9140554     
  -45433861.2521172     
  -44959049.5128938     
  -44535246.9675912     
  -44171521.7737426     
  -43881186.8275851     
  -52274304.3280359     
  -51304955.6826192     
  -50327592.7454360     
  -49378561.9205532     
  -48478881.6643868     
  -47637207.7252575     
  -46854466.2983988     
  -46127701.7051634     
  -45452514.7086162     
  -44824444.4921387     
  -44240047.8931509     
  -43698297.4517550     
  -43202242.8214503     
  -42761034.9417180     
  -42390691.1576812     
  -52241581.6047661     
  -51011630.0337544     
  -49813316.9701781     
  -48689051.4661859     
  -47654618.6285976     
  -46708762.2661750     
  -45842860.7724910     
  -45046598.2540918     
  -44309711.4879640     
  -43622674.7566630     
  -42977167.2180666     
  -42366925.8691100     
  -41790918.1046139     
  -41256374.2160113     
  -40783222.5297802     
  -52207910.0725470     
  -50642191.5105159     
  -49182961.6123782     
  -47874166.8242948     
  -46711410.9706955     
  -45672086.2436829     
  -44734640.3755581     
  -43880090.9351907     
  -43091891.1566593     
  -42355185.2243029     
  -41656099.5332105     
  -40981554.5657487     
  -40319791.3387093     
  -39673766.0196720     
  -39063856.0032764     
  -52127595.9274974     
  -50105288.9291545     
  -48359293.2721169     
  -46888743.7921176     
  -45622355.8464260     
  -44512049.1756994     
  -43522418.3332501     
  -42626462.9717136     
  -41802155.0043419     
  -41030042.9563561     
  -40291236.6322645     
  -39565216.5696485     
  -38827911.7770367     
  -38044769.3095888     
  -37250909.6348372     
  -51789830.0620981     
  -49188780.7772222     
  -47256716.5163333     
  -45688315.0299962     
  -44364690.0860527     
  -43217350.4836360     
  -42201872.8918043     
  -41286229.8040600     
  -40445086.3629851     
  -39656230.8580337     
  -38897635.7390786     
  -38143992.8496231     
  -37360368.2021428     
  -36489077.0424048     
  -35361916.5804834     
SCALARS 2waySource double 
LOOKUP_TABLE default
  8.200974081014764E-005
  4.143826158877507E-005
  4.205445065640912E-006
 -1.848516452447664E-005
 -1.609874968111401E-005
 -9.461037242821514E-006
 -2.865106221294592E-006
  2.339531439497257E-006
  6.709366673333246E-006
  1.022006901837205E-005
  1.266879840574163E-005
  1.366767313273414E-005
  1.248667024655115E-005
  7.758083964251094E-006
 -5.287260072210477E-006
  4.025858657080095E-005
  8.759561572784119E-006
  1.890872765663892E-005
  3.477627671023766E-005
  4.312760664865976E-005
  4.482760257731558E-005
  5.006937487847036E-005
  5.482213851234935E-005
  5.892671684102846E-005
  6.230152817799669E-005
  6.480962061298583E-005
  6.620453291550875E-005
  6.607065832977470E-005
  6.353375764470349E-005
  5.764461611660681E-005
  5.086001928043037E-005
  7.818518958393701E-005
  8.363749764720784E-005
  7.773581920589835E-005
  8.263313823373992E-005
  8.731648947220298E-005
  9.192108461899239E-005
  9.663269494398587E-005
  1.008413241066355E-004
  1.044742305412915E-004
  1.074903553716569E-004
  1.098393181709301E-004
  1.114349971148710E-004
  1.122615238769062E-004
  1.126641243343993E-004
  7.094040860868947E-005
  8.257506644293862E-005
  9.728987948207074E-005
  1.034390165038541E-004
  1.088100921320599E-004
  1.148427153272771E-004
  1.203311000156195E-004
  1.253673186462932E-004
  1.299651858878797E-004
  1.341041951666311E-004
  1.378606152324973E-004
  1.413543074392678E-004
  1.447933881278958E-004
  1.485987112049621E-004
  1.537596301382001E-004
  5.789681058572844E-005
  8.426063318208918E-005
  1.010051521288604E-004
  1.129825507754164E-004
  1.215901567382237E-004
  1.288234085942869E-004
  1.352256186287600E-004
  1.408989156253307E-004
  1.460210898652512E-004
  1.507514189360549E-004
  1.552697952206497E-004
  1.598248155445949E-004
  1.647889509785569E-004
  1.707899727763526E-004
  1.789265816666233E-004
  4.796590619385013E-005
  7.769184771501301E-005
  9.775414223743814E-005
  1.119859406447372E-004
  1.227146244024441E-004
  1.312404386629321E-004
  1.384153889529924E-004
  1.446762851759632E-004
  1.503050636728825E-004
  1.555571533776063E-004
  1.606963829656323E-004
  1.660409775941580E-004
  1.720271072878545E-004
  1.793028170443434E-004
  1.888605036351705E-004
  4.049539595107695E-005
  6.861404274241377E-005
  8.893164967235491E-005
  1.039734852492410E-004
  1.155082606373998E-004
  1.247285287741948E-004
  1.323986816340467E-004
  1.390321488416819E-004
  1.449906039682555E-004
  1.505754061034167E-004
  1.560842540054756E-004
  1.618524555027307E-004
  1.683010132288575E-004
  1.759974437936002E-004
  1.857256293990715E-004
  3.516706671765885E-005
  5.895831725308046E-005
  7.734614754570870E-005
  9.163265104545029E-005
  1.029471240943258E-004
  1.121474216070568E-004
  1.198623944927132E-004
  1.265512649555335E-004
  1.325700001668275E-004
  1.382210295536470E-004
  1.437933933856154E-004
  1.495948856452500E-004
  1.559824954868931E-004
  1.633938973800432E-004
  1.723749498275474E-004
  3.165989490872394E-005
  4.983480817300600E-005
  6.491179247111750E-005
  7.729255786335842E-005
  8.750008298517652E-005
  9.603276414508558E-005
  1.033137315703349E-004
  1.096925077208691E-004
  1.154629528709235E-004
  1.208857264810892E-004
  1.262079727725973E-004
  1.316800846447626E-004
  1.375694254836089E-004
  1.441695966334501E-004
  1.517998979057970E-004
  2.964345541899809E-005
  4.182454803783375E-005
  5.290169518525368E-005
  6.264448556120224E-005
  7.109860216358109E-005
  7.843199190394178E-005
  8.485286552359090E-005
  9.057254656165528E-005
  9.579316246928908E-005
  1.007061224063513E-004
  1.054944254276593E-004
  1.103347780098301E-004
  1.153970731424433E-004
  1.208380379043721E-004
  1.267838419650576E-004
  2.876665102068832E-005
  3.517429157852768E-005
  4.206821130788162E-005
  4.881481568091616E-005
  5.511612370958390E-005
  6.087422059089583E-005
  6.610281333630595E-005
  7.087387702807516E-005
  7.528698880630535E-005
  7.945180120888687E-005
  8.347685778707658E-005
  8.746026575247700E-005
  9.147868841759011E-005
  9.557108922348745E-005
  9.971272390803176E-005
  2.869207510634149E-005
  2.990349096569377E-005
  3.278164985801023E-005
  3.646778483207852E-005
  4.044066715004322E-005
  4.440791862644801E-005
  4.822547823140355E-005
  5.184103206244011E-005
  5.525538364860811E-005
  5.849573060627711E-005
  6.159580729248444E-005
  6.457883819497772E-005
  6.743990184091648E-005
  7.012444183276662E-005
  7.249940494722607E-005
  2.911759510102400E-005
  2.589351719296344E-005
  2.514628531458694E-005
  2.592193489831964E-005
  2.757352812712468E-005
  2.968058789864082E-005
  3.198245973835358E-005
  3.432612697895454E-005
  3.662647746277679E-005
  3.883593687179374E-005
  4.092019731130969E-005
  4.283700246042548E-005
  4.451522912000673E-005
  4.583168885760285E-005
  4.658315462594491E-005
  2.978839445527870E-005
  2.295425142120290E-005
  1.909696360725879E-005
  1.725565930962679E-005
  1.673107015550205E-005
  1.703010203639248E-005
  1.781454722396225E-005
  1.885686247493657E-005
  2.000348950162736E-005
  2.114470356259852E-005
  2.218926086346004E-005
  2.304188732094635E-005
  2.358167825700399E-005
  2.363962105985745E-005
  2.297368110402440E-005
  3.050091522371802E-005
  2.087128513890213E-005
  1.447344906481252E-005
  1.039476680200318E-005
  7.935061190503368E-006
  6.571620142838646E-006
  5.922169900821753E-006
  5.709694139170315E-006
  5.730901517096524E-006
  5.828668200733691E-006
  5.867888226784280E-006
  5.713725085661711E-006
  5.211130003697126E-006
  4.164577574185726E-006
  2.317228778680922E-006
  3.110158059167216E-005
  1.943666125800291E-005
  1.107400982066569E-005
  5.179725414383463E-006
  1.086041993607381E-006
 -1.728235225146563E-006
 -3.662742832201409E-006
 -5.022087972362930E-006
 -6.041537150199888E-006
 -6.910773070829758E-006
 -7.795491164028681E-006
 -8.857104942301192E-006
 -1.027103121812342E-005
 -1.224399474034795E-005
 -1.503056014146980E-005
  3.148246020549677E-005
  1.846687239164385E-005
  8.691297722488585E-006
  1.413932370794308E-006
 -3.981165717879236E-006
 -7.992692435308291E-006
 -1.101765908949987E-005
 -1.337039504532612E-005
 -1.530256974255294E-005
 -1.702278308034244E-005
 -1.871500376948628E-005
 -2.055560227957709E-005
 -2.272894904776089E-005
 -2.544155984863988E-005
 -2.893459206789683E-005
  3.157546305591034E-005
  1.781164046362416E-005
  7.134340658750462E-006
 -1.103962425837603E-006
 -7.458045892341911E-006
 -1.239121756945995E-005
 -1.628381935030745E-005
 -1.944609987705781E-005
 -2.213323755073990E-005
 -2.456096004271289E-005
 -2.692076596125070E-005
 -2.939415232287384E-005
 -3.216547176970469E-005
 -3.543308863549011E-005
 -3.941838470507737E-005
  3.134611257755934E-005
  1.735653125254376E-005
  6.240431999184268E-006
 -2.560044195633056E-006
 -9.536104741675990E-006
 -1.510888270847494E-005
 -1.963287350676671E-005
 -2.340407721691530E-005
 -2.667093508323593E-005
 -2.964652874179199E-005
 -3.252090399828998E-005
 -3.547270940056662E-005
 -3.867955462159645E-005
 -4.232656998588792E-005
 -4.661258579262460E-005
  3.078756087954350E-005
  1.702187530198531E-005
  5.880300413702134E-006
 -3.113849014663968E-006
 -1.039041226065083E-005
 -1.632595164562193E-005
 -2.124364920756219E-005
 -2.541801324877877E-005
 -2.908276107801249E-005
 -3.244037573768270E-005
 -3.567210126383685E-005
 -3.894743479100752E-005
 -4.243240412209087E-005
 -4.629603224980847E-005
 -5.071437053024541E-005
  2.991521547343221E-005
  1.675992589894254E-005
  5.959416905774043E-006
 -2.892584985475578E-006
 -1.016980508835688E-005
 -1.620484535750068E-005
 -2.128666633259653E-005
 -2.566307665400745E-005
 -2.954670285911324E-005
 -3.312285261113520E-005
 -3.655791372063092E-005
 -4.000726476449079E-005
 -4.362196430425485E-005
 -4.755364314271207E-005
 -5.195702977944262E-005
  2.876216494337871E-005
  1.655176153241692E-005
  6.417811681844688E-006
 -1.988085454919237E-006
 -8.990957455351389E-006
 -1.488192158297377E-005
 -1.991417440491233E-005
 -2.430459111686570E-005
 -2.823912717974682E-005
 -3.188010360249364E-005
 -3.537383115693890E-005
 -3.885753239958625E-005
 -4.246491386500603E-005
 -4.632996491484591E-005
 -5.058854495438745E-005
  2.737548603435457E-005
  1.640519449335532E-005
  7.230450583489606E-006
 -4.541131917151817E-007
 -6.933985661271531E-006
 -1.246198609373543E-005
 -1.725393171804098E-005
 -2.149119608365096E-005
 -2.532728453162392E-005
 -2.889580173851295E-005
 -3.231810591985624E-005
 -3.570974159920958E-005
 -3.918527296416527E-005
 -4.286134488381309E-005
 -4.685785788767113E-005
  2.581350689705496E-005
  1.635497973558282E-005
  8.410211966365523E-006
  1.698134793252935E-006
 -4.037762978372630E-006
 -9.014139744171542E-006
 -1.340563005313855E-005
 -1.735154481920064E-005
 -2.096594643858175E-005
 -2.434748887866160E-005
 -2.758761063696763E-005
 -3.077681319058645E-005
 -3.400891055055705E-005
 -3.738363601648364E-005
 -4.100776462379312E-005
  2.414422528152678E-005
  1.646726385109492E-005
  1.001611790082885E-005
  4.508498056641044E-006
 -2.938259640019794E-007
 -4.568630431416244E-006
 -8.439844248535188E-006
 -1.199428552255536E-005
 -1.529776146343374E-005
 -1.840704586537440E-005
 -2.137837805218052E-005
 -2.427347708460570E-005
 -2.716372777102612E-005
 -3.013187618229798E-005
 -3.327388062879745E-005
  2.244577781646713E-005
  1.685236301397583E-005
  1.217163332937449E-005
  8.082638335305223E-006
  4.360706146720348E-006
  8.837721833838680E-007
 -2.400744462155119E-006
 -5.511716874254799E-006
 -8.457133268322805E-006
 -1.124510009005652E-005
 -1.389064610377925E-005
 -1.642231477701396E-005
 -1.888572110614420E-005
 -2.134665432740462E-005
 -2.388981311068229E-005
  2.081123526211037E-005
  1.769839893833948E-005
  1.510290418961265E-005
  1.261437645544691E-005
  1.004661303298486E-005
  7.384798078587660E-006
  4.685154747448851E-006
  2.012183819758830E-006
 -5.772844159475324E-007
 -3.038272265069947E-006
 -5.339118177847831E-006
 -7.465401556354558E-006
 -9.434156763258151E-006
 -1.128763748970935E-005
 -1.310140424894713E-005
  1.937793103416652E-005
  1.936213730350132E-005
  1.921852078793132E-005
  1.840600634366423E-005
  1.692383899593421E-005
  1.498822219852988E-005
  1.279185269868951E-005
  1.048909273114406E-005
  8.200517778726417E-006
  6.022809037840590E-006
  4.036726462536611E-006
  2.309746392352714E-006
  8.886495575465312E-007
 -2.690589452810728E-007
 -1.190474849815649E-006
  1.843890651260244E-005
  2.269229515546160E-005
  2.522697074641902E-005
  2.579865771295951E-005
  2.514026025117375E-005
  2.372214400426425E-005
  2.186889910607123E-005
  1.980990025323412E-005
  1.771691041495784E-005
  1.572856620262068E-005
  1.396861638318493E-005
  1.256100323999867E-005
  1.163897048214880E-005
  1.134003505647190E-005
  1.142513190659461E-005
  1.989937914524666E-005
  2.976646247275723E-005
  3.375778718108283E-005
  3.503056822240805E-005
  3.474777134593021E-005
  3.354374080200894E-005
  3.181345548528939E-005
  2.982711170305581E-005
  2.778488781886409E-005
  2.584982385083413E-005
  2.417230630085258E-005
  2.291428395322764E-005
  2.228162004333759E-005
  2.258833273116770E-005
  2.430085347535387E-005
SCALARS poroP double 
LOOKUP_TABLE default
  5.202765729064762E-005
  3.478438222233338E-005
  2.029309793350233E-005
  8.671317617566246E-006
  1.089819817788461E-006
  0.000000000000000E+000
  0.000000000000000E+000
  0.000000000000000E+000
  0.000000000000000E+000
  0.000000000000000E+000
  0.000000000000000E+000
  0.000000000000000E+000
  0.000000000000000E+000
  0.000000000000000E+000
  0.000000000000000E+000
  2.124239277288127E-005
  1.027579227997638E-005
  2.330858778108952E-006
  0.000000000000000E+000
  0.000000000000000E+000
  0.000000000000000E+000
  0.000000000000000E+000
  0.000000000000000E+000
  0.000000000000000E+000
  0.000000000000000E+000
  0.000000000000000E+000
  0.000000000000000E+000
  0.000000000000000E+000
  0.000000000000000E+000
  0.000000000000000E+000
  9.813852743890592E-007
  0.000000000000000E+000
  0.000000000000000E+000
  0.000000000000000E+000
  0.000000000000000E+000
  0.000000000000000E+000
  0.000000000000000E+000
  0.000000000000000E+000
  0.000000000000000E+000
  0.000000000000000E+000
  0.000000000000000E+000
  0.000000000000000E+000
  0.000000000000000E+000
  0.000000000000000E+000
  0.000000000000000E+000
  0.000000000000000E+000
  0.000000000000000E+000
  0.000000000000000E+000
  0.000000000000000E+000
  0.000000000000000E+000
  0.000000000000000E+000
  0.000000000000000E+000
  0.000000000000000E+000
  0.000000000000000E+000
  0.000000000000000E+000
  0.000000000000000E+000
  0.000000000000000E+000
  0.000000000000000E+000
  0.000000000000000E+000
  0.000000000000000E+000
  0.000000000000000E+000
  0.000000000000000E+000
  0.000000000000000E+000
  0.000000000000000E+000
  0.000000000000000E+000
  0.000000000000000E+000
  0.000000000000000E+000
  0.000000000000000E+000
  0.000000000000000E+000
  0.000000000000000E+000
  0.000000000000000E+000
  0.000000000000000E+000
  0.000000000000000E+000
  0.000000000000000E+000
  0.000000000000000E+000
  0.000000000000000E+000
  0.000000000000000E+000
  0.000000000000000E+000
  0.000000000000000E+000
  0.000000000000000E+000
  0.000000000000000E+000
  0.000000000000000E+000
  0.000000000000000E+000
  0.000000000000000E+000
  0.000000000000000E+000
  0.000000000000000E+000
  0.000000000000000E+000
  0.000000000000000E+000
  0.000000000000000E+000
  0.000000000000000E+000
  0.000000000000000E+000
  0.000000000000000E+000
  0.000000000000000E+000
  0.000000000000000E+000
  0.000000000000000E+000
  0.000000000000000E+000
  0.000000000000000E+000
  0.000000000000000E+000
  0.000000000000000E+000
  0.000000000000000E+000
  0.000000000000000E+000
  0.000000000000000E+000
  0.000000000000000E+000
  0.000000000000000E+000
  0.000000000000000E+000
  0.000000000000000E+000
  0.000000000000000E+000
  0.000000000000000E+000
  0.000000000000000E+000
  0.000000000000000E+000
  0.000000000000000E+000
  0.000000000000000E+000
  0.000000000000000E+000
  0.000000000000000E+000
  0.000000000000000E+000
  0.000000000000000E+000
  0.000000000000000E+000
  0.000000000000000E+000
  0.000000000000000E+000
  0.000000000000000E+000
  0.000000000000000E+000
  0.000000000000000E+000
  0.000000000000000E+000
  0.000000000000000E+000
  0.000000000000000E+000
  0.000000000000000E+000
  0.000000000000000E+000
  0.000000000000000E+000
  0.000000000000000E+000
  0.000000000000000E+000
  0.000000000000000E+000
  0.000000000000000E+000
  0.000000000000000E+000
  0.000000000000000E+000
  0.000000000000000E+000
  0.000000000000000E+000
  0.000000000000000E+000
  0.000000000000000E+000
  0.000000000000000E+000
  0.000000000000000E+000
  0.000000000000000E+000
  0.000000000000000E+000
  0.000000000000000E+000
  0.000000000000000E+000
  0.000000000000000E+000
  0.000000000000000E+000
  0.000000000000000E+000
  0.000000000000000E+000
  0.000000000000000E+000
  0.000000000000000E+000
  0.000000000000000E+000
  0.000000000000000E+000
  0.000000000000000E+000
  0.000000000000000E+000
  0.000000000000000E+000
  0.000000000000000E+000
  0.000000000000000E+000
  0.000000000000000E+000
  0.000000000000000E+000
  0.000000000000000E+000
  0.000000000000000E+000
  0.000000000000000E+000
  0.000000000000000E+000
  0.000000000000000E+000
  0.000000000000000E+000
  0.000000000000000E+000
  0.000000000000000E+000
  0.000000000000000E+000
  0.000000000000000E+000
  0.000000000000000E+000
  0.000000000000000E+000
  0.000000000000000E+000
  0.000000000000000E+000
  0.000000000000000E+000
  0.000000000000000E+000
  0.000000000000000E+000
  0.000000000000000E+000
  0.000000000000000E+000
  0.000000000000000E+000
  0.000000000000000E+000
  0.000000000000000E+000
  0.000000000000000E+000
  0.000000000000000E+000
  0.000000000000000E+000
  0.000000000000000E+000
  0.000000000000000E+000
  0.000000000000000E+000
  0.000000000000000E+000
  0.000000000000000E+000
  0.000000000000000E+000
  0.000000000000000E+000
  0.000000000000000E+000
  0.000000000000000E+000
  0.000000000000000E+000
  0.000000000000000E+000
  0.000000000000000E+000
  0.000000000000000E+000
  0.000000000000000E+000
  0.000000000000000E+000
  0.000000000000000E+000
  0.000000000000000E+000
  0.000000000000000E+000
  0.000000000000000E+000
  0.000000000000000E+000
  0.000000000000000E+000
  0.000000000000000E+000
  0.000000000000000E+000
  0.000000000000000E+000
  0.000000000000000E+000
  0.000000000000000E+000
  0.000000000000000E+000
  0.000000000000000E+000
  0.000000000000000E+000
  0.000000000000000E+000
  0.000000000000000E+000
  0.000000000000000E+000
  0.000000000000000E+000
  0.000000000000000E+000
  0.000000000000000E+000
  0.000000000000000E+000
  0.000000000000000E+000
  0.000000000000000E+000
  0.000000000000000E+000
  0.000000000000000E+000
  0.000000000000000E+000
  0.000000000000000E+000
  0.000000000000000E+000
  0.000000000000000E+000
  0.000000000000000E+000
  0.000000000000000E+000
  0.000000000000000E+000
  0.000000000000000E+000
  0.000000000000000E+000
  0.000000000000000E+000
  0.000000000000000E+000
  0.000000000000000E+000
  0.000000000000000E+000
  0.000000000000000E+000
  0.000000000000000E+000
  0.000000000000000E+000
  0.000000000000000E+000
  0.000000000000000E+000
  0.000000000000000E+000
  0.000000000000000E+000
  0.000000000000000E+000
  0.000000000000000E+000
  0.000000000000000E+000
  0.000000000000000E+000
  0.000000000000000E+000
  0.000000000000000E+000
  0.000000000000000E+000
  0.000000000000000E+000
  0.000000000000000E+000
  0.000000000000000E+000
  0.000000000000000E+000
  0.000000000000000E+000
  0.000000000000000E+000
  0.000000000000000E+000
  0.000000000000000E+000
  0.000000000000000E+000
  0.000000000000000E+000
  0.000000000000000E+000
  0.000000000000000E+000
  0.000000000000000E+000
  0.000000000000000E+000
  0.000000000000000E+000
  0.000000000000000E+000
  0.000000000000000E+000
  0.000000000000000E+000
  0.000000000000000E+000
  0.000000000000000E+000
  0.000000000000000E+000
  0.000000000000000E+000
  0.000000000000000E+000
  0.000000000000000E+000
  0.000000000000000E+000
  0.000000000000000E+000
  0.000000000000000E+000
  0.000000000000000E+000
  0.000000000000000E+000
  0.000000000000000E+000
  0.000000000000000E+000
  0.000000000000000E+000
  0.000000000000000E+000
  0.000000000000000E+000
  0.000000000000000E+000
  0.000000000000000E+000
  0.000000000000000E+000
  0.000000000000000E+000
  0.000000000000000E+000
  0.000000000000000E+000
  0.000000000000000E+000
  0.000000000000000E+000
  0.000000000000000E+000
  0.000000000000000E+000
  0.000000000000000E+000
  0.000000000000000E+000
  0.000000000000000E+000
  0.000000000000000E+000
  0.000000000000000E+000
  0.000000000000000E+000
  0.000000000000000E+000
  0.000000000000000E+000
  0.000000000000000E+000
  0.000000000000000E+000
  0.000000000000000E+000
  0.000000000000000E+000
  0.000000000000000E+000
  0.000000000000000E+000
  0.000000000000000E+000
  0.000000000000000E+000
  0.000000000000000E+000
  0.000000000000000E+000
  0.000000000000000E+000
  0.000000000000000E+000
  0.000000000000000E+000
  0.000000000000000E+000
  0.000000000000000E+000
  0.000000000000000E+000
  0.000000000000000E+000
  0.000000000000000E+000
  0.000000000000000E+000
  0.000000000000000E+000
  0.000000000000000E+000
  0.000000000000000E+000
  0.000000000000000E+000
  0.000000000000000E+000
  0.000000000000000E+000
  0.000000000000000E+000
  0.000000000000000E+000
  0.000000000000000E+000
  0.000000000000000E+000
  0.000000000000000E+000
  0.000000000000000E+000
  0.000000000000000E+000
  0.000000000000000E+000
  0.000000000000000E+000
  0.000000000000000E+000
  0.000000000000000E+000
  0.000000000000000E+000
  0.000000000000000E+000
  0.000000000000000E+000
  0.000000000000000E+000
  0.000000000000000E+000
  0.000000000000000E+000
  0.000000000000000E+000
  0.000000000000000E+000
  0.000000000000000E+000
  0.000000000000000E+000
  0.000000000000000E+000
  0.000000000000000E+000
  0.000000000000000E+000
  0.000000000000000E+000
  0.000000000000000E+000
  0.000000000000000E+000
  0.000000000000000E+000
  0.000000000000000E+000
  0.000000000000000E+000
  0.000000000000000E+000
  0.000000000000000E+000
  0.000000000000000E+000
  0.000000000000000E+000
  0.000000000000000E+000
  0.000000000000000E+000
  0.000000000000000E+000
  0.000000000000000E+000
  0.000000000000000E+000
  0.000000000000000E+000
  0.000000000000000E+000
  0.000000000000000E+000
  0.000000000000000E+000
  0.000000000000000E+000
  0.000000000000000E+000
  0.000000000000000E+000
  0.000000000000000E+000
  0.000000000000000E+000
  0.000000000000000E+000
  0.000000000000000E+000
  0.000000000000000E+000
  0.000000000000000E+000
  0.000000000000000E+000
  0.000000000000000E+000
  0.000000000000000E+000
  0.000000000000000E+000
  0.000000000000000E+000
  0.000000000000000E+000
  0.000000000000000E+000
  0.000000000000000E+000
  0.000000000000000E+000
  0.000000000000000E+000
  0.000000000000000E+000
  0.000000000000000E+000
  0.000000000000000E+000
  0.000000000000000E+000
  0.000000000000000E+000
  0.000000000000000E+000
  0.000000000000000E+000
  0.000000000000000E+000
  0.000000000000000E+000
  0.000000000000000E+000
  0.000000000000000E+000
  0.000000000000000E+000
  0.000000000000000E+000
  0.000000000000000E+000
  0.000000000000000E+000
  0.000000000000000E+000
  0.000000000000000E+000
  0.000000000000000E+000
  0.000000000000000E+000
  0.000000000000000E+000
  0.000000000000000E+000
  0.000000000000000E+000
  0.000000000000000E+000
  0.000000000000000E+000
  0.000000000000000E+000
  0.000000000000000E+000
  0.000000000000000E+000
  0.000000000000000E+000
  0.000000000000000E+000
  0.000000000000000E+000
  0.000000000000000E+000
  0.000000000000000E+000
  0.000000000000000E+000
  0.000000000000000E+000
  0.000000000000000E+000
  0.000000000000000E+000
  0.000000000000000E+000
  0.000000000000000E+000
  0.000000000000000E+000
  0.000000000000000E+000
  0.000000000000000E+000
  0.000000000000000E+000
  0.000000000000000E+000
  0.000000000000000E+000
  0.000000000000000E+000
  0.000000000000000E+000
  0.000000000000000E+000
  0.000000000000000E+000
  0.000000000000000E+000
  0.000000000000000E+000
  0.000000000000000E+000
  0.000000000000000E+000
  0.000000000000000E+000
  0.000000000000000E+000
  0.000000000000000E+000
  0.000000000000000E+000
  0.000000000000000E+000
  0.000000000000000E+000
  0.000000000000000E+000
  0.000000000000000E+000
SCALARS elementIsPlast double 
LOOKUP_TABLE default
  0.000000000000000E+000
   1.00000000000000     
   1.00000000000000     
   1.00000000000000     
   1.00000000000000     
  0.000000000000000E+000
  0.000000000000000E+000
  0.000000000000000E+000
  0.000000000000000E+000
  0.000000000000000E+000
  0.000000000000000E+000
  0.000000000000000E+000
  0.000000000000000E+000
  0.000000000000000E+000
  0.000000000000000E+000
   1.00000000000000     
   1.00000000000000     
   1.00000000000000     
  0.000000000000000E+000
  0.000000000000000E+000
  0.000000000000000E+000
  0.000000000000000E+000
  0.000000000000000E+000
  0.000000000000000E+000
  0.000000000000000E+000
  0.000000000000000E+000
  0.000000000000000E+000
  0.000000000000000E+000
  0.000000000000000E+000
  0.000000000000000E+000
   1.00000000000000     
  0.000000000000000E+000
  0.000000000000000E+000
  0.000000000000000E+000
  0.000000000000000E+000
  0.000000000000000E+000
  0.000000000000000E+000
  0.000000000000000E+000
  0.000000000000000E+000
  0.000000000000000E+000
  0.000000000000000E+000
  0.000000000000000E+000
  0.000000000000000E+000
  0.000000000000000E+000
  0.000000000000000E+000
  0.000000000000000E+000
  0.000000000000000E+000
  0.000000000000000E+000
  0.000000000000000E+000
  0.000000000000000E+000
  0.000000000000000E+000
  0.000000000000000E+000
  0.000000000000000E+000
  0.000000000000000E+000
  0.000000000000000E+000
  0.000000000000000E+000
  0.000000000000000E+000
  0.000000000000000E+000
  0.000000000000000E+000
  0.000000000000000E+000
  0.000000000000000E+000
  0.000000000000000E+000
  0.000000000000000E+000
  0.000000000000000E+000
  0.000000000000000E+000
  0.000000000000000E+000
  0.000000000000000E+000
  0.000000000000000E+000
  0.000000000000000E+000
  0.000000000000000E+000
  0.000000000000000E+000
  0.000000000000000E+000
  0.000000000000000E+000
  0.000000000000000E+000
  0.000000000000000E+000
  0.000000000000000E+000
  0.000000000000000E+000
  0.000000000000000E+000
  0.000000000000000E+000
  0.000000000000000E+000
  0.000000000000000E+000
  0.000000000000000E+000
  0.000000000000000E+000
  0.000000000000000E+000
  0.000000000000000E+000
  0.000000000000000E+000
  0.000000000000000E+000
  0.000000000000000E+000
  0.000000000000000E+000
  0.000000000000000E+000
  0.000000000000000E+000
  0.000000000000000E+000
  0.000000000000000E+000
  0.000000000000000E+000
  0.000000000000000E+000
  0.000000000000000E+000
  0.000000000000000E+000
  0.000000000000000E+000
  0.000000000000000E+000
  0.000000000000000E+000
  0.000000000000000E+000
  0.000000000000000E+000
  0.000000000000000E+000
  0.000000000000000E+000
  0.000000000000000E+000
  0.000000000000000E+000
  0.000000000000000E+000
  0.000000000000000E+000
  0.000000000000000E+000
  0.000000000000000E+000
  0.000000000000000E+000
  0.000000000000000E+000
  0.000000000000000E+000
  0.000000000000000E+000
  0.000000000000000E+000
  0.000000000000000E+000
  0.000000000000000E+000
  0.000000000000000E+000
  0.000000000000000E+000
  0.000000000000000E+000
  0.000000000000000E+000
  0.000000000000000E+000
  0.000000000000000E+000
  0.000000000000000E+000
  0.000000000000000E+000
  0.000000000000000E+000
  0.000000000000000E+000
  0.000000000000000E+000
  0.000000000000000E+000
  0.000000000000000E+000
  0.000000000000000E+000
  0.000000000000000E+000
  0.000000000000000E+000
  0.000000000000000E+000
  0.000000000000000E+000
  0.000000000000000E+000
  0.000000000000000E+000
  0.000000000000000E+000
  0.000000000000000E+000
  0.000000000000000E+000
  0.000000000000000E+000
  0.000000000000000E+000
  0.000000000000000E+000
  0.000000000000000E+000
  0.000000000000000E+000
  0.000000000000000E+000
  0.000000000000000E+000
  0.000000000000000E+000
  0.000000000000000E+000
  0.000000000000000E+000
  0.000000000000000E+000
  0.000000000000000E+000
  0.000000000000000E+000
  0.000000000000000E+000
  0.000000000000000E+000
  0.000000000000000E+000
  0.000000000000000E+000
  0.000000000000000E+000
  0.000000000000000E+000
  0.000000000000000E+000
  0.000000000000000E+000
  0.000000000000000E+000
  0.000000000000000E+000
  0.000000000000000E+000
  0.000000000000000E+000
  0.000000000000000E+000
  0.000000000000000E+000
  0.000000000000000E+000
  0.000000000000000E+000
  0.000000000000000E+000
  0.000000000000000E+000
  0.000000000000000E+000
  0.000000000000000E+000
  0.000000000000000E+000
  0.000000000000000E+000
  0.000000000000000E+000
  0.000000000000000E+000
  0.000000000000000E+000
  0.000000000000000E+000
  0.000000000000000E+000
  0.000000000000000E+000
  0.000000000000000E+000
  0.000000000000000E+000
  0.000000000000000E+000
  0.000000000000000E+000
  0.000000000000000E+000
  0.000000000000000E+000
  0.000000000000000E+000
  0.000000000000000E+000
  0.000000000000000E+000
  0.000000000000000E+000
  0.000000000000000E+000
  0.000000000000000E+000
  0.000000000000000E+000
  0.000000000000000E+000
  0.000000000000000E+000
  0.000000000000000E+000
  0.000000000000000E+000
  0.000000000000000E+000
  0.000000000000000E+000
  0.000000000000000E+000
  0.000000000000000E+000
  0.000000000000000E+000
  0.000000000000000E+000
  0.000000000000000E+000
  0.000000000000000E+000
  0.000000000000000E+000
  0.000000000000000E+000
  0.000000000000000E+000
  0.000000000000000E+000
  0.000000000000000E+000
  0.000000000000000E+000
  0.000000000000000E+000
  0.000000000000000E+000
  0.000000000000000E+000
  0.000000000000000E+000
  0.000000000000000E+000
  0.000000000000000E+000
  0.000000000000000E+000
  0.000000000000000E+000
  0.000000000000000E+000
  0.000000000000000E+000
  0.000000000000000E+000
  0.000000000000000E+000
  0.000000000000000E+000
  0.000000000000000E+000
  0.000000000000000E+000
  0.000000000000000E+000
  0.000000000000000E+000
  0.000000000000000E+000
  0.000000000000000E+000
  0.000000000000000E+000
  0.000000000000000E+000
  0.000000000000000E+000
  0.000000000000000E+000
  0.000000000000000E+000
  0.000000000000000E+000
  0.000000000000000E+000
  0.000000000000000E+000
  0.000000000000000E+000
  0.000000000000000E+000
  0.000000000000000E+000
  0.000000000000000E+000
  0.000000000000000E+000
  0.000000000000000E+000
  0.000000000000000E+000
  0.000000000000000E+000
  0.000000000000000E+000
  0.000000000000000E+000
  0.000000000000000E+000
  0.000000000000000E+000
  0.000000000000000E+000
  0.000000000000000E+000
  0.000000000000000E+000
  0.000000000000000E+000
  0.000000000000000E+000
  0.000000000000000E+000
  0.000000000000000E+000
  0.000000000000000E+000
  0.000000000000000E+000
  0.000000000000000E+000
  0.000000000000000E+000
  0.000000000000000E+000
  0.000000000000000E+000
  0.000000000000000E+000
  0.000000000000000E+000
  0.000000000000000E+000
  0.000000000000000E+000
  0.000000000000000E+000
  0.000000000000000E+000
  0.000000000000000E+000
  0.000000000000000E+000
  0.000000000000000E+000
  0.000000000000000E+000
  0.000000000000000E+000
  0.000000000000000E+000
  0.000000000000000E+000
  0.000000000000000E+000
  0.000000000000000E+000
  0.000000000000000E+000
  0.000000000000000E+000
  0.000000000000000E+000
  0.000000000000000E+000
  0.000000000000000E+000
  0.000000000000000E+000
  0.000000000000000E+000
  0.000000000000000E+000
  0.000000000000000E+000
  0.000000000000000E+000
  0.000000000000000E+000
  0.000000000000000E+000
  0.000000000000000E+000
  0.000000000000000E+000
  0.000000000000000E+000
  0.000000000000000E+000
  0.000000000000000E+000
  0.000000000000000E+000
  0.000000000000000E+000
  0.000000000000000E+000
  0.000000000000000E+000
  0.000000000000000E+000
  0.000000000000000E+000
  0.000000000000000E+000
  0.000000000000000E+000
  0.000000000000000E+000
  0.000000000000000E+000
  0.000000000000000E+000
  0.000000000000000E+000
  0.000000000000000E+000
  0.000000000000000E+000
  0.000000000000000E+000
  0.000000000000000E+000
  0.000000000000000E+000
  0.000000000000000E+000
  0.000000000000000E+000
  0.000000000000000E+000
  0.000000000000000E+000
  0.000000000000000E+000
  0.000000000000000E+000
  0.000000000000000E+000
  0.000000000000000E+000
  0.000000000000000E+000
  0.000000000000000E+000
  0.000000000000000E+000
  0.000000000000000E+000
  0.000000000000000E+000
  0.000000000000000E+000
  0.000000000000000E+000
  0.000000000000000E+000
  0.000000000000000E+000
  0.000000000000000E+000
  0.000000000000000E+000
  0.000000000000000E+000
  0.000000000000000E+000
  0.000000000000000E+000
  0.000000000000000E+000
  0.000000000000000E+000
  0.000000000000000E+000
  0.000000000000000E+000
  0.000000000000000E+000
  0.000000000000000E+000
  0.000000000000000E+000
  0.000000000000000E+000
  0.000000000000000E+000
  0.000000000000000E+000
  0.000000000000000E+000
  0.000000000000000E+000
  0.000000000000000E+000
  0.000000000000000E+000
  0.000000000000000E+000
  0.000000000000000E+000
  0.000000000000000E+000
  0.000000000000000E+000
  0.000000000000000E+000
  0.000000000000000E+000
  0.000000000000000E+000
  0.000000000000000E+000
  0.000000000000000E+000
  0.000000000000000E+000
  0.000000000000000E+000
  0.000000000000000E+000
  0.000000000000000E+000
  0.000000000000000E+000
  0.000000000000000E+000
  0.000000000000000E+000
  0.000000000000000E+000
  0.000000000000000E+000
  0.000000000000000E+000
  0.000000000000000E+000
  0.000000000000000E+000
  0.000000000000000E+000
  0.000000000000000E+000
  0.000000000000000E+000
  0.000000000000000E+000
  0.000000000000000E+000
  0.000000000000000E+000
  0.000000000000000E+000
  0.000000000000000E+000
  0.000000000000000E+000
  0.000000000000000E+000
  0.000000000000000E+000
  0.000000000000000E+000
  0.000000000000000E+000
  0.000000000000000E+000
  0.000000000000000E+000
  0.000000000000000E+000
  0.000000000000000E+000
  0.000000000000000E+000
  0.000000000000000E+000
  0.000000000000000E+000
  0.000000000000000E+000
  0.000000000000000E+000
  0.000000000000000E+000
  0.000000000000000E+000
  0.000000000000000E+000
  0.000000000000000E+000
  0.000000000000000E+000
  0.000000000000000E+000
  0.000000000000000E+000
  0.000000000000000E+000
  0.000000000000000E+000
  0.000000000000000E+000
  0.000000000000000E+000
  0.000000000000000E+000
  0.000000000000000E+000
  0.000000000000000E+000
  0.000000000000000E+000
  0.000000000000000E+000
  0.000000000000000E+000
  0.000000000000000E+000
  0.000000000000000E+000
  0.000000000000000E+000
  0.000000000000000E+000
  0.000000000000000E+000
  0.000000000000000E+000
  0.000000000000000E+000
  0.000000000000000E+000
  0.000000000000000E+000
  0.000000000000000E+000
  0.000000000000000E+000
  0.000000000000000E+000
  0.000000000000000E+000
  0.000000000000000E+000
  0.000000000000000E+000
  0.000000000000000E+000
  0.000000000000000E+000
  0.000000000000000E+000
  0.000000000000000E+000
  0.000000000000000E+000
  0.000000000000000E+000
  0.000000000000000E+000
  0.000000000000000E+000
  0.000000000000000E+000
  0.000000000000000E+000
  0.000000000000000E+000
  0.000000000000000E+000
  0.000000000000000E+000
  0.000000000000000E+000
  0.000000000000000E+000
  0.000000000000000E+000
  0.000000000000000E+000
  0.000000000000000E+000
  0.000000000000000E+000
  0.000000000000000E+000
  0.000000000000000E+000
  0.000000000000000E+000
  0.000000000000000E+000
  0.000000000000000E+000
  0.000000000000000E+000
  0.000000000000000E+000
SCALARS poroL double 
LOOKUP_TABLE default
  0.156312441815620     
  0.156283755245283     
  0.156251340318859     
  0.156219776975595     
  0.156193881060141     
  0.156177151026315     
  0.156165549161388     
  0.156156103566101     
  0.156147926008722     
  0.156140528216321     
  0.156133554045541     
  0.156126666074004     
  0.156119445937875     
  0.156111233185077     
  0.156100135157480     
  0.156233288271912     
  0.156210630954197     
  0.156191262145523     
  0.156178523693382     
  0.156168786685431     
  0.156158183159956     
  0.156148093346272     
  0.156139380640939     
  0.156131665544222     
  0.156124629275742     
  0.156117997436435     
  0.156111505541512     
  0.156104865515611     
  0.156097681611284     
  0.156090341798593     
  0.156175067105959     
  0.156166493088021     
  0.156161219764826     
  0.156154408474321     
  0.156146202791944     
  0.156137891423383     
  0.156129747352126     
  0.156122139223468     
  0.156115183804179     
  0.156108757548253     
  0.156102708354555     
  0.156096885312379     
  0.156091154410745     
  0.156085550490418     
  0.156080311131961     
  0.156149205022378     
  0.156143051284917     
  0.156137197980524     
  0.156131255778579     
  0.156124793231460     
  0.156118020891111     
  0.156111314266197     
  0.156104872286777     
  0.156098808673106     
  0.156093138248281     
  0.156087815668905     
  0.156082793085858     
  0.156078072125661     
  0.156073745971656     
  0.156070053743493     
  0.156124016728608     
  0.156119550810836     
  0.156114763058186     
  0.156109722470096     
  0.156104416072763     
  0.156098911793309     
  0.156093375804919     
  0.156087973908757     
  0.156082810690842     
  0.156077942268082     
  0.156073393502627     
  0.156069188714030     
  0.156065384818843     
  0.156062101908791     
  0.156059536556452     
  0.156100370422125     
  0.156097188149525     
  0.156093528472618     
  0.156089500267294     
  0.156085197270956     
  0.156080716835667     
  0.156076175607313     
  0.156071693099456     
  0.156067369541751     
  0.156063278997765     
  0.156059480481012     
  0.156056034921285     
  0.156053024710684     
  0.156050569131082     
  0.156048831336801     
  0.156078392768602     
  0.156076300756648     
  0.156073626195054     
  0.156070522810323     
  0.156067112763340     
  0.156063508008992     
  0.156059816607651     
  0.156056141644978     
  0.156052575834134     
  0.156049199812888     
  0.156046086867898     
  0.156043312704508     
  0.156040966016087     
  0.156039156617110     
  0.156038017879363     
  0.156058183416545     
  0.156056942371594     
  0.156055084277177     
  0.156052768702336     
  0.156050127512974     
  0.156047275160072     
  0.156044315561116     
  0.156041344147628     
  0.156038448188655     
  0.156035707782898     
  0.156033199221533     
  0.156031000321507     
  0.156029196106702     
  0.156027882667724     
  0.156027167550784     
  0.156039680043712     
  0.156039061948827     
  0.156037842328696     
  0.156036170948950     
  0.156034174038313     
  0.156031961040088     
  0.156029629307337     
  0.156027267071464     
  0.156024955276388     
  0.156022769461878     
  0.156020782317144     
  0.156019066816265     
  0.156017699118704     
  0.156016760146984     
  0.156016334873452     
  0.156022717819216     
  0.156022521153461     
  0.156021777097801     
  0.156020615128563     
  0.156019147301210     
  0.156017471761698     
  0.156015675878473     
  0.156013838665588     
  0.156012032729749     
  0.156010326067259     
  0.156008783941602     
  0.156007470728099     
  0.156006451301457     
  0.156005791377332     
  0.156005556287344     
  0.156007062850851     
  0.156007124348734     
  0.156006718976668     
  0.156005950856297     
  0.156004912663857     
  0.156003687042075     
  0.156002348267379     
  0.156000963858529     
  0.155999596036833     
  0.155998303077866     
  0.155997140554176     
  0.155996162347072     
  0.155995421165948     
  0.155994968246943     
  0.155994851941337     
  0.155992443561789     
  0.155992641937929     
  0.155992470074988     
  0.155992004798687     
  0.155991316808829     
  0.155990470685647     
  0.155989525437846     
  0.155988535280976     
  0.155987550475447     
  0.155986618127465     
  0.155985782866650     
  0.155985087272820     
  0.155984571875659     
  0.155984274530650     
  0.155984229006576     
  0.155978574376727     
  0.155978830015870     
  0.155978819802342     
  0.155978593269705     
  0.155978198272398     
  0.155977680128660     
  0.155977081360522     
  0.155976441777432     
  0.155975798720924     
  0.155975187339171     
  0.155974640779929     
  0.155974190186995     
  0.155973864374862     
  0.155973689058516     
  0.155973685541640     
  0.155965173081566     
  0.155965445458313     
  0.155965557617175     
  0.155965532893989     
  0.155965396558409     
  0.155965174471462     
  0.155964892285172     
  0.155964574991401     
  0.155964246664622     
  0.155963930276815     
  0.155963647484088     
  0.155963418294158     
  0.155963260528926     
  0.155963189005673     
  0.155963214380513     
  0.155951972886971     
  0.155952256974801     
  0.155952482770189     
  0.155952649055045     
  0.155952759458591     
  0.155952820892118     
  0.155952842413188     
  0.155952834382294     
  0.155952807797500     
  0.155952773717352     
  0.155952742701966     
  0.155952724214880     
  0.155952725936590     
  0.155952752948923     
  0.155952806761322     
  0.155938730405999     
  0.155939052802090     
  0.155939411389125     
  0.155939782235539     
  0.155940148645304     
  0.155940499549780     
  0.155940828183184     
  0.155941130951876     
  0.155941406429077     
  0.155941654429651     
  0.155941875137823     
  0.155942068271936     
  0.155942232275662     
  0.155942363527209     
  0.155942455559791     
  0.155925230595323     
  0.155925645792522     
  0.155926181403190     
  0.155926792585464     
  0.155927443784699     
  0.155928107208403     
  0.155928761408887     
  0.155929389924246     
  0.155929979959737     
  0.155930521118982     
  0.155931004212121     
  0.155931420175289     
  0.155931759134067     
  0.155932009635864     
  0.155932158065276     
  0.155911289528131     
  0.155911876589873     
  0.155912655842097     
  0.155913563128306     
  0.155914545497500     
  0.155915559857092     
  0.155916571513996     
  0.155917552594048     
  0.155918480382263     
  0.155919335662416     
  0.155920101151299     
  0.155920760123047     
  0.155921295306605     
  0.155921688118406     
  0.155921918265938     
  0.155896755679035     
  0.155897615489186     
  0.155898725016318     
  0.155900002027001     
  0.155901377514872     
  0.155902794612402     
  0.155904207095985     
  0.155905577525873     
  0.155906875146690     
  0.155908073719884     
  0.155909149470444     
  0.155910079317421     
  0.155910839530637     
  0.155911404919031     
  0.155911748610691     
  0.155881510235867     
  0.155882763483970     
  0.155884308047566     
  0.155886044324697     
  0.155887888378186     
  0.155889771181106     
  0.155891637029382     
  0.155893441252431     
  0.155895147478807     
  0.155896724759863     
  0.155898144844134     
  0.155899379858245     
  0.155900400605131     
  0.155901175637773     
  0.155901671200788     
  0.155865466822299     
  0.155867252944866     
  0.155869354208028     
  0.155871653585380     
  0.155874053038622     
  0.155876473153799     
  0.155878851293416     
  0.155881138580243     
  0.155883296195887     
  0.155885291488083     
  0.155887094308879     
  0.155888673926380     
  0.155889996792270     
  0.155891025394429     
  0.155891718339918     
  0.155848570931631     
  0.155851048380153     
  0.155853844581288     
  0.155856823916209     
  0.155859874741781     
  0.155862909393668     
  0.155865861676715     
  0.155868682566241     
  0.155871335013252     
  0.155873788613743     
  0.155876014680892     
  0.155877982103617     
  0.155879654336863     
  0.155880987855809     
  0.155881932342427     
  0.155830799357197     
  0.155834147854090     
  0.155837794732863     
  0.155841582990905     
  0.155845387638439     
  0.155849115767373     
  0.155852702456565     
  0.155856104169523     
  0.155859291283916     
  0.155862240837821     
  0.155864930006519     
  0.155867330589631     
  0.155869404841167     
  0.155871103202689     
  0.155872364463377     
  0.155812160013313     
  0.155816585998412     
  0.155821259483182     
  0.155825996953928     
  0.155830660622792     
  0.155835157384748     
  0.155839431031729     
  0.155843451496858     
  0.155847204077824     
  0.155850679920571     
  0.155853867807910     
  0.155856746948632     
  0.155859281074064     
  0.155861414665319     
  0.155863072765867     
  0.155792692890974     
  0.155798440456402     
  0.155804341730459     
  0.155810178512332     
  0.155815802856152     
  0.155821131231402     
  0.155826128228086     
  0.155830788446120     
  0.155835121518623     
  0.155839140768877     
  0.155842853848053     
  0.155846253873868     
  0.155849310442817     
  0.155851962982370     
  0.155854118615774     
  0.155772474038957     
  0.155779845778567     
  0.155787209138455     
  0.155794300019806     
  0.155800970885022     
  0.155807168322688     
  0.155812897473146     
  0.155818192429718     
  0.155823097510468     
  0.155827656699694     
  0.155831905448321     
  0.155835860033312     
  0.155839504894513     
  0.155842777216285     
  0.155845561332130     
  0.155751627269410     
  0.155761025460465     
  0.155770126077144     
  0.155778613028138     
  0.155786375201398     
  0.155793432589117     
  0.155799861521227     
  0.155805750815446     
  0.155811188243588     
  0.155816255259340     
  0.155821023442673     
  0.155825547979625     
  0.155829843268274     
  0.155833859556033     
  0.155837448873776     
  0.155730365963992     
  0.155742369312614     
  0.155753515133907     
  0.155763470378424     
  0.155772275758693     
  0.155780112833993     
  0.155787155076597     
  0.155793555862552     
  0.155799449363545     
  0.155804956249490     
  0.155810189159007     
  0.155815254155850     
  0.155820246623957     
  0.155825148046033     
  0.155829804753182     
  0.155709128467191     
  0.155724665156669     
  0.155738052967498     
  0.155749299909533     
  0.155758958505935     
  0.155767403630094     
  0.155774912723626     
  0.155781698341277     
  0.155787934463453     
  0.155793774918254     
  0.155799368908143     
  0.155804877873213     
  0.155810490227238     
  0.155816474462168     
  0.155822561936220     
  0.155689633273966     
  0.155709636563808     
  0.155724485697748     
  0.155736529373132     
  0.155746683604335     
  0.155755477089402     
  0.155763253390568     
  0.155770260615917     
  0.155776695264471     
  0.155782729689018     
  0.155788534718532     
  0.155794306320407     
  0.155800314396716     
  0.155807003653389     
  0.155815668478797     
