# vtk DataFile Version 3.0
vtk output
ASCII
DATASET UNSTRUCTURED_GRID
POINTS       496 double 
  0.00000000E+00  3.00000000E+02  0.00000000E+00
  0.00000000E+00  2.80000000E+02  0.00000000E+00
  0.00000000E+00  2.60000000E+02  0.00000000E+00
  0.00000000E+00  2.40000000E+02  0.00000000E+00
  0.00000000E+00  2.20000000E+02  0.00000000E+00
  0.00000000E+00  2.00000000E+02  0.00000000E+00
  0.00000000E+00  1.80000000E+02  0.00000000E+00
  0.00000000E+00  1.60000000E+02  0.00000000E+00
  0.00000000E+00  1.40000000E+02  0.00000000E+00
  0.00000000E+00  1.20000000E+02  0.00000000E+00
  0.00000000E+00  1.00000000E+02  0.00000000E+00
  0.00000000E+00  8.00000000E+01  0.00000000E+00
  0.00000000E+00  6.00000000E+01  0.00000000E+00
  0.00000000E+00  4.00000000E+01  0.00000000E+00
  0.00000000E+00  2.00000000E+01  0.00000000E+00
  0.00000000E+00  4.99600361E-14  0.00000000E+00
  2.00000000E+01  3.00000000E+02  0.00000000E+00
  2.00000000E+01  2.80000000E+02  0.00000000E+00
  2.00000000E+01  2.60000000E+02  0.00000000E+00
  2.00000000E+01  2.40000000E+02  0.00000000E+00
  2.00000000E+01  2.20000000E+02  0.00000000E+00
  2.00000000E+01  2.00000000E+02  0.00000000E+00
  2.00000000E+01  1.80000000E+02  0.00000000E+00
  2.00000000E+01  1.60000000E+02  0.00000000E+00
  2.00000000E+01  1.40000000E+02  0.00000000E+00
  2.00000000E+01  1.20000000E+02  0.00000000E+00
  2.00000000E+01  1.00000000E+02  0.00000000E+00
  2.00000000E+01  8.00000000E+01  0.00000000E+00
  2.00000000E+01  6.00000000E+01  0.00000000E+00
  2.00000000E+01  4.00000000E+01  0.00000000E+00
  2.00000000E+01  2.00000000E+01  0.00000000E+00
  2.00000000E+01  4.99600361E-14  0.00000000E+00
  4.00000000E+01  3.00000000E+02  0.00000000E+00
  4.00000000E+01  2.80000000E+02  0.00000000E+00
  4.00000000E+01  2.60000000E+02  0.00000000E+00
  4.00000000E+01  2.40000000E+02  0.00000000E+00
  4.00000000E+01  2.20000000E+02  0.00000000E+00
  4.00000000E+01  2.00000000E+02  0.00000000E+00
  4.00000000E+01  1.80000000E+02  0.00000000E+00
  4.00000000E+01  1.60000000E+02  0.00000000E+00
  4.00000000E+01  1.40000000E+02  0.00000000E+00
  4.00000000E+01  1.20000000E+02  0.00000000E+00
  4.00000000E+01  1.00000000E+02  0.00000000E+00
  4.00000000E+01  8.00000000E+01  0.00000000E+00
  4.00000000E+01  6.00000000E+01  0.00000000E+00
  4.00000000E+01  4.00000000E+01  0.00000000E+00
  4.00000000E+01  2.00000000E+01  0.00000000E+00
  4.00000000E+01  4.99600361E-14  0.00000000E+00
  6.00000000E+01  3.00000000E+02  0.00000000E+00
  6.00000000E+01  2.80000000E+02  0.00000000E+00
  6.00000000E+01  2.60000000E+02  0.00000000E+00
  6.00000000E+01  2.40000000E+02  0.00000000E+00
  6.00000000E+01  2.20000000E+02  0.00000000E+00
  6.00000000E+01  2.00000000E+02  0.00000000E+00
  6.00000000E+01  1.80000000E+02  0.00000000E+00
  6.00000000E+01  1.60000000E+02  0.00000000E+00
  6.00000000E+01  1.40000000E+02  0.00000000E+00
  6.00000000E+01  1.20000000E+02  0.00000000E+00
  6.00000000E+01  1.00000000E+02  0.00000000E+00
  6.00000000E+01  8.00000000E+01  0.00000000E+00
  6.00000000E+01  6.00000000E+01  0.00000000E+00
  6.00000000E+01  4.00000000E+01  0.00000000E+00
  6.00000000E+01  2.00000000E+01  0.00000000E+00
  6.00000000E+01  4.99600361E-14  0.00000000E+00
  8.00000000E+01  3.00000000E+02  0.00000000E+00
  8.00000000E+01  2.80000000E+02  0.00000000E+00
  8.00000000E+01  2.60000000E+02  0.00000000E+00
  8.00000000E+01  2.40000000E+02  0.00000000E+00
  8.00000000E+01  2.20000000E+02  0.00000000E+00
  8.00000000E+01  2.00000000E+02  0.00000000E+00
  8.00000000E+01  1.80000000E+02  0.00000000E+00
  8.00000000E+01  1.60000000E+02  0.00000000E+00
  8.00000000E+01  1.40000000E+02  0.00000000E+00
  8.00000000E+01  1.20000000E+02  0.00000000E+00
  8.00000000E+01  1.00000000E+02  0.00000000E+00
  8.00000000E+01  8.00000000E+01  0.00000000E+00
  8.00000000E+01  6.00000000E+01  0.00000000E+00
  8.00000000E+01  4.00000000E+01  0.00000000E+00
  8.00000000E+01  2.00000000E+01  0.00000000E+00
  8.00000000E+01  4.99600361E-14  0.00000000E+00
  1.00000000E+02  3.00000000E+02  0.00000000E+00
  1.00000000E+02  2.80000000E+02  0.00000000E+00
  1.00000000E+02  2.60000000E+02  0.00000000E+00
  1.00000000E+02  2.40000000E+02  0.00000000E+00
  1.00000000E+02  2.20000000E+02  0.00000000E+00
  1.00000000E+02  2.00000000E+02  0.00000000E+00
  1.00000000E+02  1.80000000E+02  0.00000000E+00
  1.00000000E+02  1.60000000E+02  0.00000000E+00
  1.00000000E+02  1.40000000E+02  0.00000000E+00
  1.00000000E+02  1.20000000E+02  0.00000000E+00
  1.00000000E+02  1.00000000E+02  0.00000000E+00
  1.00000000E+02  8.00000000E+01  0.00000000E+00
  1.00000000E+02  6.00000000E+01  0.00000000E+00
  1.00000000E+02  4.00000000E+01  0.00000000E+00
  1.00000000E+02  2.00000000E+01  0.00000000E+00
  1.00000000E+02  4.99600361E-14  0.00000000E+00
  1.20000000E+02  3.00000000E+02  0.00000000E+00
  1.20000000E+02  2.80000000E+02  0.00000000E+00
  1.20000000E+02  2.60000000E+02  0.00000000E+00
  1.20000000E+02  2.40000000E+02  0.00000000E+00
  1.20000000E+02  2.20000000E+02  0.00000000E+00
  1.20000000E+02  2.00000000E+02  0.00000000E+00
  1.20000000E+02  1.80000000E+02  0.00000000E+00
  1.20000000E+02  1.60000000E+02  0.00000000E+00
  1.20000000E+02  1.40000000E+02  0.00000000E+00
  1.20000000E+02  1.20000000E+02  0.00000000E+00
  1.20000000E+02  1.00000000E+02  0.00000000E+00
  1.20000000E+02  8.00000000E+01  0.00000000E+00
  1.20000000E+02  6.00000000E+01  0.00000000E+00
  1.20000000E+02  4.00000000E+01  0.00000000E+00
  1.20000000E+02  2.00000000E+01  0.00000000E+00
  1.20000000E+02  4.99600361E-14  0.00000000E+00
  1.40000000E+02  3.00000000E+02  0.00000000E+00
  1.40000000E+02  2.80000000E+02  0.00000000E+00
  1.40000000E+02  2.60000000E+02  0.00000000E+00
  1.40000000E+02  2.40000000E+02  0.00000000E+00
  1.40000000E+02  2.20000000E+02  0.00000000E+00
  1.40000000E+02  2.00000000E+02  0.00000000E+00
  1.40000000E+02  1.80000000E+02  0.00000000E+00
  1.40000000E+02  1.60000000E+02  0.00000000E+00
  1.40000000E+02  1.40000000E+02  0.00000000E+00
  1.40000000E+02  1.20000000E+02  0.00000000E+00
  1.40000000E+02  1.00000000E+02  0.00000000E+00
  1.40000000E+02  8.00000000E+01  0.00000000E+00
  1.40000000E+02  6.00000000E+01  0.00000000E+00
  1.40000000E+02  4.00000000E+01  0.00000000E+00
  1.40000000E+02  2.00000000E+01  0.00000000E+00
  1.40000000E+02  4.99600361E-14  0.00000000E+00
  1.60000000E+02  3.00000000E+02  0.00000000E+00
  1.60000000E+02  2.80000000E+02  0.00000000E+00
  1.60000000E+02  2.60000000E+02  0.00000000E+00
  1.60000000E+02  2.40000000E+02  0.00000000E+00
  1.60000000E+02  2.20000000E+02  0.00000000E+00
  1.60000000E+02  2.00000000E+02  0.00000000E+00
  1.60000000E+02  1.80000000E+02  0.00000000E+00
  1.60000000E+02  1.60000000E+02  0.00000000E+00
  1.60000000E+02  1.40000000E+02  0.00000000E+00
  1.60000000E+02  1.20000000E+02  0.00000000E+00
  1.60000000E+02  1.00000000E+02  0.00000000E+00
  1.60000000E+02  8.00000000E+01  0.00000000E+00
  1.60000000E+02  6.00000000E+01  0.00000000E+00
  1.60000000E+02  4.00000000E+01  0.00000000E+00
  1.60000000E+02  2.00000000E+01  0.00000000E+00
  1.60000000E+02  4.99600361E-14  0.00000000E+00
  1.80000000E+02  3.00000000E+02  0.00000000E+00
  1.80000000E+02  2.80000000E+02  0.00000000E+00
  1.80000000E+02  2.60000000E+02  0.00000000E+00
  1.80000000E+02  2.40000000E+02  0.00000000E+00
  1.80000000E+02  2.20000000E+02  0.00000000E+00
  1.80000000E+02  2.00000000E+02  0.00000000E+00
  1.80000000E+02  1.80000000E+02  0.00000000E+00
  1.80000000E+02  1.60000000E+02  0.00000000E+00
  1.80000000E+02  1.40000000E+02  0.00000000E+00
  1.80000000E+02  1.20000000E+02  0.00000000E+00
  1.80000000E+02  1.00000000E+02  0.00000000E+00
  1.80000000E+02  8.00000000E+01  0.00000000E+00
  1.80000000E+02  6.00000000E+01  0.00000000E+00
  1.80000000E+02  4.00000000E+01  0.00000000E+00
  1.80000000E+02  2.00000000E+01  0.00000000E+00
  1.80000000E+02  4.99600361E-14  0.00000000E+00
  2.00000000E+02  3.00000000E+02  0.00000000E+00
  2.00000000E+02  2.80000000E+02  0.00000000E+00
  2.00000000E+02  2.60000000E+02  0.00000000E+00
  2.00000000E+02  2.40000000E+02  0.00000000E+00
  2.00000000E+02  2.20000000E+02  0.00000000E+00
  2.00000000E+02  2.00000000E+02  0.00000000E+00
  2.00000000E+02  1.80000000E+02  0.00000000E+00
  2.00000000E+02  1.60000000E+02  0.00000000E+00
  2.00000000E+02  1.40000000E+02  0.00000000E+00
  2.00000000E+02  1.20000000E+02  0.00000000E+00
  2.00000000E+02  1.00000000E+02  0.00000000E+00
  2.00000000E+02  8.00000000E+01  0.00000000E+00
  2.00000000E+02  6.00000000E+01  0.00000000E+00
  2.00000000E+02  4.00000000E+01  0.00000000E+00
  2.00000000E+02  2.00000000E+01  0.00000000E+00
  2.00000000E+02  4.99600361E-14  0.00000000E+00
  2.20000000E+02  3.00000000E+02  0.00000000E+00
  2.20000000E+02  2.80000000E+02  0.00000000E+00
  2.20000000E+02  2.60000000E+02  0.00000000E+00
  2.20000000E+02  2.40000000E+02  0.00000000E+00
  2.20000000E+02  2.20000000E+02  0.00000000E+00
  2.20000000E+02  2.00000000E+02  0.00000000E+00
  2.20000000E+02  1.80000000E+02  0.00000000E+00
  2.20000000E+02  1.60000000E+02  0.00000000E+00
  2.20000000E+02  1.40000000E+02  0.00000000E+00
  2.20000000E+02  1.20000000E+02  0.00000000E+00
  2.20000000E+02  1.00000000E+02  0.00000000E+00
  2.20000000E+02  8.00000000E+01  0.00000000E+00
  2.20000000E+02  6.00000000E+01  0.00000000E+00
  2.20000000E+02  4.00000000E+01  0.00000000E+00
  2.20000000E+02  2.00000000E+01  0.00000000E+00
  2.20000000E+02  4.99600361E-14  0.00000000E+00
  2.40000000E+02  3.00000000E+02  0.00000000E+00
  2.40000000E+02  2.80000000E+02  0.00000000E+00
  2.40000000E+02  2.60000000E+02  0.00000000E+00
  2.40000000E+02  2.40000000E+02  0.00000000E+00
  2.40000000E+02  2.20000000E+02  0.00000000E+00
  2.40000000E+02  2.00000000E+02  0.00000000E+00
  2.40000000E+02  1.80000000E+02  0.00000000E+00
  2.40000000E+02  1.60000000E+02  0.00000000E+00
  2.40000000E+02  1.40000000E+02  0.00000000E+00
  2.40000000E+02  1.20000000E+02  0.00000000E+00
  2.40000000E+02  1.00000000E+02  0.00000000E+00
  2.40000000E+02  8.00000000E+01  0.00000000E+00
  2.40000000E+02  6.00000000E+01  0.00000000E+00
  2.40000000E+02  4.00000000E+01  0.00000000E+00
  2.40000000E+02  2.00000000E+01  0.00000000E+00
  2.40000000E+02  4.99600361E-14  0.00000000E+00
  2.60000000E+02  3.00000000E+02  0.00000000E+00
  2.60000000E+02  2.80000000E+02  0.00000000E+00
  2.60000000E+02  2.60000000E+02  0.00000000E+00
  2.60000000E+02  2.40000000E+02  0.00000000E+00
  2.60000000E+02  2.20000000E+02  0.00000000E+00
  2.60000000E+02  2.00000000E+02  0.00000000E+00
  2.60000000E+02  1.80000000E+02  0.00000000E+00
  2.60000000E+02  1.60000000E+02  0.00000000E+00
  2.60000000E+02  1.40000000E+02  0.00000000E+00
  2.60000000E+02  1.20000000E+02  0.00000000E+00
  2.60000000E+02  1.00000000E+02  0.00000000E+00
  2.60000000E+02  8.00000000E+01  0.00000000E+00
  2.60000000E+02  6.00000000E+01  0.00000000E+00
  2.60000000E+02  4.00000000E+01  0.00000000E+00
  2.60000000E+02  2.00000000E+01  0.00000000E+00
  2.60000000E+02  4.99600361E-14  0.00000000E+00
  2.80000000E+02  3.00000000E+02  0.00000000E+00
  2.80000000E+02  2.80000000E+02  0.00000000E+00
  2.80000000E+02  2.60000000E+02  0.00000000E+00
  2.80000000E+02  2.40000000E+02  0.00000000E+00
  2.80000000E+02  2.20000000E+02  0.00000000E+00
  2.80000000E+02  2.00000000E+02  0.00000000E+00
  2.80000000E+02  1.80000000E+02  0.00000000E+00
  2.80000000E+02  1.60000000E+02  0.00000000E+00
  2.80000000E+02  1.40000000E+02  0.00000000E+00
  2.80000000E+02  1.20000000E+02  0.00000000E+00
  2.80000000E+02  1.00000000E+02  0.00000000E+00
  2.80000000E+02  8.00000000E+01  0.00000000E+00
  2.80000000E+02  6.00000000E+01  0.00000000E+00
  2.80000000E+02  4.00000000E+01  0.00000000E+00
  2.80000000E+02  2.00000000E+01  0.00000000E+00
  2.80000000E+02  4.99600361E-14  0.00000000E+00
  3.00000000E+02  3.00000000E+02  0.00000000E+00
  3.00000000E+02  2.80000000E+02  0.00000000E+00
  3.00000000E+02  2.60000000E+02  0.00000000E+00
  3.00000000E+02  2.40000000E+02  0.00000000E+00
  3.00000000E+02  2.20000000E+02  0.00000000E+00
  3.00000000E+02  2.00000000E+02  0.00000000E+00
  3.00000000E+02  1.80000000E+02  0.00000000E+00
  3.00000000E+02  1.60000000E+02  0.00000000E+00
  3.00000000E+02  1.40000000E+02  0.00000000E+00
  3.00000000E+02  1.20000000E+02  0.00000000E+00
  3.00000000E+02  1.00000000E+02  0.00000000E+00
  3.00000000E+02  8.00000000E+01  0.00000000E+00
  3.00000000E+02  6.00000000E+01  0.00000000E+00
  3.00000000E+02  4.00000000E+01  0.00000000E+00
  3.00000000E+02  2.00000000E+01  0.00000000E+00
  3.00000000E+02  4.99600361E-14  0.00000000E+00
  3.20000000E+02  3.00000000E+02  0.00000000E+00
  3.20000000E+02  2.80000000E+02  0.00000000E+00
  3.20000000E+02  2.60000000E+02  0.00000000E+00
  3.20000000E+02  2.40000000E+02  0.00000000E+00
  3.20000000E+02  2.20000000E+02  0.00000000E+00
  3.20000000E+02  2.00000000E+02  0.00000000E+00
  3.20000000E+02  1.80000000E+02  0.00000000E+00
  3.20000000E+02  1.60000000E+02  0.00000000E+00
  3.20000000E+02  1.40000000E+02  0.00000000E+00
  3.20000000E+02  1.20000000E+02  0.00000000E+00
  3.20000000E+02  1.00000000E+02  0.00000000E+00
  3.20000000E+02  8.00000000E+01  0.00000000E+00
  3.20000000E+02  6.00000000E+01  0.00000000E+00
  3.20000000E+02  4.00000000E+01  0.00000000E+00
  3.20000000E+02  2.00000000E+01  0.00000000E+00
  3.20000000E+02  4.99600361E-14  0.00000000E+00
  3.40000000E+02  3.00000000E+02  0.00000000E+00
  3.40000000E+02  2.80000000E+02  0.00000000E+00
  3.40000000E+02  2.60000000E+02  0.00000000E+00
  3.40000000E+02  2.40000000E+02  0.00000000E+00
  3.40000000E+02  2.20000000E+02  0.00000000E+00
  3.40000000E+02  2.00000000E+02  0.00000000E+00
  3.40000000E+02  1.80000000E+02  0.00000000E+00
  3.40000000E+02  1.60000000E+02  0.00000000E+00
  3.40000000E+02  1.40000000E+02  0.00000000E+00
  3.40000000E+02  1.20000000E+02  0.00000000E+00
  3.40000000E+02  1.00000000E+02  0.00000000E+00
  3.40000000E+02  8.00000000E+01  0.00000000E+00
  3.40000000E+02  6.00000000E+01  0.00000000E+00
  3.40000000E+02  4.00000000E+01  0.00000000E+00
  3.40000000E+02  2.00000000E+01  0.00000000E+00
  3.40000000E+02  4.99600361E-14  0.00000000E+00
  3.60000000E+02  3.00000000E+02  0.00000000E+00
  3.60000000E+02  2.80000000E+02  0.00000000E+00
  3.60000000E+02  2.60000000E+02  0.00000000E+00
  3.60000000E+02  2.40000000E+02  0.00000000E+00
  3.60000000E+02  2.20000000E+02  0.00000000E+00
  3.60000000E+02  2.00000000E+02  0.00000000E+00
  3.60000000E+02  1.80000000E+02  0.00000000E+00
  3.60000000E+02  1.60000000E+02  0.00000000E+00
  3.60000000E+02  1.40000000E+02  0.00000000E+00
  3.60000000E+02  1.20000000E+02  0.00000000E+00
  3.60000000E+02  1.00000000E+02  0.00000000E+00
  3.60000000E+02  8.00000000E+01  0.00000000E+00
  3.60000000E+02  6.00000000E+01  0.00000000E+00
  3.60000000E+02  4.00000000E+01  0.00000000E+00
  3.60000000E+02  2.00000000E+01  0.00000000E+00
  3.60000000E+02  4.99600361E-14  0.00000000E+00
  3.80000000E+02  3.00000000E+02  0.00000000E+00
  3.80000000E+02  2.80000000E+02  0.00000000E+00
  3.80000000E+02  2.60000000E+02  0.00000000E+00
  3.80000000E+02  2.40000000E+02  0.00000000E+00
  3.80000000E+02  2.20000000E+02  0.00000000E+00
  3.80000000E+02  2.00000000E+02  0.00000000E+00
  3.80000000E+02  1.80000000E+02  0.00000000E+00
  3.80000000E+02  1.60000000E+02  0.00000000E+00
  3.80000000E+02  1.40000000E+02  0.00000000E+00
  3.80000000E+02  1.20000000E+02  0.00000000E+00
  3.80000000E+02  1.00000000E+02  0.00000000E+00
  3.80000000E+02  8.00000000E+01  0.00000000E+00
  3.80000000E+02  6.00000000E+01  0.00000000E+00
  3.80000000E+02  4.00000000E+01  0.00000000E+00
  3.80000000E+02  2.00000000E+01  0.00000000E+00
  3.80000000E+02  4.99600361E-14  0.00000000E+00
  4.00000000E+02  3.00000000E+02  0.00000000E+00
  4.00000000E+02  2.80000000E+02  0.00000000E+00
  4.00000000E+02  2.60000000E+02  0.00000000E+00
  4.00000000E+02  2.40000000E+02  0.00000000E+00
  4.00000000E+02  2.20000000E+02  0.00000000E+00
  4.00000000E+02  2.00000000E+02  0.00000000E+00
  4.00000000E+02  1.80000000E+02  0.00000000E+00
  4.00000000E+02  1.60000000E+02  0.00000000E+00
  4.00000000E+02  1.40000000E+02  0.00000000E+00
  4.00000000E+02  1.20000000E+02  0.00000000E+00
  4.00000000E+02  1.00000000E+02  0.00000000E+00
  4.00000000E+02  8.00000000E+01  0.00000000E+00
  4.00000000E+02  6.00000000E+01  0.00000000E+00
  4.00000000E+02  4.00000000E+01  0.00000000E+00
  4.00000000E+02  2.00000000E+01  0.00000000E+00
  4.00000000E+02  4.99600361E-14  0.00000000E+00
  4.20000000E+02  3.00000000E+02  0.00000000E+00
  4.20000000E+02  2.80000000E+02  0.00000000E+00
  4.20000000E+02  2.60000000E+02  0.00000000E+00
  4.20000000E+02  2.40000000E+02  0.00000000E+00
  4.20000000E+02  2.20000000E+02  0.00000000E+00
  4.20000000E+02  2.00000000E+02  0.00000000E+00
  4.20000000E+02  1.80000000E+02  0.00000000E+00
  4.20000000E+02  1.60000000E+02  0.00000000E+00
  4.20000000E+02  1.40000000E+02  0.00000000E+00
  4.20000000E+02  1.20000000E+02  0.00000000E+00
  4.20000000E+02  1.00000000E+02  0.00000000E+00
  4.20000000E+02  8.00000000E+01  0.00000000E+00
  4.20000000E+02  6.00000000E+01  0.00000000E+00
  4.20000000E+02  4.00000000E+01  0.00000000E+00
  4.20000000E+02  2.00000000E+01  0.00000000E+00
  4.20000000E+02  4.99600361E-14  0.00000000E+00
  4.40000000E+02  3.00000000E+02  0.00000000E+00
  4.40000000E+02  2.80000000E+02  0.00000000E+00
  4.40000000E+02  2.60000000E+02  0.00000000E+00
  4.40000000E+02  2.40000000E+02  0.00000000E+00
  4.40000000E+02  2.20000000E+02  0.00000000E+00
  4.40000000E+02  2.00000000E+02  0.00000000E+00
  4.40000000E+02  1.80000000E+02  0.00000000E+00
  4.40000000E+02  1.60000000E+02  0.00000000E+00
  4.40000000E+02  1.40000000E+02  0.00000000E+00
  4.40000000E+02  1.20000000E+02  0.00000000E+00
  4.40000000E+02  1.00000000E+02  0.00000000E+00
  4.40000000E+02  8.00000000E+01  0.00000000E+00
  4.40000000E+02  6.00000000E+01  0.00000000E+00
  4.40000000E+02  4.00000000E+01  0.00000000E+00
  4.40000000E+02  2.00000000E+01  0.00000000E+00
  4.40000000E+02  4.99600361E-14  0.00000000E+00
  4.60000000E+02  3.00000000E+02  0.00000000E+00
  4.60000000E+02  2.80000000E+02  0.00000000E+00
  4.60000000E+02  2.60000000E+02  0.00000000E+00
  4.60000000E+02  2.40000000E+02  0.00000000E+00
  4.60000000E+02  2.20000000E+02  0.00000000E+00
  4.60000000E+02  2.00000000E+02  0.00000000E+00
  4.60000000E+02  1.80000000E+02  0.00000000E+00
  4.60000000E+02  1.60000000E+02  0.00000000E+00
  4.60000000E+02  1.40000000E+02  0.00000000E+00
  4.60000000E+02  1.20000000E+02  0.00000000E+00
  4.60000000E+02  1.00000000E+02  0.00000000E+00
  4.60000000E+02  8.00000000E+01  0.00000000E+00
  4.60000000E+02  6.00000000E+01  0.00000000E+00
  4.60000000E+02  4.00000000E+01  0.00000000E+00
  4.60000000E+02  2.00000000E+01  0.00000000E+00
  4.60000000E+02  4.99600361E-14  0.00000000E+00
  4.80000000E+02  3.00000000E+02  0.00000000E+00
  4.80000000E+02  2.80000000E+02  0.00000000E+00
  4.80000000E+02  2.60000000E+02  0.00000000E+00
  4.80000000E+02  2.40000000E+02  0.00000000E+00
  4.80000000E+02  2.20000000E+02  0.00000000E+00
  4.80000000E+02  2.00000000E+02  0.00000000E+00
  4.80000000E+02  1.80000000E+02  0.00000000E+00
  4.80000000E+02  1.60000000E+02  0.00000000E+00
  4.80000000E+02  1.40000000E+02  0.00000000E+00
  4.80000000E+02  1.20000000E+02  0.00000000E+00
  4.80000000E+02  1.00000000E+02  0.00000000E+00
  4.80000000E+02  8.00000000E+01  0.00000000E+00
  4.80000000E+02  6.00000000E+01  0.00000000E+00
  4.80000000E+02  4.00000000E+01  0.00000000E+00
  4.80000000E+02  2.00000000E+01  0.00000000E+00
  4.80000000E+02  4.99600361E-14  0.00000000E+00
  5.00000000E+02  3.00000000E+02  0.00000000E+00
  5.00000000E+02  2.80000000E+02  0.00000000E+00
  5.00000000E+02  2.60000000E+02  0.00000000E+00
  5.00000000E+02  2.40000000E+02  0.00000000E+00
  5.00000000E+02  2.20000000E+02  0.00000000E+00
  5.00000000E+02  2.00000000E+02  0.00000000E+00
  5.00000000E+02  1.80000000E+02  0.00000000E+00
  5.00000000E+02  1.60000000E+02  0.00000000E+00
  5.00000000E+02  1.40000000E+02  0.00000000E+00
  5.00000000E+02  1.20000000E+02  0.00000000E+00
  5.00000000E+02  1.00000000E+02  0.00000000E+00
  5.00000000E+02  8.00000000E+01  0.00000000E+00
  5.00000000E+02  6.00000000E+01  0.00000000E+00
  5.00000000E+02  4.00000000E+01  0.00000000E+00
  5.00000000E+02  2.00000000E+01  0.00000000E+00
  5.00000000E+02  4.99600361E-14  0.00000000E+00
  5.20000000E+02  3.00000000E+02  0.00000000E+00
  5.20000000E+02  2.80000000E+02  0.00000000E+00
  5.20000000E+02  2.60000000E+02  0.00000000E+00
  5.20000000E+02  2.40000000E+02  0.00000000E+00
  5.20000000E+02  2.20000000E+02  0.00000000E+00
  5.20000000E+02  2.00000000E+02  0.00000000E+00
  5.20000000E+02  1.80000000E+02  0.00000000E+00
  5.20000000E+02  1.60000000E+02  0.00000000E+00
  5.20000000E+02  1.40000000E+02  0.00000000E+00
  5.20000000E+02  1.20000000E+02  0.00000000E+00
  5.20000000E+02  1.00000000E+02  0.00000000E+00
  5.20000000E+02  8.00000000E+01  0.00000000E+00
  5.20000000E+02  6.00000000E+01  0.00000000E+00
  5.20000000E+02  4.00000000E+01  0.00000000E+00
  5.20000000E+02  2.00000000E+01  0.00000000E+00
  5.20000000E+02  4.99600361E-14  0.00000000E+00
  5.40000000E+02  3.00000000E+02  0.00000000E+00
  5.40000000E+02  2.80000000E+02  0.00000000E+00
  5.40000000E+02  2.60000000E+02  0.00000000E+00
  5.40000000E+02  2.40000000E+02  0.00000000E+00
  5.40000000E+02  2.20000000E+02  0.00000000E+00
  5.40000000E+02  2.00000000E+02  0.00000000E+00
  5.40000000E+02  1.80000000E+02  0.00000000E+00
  5.40000000E+02  1.60000000E+02  0.00000000E+00
  5.40000000E+02  1.40000000E+02  0.00000000E+00
  5.40000000E+02  1.20000000E+02  0.00000000E+00
  5.40000000E+02  1.00000000E+02  0.00000000E+00
  5.40000000E+02  8.00000000E+01  0.00000000E+00
  5.40000000E+02  6.00000000E+01  0.00000000E+00
  5.40000000E+02  4.00000000E+01  0.00000000E+00
  5.40000000E+02  2.00000000E+01  0.00000000E+00
  5.40000000E+02  4.99600361E-14  0.00000000E+00
  5.60000000E+02  3.00000000E+02  0.00000000E+00
  5.60000000E+02  2.80000000E+02  0.00000000E+00
  5.60000000E+02  2.60000000E+02  0.00000000E+00
  5.60000000E+02  2.40000000E+02  0.00000000E+00
  5.60000000E+02  2.20000000E+02  0.00000000E+00
  5.60000000E+02  2.00000000E+02  0.00000000E+00
  5.60000000E+02  1.80000000E+02  0.00000000E+00
  5.60000000E+02  1.60000000E+02  0.00000000E+00
  5.60000000E+02  1.40000000E+02  0.00000000E+00
  5.60000000E+02  1.20000000E+02  0.00000000E+00
  5.60000000E+02  1.00000000E+02  0.00000000E+00
  5.60000000E+02  8.00000000E+01  0.00000000E+00
  5.60000000E+02  6.00000000E+01  0.00000000E+00
  5.60000000E+02  4.00000000E+01  0.00000000E+00
  5.60000000E+02  2.00000000E+01  0.00000000E+00
  5.60000000E+02  4.99600361E-14  0.00000000E+00
  5.80000000E+02  3.00000000E+02  0.00000000E+00
  5.80000000E+02  2.80000000E+02  0.00000000E+00
  5.80000000E+02  2.60000000E+02  0.00000000E+00
  5.80000000E+02  2.40000000E+02  0.00000000E+00
  5.80000000E+02  2.20000000E+02  0.00000000E+00
  5.80000000E+02  2.00000000E+02  0.00000000E+00
  5.80000000E+02  1.80000000E+02  0.00000000E+00
  5.80000000E+02  1.60000000E+02  0.00000000E+00
  5.80000000E+02  1.40000000E+02  0.00000000E+00
  5.80000000E+02  1.20000000E+02  0.00000000E+00
  5.80000000E+02  1.00000000E+02  0.00000000E+00
  5.80000000E+02  8.00000000E+01  0.00000000E+00
  5.80000000E+02  6.00000000E+01  0.00000000E+00
  5.80000000E+02  4.00000000E+01  0.00000000E+00
  5.80000000E+02  2.00000000E+01  0.00000000E+00
  5.80000000E+02  4.99600361E-14  0.00000000E+00
  6.00000000E+02  3.00000000E+02  0.00000000E+00
  6.00000000E+02  2.80000000E+02  0.00000000E+00
  6.00000000E+02  2.60000000E+02  0.00000000E+00
  6.00000000E+02  2.40000000E+02  0.00000000E+00
  6.00000000E+02  2.20000000E+02  0.00000000E+00
  6.00000000E+02  2.00000000E+02  0.00000000E+00
  6.00000000E+02  1.80000000E+02  0.00000000E+00
  6.00000000E+02  1.60000000E+02  0.00000000E+00
  6.00000000E+02  1.40000000E+02  0.00000000E+00
  6.00000000E+02  1.20000000E+02  0.00000000E+00
  6.00000000E+02  1.00000000E+02  0.00000000E+00
  6.00000000E+02  8.00000000E+01  0.00000000E+00
  6.00000000E+02  6.00000000E+01  0.00000000E+00
  6.00000000E+02  4.00000000E+01  0.00000000E+00
  6.00000000E+02  2.00000000E+01  0.00000000E+00
  6.00000000E+02  4.99600361E-14  0.00000000E+00
CELLS       450      2250
         4           0           1          17          16
         4           1           2          18          17
         4           2           3          19          18
         4           3           4          20          19
         4           4           5          21          20
         4           5           6          22          21
         4           6           7          23          22
         4           7           8          24          23
         4           8           9          25          24
         4           9          10          26          25
         4          10          11          27          26
         4          11          12          28          27
         4          12          13          29          28
         4          13          14          30          29
         4          14          15          31          30
         4          16          17          33          32
         4          17          18          34          33
         4          18          19          35          34
         4          19          20          36          35
         4          20          21          37          36
         4          21          22          38          37
         4          22          23          39          38
         4          23          24          40          39
         4          24          25          41          40
         4          25          26          42          41
         4          26          27          43          42
         4          27          28          44          43
         4          28          29          45          44
         4          29          30          46          45
         4          30          31          47          46
         4          32          33          49          48
         4          33          34          50          49
         4          34          35          51          50
         4          35          36          52          51
         4          36          37          53          52
         4          37          38          54          53
         4          38          39          55          54
         4          39          40          56          55
         4          40          41          57          56
         4          41          42          58          57
         4          42          43          59          58
         4          43          44          60          59
         4          44          45          61          60
         4          45          46          62          61
         4          46          47          63          62
         4          48          49          65          64
         4          49          50          66          65
         4          50          51          67          66
         4          51          52          68          67
         4          52          53          69          68
         4          53          54          70          69
         4          54          55          71          70
         4          55          56          72          71
         4          56          57          73          72
         4          57          58          74          73
         4          58          59          75          74
         4          59          60          76          75
         4          60          61          77          76
         4          61          62          78          77
         4          62          63          79          78
         4          64          65          81          80
         4          65          66          82          81
         4          66          67          83          82
         4          67          68          84          83
         4          68          69          85          84
         4          69          70          86          85
         4          70          71          87          86
         4          71          72          88          87
         4          72          73          89          88
         4          73          74          90          89
         4          74          75          91          90
         4          75          76          92          91
         4          76          77          93          92
         4          77          78          94          93
         4          78          79          95          94
         4          80          81          97          96
         4          81          82          98          97
         4          82          83          99          98
         4          83          84         100          99
         4          84          85         101         100
         4          85          86         102         101
         4          86          87         103         102
         4          87          88         104         103
         4          88          89         105         104
         4          89          90         106         105
         4          90          91         107         106
         4          91          92         108         107
         4          92          93         109         108
         4          93          94         110         109
         4          94          95         111         110
         4          96          97         113         112
         4          97          98         114         113
         4          98          99         115         114
         4          99         100         116         115
         4         100         101         117         116
         4         101         102         118         117
         4         102         103         119         118
         4         103         104         120         119
         4         104         105         121         120
         4         105         106         122         121
         4         106         107         123         122
         4         107         108         124         123
         4         108         109         125         124
         4         109         110         126         125
         4         110         111         127         126
         4         112         113         129         128
         4         113         114         130         129
         4         114         115         131         130
         4         115         116         132         131
         4         116         117         133         132
         4         117         118         134         133
         4         118         119         135         134
         4         119         120         136         135
         4         120         121         137         136
         4         121         122         138         137
         4         122         123         139         138
         4         123         124         140         139
         4         124         125         141         140
         4         125         126         142         141
         4         126         127         143         142
         4         128         129         145         144
         4         129         130         146         145
         4         130         131         147         146
         4         131         132         148         147
         4         132         133         149         148
         4         133         134         150         149
         4         134         135         151         150
         4         135         136         152         151
         4         136         137         153         152
         4         137         138         154         153
         4         138         139         155         154
         4         139         140         156         155
         4         140         141         157         156
         4         141         142         158         157
         4         142         143         159         158
         4         144         145         161         160
         4         145         146         162         161
         4         146         147         163         162
         4         147         148         164         163
         4         148         149         165         164
         4         149         150         166         165
         4         150         151         167         166
         4         151         152         168         167
         4         152         153         169         168
         4         153         154         170         169
         4         154         155         171         170
         4         155         156         172         171
         4         156         157         173         172
         4         157         158         174         173
         4         158         159         175         174
         4         160         161         177         176
         4         161         162         178         177
         4         162         163         179         178
         4         163         164         180         179
         4         164         165         181         180
         4         165         166         182         181
         4         166         167         183         182
         4         167         168         184         183
         4         168         169         185         184
         4         169         170         186         185
         4         170         171         187         186
         4         171         172         188         187
         4         172         173         189         188
         4         173         174         190         189
         4         174         175         191         190
         4         176         177         193         192
         4         177         178         194         193
         4         178         179         195         194
         4         179         180         196         195
         4         180         181         197         196
         4         181         182         198         197
         4         182         183         199         198
         4         183         184         200         199
         4         184         185         201         200
         4         185         186         202         201
         4         186         187         203         202
         4         187         188         204         203
         4         188         189         205         204
         4         189         190         206         205
         4         190         191         207         206
         4         192         193         209         208
         4         193         194         210         209
         4         194         195         211         210
         4         195         196         212         211
         4         196         197         213         212
         4         197         198         214         213
         4         198         199         215         214
         4         199         200         216         215
         4         200         201         217         216
         4         201         202         218         217
         4         202         203         219         218
         4         203         204         220         219
         4         204         205         221         220
         4         205         206         222         221
         4         206         207         223         222
         4         208         209         225         224
         4         209         210         226         225
         4         210         211         227         226
         4         211         212         228         227
         4         212         213         229         228
         4         213         214         230         229
         4         214         215         231         230
         4         215         216         232         231
         4         216         217         233         232
         4         217         218         234         233
         4         218         219         235         234
         4         219         220         236         235
         4         220         221         237         236
         4         221         222         238         237
         4         222         223         239         238
         4         224         225         241         240
         4         225         226         242         241
         4         226         227         243         242
         4         227         228         244         243
         4         228         229         245         244
         4         229         230         246         245
         4         230         231         247         246
         4         231         232         248         247
         4         232         233         249         248
         4         233         234         250         249
         4         234         235         251         250
         4         235         236         252         251
         4         236         237         253         252
         4         237         238         254         253
         4         238         239         255         254
         4         240         241         257         256
         4         241         242         258         257
         4         242         243         259         258
         4         243         244         260         259
         4         244         245         261         260
         4         245         246         262         261
         4         246         247         263         262
         4         247         248         264         263
         4         248         249         265         264
         4         249         250         266         265
         4         250         251         267         266
         4         251         252         268         267
         4         252         253         269         268
         4         253         254         270         269
         4         254         255         271         270
         4         256         257         273         272
         4         257         258         274         273
         4         258         259         275         274
         4         259         260         276         275
         4         260         261         277         276
         4         261         262         278         277
         4         262         263         279         278
         4         263         264         280         279
         4         264         265         281         280
         4         265         266         282         281
         4         266         267         283         282
         4         267         268         284         283
         4         268         269         285         284
         4         269         270         286         285
         4         270         271         287         286
         4         272         273         289         288
         4         273         274         290         289
         4         274         275         291         290
         4         275         276         292         291
         4         276         277         293         292
         4         277         278         294         293
         4         278         279         295         294
         4         279         280         296         295
         4         280         281         297         296
         4         281         282         298         297
         4         282         283         299         298
         4         283         284         300         299
         4         284         285         301         300
         4         285         286         302         301
         4         286         287         303         302
         4         288         289         305         304
         4         289         290         306         305
         4         290         291         307         306
         4         291         292         308         307
         4         292         293         309         308
         4         293         294         310         309
         4         294         295         311         310
         4         295         296         312         311
         4         296         297         313         312
         4         297         298         314         313
         4         298         299         315         314
         4         299         300         316         315
         4         300         301         317         316
         4         301         302         318         317
         4         302         303         319         318
         4         304         305         321         320
         4         305         306         322         321
         4         306         307         323         322
         4         307         308         324         323
         4         308         309         325         324
         4         309         310         326         325
         4         310         311         327         326
         4         311         312         328         327
         4         312         313         329         328
         4         313         314         330         329
         4         314         315         331         330
         4         315         316         332         331
         4         316         317         333         332
         4         317         318         334         333
         4         318         319         335         334
         4         320         321         337         336
         4         321         322         338         337
         4         322         323         339         338
         4         323         324         340         339
         4         324         325         341         340
         4         325         326         342         341
         4         326         327         343         342
         4         327         328         344         343
         4         328         329         345         344
         4         329         330         346         345
         4         330         331         347         346
         4         331         332         348         347
         4         332         333         349         348
         4         333         334         350         349
         4         334         335         351         350
         4         336         337         353         352
         4         337         338         354         353
         4         338         339         355         354
         4         339         340         356         355
         4         340         341         357         356
         4         341         342         358         357
         4         342         343         359         358
         4         343         344         360         359
         4         344         345         361         360
         4         345         346         362         361
         4         346         347         363         362
         4         347         348         364         363
         4         348         349         365         364
         4         349         350         366         365
         4         350         351         367         366
         4         352         353         369         368
         4         353         354         370         369
         4         354         355         371         370
         4         355         356         372         371
         4         356         357         373         372
         4         357         358         374         373
         4         358         359         375         374
         4         359         360         376         375
         4         360         361         377         376
         4         361         362         378         377
         4         362         363         379         378
         4         363         364         380         379
         4         364         365         381         380
         4         365         366         382         381
         4         366         367         383         382
         4         368         369         385         384
         4         369         370         386         385
         4         370         371         387         386
         4         371         372         388         387
         4         372         373         389         388
         4         373         374         390         389
         4         374         375         391         390
         4         375         376         392         391
         4         376         377         393         392
         4         377         378         394         393
         4         378         379         395         394
         4         379         380         396         395
         4         380         381         397         396
         4         381         382         398         397
         4         382         383         399         398
         4         384         385         401         400
         4         385         386         402         401
         4         386         387         403         402
         4         387         388         404         403
         4         388         389         405         404
         4         389         390         406         405
         4         390         391         407         406
         4         391         392         408         407
         4         392         393         409         408
         4         393         394         410         409
         4         394         395         411         410
         4         395         396         412         411
         4         396         397         413         412
         4         397         398         414         413
         4         398         399         415         414
         4         400         401         417         416
         4         401         402         418         417
         4         402         403         419         418
         4         403         404         420         419
         4         404         405         421         420
         4         405         406         422         421
         4         406         407         423         422
         4         407         408         424         423
         4         408         409         425         424
         4         409         410         426         425
         4         410         411         427         426
         4         411         412         428         427
         4         412         413         429         428
         4         413         414         430         429
         4         414         415         431         430
         4         416         417         433         432
         4         417         418         434         433
         4         418         419         435         434
         4         419         420         436         435
         4         420         421         437         436
         4         421         422         438         437
         4         422         423         439         438
         4         423         424         440         439
         4         424         425         441         440
         4         425         426         442         441
         4         426         427         443         442
         4         427         428         444         443
         4         428         429         445         444
         4         429         430         446         445
         4         430         431         447         446
         4         432         433         449         448
         4         433         434         450         449
         4         434         435         451         450
         4         435         436         452         451
         4         436         437         453         452
         4         437         438         454         453
         4         438         439         455         454
         4         439         440         456         455
         4         440         441         457         456
         4         441         442         458         457
         4         442         443         459         458
         4         443         444         460         459
         4         444         445         461         460
         4         445         446         462         461
         4         446         447         463         462
         4         448         449         465         464
         4         449         450         466         465
         4         450         451         467         466
         4         451         452         468         467
         4         452         453         469         468
         4         453         454         470         469
         4         454         455         471         470
         4         455         456         472         471
         4         456         457         473         472
         4         457         458         474         473
         4         458         459         475         474
         4         459         460         476         475
         4         460         461         477         476
         4         461         462         478         477
         4         462         463         479         478
         4         464         465         481         480
         4         465         466         482         481
         4         466         467         483         482
         4         467         468         484         483
         4         468         469         485         484
         4         469         470         486         485
         4         470         471         487         486
         4         471         472         488         487
         4         472         473         489         488
         4         473         474         490         489
         4         474         475         491         490
         4         475         476         492         491
         4         476         477         493         492
         4         477         478         494         493
         4         478         479         495         494
CELL_TYPES        450
9
9
9
9
9
9
9
9
9
9
9
9
9
9
9
9
9
9
9
9
9
9
9
9
9
9
9
9
9
9
9
9
9
9
9
9
9
9
9
9
9
9
9
9
9
9
9
9
9
9
9
9
9
9
9
9
9
9
9
9
9
9
9
9
9
9
9
9
9
9
9
9
9
9
9
9
9
9
9
9
9
9
9
9
9
9
9
9
9
9
9
9
9
9
9
9
9
9
9
9
9
9
9
9
9
9
9
9
9
9
9
9
9
9
9
9
9
9
9
9
9
9
9
9
9
9
9
9
9
9
9
9
9
9
9
9
9
9
9
9
9
9
9
9
9
9
9
9
9
9
9
9
9
9
9
9
9
9
9
9
9
9
9
9
9
9
9
9
9
9
9
9
9
9
9
9
9
9
9
9
9
9
9
9
9
9
9
9
9
9
9
9
9
9
9
9
9
9
9
9
9
9
9
9
9
9
9
9
9
9
9
9
9
9
9
9
9
9
9
9
9
9
9
9
9
9
9
9
9
9
9
9
9
9
9
9
9
9
9
9
9
9
9
9
9
9
9
9
9
9
9
9
9
9
9
9
9
9
9
9
9
9
9
9
9
9
9
9
9
9
9
9
9
9
9
9
9
9
9
9
9
9
9
9
9
9
9
9
9
9
9
9
9
9
9
9
9
9
9
9
9
9
9
9
9
9
9
9
9
9
9
9
9
9
9
9
9
9
9
9
9
9
9
9
9
9
9
9
9
9
9
9
9
9
9
9
9
9
9
9
9
9
9
9
9
9
9
9
9
9
9
9
9
9
9
9
9
9
9
9
9
9
9
9
9
9
9
9
9
9
9
9
9
9
9
9
9
9
9
9
9
9
9
9
9
9
9
9
9
9
9
9
9
9
9
9
9
9
9
9
9
9
9
9
9
9
9
9
9
9
9
9
9
9
9
9
9
9
9
9
9
9
9
9
9
9
9
9
9
9
9
9
9
9
9
9
9
9
9
9
9
9
9
9
9
9
9
9
9
9
POINT_DATA       496
SCALARS p double 
LOOKUP_TABLE default
   85000000.0000000     
   85000000.0000000     
   85000000.0000000     
   85000000.0000000     
   85000000.0000000     
   85000000.0000000     
   85000000.0000000     
   85000000.0000000     
   85000000.0000000     
   85000000.0000000     
   85000000.0000000     
   85000000.0000000     
   85000000.0000000     
   85000000.0000000     
   85000000.0000000     
   85000000.0000000     
   76430224.4776405     
   76485122.2912646     
   76578491.1042239     
   76673581.0387298     
   76759038.5108563     
   76834003.5633453     
   76899823.1032676     
   76958281.7859770     
   77011136.6532674     
   77060029.3275243     
   77106504.8944112     
   77152038.1985046     
   77197977.2706597     
   77245161.0899132     
   77292340.8684843     
   77329917.4665695     
   70520384.0683332     
   70555493.8703536     
   70642987.3893286     
   70750631.7524563     
   70859709.8362512     
   70962557.0794629     
   71057085.7624328     
   71143483.0665515     
   71222801.7645427     
   71296363.8848174     
   71365472.0804987     
   71431171.7590512     
   71493837.5105600     
   71552168.6180861     
   71600911.9922676     
   71622687.5969555     
   66361323.2877000     
   66380070.1479323     
   66437322.4873909     
   66521610.3955454     
   66618103.2523809     
   66717001.0747497     
   66813117.4994207     
   66904159.0144687     
   66989364.9266435     
   67068660.2782540     
   67142105.5554390     
   67209428.4808084     
   67269443.8281394     
   67319230.8824782     
   67352786.7765007     
   67363083.7818977     
   63383179.5039489     
   63387207.4505166     
   63413667.5503027     
   63464717.7328893     
   63533189.4921537     
   63610939.7075908     
   63691849.3763282     
   63771920.4593767     
   63848659.7206447     
   63920414.3011897     
   63985808.7944971     
   64043261.0682410     
   64090562.0843415     
   64124618.7098530     
   64142255.2684654     
   64144058.6676508     
   61190637.6518059     
   61184155.0615416     
   61185042.7175967     
   61204376.3334358     
   61241460.8443378     
   61291392.9968478     
   61348780.6491151     
   61409078.4609548     
   61468732.3030619     
   61524908.5655469     
   61575130.9280934     
   61616970.3261441     
   61647918.6184404     
   61665763.7933035     
   61670147.5828012     
   61666304.0420966     
   59511978.7253500     
   59498476.8208526     
   59480267.5224434     
   59473226.9838810     
   59481423.1553959     
   59503156.7378900     
   59534585.7049809     
   59571518.0421632     
   59610092.1403475     
   59646897.0619877     
   59678888.9698190     
   59703325.8773312     
   59717930.6764733     
   59721581.5241513     
   59715960.4730154     
   59708588.0441473     
   58158662.1176633     
   58140748.5593755     
   58109115.2778070     
   58081735.9688629     
   58065750.3326894     
   58062101.7513702     
   58068675.8287394     
   58082152.3959032     
   58098950.3253190     
   58115638.6420313     
   58129107.6055162     
   58136727.7671432     
   58136705.4375167     
   58128865.6788182     
   58116107.2772765     
   58106697.3320294     
   56998693.1835108     
   56978185.1370915     
   56937561.0726959     
   56895254.5467064     
   56860173.3194302     
   56835215.3098412     
   56819852.5775416     
   56811838.9246255     
   56808236.2937713     
   56805994.9453915     
   56802306.9308391     
   56794923.5826442     
   56782609.6845272     
   56765896.2317305     
   56748264.9179783     
   56737816.7278315     
   55938495.8343641     
   55916616.9845278     
   55870269.9741873     
   55817440.6520170     
   55767900.6124849     
   55725889.1878234     
   55692196.2152626     
   55665652.8699115     
   55644130.4041354     
   55625191.5411009     
   55606547.4873928     
   55586464.1157447     
   55564245.7510166     
   55540903.9544991     
   55520080.9798027     
   55509231.4989040     
   54910630.6158409     
   54888184.6133001     
   54838445.1054482     
   54778498.7181550     
   54718399.7107617     
   54663248.5767088     
   54614864.4484957     
   54573052.4854186     
   54536520.9730308     
   54503537.1655940     
   54472424.3064968     
   54442000.5644254     
   54412049.0007177     
   54383886.5698295     
   54361066.1067657     
   54350195.4171967     
   53865482.0307541     
   53842986.5787439     
   53791484.5413107     
   53726981.3243342     
   53659463.2015020     
   53594541.6825749     
   53534804.6674978     
   53480882.5455237     
   53432263.7898218     
   53387916.1242858     
   53346780.3205041     
   53308204.0796641     
   53272374.6325817     
   53240791.0319547     
   53216789.9987173     
   53206102.8460538     
   52765666.4665041     
   52743450.6916075     
   52691317.4419289     
   52624158.5451935     
   52551694.0785890     
   52479801.5089769     
   52411620.1063641     
   52348446.8698546     
   52290449.7791598     
   52237235.2788698     
   52188313.6044635     
   52143505.6890894     
   52103328.5590603     
   52069382.3870883     
   52044741.9654060     
   52034329.2633726     
   51582311.5438557     
   51560585.1320595     
   51508612.4306448     
   51440214.8526691     
   51364742.3343021     
   51288169.8053096     
   51214012.9454883     
   51144084.8434467     
   51079115.3379445     
   51019258.7900526     
   50964518.9089192     
   50915118.4708234     
   50871836.2902476     
   50836323.4123200     
   50811395.5354108     
   50801280.0743031     
   50292628.0107384     
   50271530.0220352     
   50220291.1662300     
   50151736.2711969     
   50074794.8659709     
   49995422.5149656     
   49917371.7999173     
   49842836.7987361     
   49772990.4893536     
   49708434.2153967     
   49649578.5292729     
   49596973.1176220     
   49551598.9789509     
   49515128.2194193     
   49490145.9905285     
   49480315.9098191     
   48878376.8766568     
   48858010.2723074     
   48807950.5058432     
   48740103.4949474     
   48662954.5271890     
   48582355.2590876     
   48502182.6782200     
   48424893.7023848     
   48351993.0004930     
   48284429.1556375     
   48222932.8770138     
   48168308.8458041     
   48121688.9603026     
   48084748.8622652     
   48059881.7988965     
   48050314.5846230     
   47324956.6543469     
   47305412.6476826     
   47256915.3383710     
   47190517.3270639     
   47114244.4832336     
   47033778.2163742     
   46953026.7521533     
   46874607.4742170     
   46800256.2647835     
   46731176.4961908     
   46668338.1597866     
   46612735.3012995     
   46565606.6955548     
   46528620.2214323     
   46504015.7452628     
   46494694.8221713     
   45620917.3315663     
   45602292.1418219     
   45555725.4270799     
   45491460.6643616     
   45417046.5817401     
   45337936.5736163     
   45257990.2087205     
   45179896.6919031     
   45105534.7851107     
   45036280.3843012     
   44973270.5772870     
   44917630.7215354     
   44870668.3396431     
   44834034.1963321     
   44809846.8265538     
   44800772.2802103     
   43757761.9334493     
   43740167.4328267     
   43695914.3795372     
   43634454.8025185     
   43562833.4369089     
   43486220.4236335     
   43408355.8711896     
   43331924.0006458     
   43258870.3179742     
   43190672.3031856     
   43128571.8187771     
   43073775.3058694     
   43027625.5153742     
   42991745.8576510     
   42968155.4746998     
   42959350.0474824     
   41729932.0400769     
   41713501.0734662     
   41671975.1537965     
   41614003.8720060     
   41546088.8480800     
   41473061.1500213     
   41398477.3974394     
   41324950.6537258     
   41254429.0096760     
   41188432.2507927     
   41128254.8830264     
   41075141.8337397     
   41030441.1768188     
   40995736.1574706     
   40972956.6225604     
   40964467.8563418     
   39534896.4330052     
   39519783.1662602     
   39481430.0472912     
   39427644.8922862     
   39364334.4858967     
   39295933.8159004     
   39225758.2049776     
   39156293.6972426     
   39089438.7108776     
   39026707.7593898     
   38969406.0083893     
   38918781.6006724     
   38876161.0220205     
   38843071.2144101     
   38821350.6104182     
   38813249.8366575     
   37173276.3145377     
   37159651.7428430     
   37124937.9524882     
   37076036.0367789     
   37018195.8970680     
   36955399.9222555     
   36890671.6263324     
   36826325.0388205     
   36764168.7081884     
   36705675.8967481     
   36652130.3447911     
   36604755.1673867     
   36564831.1029572     
   36533809.3275894     
   36513423.1448665     
   36505801.9319674     
   34648949.1040568     
   34636991.7459204     
   34606380.5996622     
   34563024.9139061     
   34511450.3030556     
   34455134.4280815     
   34396768.3074144     
   34338461.0254377     
   34281903.2987539     
   34228502.3437763     
   34179497.7266790     
   34136065.9642958     
   34099420.7286993     
   34070915.3192886     
   34052154.0392286     
   34045118.6806057     
   31969077.5076789     
   31958959.2405433     
   31932874.3623999     
   31895643.7693727     
   31851004.1216694     
   31801886.7846883     
   31750623.1035398     
   31699097.6977064     
   31648867.3760019     
   31601258.4980051     
   31557451.8054625     
   31518561.6914203     
   31485716.6343649     
   31460148.6806860     
   31443301.3779458     
   31436966.0228720     
   29144012.4176996     
   29135879.2749892     
   29114655.9653949     
   29083980.5063631     
   29046750.6838686     
   29005329.0428196     
   28961677.8210299     
   28917451.6543244     
   28874067.4825904     
   28832763.2299619     
   28794651.7558514     
   28760774.5585233     
   28732160.5100025     
   28709898.0570162     
   28695233.7730725     
   28689712.8387645     
   26187017.5385710     
   26180964.9223334     
   26164789.2984329     
   26140873.5904373     
   26111258.7598964     
   26077745.5549078     
   26041938.8755540     
   26005270.1643983     
   25969016.2029138     
   25934320.9175138     
   25902221.2724425     
   25873677.2783360     
   25849607.9148998     
   25830940.3506942     
   25818688.9175865     
   25814089.4292191     
   23113760.1425947     
   23109800.9201225     
   23098635.8240596     
   23081374.8355531     
   23059240.3882141     
   23033518.9613485     
   23005490.9025172     
   22976377.2125559     
   22947311.4588271     
   22919331.6178836     
   22893384.6256457     
   22870337.5813199     
   22850992.8494096     
   22836108.4930626     
   22826441.8125632     
   22822856.1462217     
   19941505.1707520     
   19939526.8397207     
   19933020.8522121     
   19921915.7220196     
   19906742.2934911     
   19888366.8770561     
   19867789.1779638     
   19846024.6760989     
   19824044.7730058     
   19802751.9211572     
   19782972.9864633     
   19765459.8665273     
   19750889.3220865     
   19739858.6963008     
   19732870.4570623     
   19730369.6751201     
   16687942.3252252     
   16687638.7661211     
   16685009.2938167     
   16679098.1374474     
   16670000.7460883     
   16658284.6356149     
   16644696.2355673     
   16630019.4137820     
   16615012.6636540     
   16600384.0801830     
   16586784.1374370     
   16574804.4411362     
   16564973.4290539     
   16557736.2808493     
   16553412.6502254     
   16552032.9292683     
   13369561.4566338     
   13370323.9745935     
   13370153.4852229     
   13368013.8474315     
   13363900.2237798     
   13358155.4925280     
   13351231.1310830     
   13343596.2367451     
   13335700.9167105     
   13327963.6953673     
   13320769.4274393     
   13314470.7195314     
   13309387.2873143     
   13305795.6497407     
   13303880.8770257     
   13303635.5352986     
   10000000.0000000     
   10000000.0000000     
   10000000.0000000     
   10000000.0000000     
   10000000.0000000     
   10000000.0000000     
   10000000.0000000     
   10000000.0000000     
   10000000.0000000     
   10000000.0000000     
   10000000.0000000     
   10000000.0000000     
   10000000.0000000     
  10000000.00000000     
   10000000.0000000     
   10000000.0000000     
VECTORS u double 
    0.00000E+00         0.90371E-02         0.00000E+00
    0.00000E+00         0.81962E-02         0.00000E+00
    0.00000E+00         0.73706E-02         0.00000E+00
    0.00000E+00         0.66672E-02         0.00000E+00
    0.00000E+00         0.60618E-02         0.00000E+00
    0.00000E+00         0.55255E-02         0.00000E+00
    0.00000E+00         0.50380E-02         0.00000E+00
    0.00000E+00         0.45827E-02         0.00000E+00
    0.00000E+00         0.41459E-02         0.00000E+00
    0.00000E+00         0.37144E-02         0.00000E+00
    0.00000E+00         0.32750E-02         0.00000E+00
    0.00000E+00         0.28126E-02         0.00000E+00
    0.00000E+00         0.23074E-02         0.00000E+00
    0.00000E+00         0.17293E-02         0.00000E+00
    0.00000E+00         0.10232E-02         0.00000E+00
    0.00000E+00         0.00000E+00         0.00000E+00
    0.39297E-02         0.81442E-02         0.00000E+00
    0.29687E-02         0.76376E-02         0.00000E+00
    0.25731E-02         0.70157E-02         0.00000E+00
    0.23703E-02         0.64167E-02         0.00000E+00
    0.22263E-02         0.58705E-02         0.00000E+00
    0.21087E-02         0.53725E-02         0.00000E+00
    0.20036E-02         0.49117E-02         0.00000E+00
    0.19038E-02         0.44761E-02         0.00000E+00
    0.18041E-02         0.40541E-02         0.00000E+00
    0.16997E-02         0.36339E-02         0.00000E+00
    0.15854E-02         0.32030E-02         0.00000E+00
    0.14531E-02         0.27464E-02         0.00000E+00
    0.12895E-02         0.22442E-02         0.00000E+00
    0.10676E-02         0.16662E-02         0.00000E+00
    0.72536E-03         0.95524E-03         0.00000E+00
    0.00000E+00         0.00000E+00         0.00000E+00
    0.66068E-02         0.66782E-02         0.00000E+00
    0.53812E-02         0.64221E-02         0.00000E+00
    0.46756E-02         0.61054E-02         0.00000E+00
    0.42515E-02         0.57245E-02         0.00000E+00
    0.39515E-02         0.53241E-02         0.00000E+00
    0.37094E-02         0.49276E-02         0.00000E+00
    0.34960E-02         0.45407E-02         0.00000E+00
    0.32951E-02         0.41608E-02         0.00000E+00
    0.30957E-02         0.37819E-02         0.00000E+00
    0.28883E-02         0.33954E-02         0.00000E+00
    0.26621E-02         0.29906E-02         0.00000E+00
    0.24019E-02         0.25537E-02         0.00000E+00
    0.20831E-02         0.20657E-02         0.00000E+00
    0.16601E-02         0.14992E-02         0.00000E+00
    0.10316E-02         0.81418E-03         0.00000E+00
    0.00000E+00         0.00000E+00         0.00000E+00
    0.87440E-02         0.50367E-02         0.00000E+00
    0.73699E-02         0.50013E-02         0.00000E+00
    0.64495E-02         0.49011E-02         0.00000E+00
    0.58176E-02         0.47288E-02         0.00000E+00
    0.53514E-02         0.45001E-02         0.00000E+00
    0.49745E-02         0.42376E-02         0.00000E+00
    0.46447E-02         0.39552E-02         0.00000E+00
    0.43374E-02         0.36582E-02         0.00000E+00
    0.40354E-02         0.33459E-02         0.00000E+00
    0.37240E-02         0.30139E-02         0.00000E+00
    0.33874E-02         0.26542E-02         0.00000E+00
    0.30049E-02         0.22554E-02         0.00000E+00
    0.25452E-02         0.18027E-02         0.00000E+00
    0.19556E-02         0.12780E-02         0.00000E+00
    0.11485E-02         0.67046E-03         0.00000E+00
    0.00000E+00         0.00000E+00         0.00000E+00
    0.10477E-01         0.33735E-02         0.00000E+00
    0.90351E-02         0.34899E-02         0.00000E+00
    0.79626E-02         0.35579E-02         0.00000E+00
    0.71590E-02         0.35555E-02         0.00000E+00
    0.65331E-02         0.34861E-02         0.00000E+00
    0.60169E-02         0.33626E-02         0.00000E+00
    0.55647E-02         0.31979E-02         0.00000E+00
    0.51458E-02         0.30000E-02         0.00000E+00
    0.47378E-02         0.27720E-02         0.00000E+00
    0.43215E-02         0.25125E-02         0.00000E+00
    0.38771E-02         0.22169E-02         0.00000E+00
    0.33806E-02         0.18778E-02         0.00000E+00
    0.27990E-02         0.14861E-02         0.00000E+00
    0.20853E-02         0.10355E-02         0.00000E+00
    0.11761E-02         0.53043E-03         0.00000E+00
    0.00000E+00         0.00000E+00         0.00000E+00
    0.11917E-01         0.17303E-02         0.00000E+00
    0.10447E-01         0.19595E-02         0.00000E+00
    0.92694E-02         0.21527E-02         0.00000E+00
    0.83270E-02         0.22857E-02         0.00000E+00
    0.75578E-02         0.23527E-02         0.00000E+00
    0.69069E-02         0.23589E-02         0.00000E+00
    0.63314E-02         0.23127E-02         0.00000E+00
    0.57989E-02         0.22213E-02         0.00000E+00
    0.52837E-02         0.20890E-02         0.00000E+00
    0.47633E-02         0.19167E-02         0.00000E+00
    0.42155E-02         0.17029E-02         0.00000E+00
    0.36153E-02         0.14440E-02         0.00000E+00
    0.29323E-02         0.11371E-02         0.00000E+00
    0.21292E-02         0.78352E-03         0.00000E+00
    0.11642E-02         0.39496E-03         0.00000E+00
    0.00000E+00         0.00000E+00         0.00000E+00
    0.13144E-01         0.11929E-03         0.00000E+00
    0.11664E-01         0.43581E-03         0.00000E+00
    0.10410E-01         0.72558E-03         0.00000E+00
    0.93558E-02         0.96617E-03         0.00000E+00
    0.84619E-02         0.11479E-02         0.00000E+00
    0.76864E-02         0.12702E-02         0.00000E+00
    0.69925E-02         0.13372E-02         0.00000E+00
    0.63486E-02         0.13539E-02         0.00000E+00
    0.57281E-02         0.13243E-02         0.00000E+00
    0.51071E-02         0.12504E-02         0.00000E+00
    0.44624E-02         0.11328E-02         0.00000E+00
    0.37698E-02         0.97133E-03         0.00000E+00
    0.30032E-02         0.76740E-03         0.00000E+00
    0.21348E-02         0.52662E-03         0.00000E+00
    0.11391E-02         0.26264E-03         0.00000E+00
    0.00000E+00         0.00000E+00         0.00000E+00
    0.14216E-01        -0.14647E-02         0.00000E+00
    0.12726E-01        -0.10760E-02         0.00000E+00
    0.11414E-01        -0.70790E-03         0.00000E+00
    0.10269E-01        -0.37886E-03         0.00000E+00
    0.92680E-02        -0.99484E-04         0.00000E+00
    0.83809E-02         0.12656E-03         0.00000E+00
    0.75771E-02         0.30006E-03         0.00000E+00
    0.68280E-02         0.42373E-03         0.00000E+00
    0.61076E-02         0.50056E-03         0.00000E+00
    0.53920E-02         0.53292E-03         0.00000E+00
    0.46583E-02         0.52260E-03         0.00000E+00
    0.38843E-02         0.47165E-03         0.00000E+00
    0.30480E-02         0.38375E-03         0.00000E+00
    0.21297E-02         0.26618E-03         0.00000E+00
    0.11148E-02         0.13182E-03         0.00000E+00
    0.00000E+00         0.00000E+00         0.00000E+00
    0.15170E-01        -0.30341E-02         0.00000E+00
    0.13667E-01        -0.25815E-02         0.00000E+00
    0.12304E-01        -0.21453E-02         0.00000E+00
    0.11083E-01        -0.17397E-02         0.00000E+00
    0.99907E-02        -0.13743E-02         0.00000E+00
    0.90055E-02        -0.10539E-02         0.00000E+00
    0.81028E-02        -0.77976E-03         0.00000E+00
    0.72575E-02        -0.55090E-03         0.00000E+00
    0.64453E-02        -0.36549E-03         0.00000E+00
    0.56431E-02        -0.22142E-03         0.00000E+00
    0.48293E-02        -0.11642E-03         0.00000E+00
    0.39837E-02        -0.47565E-04         0.00000E+00
    0.30884E-02        -0.10389E-04         0.00000E+00
    0.21290E-02         0.22582E-05         0.00000E+00
    0.10984E-02         0.10266E-05         0.00000E+00
    0.00000E+00         0.00000E+00         0.00000E+00
    0.16031E-01        -0.46040E-02         0.00000E+00
    0.14507E-01        -0.40908E-02         0.00000E+00
    0.13097E-01        -0.35915E-02         0.00000E+00
    0.11810E-01        -0.31157E-02         0.00000E+00
    0.10639E-01        -0.26709E-02         0.00000E+00
    0.95689E-02        -0.22620E-02         0.00000E+00
    0.85794E-02        -0.18911E-02         0.00000E+00
    0.76487E-02        -0.15583E-02         0.00000E+00
    0.67545E-02        -0.12629E-02         0.00000E+00
    0.58753E-02        -0.10032E-02         0.00000E+00
    0.49907E-02        -0.77721E-03         0.00000E+00
    0.40826E-02        -0.58202E-03         0.00000E+00
    0.31360E-02        -0.41349E-03         0.00000E+00
    0.21405E-02        -0.26576E-03         0.00000E+00
    0.10929E-02        -0.13099E-03         0.00000E+00
    0.00000E+00         0.00000E+00         0.00000E+00
    0.16815E-01        -0.61899E-02         0.00000E+00
    0.15259E-01        -0.56163E-02         0.00000E+00
    0.13803E-01        -0.50548E-02         0.00000E+00
    0.12458E-01        -0.45109E-02         0.00000E+00
    0.11219E-01        -0.39896E-02         0.00000E+00
    0.10076E-01        -0.34948E-02         0.00000E+00
    0.90116E-02        -0.30288E-02         0.00000E+00
    0.80073E-02        -0.25924E-02         0.00000E+00
    0.70422E-02        -0.21855E-02         0.00000E+00
    0.60961E-02        -0.18071E-02         0.00000E+00
    0.51502E-02        -0.14560E-02         0.00000E+00
    0.41880E-02        -0.11297E-02         0.00000E+00
    0.31963E-02        -0.82532E-03         0.00000E+00
    0.21671E-02        -0.53878E-03         0.00000E+00
    0.10991E-02        -0.26528E-03         0.00000E+00
    0.00000E+00         0.00000E+00         0.00000E+00
    0.17527E-01        -0.78069E-02         0.00000E+00
    0.15930E-01        -0.71707E-02         0.00000E+00
    0.14428E-01        -0.65453E-02         0.00000E+00
    0.13029E-01        -0.59322E-02         0.00000E+00
    0.11732E-01        -0.53341E-02         0.00000E+00
    0.10527E-01        -0.47535E-02         0.00000E+00
    0.94008E-02        -0.41921E-02         0.00000E+00
    0.83350E-02        -0.36510E-02         0.00000E+00
    0.73105E-02        -0.31308E-02         0.00000E+00
    0.63083E-02        -0.26311E-02         0.00000E+00
    0.53106E-02        -0.21513E-02         0.00000E+00
    0.43019E-02        -0.16903E-02         0.00000E+00
    0.32703E-02        -0.12464E-02         0.00000E+00
    0.22086E-02        -0.81787E-03         0.00000E+00
    0.11162E-02        -0.40273E-03         0.00000E+00
    0.00000E+00         0.00000E+00         0.00000E+00
    0.18169E-01        -0.94685E-02         0.00000E+00
    0.16523E-01        -0.87659E-02         0.00000E+00
    0.14972E-01        -0.80729E-02         0.00000E+00
    0.13524E-01        -0.73877E-02         0.00000E+00
    0.12177E-01        -0.67102E-02         0.00000E+00
    0.10922E-01        -0.60415E-02         0.00000E+00
    0.97457E-02        -0.53827E-02         0.00000E+00
    0.86306E-02        -0.47349E-02         0.00000E+00
    0.75585E-02        -0.40987E-02         0.00000E+00
    0.65111E-02        -0.34748E-02         0.00000E+00
    0.54710E-02        -0.28633E-02         0.00000E+00
    0.44233E-02        -0.22643E-02         0.00000E+00
    0.33565E-02        -0.16778E-02         0.00000E+00
    0.22635E-02        -0.11041E-02         0.00000E+00
    0.11428E-02        -0.54410E-03         0.00000E+00
    0.00000E+00         0.00000E+00         0.00000E+00
    0.18737E-01        -0.11187E-01         0.00000E+00
    0.17035E-01        -0.10413E-01         0.00000E+00
    0.15435E-01        -0.96471E-02         0.00000E+00
    0.13942E-01        -0.88849E-02         0.00000E+00
    0.12553E-01        -0.81239E-02         0.00000E+00
    0.11258E-01        -0.73634E-02         0.00000E+00
    0.10043E-01        -0.66038E-02         0.00000E+00
    0.88908E-02        -0.58459E-02         0.00000E+00
    0.77830E-02        -0.50907E-02         0.00000E+00
    0.67013E-02        -0.43394E-02         0.00000E+00
    0.56284E-02        -0.35930E-02         0.00000E+00
    0.45493E-02        -0.28529E-02         0.00000E+00
    0.34520E-02        -0.21207E-02         0.00000E+00
    0.23288E-02        -0.13986E-02         0.00000E+00
    0.11771E-02        -0.69003E-03         0.00000E+00
    0.00000E+00         0.00000E+00         0.00000E+00
    0.19222E-01        -0.12971E-01         0.00000E+00
    0.17458E-01        -0.12120E-01         0.00000E+00
    0.15809E-01        -0.11276E-01         0.00000E+00
    0.14277E-01        -0.10431E-01         0.00000E+00
    0.12854E-01        -0.95806E-02         0.00000E+00
    0.11530E-01        -0.87233E-02         0.00000E+00
    0.10288E-01        -0.78583E-02         0.00000E+00
    0.91109E-02        -0.69863E-02         0.00000E+00
    0.79792E-02        -0.61084E-02         0.00000E+00
    0.68743E-02        -0.52262E-02         0.00000E+00
    0.57782E-02        -0.43416E-02         0.00000E+00
    0.46753E-02        -0.34572E-02         0.00000E+00
    0.35527E-02        -0.25761E-02         0.00000E+00
    0.24015E-02        -0.17022E-02         0.00000E+00
    0.12171E-02        -0.84098E-03         0.00000E+00
    0.00000E+00         0.00000E+00         0.00000E+00
    0.19613E-01        -0.14829E-01         0.00000E+00
    0.17783E-01        -0.13894E-01         0.00000E+00
    0.16088E-01        -0.12965E-01         0.00000E+00
    0.14522E-01        -0.12030E-01         0.00000E+00
    0.13074E-01        -0.11084E-01         0.00000E+00
    0.11731E-01        -0.10124E-01         0.00000E+00
    0.10475E-01        -0.91489E-02         0.00000E+00
    0.92847E-02        -0.81580E-02         0.00000E+00
    0.81413E-02        -0.71531E-02         0.00000E+00
    0.70243E-02        -0.61362E-02         0.00000E+00
    0.59149E-02        -0.51101E-02         0.00000E+00
    0.47962E-02        -0.40781E-02         0.00000E+00
    0.36542E-02        -0.30447E-02         0.00000E+00
    0.24779E-02        -0.20153E-02         0.00000E+00
    0.12606E-02        -0.99728E-03         0.00000E+00
    0.00000E+00         0.00000E+00         0.00000E+00
    0.19893E-01        -0.16764E-01         0.00000E+00
    0.17998E-01        -0.15739E-01         0.00000E+00
    0.16260E-01        -0.14717E-01         0.00000E+00
    0.14667E-01        -0.13686E-01         0.00000E+00
    0.13205E-01        -0.12638E-01         0.00000E+00
    0.11855E-01        -0.11569E-01         0.00000E+00
    0.10596E-01        -0.10476E-01         0.00000E+00
    0.94054E-02        -0.93615E-02         0.00000E+00
    0.82623E-02        -0.82251E-02         0.00000E+00
    0.71446E-02        -0.70697E-02         0.00000E+00
    0.60321E-02        -0.58985E-02         0.00000E+00
    0.49064E-02        -0.47157E-02         0.00000E+00
    0.37514E-02        -0.35267E-02         0.00000E+00
    0.25543E-02        -0.23382E-02         0.00000E+00
    0.13056E-02        -0.11590E-02         0.00000E+00
    0.00000E+00         0.00000E+00         0.00000E+00
    0.20046E-01        -0.18779E-01         0.00000E+00
    0.18088E-01        -0.17656E-01         0.00000E+00
    0.16314E-01        -0.16534E-01         0.00000E+00
    0.14704E-01        -0.15398E-01         0.00000E+00
    0.13237E-01        -0.14240E-01         0.00000E+00
    0.11892E-01        -0.13055E-01         0.00000E+00
    0.10643E-01        -0.11840E-01         0.00000E+00
    0.94651E-02        -0.10595E-01         0.00000E+00
    0.83347E-02        -0.93230E-02         0.00000E+00
    0.72281E-02        -0.80252E-02         0.00000E+00
    0.61232E-02        -0.67057E-02         0.00000E+00
    0.49995E-02        -0.53691E-02         0.00000E+00
    0.38392E-02        -0.40216E-02         0.00000E+00
    0.26267E-02        -0.26706E-02         0.00000E+00
    0.13499E-02        -0.13260E-02         0.00000E+00
    0.00000E+00         0.00000E+00         0.00000E+00
    0.20049E-01        -0.20869E-01         0.00000E+00
    0.18036E-01        -0.19642E-01         0.00000E+00
    0.16234E-01        -0.18412E-01         0.00000E+00
    0.14618E-01        -0.17163E-01         0.00000E+00
    0.13161E-01        -0.15887E-01         0.00000E+00
    0.11833E-01        -0.14579E-01         0.00000E+00
    0.10607E-01        -0.13235E-01         0.00000E+00
    0.94553E-02        -0.11856E-01         0.00000E+00
    0.83504E-02        -0.10443E-01         0.00000E+00
    0.72668E-02        -0.89997E-02         0.00000E+00
    0.61805E-02        -0.75291E-02         0.00000E+00
    0.50690E-02        -0.60364E-02         0.00000E+00
    0.39120E-02        -0.45278E-02         0.00000E+00
    0.26912E-02        -0.30115E-02         0.00000E+00
    0.13913E-02        -0.14979E-02         0.00000E+00
    0.00000E+00         0.00000E+00         0.00000E+00
    0.19883E-01        -0.23029E-01         0.00000E+00
    0.17824E-01        -0.21690E-01         0.00000E+00
    0.16007E-01        -0.20343E-01         0.00000E+00
    0.14399E-01        -0.18974E-01         0.00000E+00
    0.12964E-01        -0.17573E-01         0.00000E+00
    0.11668E-01        -0.16134E-01         0.00000E+00
    0.10480E-01        -0.14655E-01         0.00000E+00
    0.93671E-02        -0.13137E-01         0.00000E+00
    0.83005E-02        -0.11580E-01         0.00000E+00
    0.72522E-02        -0.99879E-02         0.00000E+00
    0.61961E-02        -0.83643E-02         0.00000E+00
    0.51076E-02        -0.67140E-02         0.00000E+00
    0.39637E-02        -0.50429E-02         0.00000E+00
    0.27433E-02        -0.33594E-02         0.00000E+00
    0.14275E-02        -0.16739E-02         0.00000E+00
    0.00000E+00         0.00000E+00         0.00000E+00
    0.19521E-01        -0.25247E-01         0.00000E+00
    0.17432E-01        -0.23788E-01         0.00000E+00
    0.15616E-01        -0.22318E-01         0.00000E+00
    0.14032E-01        -0.20820E-01         0.00000E+00
    0.12635E-01        -0.19286E-01         0.00000E+00
    0.11387E-01        -0.17709E-01         0.00000E+00
    0.10251E-01        -0.16090E-01         0.00000E+00
    0.91908E-02        -0.14428E-01         0.00000E+00
    0.81755E-02        -0.12724E-01         0.00000E+00
    0.71749E-02        -0.10982E-01         0.00000E+00
    0.61611E-02        -0.92050E-02         0.00000E+00
    0.51072E-02        -0.73968E-02         0.00000E+00
    0.39877E-02        -0.55633E-02         0.00000E+00
    0.27782E-02        -0.37120E-02         0.00000E+00
    0.14559E-02        -0.18530E-02         0.00000E+00
    0.00000E+00         0.00000E+00         0.00000E+00
    0.18941E-01        -0.27506E-01         0.00000E+00
    0.16840E-01        -0.25921E-01         0.00000E+00
    0.15046E-01        -0.24319E-01         0.00000E+00
    0.13504E-01        -0.22684E-01         0.00000E+00
    0.12164E-01        -0.21009E-01         0.00000E+00
    0.10980E-01        -0.19289E-01         0.00000E+00
    0.99100E-02        -0.17525E-01         0.00000E+00
    0.89164E-02        -0.15715E-01         0.00000E+00
    0.79652E-02        -0.13864E-01         0.00000E+00
    0.70249E-02        -0.11972E-01         0.00000E+00
    0.60658E-02        -0.10042E-01         0.00000E+00
    0.50590E-02        -0.80783E-02         0.00000E+00
    0.39765E-02        -0.60841E-02         0.00000E+00
    0.27904E-02        -0.40662E-02         0.00000E+00
    0.14735E-02        -0.20337E-02         0.00000E+00
    0.00000E+00         0.00000E+00         0.00000E+00
    0.18116E-01        -0.29785E-01         0.00000E+00
    0.16029E-01        -0.28066E-01         0.00000E+00
    0.14280E-01        -0.26324E-01         0.00000E+00
    0.12803E-01        -0.24545E-01         0.00000E+00
    0.11539E-01        -0.22723E-01         0.00000E+00
    0.10436E-01        -0.20854E-01         0.00000E+00
    0.94472E-02        -0.18940E-01         0.00000E+00
    0.85334E-02        -0.16983E-01         0.00000E+00
    0.76588E-02        -0.14983E-01         0.00000E+00
    0.67910E-02        -0.12944E-01         0.00000E+00
    0.58990E-02        -0.10865E-01         0.00000E+00
    0.49527E-02        -0.87496E-02         0.00000E+00
    0.39213E-02        -0.65991E-02         0.00000E+00
    0.27734E-02        -0.44181E-02         0.00000E+00
    0.14769E-02        -0.22144E-02         0.00000E+00
    0.00000E+00         0.00000E+00         0.00000E+00
    0.17021E-01        -0.32054E-01         0.00000E+00
    0.14980E-01        -0.30195E-01         0.00000E+00
    0.13304E-01        -0.28307E-01         0.00000E+00
    0.11917E-01        -0.26376E-01         0.00000E+00
    0.10750E-01        -0.24400E-01         0.00000E+00
    0.97449E-02        -0.22378E-01         0.00000E+00
    0.88522E-02        -0.20313E-01         0.00000E+00
    0.80307E-02        -0.18208E-01         0.00000E+00
    0.72443E-02        -0.16064E-01         0.00000E+00
    0.64604E-02        -0.13881E-01         0.00000E+00
    0.56481E-02        -0.11660E-01         0.00000E+00
    0.47761E-02        -0.94002E-02         0.00000E+00
    0.38117E-02        -0.71007E-02         0.00000E+00
    0.27195E-02        -0.47632E-02         0.00000E+00
    0.14620E-02        -0.23929E-02         0.00000E+00
    0.00000E+00         0.00000E+00         0.00000E+00
    0.15633E-01        -0.34278E-01         0.00000E+00
    0.13674E-01        -0.32274E-01         0.00000E+00
    0.12106E-01        -0.30232E-01         0.00000E+00
    0.10837E-01        -0.28143E-01         0.00000E+00
    0.97887E-02        -0.26008E-01         0.00000E+00
    0.88984E-02        -0.23831E-01         0.00000E+00
    0.81148E-02        -0.21615E-01         0.00000E+00
    0.73965E-02        -0.19366E-01         0.00000E+00
    0.67084E-02        -0.17082E-01         0.00000E+00
    0.60191E-02        -0.14765E-01         0.00000E+00
    0.52984E-02        -0.12411E-01         0.00000E+00
    0.45152E-02        -0.10018E-01         0.00000E+00
    0.36350E-02        -0.75800E-02         0.00000E+00
    0.26190E-02        -0.50960E-02         0.00000E+00
    0.14233E-02        -0.25668E-02         0.00000E+00
    0.00000E+00         0.00000E+00         0.00000E+00
    0.13928E-01        -0.36416E-01         0.00000E+00
    0.12097E-01        -0.34260E-01         0.00000E+00
    0.10675E-01        -0.32057E-01         0.00000E+00
    0.95542E-02        -0.29804E-01         0.00000E+00
    0.86473E-02        -0.27508E-01         0.00000E+00
    0.78876E-02        -0.25176E-01         0.00000E+00
    0.72244E-02        -0.22814E-01         0.00000E+00
    0.66181E-02        -0.20427E-01         0.00000E+00
    0.60365E-02        -0.18014E-01         0.00000E+00
    0.54507E-02        -0.15574E-01         0.00000E+00
    0.48328E-02        -0.13101E-01         0.00000E+00
    0.41527E-02        -0.10588E-01         0.00000E+00
    0.33758E-02        -0.80268E-02         0.00000E+00
    0.24599E-02        -0.54101E-02         0.00000E+00
    0.13543E-02        -0.27335E-02         0.00000E+00
    0.00000E+00         0.00000E+00         0.00000E+00
    0.11884E-01        -0.38413E-01         0.00000E+00
    0.10237E-01        -0.36101E-01         0.00000E+00
    0.90060E-02        -0.33732E-01         0.00000E+00
    0.80654E-02        -0.31312E-01         0.00000E+00
    0.73203E-02        -0.28854E-01         0.00000E+00
    0.67041E-02        -0.26371E-01         0.00000E+00
    0.61695E-02        -0.23872E-01         0.00000E+00
    0.56815E-02        -0.21359E-01         0.00000E+00
    0.52123E-02        -0.18831E-01         0.00000E+00
    0.47371E-02        -0.16283E-01         0.00000E+00
    0.42315E-02        -0.13707E-01         0.00000E+00
    0.36685E-02        -0.11094E-01         0.00000E+00
    0.30147E-02        -0.84289E-02         0.00000E+00
    0.22265E-02        -0.56982E-02         0.00000E+00
    0.12459E-02        -0.28898E-02         0.00000E+00
    0.00000E+00         0.00000E+00         0.00000E+00
    0.94817E-02        -0.40206E-01         0.00000E+00
    0.80861E-02        -0.37733E-01         0.00000E+00
    0.70979E-02        -0.35193E-01         0.00000E+00
    0.63690E-02        -0.32605E-01         0.00000E+00
    0.58026E-02        -0.29993E-01         0.00000E+00
    0.53384E-02        -0.27372E-01         0.00000E+00
    0.49371E-02        -0.24751E-01         0.00000E+00
    0.45708E-02        -0.22130E-01         0.00000E+00
    0.42175E-02        -0.19504E-01         0.00000E+00
    0.38578E-02        -0.16868E-01         0.00000E+00
    0.34723E-02        -0.14211E-01         0.00000E+00
    0.30387E-02        -0.11518E-01         0.00000E+00
    0.25279E-02        -0.87723E-02         0.00000E+00
    0.18979E-02        -0.59513E-02         0.00000E+00
    0.10854E-02        -0.30323E-02         0.00000E+00
    0.00000E+00         0.00000E+00         0.00000E+00
    0.67038E-02        -0.41711E-01         0.00000E+00
    0.56482E-02        -0.39073E-01         0.00000E+00
    0.49575E-02        -0.36360E-01         0.00000E+00
    0.44651E-02        -0.33614E-01         0.00000E+00
    0.40868E-02        -0.30867E-01         0.00000E+00
    0.37781E-02        -0.28132E-01         0.00000E+00
    0.35115E-02        -0.25413E-01         0.00000E+00
    0.32677E-02        -0.22707E-01         0.00000E+00
    0.30318E-02        -0.20008E-01         0.00000E+00
    0.27907E-02        -0.17307E-01         0.00000E+00
    0.25308E-02        -0.14590E-01         0.00000E+00
    0.22363E-02        -0.11841E-01         0.00000E+00
    0.18856E-02        -0.90400E-02         0.00000E+00
    0.14452E-02        -0.61578E-02         0.00000E+00
    0.85358E-03        -0.31562E-02         0.00000E+00
    0.00000E+00         0.00000E+00         0.00000E+00
    0.35375E-02        -0.42810E-01         0.00000E+00
    0.29421E-02        -0.40004E-01         0.00000E+00
    0.25941E-02        -0.37131E-01         0.00000E+00
    0.23481E-02        -0.34262E-01         0.00000E+00
    0.21598E-02        -0.31419E-01         0.00000E+00
    0.20062E-02        -0.28608E-01         0.00000E+00
    0.18733E-02        -0.25825E-01         0.00000E+00
    0.17516E-02        -0.23065E-01         0.00000E+00
    0.16336E-02        -0.20320E-01         0.00000E+00
    0.15126E-02        -0.17578E-01         0.00000E+00
    0.13818E-02        -0.14825E-01         0.00000E+00
    0.12329E-02        -0.12044E-01         0.00000E+00
    0.10544E-02        -0.92125E-02         0.00000E+00
    0.82765E-03        -0.62984E-02         0.00000E+00
    0.51641E-03        -0.32542E-02         0.00000E+00
    0.00000E+00         0.00000E+00         0.00000E+00
    0.00000E+00        -0.43294E-01         0.00000E+00
    0.00000E+00        -0.40352E-01         0.00000E+00
    0.00000E+00        -0.37404E-01         0.00000E+00
    0.00000E+00        -0.34487E-01         0.00000E+00
    0.00000E+00        -0.31609E-01         0.00000E+00
    0.00000E+00        -0.28770E-01         0.00000E+00
    0.00000E+00        -0.25965E-01         0.00000E+00
    0.00000E+00        -0.23187E-01         0.00000E+00
    0.00000E+00        -0.20426E-01         0.00000E+00
    0.00000E+00        -0.17670E-01         0.00000E+00
    0.00000E+00        -0.14906E-01         0.00000E+00
    0.00000E+00        -0.12114E-01         0.00000E+00
    0.00000E+00        -0.92723E-02         0.00000E+00
    0.00000E+00        -0.63491E-02         0.00000E+00
    0.00000E+00        -0.32957E-02         0.00000E+00
    0.00000E+00         0.00000E+00         0.00000E+00
CELL_DATA        450
VECTORS vDarcy double 
    0.61224E-07         0.19673E-09         0.00000E+00
    0.60662E-07         0.33442E-09         0.00000E+00
    0.59968E-07         0.34048E-09         0.00000E+00
    0.59310E-07         0.30593E-09         0.00000E+00
    0.58726E-07         0.26833E-09         0.00000E+00
    0.58215E-07         0.23556E-09         0.00000E+00
    0.57764E-07         0.20919E-09         0.00000E+00
    0.57360E-07         0.18912E-09         0.00000E+00
    0.56991E-07         0.17493E-09         0.00000E+00
    0.56645E-07         0.16627E-09         0.00000E+00
    0.56311E-07         0.16288E-09         0.00000E+00
    0.55979E-07         0.16432E-09         0.00000E+00
    0.55641E-07         0.16876E-09         0.00000E+00
    0.55296E-07         0.16872E-09         0.00000E+00
    0.54982E-07         0.13435E-09         0.00000E+00
    0.42386E-07         0.32223E-09         0.00000E+00
    0.42471E-07         0.64739E-09         0.00000E+00
    0.42438E-07         0.72553E-09         0.00000E+00
    0.42302E-07         0.69608E-09         0.00000E+00
    0.42112E-07         0.63615E-09         0.00000E+00
    0.41904E-07         0.57360E-09         0.00000E+00
    0.41698E-07         0.51813E-09         0.00000E+00
    0.41499E-07         0.47273E-09         0.00000E+00
    0.41313E-07         0.43793E-09         0.00000E+00
    0.41141E-07         0.41333E-09         0.00000E+00
    0.40985E-07         0.39774E-09         0.00000E+00
    0.40850E-07         0.38831E-09         0.00000E+00
    0.40747E-07         0.37723E-09         0.00000E+00
    0.40697E-07         0.34291E-09         0.00000E+00
    0.40744E-07         0.21215E-09         0.00000E+00
    0.29820E-07         0.19270E-09         0.00000E+00
    0.29984E-07         0.51784E-09         0.00000E+00
    0.30172E-07         0.68657E-09         0.00000E+00
    0.30297E-07         0.73527E-09         0.00000E+00
    0.30353E-07         0.72151E-09         0.00000E+00
    0.30358E-07         0.68174E-09         0.00000E+00
    0.30333E-07         0.63446E-09         0.00000E+00
    0.30293E-07         0.58824E-09         0.00000E+00
    0.30249E-07         0.54648E-09         0.00000E+00
    0.30211E-07         0.50961E-09         0.00000E+00
    0.30188E-07         0.47550E-09         0.00000E+00
    0.30190E-07         0.43851E-09         0.00000E+00
    0.30228E-07         0.38643E-09         0.00000E+00
    0.30311E-07         0.29413E-09         0.00000E+00
    0.30405E-07         0.11462E-09         0.00000E+00
    0.21354E-07         0.81450E-10         0.00000E+00
    0.21516E-07         0.29937E-09         0.00000E+00
    0.21743E-07         0.48395E-09         0.00000E+00
    0.21961E-07         0.58985E-09         0.00000E+00
    0.22134E-07         0.63157E-09         0.00000E+00
    0.22263E-07         0.63286E-09         0.00000E+00
    0.22354E-07         0.61168E-09         0.00000E+00
    0.22422E-07         0.57887E-09         0.00000E+00
    0.22478E-07         0.53989E-09         0.00000E+00
    0.22532E-07         0.49621E-09         0.00000E+00
    0.22595E-07         0.44592E-09         0.00000E+00
    0.22675E-07         0.38351E-09         0.00000E+00
    0.22775E-07         0.29961E-09         0.00000E+00
    0.22887E-07         0.18293E-09         0.00000E+00
    0.22974E-07         0.43238E-10         0.00000E+00
    0.15715E-07        -0.87757E-11         0.00000E+00
    0.15843E-07         0.97770E-10         0.00000E+00
    0.16048E-07         0.25161E-09         0.00000E+00
    0.16272E-07         0.37733E-09         0.00000E+00
    0.16483E-07         0.45639E-09         0.00000E+00
    0.16665E-07         0.49430E-09         0.00000E+00
    0.16819E-07         0.50167E-09         0.00000E+00
    0.16949E-07         0.48743E-09         0.00000E+00
    0.17065E-07         0.45716E-09         0.00000E+00
    0.17174E-07         0.41314E-09         0.00000E+00
    0.17283E-07         0.35478E-09         0.00000E+00
    0.17397E-07         0.27958E-09         0.00000E+00
    0.17512E-07         0.18544E-09         0.00000E+00
    0.17617E-07         0.78674E-10         0.00000E+00
    0.17685E-07        -0.72890E-11         0.00000E+00
    0.12025E-07        -0.71429E-10         0.00000E+00
    0.12118E-07        -0.61911E-10         0.00000E+00
    0.12280E-07         0.43936E-10         0.00000E+00
    0.12477E-07         0.16183E-09         0.00000E+00
    0.12681E-07         0.25611E-09         0.00000E+00
    0.12873E-07         0.31739E-09         0.00000E+00
    0.13049E-07         0.34743E-09         0.00000E+00
    0.13207E-07         0.35098E-09         0.00000E+00
    0.13351E-07         0.33222E-09         0.00000E+00
    0.13485E-07         0.29373E-09         0.00000E+00
    0.13611E-07         0.23678E-09         0.00000E+00
    0.13731E-07         0.16274E-09         0.00000E+00
    0.13840E-07         0.76793E-10         0.00000E+00
    0.13926E-07        -0.44199E-11         0.00000E+00
    0.13975E-07        -0.40067E-10         0.00000E+00
    0.96880E-08        -0.11226E-09         0.00000E+00
    0.97517E-08        -0.17811E-09         0.00000E+00
    0.98721E-08        -0.12300E-09         0.00000E+00
    0.10031E-07        -0.27834E-10         0.00000E+00
    0.10207E-07         0.64620E-10         0.00000E+00
    0.10386E-07         0.13578E-09         0.00000E+00
    0.10559E-07         0.18010E-09         0.00000E+00
    0.10720E-07         0.19782E-09         0.00000E+00
    0.10869E-07         0.19110E-09         0.00000E+00
    0.11006E-07         0.16240E-09         0.00000E+00
    0.11132E-07         0.11451E-09         0.00000E+00
    0.11244E-07         0.52090E-10         0.00000E+00
    0.11337E-07        -0.14963E-10         0.00000E+00
    0.11404E-07        -0.65651E-10         0.00000E+00
    0.11437E-07        -0.59946E-10         0.00000E+00
    0.82984E-08        -0.13728E-09         0.00000E+00
    0.83397E-08        -0.25817E-09         0.00000E+00
    0.84249E-08        -0.24898E-09         0.00000E+00
    0.85462E-08        -0.18245E-09         0.00000E+00
    0.86902E-08        -0.10220E-09         0.00000E+00
    0.88444E-08        -0.31397E-10         0.00000E+00
    0.89992E-08         0.19515E-10         0.00000E+00
    0.91484E-08         0.47136E-10         0.00000E+00
    0.92886E-08         0.51605E-10         0.00000E+00
    0.94171E-08         0.34937E-10         0.00000E+00
    0.95317E-08         0.84585E-12         0.00000E+00
    0.96290E-08        -0.44061E-10         0.00000E+00
    0.97044E-08        -0.87695E-10         0.00000E+00
    0.97534E-08        -0.10854E-09         0.00000E+00
    0.97745E-08        -0.70925E-10         0.00000E+00
    0.75800E-08        -0.15143E-09         0.00000E+00
    0.76053E-08        -0.31070E-09         0.00000E+00
    0.76631E-08        -0.33986E-09         0.00000E+00
    0.77521E-08        -0.30229E-09         0.00000E+00
    0.78644E-08        -0.23922E-09         0.00000E+00
    0.79905E-08        -0.17523E-09         0.00000E+00
    0.81219E-08        -0.12343E-09         0.00000E+00
    0.82518E-08        -0.89741E-10         0.00000E+00
    0.83752E-08        -0.75648E-10         0.00000E+00
    0.84879E-08        -0.79759E-10         0.00000E+00
    0.85865E-08        -0.98095E-10         0.00000E+00
    0.86670E-08        -0.12333E-09         0.00000E+00
    0.87259E-08        -0.14305E-09         0.00000E+00
    0.87609E-08        -0.13733E-09         0.00000E+00
    0.87737E-08        -0.76059E-10         0.00000E+00
    0.73453E-08        -0.15833E-09         0.00000E+00
    0.73593E-08        -0.34322E-09         0.00000E+00
    0.73966E-08        -0.40283E-09         0.00000E+00
    0.74595E-08        -0.39161E-09         0.00000E+00
    0.75439E-08        -0.34704E-09         0.00000E+00
    0.76431E-08        -0.29314E-09         0.00000E+00
    0.77498E-08        -0.24413E-09         0.00000E+00
    0.78577E-08        -0.20733E-09         0.00000E+00
    0.79612E-08        -0.18543E-09         0.00000E+00
    0.80557E-08        -0.17769E-09         0.00000E+00
    0.81369E-08        -0.18036E-09         0.00000E+00
    0.82013E-08        -0.18630E-09         0.00000E+00
    0.82460E-08        -0.18392E-09         0.00000E+00
    0.82703E-08        -0.15585E-09         0.00000E+00
    0.82774E-08        -0.77560E-10         0.00000E+00
    0.74661E-08        -0.16052E-09         0.00000E+00
    0.74723E-08        -0.36159E-09         0.00000E+00
    0.74947E-08        -0.44447E-09         0.00000E+00
    0.75372E-08        -0.45577E-09         0.00000E+00
    0.75984E-08        -0.42881E-09         0.00000E+00
    0.76736E-08        -0.38612E-09         0.00000E+00
    0.77571E-08        -0.34187E-09         0.00000E+00
    0.78433E-08        -0.30407E-09         0.00000E+00
    0.79268E-08        -0.27614E-09         0.00000E+00
    0.80030E-08        -0.25798E-09         0.00000E+00
    0.80677E-08        -0.24638E-09         0.00000E+00
    0.81177E-08        -0.23488E-09         0.00000E+00
    0.81507E-08        -0.21333E-09         0.00000E+00
    0.81671E-08        -0.16718E-09         0.00000E+00
    0.81706E-08        -0.76972E-10         0.00000E+00
    0.78545E-08        -0.15968E-09         0.00000E+00
    0.78555E-08        -0.37010E-09         0.00000E+00
    0.78670E-08        -0.47017E-09         0.00000E+00
    0.78939E-08        -0.49987E-09         0.00000E+00
    0.79362E-08        -0.48854E-09         0.00000E+00
    0.79910E-08        -0.45676E-09         0.00000E+00
    0.80540E-08        -0.41810E-09         0.00000E+00
    0.81203E-08        -0.38067E-09         0.00000E+00
    0.81852E-08        -0.34834E-09         0.00000E+00
    0.82445E-08        -0.32154E-09         0.00000E+00
    0.82944E-08        -0.29770E-09         0.00000E+00
    0.83320E-08        -0.27136E-09         0.00000E+00
    0.83558E-08        -0.23395E-09         0.00000E+00
    0.83664E-08        -0.17366E-09         0.00000E+00
    0.83676E-08        -0.75328E-10         0.00000E+00
    0.84494E-08        -0.15691E-09         0.00000E+00
    0.84468E-08        -0.37173E-09         0.00000E+00
    0.84503E-08        -0.48402E-09         0.00000E+00
    0.84652E-08        -0.52821E-09         0.00000E+00
    0.84924E-08        -0.53008E-09         0.00000E+00
    0.85302E-08        -0.50819E-09         0.00000E+00
    0.85755E-08        -0.47520E-09         0.00000E+00
    0.86243E-08        -0.43900E-09         0.00000E+00
    0.86727E-08        -0.40367E-09         0.00000E+00
    0.87170E-08        -0.37007E-09         0.00000E+00
    0.87540E-08        -0.33631E-09         0.00000E+00
    0.87813E-08        -0.29793E-09         0.00000E+00
    0.87978E-08        -0.24795E-09         0.00000E+00
    0.88043E-08        -0.17694E-09         0.00000E+00
    0.88042E-08        -0.73279E-10         0.00000E+00
    0.92071E-08        -0.15290E-09         0.00000E+00
    0.92018E-08        -0.36849E-09         0.00000E+00
    0.91994E-08        -0.48893E-09         0.00000E+00
    0.92050E-08        -0.54412E-09         0.00000E+00
    0.92199E-08        -0.55671E-09         0.00000E+00
    0.92436E-08        -0.54335E-09         0.00000E+00
    0.92737E-08        -0.51569E-09         0.00000E+00
    0.93074E-08        -0.48124E-09         0.00000E+00
    0.93414E-08        -0.44410E-09         0.00000E+00
    0.93727E-08        -0.40548E-09         0.00000E+00
    0.93986E-08        -0.36410E-09         0.00000E+00
    0.94174E-08        -0.31645E-09         0.00000E+00
    0.94282E-08        -0.25693E-09         0.00000E+00
    0.94316E-08        -0.17814E-09         0.00000E+00
    0.94307E-08        -0.71190E-10         0.00000E+00
    0.10095E-07        -0.14802E-09         0.00000E+00
    0.10087E-07        -0.36161E-09         0.00000E+00
    0.10080E-07        -0.48690E-09         0.00000E+00
    0.10078E-07        -0.55002E-09         0.00000E+00
    0.10083E-07        -0.57100E-09         0.00000E+00
    0.10095E-07        -0.56474E-09         0.00000E+00
    0.10112E-07        -0.54189E-09         0.00000E+00
    0.10133E-07        -0.50949E-09         0.00000E+00
    0.10154E-07        -0.47155E-09         0.00000E+00
    0.10174E-07        -0.42954E-09         0.00000E+00
    0.10191E-07        -0.38270E-09         0.00000E+00
    0.10202E-07        -0.32832E-09         0.00000E+00
    0.10208E-07        -0.26200E-09         0.00000E+00
    0.10209E-07        -0.17790E-09         0.00000E+00
    0.10208E-07        -0.69225E-10         0.00000E+00
    0.11086E-07        -0.14245E-09         0.00000E+00
    0.11077E-07        -0.35176E-09         0.00000E+00
    0.11066E-07        -0.47912E-09         0.00000E+00
    0.11058E-07        -0.54755E-09         0.00000E+00
    0.11054E-07        -0.57481E-09         0.00000E+00
    0.11055E-07        -0.57430E-09         0.00000E+00
    0.11061E-07        -0.55567E-09         0.00000E+00
    0.11070E-07        -0.52549E-09         0.00000E+00
    0.11080E-07        -0.48762E-09         0.00000E+00
    0.11090E-07        -0.44369E-09         0.00000E+00
    0.11099E-07        -0.39334E-09         0.00000E+00
    0.11104E-07        -0.33454E-09         0.00000E+00
    0.11106E-07        -0.26380E-09         0.00000E+00
    0.11105E-07        -0.17653E-09         0.00000E+00
    0.11103E-07        -0.67399E-10         0.00000E+00
    0.12159E-07        -0.13621E-09         0.00000E+00
    0.12148E-07        -0.33923E-09         0.00000E+00
    0.12133E-07        -0.46625E-09         0.00000E+00
    0.12119E-07        -0.53769E-09         0.00000E+00
    0.12107E-07        -0.56940E-09         0.00000E+00
    0.12099E-07        -0.57339E-09         0.00000E+00
    0.12095E-07        -0.55846E-09         0.00000E+00
    0.12094E-07        -0.53062E-09         0.00000E+00
    0.12094E-07        -0.49358E-09         0.00000E+00
    0.12095E-07        -0.44903E-09         0.00000E+00
    0.12096E-07        -0.39691E-09         0.00000E+00
    0.12096E-07        -0.33571E-09         0.00000E+00
    0.12094E-07        -0.26267E-09         0.00000E+00
    0.12091E-07        -0.17408E-09         0.00000E+00
    0.12088E-07        -0.65632E-10         0.00000E+00
    0.13291E-07        -0.12923E-09         0.00000E+00
    0.13279E-07        -0.32402E-09         0.00000E+00
    0.13260E-07        -0.44854E-09         0.00000E+00
    0.13240E-07        -0.52100E-09         0.00000E+00
    0.13221E-07        -0.55555E-09         0.00000E+00
    0.13205E-07        -0.56299E-09         0.00000E+00
    0.13191E-07        -0.55127E-09         0.00000E+00
    0.13181E-07        -0.52590E-09         0.00000E+00
    0.13172E-07        -0.49036E-09         0.00000E+00
    0.13165E-07        -0.44633E-09         0.00000E+00
    0.13159E-07        -0.39398E-09         0.00000E+00
    0.13153E-07        -0.33217E-09         0.00000E+00
    0.13147E-07        -0.25869E-09         0.00000E+00
    0.13142E-07        -0.17044E-09         0.00000E+00
    0.13139E-07        -0.63784E-10         0.00000E+00
    0.14463E-07        -0.12137E-09         0.00000E+00
    0.14448E-07        -0.30597E-09         0.00000E+00
    0.14426E-07        -0.42600E-09         0.00000E+00
    0.14400E-07        -0.49771E-09         0.00000E+00
    0.14374E-07        -0.53375E-09         0.00000E+00
    0.14350E-07        -0.54376E-09         0.00000E+00
    0.14327E-07        -0.53488E-09         0.00000E+00
    0.14308E-07        -0.51211E-09         0.00000E+00
    0.14291E-07        -0.47865E-09         0.00000E+00
    0.14277E-07        -0.43615E-09         0.00000E+00
    0.14264E-07        -0.38490E-09         0.00000E+00
    0.14253E-07        -0.32405E-09         0.00000E+00
    0.14243E-07        -0.25177E-09         0.00000E+00
    0.14236E-07        -0.16539E-09         0.00000E+00
    0.14232E-07        -0.61685E-10         0.00000E+00
    0.15651E-07        -0.11249E-09         0.00000E+00
    0.15635E-07        -0.28486E-09         0.00000E+00
    0.15608E-07        -0.39853E-09         0.00000E+00
    0.15577E-07        -0.46796E-09         0.00000E+00
    0.15544E-07        -0.50435E-09         0.00000E+00
    0.15512E-07        -0.51623E-09         0.00000E+00
    0.15482E-07        -0.50993E-09         0.00000E+00
    0.15455E-07        -0.48991E-09         0.00000E+00
    0.15430E-07        -0.45907E-09         0.00000E+00
    0.15408E-07        -0.41896E-09         0.00000E+00
    0.15389E-07        -0.36996E-09         0.00000E+00
    0.15373E-07        -0.31141E-09         0.00000E+00
    0.15360E-07        -0.24178E-09         0.00000E+00
    0.15350E-07        -0.15870E-09         0.00000E+00
    0.15345E-07        -0.59163E-10         0.00000E+00
    0.16834E-07        -0.10246E-09         0.00000E+00
    0.16816E-07        -0.26050E-09         0.00000E+00
    0.16785E-07        -0.36610E-09         0.00000E+00
    0.16749E-07        -0.43193E-09         0.00000E+00
    0.16709E-07        -0.46775E-09         0.00000E+00
    0.16670E-07        -0.48098E-09         0.00000E+00
    0.16633E-07        -0.47709E-09         0.00000E+00
    0.16598E-07        -0.45999E-09         0.00000E+00
    0.16567E-07        -0.43223E-09         0.00000E+00
    0.16538E-07        -0.39524E-09         0.00000E+00
    0.16514E-07        -0.34943E-09         0.00000E+00
    0.16493E-07        -0.29433E-09         0.00000E+00
    0.16476E-07        -0.22860E-09         0.00000E+00
    0.16464E-07        -0.15014E-09         0.00000E+00
    0.16457E-07        -0.56060E-10         0.00000E+00
    0.17988E-07        -0.91178E-10         0.00000E+00
    0.17968E-07        -0.23283E-09         0.00000E+00
    0.17934E-07        -0.32883E-09         0.00000E+00
    0.17892E-07        -0.38999E-09         0.00000E+00
    0.17847E-07        -0.42457E-09         0.00000E+00
    0.17802E-07        -0.43877E-09         0.00000E+00
    0.17758E-07        -0.43722E-09         0.00000E+00
    0.17717E-07        -0.42319E-09         0.00000E+00
    0.17680E-07        -0.39888E-09         0.00000E+00
    0.17646E-07        -0.36558E-09         0.00000E+00
    0.17616E-07        -0.32373E-09         0.00000E+00
    0.17590E-07        -0.27298E-09         0.00000E+00
    0.17570E-07        -0.21222E-09         0.00000E+00
    0.17555E-07        -0.13957E-09         0.00000E+00
    0.17548E-07        -0.52253E-10         0.00000E+00
    0.19090E-07        -0.78656E-10         0.00000E+00
    0.19068E-07        -0.20201E-09         0.00000E+00
    0.19031E-07        -0.28715E-09         0.00000E+00
    0.18985E-07        -0.34285E-09         0.00000E+00
    0.18935E-07        -0.37571E-09         0.00000E+00
    0.18885E-07        -0.39069E-09         0.00000E+00
    0.18837E-07        -0.39143E-09         0.00000E+00
    0.18791E-07        -0.38059E-09         0.00000E+00
    0.18748E-07        -0.36001E-09         0.00000E+00
    0.18710E-07        -0.33080E-09         0.00000E+00
    0.18676E-07        -0.29342E-09         0.00000E+00
    0.18646E-07        -0.24769E-09         0.00000E+00
    0.18623E-07        -0.19275E-09         0.00000E+00
    0.18606E-07        -0.12693E-09         0.00000E+00
    0.18597E-07        -0.47662E-10         0.00000E+00
    0.20117E-07        -0.65007E-10         0.00000E+00
    0.20094E-07        -0.16851E-09         0.00000E+00
    0.20055E-07        -0.24189E-09         0.00000E+00
    0.20006E-07        -0.29165E-09         0.00000E+00
    0.19953E-07        -0.32255E-09         0.00000E+00
    0.19900E-07        -0.33816E-09         0.00000E+00
    0.19848E-07        -0.34116E-09         0.00000E+00
    0.19799E-07        -0.33357E-09         0.00000E+00
    0.19753E-07        -0.31683E-09         0.00000E+00
    0.19711E-07        -0.29192E-09         0.00000E+00
    0.19674E-07        -0.25932E-09         0.00000E+00
    0.19641E-07        -0.21903E-09         0.00000E+00
    0.19615E-07        -0.17046E-09         0.00000E+00
    0.19596E-07        -0.11231E-09         0.00000E+00
    0.19586E-07        -0.42257E-10         0.00000E+00
    0.21049E-07        -0.50508E-10         0.00000E+00
    0.21025E-07        -0.13317E-09         0.00000E+00
    0.20985E-07        -0.19440E-09         0.00000E+00
    0.20936E-07        -0.23806E-09         0.00000E+00
    0.20882E-07        -0.26689E-09         0.00000E+00
    0.20828E-07        -0.28302E-09         0.00000E+00
    0.20774E-07        -0.28816E-09         0.00000E+00
    0.20723E-07        -0.28370E-09         0.00000E+00
    0.20676E-07        -0.27076E-09         0.00000E+00
    0.20632E-07        -0.25015E-09         0.00000E+00
    0.20592E-07        -0.22241E-09         0.00000E+00
    0.20558E-07        -0.18772E-09         0.00000E+00
    0.20530E-07        -0.14585E-09         0.00000E+00
    0.20509E-07        -0.95912E-10         0.00000E+00
    0.20498E-07        -0.36064E-10         0.00000E+00
    0.21869E-07        -0.35633E-10         0.00000E+00
    0.21846E-07        -0.97319E-10         0.00000E+00
    0.21807E-07        -0.14658E-09         0.00000E+00
    0.21759E-07        -0.18424E-09         0.00000E+00
    0.21707E-07        -0.21091E-09         0.00000E+00
    0.21653E-07        -0.22731E-09         0.00000E+00
    0.21600E-07        -0.23427E-09         0.00000E+00
    0.21550E-07        -0.23264E-09         0.00000E+00
    0.21502E-07        -0.22324E-09         0.00000E+00
    0.21457E-07        -0.20677E-09         0.00000E+00
    0.21417E-07        -0.18378E-09         0.00000E+00
    0.21382E-07        -0.15466E-09         0.00000E+00
    0.21353E-07        -0.11953E-09         0.00000E+00
    0.21331E-07        -0.78091E-10         0.00000E+00
    0.21319E-07        -0.29164E-10         0.00000E+00
    0.22565E-07        -0.21124E-10         0.00000E+00
    0.22545E-07        -0.62878E-10         0.00000E+00
    0.22509E-07        -0.10095E-09         0.00000E+00
    0.22466E-07        -0.13279E-09         0.00000E+00
    0.22418E-07        -0.15697E-09         0.00000E+00
    0.22367E-07        -0.17304E-09         0.00000E+00
    0.22317E-07        -0.18115E-09         0.00000E+00
    0.22268E-07        -0.18176E-09         0.00000E+00
    0.22220E-07        -0.17546E-09         0.00000E+00
    0.22176E-07        -0.16284E-09         0.00000E+00
    0.22136E-07        -0.14446E-09         0.00000E+00
    0.22101E-07        -0.12080E-09         0.00000E+00
    0.22072E-07        -0.92311E-10         0.00000E+00
    0.22050E-07        -0.59329E-10         0.00000E+00
    0.22038E-07        -0.21683E-10         0.00000E+00
    0.23135E-07        -0.81149E-11         0.00000E+00
    0.23120E-07        -0.32494E-10         0.00000E+00
    0.23092E-07        -0.60538E-10         0.00000E+00
    0.23056E-07        -0.86361E-10         0.00000E+00
    0.23014E-07        -0.10709E-09         0.00000E+00
    0.22968E-07        -0.12160E-09         0.00000E+00
    0.22920E-07        -0.12972E-09         0.00000E+00
    0.22873E-07        -0.13167E-09         0.00000E+00
    0.22826E-07        -0.12789E-09         0.00000E+00
    0.22782E-07        -0.11885E-09         0.00000E+00
    0.22743E-07        -0.10502E-09         0.00000E+00
    0.22708E-07        -0.86897E-10         0.00000E+00
    0.22679E-07        -0.65059E-10         0.00000E+00
    0.22658E-07        -0.40290E-10         0.00000E+00
    0.22646E-07        -0.13822E-10         0.00000E+00
    0.23588E-07         0.16315E-11         0.00000E+00
    0.23582E-07        -0.99560E-11         0.00000E+00
    0.23566E-07        -0.28633E-10         0.00000E+00
    0.23539E-07        -0.46995E-10         0.00000E+00
    0.23504E-07        -0.62123E-10         0.00000E+00
    0.23462E-07        -0.72991E-10         0.00000E+00
    0.23416E-07        -0.79402E-10         0.00000E+00
    0.23368E-07        -0.81511E-10         0.00000E+00
    0.23321E-07        -0.79611E-10         0.00000E+00
    0.23276E-07        -0.74023E-10         0.00000E+00
    0.23235E-07        -0.65073E-10         0.00000E+00
    0.23200E-07        -0.53102E-10         0.00000E+00
    0.23172E-07        -0.38559E-10         0.00000E+00
    0.23153E-07        -0.22216E-10         0.00000E+00
    0.23142E-07        -0.57877E-11         0.00000E+00
    0.23950E-07         0.27096E-11         0.00000E+00
    0.23960E-07        -0.60604E-12         0.00000E+00
    0.23959E-07        -0.76078E-11         0.00000E+00
    0.23941E-07        -0.14630E-10         0.00000E+00
    0.23910E-07        -0.20434E-10         0.00000E+00
    0.23869E-07        -0.24633E-10         0.00000E+00
    0.23820E-07        -0.27165E-10         0.00000E+00
    0.23767E-07        -0.28094E-10         0.00000E+00
    0.23714E-07        -0.27535E-10         0.00000E+00
    0.23663E-07        -0.25605E-10         0.00000E+00
    0.23617E-07        -0.22419E-10         0.00000E+00
    0.23579E-07        -0.18096E-10         0.00000E+00
    0.23550E-07        -0.12786E-10         0.00000E+00
    0.23534E-07        -0.68175E-11         0.00000E+00
    0.23530E-07        -0.87367E-12         0.00000E+00
POINT_DATA        496
VECTORS vDarcyNodal double 
    0.61421E-07         0.00000E+00         0.00000E+00
    0.61012E-07         0.00000E+00         0.00000E+00
    0.60318E-07         0.00000E+00         0.00000E+00
    0.59622E-07         0.00000E+00         0.00000E+00
    0.58999E-07         0.00000E+00         0.00000E+00
    0.58454E-07         0.00000E+00         0.00000E+00
    0.57976E-07         0.00000E+00         0.00000E+00
    0.57552E-07         0.00000E+00         0.00000E+00
    0.57168E-07         0.00000E+00         0.00000E+00
    0.56814E-07         0.00000E+00         0.00000E+00
    0.56477E-07         0.00000E+00         0.00000E+00
    0.56146E-07         0.00000E+00         0.00000E+00
    0.55812E-07        -0.66619E-22         0.00000E+00
    0.55469E-07        -0.83313E-26         0.00000E+00
    0.55122E-07         0.66611E-22         0.00000E+00
    0.54847E-07         0.00000E+00         0.00000E+00
    0.51868E-07         0.39327E-09         0.00000E+00
    0.51733E-07         0.53095E-09         0.00000E+00
    0.51403E-07         0.67471E-09         0.00000E+00
    0.51006E-07         0.64625E-09         0.00000E+00
    0.50607E-07         0.57412E-09         0.00000E+00
    0.50232E-07         0.50377E-09         0.00000E+00
    0.49888E-07         0.44465E-09         0.00000E+00
    0.49574E-07         0.39823E-09         0.00000E+00
    0.49286E-07         0.36397E-09         0.00000E+00
    0.49018E-07         0.34112E-09         0.00000E+00
    0.48767E-07         0.32908E-09         0.00000E+00
    0.48529E-07         0.32714E-09         0.00000E+00
    0.48300E-07         0.33301E-09         0.00000E+00
    0.48087E-07         0.33741E-09         0.00000E+00
    0.47906E-07         0.30303E-09         0.00000E+00
    0.47824E-07         0.26867E-09         0.00000E+00
    0.36038E-07         0.25132E-09         0.00000E+00
    0.36165E-07         0.43876E-09         0.00000E+00
    0.36289E-07         0.69824E-09         0.00000E+00
    0.36322E-07         0.77537E-09         0.00000E+00
    0.36277E-07         0.75810E-09         0.00000E+00
    0.36188E-07         0.70598E-09         0.00000E+00
    0.36075E-07         0.64707E-09         0.00000E+00
    0.35956E-07         0.59262E-09         0.00000E+00
    0.35837E-07         0.54668E-09         0.00000E+00
    0.35726E-07         0.51013E-09         0.00000E+00
    0.35627E-07         0.48198E-09         0.00000E+00
    0.35546E-07         0.45891E-09         0.00000E+00
    0.35493E-07         0.43254E-09         0.00000E+00
    0.35481E-07         0.38274E-09         0.00000E+00
    0.35527E-07         0.25206E-09         0.00000E+00
    0.35623E-07         0.15566E-09         0.00000E+00
    0.25532E-07         0.13412E-09         0.00000E+00
    0.25642E-07         0.27184E-09         0.00000E+00
    0.25858E-07         0.50624E-09         0.00000E+00
    0.26058E-07         0.64653E-09         0.00000E+00
    0.26200E-07         0.69871E-09         0.00000E+00
    0.26287E-07         0.69730E-09         0.00000E+00
    0.26334E-07         0.66915E-09         0.00000E+00
    0.26354E-07         0.63009E-09         0.00000E+00
    0.26361E-07         0.58806E-09         0.00000E+00
    0.26366E-07         0.54598E-09         0.00000E+00
    0.26378E-07         0.50315E-09         0.00000E+00
    0.26406E-07         0.45512E-09         0.00000E+00
    0.26459E-07         0.39242E-09         0.00000E+00
    0.26544E-07         0.29784E-09         0.00000E+00
    0.26654E-07         0.15671E-09         0.00000E+00
    0.26725E-07         0.73593E-10         0.00000E+00
    0.18489E-07         0.28806E-10         0.00000E+00
    0.18579E-07         0.10901E-09         0.00000E+00
    0.18780E-07         0.27714E-09         0.00000E+00
    0.19011E-07         0.42732E-09         0.00000E+00
    0.19222E-07         0.52274E-09         0.00000E+00
    0.19395E-07         0.56716E-09         0.00000E+00
    0.19532E-07         0.57542E-09         0.00000E+00
    0.19641E-07         0.56047E-09         0.00000E+00
    0.19731E-07         0.53071E-09         0.00000E+00
    0.19812E-07         0.49014E-09         0.00000E+00
    0.19894E-07         0.43900E-09         0.00000E+00
    0.19984E-07         0.37432E-09         0.00000E+00
    0.20087E-07         0.29071E-09         0.00000E+00
    0.20201E-07         0.18471E-09         0.00000E+00
    0.20304E-07         0.69460E-10         0.00000E+00
    0.20355E-07         0.12887E-10         0.00000E+00
    0.13839E-07        -0.46346E-10         0.00000E+00
    0.13901E-07        -0.20000E-10         0.00000E+00
    0.14060E-07         0.72281E-10         0.00000E+00
    0.14267E-07         0.20166E-09         0.00000E+00
    0.14482E-07         0.31101E-09         0.00000E+00
    0.14681E-07         0.38356E-09         0.00000E+00
    0.14857E-07         0.42058E-09         0.00000E+00
    0.15010E-07         0.42865E-09         0.00000E+00
    0.15146E-07         0.41390E-09         0.00000E+00
    0.15270E-07         0.38018E-09         0.00000E+00
    0.15389E-07         0.32894E-09         0.00000E+00
    0.15506E-07         0.26006E-09         0.00000E+00
    0.15622E-07         0.17433E-09         0.00000E+00
    0.15730E-07         0.79416E-10         0.00000E+00
    0.15813E-07         0.19301E-11         0.00000E+00
    0.15846E-07        -0.27463E-10         0.00000E+00
    0.10836E-07        -0.96508E-10         0.00000E+00
    0.10877E-07        -0.11333E-09         0.00000E+00
    0.10993E-07        -0.90238E-10         0.00000E+00
    0.11159E-07         0.41287E-11         0.00000E+00
    0.11349E-07         0.10695E-09         0.00000E+00
    0.11539E-07         0.18997E-09         0.00000E+00
    0.11720E-07         0.24426E-09         0.00000E+00
    0.11887E-07         0.26978E-09         0.00000E+00
    0.12040E-07         0.26931E-09         0.00000E+00
    0.12180E-07         0.24579E-09         0.00000E+00
    0.12311E-07         0.20159E-09         0.00000E+00
    0.12433E-07         0.13947E-09         0.00000E+00
    0.12543E-07         0.65214E-10         0.00000E+00
    0.12635E-07        -0.70377E-11         0.00000E+00
    0.12696E-07        -0.46415E-10         0.00000E+00
    0.12716E-07        -0.52671E-10         0.00000E+00
    0.89807E-08        -0.12802E-09         0.00000E+00
    0.90057E-08        -0.17704E-09         0.00000E+00
    0.90856E-08        -0.21086E-09         0.00000E+00
    0.92113E-08        -0.15495E-09         0.00000E+00
    0.93656E-08        -0.70153E-10         0.00000E+00
    0.95320E-08         0.10451E-10         0.00000E+00
    0.96988E-08         0.71633E-10         0.00000E+00
    0.98589E-08         0.10815E-09         0.00000E+00
    0.10009E-07         0.11962E-09         0.00000E+00
    0.10148E-07         0.10773E-09         0.00000E+00
    0.10275E-07         0.75332E-10         0.00000E+00
    0.10389E-07         0.27139E-10         0.00000E+00
    0.10485E-07        -0.28082E-10         0.00000E+00
    0.10557E-07        -0.73573E-10         0.00000E+00
    0.10600E-07        -0.79181E-10         0.00000E+00
    0.10611E-07        -0.67221E-10         0.00000E+00
    0.79321E-08        -0.14654E-09         0.00000E+00
    0.79462E-08        -0.21841E-09         0.00000E+00
    0.79987E-08        -0.29628E-09         0.00000E+00
    0.80894E-08        -0.27647E-09         0.00000E+00
    0.82090E-08        -0.21449E-09         0.00000E+00
    0.83457E-08        -0.14404E-09         0.00000E+00
    0.84892E-08        -0.83505E-10         0.00000E+00
    0.86318E-08        -0.41494E-10         0.00000E+00
    0.87684E-08        -0.20874E-10         0.00000E+00
    0.88953E-08        -0.21178E-10         0.00000E+00
    0.90098E-08        -0.39543E-10         0.00000E+00
    0.91085E-08        -0.70350E-10         0.00000E+00
    0.91875E-08        -0.10367E-09         0.00000E+00
    0.92428E-08        -0.12266E-09         0.00000E+00
    0.92715E-08        -0.10028E-09         0.00000E+00
    0.92767E-08        -0.74630E-10         0.00000E+00
    0.74592E-08        -0.15632E-09         0.00000E+00
    0.74660E-08        -0.24372E-09         0.00000E+00
    0.74984E-08        -0.35428E-09         0.00000E+00
    0.75613E-08        -0.36567E-09         0.00000E+00
    0.76504E-08        -0.32702E-09         0.00000E+00
    0.77580E-08        -0.27041E-09         0.00000E+00
    0.78756E-08        -0.21515E-09         0.00000E+00
    0.79961E-08        -0.17167E-09         0.00000E+00
    0.81134E-08        -0.14451E-09         0.00000E+00
    0.82230E-08        -0.13422E-09         0.00000E+00
    0.83207E-08        -0.13831E-09         0.00000E+00
    0.84028E-08        -0.15107E-09         0.00000E+00
    0.84656E-08        -0.16270E-09         0.00000E+00
    0.85064E-08        -0.15772E-09         0.00000E+00
    0.85248E-08        -0.11310E-09         0.00000E+00
    0.85263E-08        -0.77488E-10         0.00000E+00
    0.74046E-08        -0.16035E-09         0.00000E+00
    0.74067E-08        -0.25783E-09         0.00000E+00
    0.74249E-08        -0.39177E-09         0.00000E+00
    0.74664E-08        -0.42876E-09         0.00000E+00
    0.75304E-08        -0.41162E-09         0.00000E+00
    0.76119E-08        -0.36977E-09         0.00000E+00
    0.77047E-08        -0.32212E-09         0.00000E+00
    0.78022E-08        -0.27978E-09         0.00000E+00
    0.78988E-08        -0.24825E-09         0.00000E+00
    0.79893E-08        -0.22889E-09         0.00000E+00
    0.80694E-08        -0.21974E-09         0.00000E+00
    0.81353E-08        -0.21559E-09         0.00000E+00
    0.81837E-08        -0.20751E-09         0.00000E+00
    0.82130E-08        -0.18205E-09         0.00000E+00
    0.82243E-08        -0.12030E-09         0.00000E+00
    0.82237E-08        -0.77631E-10         0.00000E+00
    0.76607E-08        -0.16068E-09         0.00000E+00
    0.76598E-08        -0.26428E-09         0.00000E+00
    0.76681E-08        -0.41429E-09         0.00000E+00
    0.76936E-08        -0.47148E-09         0.00000E+00
    0.77375E-08        -0.47296E-09         0.00000E+00
    0.77971E-08        -0.44515E-09         0.00000E+00
    0.78675E-08        -0.40586E-09         0.00000E+00
    0.79436E-08        -0.36615E-09         0.00000E+00
    0.80200E-08        -0.33195E-09         0.00000E+00
    0.80920E-08        -0.30523E-09         0.00000E+00
    0.81554E-08        -0.28461E-09         0.00000E+00
    0.82066E-08        -0.26566E-09         0.00000E+00
    0.82430E-08        -0.24069E-09         0.00000E+00
    0.82635E-08        -0.19846E-09         0.00000E+00
    0.82699E-08        -0.12385E-09         0.00000E+00
    0.82683E-08        -0.76312E-10         0.00000E+00
    0.81533E-08        -0.15867E-09         0.00000E+00
    0.81504E-08        -0.26550E-09         0.00000E+00
    0.81518E-08        -0.42598E-09         0.00000E+00
    0.81655E-08        -0.49856E-09         0.00000E+00
    0.81936E-08        -0.51545E-09         0.00000E+00
    0.82350E-08        -0.50014E-09         0.00000E+00
    0.82863E-08        -0.46900E-09         0.00000E+00
    0.83432E-08        -0.43262E-09         0.00000E+00
    0.84014E-08        -0.39706E-09         0.00000E+00
    0.84565E-08        -0.36465E-09         0.00000E+00
    0.85049E-08        -0.33463E-09         0.00000E+00
    0.85434E-08        -0.30340E-09         0.00000E+00
    0.85699E-08        -0.26462E-09         0.00000E+00
    0.85838E-08        -0.20915E-09         0.00000E+00
    0.85870E-08        -0.12514E-09         0.00000E+00
    0.85849E-08        -0.74344E-10         0.00000E+00
    0.88302E-08        -0.15515E-09         0.00000E+00
    0.88261E-08        -0.26314E-09         0.00000E+00
    0.88226E-08        -0.42977E-09         0.00000E+00
    0.88272E-08        -0.51366E-09         0.00000E+00
    0.88430E-08        -0.54283E-09         0.00000E+00
    0.88694E-08        -0.53812E-09         0.00000E+00
    0.89044E-08        -0.51438E-09         0.00000E+00
    0.89448E-08        -0.48157E-09         0.00000E+00
    0.89869E-08        -0.44561E-09         0.00000E+00
    0.90272E-08        -0.40908E-09         0.00000E+00
    0.90625E-08        -0.37175E-09         0.00000E+00
    0.90902E-08        -0.33084E-09         0.00000E+00
    0.91086E-08        -0.28126E-09         0.00000E+00
    0.91174E-08        -0.21574E-09         0.00000E+00
    0.91185E-08        -0.12509E-09         0.00000E+00
    0.91164E-08        -0.72213E-10         0.00000E+00
    0.96533E-08        -0.15064E-09         0.00000E+00
    0.96483E-08        -0.25824E-09         0.00000E+00
    0.96411E-08        -0.42765E-09         0.00000E+00
    0.96388E-08        -0.51939E-09         0.00000E+00
    0.96445E-08        -0.55799E-09         0.00000E+00
    0.96586E-08        -0.56194E-09         0.00000E+00
    0.96799E-08        -0.54466E-09         0.00000E+00
    0.97059E-08        -0.51536E-09         0.00000E+00
    0.97341E-08        -0.47973E-09         0.00000E+00
    0.97614E-08        -0.44049E-09         0.00000E+00
    0.97854E-08        -0.39783E-09         0.00000E+00
    0.98039E-08        -0.34971E-09         0.00000E+00
    0.98156E-08        -0.29212E-09         0.00000E+00
    0.98206E-08        -0.21933E-09         0.00000E+00
    0.98202E-08        -0.12425E-09         0.00000E+00
    0.98182E-08        -0.70167E-10         0.00000E+00
    0.10593E-07        -0.14540E-09         0.00000E+00
    0.10587E-07        -0.25138E-09         0.00000E+00
    0.10577E-07        -0.42085E-09         0.00000E+00
    0.10569E-07        -0.51752E-09         0.00000E+00
    0.10567E-07        -0.56303E-09         0.00000E+00
    0.10570E-07        -0.57380E-09         0.00000E+00
    0.10580E-07        -0.56198E-09         0.00000E+00
    0.10593E-07        -0.53602E-09         0.00000E+00
    0.10609E-07        -0.50130E-09         0.00000E+00
    0.10625E-07        -0.46059E-09         0.00000E+00
    0.10639E-07        -0.41441E-09         0.00000E+00
    0.10650E-07        -0.36131E-09         0.00000E+00
    0.10656E-07        -0.29820E-09         0.00000E+00
    0.10658E-07        -0.22057E-09         0.00000E+00
    0.10656E-07        -0.12288E-09         0.00000E+00
    0.10654E-07        -0.68282E-10         0.00000E+00
    0.11626E-07        -0.13950E-09         0.00000E+00
    0.11619E-07        -0.24283E-09         0.00000E+00
    0.11606E-07        -0.41003E-09         0.00000E+00
    0.11593E-07        -0.50914E-09         0.00000E+00
    0.11583E-07        -0.55933E-09         0.00000E+00
    0.11578E-07        -0.57530E-09         0.00000E+00
    0.11577E-07        -0.56799E-09         0.00000E+00
    0.11579E-07        -0.54514E-09         0.00000E+00
    0.11584E-07        -0.51181E-09         0.00000E+00
    0.11590E-07        -0.47072E-09         0.00000E+00
    0.11596E-07        -0.42263E-09         0.00000E+00
    0.11599E-07        -0.36657E-09         0.00000E+00
    0.11600E-07        -0.30014E-09         0.00000E+00
    0.11599E-07        -0.21977E-09         0.00000E+00
    0.11596E-07        -0.12105E-09         0.00000E+00
    0.11595E-07        -0.66516E-10         0.00000E+00
    0.12729E-07        -0.13292E-09         0.00000E+00
    0.12721E-07        -0.23262E-09         0.00000E+00
    0.12706E-07        -0.39545E-09         0.00000E+00
    0.12688E-07        -0.49480E-09         0.00000E+00
    0.12671E-07        -0.54776E-09         0.00000E+00
    0.12657E-07        -0.56749E-09         0.00000E+00
    0.12647E-07        -0.56386E-09         0.00000E+00
    0.12640E-07        -0.54393E-09         0.00000E+00
    0.12635E-07        -0.51239E-09         0.00000E+00
    0.12632E-07        -0.47189E-09         0.00000E+00
    0.12629E-07        -0.42331E-09         0.00000E+00
    0.12626E-07        -0.36605E-09         0.00000E+00
    0.12622E-07        -0.29825E-09         0.00000E+00
    0.12618E-07        -0.21699E-09         0.00000E+00
    0.12615E-07        -0.11867E-09         0.00000E+00
    0.12613E-07        -0.64748E-10         0.00000E+00
    0.13881E-07        -0.12554E-09         0.00000E+00
    0.13873E-07        -0.22064E-09         0.00000E+00
    0.13855E-07        -0.37711E-09         0.00000E+00
    0.13832E-07        -0.47473E-09         0.00000E+00
    0.13809E-07        -0.52878E-09         0.00000E+00
    0.13787E-07        -0.55105E-09         0.00000E+00
    0.13768E-07        -0.55040E-09         0.00000E+00
    0.13751E-07        -0.53324E-09         0.00000E+00
    0.13737E-07        -0.50387E-09         0.00000E+00
    0.13726E-07        -0.46480E-09         0.00000E+00
    0.13716E-07        -0.41699E-09         0.00000E+00
    0.13707E-07        -0.36009E-09         0.00000E+00
    0.13699E-07        -0.29261E-09         0.00000E+00
    0.13692E-07        -0.21214E-09         0.00000E+00
    0.13686E-07        -0.11556E-09         0.00000E+00
    0.13684E-07        -0.62819E-10         0.00000E+00
    0.15061E-07        -0.11721E-09         0.00000E+00
    0.15052E-07        -0.20671E-09         0.00000E+00
    0.15031E-07        -0.35486E-09         0.00000E+00
    0.15003E-07        -0.44897E-09         0.00000E+00
    0.14974E-07        -0.50267E-09         0.00000E+00
    0.14944E-07        -0.52645E-09         0.00000E+00
    0.14917E-07        -0.52823E-09         0.00000E+00
    0.14892E-07        -0.51375E-09         0.00000E+00
    0.14870E-07        -0.48690E-09         0.00000E+00
    0.14851E-07        -0.45001E-09         0.00000E+00
    0.14834E-07        -0.40406E-09         0.00000E+00
    0.14819E-07        -0.34886E-09         0.00000E+00
    0.14807E-07        -0.28321E-09         0.00000E+00
    0.14797E-07        -0.20502E-09         0.00000E+00
    0.14790E-07        -0.11152E-09         0.00000E+00
    0.14787E-07        -0.60551E-10         0.00000E+00
    0.16248E-07        -0.10778E-09         0.00000E+00
    0.16238E-07        -0.19064E-09         0.00000E+00
    0.16213E-07        -0.32853E-09         0.00000E+00
    0.16181E-07        -0.41752E-09         0.00000E+00
    0.16145E-07        -0.46964E-09         0.00000E+00
    0.16109E-07        -0.49412E-09         0.00000E+00
    0.16074E-07        -0.49792E-09         0.00000E+00
    0.16041E-07        -0.48609E-09         0.00000E+00
    0.16012E-07        -0.46208E-09         0.00000E+00
    0.15985E-07        -0.42803E-09         0.00000E+00
    0.15962E-07        -0.38486E-09         0.00000E+00
    0.15941E-07        -0.33251E-09         0.00000E+00
    0.15924E-07        -0.26998E-09         0.00000E+00
    0.15911E-07        -0.19546E-09         0.00000E+00
    0.15903E-07        -0.10634E-09         0.00000E+00
    0.15900E-07        -0.57775E-10         0.00000E+00
    0.17417E-07        -0.97135E-10         0.00000E+00
    0.17406E-07        -0.17231E-09         0.00000E+00
    0.17378E-07        -0.29807E-09         0.00000E+00
    0.17341E-07        -0.38051E-09         0.00000E+00
    0.17300E-07        -0.43005E-09         0.00000E+00
    0.17257E-07        -0.45461E-09         0.00000E+00
    0.17215E-07        -0.46015E-09         0.00000E+00
    0.17176E-07        -0.45099E-09         0.00000E+00
    0.17140E-07        -0.43013E-09         0.00000E+00
    0.17107E-07        -0.39944E-09         0.00000E+00
    0.17077E-07        -0.35981E-09         0.00000E+00
    0.17052E-07        -0.31125E-09         0.00000E+00
    0.17031E-07        -0.25295E-09         0.00000E+00
    0.17015E-07        -0.18329E-09         0.00000E+00
    0.17004E-07        -0.99859E-10         0.00000E+00
    0.17001E-07        -0.54346E-10         0.00000E+00
    0.18545E-07        -0.85222E-10         0.00000E+00
    0.18533E-07        -0.15170E-09         0.00000E+00
    0.18503E-07        -0.26360E-09         0.00000E+00
    0.18462E-07        -0.33831E-09         0.00000E+00
    0.18415E-07        -0.38451E-09         0.00000E+00
    0.18367E-07        -0.40873E-09         0.00000E+00
    0.18320E-07        -0.41584E-09         0.00000E+00
    0.18275E-07        -0.40941E-09         0.00000E+00
    0.18233E-07        -0.39194E-09         0.00000E+00
    0.18195E-07        -0.36503E-09         0.00000E+00
    0.18161E-07        -0.32950E-09         0.00000E+00
    0.18131E-07        -0.28545E-09         0.00000E+00
    0.18106E-07        -0.23225E-09         0.00000E+00
    0.18087E-07        -0.16850E-09         0.00000E+00
    0.18074E-07        -0.91962E-10         0.00000E+00
    0.18070E-07        -0.50161E-10         0.00000E+00
    0.19611E-07        -0.72090E-10         0.00000E+00
    0.19597E-07        -0.12897E-09         0.00000E+00
    0.19565E-07        -0.22557E-09         0.00000E+00
    0.19521E-07        -0.29169E-09         0.00000E+00
    0.19470E-07        -0.33405E-09         0.00000E+00
    0.19418E-07        -0.35767E-09         0.00000E+00
    0.19367E-07        -0.36627E-09         0.00000E+00
    0.19318E-07        -0.36261E-09         0.00000E+00
    0.19272E-07        -0.34867E-09         0.00000E+00
    0.19229E-07        -0.32579E-09         0.00000E+00
    0.19191E-07        -0.29473E-09         0.00000E+00
    0.19158E-07        -0.25567E-09         0.00000E+00
    0.19130E-07        -0.20819E-09         0.00000E+00
    0.19108E-07        -0.15118E-09         0.00000E+00
    0.19094E-07        -0.82630E-10         0.00000E+00
    0.19088E-07        -0.45163E-10         0.00000E+00
    0.20591E-07        -0.57926E-10         0.00000E+00
    0.20577E-07        -0.10455E-09         0.00000E+00
    0.20543E-07        -0.18484E-09         0.00000E+00
    0.20497E-07        -0.24186E-09         0.00000E+00
    0.20445E-07        -0.28016E-09         0.00000E+00
    0.20391E-07        -0.30305E-09         0.00000E+00
    0.20337E-07        -0.31306E-09         0.00000E+00
    0.20285E-07        -0.31213E-09         0.00000E+00
    0.20237E-07        -0.30173E-09         0.00000E+00
    0.20192E-07        -0.28296E-09         0.00000E+00
    0.20151E-07        -0.25651E-09         0.00000E+00
    0.20115E-07        -0.22268E-09         0.00000E+00
    0.20084E-07        -0.18130E-09         0.00000E+00
    0.20061E-07        -0.13159E-09         0.00000E+00
    0.20045E-07        -0.71935E-10         0.00000E+00
    0.20039E-07        -0.39351E-10         0.00000E+00
    0.21466E-07        -0.43092E-10         0.00000E+00
    0.21453E-07        -0.79133E-10         0.00000E+00
    0.21419E-07        -0.14274E-09         0.00000E+00
    0.21373E-07        -0.19060E-09         0.00000E+00
    0.21321E-07        -0.22480E-09         0.00000E+00
    0.21267E-07        -0.24687E-09         0.00000E+00
    0.21213E-07        -0.25813E-09         0.00000E+00
    0.21161E-07        -0.25974E-09         0.00000E+00
    0.21112E-07        -0.25273E-09         0.00000E+00
    0.21065E-07        -0.23794E-09         0.00000E+00
    0.21023E-07        -0.21604E-09         0.00000E+00
    0.20986E-07        -0.18745E-09         0.00000E+00
    0.20954E-07        -0.15227E-09         0.00000E+00
    0.20929E-07        -0.11017E-09         0.00000E+00
    0.20912E-07        -0.60043E-10         0.00000E+00
    0.20905E-07        -0.32778E-10         0.00000E+00
    0.22224E-07        -0.28177E-10         0.00000E+00
    0.22211E-07        -0.53824E-10         0.00000E+00
    0.22179E-07        -0.10117E-09         0.00000E+00
    0.22137E-07        -0.14023E-09         0.00000E+00
    0.22088E-07        -0.17037E-09         0.00000E+00
    0.22036E-07        -0.19137E-09         0.00000E+00
    0.21984E-07        -0.20346E-09         0.00000E+00
    0.21933E-07        -0.20718E-09         0.00000E+00
    0.21884E-07        -0.20316E-09         0.00000E+00
    0.21838E-07        -0.19206E-09         0.00000E+00
    0.21796E-07        -0.17451E-09         0.00000E+00
    0.21758E-07        -0.15100E-09         0.00000E+00
    0.21725E-07        -0.12193E-09         0.00000E+00
    0.21699E-07        -0.87462E-10         0.00000E+00
    0.21682E-07        -0.47213E-10         0.00000E+00
    0.21675E-07        -0.25550E-10         0.00000E+00
    0.22856E-07        -0.14074E-10         0.00000E+00
    0.22845E-07        -0.30183E-10         0.00000E+00
    0.22819E-07        -0.62660E-10         0.00000E+00
    0.22782E-07        -0.93512E-10         0.00000E+00
    0.22739E-07        -0.11940E-09         0.00000E+00
    0.22692E-07        -0.13865E-09         0.00000E+00
    0.22643E-07        -0.15073E-09         0.00000E+00
    0.22594E-07        -0.15574E-09         0.00000E+00
    0.22546E-07        -0.15407E-09         0.00000E+00
    0.22500E-07        -0.14625E-09         0.00000E+00
    0.22458E-07        -0.13280E-09         0.00000E+00
    0.22421E-07        -0.11426E-09         0.00000E+00
    0.22388E-07        -0.91181E-10         0.00000E+00
    0.22363E-07        -0.64180E-10         0.00000E+00
    0.22345E-07        -0.33800E-10         0.00000E+00
    0.22338E-07        -0.17817E-10         0.00000E+00
    0.23367E-07        -0.21586E-11         0.00000E+00
    0.23360E-07        -0.10431E-10         0.00000E+00
    0.23342E-07        -0.30378E-10         0.00000E+00
    0.23315E-07        -0.53393E-10         0.00000E+00
    0.23279E-07        -0.74055E-10         0.00000E+00
    0.23238E-07        -0.90047E-10         0.00000E+00
    0.23192E-07        -0.10059E-09         0.00000E+00
    0.23144E-07        -0.10565E-09         0.00000E+00
    0.23097E-07        -0.10549E-09         0.00000E+00
    0.23050E-07        -0.10049E-09         0.00000E+00
    0.23008E-07        -0.91072E-10         0.00000E+00
    0.22970E-07        -0.77660E-10         0.00000E+00
    0.22938E-07        -0.60778E-10         0.00000E+00
    0.22913E-07        -0.41170E-10         0.00000E+00
    0.22897E-07        -0.20312E-10         0.00000E+00
    0.22890E-07        -0.98284E-11         0.00000E+00
    0.23770E-07         0.54201E-11         0.00000E+00
    0.23772E-07         0.21039E-11         0.00000E+00
    0.23770E-07        -0.82149E-11         0.00000E+00
    0.23754E-07        -0.22240E-10         0.00000E+00
    0.23726E-07        -0.35068E-10         0.00000E+00
    0.23688E-07        -0.45073E-10         0.00000E+00
    0.23643E-07        -0.51804E-10         0.00000E+00
    0.23593E-07        -0.55265E-10         0.00000E+00
    0.23542E-07        -0.55635E-10         0.00000E+00
    0.23492E-07        -0.53145E-10         0.00000E+00
    0.23446E-07        -0.48029E-10         0.00000E+00
    0.23406E-07        -0.40519E-10         0.00000E+00
    0.23373E-07        -0.30885E-10         0.00000E+00
    0.23350E-07        -0.19606E-10         0.00000E+00
    0.23337E-07        -0.76918E-11         0.00000E+00
    0.23333E-07        -0.17475E-11         0.00000E+00
    0.23947E-07         0.00000E+00         0.00000E+00
    0.23957E-07         0.00000E+00         0.00000E+00
    0.23963E-07        -0.66229E-22         0.00000E+00
    0.23953E-07         0.13656E-25         0.00000E+00
    0.23929E-07         0.70383E-22         0.00000E+00
    0.23892E-07         0.00000E+00         0.00000E+00
    0.23845E-07         0.00000E+00         0.00000E+00
    0.23794E-07        -0.66279E-22         0.00000E+00
    0.23740E-07        -0.66279E-22         0.00000E+00
    0.23688E-07         0.66292E-22         0.00000E+00
    0.23639E-07         0.70436E-22         0.00000E+00
    0.23596E-07        -0.70449E-22         0.00000E+00
    0.23562E-07        -0.41378E-23         0.00000E+00
    0.23539E-07         0.70457E-22         0.00000E+00
    0.23529E-07         0.82899E-23         0.00000E+00
    0.23529E-07         0.00000E+00         0.00000E+00
CELL_DATA        450
TENSORS stressef double 
    0.43158E+08        -0.94700E+06         0.00000E+00
   -0.94700E+06         0.20381E+08         0.00000E+00
    0.00000E+00         0.00000E+00         0.14887E+08
 
    0.38374E+08        -0.12621E+07         0.00000E+00
   -0.12621E+07         0.18414E+08         0.00000E+00
    0.00000E+00         0.00000E+00         0.11358E+08
 
    0.34249E+08        -0.98127E+06         0.00000E+00
   -0.98127E+06         0.16498E+08         0.00000E+00
    0.00000E+00         0.00000E+00         0.10149E+08
 
    0.31750E+08        -0.72581E+06         0.00000E+00
   -0.72581E+06         0.14956E+08         0.00000E+00
    0.00000E+00         0.00000E+00         0.93411E+07
 
    0.29858E+08        -0.55257E+06         0.00000E+00
   -0.55257E+06         0.13766E+08         0.00000E+00
    0.00000E+00         0.00000E+00         0.87248E+07
 
    0.28271E+08        -0.42470E+06         0.00000E+00
   -0.42470E+06         0.12847E+08         0.00000E+00
    0.00000E+00         0.00000E+00         0.82236E+07
 
    0.26846E+08        -0.32433E+06         0.00000E+00
   -0.32433E+06         0.12140E+08         0.00000E+00
    0.00000E+00         0.00000E+00         0.77972E+07
 
    0.25497E+08        -0.24049E+06         0.00000E+00
   -0.24049E+06         0.11608E+08         0.00000E+00
    0.00000E+00         0.00000E+00         0.74210E+07
 
    0.24159E+08        -0.16554E+06         0.00000E+00
   -0.16554E+06         0.11229E+08         0.00000E+00
    0.00000E+00         0.00000E+00         0.70776E+07
 
    0.22768E+08        -0.92811E+05         0.00000E+00
   -0.92811E+05         0.10995E+08         0.00000E+00
    0.00000E+00         0.00000E+00         0.67526E+07
 
    0.21244E+08        -0.14253E+05         0.00000E+00
   -0.14253E+05         0.10912E+08         0.00000E+00
    0.00000E+00         0.00000E+00         0.64311E+07
 
    0.19464E+08         0.83589E+05         0.00000E+00
    0.83589E+05         0.11005E+08         0.00000E+00
    0.00000E+00         0.00000E+00         0.60938E+07
 
    0.17200E+08         0.23318E+06         0.00000E+00
    0.23318E+06         0.11346E+08         0.00000E+00
    0.00000E+00         0.00000E+00         0.57092E+07
 
    0.13957E+08         0.51485E+06         0.00000E+00
    0.51485E+06         0.12124E+08         0.00000E+00
    0.00000E+00         0.00000E+00         0.52162E+07
 
    0.79298E+07         0.16024E+07         0.00000E+00
    0.16024E+07         0.14038E+08         0.00000E+00
    0.00000E+00         0.00000E+00         0.43937E+07
 
    0.34321E+08        -0.12065E+07         0.00000E+00
   -0.12065E+07         0.13228E+08         0.00000E+00
    0.00000E+00         0.00000E+00         0.95099E+07
 
    0.30872E+08        -0.24976E+07         0.00000E+00
   -0.24976E+07         0.13438E+08         0.00000E+00
    0.00000E+00         0.00000E+00         0.88621E+07
 
    0.27486E+08        -0.23785E+07         0.00000E+00
   -0.23785E+07         0.12842E+08         0.00000E+00
    0.00000E+00         0.00000E+00         0.80657E+07
 
    0.24980E+08        -0.19366E+07         0.00000E+00
   -0.19366E+07         0.12014E+08         0.00000E+00
    0.00000E+00         0.00000E+00         0.73988E+07
 
    0.23072E+08        -0.15396E+07         0.00000E+00
   -0.15396E+07         0.11218E+08         0.00000E+00
    0.00000E+00         0.00000E+00         0.68580E+07
 
    0.21483E+08        -0.12126E+07         0.00000E+00
   -0.12126E+07         0.10537E+08         0.00000E+00
    0.00000E+00         0.00000E+00         0.64040E+07
 
    0.20069E+08        -0.93979E+06         0.00000E+00
   -0.93979E+06         0.99866E+07         0.00000E+00
    0.00000E+00         0.00000E+00         0.60112E+07
 
    0.18741E+08        -0.70292E+06         0.00000E+00
   -0.70292E+06         0.95660E+07         0.00000E+00
    0.00000E+00         0.00000E+00         0.56614E+07
 
    0.17432E+08        -0.48513E+06         0.00000E+00
   -0.48513E+06         0.92735E+07         0.00000E+00
    0.00000E+00         0.00000E+00         0.53412E+07
 
    0.16082E+08        -0.26892E+06         0.00000E+00
   -0.26892E+06         0.91130E+07         0.00000E+00
    0.00000E+00         0.00000E+00         0.50390E+07
 
    0.14617E+08        -0.30817E+05         0.00000E+00
   -0.30817E+05         0.90993E+07         0.00000E+00
    0.00000E+00         0.00000E+00         0.47433E+07
 
    0.12934E+08         0.27104E+06         0.00000E+00
    0.27104E+06         0.92673E+07         0.00000E+00
    0.00000E+00         0.00000E+00         0.44402E+07
 
    0.10869E+08         0.72978E+06         0.00000E+00
    0.72978E+06         0.96920E+07         0.00000E+00
    0.00000E+00         0.00000E+00         0.41123E+07
 
    0.81102E+07         0.16156E+07         0.00000E+00
    0.16156E+07         0.10534E+08         0.00000E+00
    0.00000E+00         0.00000E+00         0.37289E+07
 
    0.48656E+07         0.39386E+07         0.00000E+00
    0.39386E+07         0.11999E+08         0.00000E+00
    0.00000E+00         0.00000E+00         0.33729E+07
 
    0.27293E+08        -0.11278E+07         0.00000E+00
   -0.11278E+07         0.85993E+07         0.00000E+00
    0.00000E+00         0.00000E+00         0.71784E+07
 
    0.25135E+08        -0.24351E+07         0.00000E+00
   -0.24351E+07         0.88247E+07         0.00000E+00
    0.00000E+00         0.00000E+00         0.67920E+07
 
    0.22609E+08        -0.27883E+07         0.00000E+00
   -0.27883E+07         0.90229E+07         0.00000E+00
    0.00000E+00         0.00000E+00         0.63263E+07
 
    0.20301E+08        -0.25678E+07         0.00000E+00
   -0.25678E+07         0.89092E+07         0.00000E+00
    0.00000E+00         0.00000E+00         0.58421E+07
 
    0.18393E+08        -0.21815E+07         0.00000E+00
   -0.21815E+07         0.86136E+07         0.00000E+00
    0.00000E+00         0.00000E+00         0.54014E+07
 
    0.16777E+08        -0.17850E+07         0.00000E+00
   -0.17850E+07         0.82731E+07         0.00000E+00
    0.00000E+00         0.00000E+00         0.50100E+07
 
    0.15341E+08        -0.14135E+07         0.00000E+00
   -0.14135E+07         0.79605E+07         0.00000E+00
    0.00000E+00         0.00000E+00         0.46604E+07
 
    0.14006E+08        -0.10657E+07         0.00000E+00
   -0.10657E+07         0.77134E+07         0.00000E+00
    0.00000E+00         0.00000E+00         0.43439E+07
 
    0.12707E+08        -0.72791E+06         0.00000E+00
   -0.72791E+06         0.75552E+07         0.00000E+00
    0.00000E+00         0.00000E+00         0.40525E+07
 
    0.11389E+08        -0.37806E+06         0.00000E+00
   -0.37806E+06         0.75058E+07         0.00000E+00
    0.00000E+00         0.00000E+00         0.37789E+07
 
    0.99924E+07         0.19377E+05         0.00000E+00
    0.19377E+05         0.75904E+07         0.00000E+00
    0.00000E+00         0.00000E+00         0.35166E+07
 
    0.84521E+07         0.52947E+06         0.00000E+00
    0.52947E+06         0.78455E+07         0.00000E+00
    0.00000E+00         0.00000E+00         0.32595E+07
 
    0.66973E+07         0.12877E+07         0.00000E+00
    0.12877E+07         0.83242E+07         0.00000E+00
    0.00000E+00         0.00000E+00         0.30043E+07
 
    0.47806E+07         0.26099E+07         0.00000E+00
    0.26099E+07         0.90715E+07         0.00000E+00
    0.00000E+00         0.00000E+00         0.27704E+07
 
    0.31726E+07         0.49635E+07         0.00000E+00
    0.49635E+07         0.98402E+07         0.00000E+00
    0.00000E+00         0.00000E+00         0.26026E+07
 
    0.21957E+08        -0.87378E+06         0.00000E+00
   -0.87378E+06         0.49956E+07         0.00000E+00
    0.00000E+00         0.00000E+00         0.53906E+07
 
    0.20711E+08        -0.21005E+07         0.00000E+00
   -0.21005E+07         0.53734E+07         0.00000E+00
    0.00000E+00         0.00000E+00         0.52168E+07
 
    0.18838E+08        -0.26350E+07         0.00000E+00
   -0.26350E+07         0.57744E+07         0.00000E+00
    0.00000E+00         0.00000E+00         0.49226E+07
 
    0.16885E+08        -0.26698E+07         0.00000E+00
   -0.26698E+07         0.60376E+07         0.00000E+00
    0.00000E+00         0.00000E+00         0.45844E+07
 
    0.15084E+08        -0.24275E+07         0.00000E+00
   -0.24275E+07         0.61228E+07         0.00000E+00
    0.00000E+00         0.00000E+00         0.42413E+07
 
    0.13482E+08        -0.20727E+07         0.00000E+00
   -0.20727E+07         0.60952E+07         0.00000E+00
    0.00000E+00         0.00000E+00         0.39155E+07
 
    0.12039E+08        -0.16801E+07         0.00000E+00
   -0.16801E+07         0.60259E+07         0.00000E+00
    0.00000E+00         0.00000E+00         0.36129E+07
 
    0.10698E+08        -0.12726E+07         0.00000E+00
   -0.12726E+07         0.59672E+07         0.00000E+00
    0.00000E+00         0.00000E+00         0.33331E+07
 
    0.94109E+07        -0.84738E+06         0.00000E+00
   -0.84738E+06         0.59571E+07         0.00000E+00
    0.00000E+00         0.00000E+00         0.30736E+07
 
    0.81319E+07        -0.38428E+06         0.00000E+00
   -0.38428E+06         0.60262E+07         0.00000E+00
    0.00000E+00         0.00000E+00         0.28316E+07
 
    0.68240E+07         0.15632E+06         0.00000E+00
    0.15632E+06         0.62024E+07         0.00000E+00
    0.00000E+00         0.00000E+00         0.26053E+07
 
    0.54634E+07         0.84604E+06         0.00000E+00
    0.84604E+06         0.65113E+07         0.00000E+00
    0.00000E+00         0.00000E+00         0.23949E+07
 
    0.40779E+07         0.18141E+07         0.00000E+00
    0.18141E+07         0.69632E+07         0.00000E+00
    0.00000E+00         0.00000E+00         0.22082E+07
 
    0.28310E+07         0.32510E+07         0.00000E+00
    0.32510E+07         0.74875E+07         0.00000E+00
    0.00000E+00         0.00000E+00         0.20637E+07
 
    0.21312E+07         0.53249E+07         0.00000E+00
    0.53249E+07         0.78507E+07         0.00000E+00
    0.00000E+00         0.00000E+00         0.19964E+07
 
    0.17976E+08        -0.63894E+06         0.00000E+00
   -0.63894E+06         0.23880E+07         0.00000E+00
    0.00000E+00         0.00000E+00         0.40728E+07
 
    0.17250E+08        -0.16698E+07         0.00000E+00
   -0.16698E+07         0.27203E+07         0.00000E+00
    0.00000E+00         0.00000E+00         0.39941E+07
 
    0.15875E+08        -0.22645E+07         0.00000E+00
   -0.22645E+07         0.31733E+07         0.00000E+00
    0.00000E+00         0.00000E+00         0.38096E+07
 
    0.14257E+08        -0.24569E+07         0.00000E+00
   -0.24569E+07         0.35785E+07         0.00000E+00
    0.00000E+00         0.00000E+00         0.35670E+07
 
    0.12636E+08        -0.23644E+07         0.00000E+00
   -0.23644E+07         0.38735E+07         0.00000E+00
    0.00000E+00         0.00000E+00         0.33018E+07
 
    0.11111E+08        -0.20994E+07         0.00000E+00
   -0.20994E+07         0.40632E+07         0.00000E+00
    0.00000E+00         0.00000E+00         0.30348E+07
 
    0.96986E+07        -0.17369E+07         0.00000E+00
   -0.17369E+07         0.41876E+07         0.00000E+00
    0.00000E+00         0.00000E+00         0.27772E+07
 
    0.83785E+07        -0.13126E+07         0.00000E+00
   -0.13126E+07         0.42907E+07         0.00000E+00
    0.00000E+00         0.00000E+00         0.25338E+07
 
    0.71209E+07        -0.83375E+06         0.00000E+00
   -0.83375E+06         0.44109E+07         0.00000E+00
    0.00000E+00         0.00000E+00         0.23064E+07
 
    0.58990E+07        -0.28669E+06         0.00000E+00
   -0.28669E+06         0.45792E+07         0.00000E+00
    0.00000E+00         0.00000E+00         0.20956E+07
 
    0.46975E+07         0.36288E+06         0.00000E+00
    0.36288E+06         0.48186E+07         0.00000E+00
    0.00000E+00         0.00000E+00         0.19032E+07
 
    0.35279E+07         0.11742E+07         0.00000E+00
    0.11742E+07         0.51387E+07         0.00000E+00
    0.00000E+00         0.00000E+00         0.17333E+07
 
    0.24592E+07         0.22320E+07         0.00000E+00
    0.22320E+07         0.55154E+07         0.00000E+00
    0.00000E+00         0.00000E+00         0.15949E+07
 
    0.16603E+07         0.36240E+07         0.00000E+00
    0.36240E+07         0.58606E+07         0.00000E+00
    0.00000E+00         0.00000E+00         0.15042E+07
 
    0.14263E+07         0.53744E+07         0.00000E+00
    0.53744E+07         0.59957E+07         0.00000E+00
    0.00000E+00         0.00000E+00         0.14844E+07
 
    0.14996E+08        -0.45035E+06         0.00000E+00
   -0.45035E+06         0.42336E+06         0.00000E+00
    0.00000E+00         0.00000E+00         0.30839E+07
 
    0.14532E+08        -0.12650E+07         0.00000E+00
   -0.12650E+07         0.68969E+06         0.00000E+00
    0.00000E+00         0.00000E+00         0.30443E+07
 
    0.13492E+08        -0.18291E+07         0.00000E+00
   -0.18291E+07         0.10965E+07         0.00000E+00
    0.00000E+00         0.00000E+00         0.29176E+07
 
    0.12159E+08        -0.20991E+07         0.00000E+00
   -0.20991E+07         0.15240E+07         0.00000E+00
    0.00000E+00         0.00000E+00         0.27367E+07
 
    0.10735E+08        -0.21137E+07         0.00000E+00
   -0.21137E+07         0.19005E+07         0.00000E+00
    0.00000E+00         0.00000E+00         0.25271E+07
 
    0.93303E+07        -0.19370E+07         0.00000E+00
   -0.19370E+07         0.22060E+07         0.00000E+00
    0.00000E+00         0.00000E+00         0.23073E+07
 
    0.79910E+07        -0.16243E+07         0.00000E+00
   -0.16243E+07         0.24529E+07         0.00000E+00
    0.00000E+00         0.00000E+00         0.20888E+07
 
    0.67248E+07        -0.12097E+07         0.00000E+00
   -0.12097E+07         0.26682E+07         0.00000E+00
    0.00000E+00         0.00000E+00         0.18786E+07
 
    0.55234E+07        -0.70602E+06         0.00000E+00
   -0.70602E+06         0.28807E+07         0.00000E+00
    0.00000E+00         0.00000E+00         0.16808E+07
 
    0.43781E+07        -0.10718E+06         0.00000E+00
   -0.10718E+06         0.31146E+07         0.00000E+00
    0.00000E+00         0.00000E+00         0.14986E+07
 
    0.32921E+07         0.60942E+06         0.00000E+00
    0.60942E+06         0.33844E+07         0.00000E+00
    0.00000E+00         0.00000E+00         0.13353E+07
 
    0.22951E+07         0.14803E+07         0.00000E+00
    0.14803E+07         0.36867E+07         0.00000E+00
    0.00000E+00         0.00000E+00         0.11964E+07
 
    0.14630E+07         0.25468E+07         0.00000E+00
    0.25468E+07         0.39875E+07         0.00000E+00
    0.00000E+00         0.00000E+00         0.10901E+07
 
    0.93349E+06         0.38306E+07         0.00000E+00
    0.38306E+07         0.42097E+07         0.00000E+00
    0.00000E+00         0.00000E+00         0.10286E+07
 
    0.90532E+06         0.52918E+07         0.00000E+00
    0.52918E+07         0.42336E+07         0.00000E+00
    0.00000E+00         0.00000E+00         0.10278E+07
 
    0.12728E+08        -0.30680E+06         0.00000E+00
   -0.30680E+06        -0.11154E+07         0.00000E+00
    0.00000E+00         0.00000E+00         0.23226E+07
 
    0.12366E+08        -0.92325E+06         0.00000E+00
   -0.92325E+06        -0.91769E+06         0.00000E+00
    0.00000E+00         0.00000E+00         0.22896E+07
 
    0.11536E+08        -0.14133E+07         0.00000E+00
   -0.14133E+07        -0.58724E+06         0.00000E+00
    0.00000E+00         0.00000E+00         0.21897E+07
 
    0.10426E+08        -0.17003E+07         0.00000E+00
   -0.17003E+07        -0.20340E+06         0.00000E+00
    0.00000E+00         0.00000E+00         0.20445E+07
 
    0.91879E+07        -0.17758E+07         0.00000E+00
   -0.17758E+07         0.17404E+06         0.00000E+00
    0.00000E+00         0.00000E+00         0.18724E+07
 
    0.79235E+07        -0.16649E+07         0.00000E+00
   -0.16649E+07         0.51537E+06         0.00000E+00
    0.00000E+00         0.00000E+00         0.16878E+07
 
    0.66883E+07        -0.14001E+07         0.00000E+00
   -0.14001E+07         0.81664E+06         0.00000E+00
    0.00000E+00         0.00000E+00         0.15010E+07
 
    0.55065E+07        -0.10069E+07         0.00000E+00
   -0.10069E+07         0.10891E+07         0.00000E+00
    0.00000E+00         0.00000E+00         0.13191E+07
 
    0.43863E+07        -0.49874E+06         0.00000E+00
   -0.49874E+06         0.13497E+07         0.00000E+00
    0.00000E+00         0.00000E+00         0.11472E+07
 
    0.33334E+07         0.12361E+06         0.00000E+00
    0.12361E+06         0.16130E+07         0.00000E+00
    0.00000E+00         0.00000E+00         0.98928E+06
 
    0.23626E+07         0.86966E+06         0.00000E+00
    0.86966E+06         0.18849E+07         0.00000E+00
    0.00000E+00         0.00000E+00         0.84949E+06
 
    0.15094E+07         0.17539E+07         0.00000E+00
    0.17539E+07         0.21558E+07         0.00000E+00
    0.00000E+00         0.00000E+00         0.73303E+06
 
    0.84001E+06         0.27851E+07         0.00000E+00
    0.27851E+07         0.23936E+07         0.00000E+00
    0.00000E+00         0.00000E+00         0.64673E+06
 
    0.45576E+06         0.39472E+07         0.00000E+00
    0.39472E+07         0.25413E+07         0.00000E+00
    0.00000E+00         0.00000E+00         0.59942E+06
 
    0.48300E+06         0.51750E+07         0.00000E+00
    0.51750E+07         0.25245E+07         0.00000E+00
    0.00000E+00         0.00000E+00         0.60150E+06
 
    0.10949E+08        -0.20080E+06         0.00000E+00
   -0.20080E+06        -0.23900E+07         0.00000E+00
    0.00000E+00         0.00000E+00         0.17117E+07
 
    0.10595E+08        -0.65176E+06         0.00000E+00
   -0.65176E+06        -0.22523E+07         0.00000E+00
    0.00000E+00         0.00000E+00         0.16685E+07
 
    0.98871E+07        -0.10541E+07         0.00000E+00
   -0.10541E+07        -0.20047E+07         0.00000E+00
    0.00000E+00         0.00000E+00         0.15765E+07
 
    0.89425E+07        -0.13219E+07         0.00000E+00
   -0.13219E+07        -0.16936E+07         0.00000E+00
    0.00000E+00         0.00000E+00         0.14498E+07
 
    0.78691E+07        -0.14211E+07         0.00000E+00
   -0.14211E+07        -0.13627E+07         0.00000E+00
    0.00000E+00         0.00000E+00         0.13013E+07
 
    0.67491E+07        -0.13499E+07         0.00000E+00
   -0.13499E+07        -0.10407E+07         0.00000E+00
    0.00000E+00         0.00000E+00         0.11417E+07
 
    0.56359E+07        -0.11213E+07         0.00000E+00
   -0.11213E+07        -0.73929E+06         0.00000E+00
    0.00000E+00         0.00000E+00         0.97932E+06
 
    0.45604E+07        -0.75095E+06         0.00000E+00
   -0.75095E+06        -0.45792E+06         0.00000E+00
    0.00000E+00         0.00000E+00         0.82049E+06
 
    0.35402E+07        -0.25011E+06         0.00000E+00
   -0.25011E+06        -0.19004E+06         0.00000E+00
    0.00000E+00         0.00000E+00         0.67003E+06
 
    0.25896E+07         0.37559E+06         0.00000E+00
    0.37559E+06         0.70381E+05         0.00000E+00
    0.00000E+00         0.00000E+00         0.53201E+06
 
    0.17289E+07         0.11247E+07         0.00000E+00
    0.11247E+07         0.32314E+06         0.00000E+00
    0.00000E+00         0.00000E+00         0.41040E+06
 
    0.99130E+06         0.19946E+07         0.00000E+00
    0.19946E+07         0.55696E+06         0.00000E+00
    0.00000E+00         0.00000E+00         0.30965E+06
 
    0.42859E+06         0.29728E+07         0.00000E+00
    0.29728E+07         0.74648E+06         0.00000E+00
    0.00000E+00         0.00000E+00         0.23501E+06
 
    0.10948E+06         0.40239E+07         0.00000E+00
    0.40239E+07         0.85365E+06         0.00000E+00
    0.00000E+00         0.00000E+00         0.19263E+06
 
    0.10922E+06         0.50758E+07         0.00000E+00
    0.50758E+07         0.83685E+06         0.00000E+00
    0.00000E+00         0.00000E+00         0.18921E+06
 
    0.94875E+07        -0.12528E+06         0.00000E+00
   -0.12528E+06        -0.35140E+07         0.00000E+00
    0.00000E+00         0.00000E+00         0.11947E+07
 
    0.90924E+07        -0.44687E+06         0.00000E+00
   -0.44687E+06        -0.34274E+07         0.00000E+00
    0.00000E+00         0.00000E+00         0.11330E+07
 
    0.84484E+07        -0.76540E+06         0.00000E+00
   -0.76540E+06        -0.32588E+07         0.00000E+00
    0.00000E+00         0.00000E+00         0.10379E+07
 
    0.76244E+07        -0.99680E+06         0.00000E+00
   -0.99680E+06        -0.30307E+07         0.00000E+00
    0.00000E+00         0.00000E+00         0.91873E+06
 
    0.66918E+07        -0.10948E+07         0.00000E+00
   -0.10948E+07        -0.27713E+07         0.00000E+00
    0.00000E+00         0.00000E+00         0.78410E+06
 
    0.57114E+07        -0.10414E+07         0.00000E+00
   -0.10414E+07        -0.25034E+07         0.00000E+00
    0.00000E+00         0.00000E+00         0.64161E+06
 
    0.47279E+07        -0.83543E+06         0.00000E+00
   -0.83543E+06        -0.22403E+07         0.00000E+00
    0.00000E+00         0.00000E+00         0.49753E+06
 
    0.37716E+07        -0.48360E+06         0.00000E+00
   -0.48360E+06        -0.19873E+07         0.00000E+00
    0.00000E+00         0.00000E+00         0.35687E+06
 
    0.28631E+07         0.55020E+04         0.00000E+00
    0.55020E+04        -0.17445E+07         0.00000E+00
    0.00000E+00         0.00000E+00         0.22373E+06
 
    0.20200E+07         0.62345E+06         0.00000E+00
    0.62345E+06        -0.15120E+07         0.00000E+00
    0.00000E+00         0.00000E+00         0.10160E+06
 
    0.12625E+07         0.13611E+07         0.00000E+00
    0.13611E+07        -0.12934E+07         0.00000E+00
    0.00000E+00         0.00000E+00        -0.61736E+04
 
    0.61825E+06         0.22045E+07         0.00000E+00
    0.22045E+07        -0.10989E+07         0.00000E+00
    0.00000E+00         0.00000E+00        -0.96131E+05
 
    0.12389E+06         0.31290E+07         0.00000E+00
    0.31290E+07        -0.94636E+06         0.00000E+00
    0.00000E+00         0.00000E+00        -0.16449E+06
 
   -0.17776E+06         0.40907E+07         0.00000E+00
    0.40907E+07        -0.85817E+06         0.00000E+00
    0.00000E+00         0.00000E+00        -0.20719E+06
 
   -0.24669E+06         0.50195E+07         0.00000E+00
    0.50195E+07        -0.85364E+06         0.00000E+00
    0.00000E+00         0.00000E+00        -0.22007E+06
 
    0.82149E+07        -0.74786E+05         0.00000E+00
   -0.74786E+05        -0.45691E+07         0.00000E+00
    0.00000E+00         0.00000E+00         0.72916E+06
 
    0.77544E+07        -0.30221E+06         0.00000E+00
   -0.30221E+06        -0.45257E+07         0.00000E+00
    0.00000E+00         0.00000E+00         0.64574E+06
 
    0.71393E+07        -0.55021E+06         0.00000E+00
   -0.55021E+06        -0.44294E+07         0.00000E+00
    0.00000E+00         0.00000E+00         0.54199E+06
 
    0.64044E+07        -0.74086E+06         0.00000E+00
   -0.74086E+06        -0.42855E+07         0.00000E+00
    0.00000E+00         0.00000E+00         0.42378E+06
 
    0.55922E+07        -0.82399E+06         0.00000E+00
   -0.82399E+06        -0.41087E+07         0.00000E+00
    0.00000E+00         0.00000E+00         0.29669E+06
 
    0.47433E+07        -0.77283E+06         0.00000E+00
   -0.77283E+06        -0.39145E+07         0.00000E+00
    0.00000E+00         0.00000E+00         0.16575E+06
 
    0.38908E+07        -0.57724E+06         0.00000E+00
   -0.57724E+06        -0.37144E+07         0.00000E+00
    0.00000E+00         0.00000E+00         0.35284E+05
 
    0.30597E+07        -0.23735E+06         0.00000E+00
   -0.23735E+06        -0.35151E+07         0.00000E+00
    0.00000E+00         0.00000E+00        -0.91084E+05
 
    0.22689E+07         0.24086E+06         0.00000E+00
    0.24086E+06        -0.33205E+07         0.00000E+00
    0.00000E+00         0.00000E+00        -0.21031E+06
 
    0.15348E+07         0.84772E+06         0.00000E+00
    0.84772E+06        -0.31335E+07         0.00000E+00
    0.00000E+00         0.00000E+00        -0.31975E+06
 
    0.87436E+06         0.15694E+07         0.00000E+00
    0.15694E+07        -0.29590E+07         0.00000E+00
    0.00000E+00         0.00000E+00        -0.41692E+06
 
    0.30782E+06         0.23858E+07         0.00000E+00
    0.23858E+07        -0.28048E+07         0.00000E+00
    0.00000E+00         0.00000E+00        -0.49940E+06
 
   -0.14163E+06         0.32659E+07         0.00000E+00
    0.32659E+07        -0.26818E+07         0.00000E+00
    0.00000E+00         0.00000E+00        -0.56468E+06
 
   -0.45087E+06         0.41639E+07         0.00000E+00
    0.41639E+07        -0.26006E+07         0.00000E+00
    0.00000E+00         0.00000E+00        -0.61030E+06
 
   -0.60383E+06         0.50157E+07         0.00000E+00
    0.50157E+07        -0.25657E+07         0.00000E+00
    0.00000E+00         0.00000E+00        -0.63391E+06
 
    0.70299E+07        -0.45390E+05         0.00000E+00
   -0.45390E+05        -0.56148E+07         0.00000E+00
    0.00000E+00         0.00000E+00         0.28303E+06
 
    0.64969E+07        -0.21149E+06         0.00000E+00
   -0.21149E+06        -0.56086E+07         0.00000E+00
    0.00000E+00         0.00000E+00         0.17767E+06
 
    0.58926E+07        -0.40663E+06         0.00000E+00
   -0.40663E+06        -0.55773E+07         0.00000E+00
    0.00000E+00         0.00000E+00         0.63057E+05
 
    0.52271E+07        -0.56041E+06         0.00000E+00
   -0.56041E+06        -0.55143E+07         0.00000E+00
    0.00000E+00         0.00000E+00        -0.57428E+05
 
    0.45204E+07        -0.62330E+06         0.00000E+00
   -0.62330E+06        -0.54233E+07         0.00000E+00
    0.00000E+00         0.00000E+00        -0.18057E+06
 
    0.37950E+07        -0.56492E+06         0.00000E+00
   -0.56492E+06        -0.53121E+07         0.00000E+00
    0.00000E+00         0.00000E+00        -0.30343E+06
 
    0.30716E+07        -0.37016E+06         0.00000E+00
   -0.37016E+06        -0.51884E+07         0.00000E+00
    0.00000E+00         0.00000E+00        -0.42337E+06
 
    0.23675E+07        -0.35056E+05         0.00000E+00
   -0.35056E+05        -0.50583E+07         0.00000E+00
    0.00000E+00         0.00000E+00        -0.53817E+06
 
    0.16967E+07         0.43651E+06         0.00000E+00
    0.43651E+06        -0.49262E+07         0.00000E+00
    0.00000E+00         0.00000E+00        -0.64590E+06
 
    0.10715E+07         0.10346E+07         0.00000E+00
    0.10346E+07        -0.47959E+07         0.00000E+00
    0.00000E+00         0.00000E+00        -0.74488E+06
 
    0.50367E+06         0.17431E+07         0.00000E+00
    0.17431E+07        -0.46715E+07         0.00000E+00
    0.00000E+00         0.00000E+00        -0.83356E+06
 
    0.55281E+04         0.25391E+07         0.00000E+00
    0.25391E+07        -0.45580E+07         0.00000E+00
    0.00000E+00         0.00000E+00        -0.91050E+06
 
   -0.41109E+06         0.33897E+07         0.00000E+00
    0.33897E+07        -0.44604E+07         0.00000E+00
    0.00000E+00         0.00000E+00        -0.97430E+06
 
   -0.73768E+06         0.42506E+07         0.00000E+00
    0.42506E+07        -0.43808E+07         0.00000E+00
    0.00000E+00         0.00000E+00        -0.10237E+07
 
   -0.97424E+06         0.50648E+07         0.00000E+00
    0.50648E+07        -0.43143E+07         0.00000E+00
    0.00000E+00         0.00000E+00        -0.10577E+07
 
    0.58521E+07        -0.34304E+05         0.00000E+00
   -0.34304E+05        -0.66951E+07         0.00000E+00
    0.00000E+00         0.00000E+00        -0.16861E+06
 
    0.52506E+07        -0.16926E+06         0.00000E+00
   -0.16926E+06        -0.67213E+07         0.00000E+00
    0.00000E+00         0.00000E+00        -0.29415E+06
 
    0.46513E+07        -0.33084E+06         0.00000E+00
   -0.33084E+06        -0.67486E+07         0.00000E+00
    0.00000E+00         0.00000E+00        -0.41945E+06
 
    0.40458E+07        -0.45628E+06         0.00000E+00
   -0.45628E+06        -0.67612E+07         0.00000E+00
    0.00000E+00         0.00000E+00        -0.54309E+06
 
    0.34357E+07        -0.49914E+06         0.00000E+00
   -0.49914E+06        -0.67543E+07         0.00000E+00
    0.00000E+00         0.00000E+00        -0.66372E+06
 
    0.28279E+07        -0.42875E+06         0.00000E+00
   -0.42875E+06        -0.67285E+07         0.00000E+00
    0.00000E+00         0.00000E+00        -0.78012E+06
 
    0.22312E+07        -0.22807E+06         0.00000E+00
   -0.22807E+06        -0.66870E+07         0.00000E+00
    0.00000E+00         0.00000E+00        -0.89116E+06
 
    0.16541E+07         0.10901E+06         0.00000E+00
    0.10901E+06        -0.66336E+07         0.00000E+00
    0.00000E+00         0.00000E+00        -0.99589E+06
 
    0.11040E+07         0.57995E+06         0.00000E+00
    0.57995E+06        -0.65713E+07         0.00000E+00
    0.00000E+00         0.00000E+00        -0.10935E+07
 
    0.58729E+06         0.11750E+07         0.00000E+00
    0.11750E+07        -0.65033E+07         0.00000E+00
    0.00000E+00         0.00000E+00        -0.11832E+07
 
    0.10971E+06         0.18777E+07         0.00000E+00
    0.18777E+07        -0.64319E+07         0.00000E+00
    0.00000E+00         0.00000E+00        -0.12644E+07
 
   -0.32406E+06         0.26643E+07         0.00000E+00
    0.26643E+07        -0.63592E+07         0.00000E+00
    0.00000E+00         0.00000E+00        -0.13367E+07
 
   -0.71160E+06         0.35027E+07         0.00000E+00
    0.35027E+07        -0.62853E+07         0.00000E+00
    0.00000E+00         0.00000E+00        -0.13994E+07
 
   -0.10552E+07         0.43518E+07         0.00000E+00
    0.43518E+07        -0.62063E+07         0.00000E+00
    0.00000E+00         0.00000E+00        -0.14523E+07
 
   -0.13655E+07         0.51619E+07         0.00000E+00
    0.51619E+07        -0.61112E+07         0.00000E+00
    0.00000E+00         0.00000E+00        -0.14953E+07
 
    0.46152E+07        -0.39491E+05         0.00000E+00
   -0.39491E+05        -0.78435E+07         0.00000E+00
    0.00000E+00         0.00000E+00        -0.64566E+06
 
    0.39577E+07        -0.17090E+06         0.00000E+00
   -0.17090E+06        -0.78985E+07         0.00000E+00
    0.00000E+00         0.00000E+00        -0.78816E+06
 
    0.33672E+07        -0.31825E+06         0.00000E+00
   -0.31825E+06        -0.79783E+07         0.00000E+00
    0.00000E+00         0.00000E+00        -0.92224E+06
 
    0.28203E+07        -0.42615E+06         0.00000E+00
   -0.42615E+06        -0.80606E+07         0.00000E+00
    0.00000E+00         0.00000E+00        -0.10481E+07
 
    0.23037E+07        -0.45257E+06         0.00000E+00
   -0.45257E+06        -0.81331E+07         0.00000E+00
    0.00000E+00         0.00000E+00        -0.11659E+07
 
    0.18111E+07        -0.36866E+06         0.00000E+00
   -0.36866E+06        -0.81905E+07         0.00000E+00
    0.00000E+00         0.00000E+00        -0.12759E+07
 
    0.13399E+07        -0.15755E+06         0.00000E+00
   -0.15755E+06        -0.82313E+07         0.00000E+00
    0.00000E+00         0.00000E+00        -0.13783E+07
 
    0.88972E+06         0.18744E+06         0.00000E+00
    0.18744E+06        -0.82559E+07         0.00000E+00
    0.00000E+00         0.00000E+00        -0.14732E+07
 
    0.46067E+06         0.66445E+06         0.00000E+00
    0.66445E+06        -0.82656E+07         0.00000E+00
    0.00000E+00         0.00000E+00        -0.15610E+07
 
    0.52824E+05         0.12642E+07         0.00000E+00
    0.12642E+07        -0.82614E+07         0.00000E+00
    0.00000E+00         0.00000E+00        -0.16417E+07
 
   -0.33452E+06         0.19707E+07         0.00000E+00
    0.19707E+07        -0.82437E+07         0.00000E+00
    0.00000E+00         0.00000E+00        -0.17156E+07
 
   -0.70368E+06         0.27608E+07         0.00000E+00
    0.27608E+07        -0.82115E+07         0.00000E+00
    0.00000E+00         0.00000E+00        -0.17830E+07
 
   -0.10599E+07         0.36047E+07         0.00000E+00
    0.36047E+07        -0.81610E+07         0.00000E+00
    0.00000E+00         0.00000E+00        -0.18442E+07
 
   -0.14136E+07         0.44653E+07         0.00000E+00
    0.44653E+07        -0.80842E+07         0.00000E+00
    0.00000E+00         0.00000E+00        -0.18996E+07
 
   -0.17825E+07         0.52993E+07         0.00000E+00
    0.52993E+07        -0.79661E+07         0.00000E+00
    0.00000E+00         0.00000E+00        -0.19497E+07
 
    0.32641E+07        -0.59366E+05         0.00000E+00
   -0.59366E+05        -0.90861E+07         0.00000E+00
    0.00000E+00         0.00000E+00        -0.11644E+07
 
    0.25694E+07        -0.21236E+06         0.00000E+00
   -0.21236E+06        -0.91667E+07         0.00000E+00
    0.00000E+00         0.00000E+00        -0.13195E+07
 
    0.19987E+07        -0.36390E+06         0.00000E+00
   -0.36390E+06        -0.92936E+07         0.00000E+00
    0.00000E+00         0.00000E+00        -0.14590E+07
 
    0.15161E+07        -0.46575E+06         0.00000E+00
   -0.46575E+06        -0.94389E+07         0.00000E+00
    0.00000E+00         0.00000E+00        -0.15846E+07
 
    0.10955E+07        -0.48103E+06         0.00000E+00
   -0.48103E+06        -0.95845E+07         0.00000E+00
    0.00000E+00         0.00000E+00        -0.16978E+07
 
    0.71908E+06        -0.38412E+06         0.00000E+00
   -0.38412E+06        -0.97197E+07         0.00000E+00
    0.00000E+00         0.00000E+00        -0.18001E+07
 
    0.37417E+06        -0.15976E+06         0.00000E+00
   -0.15976E+06        -0.98387E+07         0.00000E+00
    0.00000E+00         0.00000E+00        -0.18929E+07
 
    0.51886E+05         0.19815E+06         0.00000E+00
    0.19815E+06        -0.99387E+07         0.00000E+00
    0.00000E+00         0.00000E+00        -0.19774E+07
 
   -0.25476E+06         0.68780E+06         0.00000E+00
    0.68780E+06        -0.10018E+08         0.00000E+00
    0.00000E+00         0.00000E+00        -0.20546E+07
 
   -0.55210E+06         0.13004E+07         0.00000E+00
    0.13004E+07        -0.10076E+08         0.00000E+00
    0.00000E+00         0.00000E+00        -0.21257E+07
 
   -0.84695E+06         0.20208E+07         0.00000E+00
    0.20208E+07        -0.10111E+08         0.00000E+00
    0.00000E+00         0.00000E+00        -0.21916E+07
 
   -0.11478E+07         0.28278E+07         0.00000E+00
    0.28278E+07        -0.10119E+08         0.00000E+00
    0.00000E+00         0.00000E+00        -0.22533E+07
 
   -0.14664E+07         0.36939E+07         0.00000E+00
    0.36939E+07        -0.10092E+08         0.00000E+00
    0.00000E+00         0.00000E+00        -0.23117E+07
 
   -0.18189E+07         0.45865E+07         0.00000E+00
    0.45865E+07        -0.10021E+08         0.00000E+00
    0.00000E+00         0.00000E+00        -0.23679E+07
 
   -0.22282E+07         0.54680E+07         0.00000E+00
    0.54680E+07        -0.98867E+07         0.00000E+00
    0.00000E+00         0.00000E+00        -0.24230E+07
 
    0.17513E+07        -0.92563E+05         0.00000E+00
   -0.92563E+05        -0.10443E+08         0.00000E+00
    0.00000E+00         0.00000E+00        -0.17384E+07
 
    0.10442E+07        -0.28985E+06         0.00000E+00
   -0.28985E+06        -0.10547E+08         0.00000E+00
    0.00000E+00         0.00000E+00        -0.19005E+07
 
    0.51068E+06        -0.46251E+06         0.00000E+00
   -0.46251E+06        -0.10715E+08         0.00000E+00
    0.00000E+00         0.00000E+00        -0.20410E+07
 
    0.10366E+06        -0.56942E+06         0.00000E+00
   -0.56942E+06        -0.10917E+08         0.00000E+00
    0.00000E+00         0.00000E+00        -0.21626E+07
 
   -0.21364E+06        -0.57944E+06         0.00000E+00
   -0.57944E+06        -0.11128E+08         0.00000E+00
    0.00000E+00         0.00000E+00        -0.22682E+07
 
   -0.46933E+06        -0.47110E+06         0.00000E+00
   -0.47110E+06        -0.11333E+08         0.00000E+00
    0.00000E+00         0.00000E+00        -0.23605E+07
 
   -0.68476E+06        -0.23182E+06         0.00000E+00
   -0.23182E+06        -0.11523E+08         0.00000E+00
    0.00000E+00         0.00000E+00        -0.24416E+07
 
   -0.87648E+06         0.14304E+06         0.00000E+00
    0.14304E+06        -0.11693E+08         0.00000E+00
    0.00000E+00         0.00000E+00        -0.25138E+07
 
   -0.10580E+07         0.65124E+06         0.00000E+00
    0.65124E+06        -0.11837E+08         0.00000E+00
    0.00000E+00         0.00000E+00        -0.25790E+07
 
   -0.12416E+07         0.12844E+07         0.00000E+00
    0.12844E+07        -0.11954E+08         0.00000E+00
    0.00000E+00         0.00000E+00        -0.26390E+07
 
   -0.14396E+07         0.20285E+07         0.00000E+00
    0.20285E+07        -0.12038E+08         0.00000E+00
    0.00000E+00         0.00000E+00        -0.26955E+07
 
   -0.16657E+07         0.28644E+07         0.00000E+00
    0.28644E+07        -0.12084E+08         0.00000E+00
    0.00000E+00         0.00000E+00        -0.27499E+07
 
   -0.19370E+07         0.37677E+07         0.00000E+00
    0.37677E+07        -0.12082E+08         0.00000E+00
    0.00000E+00         0.00000E+00        -0.28039E+07
 
   -0.22743E+07         0.47099E+07         0.00000E+00
    0.47099E+07        -0.12020E+08         0.00000E+00
    0.00000E+00         0.00000E+00        -0.28589E+07
 
   -0.27043E+07         0.56584E+07         0.00000E+00
    0.56584E+07        -0.11878E+08         0.00000E+00
    0.00000E+00         0.00000E+00        -0.29165E+07
 
    0.36506E+05        -0.13778E+06         0.00000E+00
   -0.13778E+06        -0.11932E+08         0.00000E+00
    0.00000E+00         0.00000E+00        -0.23791E+07
 
   -0.65323E+06        -0.39957E+06         0.00000E+00
   -0.39957E+06        -0.12055E+08         0.00000E+00
    0.00000E+00         0.00000E+00        -0.25417E+07
 
   -0.11269E+07        -0.60839E+06         0.00000E+00
   -0.60839E+06        -0.12260E+08         0.00000E+00
    0.00000E+00         0.00000E+00        -0.26774E+07
 
   -0.14419E+07        -0.73041E+06         0.00000E+00
   -0.73041E+06        -0.12510E+08         0.00000E+00
    0.00000E+00         0.00000E+00        -0.27903E+07
 
   -0.16445E+07        -0.74077E+06         0.00000E+00
   -0.74077E+06        -0.12777E+08         0.00000E+00
    0.00000E+00         0.00000E+00        -0.28843E+07
 
   -0.17716E+07        -0.62292E+06         0.00000E+00
   -0.62292E+06        -0.13043E+08         0.00000E+00
    0.00000E+00         0.00000E+00        -0.29629E+07
 
   -0.18520E+07        -0.36780E+06         0.00000E+00
   -0.36780E+06        -0.13295E+08         0.00000E+00
    0.00000E+00         0.00000E+00        -0.30295E+07
 
   -0.19087E+07         0.27132E+05         0.00000E+00
    0.27132E+05        -0.13526E+08         0.00000E+00
    0.00000E+00         0.00000E+00        -0.30868E+07
 
   -0.19610E+07         0.55874E+06         0.00000E+00
    0.55874E+06        -0.13728E+08         0.00000E+00
    0.00000E+00         0.00000E+00        -0.31377E+07
 
   -0.20261E+07         0.12189E+07         0.00000E+00
    0.12189E+07        -0.13896E+08         0.00000E+00
    0.00000E+00         0.00000E+00        -0.31845E+07
 
   -0.21208E+07         0.19950E+07         0.00000E+00
    0.19950E+07        -0.14026E+08         0.00000E+00
    0.00000E+00         0.00000E+00        -0.32294E+07
 
   -0.22636E+07         0.28701E+07         0.00000E+00
    0.28701E+07        -0.14109E+08         0.00000E+00
    0.00000E+00         0.00000E+00        -0.32745E+07
 
   -0.24756E+07         0.38231E+07         0.00000E+00
    0.38231E+07        -0.14134E+08         0.00000E+00
    0.00000E+00         0.00000E+00        -0.33219E+07
 
   -0.27818E+07         0.48294E+07         0.00000E+00
    0.48294E+07        -0.14085E+08         0.00000E+00
    0.00000E+00         0.00000E+00        -0.33734E+07
 
   -0.32116E+07         0.58609E+07         0.00000E+00
    0.58609E+07        -0.13943E+08         0.00000E+00
    0.00000E+00         0.00000E+00        -0.34309E+07
 
   -0.19149E+07        -0.19367E+06         0.00000E+00
   -0.19367E+06        -0.13565E+08         0.00000E+00
    0.00000E+00         0.00000E+00        -0.30960E+07
 
   -0.25522E+07        -0.53754E+06         0.00000E+00
   -0.53754E+06        -0.13705E+08         0.00000E+00
    0.00000E+00         0.00000E+00        -0.32514E+07
 
   -0.29386E+07        -0.79528E+06         0.00000E+00
   -0.79528E+06        -0.13940E+08         0.00000E+00
    0.00000E+00         0.00000E+00        -0.33757E+07
 
   -0.31409E+07        -0.94086E+06         0.00000E+00
   -0.94086E+06        -0.14229E+08         0.00000E+00
    0.00000E+00         0.00000E+00        -0.34741E+07
 
   -0.32139E+07        -0.95629E+06         0.00000E+00
   -0.95629E+06        -0.14543E+08         0.00000E+00
    0.00000E+00         0.00000E+00        -0.35514E+07
 
   -0.32017E+07        -0.83069E+06         0.00000E+00
   -0.83069E+06        -0.14859E+08         0.00000E+00
    0.00000E+00         0.00000E+00        -0.36121E+07
 
   -0.31394E+07        -0.55922E+06         0.00000E+00
   -0.55922E+06        -0.15162E+08         0.00000E+00
    0.00000E+00         0.00000E+00        -0.36602E+07
 
   -0.30553E+07        -0.14206E+06         0.00000E+00
   -0.14206E+06        -0.15442E+08         0.00000E+00
    0.00000E+00         0.00000E+00        -0.36995E+07
 
   -0.29729E+07         0.41646E+06         0.00000E+00
    0.41646E+06        -0.15692E+08         0.00000E+00
    0.00000E+00         0.00000E+00        -0.37330E+07
 
   -0.29133E+07         0.11084E+07         0.00000E+00
    0.11084E+07        -0.15906E+08         0.00000E+00
    0.00000E+00         0.00000E+00        -0.37639E+07
 
   -0.28969E+07         0.19226E+07         0.00000E+00
    0.19226E+07        -0.16076E+08         0.00000E+00
    0.00000E+00         0.00000E+00        -0.37947E+07
 
   -0.29459E+07         0.28447E+07         0.00000E+00
    0.28447E+07        -0.16194E+08         0.00000E+00
    0.00000E+00         0.00000E+00        -0.38279E+07
 
   -0.30849E+07         0.38570E+07         0.00000E+00
    0.38570E+07        -0.16246E+08         0.00000E+00
    0.00000E+00         0.00000E+00        -0.38661E+07
 
   -0.33422E+07         0.49386E+07         0.00000E+00
    0.49386E+07        -0.16215E+08         0.00000E+00
    0.00000E+00         0.00000E+00        -0.39115E+07
 
   -0.37502E+07         0.60657E+07         0.00000E+00
    0.60657E+07        -0.16081E+08         0.00000E+00
    0.00000E+00         0.00000E+00        -0.39662E+07
 
   -0.41315E+07        -0.25878E+06         0.00000E+00
   -0.25878E+06        -0.15352E+08         0.00000E+00
    0.00000E+00         0.00000E+00        -0.38966E+07
 
   -0.46766E+07        -0.69940E+06         0.00000E+00
   -0.69940E+06        -0.15505E+08         0.00000E+00
    0.00000E+00         0.00000E+00        -0.40364E+07
 
   -0.49439E+07        -0.10162E+07         0.00000E+00
   -0.10162E+07        -0.15764E+08         0.00000E+00
    0.00000E+00         0.00000E+00        -0.41416E+07
 
   -0.50092E+07        -0.11917E+07         0.00000E+00
   -0.11917E+07        -0.16084E+08         0.00000E+00
    0.00000E+00         0.00000E+00        -0.42187E+07
 
   -0.49346E+07        -0.12156E+07         0.00000E+00
   -0.12156E+07        -0.16432E+08         0.00000E+00
    0.00000E+00         0.00000E+00        -0.42734E+07
 
   -0.47705E+07        -0.10835E+07         0.00000E+00
   -0.10835E+07        -0.16785E+08         0.00000E+00
    0.00000E+00         0.00000E+00        -0.43111E+07
 
   -0.45565E+07        -0.79538E+06         0.00000E+00
   -0.79538E+06        -0.17125E+08         0.00000E+00
    0.00000E+00         0.00000E+00        -0.43364E+07
 
   -0.43247E+07        -0.35478E+06         0.00000E+00
   -0.35478E+06        -0.17443E+08         0.00000E+00
    0.00000E+00         0.00000E+00        -0.43535E+07
 
   -0.41013E+07         0.23254E+06         0.00000E+00
    0.23254E+06        -0.17730E+08         0.00000E+00
    0.00000E+00         0.00000E+00        -0.43663E+07
 
   -0.39098E+07         0.95884E+06         0.00000E+00
    0.95884E+06        -0.17980E+08         0.00000E+00
    0.00000E+00         0.00000E+00        -0.43779E+07
 
   -0.37734E+07         0.18146E+07         0.00000E+00
    0.18146E+07        -0.18184E+08         0.00000E+00
    0.00000E+00         0.00000E+00        -0.43915E+07
 
   -0.37166E+07         0.27883E+07         0.00000E+00
    0.27883E+07        -0.18334E+08         0.00000E+00
    0.00000E+00         0.00000E+00        -0.44101E+07
 
   -0.37671E+07         0.38660E+07         0.00000E+00
    0.38660E+07        -0.18414E+08         0.00000E+00
    0.00000E+00         0.00000E+00        -0.44362E+07
 
   -0.39563E+07         0.50308E+07         0.00000E+00
    0.50308E+07        -0.18406E+08         0.00000E+00
    0.00000E+00         0.00000E+00        -0.44725E+07
 
   -0.43197E+07         0.62627E+07         0.00000E+00
    0.62627E+07        -0.18288E+08         0.00000E+00
    0.00000E+00         0.00000E+00        -0.45216E+07
 
   -0.66358E+07        -0.33149E+06         0.00000E+00
   -0.33149E+06        -0.17300E+08         0.00000E+00
    0.00000E+00         0.00000E+00        -0.47871E+07
 
   -0.70440E+07        -0.88030E+06         0.00000E+00
   -0.88030E+06        -0.17463E+08         0.00000E+00
    0.00000E+00         0.00000E+00        -0.49015E+07
 
   -0.71564E+07        -0.12634E+07         0.00000E+00
   -0.12634E+07        -0.17739E+08         0.00000E+00
    0.00000E+00         0.00000E+00        -0.49790E+07
 
   -0.70573E+07        -0.14727E+07         0.00000E+00
   -0.14727E+07        -0.18078E+08         0.00000E+00
    0.00000E+00         0.00000E+00        -0.50272E+07
 
   -0.68152E+07        -0.15066E+07         0.00000E+00
   -0.15066E+07        -0.18448E+08         0.00000E+00
    0.00000E+00         0.00000E+00        -0.50527E+07
 
   -0.64852E+07        -0.13682E+07         0.00000E+00
   -0.13682E+07        -0.18822E+08         0.00000E+00
    0.00000E+00         0.00000E+00        -0.50615E+07
 
   -0.61099E+07        -0.10633E+07         0.00000E+00
   -0.10633E+07        -0.19185E+08         0.00000E+00
    0.00000E+00         0.00000E+00        -0.50590E+07
 
   -0.57232E+07        -0.59910E+06         0.00000E+00
   -0.59910E+06        -0.19525E+08         0.00000E+00
    0.00000E+00         0.00000E+00        -0.50497E+07
 
   -0.53524E+07         0.16974E+05         0.00000E+00
    0.16974E+05        -0.19836E+08         0.00000E+00
    0.00000E+00         0.00000E+00        -0.50376E+07
 
   -0.50218E+07         0.77749E+06         0.00000E+00
    0.77749E+06        -0.20111E+08         0.00000E+00
    0.00000E+00         0.00000E+00        -0.50265E+07
 
   -0.47556E+07         0.16749E+07         0.00000E+00
    0.16749E+07        -0.20342E+08         0.00000E+00
    0.00000E+00         0.00000E+00        -0.50196E+07
 
   -0.45799E+07         0.27012E+07         0.00000E+00
    0.27012E+07        -0.20520E+08         0.00000E+00
    0.00000E+00         0.00000E+00        -0.50201E+07
 
   -0.45246E+07         0.38466E+07         0.00000E+00
    0.38466E+07        -0.20630E+08         0.00000E+00
    0.00000E+00         0.00000E+00        -0.50309E+07
 
   -0.46246E+07         0.50988E+07         0.00000E+00
    0.50988E+07        -0.20651E+08         0.00000E+00
    0.00000E+00         0.00000E+00        -0.50551E+07
 
   -0.49190E+07         0.64418E+07         0.00000E+00
    0.64418E+07        -0.20558E+08         0.00000E+00
    0.00000E+00         0.00000E+00        -0.50954E+07
 
   -0.94440E+07        -0.40999E+06         0.00000E+00
   -0.40999E+06        -0.19413E+08         0.00000E+00
    0.00000E+00         0.00000E+00        -0.57714E+07
 
   -0.96658E+07        -0.10748E+07         0.00000E+00
   -0.10748E+07        -0.19582E+08         0.00000E+00
    0.00000E+00         0.00000E+00        -0.58496E+07
 
   -0.95840E+07        -0.15278E+07         0.00000E+00
   -0.15278E+07        -0.19866E+08         0.00000E+00
    0.00000E+00         0.00000E+00        -0.58899E+07
 
   -0.92905E+07        -0.17717E+07         0.00000E+00
   -0.17717E+07        -0.20213E+08         0.00000E+00
    0.00000E+00         0.00000E+00        -0.59008E+07
 
   -0.88597E+07        -0.18150E+07         0.00000E+00
   -0.18150E+07        -0.20589E+08         0.00000E+00
    0.00000E+00         0.00000E+00        -0.58898E+07
 
   -0.83496E+07        -0.16695E+07         0.00000E+00
   -0.16695E+07        -0.20968E+08         0.00000E+00
    0.00000E+00         0.00000E+00        -0.58636E+07
 
   -0.78039E+07        -0.13477E+07         0.00000E+00
   -0.13477E+07        -0.21335E+08         0.00000E+00
    0.00000E+00         0.00000E+00        -0.58278E+07
 
   -0.72560E+07        -0.86085E+06         0.00000E+00
   -0.86085E+06        -0.21680E+08         0.00000E+00
    0.00000E+00         0.00000E+00        -0.57873E+07
 
   -0.67321E+07        -0.21832E+06         0.00000E+00
   -0.21832E+06        -0.21999E+08         0.00000E+00
    0.00000E+00         0.00000E+00        -0.57463E+07
 
   -0.62555E+07         0.57308E+06         0.00000E+00
    0.57308E+06        -0.22287E+08         0.00000E+00
    0.00000E+00         0.00000E+00        -0.57085E+07
 
   -0.58495E+07         0.15085E+07         0.00000E+00
    0.15085E+07        -0.22538E+08         0.00000E+00
    0.00000E+00         0.00000E+00        -0.56774E+07
 
   -0.55407E+07         0.25839E+07         0.00000E+00
    0.25839E+07        -0.22741E+08         0.00000E+00
    0.00000E+00         0.00000E+00        -0.56563E+07
 
   -0.53610E+07         0.37950E+07         0.00000E+00
    0.37950E+07        -0.22881E+08         0.00000E+00
    0.00000E+00         0.00000E+00        -0.56484E+07
 
   -0.53484E+07         0.51347E+07         0.00000E+00
    0.51347E+07        -0.22936E+08         0.00000E+00
    0.00000E+00         0.00000E+00        -0.56569E+07
 
   -0.55468E+07         0.65917E+07         0.00000E+00
    0.65917E+07        -0.22879E+08         0.00000E+00
    0.00000E+00         0.00000E+00        -0.56851E+07
 
   -0.12565E+08        -0.49231E+06         0.00000E+00
   -0.49231E+06        -0.21692E+08         0.00000E+00
    0.00000E+00         0.00000E+00        -0.68514E+07
 
   -0.12547E+08        -0.12768E+07         0.00000E+00
   -0.12768E+07        -0.21862E+08         0.00000E+00
    0.00000E+00         0.00000E+00        -0.68818E+07
 
   -0.12228E+08        -0.17992E+07         0.00000E+00
   -0.17992E+07        -0.22144E+08         0.00000E+00
    0.00000E+00         0.00000E+00        -0.68744E+07
 
   -0.11708E+08        -0.20749E+07         0.00000E+00
   -0.20749E+07        -0.22486E+08         0.00000E+00
    0.00000E+00         0.00000E+00        -0.68389E+07
 
   -0.11067E+08        -0.21242E+07         0.00000E+00
   -0.21242E+07        -0.22851E+08         0.00000E+00
    0.00000E+00         0.00000E+00        -0.67836E+07
 
   -0.10364E+08        -0.19693E+07         0.00000E+00
   -0.19693E+07        -0.23215E+08         0.00000E+00
    0.00000E+00         0.00000E+00        -0.67157E+07
 
   -0.96403E+07        -0.16304E+07         0.00000E+00
   -0.16304E+07        -0.23565E+08         0.00000E+00
    0.00000E+00         0.00000E+00        -0.66410E+07
 
   -0.89269E+07        -0.11234E+07         0.00000E+00
   -0.11234E+07        -0.23896E+08         0.00000E+00
    0.00000E+00         0.00000E+00        -0.65645E+07
 
   -0.82463E+07        -0.45940E+06         0.00000E+00
   -0.45940E+06        -0.24205E+08         0.00000E+00
    0.00000E+00         0.00000E+00        -0.64903E+07
 
   -0.76179E+07         0.35581E+06         0.00000E+00
    0.35581E+06        -0.24492E+08         0.00000E+00
    0.00000E+00         0.00000E+00        -0.64220E+07
 
   -0.70626E+07         0.13208E+07         0.00000E+00
    0.13208E+07        -0.24752E+08         0.00000E+00
    0.00000E+00         0.00000E+00        -0.63630E+07
 
   -0.66061E+07         0.24371E+07         0.00000E+00
    0.24371E+07        -0.24976E+08         0.00000E+00
    0.00000E+00         0.00000E+00        -0.63165E+07
 
   -0.62812E+07         0.37066E+07         0.00000E+00
    0.37066E+07        -0.25149E+08         0.00000E+00
    0.00000E+00         0.00000E+00        -0.62860E+07
 
   -0.61297E+07         0.51293E+07         0.00000E+00
    0.51293E+07        -0.25246E+08         0.00000E+00
    0.00000E+00         0.00000E+00        -0.62751E+07
 
   -0.62014E+07         0.66998E+07         0.00000E+00
    0.66998E+07        -0.25235E+08         0.00000E+00
    0.00000E+00         0.00000E+00        -0.62873E+07
 
   -0.16002E+08        -0.57628E+06         0.00000E+00
   -0.57628E+06        -0.24134E+08         0.00000E+00
    0.00000E+00         0.00000E+00        -0.80272E+07
 
   -0.15683E+08        -0.14793E+07         0.00000E+00
   -0.14793E+07        -0.24301E+08         0.00000E+00
    0.00000E+00         0.00000E+00        -0.79967E+07
 
   -0.15081E+08        -0.20657E+07         0.00000E+00
   -0.20657E+07        -0.24571E+08         0.00000E+00
    0.00000E+00         0.00000E+00        -0.79303E+07
 
   -0.14303E+08        -0.23657E+07         0.00000E+00
   -0.23657E+07        -0.24891E+08         0.00000E+00
    0.00000E+00         0.00000E+00        -0.78386E+07
 
   -0.13431E+08        -0.24146E+07         0.00000E+00
   -0.24146E+07        -0.25223E+08         0.00000E+00
    0.00000E+00         0.00000E+00        -0.77309E+07
 
   -0.12524E+08        -0.22465E+07         0.00000E+00
   -0.22465E+07        -0.25549E+08         0.00000E+00
    0.00000E+00         0.00000E+00        -0.76145E+07
 
   -0.11619E+08        -0.18904E+07         0.00000E+00
   -0.18904E+07        -0.25858E+08         0.00000E+00
    0.00000E+00         0.00000E+00        -0.74954E+07
 
   -0.10739E+08        -0.13675E+07         0.00000E+00
   -0.13675E+07        -0.26152E+08         0.00000E+00
    0.00000E+00         0.00000E+00        -0.73782E+07
 
   -0.99011E+07        -0.69021E+06         0.00000E+00
   -0.69021E+06        -0.26432E+08         0.00000E+00
    0.00000E+00         0.00000E+00        -0.72667E+07
 
   -0.91176E+07         0.13737E+06         0.00000E+00
    0.13737E+06        -0.26703E+08         0.00000E+00
    0.00000E+00         0.00000E+00        -0.71640E+07
 
   -0.84048E+07         0.11184E+07         0.00000E+00
    0.11184E+07        -0.26962E+08         0.00000E+00
    0.00000E+00         0.00000E+00        -0.70733E+07
 
   -0.77853E+07         0.22611E+07         0.00000E+00
    0.22611E+07        -0.27203E+08         0.00000E+00
    0.00000E+00         0.00000E+00        -0.69977E+07
 
   -0.72925E+07         0.35760E+07         0.00000E+00
    0.35760E+07        -0.27410E+08         0.00000E+00
    0.00000E+00         0.00000E+00        -0.69405E+07
 
   -0.69719E+07         0.50719E+07         0.00000E+00
    0.50719E+07        -0.27557E+08         0.00000E+00
    0.00000E+00         0.00000E+00        -0.69058E+07
 
   -0.68810E+07         0.67514E+07         0.00000E+00
    0.67514E+07        -0.27607E+08         0.00000E+00
    0.00000E+00         0.00000E+00        -0.68977E+07
 
   -0.19747E+08        -0.65960E+06         0.00000E+00
   -0.65960E+06        -0.26734E+08         0.00000E+00
    0.00000E+00         0.00000E+00        -0.92963E+07
 
   -0.19063E+08        -0.16744E+07         0.00000E+00
   -0.16744E+07        -0.26891E+08         0.00000E+00
    0.00000E+00         0.00000E+00        -0.91908E+07
 
   -0.18128E+08        -0.23130E+07         0.00000E+00
   -0.23130E+07        -0.27137E+08         0.00000E+00
    0.00000E+00         0.00000E+00        -0.90529E+07
 
   -0.17059E+08        -0.26246E+07         0.00000E+00
   -0.26246E+07        -0.27415E+08         0.00000E+00
    0.00000E+00         0.00000E+00        -0.88947E+07
 
   -0.15940E+08        -0.26626E+07         0.00000E+00
   -0.26626E+07        -0.27691E+08         0.00000E+00
    0.00000E+00         0.00000E+00        -0.87261E+07
 
   -0.14823E+08        -0.24760E+07         0.00000E+00
   -0.24760E+07        -0.27951E+08         0.00000E+00
    0.00000E+00         0.00000E+00        -0.85547E+07
 
   -0.13737E+08        -0.21036E+07         0.00000E+00
   -0.21036E+07        -0.28193E+08         0.00000E+00
    0.00000E+00         0.00000E+00        -0.83860E+07
 
   -0.12696E+08        -0.15713E+07         0.00000E+00
   -0.15713E+07        -0.28424E+08         0.00000E+00
    0.00000E+00         0.00000E+00        -0.82239E+07
 
   -0.11704E+08        -0.89268E+06         0.00000E+00
   -0.89268E+06        -0.28654E+08         0.00000E+00
    0.00000E+00         0.00000E+00        -0.80715E+07
 
   -0.10766E+08        -0.69086E+05         0.00000E+00
   -0.69086E+05        -0.28890E+08         0.00000E+00
    0.00000E+00         0.00000E+00        -0.79311E+07
 
   -0.98889E+07         0.90826E+06         0.00000E+00
    0.90826E+06        -0.29137E+08         0.00000E+00
    0.00000E+00         0.00000E+00        -0.78052E+07
 
   -0.90915E+07         0.20562E+07         0.00000E+00
    0.20562E+07        -0.29390E+08         0.00000E+00
    0.00000E+00         0.00000E+00        -0.76964E+07
 
   -0.84056E+07         0.33962E+07         0.00000E+00
    0.33962E+07        -0.29635E+08         0.00000E+00
    0.00000E+00         0.00000E+00        -0.76082E+07
 
   -0.78807E+07         0.49492E+07         0.00000E+00
    0.49492E+07        -0.29843E+08         0.00000E+00
    0.00000E+00         0.00000E+00        -0.75448E+07
 
   -0.75842E+07         0.67285E+07         0.00000E+00
    0.67285E+07        -0.29972E+08         0.00000E+00
    0.00000E+00         0.00000E+00        -0.75112E+07
 
   -0.23786E+08        -0.73978E+06         0.00000E+00
   -0.73978E+06        -0.29484E+08         0.00000E+00
    0.00000E+00         0.00000E+00        -0.10654E+08
 
   -0.22664E+08        -0.18526E+07         0.00000E+00
   -0.18526E+07        -0.29624E+08         0.00000E+00
    0.00000E+00         0.00000E+00        -0.10458E+08
 
   -0.21344E+08        -0.25234E+07         0.00000E+00
   -0.25234E+07        -0.29830E+08         0.00000E+00
    0.00000E+00         0.00000E+00        -0.10235E+08
 
   -0.19954E+08        -0.28270E+07         0.00000E+00
   -0.28270E+07        -0.30041E+08         0.00000E+00
    0.00000E+00         0.00000E+00        -0.99991E+07
 
   -0.18576E+08        -0.28402E+07         0.00000E+00
   -0.28402E+07        -0.30231E+08         0.00000E+00
    0.00000E+00         0.00000E+00        -0.97613E+07
 
   -0.17250E+08        -0.26292E+07         0.00000E+00
   -0.26292E+07        -0.30394E+08         0.00000E+00
    0.00000E+00         0.00000E+00        -0.95288E+07
 
   -0.15993E+08        -0.22427E+07         0.00000E+00
   -0.22427E+07        -0.30538E+08         0.00000E+00
    0.00000E+00         0.00000E+00        -0.93061E+07
 
   -0.14800E+08        -0.17110E+07         0.00000E+00
   -0.17110E+07        -0.30680E+08         0.00000E+00
    0.00000E+00         0.00000E+00        -0.90959E+07
 
   -0.13664E+08        -0.10472E+07         0.00000E+00
   -0.10472E+07        -0.30835E+08         0.00000E+00
    0.00000E+00         0.00000E+00        -0.88999E+07
 
   -0.12576E+08        -0.24914E+06         0.00000E+00
   -0.24914E+06        -0.31020E+08         0.00000E+00
    0.00000E+00         0.00000E+00        -0.87191E+07
 
   -0.11532E+08         0.69846E+06         0.00000E+00
    0.69846E+06        -0.31242E+08         0.00000E+00
    0.00000E+00         0.00000E+00        -0.85548E+07
 
   -0.10543E+08         0.18227E+07         0.00000E+00
    0.18227E+07        -0.31503E+08         0.00000E+00
    0.00000E+00         0.00000E+00        -0.84092E+07
 
   -0.96364E+07         0.31590E+07         0.00000E+00
    0.31590E+07        -0.31790E+08         0.00000E+00
    0.00000E+00         0.00000E+00        -0.82853E+07
 
   -0.88657E+07         0.47446E+07         0.00000E+00
    0.47446E+07        -0.32073E+08         0.00000E+00
    0.00000E+00         0.00000E+00        -0.81877E+07
 
   -0.83106E+07         0.66090E+07         0.00000E+00
    0.66090E+07        -0.32301E+08         0.00000E+00
    0.00000E+00         0.00000E+00        -0.81223E+07
 
   -0.28095E+08        -0.81415E+06         0.00000E+00
   -0.81415E+06        -0.32371E+08         0.00000E+00
    0.00000E+00         0.00000E+00        -0.12093E+08
 
   -0.26451E+08        -0.20016E+07         0.00000E+00
   -0.20016E+07        -0.32486E+08         0.00000E+00
    0.00000E+00         0.00000E+00        -0.11788E+08
 
   -0.24692E+08        -0.26738E+07         0.00000E+00
   -0.26738E+07        -0.32630E+08         0.00000E+00
    0.00000E+00         0.00000E+00        -0.11464E+08
 
   -0.22957E+08        -0.29417E+07         0.00000E+00
   -0.29417E+07        -0.32743E+08         0.00000E+00
    0.00000E+00         0.00000E+00        -0.11140E+08
 
   -0.21317E+08        -0.29133E+07         0.00000E+00
   -0.29133E+07        -0.32810E+08         0.00000E+00
    0.00000E+00         0.00000E+00        -0.10825E+08
 
   -0.19795E+08        -0.26734E+07         0.00000E+00
   -0.26734E+07        -0.32839E+08         0.00000E+00
    0.00000E+00         0.00000E+00        -0.10527E+08
 
   -0.18383E+08        -0.22791E+07         0.00000E+00
   -0.22791E+07        -0.32854E+08         0.00000E+00
    0.00000E+00         0.00000E+00        -0.10247E+08
 
   -0.17057E+08        -0.17620E+07         0.00000E+00
   -0.17620E+07        -0.32879E+08         0.00000E+00
    0.00000E+00         0.00000E+00        -0.99873E+07
 
   -0.15792E+08        -0.11335E+07         0.00000E+00
   -0.11335E+07        -0.32939E+08         0.00000E+00
    0.00000E+00         0.00000E+00        -0.97463E+07
 
   -0.14564E+08        -0.38758E+06         0.00000E+00
   -0.38758E+06        -0.33054E+08         0.00000E+00
    0.00000E+00         0.00000E+00        -0.95236E+07
 
   -0.13356E+08         0.49794E+06         0.00000E+00
    0.49794E+06        -0.33239E+08         0.00000E+00
    0.00000E+00         0.00000E+00        -0.93189E+07
 
   -0.12164E+08         0.15611E+07         0.00000E+00
    0.15611E+07        -0.33501E+08         0.00000E+00
    0.00000E+00         0.00000E+00        -0.91330E+07
 
   -0.11008E+08         0.28542E+07         0.00000E+00
    0.28542E+07        -0.33834E+08         0.00000E+00
    0.00000E+00         0.00000E+00        -0.89684E+07
 
   -0.99421E+07         0.44375E+07         0.00000E+00
    0.44375E+07        -0.34208E+08         0.00000E+00
    0.00000E+00         0.00000E+00        -0.88301E+07
 
   -0.90616E+07         0.63644E+07         0.00000E+00
    0.63644E+07        -0.34564E+08         0.00000E+00
    0.00000E+00         0.00000E+00        -0.87252E+07
 
   -0.32639E+08        -0.87952E+06         0.00000E+00
   -0.87952E+06        -0.35380E+08         0.00000E+00
    0.00000E+00         0.00000E+00        -0.13604E+08
 
   -0.30375E+08        -0.21040E+07         0.00000E+00
   -0.21040E+07        -0.35458E+08         0.00000E+00
    0.00000E+00         0.00000E+00        -0.13167E+08
 
   -0.28122E+08        -0.27309E+07         0.00000E+00
   -0.27309E+07        -0.35507E+08         0.00000E+00
    0.00000E+00         0.00000E+00        -0.12726E+08
 
   -0.26028E+08        -0.29279E+07         0.00000E+00
   -0.29279E+07        -0.35478E+08         0.00000E+00
    0.00000E+00         0.00000E+00        -0.12301E+08
 
   -0.24142E+08        -0.28419E+07         0.00000E+00
   -0.28419E+07        -0.35376E+08         0.00000E+00
    0.00000E+00         0.00000E+00        -0.11904E+08
 
   -0.22449E+08        -0.25744E+07         0.00000E+00
   -0.25744E+07        -0.35234E+08         0.00000E+00
    0.00000E+00         0.00000E+00        -0.11536E+08
 
   -0.20908E+08        -0.21848E+07         0.00000E+00
   -0.21848E+07        -0.35090E+08         0.00000E+00
    0.00000E+00         0.00000E+00        -0.11200E+08
 
   -0.19474E+08        -0.17020E+07         0.00000E+00
   -0.17020E+07        -0.34976E+08         0.00000E+00
    0.00000E+00         0.00000E+00        -0.10890E+08
 
   -0.18102E+08        -0.11335E+07         0.00000E+00
   -0.11335E+07        -0.34922E+08         0.00000E+00
    0.00000E+00         0.00000E+00        -0.10605E+08
 
   -0.16751E+08        -0.46942E+06         0.00000E+00
   -0.46942E+06        -0.34952E+08         0.00000E+00
    0.00000E+00         0.00000E+00        -0.10340E+08
 
   -0.15386E+08         0.31713E+06         0.00000E+00
    0.31713E+06        -0.35086E+08         0.00000E+00
    0.00000E+00         0.00000E+00        -0.10094E+08
 
   -0.13986E+08         0.12736E+07         0.00000E+00
    0.12736E+07        -0.35342E+08         0.00000E+00
    0.00000E+00         0.00000E+00        -0.98656E+07
 
   -0.12553E+08         0.24713E+07         0.00000E+00
    0.24713E+07        -0.35724E+08         0.00000E+00
    0.00000E+00         0.00000E+00        -0.96554E+07
 
   -0.11135E+08         0.40018E+07         0.00000E+00
    0.40018E+07        -0.36208E+08         0.00000E+00
    0.00000E+00         0.00000E+00        -0.94686E+07
 
   -0.98426E+07         0.59570E+07         0.00000E+00
    0.59570E+07        -0.36728E+08         0.00000E+00
    0.00000E+00         0.00000E+00        -0.93141E+07
 
   -0.37368E+08        -0.93120E+06         0.00000E+00
   -0.93120E+06        -0.38495E+08         0.00000E+00
    0.00000E+00         0.00000E+00        -0.15173E+08
 
   -0.34360E+08        -0.21296E+07         0.00000E+00
   -0.21296E+07        -0.38511E+08         0.00000E+00
    0.00000E+00         0.00000E+00        -0.14574E+08
 
   -0.31568E+08        -0.26431E+07         0.00000E+00
   -0.26431E+07        -0.38412E+08         0.00000E+00
    0.00000E+00         0.00000E+00        -0.13996E+08
 
   -0.29130E+08        -0.27310E+07         0.00000E+00
   -0.27310E+07        -0.38176E+08         0.00000E+00
    0.00000E+00         0.00000E+00        -0.13461E+08
 
   -0.27034E+08        -0.25820E+07         0.00000E+00
   -0.25820E+07        -0.37853E+08         0.00000E+00
    0.00000E+00         0.00000E+00        -0.12978E+08
 
   -0.25209E+08        -0.23011E+07         0.00000E+00
   -0.23011E+07        -0.37506E+08         0.00000E+00
    0.00000E+00         0.00000E+00        -0.12543E+08
 
   -0.23574E+08        -0.19387E+07         0.00000E+00
   -0.19387E+07        -0.37183E+08         0.00000E+00
    0.00000E+00         0.00000E+00        -0.12151E+08
 
   -0.22061E+08        -0.15155E+07         0.00000E+00
   -0.15155E+07        -0.36919E+08         0.00000E+00
    0.00000E+00         0.00000E+00        -0.11796E+08
 
   -0.20606E+08        -0.10340E+07         0.00000E+00
   -0.10340E+07        -0.36741E+08         0.00000E+00
    0.00000E+00         0.00000E+00        -0.11469E+08
 
   -0.19154E+08        -0.48201E+06         0.00000E+00
   -0.48201E+06        -0.36676E+08         0.00000E+00
    0.00000E+00         0.00000E+00        -0.11166E+08
 
   -0.17652E+08         0.16836E+06         0.00000E+00
    0.16836E+06        -0.36748E+08         0.00000E+00
    0.00000E+00         0.00000E+00        -0.10880E+08
 
   -0.16051E+08         0.96761E+06         0.00000E+00
    0.96761E+06        -0.36985E+08         0.00000E+00
    0.00000E+00         0.00000E+00        -0.10607E+08
 
   -0.14322E+08         0.20027E+07         0.00000E+00
    0.20027E+07        -0.37410E+08         0.00000E+00
    0.00000E+00         0.00000E+00        -0.10347E+08
 
   -0.12486E+08         0.34062E+07         0.00000E+00
    0.34062E+07        -0.38023E+08         0.00000E+00
    0.00000E+00         0.00000E+00        -0.10102E+08
 
   -0.10667E+08         0.53354E+07         0.00000E+00
    0.53354E+07        -0.38755E+08         0.00000E+00
    0.00000E+00         0.00000E+00        -0.98843E+07
 
   -0.42207E+08        -0.95874E+06         0.00000E+00
   -0.95874E+06        -0.41692E+08         0.00000E+00
    0.00000E+00         0.00000E+00        -0.16780E+08
 
   -0.38298E+08        -0.20167E+07         0.00000E+00
   -0.20167E+07        -0.41592E+08         0.00000E+00
    0.00000E+00         0.00000E+00        -0.15978E+08
 
   -0.34956E+08        -0.23261E+07         0.00000E+00
   -0.23261E+07        -0.41244E+08         0.00000E+00
    0.00000E+00         0.00000E+00        -0.15240E+08
 
   -0.32237E+08        -0.22861E+07         0.00000E+00
   -0.22861E+07        -0.40716E+08         0.00000E+00
    0.00000E+00         0.00000E+00        -0.14590E+08
 
   -0.29996E+08        -0.20971E+07         0.00000E+00
   -0.20971E+07        -0.40131E+08         0.00000E+00
    0.00000E+00         0.00000E+00        -0.14025E+08
 
   -0.28086E+08        -0.18362E+07         0.00000E+00
   -0.18362E+07        -0.39564E+08         0.00000E+00
    0.00000E+00         0.00000E+00        -0.13530E+08
 
   -0.26394E+08        -0.15339E+07         0.00000E+00
   -0.15339E+07        -0.39061E+08         0.00000E+00
    0.00000E+00         0.00000E+00        -0.13091E+08
 
   -0.24829E+08        -0.11999E+07         0.00000E+00
   -0.11999E+07        -0.38651E+08         0.00000E+00
    0.00000E+00         0.00000E+00        -0.12696E+08
 
   -0.23317E+08        -0.83220E+06         0.00000E+00
   -0.83220E+06        -0.38356E+08         0.00000E+00
    0.00000E+00         0.00000E+00        -0.12335E+08
 
   -0.21789E+08        -0.41882E+06         0.00000E+00
   -0.41882E+06        -0.38198E+08         0.00000E+00
    0.00000E+00         0.00000E+00        -0.11997E+08
 
   -0.20177E+08         0.64020E+05         0.00000E+00
    0.64020E+05        -0.38202E+08         0.00000E+00
    0.00000E+00         0.00000E+00        -0.11676E+08
 
   -0.18404E+08         0.66014E+06         0.00000E+00
    0.66014E+06        -0.38403E+08         0.00000E+00
    0.00000E+00         0.00000E+00        -0.11361E+08
 
   -0.16385E+08         0.14532E+07         0.00000E+00
    0.14532E+07        -0.38849E+08         0.00000E+00
    0.00000E+00         0.00000E+00        -0.11047E+08
 
   -0.14071E+08         0.26172E+07         0.00000E+00
    0.26172E+07        -0.39597E+08         0.00000E+00
    0.00000E+00         0.00000E+00        -0.10734E+08
 
   -0.11563E+08         0.44245E+07         0.00000E+00
    0.44245E+07        -0.40602E+08         0.00000E+00
    0.00000E+00         0.00000E+00        -0.10433E+08
 
   -0.47018E+08        -0.92443E+06         0.00000E+00
   -0.92443E+06        -0.44932E+08         0.00000E+00
    0.00000E+00         0.00000E+00        -0.18390E+08
 
   -0.42029E+08        -0.16167E+07         0.00000E+00
   -0.16167E+07        -0.44549E+08         0.00000E+00
    0.00000E+00         0.00000E+00        -0.17316E+08
 
   -0.38247E+08        -0.16616E+07         0.00000E+00
   -0.16616E+07        -0.43776E+08         0.00000E+00
    0.00000E+00         0.00000E+00        -0.16405E+08
 
   -0.35370E+08        -0.15478E+07         0.00000E+00
   -0.15478E+07        -0.42905E+08         0.00000E+00
    0.00000E+00         0.00000E+00        -0.15655E+08
 
   -0.33056E+08        -0.13805E+07         0.00000E+00
   -0.13805E+07        -0.42063E+08         0.00000E+00
    0.00000E+00         0.00000E+00        -0.15024E+08
 
   -0.31106E+08        -0.11901E+07         0.00000E+00
   -0.11901E+07        -0.41302E+08         0.00000E+00
    0.00000E+00         0.00000E+00        -0.14482E+08
 
   -0.29384E+08        -0.98653E+06         0.00000E+00
   -0.98653E+06        -0.40650E+08         0.00000E+00
    0.00000E+00         0.00000E+00        -0.14007E+08
 
   -0.27789E+08        -0.77114E+06         0.00000E+00
   -0.77114E+06        -0.40122E+08         0.00000E+00
    0.00000E+00         0.00000E+00        -0.13582E+08
 
   -0.26242E+08        -0.54011E+06         0.00000E+00
   -0.54011E+06        -0.39733E+08         0.00000E+00
    0.00000E+00         0.00000E+00        -0.13195E+08
 
   -0.24665E+08        -0.28478E+06         0.00000E+00
   -0.28478E+06        -0.39498E+08         0.00000E+00
    0.00000E+00         0.00000E+00        -0.12832E+08
 
   -0.22977E+08         0.10436E+05         0.00000E+00
    0.10436E+05        -0.39440E+08         0.00000E+00
    0.00000E+00         0.00000E+00        -0.12483E+08
 
   -0.21079E+08         0.37400E+06         0.00000E+00
    0.37400E+06        -0.39597E+08         0.00000E+00
    0.00000E+00         0.00000E+00        -0.12135E+08
 
   -0.18835E+08         0.86306E+06         0.00000E+00
    0.86306E+06        -0.40029E+08         0.00000E+00
    0.00000E+00         0.00000E+00        -0.11773E+08
 
   -0.16030E+08         0.16189E+07         0.00000E+00
    0.16189E+07        -0.40850E+08         0.00000E+00
    0.00000E+00         0.00000E+00        -0.11376E+08
 
   -0.12608E+08         0.31003E+07         0.00000E+00
    0.31003E+07        -0.42215E+08         0.00000E+00
    0.00000E+00         0.00000E+00        -0.10965E+08
 
   -0.51459E+08        -0.57647E+06         0.00000E+00
   -0.57647E+06        -0.47897E+08         0.00000E+00
    0.00000E+00         0.00000E+00        -0.19871E+08
 
   -0.45444E+08        -0.66585E+06         0.00000E+00
   -0.66585E+06        -0.46833E+08         0.00000E+00
    0.00000E+00         0.00000E+00        -0.18455E+08
 
   -0.41525E+08        -0.61335E+06         0.00000E+00
   -0.61335E+06        -0.45636E+08         0.00000E+00
    0.00000E+00         0.00000E+00        -0.17432E+08
 
   -0.38598E+08        -0.55115E+06         0.00000E+00
   -0.55115E+06        -0.44511E+08         0.00000E+00
    0.00000E+00         0.00000E+00        -0.16622E+08
 
   -0.36262E+08        -0.48288E+06         0.00000E+00
   -0.48288E+06        -0.43501E+08         0.00000E+00
    0.00000E+00         0.00000E+00        -0.15953E+08
 
   -0.34296E+08        -0.41233E+06         0.00000E+00
   -0.41233E+06        -0.42624E+08         0.00000E+00
    0.00000E+00         0.00000E+00        -0.15384E+08
 
   -0.32560E+08        -0.34011E+06         0.00000E+00
   -0.34011E+06        -0.41885E+08         0.00000E+00
    0.00000E+00         0.00000E+00        -0.14889E+08
 
   -0.30951E+08        -0.26550E+06         0.00000E+00
   -0.26550E+06        -0.41290E+08         0.00000E+00
    0.00000E+00         0.00000E+00        -0.14448E+08
 
   -0.29384E+08        -0.18668E+06         0.00000E+00
   -0.18668E+06        -0.40847E+08         0.00000E+00
    0.00000E+00         0.00000E+00        -0.14046E+08
 
   -0.27779E+08        -0.10046E+06         0.00000E+00
   -0.10046E+06        -0.40567E+08         0.00000E+00
    0.00000E+00         0.00000E+00        -0.13669E+08
 
   -0.26051E+08        -0.14861E+04         0.00000E+00
   -0.14861E+04        -0.40472E+08         0.00000E+00
    0.00000E+00         0.00000E+00        -0.13304E+08
 
   -0.24087E+08         0.11973E+06         0.00000E+00
    0.11973E+06        -0.40595E+08         0.00000E+00
    0.00000E+00         0.00000E+00        -0.12936E+08
 
   -0.21719E+08         0.28327E+06         0.00000E+00
    0.28327E+06        -0.41000E+08         0.00000E+00
    0.00000E+00         0.00000E+00        -0.12544E+08
 
   -0.18645E+08         0.53389E+06         0.00000E+00
    0.53389E+06        -0.41818E+08         0.00000E+00
    0.00000E+00         0.00000E+00        -0.12093E+08
 
   -0.14000E+08         0.11575E+07         0.00000E+00
    0.11575E+07        -0.43414E+08         0.00000E+00
    0.00000E+00         0.00000E+00        -0.11483E+08
 
TENSORS stresstot double 
   -0.37571E+08        -0.94700E+06         0.00000E+00
   -0.94700E+06        -0.60348E+08         0.00000E+00
    0.00000E+00         0.00000E+00        -0.65842E+08
 
   -0.42392E+08        -0.12621E+07         0.00000E+00
   -0.12621E+07        -0.62352E+08         0.00000E+00
    0.00000E+00         0.00000E+00        -0.69408E+08
 
   -0.46564E+08        -0.98127E+06         0.00000E+00
   -0.98127E+06        -0.64315E+08         0.00000E+00
    0.00000E+00         0.00000E+00        -0.70664E+08
 
   -0.49109E+08        -0.72581E+06         0.00000E+00
   -0.72581E+06        -0.65902E+08         0.00000E+00
    0.00000E+00         0.00000E+00        -0.71517E+08
 
   -0.51041E+08        -0.55257E+06         0.00000E+00
   -0.55257E+06        -0.67132E+08         0.00000E+00
    0.00000E+00         0.00000E+00        -0.72173E+08
 
   -0.52662E+08        -0.42470E+06         0.00000E+00
   -0.42470E+06        -0.68086E+08         0.00000E+00
    0.00000E+00         0.00000E+00        -0.72710E+08
 
   -0.54118E+08        -0.32433E+06         0.00000E+00
   -0.32433E+06        -0.68825E+08         0.00000E+00
    0.00000E+00         0.00000E+00        -0.73167E+08
 
   -0.55495E+08        -0.24049E+06         0.00000E+00
   -0.24049E+06        -0.69384E+08         0.00000E+00
    0.00000E+00         0.00000E+00        -0.73571E+08
 
   -0.56859E+08        -0.16554E+06         0.00000E+00
   -0.16554E+06        -0.69788E+08         0.00000E+00
    0.00000E+00         0.00000E+00        -0.73940E+08
 
   -0.58274E+08        -0.92811E+05         0.00000E+00
   -0.92811E+05        -0.70046E+08         0.00000E+00
    0.00000E+00         0.00000E+00        -0.74289E+08
 
   -0.59821E+08        -0.14253E+05         0.00000E+00
   -0.14253E+05        -0.70153E+08         0.00000E+00
    0.00000E+00         0.00000E+00        -0.74634E+08
 
   -0.61623E+08         0.83589E+05         0.00000E+00
    0.83589E+05        -0.70083E+08         0.00000E+00
    0.00000E+00         0.00000E+00        -0.74994E+08
 
   -0.63911E+08         0.23318E+06         0.00000E+00
    0.23318E+06        -0.69765E+08         0.00000E+00
    0.00000E+00         0.00000E+00        -0.75402E+08
 
   -0.67177E+08         0.51485E+06         0.00000E+00
    0.51485E+06        -0.69010E+08         0.00000E+00
    0.00000E+00         0.00000E+00        -0.75918E+08
 
   -0.73226E+08         0.16024E+07         0.00000E+00
    0.16024E+07        -0.67117E+08         0.00000E+00
    0.00000E+00         0.00000E+00        -0.76762E+08
 
   -0.39176E+08        -0.12065E+07         0.00000E+00
   -0.12065E+07        -0.60270E+08         0.00000E+00
    0.00000E+00         0.00000E+00        -0.63988E+08
 
   -0.42693E+08        -0.24976E+07         0.00000E+00
   -0.24976E+07        -0.60127E+08         0.00000E+00
    0.00000E+00         0.00000E+00        -0.64703E+08
 
   -0.46175E+08        -0.23785E+07         0.00000E+00
   -0.23785E+07        -0.60819E+08         0.00000E+00
    0.00000E+00         0.00000E+00        -0.65596E+08
 
   -0.48781E+08        -0.19366E+07         0.00000E+00
   -0.19366E+07        -0.61747E+08         0.00000E+00
    0.00000E+00         0.00000E+00        -0.66362E+08
 
   -0.50782E+08        -0.15396E+07         0.00000E+00
   -0.15396E+07        -0.62636E+08         0.00000E+00
    0.00000E+00         0.00000E+00        -0.66996E+08
 
   -0.52455E+08        -0.12126E+07         0.00000E+00
   -0.12126E+07        -0.63401E+08         0.00000E+00
    0.00000E+00         0.00000E+00        -0.67534E+08
 
   -0.53945E+08        -0.93979E+06         0.00000E+00
   -0.93979E+06        -0.64028E+08         0.00000E+00
    0.00000E+00         0.00000E+00        -0.68004E+08
 
   -0.55343E+08        -0.70292E+06         0.00000E+00
   -0.70292E+06        -0.64518E+08         0.00000E+00
    0.00000E+00         0.00000E+00        -0.68423E+08
 
   -0.56715E+08        -0.48513E+06         0.00000E+00
   -0.48513E+06        -0.64874E+08         0.00000E+00
    0.00000E+00         0.00000E+00        -0.68806E+08
 
   -0.58125E+08        -0.26892E+06         0.00000E+00
   -0.26892E+06        -0.65094E+08         0.00000E+00
    0.00000E+00         0.00000E+00        -0.69168E+08
 
   -0.59647E+08        -0.30817E+05         0.00000E+00
   -0.30817E+05        -0.65165E+08         0.00000E+00
    0.00000E+00         0.00000E+00        -0.69521E+08
 
   -0.61385E+08         0.27104E+06         0.00000E+00
    0.27104E+06        -0.65051E+08         0.00000E+00
    0.00000E+00         0.00000E+00        -0.69879E+08
 
   -0.63503E+08         0.72978E+06         0.00000E+00
    0.72978E+06        -0.64680E+08         0.00000E+00
    0.00000E+00         0.00000E+00        -0.70260E+08
 
   -0.66312E+08         0.16156E+07         0.00000E+00
    0.16156E+07        -0.63889E+08         0.00000E+00
    0.00000E+00         0.00000E+00        -0.70694E+08
 
   -0.69596E+08         0.39386E+07         0.00000E+00
    0.39386E+07        -0.62463E+08         0.00000E+00
    0.00000E+00         0.00000E+00        -0.71089E+08
 
   -0.41162E+08        -0.11278E+07         0.00000E+00
   -0.11278E+07        -0.59855E+08         0.00000E+00
    0.00000E+00         0.00000E+00        -0.61276E+08
 
   -0.43369E+08        -0.24351E+07         0.00000E+00
   -0.24351E+07        -0.59679E+08         0.00000E+00
    0.00000E+00         0.00000E+00        -0.61712E+08
 
   -0.45979E+08        -0.27883E+07         0.00000E+00
   -0.27883E+07        -0.59565E+08         0.00000E+00
    0.00000E+00         0.00000E+00        -0.62262E+08
 
   -0.48386E+08        -0.25678E+07         0.00000E+00
   -0.25678E+07        -0.59778E+08         0.00000E+00
    0.00000E+00         0.00000E+00        -0.62845E+08
 
   -0.50396E+08        -0.21815E+07         0.00000E+00
   -0.21815E+07        -0.60176E+08         0.00000E+00
    0.00000E+00         0.00000E+00        -0.63388E+08
 
   -0.52111E+08        -0.17850E+07         0.00000E+00
   -0.17850E+07        -0.60614E+08         0.00000E+00
    0.00000E+00         0.00000E+00        -0.63877E+08
 
   -0.53638E+08        -0.14135E+07         0.00000E+00
   -0.14135E+07        -0.61019E+08         0.00000E+00
    0.00000E+00         0.00000E+00        -0.64319E+08
 
   -0.55059E+08        -0.10657E+07         0.00000E+00
   -0.10657E+07        -0.61352E+08         0.00000E+00
    0.00000E+00         0.00000E+00        -0.64721E+08
 
   -0.56437E+08        -0.72791E+06         0.00000E+00
   -0.72791E+06        -0.61589E+08         0.00000E+00
    0.00000E+00         0.00000E+00        -0.65092E+08
 
   -0.57829E+08        -0.37806E+06         0.00000E+00
   -0.37806E+06        -0.61712E+08         0.00000E+00
    0.00000E+00         0.00000E+00        -0.65439E+08
 
   -0.59295E+08         0.19377E+05         0.00000E+00
    0.19377E+05        -0.61697E+08         0.00000E+00
    0.00000E+00         0.00000E+00        -0.65770E+08
 
   -0.60899E+08         0.52947E+06         0.00000E+00
    0.52947E+06        -0.61505E+08         0.00000E+00
    0.00000E+00         0.00000E+00        -0.66091E+08
 
   -0.62711E+08         0.12877E+07         0.00000E+00
    0.12877E+07        -0.61085E+08         0.00000E+00
    0.00000E+00         0.00000E+00        -0.66404E+08
 
   -0.64676E+08         0.26099E+07         0.00000E+00
    0.26099E+07        -0.60385E+08         0.00000E+00
    0.00000E+00         0.00000E+00        -0.66686E+08
 
   -0.66312E+08         0.49635E+07         0.00000E+00
    0.49635E+07        -0.59645E+08         0.00000E+00
    0.00000E+00         0.00000E+00        -0.66882E+08
 
   -0.42921E+08        -0.87378E+06         0.00000E+00
   -0.87378E+06        -0.59882E+08         0.00000E+00
    0.00000E+00         0.00000E+00        -0.59487E+08
 
   -0.44194E+08        -0.21005E+07         0.00000E+00
   -0.21005E+07        -0.59531E+08         0.00000E+00
    0.00000E+00         0.00000E+00        -0.59688E+08
 
   -0.46121E+08        -0.26350E+07         0.00000E+00
   -0.26350E+07        -0.59185E+08         0.00000E+00
    0.00000E+00         0.00000E+00        -0.60037E+08
 
   -0.48150E+08        -0.26698E+07         0.00000E+00
   -0.26698E+07        -0.58997E+08         0.00000E+00
    0.00000E+00         0.00000E+00        -0.60450E+08
 
   -0.50036E+08        -0.24275E+07         0.00000E+00
   -0.24275E+07        -0.58997E+08         0.00000E+00
    0.00000E+00         0.00000E+00        -0.60878E+08
 
   -0.51726E+08        -0.20727E+07         0.00000E+00
   -0.20727E+07        -0.59113E+08         0.00000E+00
    0.00000E+00         0.00000E+00        -0.61293E+08
 
   -0.53256E+08        -0.16801E+07         0.00000E+00
   -0.16801E+07        -0.59269E+08         0.00000E+00
    0.00000E+00         0.00000E+00        -0.61682E+08
 
   -0.54680E+08        -0.12726E+07         0.00000E+00
   -0.12726E+07        -0.59411E+08         0.00000E+00
    0.00000E+00         0.00000E+00        -0.62045E+08
 
   -0.56046E+08        -0.84738E+06         0.00000E+00
   -0.84738E+06        -0.59500E+08         0.00000E+00
    0.00000E+00         0.00000E+00        -0.62383E+08
 
   -0.57397E+08        -0.38428E+06         0.00000E+00
   -0.38428E+06        -0.59503E+08         0.00000E+00
    0.00000E+00         0.00000E+00        -0.62698E+08
 
   -0.58771E+08         0.15632E+06         0.00000E+00
    0.15632E+06        -0.59393E+08         0.00000E+00
    0.00000E+00         0.00000E+00        -0.62990E+08
 
   -0.60190E+08         0.84604E+06         0.00000E+00
    0.84604E+06        -0.59142E+08         0.00000E+00
    0.00000E+00         0.00000E+00        -0.63258E+08
 
   -0.61623E+08         0.18141E+07         0.00000E+00
    0.18141E+07        -0.58738E+08         0.00000E+00
    0.00000E+00         0.00000E+00        -0.63493E+08
 
   -0.62904E+08         0.32510E+07         0.00000E+00
    0.32510E+07        -0.58247E+08         0.00000E+00
    0.00000E+00         0.00000E+00        -0.63671E+08
 
   -0.63619E+08         0.53249E+07         0.00000E+00
    0.53249E+07        -0.57900E+08         0.00000E+00
    0.00000E+00         0.00000E+00        -0.63754E+08
 
   -0.44310E+08        -0.63894E+06         0.00000E+00
   -0.63894E+06        -0.59898E+08         0.00000E+00
    0.00000E+00         0.00000E+00        -0.58213E+08
 
   -0.45042E+08        -0.16698E+07         0.00000E+00
   -0.16698E+07        -0.59572E+08         0.00000E+00
    0.00000E+00         0.00000E+00        -0.58298E+08
 
   -0.46442E+08        -0.22645E+07         0.00000E+00
   -0.22645E+07        -0.59144E+08         0.00000E+00
    0.00000E+00         0.00000E+00        -0.58507E+08
 
   -0.48104E+08        -0.24569E+07         0.00000E+00
   -0.24569E+07        -0.58782E+08         0.00000E+00
    0.00000E+00         0.00000E+00        -0.58794E+08
 
   -0.49783E+08        -0.23644E+07         0.00000E+00
   -0.23644E+07        -0.58546E+08         0.00000E+00
    0.00000E+00         0.00000E+00        -0.59117E+08
 
   -0.51375E+08        -0.20994E+07         0.00000E+00
   -0.20994E+07        -0.58422E+08         0.00000E+00
    0.00000E+00         0.00000E+00        -0.59451E+08
 
   -0.52857E+08        -0.17369E+07         0.00000E+00
   -0.17369E+07        -0.58368E+08         0.00000E+00
    0.00000E+00         0.00000E+00        -0.59778E+08
 
   -0.54246E+08        -0.13126E+07         0.00000E+00
   -0.13126E+07        -0.58334E+08         0.00000E+00
    0.00000E+00         0.00000E+00        -0.60091E+08
 
   -0.55570E+08        -0.83375E+06         0.00000E+00
   -0.83375E+06        -0.58280E+08         0.00000E+00
    0.00000E+00         0.00000E+00        -0.60384E+08
 
   -0.56853E+08        -0.28669E+06         0.00000E+00
   -0.28669E+06        -0.58172E+08         0.00000E+00
    0.00000E+00         0.00000E+00        -0.60656E+08
 
   -0.58108E+08         0.36288E+06         0.00000E+00
    0.36288E+06        -0.57987E+08         0.00000E+00
    0.00000E+00         0.00000E+00        -0.60902E+08
 
   -0.59322E+08         0.11742E+07         0.00000E+00
    0.11742E+07        -0.57711E+08         0.00000E+00
    0.00000E+00         0.00000E+00        -0.61116E+08
 
   -0.60423E+08         0.22320E+07         0.00000E+00
    0.22320E+07        -0.57367E+08         0.00000E+00
    0.00000E+00         0.00000E+00        -0.61287E+08
 
   -0.61240E+08         0.36240E+07         0.00000E+00
    0.36240E+07        -0.57040E+08         0.00000E+00
    0.00000E+00         0.00000E+00        -0.61397E+08
 
   -0.61479E+08         0.53744E+07         0.00000E+00
    0.53744E+07        -0.56910E+08         0.00000E+00
    0.00000E+00         0.00000E+00        -0.61421E+08
 
   -0.45350E+08        -0.45035E+06         0.00000E+00
   -0.45035E+06        -0.59923E+08         0.00000E+00
    0.00000E+00         0.00000E+00        -0.57262E+08
 
   -0.45805E+08        -0.12650E+07         0.00000E+00
   -0.12650E+07        -0.59647E+08         0.00000E+00
    0.00000E+00         0.00000E+00        -0.57293E+08
 
   -0.46844E+08        -0.18291E+07         0.00000E+00
   -0.18291E+07        -0.59239E+08         0.00000E+00
    0.00000E+00         0.00000E+00        -0.57418E+08
 
   -0.48191E+08        -0.20991E+07         0.00000E+00
   -0.20991E+07        -0.58826E+08         0.00000E+00
    0.00000E+00         0.00000E+00        -0.57613E+08
 
   -0.49644E+08        -0.21137E+07         0.00000E+00
   -0.21137E+07        -0.58479E+08         0.00000E+00
    0.00000E+00         0.00000E+00        -0.57852E+08
 
   -0.51089E+08        -0.19370E+07         0.00000E+00
   -0.19370E+07        -0.58213E+08         0.00000E+00
    0.00000E+00         0.00000E+00        -0.58112E+08
 
   -0.52475E+08        -0.16243E+07         0.00000E+00
   -0.16243E+07        -0.58013E+08         0.00000E+00
    0.00000E+00         0.00000E+00        -0.58377E+08
 
   -0.53790E+08        -0.12097E+07         0.00000E+00
   -0.12097E+07        -0.57847E+08         0.00000E+00
    0.00000E+00         0.00000E+00        -0.58636E+08
 
   -0.55039E+08        -0.70602E+06         0.00000E+00
   -0.70602E+06        -0.57682E+08         0.00000E+00
    0.00000E+00         0.00000E+00        -0.58882E+08
 
   -0.56228E+08        -0.10718E+06         0.00000E+00
   -0.10718E+06        -0.57492E+08         0.00000E+00
    0.00000E+00         0.00000E+00        -0.59108E+08
 
   -0.57352E+08         0.60942E+06         0.00000E+00
    0.60942E+06        -0.57259E+08         0.00000E+00
    0.00000E+00         0.00000E+00        -0.59308E+08
 
   -0.58376E+08         0.14803E+07         0.00000E+00
    0.14803E+07        -0.56985E+08         0.00000E+00
    0.00000E+00         0.00000E+00        -0.59475E+08
 
   -0.59225E+08         0.25468E+07         0.00000E+00
    0.25468E+07        -0.56701E+08         0.00000E+00
    0.00000E+00         0.00000E+00        -0.59598E+08
 
   -0.59760E+08         0.38306E+07         0.00000E+00
    0.38306E+07        -0.56484E+08         0.00000E+00
    0.00000E+00         0.00000E+00        -0.59665E+08
 
   -0.59785E+08         0.52918E+07         0.00000E+00
    0.52918E+07        -0.56457E+08         0.00000E+00
    0.00000E+00         0.00000E+00        -0.59662E+08
 
   -0.46099E+08        -0.30680E+06         0.00000E+00
   -0.30680E+06        -0.59943E+08         0.00000E+00
    0.00000E+00         0.00000E+00        -0.56505E+08
 
   -0.46442E+08        -0.92325E+06         0.00000E+00
   -0.92325E+06        -0.59725E+08         0.00000E+00
    0.00000E+00         0.00000E+00        -0.56518E+08
 
   -0.47250E+08        -0.14133E+07         0.00000E+00
   -0.14133E+07        -0.59373E+08         0.00000E+00
    0.00000E+00         0.00000E+00        -0.56596E+08
 
   -0.48350E+08        -0.17003E+07         0.00000E+00
   -0.17003E+07        -0.58979E+08         0.00000E+00
    0.00000E+00         0.00000E+00        -0.56731E+08
 
   -0.49590E+08        -0.17758E+07         0.00000E+00
   -0.17758E+07        -0.58604E+08         0.00000E+00
    0.00000E+00         0.00000E+00        -0.56906E+08
 
   -0.50869E+08        -0.16649E+07         0.00000E+00
   -0.16649E+07        -0.58277E+08         0.00000E+00
    0.00000E+00         0.00000E+00        -0.57104E+08
 
   -0.52126E+08        -0.14001E+07         0.00000E+00
   -0.14001E+07        -0.57998E+08         0.00000E+00
    0.00000E+00         0.00000E+00        -0.57313E+08
 
   -0.53334E+08        -0.10069E+07         0.00000E+00
   -0.10069E+07        -0.57752E+08         0.00000E+00
    0.00000E+00         0.00000E+00        -0.57522E+08
 
   -0.54482E+08        -0.49874E+06         0.00000E+00
   -0.49874E+06        -0.57518E+08         0.00000E+00
    0.00000E+00         0.00000E+00        -0.57721E+08
 
   -0.55559E+08         0.12361E+06         0.00000E+00
    0.12361E+06        -0.57280E+08         0.00000E+00
    0.00000E+00         0.00000E+00        -0.57903E+08
 
   -0.56549E+08         0.86966E+06         0.00000E+00
    0.86966E+06        -0.57027E+08         0.00000E+00
    0.00000E+00         0.00000E+00        -0.58063E+08
 
   -0.57414E+08         0.17539E+07         0.00000E+00
    0.17539E+07        -0.56768E+08         0.00000E+00
    0.00000E+00         0.00000E+00        -0.58191E+08
 
   -0.58086E+08         0.27851E+07         0.00000E+00
    0.27851E+07        -0.56533E+08         0.00000E+00
    0.00000E+00         0.00000E+00        -0.58280E+08
 
   -0.58465E+08         0.39472E+07         0.00000E+00
    0.39472E+07        -0.56379E+08         0.00000E+00
    0.00000E+00         0.00000E+00        -0.58321E+08
 
   -0.58429E+08         0.51750E+07         0.00000E+00
    0.51750E+07        -0.56387E+08         0.00000E+00
    0.00000E+00         0.00000E+00        -0.58310E+08
 
   -0.46620E+08        -0.20080E+06         0.00000E+00
   -0.20080E+06        -0.59959E+08         0.00000E+00
    0.00000E+00         0.00000E+00        -0.55857E+08
 
   -0.46946E+08        -0.65176E+06         0.00000E+00
   -0.65176E+06        -0.59794E+08         0.00000E+00
    0.00000E+00         0.00000E+00        -0.55873E+08
 
   -0.47619E+08        -0.10541E+07         0.00000E+00
   -0.10541E+07        -0.59511E+08         0.00000E+00
    0.00000E+00         0.00000E+00        -0.55929E+08
 
   -0.48533E+08        -0.13219E+07         0.00000E+00
   -0.13219E+07        -0.59169E+08         0.00000E+00
    0.00000E+00         0.00000E+00        -0.56026E+08
 
   -0.49587E+08        -0.14211E+07         0.00000E+00
   -0.14211E+07        -0.58818E+08         0.00000E+00
    0.00000E+00         0.00000E+00        -0.56155E+08
 
   -0.50697E+08        -0.13499E+07         0.00000E+00
   -0.13499E+07        -0.58487E+08         0.00000E+00
    0.00000E+00         0.00000E+00        -0.56305E+08
 
   -0.51810E+08        -0.11213E+07         0.00000E+00
   -0.11213E+07        -0.58185E+08         0.00000E+00
    0.00000E+00         0.00000E+00        -0.56466E+08
 
   -0.52890E+08        -0.75095E+06         0.00000E+00
   -0.75095E+06        -0.57908E+08         0.00000E+00
    0.00000E+00         0.00000E+00        -0.56630E+08
 
   -0.53917E+08        -0.25011E+06         0.00000E+00
   -0.25011E+06        -0.57647E+08         0.00000E+00
    0.00000E+00         0.00000E+00        -0.56787E+08
 
   -0.54874E+08         0.37559E+06         0.00000E+00
    0.37559E+06        -0.57393E+08         0.00000E+00
    0.00000E+00         0.00000E+00        -0.56931E+08
 
   -0.55737E+08         0.11247E+07         0.00000E+00
    0.11247E+07        -0.57143E+08         0.00000E+00
    0.00000E+00         0.00000E+00        -0.57055E+08
 
   -0.56471E+08         0.19946E+07         0.00000E+00
    0.19946E+07        -0.56906E+08         0.00000E+00
    0.00000E+00         0.00000E+00        -0.57153E+08
 
   -0.57025E+08         0.29728E+07         0.00000E+00
    0.29728E+07        -0.56707E+08         0.00000E+00
    0.00000E+00         0.00000E+00        -0.57219E+08
 
   -0.57330E+08         0.40239E+07         0.00000E+00
    0.40239E+07        -0.56586E+08         0.00000E+00
    0.00000E+00         0.00000E+00        -0.57247E+08
 
   -0.57318E+08         0.50758E+07         0.00000E+00
    0.50758E+07        -0.56590E+08         0.00000E+00
    0.00000E+00         0.00000E+00        -0.57238E+08
 
   -0.46971E+08        -0.12528E+06         0.00000E+00
   -0.12528E+06        -0.59972E+08         0.00000E+00
    0.00000E+00         0.00000E+00        -0.55263E+08
 
   -0.47333E+08        -0.44687E+06         0.00000E+00
   -0.44687E+06        -0.59853E+08         0.00000E+00
    0.00000E+00         0.00000E+00        -0.55293E+08
 
   -0.47932E+08        -0.76540E+06         0.00000E+00
   -0.76540E+06        -0.59639E+08         0.00000E+00
    0.00000E+00         0.00000E+00        -0.55342E+08
 
   -0.48711E+08        -0.99680E+06         0.00000E+00
   -0.99680E+06        -0.59366E+08         0.00000E+00
    0.00000E+00         0.00000E+00        -0.55416E+08
 
   -0.49605E+08        -0.10948E+07         0.00000E+00
   -0.10948E+07        -0.59069E+08         0.00000E+00
    0.00000E+00         0.00000E+00        -0.55513E+08
 
   -0.50557E+08        -0.10414E+07         0.00000E+00
   -0.10414E+07        -0.58772E+08         0.00000E+00
    0.00000E+00         0.00000E+00        -0.55627E+08
 
   -0.51519E+08        -0.83543E+06         0.00000E+00
   -0.83543E+06        -0.58488E+08         0.00000E+00
    0.00000E+00         0.00000E+00        -0.55750E+08
 
   -0.52461E+08        -0.48360E+06         0.00000E+00
   -0.48360E+06        -0.58220E+08         0.00000E+00
    0.00000E+00         0.00000E+00        -0.55876E+08
 
   -0.53358E+08         0.55020E+04         0.00000E+00
    0.55020E+04        -0.57965E+08         0.00000E+00
    0.00000E+00         0.00000E+00        -0.55997E+08
 
   -0.54190E+08         0.62345E+06         0.00000E+00
    0.62345E+06        -0.57722E+08         0.00000E+00
    0.00000E+00         0.00000E+00        -0.56108E+08
 
   -0.54935E+08         0.13611E+07         0.00000E+00
    0.13611E+07        -0.57491E+08         0.00000E+00
    0.00000E+00         0.00000E+00        -0.56204E+08
 
   -0.55564E+08         0.22045E+07         0.00000E+00
    0.22045E+07        -0.57281E+08         0.00000E+00
    0.00000E+00         0.00000E+00        -0.56278E+08
 
   -0.56040E+08         0.31290E+07         0.00000E+00
    0.31290E+07        -0.57110E+08         0.00000E+00
    0.00000E+00         0.00000E+00        -0.56328E+08
 
   -0.56322E+08         0.40907E+07         0.00000E+00
    0.40907E+07        -0.57002E+08         0.00000E+00
    0.00000E+00         0.00000E+00        -0.56351E+08
 
   -0.56376E+08         0.50195E+07         0.00000E+00
    0.50195E+07        -0.56982E+08         0.00000E+00
    0.00000E+00         0.00000E+00        -0.56349E+08
 
   -0.47199E+08        -0.74786E+05         0.00000E+00
   -0.74786E+05        -0.59983E+08         0.00000E+00
    0.00000E+00         0.00000E+00        -0.54684E+08
 
   -0.47624E+08        -0.30221E+06         0.00000E+00
   -0.30221E+06        -0.59904E+08         0.00000E+00
    0.00000E+00         0.00000E+00        -0.54733E+08
 
   -0.48187E+08        -0.55021E+06         0.00000E+00
   -0.55021E+06        -0.59756E+08         0.00000E+00
    0.00000E+00         0.00000E+00        -0.54784E+08
 
   -0.48866E+08        -0.74086E+06         0.00000E+00
   -0.74086E+06        -0.59556E+08         0.00000E+00
    0.00000E+00         0.00000E+00        -0.54847E+08
 
   -0.49627E+08        -0.82399E+06         0.00000E+00
   -0.82399E+06        -0.59328E+08         0.00000E+00
    0.00000E+00         0.00000E+00        -0.54922E+08
 
   -0.50431E+08        -0.77283E+06         0.00000E+00
   -0.77283E+06        -0.59089E+08         0.00000E+00
    0.00000E+00         0.00000E+00        -0.55008E+08
 
   -0.51246E+08        -0.57724E+06         0.00000E+00
   -0.57724E+06        -0.58851E+08         0.00000E+00
    0.00000E+00         0.00000E+00        -0.55101E+08
 
   -0.52045E+08        -0.23735E+06         0.00000E+00
   -0.23735E+06        -0.58620E+08         0.00000E+00
    0.00000E+00         0.00000E+00        -0.55196E+08
 
   -0.52808E+08         0.24086E+06         0.00000E+00
    0.24086E+06        -0.58398E+08         0.00000E+00
    0.00000E+00         0.00000E+00        -0.55288E+08
 
   -0.53517E+08         0.84772E+06         0.00000E+00
    0.84772E+06        -0.58185E+08         0.00000E+00
    0.00000E+00         0.00000E+00        -0.55372E+08
 
   -0.54152E+08         0.15694E+07         0.00000E+00
    0.15694E+07        -0.57986E+08         0.00000E+00
    0.00000E+00         0.00000E+00        -0.55444E+08
 
   -0.54693E+08         0.23858E+07         0.00000E+00
    0.23858E+07        -0.57806E+08         0.00000E+00
    0.00000E+00         0.00000E+00        -0.55501E+08
 
   -0.55117E+08         0.32659E+07         0.00000E+00
    0.32659E+07        -0.57657E+08         0.00000E+00
    0.00000E+00         0.00000E+00        -0.55540E+08
 
   -0.55402E+08         0.41639E+07         0.00000E+00
    0.41639E+07        -0.57552E+08         0.00000E+00
    0.00000E+00         0.00000E+00        -0.55562E+08
 
   -0.55539E+08         0.50157E+07         0.00000E+00
    0.50157E+07        -0.57501E+08         0.00000E+00
    0.00000E+00         0.00000E+00        -0.55569E+08
 
   -0.47347E+08        -0.45390E+05         0.00000E+00
   -0.45390E+05        -0.59992E+08         0.00000E+00
    0.00000E+00         0.00000E+00        -0.54094E+08
 
   -0.47843E+08        -0.21149E+06         0.00000E+00
   -0.21149E+06        -0.59949E+08         0.00000E+00
    0.00000E+00         0.00000E+00        -0.54163E+08
 
   -0.48391E+08        -0.40663E+06         0.00000E+00
   -0.40663E+06        -0.59861E+08         0.00000E+00
    0.00000E+00         0.00000E+00        -0.54221E+08
 
   -0.48994E+08        -0.56041E+06         0.00000E+00
   -0.56041E+06        -0.59735E+08         0.00000E+00
    0.00000E+00         0.00000E+00        -0.54278E+08
 
   -0.49638E+08        -0.62330E+06         0.00000E+00
   -0.62330E+06        -0.59582E+08         0.00000E+00
    0.00000E+00         0.00000E+00        -0.54339E+08
 
   -0.50307E+08        -0.56492E+06         0.00000E+00
   -0.56492E+06        -0.59414E+08         0.00000E+00
    0.00000E+00         0.00000E+00        -0.54405E+08
 
   -0.50979E+08        -0.37016E+06         0.00000E+00
   -0.37016E+06        -0.59239E+08         0.00000E+00
    0.00000E+00         0.00000E+00        -0.54474E+08
 
   -0.51638E+08        -0.35056E+05         0.00000E+00
   -0.35056E+05        -0.59064E+08         0.00000E+00
    0.00000E+00         0.00000E+00        -0.54544E+08
 
   -0.52268E+08         0.43651E+06         0.00000E+00
    0.43651E+06        -0.58891E+08         0.00000E+00
    0.00000E+00         0.00000E+00        -0.54611E+08
 
   -0.52856E+08         0.10346E+07         0.00000E+00
    0.10346E+07        -0.58724E+08         0.00000E+00
    0.00000E+00         0.00000E+00        -0.54673E+08
 
   -0.53389E+08         0.17431E+07         0.00000E+00
    0.17431E+07        -0.58564E+08         0.00000E+00
    0.00000E+00         0.00000E+00        -0.54726E+08
 
   -0.53853E+08         0.25391E+07         0.00000E+00
    0.25391E+07        -0.58417E+08         0.00000E+00
    0.00000E+00         0.00000E+00        -0.54769E+08
 
   -0.54238E+08         0.33897E+07         0.00000E+00
    0.33897E+07        -0.58288E+08         0.00000E+00
    0.00000E+00         0.00000E+00        -0.54802E+08
 
   -0.54538E+08         0.42506E+07         0.00000E+00
    0.42506E+07        -0.58181E+08         0.00000E+00
    0.00000E+00         0.00000E+00        -0.54824E+08
 
   -0.54758E+08         0.50648E+07         0.00000E+00
    0.50648E+07        -0.58098E+08         0.00000E+00
    0.00000E+00         0.00000E+00        -0.54841E+08
 
   -0.47452E+08        -0.34304E+05         0.00000E+00
   -0.34304E+05        -0.60000E+08         0.00000E+00
    0.00000E+00         0.00000E+00        -0.53473E+08
 
   -0.48017E+08        -0.16926E+06         0.00000E+00
   -0.16926E+06        -0.59989E+08         0.00000E+00
    0.00000E+00         0.00000E+00        -0.53561E+08
 
   -0.48557E+08        -0.33084E+06         0.00000E+00
   -0.33084E+06        -0.59957E+08         0.00000E+00
    0.00000E+00         0.00000E+00        -0.53628E+08
 
   -0.49095E+08        -0.45628E+06         0.00000E+00
   -0.45628E+06        -0.59902E+08         0.00000E+00
    0.00000E+00         0.00000E+00        -0.53684E+08
 
   -0.49636E+08        -0.49914E+06         0.00000E+00
   -0.49914E+06        -0.59826E+08         0.00000E+00
    0.00000E+00         0.00000E+00        -0.53735E+08
 
   -0.50177E+08        -0.42875E+06         0.00000E+00
   -0.42875E+06        -0.59734E+08         0.00000E+00
    0.00000E+00         0.00000E+00        -0.53785E+08
 
   -0.50713E+08        -0.22807E+06         0.00000E+00
   -0.22807E+06        -0.59631E+08         0.00000E+00
    0.00000E+00         0.00000E+00        -0.53835E+08
 
   -0.51234E+08         0.10901E+06         0.00000E+00
    0.10901E+06        -0.59522E+08         0.00000E+00
    0.00000E+00         0.00000E+00        -0.53884E+08
 
   -0.51733E+08         0.57995E+06         0.00000E+00
    0.57995E+06        -0.59408E+08         0.00000E+00
    0.00000E+00         0.00000E+00        -0.53930E+08
 
   -0.52203E+08         0.11750E+07         0.00000E+00
    0.11750E+07        -0.59293E+08         0.00000E+00
    0.00000E+00         0.00000E+00        -0.53973E+08
 
   -0.52637E+08         0.18777E+07         0.00000E+00
    0.18777E+07        -0.59179E+08         0.00000E+00
    0.00000E+00         0.00000E+00        -0.54011E+08
 
   -0.53031E+08         0.26643E+07         0.00000E+00
    0.26643E+07        -0.59066E+08         0.00000E+00
    0.00000E+00         0.00000E+00        -0.54044E+08
 
   -0.53383E+08         0.35027E+07         0.00000E+00
    0.35027E+07        -0.58957E+08         0.00000E+00
    0.00000E+00         0.00000E+00        -0.54071E+08
 
   -0.53698E+08         0.43518E+07         0.00000E+00
    0.43518E+07        -0.58849E+08         0.00000E+00
    0.00000E+00         0.00000E+00        -0.54095E+08
 
   -0.53991E+08         0.51619E+07         0.00000E+00
    0.51619E+07        -0.58737E+08         0.00000E+00
    0.00000E+00         0.00000E+00        -0.54121E+08
 
   -0.47548E+08        -0.39491E+05         0.00000E+00
   -0.39491E+05        -0.60007E+08         0.00000E+00
    0.00000E+00         0.00000E+00        -0.52809E+08
 
   -0.48168E+08        -0.17090E+06         0.00000E+00
   -0.17090E+06        -0.60024E+08         0.00000E+00
    0.00000E+00         0.00000E+00        -0.52914E+08
 
   -0.48699E+08        -0.31825E+06         0.00000E+00
   -0.31825E+06        -0.60044E+08         0.00000E+00
    0.00000E+00         0.00000E+00        -0.52988E+08
 
   -0.49175E+08        -0.42615E+06         0.00000E+00
   -0.42615E+06        -0.60056E+08         0.00000E+00
    0.00000E+00         0.00000E+00        -0.53043E+08
 
   -0.49617E+08        -0.45257E+06         0.00000E+00
   -0.45257E+06        -0.60054E+08         0.00000E+00
    0.00000E+00         0.00000E+00        -0.53087E+08
 
   -0.50037E+08        -0.36866E+06         0.00000E+00
   -0.36866E+06        -0.60039E+08         0.00000E+00
    0.00000E+00         0.00000E+00        -0.53124E+08
 
   -0.50440E+08        -0.15755E+06         0.00000E+00
   -0.15755E+06        -0.60011E+08         0.00000E+00
    0.00000E+00         0.00000E+00        -0.53158E+08
 
   -0.50826E+08         0.18744E+06         0.00000E+00
    0.18744E+06        -0.59971E+08         0.00000E+00
    0.00000E+00         0.00000E+00        -0.53189E+08
 
   -0.51196E+08         0.66445E+06         0.00000E+00
    0.66445E+06        -0.59922E+08         0.00000E+00
    0.00000E+00         0.00000E+00        -0.53218E+08
 
   -0.51550E+08         0.12642E+07         0.00000E+00
    0.12642E+07        -0.59864E+08         0.00000E+00
    0.00000E+00         0.00000E+00        -0.53244E+08
 
   -0.51887E+08         0.19707E+07         0.00000E+00
    0.19707E+07        -0.59797E+08         0.00000E+00
    0.00000E+00         0.00000E+00        -0.53269E+08
 
   -0.52212E+08         0.27608E+07         0.00000E+00
    0.27608E+07        -0.59720E+08         0.00000E+00
    0.00000E+00         0.00000E+00        -0.53291E+08
 
   -0.52530E+08         0.36047E+07         0.00000E+00
    0.36047E+07        -0.59631E+08         0.00000E+00
    0.00000E+00         0.00000E+00        -0.53314E+08
 
   -0.52854E+08         0.44653E+07         0.00000E+00
    0.44653E+07        -0.59525E+08         0.00000E+00
    0.00000E+00         0.00000E+00        -0.53340E+08
 
   -0.53205E+08         0.52993E+07         0.00000E+00
    0.52993E+07        -0.59389E+08         0.00000E+00
    0.00000E+00         0.00000E+00        -0.53373E+08
 
   -0.47663E+08        -0.59366E+05         0.00000E+00
   -0.59366E+05        -0.60013E+08         0.00000E+00
    0.00000E+00         0.00000E+00        -0.52091E+08
 
   -0.48321E+08        -0.21236E+06         0.00000E+00
   -0.21236E+06        -0.60057E+08         0.00000E+00
    0.00000E+00         0.00000E+00        -0.52210E+08
 
   -0.48831E+08        -0.36390E+06         0.00000E+00
   -0.36390E+06        -0.60124E+08         0.00000E+00
    0.00000E+00         0.00000E+00        -0.52289E+08
 
   -0.49242E+08        -0.46575E+06         0.00000E+00
   -0.46575E+06        -0.60197E+08         0.00000E+00
    0.00000E+00         0.00000E+00        -0.52342E+08
 
   -0.49585E+08        -0.48103E+06         0.00000E+00
   -0.48103E+06        -0.60265E+08         0.00000E+00
    0.00000E+00         0.00000E+00        -0.52379E+08
 
   -0.49885E+08        -0.38412E+06         0.00000E+00
   -0.38412E+06        -0.60323E+08         0.00000E+00
    0.00000E+00         0.00000E+00        -0.52404E+08
 
   -0.50155E+08        -0.15976E+06         0.00000E+00
   -0.15976E+06        -0.60368E+08         0.00000E+00
    0.00000E+00         0.00000E+00        -0.52422E+08
 
   -0.50408E+08         0.19815E+06         0.00000E+00
    0.19815E+06        -0.60398E+08         0.00000E+00
    0.00000E+00         0.00000E+00        -0.52437E+08
 
   -0.50650E+08         0.68780E+06         0.00000E+00
    0.68780E+06        -0.60413E+08         0.00000E+00
    0.00000E+00         0.00000E+00        -0.52450E+08
 
   -0.50888E+08         0.13004E+07         0.00000E+00
    0.13004E+07        -0.60412E+08         0.00000E+00
    0.00000E+00         0.00000E+00        -0.52461E+08
 
   -0.51128E+08         0.20208E+07         0.00000E+00
    0.20208E+07        -0.60393E+08         0.00000E+00
    0.00000E+00         0.00000E+00        -0.52473E+08
 
   -0.51382E+08         0.28278E+07         0.00000E+00
    0.28278E+07        -0.60352E+08         0.00000E+00
    0.00000E+00         0.00000E+00        -0.52487E+08
 
   -0.51660E+08         0.36939E+07         0.00000E+00
    0.36939E+07        -0.60286E+08         0.00000E+00
    0.00000E+00         0.00000E+00        -0.52505E+08
 
   -0.51982E+08         0.45865E+07         0.00000E+00
    0.45865E+07        -0.60184E+08         0.00000E+00
    0.00000E+00         0.00000E+00        -0.52531E+08
 
   -0.52374E+08         0.54680E+07         0.00000E+00
    0.54680E+07        -0.60032E+08         0.00000E+00
    0.00000E+00         0.00000E+00        -0.52569E+08
 
   -0.47824E+08        -0.92563E+05         0.00000E+00
   -0.92563E+05        -0.60019E+08         0.00000E+00
    0.00000E+00         0.00000E+00        -0.51314E+08
 
   -0.48495E+08        -0.28985E+06         0.00000E+00
   -0.28985E+06        -0.60086E+08         0.00000E+00
    0.00000E+00         0.00000E+00        -0.51440E+08
 
   -0.48969E+08        -0.46251E+06         0.00000E+00
   -0.46251E+06        -0.60195E+08         0.00000E+00
    0.00000E+00         0.00000E+00        -0.51521E+08
 
   -0.49304E+08        -0.56942E+06         0.00000E+00
   -0.56942E+06        -0.60324E+08         0.00000E+00
    0.00000E+00         0.00000E+00        -0.51570E+08
 
   -0.49543E+08        -0.57944E+06         0.00000E+00
   -0.57944E+06        -0.60456E+08         0.00000E+00
    0.00000E+00         0.00000E+00        -0.51597E+08
 
   -0.49719E+08        -0.47110E+06         0.00000E+00
   -0.47110E+06        -0.60582E+08         0.00000E+00
    0.00000E+00         0.00000E+00        -0.51610E+08
 
   -0.49857E+08        -0.23182E+06         0.00000E+00
   -0.23182E+06        -0.60695E+08         0.00000E+00
    0.00000E+00         0.00000E+00        -0.51613E+08
 
   -0.49975E+08         0.14304E+06         0.00000E+00
    0.14304E+06        -0.60791E+08         0.00000E+00
    0.00000E+00         0.00000E+00        -0.51612E+08
 
   -0.50088E+08         0.65124E+06         0.00000E+00
    0.65124E+06        -0.60867E+08         0.00000E+00
    0.00000E+00         0.00000E+00        -0.51608E+08
 
   -0.50208E+08         0.12844E+07         0.00000E+00
    0.12844E+07        -0.60920E+08         0.00000E+00
    0.00000E+00         0.00000E+00        -0.51605E+08
 
   -0.50349E+08         0.20285E+07         0.00000E+00
    0.20285E+07        -0.60947E+08         0.00000E+00
    0.00000E+00         0.00000E+00        -0.51605E+08
 
   -0.50525E+08         0.28644E+07         0.00000E+00
    0.28644E+07        -0.60943E+08         0.00000E+00
    0.00000E+00         0.00000E+00        -0.51610E+08
 
   -0.50755E+08         0.37677E+07         0.00000E+00
    0.37677E+07        -0.60901E+08         0.00000E+00
    0.00000E+00         0.00000E+00        -0.51622E+08
 
   -0.51062E+08         0.47099E+07         0.00000E+00
    0.47099E+07        -0.60808E+08         0.00000E+00
    0.00000E+00         0.00000E+00        -0.51646E+08
 
   -0.51474E+08         0.56584E+07         0.00000E+00
    0.56584E+07        -0.60648E+08         0.00000E+00
    0.00000E+00         0.00000E+00        -0.51687E+08
 
   -0.48055E+08        -0.13778E+06         0.00000E+00
   -0.13778E+06        -0.60024E+08         0.00000E+00
    0.00000E+00         0.00000E+00        -0.50471E+08
 
   -0.48710E+08        -0.39957E+06         0.00000E+00
   -0.39957E+06        -0.60112E+08         0.00000E+00
    0.00000E+00         0.00000E+00        -0.50599E+08
 
   -0.49126E+08        -0.60839E+06         0.00000E+00
   -0.60839E+06        -0.60259E+08         0.00000E+00
    0.00000E+00         0.00000E+00        -0.50676E+08
 
   -0.49369E+08        -0.73041E+06         0.00000E+00
   -0.73041E+06        -0.60437E+08         0.00000E+00
    0.00000E+00         0.00000E+00        -0.50717E+08
 
   -0.49493E+08        -0.74077E+06         0.00000E+00
   -0.74077E+06        -0.60625E+08         0.00000E+00
    0.00000E+00         0.00000E+00        -0.50733E+08
 
   -0.49539E+08        -0.62292E+06         0.00000E+00
   -0.62292E+06        -0.60811E+08         0.00000E+00
    0.00000E+00         0.00000E+00        -0.50731E+08
 
   -0.49541E+08        -0.36780E+06         0.00000E+00
   -0.36780E+06        -0.60984E+08         0.00000E+00
    0.00000E+00         0.00000E+00        -0.50718E+08
 
   -0.49522E+08         0.27132E+05         0.00000E+00
    0.27132E+05        -0.61138E+08         0.00000E+00
    0.00000E+00         0.00000E+00        -0.50700E+08
 
   -0.49503E+08         0.55874E+06         0.00000E+00
    0.55874E+06        -0.61270E+08         0.00000E+00
    0.00000E+00         0.00000E+00        -0.50680E+08
 
   -0.49503E+08         0.12189E+07         0.00000E+00
    0.12189E+07        -0.61373E+08         0.00000E+00
    0.00000E+00         0.00000E+00        -0.50661E+08
 
   -0.49539E+08         0.19950E+07         0.00000E+00
    0.19950E+07        -0.61444E+08         0.00000E+00
    0.00000E+00         0.00000E+00        -0.50647E+08
 
   -0.49631E+08         0.28701E+07         0.00000E+00
    0.28701E+07        -0.61476E+08         0.00000E+00
    0.00000E+00         0.00000E+00        -0.50642E+08
 
   -0.49801E+08         0.38231E+07         0.00000E+00
    0.38231E+07        -0.61459E+08         0.00000E+00
    0.00000E+00         0.00000E+00        -0.50647E+08
 
   -0.50076E+08         0.48294E+07         0.00000E+00
    0.48294E+07        -0.61379E+08         0.00000E+00
    0.00000E+00         0.00000E+00        -0.50668E+08
 
   -0.50489E+08         0.58609E+07         0.00000E+00
    0.58609E+07        -0.61220E+08         0.00000E+00
    0.00000E+00         0.00000E+00        -0.50708E+08
 
   -0.48378E+08        -0.19367E+06         0.00000E+00
   -0.19367E+06        -0.60028E+08         0.00000E+00
    0.00000E+00         0.00000E+00        -0.49559E+08
 
   -0.48982E+08        -0.53754E+06         0.00000E+00
   -0.53754E+06        -0.60135E+08         0.00000E+00
    0.00000E+00         0.00000E+00        -0.49682E+08
 
   -0.49312E+08        -0.79528E+06         0.00000E+00
   -0.79528E+06        -0.60314E+08         0.00000E+00
    0.00000E+00         0.00000E+00        -0.49749E+08
 
   -0.49444E+08        -0.94086E+06         0.00000E+00
   -0.94086E+06        -0.60533E+08         0.00000E+00
    0.00000E+00         0.00000E+00        -0.49777E+08
 
   -0.49440E+08        -0.95629E+06         0.00000E+00
   -0.95629E+06        -0.60769E+08         0.00000E+00
    0.00000E+00         0.00000E+00        -0.49777E+08
 
   -0.49347E+08        -0.83069E+06         0.00000E+00
   -0.83069E+06        -0.61004E+08         0.00000E+00
    0.00000E+00         0.00000E+00        -0.49758E+08
 
   -0.49206E+08        -0.55922E+06         0.00000E+00
   -0.55922E+06        -0.61228E+08         0.00000E+00
    0.00000E+00         0.00000E+00        -0.49727E+08
 
   -0.49045E+08        -0.14206E+06         0.00000E+00
   -0.14206E+06        -0.61432E+08         0.00000E+00
    0.00000E+00         0.00000E+00        -0.49690E+08
 
   -0.48891E+08         0.41646E+06         0.00000E+00
    0.41646E+06        -0.61611E+08         0.00000E+00
    0.00000E+00         0.00000E+00        -0.49651E+08
 
   -0.48766E+08         0.11084E+07         0.00000E+00
    0.11084E+07        -0.61758E+08         0.00000E+00
    0.00000E+00         0.00000E+00        -0.49616E+08
 
   -0.48690E+08         0.19226E+07         0.00000E+00
    0.19226E+07        -0.61869E+08         0.00000E+00
    0.00000E+00         0.00000E+00        -0.49588E+08
 
   -0.48688E+08         0.28447E+07         0.00000E+00
    0.28447E+07        -0.61935E+08         0.00000E+00
    0.00000E+00         0.00000E+00        -0.49570E+08
 
   -0.48785E+08         0.38570E+07         0.00000E+00
    0.38570E+07        -0.61945E+08         0.00000E+00
    0.00000E+00         0.00000E+00        -0.49566E+08
 
   -0.49011E+08         0.49386E+07         0.00000E+00
    0.49386E+07        -0.61884E+08         0.00000E+00
    0.00000E+00         0.00000E+00        -0.49581E+08
 
   -0.49403E+08         0.60657E+07         0.00000E+00
    0.60657E+07        -0.61733E+08         0.00000E+00
    0.00000E+00         0.00000E+00        -0.49619E+08
 
   -0.48812E+08        -0.25878E+06         0.00000E+00
   -0.25878E+06        -0.60032E+08         0.00000E+00
    0.00000E+00         0.00000E+00        -0.48577E+08
 
   -0.49325E+08        -0.69940E+06         0.00000E+00
   -0.69940E+06        -0.60154E+08         0.00000E+00
    0.00000E+00         0.00000E+00        -0.48685E+08
 
   -0.49538E+08        -0.10162E+07         0.00000E+00
   -0.10162E+07        -0.60359E+08         0.00000E+00
    0.00000E+00         0.00000E+00        -0.48736E+08
 
   -0.49536E+08        -0.11917E+07         0.00000E+00
   -0.11917E+07        -0.60611E+08         0.00000E+00
    0.00000E+00         0.00000E+00        -0.48745E+08
 
   -0.49386E+08        -0.12156E+07         0.00000E+00
   -0.12156E+07        -0.60883E+08         0.00000E+00
    0.00000E+00         0.00000E+00        -0.48724E+08
 
   -0.49143E+08        -0.10835E+07         0.00000E+00
   -0.10835E+07        -0.61157E+08         0.00000E+00
    0.00000E+00         0.00000E+00        -0.48684E+08
 
   -0.48851E+08        -0.79538E+06         0.00000E+00
   -0.79538E+06        -0.61420E+08         0.00000E+00
    0.00000E+00         0.00000E+00        -0.48631E+08
 
   -0.48544E+08        -0.35478E+06         0.00000E+00
   -0.35478E+06        -0.61662E+08         0.00000E+00
    0.00000E+00         0.00000E+00        -0.48573E+08
 
   -0.48249E+08         0.23254E+06         0.00000E+00
    0.23254E+06        -0.61878E+08         0.00000E+00
    0.00000E+00         0.00000E+00        -0.48514E+08
 
   -0.47992E+08         0.95884E+06         0.00000E+00
    0.95884E+06        -0.62062E+08         0.00000E+00
    0.00000E+00         0.00000E+00        -0.48460E+08
 
   -0.47797E+08         0.18146E+07         0.00000E+00
    0.18146E+07        -0.62208E+08         0.00000E+00
    0.00000E+00         0.00000E+00        -0.48415E+08
 
   -0.47689E+08         0.27883E+07         0.00000E+00
    0.27883E+07        -0.62306E+08         0.00000E+00
    0.00000E+00         0.00000E+00        -0.48382E+08
 
   -0.47698E+08         0.38660E+07         0.00000E+00
    0.38660E+07        -0.62345E+08         0.00000E+00
    0.00000E+00         0.00000E+00        -0.48367E+08
 
   -0.47857E+08         0.50308E+07         0.00000E+00
    0.50308E+07        -0.62307E+08         0.00000E+00
    0.00000E+00         0.00000E+00        -0.48373E+08
 
   -0.48204E+08         0.62627E+07         0.00000E+00
    0.62627E+07        -0.62173E+08         0.00000E+00
    0.00000E+00         0.00000E+00        -0.48406E+08
 
   -0.49371E+08        -0.33149E+06         0.00000E+00
   -0.33149E+06        -0.60035E+08         0.00000E+00
    0.00000E+00         0.00000E+00        -0.47522E+08
 
   -0.49749E+08        -0.88030E+06         0.00000E+00
   -0.88030E+06        -0.60169E+08         0.00000E+00
    0.00000E+00         0.00000E+00        -0.47607E+08
 
   -0.49811E+08        -0.12634E+07         0.00000E+00
   -0.12634E+07        -0.60393E+08         0.00000E+00
    0.00000E+00         0.00000E+00        -0.47633E+08
 
   -0.49647E+08        -0.14727E+07         0.00000E+00
   -0.14727E+07        -0.60668E+08         0.00000E+00
    0.00000E+00         0.00000E+00        -0.47616E+08
 
   -0.49332E+08        -0.15066E+07         0.00000E+00
   -0.15066E+07        -0.60965E+08         0.00000E+00
    0.00000E+00         0.00000E+00        -0.47570E+08
 
   -0.48927E+08        -0.13682E+07         0.00000E+00
   -0.13682E+07        -0.61264E+08         0.00000E+00
    0.00000E+00         0.00000E+00        -0.47503E+08
 
   -0.48476E+08        -0.10633E+07         0.00000E+00
   -0.10633E+07        -0.61551E+08         0.00000E+00
    0.00000E+00         0.00000E+00        -0.47425E+08
 
   -0.48016E+08        -0.59910E+06         0.00000E+00
   -0.59910E+06        -0.61818E+08         0.00000E+00
    0.00000E+00         0.00000E+00        -0.47342E+08
 
   -0.47575E+08         0.16974E+05         0.00000E+00
    0.16974E+05        -0.62059E+08         0.00000E+00
    0.00000E+00         0.00000E+00        -0.47261E+08
 
   -0.47181E+08         0.77749E+06         0.00000E+00
    0.77749E+06        -0.62270E+08         0.00000E+00
    0.00000E+00         0.00000E+00        -0.47185E+08
 
   -0.46857E+08         0.16749E+07         0.00000E+00
    0.16749E+07        -0.62444E+08         0.00000E+00
    0.00000E+00         0.00000E+00        -0.47121E+08
 
   -0.46632E+08         0.27012E+07         0.00000E+00
    0.27012E+07        -0.62572E+08         0.00000E+00
    0.00000E+00         0.00000E+00        -0.47072E+08
 
   -0.46536E+08         0.38466E+07         0.00000E+00
    0.38466E+07        -0.62641E+08         0.00000E+00
    0.00000E+00         0.00000E+00        -0.47042E+08
 
   -0.46607E+08         0.50988E+07         0.00000E+00
    0.50988E+07        -0.62633E+08         0.00000E+00
    0.00000E+00         0.00000E+00        -0.47037E+08
 
   -0.46885E+08         0.64418E+07         0.00000E+00
    0.64418E+07        -0.62524E+08         0.00000E+00
    0.00000E+00         0.00000E+00        -0.47062E+08
 
   -0.50069E+08        -0.40999E+06         0.00000E+00
   -0.40999E+06        -0.60037E+08         0.00000E+00
    0.00000E+00         0.00000E+00        -0.46396E+08
 
   -0.50263E+08        -0.10748E+07         0.00000E+00
   -0.10748E+07        -0.60179E+08         0.00000E+00
    0.00000E+00         0.00000E+00        -0.46446E+08
 
   -0.50133E+08        -0.15278E+07         0.00000E+00
   -0.15278E+07        -0.60414E+08         0.00000E+00
    0.00000E+00         0.00000E+00        -0.46439E+08
 
   -0.49779E+08        -0.17717E+07         0.00000E+00
   -0.17717E+07        -0.60701E+08         0.00000E+00
    0.00000E+00         0.00000E+00        -0.46389E+08
 
   -0.49280E+08        -0.18150E+07         0.00000E+00
   -0.18150E+07        -0.61009E+08         0.00000E+00
    0.00000E+00         0.00000E+00        -0.46310E+08
 
   -0.48698E+08        -0.16695E+07         0.00000E+00
   -0.16695E+07        -0.61317E+08         0.00000E+00
    0.00000E+00         0.00000E+00        -0.46212E+08
 
   -0.48080E+08        -0.13477E+07         0.00000E+00
   -0.13477E+07        -0.61611E+08         0.00000E+00
    0.00000E+00         0.00000E+00        -0.46104E+08
 
   -0.47462E+08        -0.86085E+06         0.00000E+00
   -0.86085E+06        -0.61887E+08         0.00000E+00
    0.00000E+00         0.00000E+00        -0.45994E+08
 
   -0.46872E+08        -0.21832E+06         0.00000E+00
   -0.21832E+06        -0.62139E+08         0.00000E+00
    0.00000E+00         0.00000E+00        -0.45886E+08
 
   -0.46334E+08         0.57308E+06         0.00000E+00
    0.57308E+06        -0.62365E+08         0.00000E+00
    0.00000E+00         0.00000E+00        -0.45787E+08
 
   -0.45872E+08         0.15085E+07         0.00000E+00
    0.15085E+07        -0.62561E+08         0.00000E+00
    0.00000E+00         0.00000E+00        -0.45700E+08
 
   -0.45516E+08         0.25839E+07         0.00000E+00
    0.25839E+07        -0.62716E+08         0.00000E+00
    0.00000E+00         0.00000E+00        -0.45631E+08
 
   -0.45297E+08         0.37950E+07         0.00000E+00
    0.37950E+07        -0.62817E+08         0.00000E+00
    0.00000E+00         0.00000E+00        -0.45585E+08
 
   -0.45257E+08         0.51347E+07         0.00000E+00
    0.51347E+07        -0.62845E+08         0.00000E+00
    0.00000E+00         0.00000E+00        -0.45565E+08
 
   -0.45440E+08         0.65917E+07         0.00000E+00
    0.65917E+07        -0.62772E+08         0.00000E+00
    0.00000E+00         0.00000E+00        -0.45578E+08
 
   -0.50912E+08        -0.49231E+06         0.00000E+00
   -0.49231E+06        -0.60038E+08         0.00000E+00
    0.00000E+00         0.00000E+00        -0.45198E+08
 
   -0.50868E+08        -0.12768E+07         0.00000E+00
   -0.12768E+07        -0.60184E+08         0.00000E+00
    0.00000E+00         0.00000E+00        -0.45203E+08
 
   -0.50505E+08        -0.17992E+07         0.00000E+00
   -0.17992E+07        -0.60422E+08         0.00000E+00
    0.00000E+00         0.00000E+00        -0.45152E+08
 
   -0.49930E+08        -0.20749E+07         0.00000E+00
   -0.20749E+07        -0.60708E+08         0.00000E+00
    0.00000E+00         0.00000E+00        -0.45060E+08
 
   -0.49226E+08        -0.21242E+07         0.00000E+00
   -0.21242E+07        -0.61009E+08         0.00000E+00
    0.00000E+00         0.00000E+00        -0.44942E+08
 
   -0.48456E+08        -0.19693E+07         0.00000E+00
   -0.19693E+07        -0.61307E+08         0.00000E+00
    0.00000E+00         0.00000E+00        -0.44808E+08
 
   -0.47665E+08        -0.16304E+07         0.00000E+00
   -0.16304E+07        -0.61590E+08         0.00000E+00
    0.00000E+00         0.00000E+00        -0.44666E+08
 
   -0.46886E+08        -0.11234E+07         0.00000E+00
   -0.11234E+07        -0.61855E+08         0.00000E+00
    0.00000E+00         0.00000E+00        -0.44524E+08
 
   -0.46143E+08        -0.45940E+06         0.00000E+00
   -0.45940E+06        -0.62102E+08         0.00000E+00
    0.00000E+00         0.00000E+00        -0.44387E+08
 
   -0.45456E+08         0.35581E+06         0.00000E+00
    0.35581E+06        -0.62331E+08         0.00000E+00
    0.00000E+00         0.00000E+00        -0.44260E+08
 
   -0.44849E+08         0.13208E+07         0.00000E+00
    0.13208E+07        -0.62538E+08         0.00000E+00
    0.00000E+00         0.00000E+00        -0.44149E+08
 
   -0.44347E+08         0.24371E+07         0.00000E+00
    0.24371E+07        -0.62718E+08         0.00000E+00
    0.00000E+00         0.00000E+00        -0.44058E+08
 
   -0.43986E+08         0.37066E+07         0.00000E+00
    0.37066E+07        -0.62853E+08         0.00000E+00
    0.00000E+00         0.00000E+00        -0.43990E+08
 
   -0.43808E+08         0.51293E+07         0.00000E+00
    0.51293E+07        -0.62924E+08         0.00000E+00
    0.00000E+00         0.00000E+00        -0.43953E+08
 
   -0.43865E+08         0.66998E+07         0.00000E+00
    0.66998E+07        -0.62899E+08         0.00000E+00
    0.00000E+00         0.00000E+00        -0.43951E+08
 
   -0.51907E+08        -0.57628E+06         0.00000E+00
   -0.57628E+06        -0.60039E+08         0.00000E+00
    0.00000E+00         0.00000E+00        -0.43932E+08
 
   -0.51565E+08        -0.14793E+07         0.00000E+00
   -0.14793E+07        -0.60183E+08         0.00000E+00
    0.00000E+00         0.00000E+00        -0.43879E+08
 
   -0.50923E+08        -0.20657E+07         0.00000E+00
   -0.20657E+07        -0.60414E+08         0.00000E+00
    0.00000E+00         0.00000E+00        -0.43773E+08
 
   -0.50095E+08        -0.23657E+07         0.00000E+00
   -0.23657E+07        -0.60683E+08         0.00000E+00
    0.00000E+00         0.00000E+00        -0.43631E+08
 
   -0.49166E+08        -0.24146E+07         0.00000E+00
   -0.24146E+07        -0.60958E+08         0.00000E+00
    0.00000E+00         0.00000E+00        -0.43466E+08
 
   -0.48198E+08        -0.22465E+07         0.00000E+00
   -0.22465E+07        -0.61223E+08         0.00000E+00
    0.00000E+00         0.00000E+00        -0.43289E+08
 
   -0.47232E+08        -0.18904E+07         0.00000E+00
   -0.18904E+07        -0.61471E+08         0.00000E+00
    0.00000E+00         0.00000E+00        -0.43108E+08
 
   -0.46292E+08        -0.13675E+07         0.00000E+00
   -0.13675E+07        -0.61705E+08         0.00000E+00
    0.00000E+00         0.00000E+00        -0.42931E+08
 
   -0.45396E+08        -0.69021E+06         0.00000E+00
   -0.69021E+06        -0.61927E+08         0.00000E+00
    0.00000E+00         0.00000E+00        -0.42762E+08
 
   -0.44559E+08         0.13737E+06         0.00000E+00
    0.13737E+06        -0.62144E+08         0.00000E+00
    0.00000E+00         0.00000E+00        -0.42605E+08
 
   -0.43798E+08         0.11184E+07         0.00000E+00
    0.11184E+07        -0.62355E+08         0.00000E+00
    0.00000E+00         0.00000E+00        -0.42466E+08
 
   -0.43137E+08         0.22611E+07         0.00000E+00
    0.22611E+07        -0.62554E+08         0.00000E+00
    0.00000E+00         0.00000E+00        -0.42349E+08
 
   -0.42610E+08         0.35760E+07         0.00000E+00
    0.35760E+07        -0.62727E+08         0.00000E+00
    0.00000E+00         0.00000E+00        -0.42258E+08
 
   -0.42264E+08         0.50719E+07         0.00000E+00
    0.50719E+07        -0.62850E+08         0.00000E+00
    0.00000E+00         0.00000E+00        -0.42198E+08
 
   -0.42160E+08         0.67514E+07         0.00000E+00
    0.67514E+07        -0.62886E+08         0.00000E+00
    0.00000E+00         0.00000E+00        -0.42177E+08
 
   -0.53050E+08        -0.65960E+06         0.00000E+00
   -0.65960E+06        -0.60038E+08         0.00000E+00
    0.00000E+00         0.00000E+00        -0.42600E+08
 
   -0.52347E+08        -0.16744E+07         0.00000E+00
   -0.16744E+07        -0.60175E+08         0.00000E+00
    0.00000E+00         0.00000E+00        -0.42475E+08
 
   -0.51377E+08        -0.23130E+07         0.00000E+00
   -0.23130E+07        -0.60386E+08         0.00000E+00
    0.00000E+00         0.00000E+00        -0.42302E+08
 
   -0.50264E+08        -0.26246E+07         0.00000E+00
   -0.26246E+07        -0.60620E+08         0.00000E+00
    0.00000E+00         0.00000E+00        -0.42100E+08
 
   -0.49095E+08        -0.26626E+07         0.00000E+00
   -0.26626E+07        -0.60846E+08         0.00000E+00
    0.00000E+00         0.00000E+00        -0.41881E+08
 
   -0.47924E+08        -0.24760E+07         0.00000E+00
   -0.24760E+07        -0.61052E+08         0.00000E+00
    0.00000E+00         0.00000E+00        -0.41656E+08
 
   -0.46783E+08        -0.21036E+07         0.00000E+00
   -0.21036E+07        -0.61239E+08         0.00000E+00
    0.00000E+00         0.00000E+00        -0.41432E+08
 
   -0.45688E+08        -0.15713E+07         0.00000E+00
   -0.15713E+07        -0.61416E+08         0.00000E+00
    0.00000E+00         0.00000E+00        -0.41216E+08
 
   -0.44644E+08        -0.89268E+06         0.00000E+00
   -0.89268E+06        -0.61594E+08         0.00000E+00
    0.00000E+00         0.00000E+00        -0.41012E+08
 
   -0.43657E+08        -0.69086E+05         0.00000E+00
   -0.69086E+05        -0.61782E+08         0.00000E+00
    0.00000E+00         0.00000E+00        -0.40823E+08
 
   -0.42737E+08         0.90826E+06         0.00000E+00
    0.90826E+06        -0.61985E+08         0.00000E+00
    0.00000E+00         0.00000E+00        -0.40653E+08
 
   -0.41901E+08         0.20562E+07         0.00000E+00
    0.20562E+07        -0.62200E+08         0.00000E+00
    0.00000E+00         0.00000E+00        -0.40506E+08
 
   -0.41185E+08         0.33962E+07         0.00000E+00
    0.33962E+07        -0.62414E+08         0.00000E+00
    0.00000E+00         0.00000E+00        -0.40387E+08
 
   -0.40637E+08         0.49492E+07         0.00000E+00
    0.49492E+07        -0.62600E+08         0.00000E+00
    0.00000E+00         0.00000E+00        -0.40301E+08
 
   -0.40329E+08         0.67285E+07         0.00000E+00
    0.67285E+07        -0.62716E+08         0.00000E+00
    0.00000E+00         0.00000E+00        -0.40256E+08
 
   -0.54338E+08        -0.73978E+06         0.00000E+00
   -0.73978E+06        -0.60036E+08         0.00000E+00
    0.00000E+00         0.00000E+00        -0.41206E+08
 
   -0.53199E+08        -0.18526E+07         0.00000E+00
   -0.18526E+07        -0.60160E+08         0.00000E+00
    0.00000E+00         0.00000E+00        -0.40993E+08
 
   -0.51851E+08        -0.25234E+07         0.00000E+00
   -0.25234E+07        -0.60336E+08         0.00000E+00
    0.00000E+00         0.00000E+00        -0.40742E+08
 
   -0.50423E+08        -0.28270E+07         0.00000E+00
   -0.28270E+07        -0.60511E+08         0.00000E+00
    0.00000E+00         0.00000E+00        -0.40468E+08
 
   -0.49002E+08        -0.28402E+07         0.00000E+00
   -0.28402E+07        -0.60657E+08         0.00000E+00
    0.00000E+00         0.00000E+00        -0.40188E+08
 
   -0.47630E+08        -0.26292E+07         0.00000E+00
   -0.26292E+07        -0.60773E+08         0.00000E+00
    0.00000E+00         0.00000E+00        -0.39909E+08
 
   -0.46325E+08        -0.22427E+07         0.00000E+00
   -0.22427E+07        -0.60870E+08         0.00000E+00
    0.00000E+00         0.00000E+00        -0.39638E+08
 
   -0.45085E+08        -0.17110E+07         0.00000E+00
   -0.17110E+07        -0.60965E+08         0.00000E+00
    0.00000E+00         0.00000E+00        -0.39381E+08
 
   -0.43903E+08        -0.10472E+07         0.00000E+00
   -0.10472E+07        -0.61075E+08         0.00000E+00
    0.00000E+00         0.00000E+00        -0.39139E+08
 
   -0.42772E+08        -0.24914E+06         0.00000E+00
   -0.24914E+06        -0.61216E+08         0.00000E+00
    0.00000E+00         0.00000E+00        -0.38916E+08
 
   -0.41690E+08         0.69846E+06         0.00000E+00
    0.69846E+06        -0.61400E+08         0.00000E+00
    0.00000E+00         0.00000E+00        -0.38713E+08
 
   -0.40667E+08         0.18227E+07         0.00000E+00
    0.18227E+07        -0.61628E+08         0.00000E+00
    0.00000E+00         0.00000E+00        -0.38534E+08
 
   -0.39733E+08         0.31590E+07         0.00000E+00
    0.31590E+07        -0.61887E+08         0.00000E+00
    0.00000E+00         0.00000E+00        -0.38382E+08
 
   -0.38943E+08         0.47446E+07         0.00000E+00
    0.47446E+07        -0.62150E+08         0.00000E+00
    0.00000E+00         0.00000E+00        -0.38265E+08
 
   -0.38377E+08         0.66090E+07         0.00000E+00
    0.66090E+07        -0.62367E+08         0.00000E+00
    0.00000E+00         0.00000E+00        -0.38189E+08
 
   -0.55757E+08        -0.81415E+06         0.00000E+00
   -0.81415E+06        -0.60033E+08         0.00000E+00
    0.00000E+00         0.00000E+00        -0.39755E+08
 
   -0.54101E+08        -0.20016E+07         0.00000E+00
   -0.20016E+07        -0.60135E+08         0.00000E+00
    0.00000E+00         0.00000E+00        -0.39437E+08
 
   -0.52318E+08        -0.26738E+07         0.00000E+00
   -0.26738E+07        -0.60256E+08         0.00000E+00
    0.00000E+00         0.00000E+00        -0.39090E+08
 
   -0.50552E+08        -0.29417E+07         0.00000E+00
   -0.29417E+07        -0.60339E+08         0.00000E+00
    0.00000E+00         0.00000E+00        -0.38736E+08
 
   -0.48877E+08        -0.29133E+07         0.00000E+00
   -0.29133E+07        -0.60370E+08         0.00000E+00
    0.00000E+00         0.00000E+00        -0.38386E+08
 
   -0.47317E+08        -0.26734E+07         0.00000E+00
   -0.26734E+07        -0.60361E+08         0.00000E+00
    0.00000E+00         0.00000E+00        -0.38049E+08
 
   -0.45864E+08        -0.22791E+07         0.00000E+00
   -0.22791E+07        -0.60335E+08         0.00000E+00
    0.00000E+00         0.00000E+00        -0.37729E+08
 
   -0.44499E+08        -0.17620E+07         0.00000E+00
   -0.17620E+07        -0.60321E+08         0.00000E+00
    0.00000E+00         0.00000E+00        -0.37429E+08
 
   -0.43195E+08        -0.11335E+07         0.00000E+00
   -0.11335E+07        -0.60342E+08         0.00000E+00
    0.00000E+00         0.00000E+00        -0.37149E+08
 
   -0.41930E+08        -0.38758E+06         0.00000E+00
   -0.38758E+06        -0.60420E+08         0.00000E+00
    0.00000E+00         0.00000E+00        -0.36890E+08
 
   -0.40688E+08         0.49794E+06         0.00000E+00
    0.49794E+06        -0.60572E+08         0.00000E+00
    0.00000E+00         0.00000E+00        -0.36652E+08
 
   -0.39468E+08         0.15611E+07         0.00000E+00
    0.15611E+07        -0.60805E+08         0.00000E+00
    0.00000E+00         0.00000E+00        -0.36437E+08
 
   -0.38288E+08         0.28542E+07         0.00000E+00
    0.28542E+07        -0.61115E+08         0.00000E+00
    0.00000E+00         0.00000E+00        -0.36249E+08
 
   -0.37206E+08         0.44375E+07         0.00000E+00
    0.44375E+07        -0.61472E+08         0.00000E+00
    0.00000E+00         0.00000E+00        -0.36094E+08
 
   -0.36316E+08         0.63644E+07         0.00000E+00
    0.63644E+07        -0.61819E+08         0.00000E+00
    0.00000E+00         0.00000E+00        -0.35980E+08
 
   -0.57286E+08        -0.87952E+06         0.00000E+00
   -0.87952E+06        -0.60028E+08         0.00000E+00
    0.00000E+00         0.00000E+00        -0.38252E+08
 
   -0.55013E+08        -0.21040E+07         0.00000E+00
   -0.21040E+07        -0.60096E+08         0.00000E+00
    0.00000E+00         0.00000E+00        -0.37805E+08
 
   -0.52743E+08        -0.27309E+07         0.00000E+00
   -0.27309E+07        -0.60129E+08         0.00000E+00
    0.00000E+00         0.00000E+00        -0.37347E+08
 
   -0.50626E+08        -0.29279E+07         0.00000E+00
   -0.29279E+07        -0.60076E+08         0.00000E+00
    0.00000E+00         0.00000E+00        -0.36899E+08
 
   -0.48712E+08        -0.28419E+07         0.00000E+00
   -0.28419E+07        -0.59946E+08         0.00000E+00
    0.00000E+00         0.00000E+00        -0.36474E+08
 
   -0.46988E+08        -0.25744E+07         0.00000E+00
   -0.25744E+07        -0.59774E+08         0.00000E+00
    0.00000E+00         0.00000E+00        -0.36076E+08
 
   -0.45415E+08        -0.21848E+07         0.00000E+00
   -0.21848E+07        -0.59597E+08         0.00000E+00
    0.00000E+00         0.00000E+00        -0.35707E+08
 
   -0.43949E+08        -0.17020E+07         0.00000E+00
   -0.17020E+07        -0.59451E+08         0.00000E+00
    0.00000E+00         0.00000E+00        -0.35365E+08
 
   -0.42544E+08        -0.11335E+07         0.00000E+00
   -0.11335E+07        -0.59365E+08         0.00000E+00
    0.00000E+00         0.00000E+00        -0.35047E+08
 
   -0.41163E+08        -0.46942E+06         0.00000E+00
   -0.46942E+06        -0.59364E+08         0.00000E+00
    0.00000E+00         0.00000E+00        -0.34753E+08
 
   -0.39771E+08         0.31713E+06         0.00000E+00
    0.31713E+06        -0.59471E+08         0.00000E+00
    0.00000E+00         0.00000E+00        -0.34479E+08
 
   -0.38347E+08         0.12736E+07         0.00000E+00
    0.12736E+07        -0.59703E+08         0.00000E+00
    0.00000E+00         0.00000E+00        -0.34227E+08
 
   -0.36895E+08         0.24713E+07         0.00000E+00
    0.24713E+07        -0.60065E+08         0.00000E+00
    0.00000E+00         0.00000E+00        -0.33997E+08
 
   -0.35463E+08         0.40018E+07         0.00000E+00
    0.40018E+07        -0.60536E+08         0.00000E+00
    0.00000E+00         0.00000E+00        -0.33797E+08
 
   -0.34163E+08         0.59570E+07         0.00000E+00
    0.59570E+07        -0.61048E+08         0.00000E+00
    0.00000E+00         0.00000E+00        -0.33635E+08
 
   -0.58894E+08        -0.93120E+06         0.00000E+00
   -0.93120E+06        -0.60021E+08         0.00000E+00
    0.00000E+00         0.00000E+00        -0.36699E+08
 
   -0.55880E+08        -0.21296E+07         0.00000E+00
   -0.21296E+07        -0.60031E+08         0.00000E+00
    0.00000E+00         0.00000E+00        -0.36094E+08
 
   -0.53076E+08        -0.26431E+07         0.00000E+00
   -0.26431E+07        -0.59921E+08         0.00000E+00
    0.00000E+00         0.00000E+00        -0.35505E+08
 
   -0.50622E+08        -0.27310E+07         0.00000E+00
   -0.27310E+07        -0.59669E+08         0.00000E+00
    0.00000E+00         0.00000E+00        -0.34954E+08
 
   -0.48506E+08        -0.25820E+07         0.00000E+00
   -0.25820E+07        -0.59325E+08         0.00000E+00
    0.00000E+00         0.00000E+00        -0.34450E+08
 
   -0.46657E+08        -0.23011E+07         0.00000E+00
   -0.23011E+07        -0.58955E+08         0.00000E+00
    0.00000E+00         0.00000E+00        -0.33992E+08
 
   -0.44998E+08        -0.19387E+07         0.00000E+00
   -0.19387E+07        -0.58607E+08         0.00000E+00
    0.00000E+00         0.00000E+00        -0.33575E+08
 
   -0.43459E+08        -0.15155E+07         0.00000E+00
   -0.15155E+07        -0.58317E+08         0.00000E+00
    0.00000E+00         0.00000E+00        -0.33194E+08
 
   -0.41979E+08        -0.10340E+07         0.00000E+00
   -0.10340E+07        -0.58115E+08         0.00000E+00
    0.00000E+00         0.00000E+00        -0.32843E+08
 
   -0.40503E+08        -0.48201E+06         0.00000E+00
   -0.48201E+06        -0.58026E+08         0.00000E+00
    0.00000E+00         0.00000E+00        -0.32516E+08
 
   -0.38980E+08         0.16836E+06         0.00000E+00
    0.16836E+06        -0.58076E+08         0.00000E+00
    0.00000E+00         0.00000E+00        -0.32208E+08
 
   -0.37361E+08         0.96761E+06         0.00000E+00
    0.96761E+06        -0.58294E+08         0.00000E+00
    0.00000E+00         0.00000E+00        -0.31917E+08
 
   -0.35617E+08         0.20027E+07         0.00000E+00
    0.20027E+07        -0.58705E+08         0.00000E+00
    0.00000E+00         0.00000E+00        -0.31641E+08
 
   -0.33770E+08         0.34062E+07         0.00000E+00
    0.34062E+07        -0.59307E+08         0.00000E+00
    0.00000E+00         0.00000E+00        -0.31386E+08
 
   -0.31945E+08         0.53354E+07         0.00000E+00
    0.53354E+07        -0.60033E+08         0.00000E+00
    0.00000E+00         0.00000E+00        -0.31162E+08
 
   -0.60521E+08        -0.95874E+06         0.00000E+00
   -0.95874E+06        -0.60006E+08         0.00000E+00
    0.00000E+00         0.00000E+00        -0.35094E+08
 
   -0.56609E+08        -0.20167E+07         0.00000E+00
   -0.20167E+07        -0.59903E+08         0.00000E+00
    0.00000E+00         0.00000E+00        -0.34289E+08
 
   -0.53261E+08        -0.23261E+07         0.00000E+00
   -0.23261E+07        -0.59549E+08         0.00000E+00
    0.00000E+00         0.00000E+00        -0.33545E+08
 
   -0.50531E+08        -0.22861E+07         0.00000E+00
   -0.22861E+07        -0.59010E+08         0.00000E+00
    0.00000E+00         0.00000E+00        -0.32885E+08
 
   -0.48277E+08        -0.20971E+07         0.00000E+00
   -0.20971E+07        -0.58411E+08         0.00000E+00
    0.00000E+00         0.00000E+00        -0.32306E+08
 
   -0.46351E+08        -0.18362E+07         0.00000E+00
   -0.18362E+07        -0.57829E+08         0.00000E+00
    0.00000E+00         0.00000E+00        -0.31795E+08
 
   -0.44641E+08        -0.15339E+07         0.00000E+00
   -0.15339E+07        -0.57308E+08         0.00000E+00
    0.00000E+00         0.00000E+00        -0.31338E+08
 
   -0.43057E+08        -0.11999E+07         0.00000E+00
   -0.11999E+07        -0.56880E+08         0.00000E+00
    0.00000E+00         0.00000E+00        -0.30925E+08
 
   -0.41527E+08        -0.83220E+06         0.00000E+00
   -0.83220E+06        -0.56567E+08         0.00000E+00
    0.00000E+00         0.00000E+00        -0.30545E+08
 
   -0.39983E+08        -0.41882E+06         0.00000E+00
   -0.41882E+06        -0.56391E+08         0.00000E+00
    0.00000E+00         0.00000E+00        -0.30191E+08
 
   -0.38355E+08         0.64020E+05         0.00000E+00
    0.64020E+05        -0.56379E+08         0.00000E+00
    0.00000E+00         0.00000E+00        -0.29853E+08
 
   -0.36568E+08         0.66014E+06         0.00000E+00
    0.66014E+06        -0.56567E+08         0.00000E+00
    0.00000E+00         0.00000E+00        -0.29525E+08
 
   -0.34538E+08         0.14532E+07         0.00000E+00
    0.14532E+07        -0.57003E+08         0.00000E+00
    0.00000E+00         0.00000E+00        -0.29200E+08
 
   -0.32217E+08         0.26172E+07         0.00000E+00
    0.26172E+07        -0.57743E+08         0.00000E+00
    0.00000E+00         0.00000E+00        -0.28880E+08
 
   -0.29706E+08         0.44245E+07         0.00000E+00
    0.44245E+07        -0.58744E+08         0.00000E+00
    0.00000E+00         0.00000E+00        -0.28575E+08
 
   -0.62046E+08        -0.92443E+06         0.00000E+00
   -0.92443E+06        -0.59961E+08         0.00000E+00
    0.00000E+00         0.00000E+00        -0.33419E+08
 
   -0.57058E+08        -0.16167E+07         0.00000E+00
   -0.16167E+07        -0.59577E+08         0.00000E+00
    0.00000E+00         0.00000E+00        -0.32344E+08
 
   -0.53272E+08        -0.16616E+07         0.00000E+00
   -0.16616E+07        -0.58802E+08         0.00000E+00
    0.00000E+00         0.00000E+00        -0.31430E+08
 
   -0.50390E+08        -0.15478E+07         0.00000E+00
   -0.15478E+07        -0.57926E+08         0.00000E+00
    0.00000E+00         0.00000E+00        -0.30675E+08
 
   -0.48069E+08        -0.13805E+07         0.00000E+00
   -0.13805E+07        -0.57075E+08         0.00000E+00
    0.00000E+00         0.00000E+00        -0.30036E+08
 
   -0.46109E+08        -0.11901E+07         0.00000E+00
   -0.11901E+07        -0.56305E+08         0.00000E+00
    0.00000E+00         0.00000E+00        -0.29485E+08
 
   -0.44376E+08        -0.98653E+06         0.00000E+00
   -0.98653E+06        -0.55642E+08         0.00000E+00
    0.00000E+00         0.00000E+00        -0.28999E+08
 
   -0.42771E+08        -0.77114E+06         0.00000E+00
   -0.77114E+06        -0.55103E+08         0.00000E+00
    0.00000E+00         0.00000E+00        -0.28563E+08
 
   -0.41212E+08        -0.54011E+06         0.00000E+00
   -0.54011E+06        -0.54702E+08         0.00000E+00
    0.00000E+00         0.00000E+00        -0.28165E+08
 
   -0.39624E+08        -0.28478E+06         0.00000E+00
   -0.28478E+06        -0.54457E+08         0.00000E+00
    0.00000E+00         0.00000E+00        -0.27791E+08
 
   -0.37926E+08         0.10436E+05         0.00000E+00
    0.10436E+05        -0.54389E+08         0.00000E+00
    0.00000E+00         0.00000E+00        -0.27433E+08
 
   -0.36020E+08         0.37400E+06         0.00000E+00
    0.37400E+06        -0.54537E+08         0.00000E+00
    0.00000E+00         0.00000E+00        -0.27076E+08
 
   -0.33770E+08         0.86306E+06         0.00000E+00
    0.86306E+06        -0.54964E+08         0.00000E+00
    0.00000E+00         0.00000E+00        -0.26707E+08
 
   -0.30960E+08         0.16189E+07         0.00000E+00
    0.16189E+07        -0.55780E+08         0.00000E+00
    0.00000E+00         0.00000E+00        -0.26306E+08
 
   -0.27537E+08         0.31003E+07         0.00000E+00
    0.31003E+07        -0.57144E+08         0.00000E+00
    0.00000E+00         0.00000E+00        -0.25893E+08
 
   -0.63144E+08        -0.57647E+06         0.00000E+00
   -0.57647E+06        -0.59582E+08         0.00000E+00
    0.00000E+00         0.00000E+00        -0.31556E+08
 
   -0.57129E+08        -0.66585E+06         0.00000E+00
   -0.66585E+06        -0.58518E+08         0.00000E+00
    0.00000E+00         0.00000E+00        -0.30141E+08
 
   -0.53210E+08        -0.61335E+06         0.00000E+00
   -0.61335E+06        -0.57321E+08         0.00000E+00
    0.00000E+00         0.00000E+00        -0.29117E+08
 
   -0.50281E+08        -0.55115E+06         0.00000E+00
   -0.55115E+06        -0.56194E+08         0.00000E+00
    0.00000E+00         0.00000E+00        -0.28305E+08
 
   -0.47942E+08        -0.48288E+06         0.00000E+00
   -0.48288E+06        -0.55182E+08         0.00000E+00
    0.00000E+00         0.00000E+00        -0.27633E+08
 
   -0.45974E+08        -0.41233E+06         0.00000E+00
   -0.41233E+06        -0.54301E+08         0.00000E+00
    0.00000E+00         0.00000E+00        -0.27061E+08
 
   -0.44234E+08        -0.34011E+06         0.00000E+00
   -0.34011E+06        -0.53559E+08         0.00000E+00
    0.00000E+00         0.00000E+00        -0.26563E+08
 
   -0.42621E+08        -0.26550E+06         0.00000E+00
   -0.26550E+06        -0.52960E+08         0.00000E+00
    0.00000E+00         0.00000E+00        -0.26118E+08
 
   -0.41050E+08        -0.18668E+06         0.00000E+00
   -0.18668E+06        -0.52513E+08         0.00000E+00
    0.00000E+00         0.00000E+00        -0.25712E+08
 
   -0.39442E+08        -0.10046E+06         0.00000E+00
   -0.10046E+06        -0.52229E+08         0.00000E+00
    0.00000E+00         0.00000E+00        -0.25332E+08
 
   -0.37710E+08        -0.14861E+04         0.00000E+00
   -0.14861E+04        -0.52130E+08         0.00000E+00
    0.00000E+00         0.00000E+00        -0.24963E+08
 
   -0.35743E+08         0.11973E+06         0.00000E+00
    0.11973E+06        -0.52251E+08         0.00000E+00
    0.00000E+00         0.00000E+00        -0.24592E+08
 
   -0.33373E+08         0.28327E+06         0.00000E+00
    0.28327E+06        -0.52654E+08         0.00000E+00
    0.00000E+00         0.00000E+00        -0.24198E+08
 
   -0.30297E+08         0.53389E+06         0.00000E+00
    0.53389E+06        -0.53471E+08         0.00000E+00
    0.00000E+00         0.00000E+00        -0.23745E+08
 
   -0.25652E+08         0.11575E+07         0.00000E+00
    0.11575E+07        -0.55066E+08         0.00000E+00
    0.00000E+00         0.00000E+00        -0.23135E+08
 
SCALARS stressS double 
LOOKUP_TABLE default
  -54587199.2702650     
  -58050602.3186712     
  -60514256.4988240     
  -62175942.7027562     
  -63448600.7134232     
  -64486158.5159736     
  -65370110.6431097     
  -66150433.2674133     
  -66862608.3179586     
  -67536403.4265210     
  -68202433.4961787     
  -68899941.3068688     
  -69692481.4659340     
  -70702003.1248661     
  -72368262.9533956     
  -54477955.1300871     
  -55841341.1344437     
  -57529995.8890246     
  -58963162.5818347     
  -60137869.0209109     
  -61130313.7899289     
  -61992355.9652955     
  -62761154.5512664     
  -63465215.4280041     
  -64129113.1983354     
  -64777293.1449906     
  -65438331.2618906     
  -66147717.7080645     
  -66964922.5813492     
  -67715693.5208957     
  -54097527.1252631     
  -54920030.8182325     
  -55935496.8073018     
  -57003223.6596218     
  -57986543.0067827     
  -58867438.6403349     
  -59658693.0793197     
  -60377207.3283985     
  -61039365.8780349     
  -61660283.4533645     
  -62253931.7708845     
  -62831910.1509072     
  -63400091.5807857     
  -63915416.6814766     
  -64279751.7393576     
  -54096843.0163533     
  -54470984.9975734     
  -55114201.4086532     
  -55865532.0498331     
  -56637150.9847500     
  -57377158.8691688     
  -58069370.9935992     
  -58712276.6374212     
  -59309560.7800519     
  -59865988.2260844     
  -60384616.3886046     
  -60863294.4481917     
  -61284527.7270234     
  -61607313.3549784     
  -61757759.7026882     
  -54140598.4643358     
  -54304310.5681816     
  -54697811.4437117     
  -55226916.5984022     
  -55815546.5727986     
  -56416062.4611580     
  -57000908.8177945     
  -57556901.2876000     
  -58077947.0816733     
  -58560284.6225738     
  -58998851.5808774     
  -59383032.9833460     
  -59692342.9291605     
  -59892348.7409558     
  -59936893.3172629     
  -54178495.3337920     
  -54248353.9178403     
  -54500440.3091940     
  -54876815.8137784     
  -55325200.5947627     
  -55804956.2206191     
  -56288416.6597627     
  -56757671.6299427     
  -57201020.1400626     
  -57609352.5796924     
  -57972977.6161593     
  -58278819.6230965     
  -58508119.4762773     
  -58636073.5470444     
  -58634689.9089796     
  -54182329.6993032     
  -54227990.7430030     
  -54406636.5376435     
  -54686551.7119595     
  -55033317.0886403     
  -55416564.6539608     
  -55812247.7968583     
  -56202417.6218003     
  -56573478.5213508     
  -56914075.4631698     
  -57213023.0658935     
  -57457619.7235963     
  -57632809.6436726     
  -57721794.2270020     
  -57708839.2234469     
  -54145582.9934693     
  -54204331.9679853     
  -54352949.2504772     
  -54576157.1512727     
  -54853233.9538708     
  -55163088.4290221     
  -55486988.5379947     
  -55809317.7201998     
  -56117152.4109514     
  -56399251.3260338     
  -56644964.4103785     
  -56843438.6188380     
  -56983490.6644345     
  -57054531.2646386     
  -57048796.3964092     
  -54068584.9519430     
  -54159635.6654834     
  -54304273.3459449     
  -54497730.1313998     
  -54729095.3650285     
  -54985067.8625542     
  -55252334.8209516     
  -55518721.1628490     
  -55773433.7526491     
  -56006806.8207240     
  -56209907.8108459     
  -56374323.1586607     
  -56492399.8082930     
  -56558158.8083663     
  -56568984.1479613     
  -53955167.4698184     
  -54086904.5287664     
  -54242182.1398812     
  -54422996.1192438     
  -54625475.1776348     
  -54842548.0800547     
  -55065873.0783303     
  -55287007.7043189     
  -55497970.8790472     
  -55691422.9377083     
  -55860708.5663176     
  -55999987.4430386     
  -56104640.0026560     
  -56172074.8306704     
  -56202970.3429887     
  -53810767.4101611     
  -53984941.2454226     
  -54157738.2674895     
  -54335692.2971715     
  -54520060.4405560     
  -54708715.7351472     
  -54897649.6293612     
  -55082029.8650704     
  -55256868.2078223     
  -55417421.2177733     
  -55559473.5256593     
  -55679649.6075707     
  -55775872.7889133     
  -55848042.6328649     
  -55898935.0636381     
  -53641622.1373284     
  -53855604.9674208     
  -54047388.5166655     
  -54226751.7992960     
  -54398820.4942100     
  -54565424.2764028     
  -54726256.6844458     
  -54879782.4722685     
  -55023905.2482766     
  -55156456.3252397     
  -55275590.1407074     
  -55380173.3542132     
  -55470237.5760227     
  -55547532.6261665     
  -55616172.0014613     
  -53454331.0056803     
  -53702311.1967540     
  -53910547.6788738     
  -54091336.2226201     
  -54252853.1079727     
  -54400153.7950119     
  -54536076.0297097     
  -54662004.4740051     
  -54778492.2376588     
  -54885765.6654336     
  -54984156.4442141     
  -55074508.2907380     
  -55158595.1633022     
  -55239566.4504707     
  -55322405.2046125     
  -53255590.2828054     
  -53529174.6214965     
  -53748177.2738515     
  -53927008.0625099     
  -54076361.9194519     
  -54203981.6121534     
  -54315377.3595219     
  -54414473.4614092     
  -54504171.6167495     
  -54586838.4026324     
  -54664735.6566953     
  -54740415.1717314     
  -54817093.1497382     
  -54899006.5740073     
  -54991735.3403218     
  -53052001.8201195     
  -53340503.3234072     
  -53561939.4655512     
  -53732609.5394042     
  -53865370.6048018     
  -53970247.2991144     
  -54055025.1123815     
  -54125808.0295901     
  -54187529.1777232     
  -54244411.7177734     
  -54300383.2727597     
  -54359448.8204713     
  -54426023.6990423     
  -54505220.7450636     
  -54603074.9643107     
  -52849916.5189277     
  -53140484.3966228     
  -53353685.2925258     
  -53507572.2880671     
  -53616909.2356862     
  -53693682.2577389     
  -53747609.4258375     
  -53786637.3798965     
  -53817413.7700951     
  -53845726.6480233     
  -53876904.1380320     
  -53916168.4211822     
  -53968936.5860737     
  -54041057.2990977     
  -54138967.1584988     
  -52655294.8580932     
  -52932973.2680724     
  -53125133.5552125     
  -53251484.7835829     
  -53328495.8399519     
  -53369842.8643827     
  -53386866.5857434     
  -53389033.4895137     
  -53384389.3350334     
  -53379991.2057771     
  -53382303.7853520     
  -53397545.7251103     
  -53431971.9936753     
  -53492077.6533792     
  -53584707.7100853     
  -52473575.9163317     
  -52721335.4285439     
  -52877651.9752156     
  -52963805.6861552     
  -52997794.0976231     
  -52994734.5207458     
  -52967291.8841728     
  -52926128.5004782     
  -52880361.7838723     
  -52838010.0615084     
  -52806404.4695859     
  -52792545.2356400     
  -52803382.3106720     
  -52846002.7137009     
  -52927709.8793302     
  -52309549.6813310     
  -52508307.3210140     
  -52612081.5265716     
  -52643646.4285801     
  -52622363.5261710     
  -52564545.8319757     
  -52483874.0474431     
  -52391860.1438381     
  -52298337.7119739     
  -52211949.8409287     
  -52140602.8421705     
  -52091855.6512513     
  -52073218.4915553     
  -52092339.5856336     
  -52157065.2506363     
  -52167228.4789452     
  -52295849.9641791     
  -52328557.5185575     
  -52289563.4020010     
  -52199437.7201107     
  -52075431.2938228     
  -51931897.7825234     
  -51780802.6013584     
  -51632283.4761570     
  -51495217.9906990     
  -51377753.3973111     
  -51287758.5437482     
  -51233164.0128927     
  -51222164.3099738     
  -51263265.9933423     
  -52049712.7469460     
  -52084967.1316686     
  -52026280.8117564     
  -51899303.2872260     
  -51725673.2135338     
  -51523290.7582748     
  -51306772.1160777     
  -51088051.0421212     
  -50877062.9092930     
  -50682441.8570793     
  -50512170.0622147     
  -50374128.6914758     
  -50276508.5192849     
  -50228046.0713049     
  -50238064.2605126     
  -51959042.9861797     
  -51875448.1461080     
  -51703178.8306694     
  -51469435.3652113     
  -51196808.8238125     
  -50903497.8115882     
  -50603850.0391566     
  -50309137.1750705     
  -50028440.8486723     
  -49769543.4752671     
  -49539747.8973859     
  -49346571.4499643     
  -49198265.0109122     
  -49104109.6967882     
  -49074454.1852724     
  -51896020.0828397     
  -51665466.7188000     
  -51355362.7692584     
  -50994779.7889409     
  -50607165.0568284     
  -50210531.5231110     
  -49818213.7680648     
  -49439962.7951411     
  -49083148.1235736     
  -48753913.8516691     
  -48458217.9377194     
  -48202717.1638301     
  -47995451.6308549     
  -47846248.5435926     
  -47766771.9525345     
  -51859951.2496388     
  -51450904.4495475     
  -50976218.6498506     
  -50467495.6062706     
  -49948900.1489550     
  -49437475.9727208     
  -48944416.9496415     
  -48476751.1825479     
  -48039009.5313226     
  -47634695.7190659     
  -47267558.1263225     
  -46942714.3627864     
  -46667586.2180638     
  -46452525.9926177     
  -46310921.0646852     
  -51848219.4130133     
  -51224122.2790768     
  -50554831.6738273     
  -49875620.0049440     
  -49210940.3857620     
  -48575391.4486672     
  -47976212.8615971     
  -47416033.0872082     
  -46895135.0587607     
  -46413172.3160993     
  -45970591.4749300     
  -45569988.6276651     
  -45217499.1523896     
  -44923849.6715136     
  -44704753.3349867     
  -51855394.0048328     
  -50971561.9807305     
  -50073147.7883822     
  -49200764.3434911     
  -48377578.5293396     
  -47612671.7977985     
  -46906375.1566045     
  -46254701.9846290     
  -45652142.1885960     
  -45093228.4236241     
  -44573757.9566321     
  -44092403.2793022     
  -43652645.1859804     
  -43265148.6440138     
  -42948665.1249972     
  -51871166.7082314     
  -50668528.1575180     
  -49500713.9984044     
  -48414707.7228473     
  -47427038.7560687     
  -46534789.9550578     
  -45726793.9939099     
  -44990179.3972736     
  -44312338.2209630     
  -43681663.0888935     
  -43088042.1809156     
  -42523821.2640738     
  -41987523.5513718     
  -41487411.9790941     
  -41046725.9631334     
  -51873688.6971380     
  -50266955.9878334     
  -48784749.9021461     
  -47475430.6971711     
  -46331567.6118822     
  -45324962.6432267     
  -44429080.3113724     
  -43620709.1222179     
  -42879714.7603111     
  -42188091.9769076     
  -41529069.2270955     
  -40886837.2249639     
  -40247129.9832672     
  -39613063.3306465     
  -39008303.2377453     
  -51808589.8924708     
  -49659422.0832171     
  -47834695.6795029     
  -46330277.4562556     
  -45060217.8395455     
  -43966338.7308842     
  -43005749.9312598     
  -42145735.5890378     
  -41359638.6074867     
  -40623971.8313935     
  -39915981.2076797     
  -39211003.6086969     
  -38480145.6836576     
  -37682029.6316240     
  -36857763.8549601     
  -51427535.1547069     
  -48595891.1198623     
  -46549064.1439602     
  -44926236.9121151     
  -43585719.6598036     
  -42445399.2528866     
  -41451784.1585229     
  -40566228.7394910     
  -39758161.6315609     
  -39000820.8287025     
  -38267728.7298092     
  -37528542.7337429     
  -36741493.1060207     
  -35837788.5195045     
  -34617559.9883096     
SCALARS 2waySource double 
LOOKUP_TABLE default
 -1.087317764671735E-004
  4.750227702826009E-004
  8.641232376078816E-004
  1.093358981174667E-003
  1.253689055661502E-003
  1.373878437929983E-003
  1.469134581826585E-003
  1.548621229001082E-003
  1.618692918363972E-003
  1.684472758445073E-003
  1.750935933583584E-003
  1.824011820072994E-003
  1.912576444102009E-003
  2.031456680154324E-003
  2.236996851465412E-003
  4.584902184307185E-005
  1.987196286318567E-004
  4.211223810627691E-004
  6.017554407723520E-004
  7.384727010645781E-004
  8.462430053304748E-004
  9.342973357249738E-004
  1.009134033515992E-003
  1.075623832584794E-003
  1.137830883774218E-003
  1.199618787388197E-003
  1.265275070480230E-003
  1.340075265490842E-003
  1.433426760227370E-003
  1.550738074688687E-003
  5.373241820989778E-005
  9.898051134027584E-005
  1.970320199998972E-004
  3.114737499144647E-004
  4.128761904043448E-004
  4.990732971172898E-004
  5.728537658524710E-004
  6.372667346681712E-004
  6.950980163015651E-004
  7.488290997081349E-004
  8.007285327282713E-004
  8.528776403185063E-004
  9.072616292563947E-004
  9.640382539424683E-004
  1.017404206171946E-003
  1.038635404763890E-004
  7.101152098573525E-005
  9.909980539253152E-005
  1.544643872261535E-004
  2.176942762699617E-004
  2.784737287448212E-004
  3.341793371024956E-004
  3.847144306890085E-004
  4.307689730599639E-004
  4.731996782871969E-004
  5.127180189551785E-004
  5.496261331045399E-004
  5.831838610118403E-004
  6.102969969549496E-004
  6.219085905176567E-004
  1.518022636146652E-004
  8.262507428139561E-005
  6.499414846213399E-005
  7.895061879218116E-005
  1.086767603078289E-004
  1.445054254778489E-004
  1.812376371118355E-004
  2.165862287550867E-004
  2.495718448858083E-004
  2.796983185340287E-004
  3.064613128129248E-004
  3.289047683227771E-004
  3.450302208301228E-004
  3.507265352106338E-004
  3.385313735530036E-004
  1.914465933287787E-004
  1.075760222809185E-004
  6.415780320680103E-005
  4.979885807957671E-005
  5.380767774314657E-005
  6.801638430964946E-005
  8.705709697447465E-005
  1.076287387120416E-004
  1.277101395058849E-004
  1.458783204346593E-004
  1.608174876789475E-004
  1.708959946727343E-004
  1.736911118558008E-004
  1.654710330719510E-004
  1.408725406711985E-004
  2.215316180824706E-004
  1.346984210952591E-004
  7.801635921395726E-005
  4.579483627580901E-005
  3.124857099790954E-005
  2.829930082815560E-005
  3.221560647991168E-005
  3.957999267622614E-005
  4.792876358504608E-005
  5.534736923225928E-005
  6.009909740217137E-005
  6.029777391941621E-005
  5.361568554925228E-005
  3.708094365434424E-005
  7.157597288340111E-006
  2.429060317505328E-004
  1.588550317583891E-004
  9.665166313799084E-005
  5.397738105058599E-005
  2.688016494146923E-005
  1.113495759598392E-005
  2.973465218648849E-006
 -6.911492826923832E-007
 -2.329458365552547E-006
 -3.990921190358449E-006
 -7.526391274257366E-006
 -1.479196840224720E-005
 -2.779753480307705E-005
 -4.873498421727897E-005
 -7.977723237852628E-005
  2.567691880618085E-004
  1.780784377761175E-004
  1.148958682851024E-004
  6.682541513886503E-005
  3.180205615607203E-005
  7.069794186301320E-006
 -1.018666860938197E-005
 -2.253021788694125E-005
 -3.218975736791549E-005
 -4.110772088413859E-005
 -5.103979412419682E-005
 -6.365174950922033E-005
 -8.056755598611850E-005
 -1.033161051881118E-004
 -1.331156022203497E-004
  2.643181608561828E-004
  1.918920587738836E-004
  1.302922256673923E-004
  8.015274298029956E-005
  4.061140443484794E-005
  9.988532414603155E-006
 -1.371217398276792E-005
 -3.249820517110200E-005
 -4.824322373792218E-005
 -6.264821048482879E-005
 -7.725489607554118E-005
 -9.346567836790665E-005
 -1.125296270874892E-004
 -1.354563269635897E-004
 -1.628244585575246E-004
  2.666363533067301E-004
  2.005352761491654E-004
  1.418770902367507E-004
  9.179859135070799E-005
  5.017014477276354E-005
  1.606377094191713E-005
 -1.186747519552919E-005
 -3.512405753130686E-005
 -5.519996593190374E-005
 -7.350048574215007E-005
 -9.130374999938024E-005
 -1.097326709170801E-004
 -1.297069429468378E-004
 -1.518491882189109E-004
 -1.763273943773512E-004
  2.646844459238190E-004
  2.045696824438629E-004
  1.494988794718926E-004
  1.008052591618181E-004
  5.878113900891737E-005
  2.300257676650690E-005
 -7.388497757714257E-006
 -3.346680902831418E-005
 -5.637251521206764E-005
 -7.721344177288435E-005
 -9.700059164436527E-005
 -1.165947839305005E-004
 -1.366437025251876E-004
 -1.574927378060887E-004
 -1.790603147474127E-004
  2.593117046867898E-004
  2.046826039052915E-004
  1.534326437341232E-004
  1.069167812280005E-004
  6.564798130585128E-005
  2.952586955568074E-005
 -1.954504759054455E-006
 -2.952986059614222E-005
 -5.403629400326932E-005
 -7.631209551851675E-005
 -9.712452323069910E-005
 -1.171068320401553E-004
 -1.366924080583263E-004
 -1.560359698895544E-004
 -1.749173999187697E-004
  2.512687706942414E-004
  2.015876063290705E-004
  1.541637712872674E-004
  1.102757594010196E-004
  7.052814104251623E-005
  3.501578576928265E-005
  3.478645480793020E-006
 -2.456330923806183E-005
 -4.969932778621260E-005
 -7.253968408397124E-005
 -9.364417250712236E-005
 -1.134593697977195E-004
 -1.322568843135804E-004
 -1.500669793135986E-004
 -1.666059234305187E-004
  2.412168117139826E-004
  1.959746294502413E-004
  1.522670120853104E-004
  1.112417051715125E-004
  7.351266838349368E-005
  3.928015911228825E-005
  8.445831555665210E-006
 -1.928322196326983E-005
 -4.430473788994086E-005
 -6.704575886376361E-005
 -8.789852244373562E-005
 -1.071635201679321E-004
 -1.249955066260141E-004
 -1.413496844394492E-004
 -1.559279759112740E-004
  2.297336102707127E-004
  1.884857131793563E-004
  1.483394327715157E-004
  1.102827263750959E-004
  7.488706017819849E-005
  4.239604883255614E-005
  1.281085764455140E-005
 -1.403072703345856E-005
 -3.838364650600000E-005
 -6.053374481241719E-005
 -8.074363917879378E-005
 -9.920427449832126E-005
 -1.159901693570556E-004
 -1.310173121532079E-004
 -1.440044249726666E-004
  2.173182432692200E-004
  1.797042121359055E-004
  1.429637474789545E-004
  1.079109965849650E-004
  7.504314077220591E-005
  4.460535987986755E-005
  1.665326964825993E-005
 -8.888370822648042E-006
 -3.217182625517070E-005
 -5.337790379389346E-005
 -7.267255150363719E-005
 -9.016781520714137E-005
 -1.058864893897340E-004
 -1.197304186740457E-004
 -1.314535196294598E-004
  2.043957875702436E-004
  1.701512530419468E-004
  1.366886141687258E-004
  1.046439604431981E-004
  7.442240638187315E-005
  4.624403965491030E-005
  2.018781577283198E-005
 -3.766684463709833E-006
 -2.570011470087212E-005
 -4.571723776382597E-005
 -6.391397019171388E-005
 -8.034759916819868E-005
 -9.501026932579425E-005
 -1.078062346329082E-004
 -1.185340352648162E-004
  1.913229028605873E-004
  1.602861275792647E-004
  1.300182118648161E-004
  1.009803264223776E-004
  7.347833110814317E-005
  4.769243151642255E-005
  2.370536711166946E-005
  1.529673129234058E-006
 -1.886603822387216E-005
 -3.753208449145746E-005
 -5.451438573421945E-005
 -6.983322099723185E-005
 -8.346460190461706E-005
 -9.532503517202832E-005
 -1.052607918759671E-004
  1.783946090004631E-004
  1.505087860565887E-004
  1.234066655733167E-004
  9.738422231807176E-005
  7.264972192533673E-005
  4.933858701830105E-005
  2.752762974206788E-005
  7.249551689304735E-006
 -1.149209678650520E-005
 -2.870777220195651E-005
 -4.440715153762069E-005
 -5.858540028963211E-005
 -7.121130519996557E-005
 -8.221819611283987E-005
 -9.149868834628680E-005
  1.658522004773674E-004
  1.411633452042022E-004
  1.172547208755464E-004
  9.427348260793416E-005
  7.234011804578693E-005
  5.154916230087829E-005
  3.197045134198659E-005
  1.365207862925862E-005
 -3.374648526541713E-006
 -1.908860899473756E-005
 -3.347137891752903E-005
 -4.649980830679017E-005
 -5.813970310067825E-005
 -6.834165761681135E-005
 -7.704000263697260E-005
  1.538920290515206E-004
  1.325418956228747E-004
  1.119070589350997E-004
  9.200951330643869E-005
  7.289997834830562E-005
  5.464431723689652E-005
  3.731218107922830E-005
  2.096931896079322E-005
  5.673780127592336E-006
 -8.524641561440338E-006
 -2.158282800447449E-005
 -3.346189427430288E-005
 -4.412515532327243E-005
 -5.353770480579726E-005
 -6.166856602596565E-005
  1.426748018618662E-004
  1.248880295798960E-004
  1.076490512613966E-004
  9.088686118372864E-005
  7.460929784855276E-005
  5.887405166075383E-005
  4.376456349398500E-005
  2.937251628921937E-005
  1.578671251968966E-005
  3.086999396410394E-006
 -8.658489764839775E-006
 -1.939442687068309E-005
 -2.907924601417867E-005
 -3.768731867093297E-005
 -4.521351434701650E-005
  1.323350439252308E-004
  1.183994094393335E-004
  1.047016362181084E-004
  9.112060842447555E-005
  7.765848723104389E-005
  6.439380744135108E-005
  5.144417590418480E-005
  3.894016668444019E-005
  2.700893403950618E-005
  1.576475077069756E-005
  5.303763728081766E-006
 -4.299199437324028E-006
 -1.299320745632234E-005
 -2.075490789529081E-005
 -2.759465641764059E-005
  1.229904193565351E-004
  1.132282299258018E-004
  1.032122105280602E-004
  9.282895032707001E-005
  8.212486981788494E-005
  7.123704004972872E-005
  6.034257219978883E-005
  4.962648494442458E-005
  3.926346489972547E-005
  2.940809507722785E-005
  2.018913955807813E-005
  1.170572644184884E-005
  4.023846005753517E-006
 -2.827017352330942E-006
 -8.861170409529380E-006
  1.147506482928481E-004
  1.094772384744070E-004
  1.032375502408520E-004
  9.600654889865723E-005
  8.794098853606242E-005
  7.928194382481511E-005
  7.029321241779914E-005
  6.122895641793165E-005
  5.231933769070891E-005
  4.376470129510245E-005
  3.573222513788445E-005
  2.835120936542122E-005
  2.171022939645845E-005
  1.585278722471743E-005
  1.077475197617774E-005
  1.077256946653178E-004
  1.071861868062266E-004
  1.047108679154767E-004
  1.004811141180772E-004
  9.484921811959625E-005
  8.820891404357975E-005
  8.093312822717612E-005
  7.335364752397601E-005
  6.575931797649240E-005
  5.839889050550852E-005
  5.148317260641126E-005
  4.518310544206281E-005
  3.961561406370482E-005
  3.485142864537904E-005
  3.090548409798991E-005
  1.020324060266000E-004
  1.062966512767215E-004
  1.073772887502082E-004
  1.058408575615932E-004
  1.023358798705973E-004
  9.744561842238580E-005
  9.165706473267082E-005
  8.537645089717923E-005
  7.894651462765959E-005
  7.266124614979899E-005
  6.677694325296169E-005
  6.151711310464701E-005
  5.706668393937687E-005
  5.349887943402904E-005
  5.089683547178485E-005
  9.779653849952516E-005
  1.065645643711161E-004
  1.106648987782784E-004
  1.113163977934114E-004
  1.095424546350688E-004
  1.060972433198114E-004
  1.015611590941012E-004
  9.639696673687976E-005
  9.098700650905480E-005
  8.565932324327008E-005
  8.070821567880877E-005
  7.641242296819901E-005
  7.304802108882079E-005
  7.088797002604845E-005
  6.978624055684807E-005
  9.511922696749338E-005
  1.073156747791000E-004
  1.134332053341653E-004
  1.156304051174874E-004
  1.151551707436965E-004
  1.128593944406525E-004
  1.093709295702874E-004
  1.051787296993899E-004
  1.006820357291926E-004
  9.622356614153275E-005
  9.211647086551232E-005
  8.867253793749299E-005
  8.624087390117729E-005
  8.528417541387400E-005
  8.643562924501489E-005
SCALARS poroP double 
LOOKUP_TABLE default
  5.058779628557038E-006
  0.000000000000000E+000
  0.000000000000000E+000
  0.000000000000000E+000
  0.000000000000000E+000
  0.000000000000000E+000
  0.000000000000000E+000
  0.000000000000000E+000
  0.000000000000000E+000
  0.000000000000000E+000
  0.000000000000000E+000
  0.000000000000000E+000
  0.000000000000000E+000
  0.000000000000000E+000
  0.000000000000000E+000
  0.000000000000000E+000
  0.000000000000000E+000
  0.000000000000000E+000
  0.000000000000000E+000
  0.000000000000000E+000
  0.000000000000000E+000
  0.000000000000000E+000
  0.000000000000000E+000
  0.000000000000000E+000
  0.000000000000000E+000
  0.000000000000000E+000
  0.000000000000000E+000
  0.000000000000000E+000
  0.000000000000000E+000
  0.000000000000000E+000
  0.000000000000000E+000
  0.000000000000000E+000
  0.000000000000000E+000
  0.000000000000000E+000
  0.000000000000000E+000
  0.000000000000000E+000
  0.000000000000000E+000
  0.000000000000000E+000
  0.000000000000000E+000
  0.000000000000000E+000
  0.000000000000000E+000
  0.000000000000000E+000
  0.000000000000000E+000
  0.000000000000000E+000
  0.000000000000000E+000
  0.000000000000000E+000
  0.000000000000000E+000
  0.000000000000000E+000
  0.000000000000000E+000
  0.000000000000000E+000
  0.000000000000000E+000
  0.000000000000000E+000
  0.000000000000000E+000
  0.000000000000000E+000
  0.000000000000000E+000
  0.000000000000000E+000
  0.000000000000000E+000
  0.000000000000000E+000
  0.000000000000000E+000
  0.000000000000000E+000
  0.000000000000000E+000
  0.000000000000000E+000
  0.000000000000000E+000
  0.000000000000000E+000
  0.000000000000000E+000
  0.000000000000000E+000
  0.000000000000000E+000
  0.000000000000000E+000
  0.000000000000000E+000
  0.000000000000000E+000
  0.000000000000000E+000
  0.000000000000000E+000
  0.000000000000000E+000
  0.000000000000000E+000
  0.000000000000000E+000
  0.000000000000000E+000
  0.000000000000000E+000
  0.000000000000000E+000
  0.000000000000000E+000
  0.000000000000000E+000
  0.000000000000000E+000
  0.000000000000000E+000
  0.000000000000000E+000
  0.000000000000000E+000
  0.000000000000000E+000
  0.000000000000000E+000
  0.000000000000000E+000
  0.000000000000000E+000
  0.000000000000000E+000
  0.000000000000000E+000
  0.000000000000000E+000
  0.000000000000000E+000
  0.000000000000000E+000
  0.000000000000000E+000
  0.000000000000000E+000
  0.000000000000000E+000
  0.000000000000000E+000
  0.000000000000000E+000
  0.000000000000000E+000
  0.000000000000000E+000
  0.000000000000000E+000
  0.000000000000000E+000
  0.000000000000000E+000
  0.000000000000000E+000
  0.000000000000000E+000
  0.000000000000000E+000
  0.000000000000000E+000
  0.000000000000000E+000
  0.000000000000000E+000
  0.000000000000000E+000
  0.000000000000000E+000
  0.000000000000000E+000
  0.000000000000000E+000
  0.000000000000000E+000
  0.000000000000000E+000
  0.000000000000000E+000
  0.000000000000000E+000
  0.000000000000000E+000
  0.000000000000000E+000
  0.000000000000000E+000
  0.000000000000000E+000
  0.000000000000000E+000
  0.000000000000000E+000
  0.000000000000000E+000
  0.000000000000000E+000
  0.000000000000000E+000
  0.000000000000000E+000
  0.000000000000000E+000
  0.000000000000000E+000
  0.000000000000000E+000
  0.000000000000000E+000
  0.000000000000000E+000
  0.000000000000000E+000
  0.000000000000000E+000
  0.000000000000000E+000
  0.000000000000000E+000
  0.000000000000000E+000
  0.000000000000000E+000
  0.000000000000000E+000
  0.000000000000000E+000
  0.000000000000000E+000
  0.000000000000000E+000
  0.000000000000000E+000
  0.000000000000000E+000
  0.000000000000000E+000
  0.000000000000000E+000
  0.000000000000000E+000
  0.000000000000000E+000
  0.000000000000000E+000
  0.000000000000000E+000
  0.000000000000000E+000
  0.000000000000000E+000
  0.000000000000000E+000
  0.000000000000000E+000
  0.000000000000000E+000
  0.000000000000000E+000
  0.000000000000000E+000
  0.000000000000000E+000
  0.000000000000000E+000
  0.000000000000000E+000
  0.000000000000000E+000
  0.000000000000000E+000
  0.000000000000000E+000
  0.000000000000000E+000
  0.000000000000000E+000
  0.000000000000000E+000
  0.000000000000000E+000
  0.000000000000000E+000
  0.000000000000000E+000
  0.000000000000000E+000
  0.000000000000000E+000
  0.000000000000000E+000
  0.000000000000000E+000
  0.000000000000000E+000
  0.000000000000000E+000
  0.000000000000000E+000
  0.000000000000000E+000
  0.000000000000000E+000
  0.000000000000000E+000
  0.000000000000000E+000
  0.000000000000000E+000
  0.000000000000000E+000
  0.000000000000000E+000
  0.000000000000000E+000
  0.000000000000000E+000
  0.000000000000000E+000
  0.000000000000000E+000
  0.000000000000000E+000
  0.000000000000000E+000
  0.000000000000000E+000
  0.000000000000000E+000
  0.000000000000000E+000
  0.000000000000000E+000
  0.000000000000000E+000
  0.000000000000000E+000
  0.000000000000000E+000
  0.000000000000000E+000
  0.000000000000000E+000
  0.000000000000000E+000
  0.000000000000000E+000
  0.000000000000000E+000
  0.000000000000000E+000
  0.000000000000000E+000
  0.000000000000000E+000
  0.000000000000000E+000
  0.000000000000000E+000
  0.000000000000000E+000
  0.000000000000000E+000
  0.000000000000000E+000
  0.000000000000000E+000
  0.000000000000000E+000
  0.000000000000000E+000
  0.000000000000000E+000
  0.000000000000000E+000
  0.000000000000000E+000
  0.000000000000000E+000
  0.000000000000000E+000
  0.000000000000000E+000
  0.000000000000000E+000
  0.000000000000000E+000
  0.000000000000000E+000
  0.000000000000000E+000
  0.000000000000000E+000
  0.000000000000000E+000
  0.000000000000000E+000
  0.000000000000000E+000
  0.000000000000000E+000
  0.000000000000000E+000
  0.000000000000000E+000
  0.000000000000000E+000
  0.000000000000000E+000
  0.000000000000000E+000
  0.000000000000000E+000
  0.000000000000000E+000
  0.000000000000000E+000
  0.000000000000000E+000
  0.000000000000000E+000
  0.000000000000000E+000
  0.000000000000000E+000
  0.000000000000000E+000
  0.000000000000000E+000
  0.000000000000000E+000
  0.000000000000000E+000
  0.000000000000000E+000
  0.000000000000000E+000
  0.000000000000000E+000
  0.000000000000000E+000
  0.000000000000000E+000
  0.000000000000000E+000
  0.000000000000000E+000
  0.000000000000000E+000
  0.000000000000000E+000
  0.000000000000000E+000
  0.000000000000000E+000
  0.000000000000000E+000
  0.000000000000000E+000
  0.000000000000000E+000
  0.000000000000000E+000
  0.000000000000000E+000
  0.000000000000000E+000
  0.000000000000000E+000
  0.000000000000000E+000
  0.000000000000000E+000
  0.000000000000000E+000
  0.000000000000000E+000
  0.000000000000000E+000
  0.000000000000000E+000
  0.000000000000000E+000
  0.000000000000000E+000
  0.000000000000000E+000
  0.000000000000000E+000
  0.000000000000000E+000
  0.000000000000000E+000
  0.000000000000000E+000
  0.000000000000000E+000
  0.000000000000000E+000
  0.000000000000000E+000
  0.000000000000000E+000
  0.000000000000000E+000
  0.000000000000000E+000
  0.000000000000000E+000
  0.000000000000000E+000
  0.000000000000000E+000
  0.000000000000000E+000
  0.000000000000000E+000
  0.000000000000000E+000
  0.000000000000000E+000
  0.000000000000000E+000
  0.000000000000000E+000
  0.000000000000000E+000
  0.000000000000000E+000
  0.000000000000000E+000
  0.000000000000000E+000
  0.000000000000000E+000
  0.000000000000000E+000
  0.000000000000000E+000
  0.000000000000000E+000
  0.000000000000000E+000
  0.000000000000000E+000
  0.000000000000000E+000
  0.000000000000000E+000
  0.000000000000000E+000
  0.000000000000000E+000
  0.000000000000000E+000
  0.000000000000000E+000
  0.000000000000000E+000
  0.000000000000000E+000
  0.000000000000000E+000
  0.000000000000000E+000
  0.000000000000000E+000
  0.000000000000000E+000
  0.000000000000000E+000
  0.000000000000000E+000
  0.000000000000000E+000
  0.000000000000000E+000
  0.000000000000000E+000
  0.000000000000000E+000
  0.000000000000000E+000
  0.000000000000000E+000
  0.000000000000000E+000
  0.000000000000000E+000
  0.000000000000000E+000
  0.000000000000000E+000
  0.000000000000000E+000
  0.000000000000000E+000
  0.000000000000000E+000
  0.000000000000000E+000
  0.000000000000000E+000
  0.000000000000000E+000
  0.000000000000000E+000
  0.000000000000000E+000
  0.000000000000000E+000
  0.000000000000000E+000
  0.000000000000000E+000
  0.000000000000000E+000
  0.000000000000000E+000
  0.000000000000000E+000
  0.000000000000000E+000
  0.000000000000000E+000
  0.000000000000000E+000
  0.000000000000000E+000
  0.000000000000000E+000
  0.000000000000000E+000
  0.000000000000000E+000
  0.000000000000000E+000
  0.000000000000000E+000
  0.000000000000000E+000
  0.000000000000000E+000
  0.000000000000000E+000
  0.000000000000000E+000
  0.000000000000000E+000
  0.000000000000000E+000
  0.000000000000000E+000
  0.000000000000000E+000
  0.000000000000000E+000
  0.000000000000000E+000
  0.000000000000000E+000
  0.000000000000000E+000
  0.000000000000000E+000
  0.000000000000000E+000
  0.000000000000000E+000
  0.000000000000000E+000
  0.000000000000000E+000
  0.000000000000000E+000
  0.000000000000000E+000
  0.000000000000000E+000
  0.000000000000000E+000
  0.000000000000000E+000
  0.000000000000000E+000
  0.000000000000000E+000
  0.000000000000000E+000
  0.000000000000000E+000
  0.000000000000000E+000
  0.000000000000000E+000
  0.000000000000000E+000
  0.000000000000000E+000
  0.000000000000000E+000
  0.000000000000000E+000
  0.000000000000000E+000
  0.000000000000000E+000
  0.000000000000000E+000
  0.000000000000000E+000
  0.000000000000000E+000
  0.000000000000000E+000
  0.000000000000000E+000
  0.000000000000000E+000
  0.000000000000000E+000
  0.000000000000000E+000
  0.000000000000000E+000
  0.000000000000000E+000
  0.000000000000000E+000
  0.000000000000000E+000
  0.000000000000000E+000
  0.000000000000000E+000
  0.000000000000000E+000
  0.000000000000000E+000
  0.000000000000000E+000
  0.000000000000000E+000
  0.000000000000000E+000
  0.000000000000000E+000
  0.000000000000000E+000
  0.000000000000000E+000
  0.000000000000000E+000
  0.000000000000000E+000
  0.000000000000000E+000
  0.000000000000000E+000
  0.000000000000000E+000
  0.000000000000000E+000
  0.000000000000000E+000
  0.000000000000000E+000
  0.000000000000000E+000
  0.000000000000000E+000
  0.000000000000000E+000
  0.000000000000000E+000
  0.000000000000000E+000
  0.000000000000000E+000
  0.000000000000000E+000
  0.000000000000000E+000
  0.000000000000000E+000
  0.000000000000000E+000
  0.000000000000000E+000
  0.000000000000000E+000
  0.000000000000000E+000
  0.000000000000000E+000
  0.000000000000000E+000
  0.000000000000000E+000
  0.000000000000000E+000
  0.000000000000000E+000
  0.000000000000000E+000
  0.000000000000000E+000
  0.000000000000000E+000
  0.000000000000000E+000
  0.000000000000000E+000
  0.000000000000000E+000
  0.000000000000000E+000
  0.000000000000000E+000
  0.000000000000000E+000
  0.000000000000000E+000
  0.000000000000000E+000
  0.000000000000000E+000
  0.000000000000000E+000
  0.000000000000000E+000
  0.000000000000000E+000
  0.000000000000000E+000
  0.000000000000000E+000
  0.000000000000000E+000
  0.000000000000000E+000
  0.000000000000000E+000
  0.000000000000000E+000
  0.000000000000000E+000
SCALARS elementIsPlast double 
LOOKUP_TABLE default
   1.00000000000000     
  0.000000000000000E+000
  0.000000000000000E+000
  0.000000000000000E+000
  0.000000000000000E+000
  0.000000000000000E+000
  0.000000000000000E+000
  0.000000000000000E+000
  0.000000000000000E+000
  0.000000000000000E+000
  0.000000000000000E+000
  0.000000000000000E+000
  0.000000000000000E+000
  0.000000000000000E+000
  0.000000000000000E+000
  0.000000000000000E+000
  0.000000000000000E+000
  0.000000000000000E+000
  0.000000000000000E+000
  0.000000000000000E+000
  0.000000000000000E+000
  0.000000000000000E+000
  0.000000000000000E+000
  0.000000000000000E+000
  0.000000000000000E+000
  0.000000000000000E+000
  0.000000000000000E+000
  0.000000000000000E+000
  0.000000000000000E+000
  0.000000000000000E+000
  0.000000000000000E+000
  0.000000000000000E+000
  0.000000000000000E+000
  0.000000000000000E+000
  0.000000000000000E+000
  0.000000000000000E+000
  0.000000000000000E+000
  0.000000000000000E+000
  0.000000000000000E+000
  0.000000000000000E+000
  0.000000000000000E+000
  0.000000000000000E+000
  0.000000000000000E+000
  0.000000000000000E+000
  0.000000000000000E+000
  0.000000000000000E+000
  0.000000000000000E+000
  0.000000000000000E+000
  0.000000000000000E+000
  0.000000000000000E+000
  0.000000000000000E+000
  0.000000000000000E+000
  0.000000000000000E+000
  0.000000000000000E+000
  0.000000000000000E+000
  0.000000000000000E+000
  0.000000000000000E+000
  0.000000000000000E+000
  0.000000000000000E+000
  0.000000000000000E+000
  0.000000000000000E+000
  0.000000000000000E+000
  0.000000000000000E+000
  0.000000000000000E+000
  0.000000000000000E+000
  0.000000000000000E+000
  0.000000000000000E+000
  0.000000000000000E+000
  0.000000000000000E+000
  0.000000000000000E+000
  0.000000000000000E+000
  0.000000000000000E+000
  0.000000000000000E+000
  0.000000000000000E+000
  0.000000000000000E+000
  0.000000000000000E+000
  0.000000000000000E+000
  0.000000000000000E+000
  0.000000000000000E+000
  0.000000000000000E+000
  0.000000000000000E+000
  0.000000000000000E+000
  0.000000000000000E+000
  0.000000000000000E+000
  0.000000000000000E+000
  0.000000000000000E+000
  0.000000000000000E+000
  0.000000000000000E+000
  0.000000000000000E+000
  0.000000000000000E+000
  0.000000000000000E+000
  0.000000000000000E+000
  0.000000000000000E+000
  0.000000000000000E+000
  0.000000000000000E+000
  0.000000000000000E+000
  0.000000000000000E+000
  0.000000000000000E+000
  0.000000000000000E+000
  0.000000000000000E+000
  0.000000000000000E+000
  0.000000000000000E+000
  0.000000000000000E+000
  0.000000000000000E+000
  0.000000000000000E+000
  0.000000000000000E+000
  0.000000000000000E+000
  0.000000000000000E+000
  0.000000000000000E+000
  0.000000000000000E+000
  0.000000000000000E+000
  0.000000000000000E+000
  0.000000000000000E+000
  0.000000000000000E+000
  0.000000000000000E+000
  0.000000000000000E+000
  0.000000000000000E+000
  0.000000000000000E+000
  0.000000000000000E+000
  0.000000000000000E+000
  0.000000000000000E+000
  0.000000000000000E+000
  0.000000000000000E+000
  0.000000000000000E+000
  0.000000000000000E+000
  0.000000000000000E+000
  0.000000000000000E+000
  0.000000000000000E+000
  0.000000000000000E+000
  0.000000000000000E+000
  0.000000000000000E+000
  0.000000000000000E+000
  0.000000000000000E+000
  0.000000000000000E+000
  0.000000000000000E+000
  0.000000000000000E+000
  0.000000000000000E+000
  0.000000000000000E+000
  0.000000000000000E+000
  0.000000000000000E+000
  0.000000000000000E+000
  0.000000000000000E+000
  0.000000000000000E+000
  0.000000000000000E+000
  0.000000000000000E+000
  0.000000000000000E+000
  0.000000000000000E+000
  0.000000000000000E+000
  0.000000000000000E+000
  0.000000000000000E+000
  0.000000000000000E+000
  0.000000000000000E+000
  0.000000000000000E+000
  0.000000000000000E+000
  0.000000000000000E+000
  0.000000000000000E+000
  0.000000000000000E+000
  0.000000000000000E+000
  0.000000000000000E+000
  0.000000000000000E+000
  0.000000000000000E+000
  0.000000000000000E+000
  0.000000000000000E+000
  0.000000000000000E+000
  0.000000000000000E+000
  0.000000000000000E+000
  0.000000000000000E+000
  0.000000000000000E+000
  0.000000000000000E+000
  0.000000000000000E+000
  0.000000000000000E+000
  0.000000000000000E+000
  0.000000000000000E+000
  0.000000000000000E+000
  0.000000000000000E+000
  0.000000000000000E+000
  0.000000000000000E+000
  0.000000000000000E+000
  0.000000000000000E+000
  0.000000000000000E+000
  0.000000000000000E+000
  0.000000000000000E+000
  0.000000000000000E+000
  0.000000000000000E+000
  0.000000000000000E+000
  0.000000000000000E+000
  0.000000000000000E+000
  0.000000000000000E+000
  0.000000000000000E+000
  0.000000000000000E+000
  0.000000000000000E+000
  0.000000000000000E+000
  0.000000000000000E+000
  0.000000000000000E+000
  0.000000000000000E+000
  0.000000000000000E+000
  0.000000000000000E+000
  0.000000000000000E+000
  0.000000000000000E+000
  0.000000000000000E+000
  0.000000000000000E+000
  0.000000000000000E+000
  0.000000000000000E+000
  0.000000000000000E+000
  0.000000000000000E+000
  0.000000000000000E+000
  0.000000000000000E+000
  0.000000000000000E+000
  0.000000000000000E+000
  0.000000000000000E+000
  0.000000000000000E+000
  0.000000000000000E+000
  0.000000000000000E+000
  0.000000000000000E+000
  0.000000000000000E+000
  0.000000000000000E+000
  0.000000000000000E+000
  0.000000000000000E+000
  0.000000000000000E+000
  0.000000000000000E+000
  0.000000000000000E+000
  0.000000000000000E+000
  0.000000000000000E+000
  0.000000000000000E+000
  0.000000000000000E+000
  0.000000000000000E+000
  0.000000000000000E+000
  0.000000000000000E+000
  0.000000000000000E+000
  0.000000000000000E+000
  0.000000000000000E+000
  0.000000000000000E+000
  0.000000000000000E+000
  0.000000000000000E+000
  0.000000000000000E+000
  0.000000000000000E+000
  0.000000000000000E+000
  0.000000000000000E+000
  0.000000000000000E+000
  0.000000000000000E+000
  0.000000000000000E+000
  0.000000000000000E+000
  0.000000000000000E+000
  0.000000000000000E+000
  0.000000000000000E+000
  0.000000000000000E+000
  0.000000000000000E+000
  0.000000000000000E+000
  0.000000000000000E+000
  0.000000000000000E+000
  0.000000000000000E+000
  0.000000000000000E+000
  0.000000000000000E+000
  0.000000000000000E+000
  0.000000000000000E+000
  0.000000000000000E+000
  0.000000000000000E+000
  0.000000000000000E+000
  0.000000000000000E+000
  0.000000000000000E+000
  0.000000000000000E+000
  0.000000000000000E+000
  0.000000000000000E+000
  0.000000000000000E+000
  0.000000000000000E+000
  0.000000000000000E+000
  0.000000000000000E+000
  0.000000000000000E+000
  0.000000000000000E+000
  0.000000000000000E+000
  0.000000000000000E+000
  0.000000000000000E+000
  0.000000000000000E+000
  0.000000000000000E+000
  0.000000000000000E+000
  0.000000000000000E+000
  0.000000000000000E+000
  0.000000000000000E+000
  0.000000000000000E+000
  0.000000000000000E+000
  0.000000000000000E+000
  0.000000000000000E+000
  0.000000000000000E+000
  0.000000000000000E+000
  0.000000000000000E+000
  0.000000000000000E+000
  0.000000000000000E+000
  0.000000000000000E+000
  0.000000000000000E+000
  0.000000000000000E+000
  0.000000000000000E+000
  0.000000000000000E+000
  0.000000000000000E+000
  0.000000000000000E+000
  0.000000000000000E+000
  0.000000000000000E+000
  0.000000000000000E+000
  0.000000000000000E+000
  0.000000000000000E+000
  0.000000000000000E+000
  0.000000000000000E+000
  0.000000000000000E+000
  0.000000000000000E+000
  0.000000000000000E+000
  0.000000000000000E+000
  0.000000000000000E+000
  0.000000000000000E+000
  0.000000000000000E+000
  0.000000000000000E+000
  0.000000000000000E+000
  0.000000000000000E+000
  0.000000000000000E+000
  0.000000000000000E+000
  0.000000000000000E+000
  0.000000000000000E+000
  0.000000000000000E+000
  0.000000000000000E+000
  0.000000000000000E+000
  0.000000000000000E+000
  0.000000000000000E+000
  0.000000000000000E+000
  0.000000000000000E+000
  0.000000000000000E+000
  0.000000000000000E+000
  0.000000000000000E+000
  0.000000000000000E+000
  0.000000000000000E+000
  0.000000000000000E+000
  0.000000000000000E+000
  0.000000000000000E+000
  0.000000000000000E+000
  0.000000000000000E+000
  0.000000000000000E+000
  0.000000000000000E+000
  0.000000000000000E+000
  0.000000000000000E+000
  0.000000000000000E+000
  0.000000000000000E+000
  0.000000000000000E+000
  0.000000000000000E+000
  0.000000000000000E+000
  0.000000000000000E+000
  0.000000000000000E+000
  0.000000000000000E+000
  0.000000000000000E+000
  0.000000000000000E+000
  0.000000000000000E+000
  0.000000000000000E+000
  0.000000000000000E+000
  0.000000000000000E+000
  0.000000000000000E+000
  0.000000000000000E+000
  0.000000000000000E+000
  0.000000000000000E+000
  0.000000000000000E+000
  0.000000000000000E+000
  0.000000000000000E+000
  0.000000000000000E+000
  0.000000000000000E+000
  0.000000000000000E+000
  0.000000000000000E+000
  0.000000000000000E+000
  0.000000000000000E+000
  0.000000000000000E+000
  0.000000000000000E+000
  0.000000000000000E+000
  0.000000000000000E+000
  0.000000000000000E+000
  0.000000000000000E+000
  0.000000000000000E+000
  0.000000000000000E+000
  0.000000000000000E+000
  0.000000000000000E+000
  0.000000000000000E+000
  0.000000000000000E+000
  0.000000000000000E+000
  0.000000000000000E+000
  0.000000000000000E+000
  0.000000000000000E+000
  0.000000000000000E+000
  0.000000000000000E+000
  0.000000000000000E+000
  0.000000000000000E+000
  0.000000000000000E+000
  0.000000000000000E+000
  0.000000000000000E+000
  0.000000000000000E+000
  0.000000000000000E+000
  0.000000000000000E+000
  0.000000000000000E+000
  0.000000000000000E+000
  0.000000000000000E+000
  0.000000000000000E+000
  0.000000000000000E+000
  0.000000000000000E+000
  0.000000000000000E+000
  0.000000000000000E+000
  0.000000000000000E+000
  0.000000000000000E+000
  0.000000000000000E+000
  0.000000000000000E+000
  0.000000000000000E+000
  0.000000000000000E+000
  0.000000000000000E+000
  0.000000000000000E+000
  0.000000000000000E+000
  0.000000000000000E+000
  0.000000000000000E+000
  0.000000000000000E+000
  0.000000000000000E+000
  0.000000000000000E+000
  0.000000000000000E+000
  0.000000000000000E+000
  0.000000000000000E+000
  0.000000000000000E+000
  0.000000000000000E+000
  0.000000000000000E+000
  0.000000000000000E+000
  0.000000000000000E+000
  0.000000000000000E+000
  0.000000000000000E+000
  0.000000000000000E+000
  0.000000000000000E+000
  0.000000000000000E+000
  0.000000000000000E+000
  0.000000000000000E+000
  0.000000000000000E+000
  0.000000000000000E+000
  0.000000000000000E+000
  0.000000000000000E+000
  0.000000000000000E+000
  0.000000000000000E+000
  0.000000000000000E+000
  0.000000000000000E+000
  0.000000000000000E+000
  0.000000000000000E+000
  0.000000000000000E+000
  0.000000000000000E+000
  0.000000000000000E+000
  0.000000000000000E+000
  0.000000000000000E+000
  0.000000000000000E+000
  0.000000000000000E+000
  0.000000000000000E+000
  0.000000000000000E+000
  0.000000000000000E+000
  0.000000000000000E+000
  0.000000000000000E+000
  0.000000000000000E+000
  0.000000000000000E+000
SCALARS poroL double 
LOOKUP_TABLE default
  0.156206148298259     
  0.156174733084848     
  0.156156144319515     
  0.156143709324497     
  0.156134228152347     
  0.156126517678082     
  0.156119957042917     
  0.156114168625711     
  0.156108886024440     
  0.156103886385607     
  0.156098940017516     
  0.156093750481234     
  0.156087833100955     
  0.156080249018190     
  0.156067594627926     
  0.156146306546514     
  0.156136339865610     
  0.156124087899478     
  0.156113827520790     
  0.156105507370974     
  0.156098523489132     
  0.156092479326648     
  0.156087098240510     
  0.156082172057535     
  0.156077522918065     
  0.156072973104524     
  0.156068310960945     
  0.156063265910879     
  0.156057367100468     
  0.156051890545847     
  0.156110436851679     
  0.156104491828119     
  0.156097328009222     
  0.156089879154996     
  0.156083098460030     
  0.156077076936259     
  0.156071698217357     
  0.156066828806651     
  0.156062345629504     
  0.156058137438434     
  0.156054100866908     
  0.156050146617259     
  0.156046219835608     
  0.156042621983737     
  0.156040039352289     
  0.156082931554471     
  0.156080258322396     
  0.156075731754868     
  0.156070529793603     
  0.156065251210746     
  0.156060238984964     
  0.156055583773798     
  0.156051278841484     
  0.156047286261743     
  0.156043563530817     
  0.156040081035278     
  0.156036845226286     
  0.156033972585763     
  0.156031749304264     
  0.156030713741700     
  0.156062659203482     
  0.156061447750975     
  0.156058608766460     
  0.156054877073095     
  0.156050797686057     
  0.156046689832472     
  0.156042726910913     
  0.156038982280372     
  0.156035482551084     
  0.156032240623267     
  0.156029280316911     
  0.156026666500315     
  0.156024537483633     
  0.156023141135367     
  0.156022836908254     
  0.156047444744085     
  0.156046835627791     
  0.156044886831386     
  0.156042102353965     
  0.156038878137222     
  0.156035496329243     
  0.156032135185035     
  0.156028901412359     
  0.156025858749059     
  0.156023054644628     
  0.156020543087763     
  0.156018405513473     
  0.156016770609052     
  0.156015825306125     
  0.156015812000973     
  0.156035731821973     
  0.156035224317709     
  0.156033688076158     
  0.156031453710756     
  0.156028806083890     
  0.156025965887321     
  0.156023092193816     
  0.156020294312339     
  0.156017649354008     
  0.156015219673897     
  0.156013069149916     
  0.156011277328585     
  0.156009949701427     
  0.156009221803933     
  0.156009253838909     
  0.156026334532738     
  0.156025669773414     
  0.156024253595893     
  0.156022304395313     
  0.156020019817111     
  0.156017564407214     
  0.156015066472259     
  0.156012622898190     
  0.156010308097236     
  0.156008184697730     
  0.156006313862009     
  0.156004763869224     
  0.156003615604567     
  0.156002963478937     
  0.156002910962826     
  0.156018380098715     
  0.156017430943282     
  0.156015968140119     
  0.156014134324240     
  0.156012063071095     
  0.156009870926616     
  0.156007654233276     
  0.156005490334310     
  0.156003441958027     
  0.156001563103119     
  0.155999905020910     
  0.155998521058652     
  0.155997469339209     
  0.155996812520866     
  0.155996614341409     
  0.156011217804171     
  0.156009934420312     
  0.156008338319020     
  0.156006519721570     
  0.156004564494956     
  0.156002550011746     
  0.156000542834050     
  0.155998598703683     
  0.155996764416476     
  0.155995080786057     
  0.155993585773478     
  0.155992316941653     
  0.155991312548587     
  0.155990610842862     
  0.155990247485828     
  0.156004354258073     
  0.156002733338187     
  0.156000970108883     
  0.155999116488012     
  0.155997221945018     
  0.155995331916221     
  0.155993486549287     
  0.155991720385257     
  0.155990063010041     
  0.155988540332780     
  0.155987175990709     
  0.155985992365091     
  0.155985010788614     
  0.155984250698415     
  0.155983727719450     
  0.155997405956189     
  0.155995474652661     
  0.155993546899589     
  0.155991644788370     
  0.155989788881721     
  0.155987998213192     
  0.155986289860484     
  0.155984678679029     
  0.155983177392267     
  0.155981796961591     
  0.155980547006021     
  0.155979435999122     
  0.155978471012128     
  0.155977656874766     
  0.155976994761669     
  0.155990066711176     
  0.155987874463287     
  0.155985811754913     
  0.155983875894077     
  0.155982063452491     
  0.155980371133050     
  0.155978795885858     
  0.155977334767182     
  0.155975984788914     
  0.155974742815232     
  0.155973605444032     
  0.155972568761243     
  0.155971627865376     
  0.155970776110574     
  0.155970004088500     
  0.155982085949187     
  0.155979700615894     
  0.155977554126203     
  0.155975622030912     
  0.155973880157390     
  0.155972305866571     
  0.155970878455672     
  0.155969579103123     
  0.155968390600703     
  0.155967296993910     
  0.155966283166154     
  0.155965334358021     
  0.155964435604427     
  0.155963571090119     
  0.155962723454132     
  0.155973254880579     
  0.155970761093602     
  0.155968600622262     
  0.155966729136542     
  0.155965103932208     
  0.155963685275107     
  0.155962436893326     
  0.155961325926678     
  0.155960322557981     
  0.155959399476743     
  0.155958531269767     
  0.155957693797348     
  0.155956863596586     
  0.155956017349790     
  0.155955131458513     
  0.155963398250722     
  0.155960896829188     
  0.155958809125954     
  0.155957072174385     
  0.155955626337583     
  0.155954416565144     
  0.155953392832507     
  0.155952510001774     
  0.155951727307378     
  0.155951007634801     
  0.155950316728138     
  0.155949622434843     
  0.155948894073837     
  0.155948101995061     
  0.155947217381379     
  0.155952369998737     
  0.155949977793236     
  0.155948065547185     
  0.155946552557542     
  0.155945363504798     
  0.155944429539026     
  0.155943688566892     
  0.155943084925496     
  0.155942568635750     
  0.155942094424605     
  0.155941620691574     
  0.155941108573380     
  0.155940521233612     
  0.155939823473800     
  0.155938981728527     
  0.155940051606104     
  0.155937901457052     
  0.155936282591101     
  0.155935097255271     
  0.155934255501203     
  0.155933676086527     
  0.155933286536992     
  0.155933022522680     
  0.155932826751260     
  0.155932647605457     
  0.155932437751048     
  0.155932152921038     
  0.155931751047435     
  0.155931191868270     
  0.155930437086753     
  0.155926352237989     
  0.155924592939915     
  0.155923400042503     
  0.155922659221625     
  0.155922266826450     
  0.155922130637528     
  0.155922169637949     
  0.155922312948859     
  0.155922498178911     
  0.155922669484408     
  0.155922775639371     
  0.155922768386975     
  0.155922601297579     
  0.155922229299557     
  0.155921608978843     
  0.155911209997687     
  0.155910006326123     
  0.155909386199791     
  0.155909218881712     
  0.155909387821960     
  0.155909791356525     
  0.155910342093891     
  0.155910965195512     
  0.155911595911204     
  0.155912176786421     
  0.155912654943724     
  0.155912979791266     
  0.155913101449075     
  0.155912970110317     
  0.155912536463370     
  0.155894593762825     
  0.155894126796889     
  0.155894240241696     
  0.155894786534929     
  0.155895636867821     
  0.155896681924108     
  0.155897830692506     
  0.155899007734590     
  0.155900149498919     
  0.155901200293425     
  0.155902108447832     
  0.155902823104091     
  0.155903291997288     
  0.155903460519254     
  0.155903272247081     
  0.155876505186467     
  0.155876973402801     
  0.155877995508039     
  0.155879405703250     
  0.155881063356260     
  0.155882853813534     
  0.155884686203541     
  0.155886489056483     
  0.155888204782409     
  0.155889783908483     
  0.155891179726180     
  0.155892343821468     
  0.155893222916221     
  0.155893757428930     
  0.155893882078953     
  0.155856980571667     
  0.155858602575141     
  0.155860723985708     
  0.155863157699908     
  0.155865751568097     
  0.155868389012560     
  0.155870984798196     
  0.155873477842726     
  0.155875822959658     
  0.155877982798014     
  0.155879920587379     
  0.155881594031468     
  0.155882950759307     
  0.155883926010082     
  0.155884443177520     
  0.155836092545081     
  0.155839112982779     
  0.155842542846162     
  0.155846168070493     
  0.155849825711610     
  0.155853403101656     
  0.155856829197073     
  0.155860062460539     
  0.155863078689349     
  0.155865860273871     
  0.155868386937127     
  0.155870627607583     
  0.155872533805788     
  0.155874035534458     
  0.155875041403373     
  0.155813951916349     
  0.155818653462202     
  0.155823624947433     
  0.155828616122155     
  0.155833456389420     
  0.155838048318269     
  0.155842349013594     
  0.155846349371453     
  0.155850056976150     
  0.155853483207522     
  0.155856632613395     
  0.155859492818752     
  0.155862024250429     
  0.155864152620024     
  0.155865766753113     
  0.155790711475970     
  0.155797438352004     
  0.155804217466144     
  0.155810749404231     
  0.155816868172206     
  0.155822515398275     
  0.155827699185632     
  0.155832459936731     
  0.155836848868159     
  0.155840916047575     
  0.155844701132560     
  0.155848221158667     
  0.155851455901662     
  0.155854329971150     
  0.155856706568857     
  0.155766576781231     
  0.155775782445781     
  0.155784677098539     
  0.155792904696823     
  0.155800345602877     
  0.155807030780959     
  0.155813054819218     
  0.155818525077945     
  0.155823546320937     
  0.155828214978453     
  0.155832615358339     
  0.155836812297237     
  0.155840822606068     
  0.155844587752967     
  0.155847933911997     
  0.155741849727525     
  0.155754187253463     
  0.155765538546917     
  0.155775530834828     
  0.155784225238663     
  0.155791844781449     
  0.155798600400496     
  0.155804677432765     
  0.155810237181532     
  0.155815424086957     
  0.155820372585622     
  0.155825209188767     
  0.155830047957298     
  0.155834868509157     
  0.155839491293771     
  0.155717079051832     
  0.155733606609975     
  0.155747622100088     
  0.155759153659865     
  0.155768864364884     
  0.155777205793406     
  0.155784512583254     
  0.155791041128605     
  0.155797000974858     
  0.155802576950029     
  0.155807947892105     
  0.155813306964312     
  0.155818879442139     
  0.155824985974868     
  0.155831311358792     
  0.155694287970793     
  0.155716070986501     
  0.155731811366840     
  0.155744282627736     
  0.155754575340533     
  0.155763322672331     
  0.155770937866796     
  0.155777719965761     
  0.155783905804011     
  0.155789702788092     
  0.155795316010053     
  0.155800980167446     
  0.155807017712525     
  0.155813958697017     
  0.155823340916267     
