# vtk DataFile Version 3.0
vtk output
ASCII
DATASET UNSTRUCTURED_GRID
POINTS       496 double 
  0.00000000E+00  3.00000000E+02  0.00000000E+00
  0.00000000E+00  2.80000000E+02  0.00000000E+00
  0.00000000E+00  2.60000000E+02  0.00000000E+00
  0.00000000E+00  2.40000000E+02  0.00000000E+00
  0.00000000E+00  2.20000000E+02  0.00000000E+00
  0.00000000E+00  2.00000000E+02  0.00000000E+00
  0.00000000E+00  1.80000000E+02  0.00000000E+00
  0.00000000E+00  1.60000000E+02  0.00000000E+00
  0.00000000E+00  1.40000000E+02  0.00000000E+00
  0.00000000E+00  1.20000000E+02  0.00000000E+00
  0.00000000E+00  1.00000000E+02  0.00000000E+00
  0.00000000E+00  8.00000000E+01  0.00000000E+00
  0.00000000E+00  6.00000000E+01  0.00000000E+00
  0.00000000E+00  4.00000000E+01  0.00000000E+00
  0.00000000E+00  2.00000000E+01  0.00000000E+00
  0.00000000E+00  4.99600361E-14  0.00000000E+00
  2.00000000E+01  3.00000000E+02  0.00000000E+00
  2.00000000E+01  2.80000000E+02  0.00000000E+00
  2.00000000E+01  2.60000000E+02  0.00000000E+00
  2.00000000E+01  2.40000000E+02  0.00000000E+00
  2.00000000E+01  2.20000000E+02  0.00000000E+00
  2.00000000E+01  2.00000000E+02  0.00000000E+00
  2.00000000E+01  1.80000000E+02  0.00000000E+00
  2.00000000E+01  1.60000000E+02  0.00000000E+00
  2.00000000E+01  1.40000000E+02  0.00000000E+00
  2.00000000E+01  1.20000000E+02  0.00000000E+00
  2.00000000E+01  1.00000000E+02  0.00000000E+00
  2.00000000E+01  8.00000000E+01  0.00000000E+00
  2.00000000E+01  6.00000000E+01  0.00000000E+00
  2.00000000E+01  4.00000000E+01  0.00000000E+00
  2.00000000E+01  2.00000000E+01  0.00000000E+00
  2.00000000E+01  4.99600361E-14  0.00000000E+00
  4.00000000E+01  3.00000000E+02  0.00000000E+00
  4.00000000E+01  2.80000000E+02  0.00000000E+00
  4.00000000E+01  2.60000000E+02  0.00000000E+00
  4.00000000E+01  2.40000000E+02  0.00000000E+00
  4.00000000E+01  2.20000000E+02  0.00000000E+00
  4.00000000E+01  2.00000000E+02  0.00000000E+00
  4.00000000E+01  1.80000000E+02  0.00000000E+00
  4.00000000E+01  1.60000000E+02  0.00000000E+00
  4.00000000E+01  1.40000000E+02  0.00000000E+00
  4.00000000E+01  1.20000000E+02  0.00000000E+00
  4.00000000E+01  1.00000000E+02  0.00000000E+00
  4.00000000E+01  8.00000000E+01  0.00000000E+00
  4.00000000E+01  6.00000000E+01  0.00000000E+00
  4.00000000E+01  4.00000000E+01  0.00000000E+00
  4.00000000E+01  2.00000000E+01  0.00000000E+00
  4.00000000E+01  4.99600361E-14  0.00000000E+00
  6.00000000E+01  3.00000000E+02  0.00000000E+00
  6.00000000E+01  2.80000000E+02  0.00000000E+00
  6.00000000E+01  2.60000000E+02  0.00000000E+00
  6.00000000E+01  2.40000000E+02  0.00000000E+00
  6.00000000E+01  2.20000000E+02  0.00000000E+00
  6.00000000E+01  2.00000000E+02  0.00000000E+00
  6.00000000E+01  1.80000000E+02  0.00000000E+00
  6.00000000E+01  1.60000000E+02  0.00000000E+00
  6.00000000E+01  1.40000000E+02  0.00000000E+00
  6.00000000E+01  1.20000000E+02  0.00000000E+00
  6.00000000E+01  1.00000000E+02  0.00000000E+00
  6.00000000E+01  8.00000000E+01  0.00000000E+00
  6.00000000E+01  6.00000000E+01  0.00000000E+00
  6.00000000E+01  4.00000000E+01  0.00000000E+00
  6.00000000E+01  2.00000000E+01  0.00000000E+00
  6.00000000E+01  4.99600361E-14  0.00000000E+00
  8.00000000E+01  3.00000000E+02  0.00000000E+00
  8.00000000E+01  2.80000000E+02  0.00000000E+00
  8.00000000E+01  2.60000000E+02  0.00000000E+00
  8.00000000E+01  2.40000000E+02  0.00000000E+00
  8.00000000E+01  2.20000000E+02  0.00000000E+00
  8.00000000E+01  2.00000000E+02  0.00000000E+00
  8.00000000E+01  1.80000000E+02  0.00000000E+00
  8.00000000E+01  1.60000000E+02  0.00000000E+00
  8.00000000E+01  1.40000000E+02  0.00000000E+00
  8.00000000E+01  1.20000000E+02  0.00000000E+00
  8.00000000E+01  1.00000000E+02  0.00000000E+00
  8.00000000E+01  8.00000000E+01  0.00000000E+00
  8.00000000E+01  6.00000000E+01  0.00000000E+00
  8.00000000E+01  4.00000000E+01  0.00000000E+00
  8.00000000E+01  2.00000000E+01  0.00000000E+00
  8.00000000E+01  4.99600361E-14  0.00000000E+00
  1.00000000E+02  3.00000000E+02  0.00000000E+00
  1.00000000E+02  2.80000000E+02  0.00000000E+00
  1.00000000E+02  2.60000000E+02  0.00000000E+00
  1.00000000E+02  2.40000000E+02  0.00000000E+00
  1.00000000E+02  2.20000000E+02  0.00000000E+00
  1.00000000E+02  2.00000000E+02  0.00000000E+00
  1.00000000E+02  1.80000000E+02  0.00000000E+00
  1.00000000E+02  1.60000000E+02  0.00000000E+00
  1.00000000E+02  1.40000000E+02  0.00000000E+00
  1.00000000E+02  1.20000000E+02  0.00000000E+00
  1.00000000E+02  1.00000000E+02  0.00000000E+00
  1.00000000E+02  8.00000000E+01  0.00000000E+00
  1.00000000E+02  6.00000000E+01  0.00000000E+00
  1.00000000E+02  4.00000000E+01  0.00000000E+00
  1.00000000E+02  2.00000000E+01  0.00000000E+00
  1.00000000E+02  4.99600361E-14  0.00000000E+00
  1.20000000E+02  3.00000000E+02  0.00000000E+00
  1.20000000E+02  2.80000000E+02  0.00000000E+00
  1.20000000E+02  2.60000000E+02  0.00000000E+00
  1.20000000E+02  2.40000000E+02  0.00000000E+00
  1.20000000E+02  2.20000000E+02  0.00000000E+00
  1.20000000E+02  2.00000000E+02  0.00000000E+00
  1.20000000E+02  1.80000000E+02  0.00000000E+00
  1.20000000E+02  1.60000000E+02  0.00000000E+00
  1.20000000E+02  1.40000000E+02  0.00000000E+00
  1.20000000E+02  1.20000000E+02  0.00000000E+00
  1.20000000E+02  1.00000000E+02  0.00000000E+00
  1.20000000E+02  8.00000000E+01  0.00000000E+00
  1.20000000E+02  6.00000000E+01  0.00000000E+00
  1.20000000E+02  4.00000000E+01  0.00000000E+00
  1.20000000E+02  2.00000000E+01  0.00000000E+00
  1.20000000E+02  4.99600361E-14  0.00000000E+00
  1.40000000E+02  3.00000000E+02  0.00000000E+00
  1.40000000E+02  2.80000000E+02  0.00000000E+00
  1.40000000E+02  2.60000000E+02  0.00000000E+00
  1.40000000E+02  2.40000000E+02  0.00000000E+00
  1.40000000E+02  2.20000000E+02  0.00000000E+00
  1.40000000E+02  2.00000000E+02  0.00000000E+00
  1.40000000E+02  1.80000000E+02  0.00000000E+00
  1.40000000E+02  1.60000000E+02  0.00000000E+00
  1.40000000E+02  1.40000000E+02  0.00000000E+00
  1.40000000E+02  1.20000000E+02  0.00000000E+00
  1.40000000E+02  1.00000000E+02  0.00000000E+00
  1.40000000E+02  8.00000000E+01  0.00000000E+00
  1.40000000E+02  6.00000000E+01  0.00000000E+00
  1.40000000E+02  4.00000000E+01  0.00000000E+00
  1.40000000E+02  2.00000000E+01  0.00000000E+00
  1.40000000E+02  4.99600361E-14  0.00000000E+00
  1.60000000E+02  3.00000000E+02  0.00000000E+00
  1.60000000E+02  2.80000000E+02  0.00000000E+00
  1.60000000E+02  2.60000000E+02  0.00000000E+00
  1.60000000E+02  2.40000000E+02  0.00000000E+00
  1.60000000E+02  2.20000000E+02  0.00000000E+00
  1.60000000E+02  2.00000000E+02  0.00000000E+00
  1.60000000E+02  1.80000000E+02  0.00000000E+00
  1.60000000E+02  1.60000000E+02  0.00000000E+00
  1.60000000E+02  1.40000000E+02  0.00000000E+00
  1.60000000E+02  1.20000000E+02  0.00000000E+00
  1.60000000E+02  1.00000000E+02  0.00000000E+00
  1.60000000E+02  8.00000000E+01  0.00000000E+00
  1.60000000E+02  6.00000000E+01  0.00000000E+00
  1.60000000E+02  4.00000000E+01  0.00000000E+00
  1.60000000E+02  2.00000000E+01  0.00000000E+00
  1.60000000E+02  4.99600361E-14  0.00000000E+00
  1.80000000E+02  3.00000000E+02  0.00000000E+00
  1.80000000E+02  2.80000000E+02  0.00000000E+00
  1.80000000E+02  2.60000000E+02  0.00000000E+00
  1.80000000E+02  2.40000000E+02  0.00000000E+00
  1.80000000E+02  2.20000000E+02  0.00000000E+00
  1.80000000E+02  2.00000000E+02  0.00000000E+00
  1.80000000E+02  1.80000000E+02  0.00000000E+00
  1.80000000E+02  1.60000000E+02  0.00000000E+00
  1.80000000E+02  1.40000000E+02  0.00000000E+00
  1.80000000E+02  1.20000000E+02  0.00000000E+00
  1.80000000E+02  1.00000000E+02  0.00000000E+00
  1.80000000E+02  8.00000000E+01  0.00000000E+00
  1.80000000E+02  6.00000000E+01  0.00000000E+00
  1.80000000E+02  4.00000000E+01  0.00000000E+00
  1.80000000E+02  2.00000000E+01  0.00000000E+00
  1.80000000E+02  4.99600361E-14  0.00000000E+00
  2.00000000E+02  3.00000000E+02  0.00000000E+00
  2.00000000E+02  2.80000000E+02  0.00000000E+00
  2.00000000E+02  2.60000000E+02  0.00000000E+00
  2.00000000E+02  2.40000000E+02  0.00000000E+00
  2.00000000E+02  2.20000000E+02  0.00000000E+00
  2.00000000E+02  2.00000000E+02  0.00000000E+00
  2.00000000E+02  1.80000000E+02  0.00000000E+00
  2.00000000E+02  1.60000000E+02  0.00000000E+00
  2.00000000E+02  1.40000000E+02  0.00000000E+00
  2.00000000E+02  1.20000000E+02  0.00000000E+00
  2.00000000E+02  1.00000000E+02  0.00000000E+00
  2.00000000E+02  8.00000000E+01  0.00000000E+00
  2.00000000E+02  6.00000000E+01  0.00000000E+00
  2.00000000E+02  4.00000000E+01  0.00000000E+00
  2.00000000E+02  2.00000000E+01  0.00000000E+00
  2.00000000E+02  4.99600361E-14  0.00000000E+00
  2.20000000E+02  3.00000000E+02  0.00000000E+00
  2.20000000E+02  2.80000000E+02  0.00000000E+00
  2.20000000E+02  2.60000000E+02  0.00000000E+00
  2.20000000E+02  2.40000000E+02  0.00000000E+00
  2.20000000E+02  2.20000000E+02  0.00000000E+00
  2.20000000E+02  2.00000000E+02  0.00000000E+00
  2.20000000E+02  1.80000000E+02  0.00000000E+00
  2.20000000E+02  1.60000000E+02  0.00000000E+00
  2.20000000E+02  1.40000000E+02  0.00000000E+00
  2.20000000E+02  1.20000000E+02  0.00000000E+00
  2.20000000E+02  1.00000000E+02  0.00000000E+00
  2.20000000E+02  8.00000000E+01  0.00000000E+00
  2.20000000E+02  6.00000000E+01  0.00000000E+00
  2.20000000E+02  4.00000000E+01  0.00000000E+00
  2.20000000E+02  2.00000000E+01  0.00000000E+00
  2.20000000E+02  4.99600361E-14  0.00000000E+00
  2.40000000E+02  3.00000000E+02  0.00000000E+00
  2.40000000E+02  2.80000000E+02  0.00000000E+00
  2.40000000E+02  2.60000000E+02  0.00000000E+00
  2.40000000E+02  2.40000000E+02  0.00000000E+00
  2.40000000E+02  2.20000000E+02  0.00000000E+00
  2.40000000E+02  2.00000000E+02  0.00000000E+00
  2.40000000E+02  1.80000000E+02  0.00000000E+00
  2.40000000E+02  1.60000000E+02  0.00000000E+00
  2.40000000E+02  1.40000000E+02  0.00000000E+00
  2.40000000E+02  1.20000000E+02  0.00000000E+00
  2.40000000E+02  1.00000000E+02  0.00000000E+00
  2.40000000E+02  8.00000000E+01  0.00000000E+00
  2.40000000E+02  6.00000000E+01  0.00000000E+00
  2.40000000E+02  4.00000000E+01  0.00000000E+00
  2.40000000E+02  2.00000000E+01  0.00000000E+00
  2.40000000E+02  4.99600361E-14  0.00000000E+00
  2.60000000E+02  3.00000000E+02  0.00000000E+00
  2.60000000E+02  2.80000000E+02  0.00000000E+00
  2.60000000E+02  2.60000000E+02  0.00000000E+00
  2.60000000E+02  2.40000000E+02  0.00000000E+00
  2.60000000E+02  2.20000000E+02  0.00000000E+00
  2.60000000E+02  2.00000000E+02  0.00000000E+00
  2.60000000E+02  1.80000000E+02  0.00000000E+00
  2.60000000E+02  1.60000000E+02  0.00000000E+00
  2.60000000E+02  1.40000000E+02  0.00000000E+00
  2.60000000E+02  1.20000000E+02  0.00000000E+00
  2.60000000E+02  1.00000000E+02  0.00000000E+00
  2.60000000E+02  8.00000000E+01  0.00000000E+00
  2.60000000E+02  6.00000000E+01  0.00000000E+00
  2.60000000E+02  4.00000000E+01  0.00000000E+00
  2.60000000E+02  2.00000000E+01  0.00000000E+00
  2.60000000E+02  4.99600361E-14  0.00000000E+00
  2.80000000E+02  3.00000000E+02  0.00000000E+00
  2.80000000E+02  2.80000000E+02  0.00000000E+00
  2.80000000E+02  2.60000000E+02  0.00000000E+00
  2.80000000E+02  2.40000000E+02  0.00000000E+00
  2.80000000E+02  2.20000000E+02  0.00000000E+00
  2.80000000E+02  2.00000000E+02  0.00000000E+00
  2.80000000E+02  1.80000000E+02  0.00000000E+00
  2.80000000E+02  1.60000000E+02  0.00000000E+00
  2.80000000E+02  1.40000000E+02  0.00000000E+00
  2.80000000E+02  1.20000000E+02  0.00000000E+00
  2.80000000E+02  1.00000000E+02  0.00000000E+00
  2.80000000E+02  8.00000000E+01  0.00000000E+00
  2.80000000E+02  6.00000000E+01  0.00000000E+00
  2.80000000E+02  4.00000000E+01  0.00000000E+00
  2.80000000E+02  2.00000000E+01  0.00000000E+00
  2.80000000E+02  4.99600361E-14  0.00000000E+00
  3.00000000E+02  3.00000000E+02  0.00000000E+00
  3.00000000E+02  2.80000000E+02  0.00000000E+00
  3.00000000E+02  2.60000000E+02  0.00000000E+00
  3.00000000E+02  2.40000000E+02  0.00000000E+00
  3.00000000E+02  2.20000000E+02  0.00000000E+00
  3.00000000E+02  2.00000000E+02  0.00000000E+00
  3.00000000E+02  1.80000000E+02  0.00000000E+00
  3.00000000E+02  1.60000000E+02  0.00000000E+00
  3.00000000E+02  1.40000000E+02  0.00000000E+00
  3.00000000E+02  1.20000000E+02  0.00000000E+00
  3.00000000E+02  1.00000000E+02  0.00000000E+00
  3.00000000E+02  8.00000000E+01  0.00000000E+00
  3.00000000E+02  6.00000000E+01  0.00000000E+00
  3.00000000E+02  4.00000000E+01  0.00000000E+00
  3.00000000E+02  2.00000000E+01  0.00000000E+00
  3.00000000E+02  4.99600361E-14  0.00000000E+00
  3.20000000E+02  3.00000000E+02  0.00000000E+00
  3.20000000E+02  2.80000000E+02  0.00000000E+00
  3.20000000E+02  2.60000000E+02  0.00000000E+00
  3.20000000E+02  2.40000000E+02  0.00000000E+00
  3.20000000E+02  2.20000000E+02  0.00000000E+00
  3.20000000E+02  2.00000000E+02  0.00000000E+00
  3.20000000E+02  1.80000000E+02  0.00000000E+00
  3.20000000E+02  1.60000000E+02  0.00000000E+00
  3.20000000E+02  1.40000000E+02  0.00000000E+00
  3.20000000E+02  1.20000000E+02  0.00000000E+00
  3.20000000E+02  1.00000000E+02  0.00000000E+00
  3.20000000E+02  8.00000000E+01  0.00000000E+00
  3.20000000E+02  6.00000000E+01  0.00000000E+00
  3.20000000E+02  4.00000000E+01  0.00000000E+00
  3.20000000E+02  2.00000000E+01  0.00000000E+00
  3.20000000E+02  4.99600361E-14  0.00000000E+00
  3.40000000E+02  3.00000000E+02  0.00000000E+00
  3.40000000E+02  2.80000000E+02  0.00000000E+00
  3.40000000E+02  2.60000000E+02  0.00000000E+00
  3.40000000E+02  2.40000000E+02  0.00000000E+00
  3.40000000E+02  2.20000000E+02  0.00000000E+00
  3.40000000E+02  2.00000000E+02  0.00000000E+00
  3.40000000E+02  1.80000000E+02  0.00000000E+00
  3.40000000E+02  1.60000000E+02  0.00000000E+00
  3.40000000E+02  1.40000000E+02  0.00000000E+00
  3.40000000E+02  1.20000000E+02  0.00000000E+00
  3.40000000E+02  1.00000000E+02  0.00000000E+00
  3.40000000E+02  8.00000000E+01  0.00000000E+00
  3.40000000E+02  6.00000000E+01  0.00000000E+00
  3.40000000E+02  4.00000000E+01  0.00000000E+00
  3.40000000E+02  2.00000000E+01  0.00000000E+00
  3.40000000E+02  4.99600361E-14  0.00000000E+00
  3.60000000E+02  3.00000000E+02  0.00000000E+00
  3.60000000E+02  2.80000000E+02  0.00000000E+00
  3.60000000E+02  2.60000000E+02  0.00000000E+00
  3.60000000E+02  2.40000000E+02  0.00000000E+00
  3.60000000E+02  2.20000000E+02  0.00000000E+00
  3.60000000E+02  2.00000000E+02  0.00000000E+00
  3.60000000E+02  1.80000000E+02  0.00000000E+00
  3.60000000E+02  1.60000000E+02  0.00000000E+00
  3.60000000E+02  1.40000000E+02  0.00000000E+00
  3.60000000E+02  1.20000000E+02  0.00000000E+00
  3.60000000E+02  1.00000000E+02  0.00000000E+00
  3.60000000E+02  8.00000000E+01  0.00000000E+00
  3.60000000E+02  6.00000000E+01  0.00000000E+00
  3.60000000E+02  4.00000000E+01  0.00000000E+00
  3.60000000E+02  2.00000000E+01  0.00000000E+00
  3.60000000E+02  4.99600361E-14  0.00000000E+00
  3.80000000E+02  3.00000000E+02  0.00000000E+00
  3.80000000E+02  2.80000000E+02  0.00000000E+00
  3.80000000E+02  2.60000000E+02  0.00000000E+00
  3.80000000E+02  2.40000000E+02  0.00000000E+00
  3.80000000E+02  2.20000000E+02  0.00000000E+00
  3.80000000E+02  2.00000000E+02  0.00000000E+00
  3.80000000E+02  1.80000000E+02  0.00000000E+00
  3.80000000E+02  1.60000000E+02  0.00000000E+00
  3.80000000E+02  1.40000000E+02  0.00000000E+00
  3.80000000E+02  1.20000000E+02  0.00000000E+00
  3.80000000E+02  1.00000000E+02  0.00000000E+00
  3.80000000E+02  8.00000000E+01  0.00000000E+00
  3.80000000E+02  6.00000000E+01  0.00000000E+00
  3.80000000E+02  4.00000000E+01  0.00000000E+00
  3.80000000E+02  2.00000000E+01  0.00000000E+00
  3.80000000E+02  4.99600361E-14  0.00000000E+00
  4.00000000E+02  3.00000000E+02  0.00000000E+00
  4.00000000E+02  2.80000000E+02  0.00000000E+00
  4.00000000E+02  2.60000000E+02  0.00000000E+00
  4.00000000E+02  2.40000000E+02  0.00000000E+00
  4.00000000E+02  2.20000000E+02  0.00000000E+00
  4.00000000E+02  2.00000000E+02  0.00000000E+00
  4.00000000E+02  1.80000000E+02  0.00000000E+00
  4.00000000E+02  1.60000000E+02  0.00000000E+00
  4.00000000E+02  1.40000000E+02  0.00000000E+00
  4.00000000E+02  1.20000000E+02  0.00000000E+00
  4.00000000E+02  1.00000000E+02  0.00000000E+00
  4.00000000E+02  8.00000000E+01  0.00000000E+00
  4.00000000E+02  6.00000000E+01  0.00000000E+00
  4.00000000E+02  4.00000000E+01  0.00000000E+00
  4.00000000E+02  2.00000000E+01  0.00000000E+00
  4.00000000E+02  4.99600361E-14  0.00000000E+00
  4.20000000E+02  3.00000000E+02  0.00000000E+00
  4.20000000E+02  2.80000000E+02  0.00000000E+00
  4.20000000E+02  2.60000000E+02  0.00000000E+00
  4.20000000E+02  2.40000000E+02  0.00000000E+00
  4.20000000E+02  2.20000000E+02  0.00000000E+00
  4.20000000E+02  2.00000000E+02  0.00000000E+00
  4.20000000E+02  1.80000000E+02  0.00000000E+00
  4.20000000E+02  1.60000000E+02  0.00000000E+00
  4.20000000E+02  1.40000000E+02  0.00000000E+00
  4.20000000E+02  1.20000000E+02  0.00000000E+00
  4.20000000E+02  1.00000000E+02  0.00000000E+00
  4.20000000E+02  8.00000000E+01  0.00000000E+00
  4.20000000E+02  6.00000000E+01  0.00000000E+00
  4.20000000E+02  4.00000000E+01  0.00000000E+00
  4.20000000E+02  2.00000000E+01  0.00000000E+00
  4.20000000E+02  4.99600361E-14  0.00000000E+00
  4.40000000E+02  3.00000000E+02  0.00000000E+00
  4.40000000E+02  2.80000000E+02  0.00000000E+00
  4.40000000E+02  2.60000000E+02  0.00000000E+00
  4.40000000E+02  2.40000000E+02  0.00000000E+00
  4.40000000E+02  2.20000000E+02  0.00000000E+00
  4.40000000E+02  2.00000000E+02  0.00000000E+00
  4.40000000E+02  1.80000000E+02  0.00000000E+00
  4.40000000E+02  1.60000000E+02  0.00000000E+00
  4.40000000E+02  1.40000000E+02  0.00000000E+00
  4.40000000E+02  1.20000000E+02  0.00000000E+00
  4.40000000E+02  1.00000000E+02  0.00000000E+00
  4.40000000E+02  8.00000000E+01  0.00000000E+00
  4.40000000E+02  6.00000000E+01  0.00000000E+00
  4.40000000E+02  4.00000000E+01  0.00000000E+00
  4.40000000E+02  2.00000000E+01  0.00000000E+00
  4.40000000E+02  4.99600361E-14  0.00000000E+00
  4.60000000E+02  3.00000000E+02  0.00000000E+00
  4.60000000E+02  2.80000000E+02  0.00000000E+00
  4.60000000E+02  2.60000000E+02  0.00000000E+00
  4.60000000E+02  2.40000000E+02  0.00000000E+00
  4.60000000E+02  2.20000000E+02  0.00000000E+00
  4.60000000E+02  2.00000000E+02  0.00000000E+00
  4.60000000E+02  1.80000000E+02  0.00000000E+00
  4.60000000E+02  1.60000000E+02  0.00000000E+00
  4.60000000E+02  1.40000000E+02  0.00000000E+00
  4.60000000E+02  1.20000000E+02  0.00000000E+00
  4.60000000E+02  1.00000000E+02  0.00000000E+00
  4.60000000E+02  8.00000000E+01  0.00000000E+00
  4.60000000E+02  6.00000000E+01  0.00000000E+00
  4.60000000E+02  4.00000000E+01  0.00000000E+00
  4.60000000E+02  2.00000000E+01  0.00000000E+00
  4.60000000E+02  4.99600361E-14  0.00000000E+00
  4.80000000E+02  3.00000000E+02  0.00000000E+00
  4.80000000E+02  2.80000000E+02  0.00000000E+00
  4.80000000E+02  2.60000000E+02  0.00000000E+00
  4.80000000E+02  2.40000000E+02  0.00000000E+00
  4.80000000E+02  2.20000000E+02  0.00000000E+00
  4.80000000E+02  2.00000000E+02  0.00000000E+00
  4.80000000E+02  1.80000000E+02  0.00000000E+00
  4.80000000E+02  1.60000000E+02  0.00000000E+00
  4.80000000E+02  1.40000000E+02  0.00000000E+00
  4.80000000E+02  1.20000000E+02  0.00000000E+00
  4.80000000E+02  1.00000000E+02  0.00000000E+00
  4.80000000E+02  8.00000000E+01  0.00000000E+00
  4.80000000E+02  6.00000000E+01  0.00000000E+00
  4.80000000E+02  4.00000000E+01  0.00000000E+00
  4.80000000E+02  2.00000000E+01  0.00000000E+00
  4.80000000E+02  4.99600361E-14  0.00000000E+00
  5.00000000E+02  3.00000000E+02  0.00000000E+00
  5.00000000E+02  2.80000000E+02  0.00000000E+00
  5.00000000E+02  2.60000000E+02  0.00000000E+00
  5.00000000E+02  2.40000000E+02  0.00000000E+00
  5.00000000E+02  2.20000000E+02  0.00000000E+00
  5.00000000E+02  2.00000000E+02  0.00000000E+00
  5.00000000E+02  1.80000000E+02  0.00000000E+00
  5.00000000E+02  1.60000000E+02  0.00000000E+00
  5.00000000E+02  1.40000000E+02  0.00000000E+00
  5.00000000E+02  1.20000000E+02  0.00000000E+00
  5.00000000E+02  1.00000000E+02  0.00000000E+00
  5.00000000E+02  8.00000000E+01  0.00000000E+00
  5.00000000E+02  6.00000000E+01  0.00000000E+00
  5.00000000E+02  4.00000000E+01  0.00000000E+00
  5.00000000E+02  2.00000000E+01  0.00000000E+00
  5.00000000E+02  4.99600361E-14  0.00000000E+00
  5.20000000E+02  3.00000000E+02  0.00000000E+00
  5.20000000E+02  2.80000000E+02  0.00000000E+00
  5.20000000E+02  2.60000000E+02  0.00000000E+00
  5.20000000E+02  2.40000000E+02  0.00000000E+00
  5.20000000E+02  2.20000000E+02  0.00000000E+00
  5.20000000E+02  2.00000000E+02  0.00000000E+00
  5.20000000E+02  1.80000000E+02  0.00000000E+00
  5.20000000E+02  1.60000000E+02  0.00000000E+00
  5.20000000E+02  1.40000000E+02  0.00000000E+00
  5.20000000E+02  1.20000000E+02  0.00000000E+00
  5.20000000E+02  1.00000000E+02  0.00000000E+00
  5.20000000E+02  8.00000000E+01  0.00000000E+00
  5.20000000E+02  6.00000000E+01  0.00000000E+00
  5.20000000E+02  4.00000000E+01  0.00000000E+00
  5.20000000E+02  2.00000000E+01  0.00000000E+00
  5.20000000E+02  4.99600361E-14  0.00000000E+00
  5.40000000E+02  3.00000000E+02  0.00000000E+00
  5.40000000E+02  2.80000000E+02  0.00000000E+00
  5.40000000E+02  2.60000000E+02  0.00000000E+00
  5.40000000E+02  2.40000000E+02  0.00000000E+00
  5.40000000E+02  2.20000000E+02  0.00000000E+00
  5.40000000E+02  2.00000000E+02  0.00000000E+00
  5.40000000E+02  1.80000000E+02  0.00000000E+00
  5.40000000E+02  1.60000000E+02  0.00000000E+00
  5.40000000E+02  1.40000000E+02  0.00000000E+00
  5.40000000E+02  1.20000000E+02  0.00000000E+00
  5.40000000E+02  1.00000000E+02  0.00000000E+00
  5.40000000E+02  8.00000000E+01  0.00000000E+00
  5.40000000E+02  6.00000000E+01  0.00000000E+00
  5.40000000E+02  4.00000000E+01  0.00000000E+00
  5.40000000E+02  2.00000000E+01  0.00000000E+00
  5.40000000E+02  4.99600361E-14  0.00000000E+00
  5.60000000E+02  3.00000000E+02  0.00000000E+00
  5.60000000E+02  2.80000000E+02  0.00000000E+00
  5.60000000E+02  2.60000000E+02  0.00000000E+00
  5.60000000E+02  2.40000000E+02  0.00000000E+00
  5.60000000E+02  2.20000000E+02  0.00000000E+00
  5.60000000E+02  2.00000000E+02  0.00000000E+00
  5.60000000E+02  1.80000000E+02  0.00000000E+00
  5.60000000E+02  1.60000000E+02  0.00000000E+00
  5.60000000E+02  1.40000000E+02  0.00000000E+00
  5.60000000E+02  1.20000000E+02  0.00000000E+00
  5.60000000E+02  1.00000000E+02  0.00000000E+00
  5.60000000E+02  8.00000000E+01  0.00000000E+00
  5.60000000E+02  6.00000000E+01  0.00000000E+00
  5.60000000E+02  4.00000000E+01  0.00000000E+00
  5.60000000E+02  2.00000000E+01  0.00000000E+00
  5.60000000E+02  4.99600361E-14  0.00000000E+00
  5.80000000E+02  3.00000000E+02  0.00000000E+00
  5.80000000E+02  2.80000000E+02  0.00000000E+00
  5.80000000E+02  2.60000000E+02  0.00000000E+00
  5.80000000E+02  2.40000000E+02  0.00000000E+00
  5.80000000E+02  2.20000000E+02  0.00000000E+00
  5.80000000E+02  2.00000000E+02  0.00000000E+00
  5.80000000E+02  1.80000000E+02  0.00000000E+00
  5.80000000E+02  1.60000000E+02  0.00000000E+00
  5.80000000E+02  1.40000000E+02  0.00000000E+00
  5.80000000E+02  1.20000000E+02  0.00000000E+00
  5.80000000E+02  1.00000000E+02  0.00000000E+00
  5.80000000E+02  8.00000000E+01  0.00000000E+00
  5.80000000E+02  6.00000000E+01  0.00000000E+00
  5.80000000E+02  4.00000000E+01  0.00000000E+00
  5.80000000E+02  2.00000000E+01  0.00000000E+00
  5.80000000E+02  4.99600361E-14  0.00000000E+00
  6.00000000E+02  3.00000000E+02  0.00000000E+00
  6.00000000E+02  2.80000000E+02  0.00000000E+00
  6.00000000E+02  2.60000000E+02  0.00000000E+00
  6.00000000E+02  2.40000000E+02  0.00000000E+00
  6.00000000E+02  2.20000000E+02  0.00000000E+00
  6.00000000E+02  2.00000000E+02  0.00000000E+00
  6.00000000E+02  1.80000000E+02  0.00000000E+00
  6.00000000E+02  1.60000000E+02  0.00000000E+00
  6.00000000E+02  1.40000000E+02  0.00000000E+00
  6.00000000E+02  1.20000000E+02  0.00000000E+00
  6.00000000E+02  1.00000000E+02  0.00000000E+00
  6.00000000E+02  8.00000000E+01  0.00000000E+00
  6.00000000E+02  6.00000000E+01  0.00000000E+00
  6.00000000E+02  4.00000000E+01  0.00000000E+00
  6.00000000E+02  2.00000000E+01  0.00000000E+00
  6.00000000E+02  4.99600361E-14  0.00000000E+00
CELLS       450      2250
         4           0           1          17          16
         4           1           2          18          17
         4           2           3          19          18
         4           3           4          20          19
         4           4           5          21          20
         4           5           6          22          21
         4           6           7          23          22
         4           7           8          24          23
         4           8           9          25          24
         4           9          10          26          25
         4          10          11          27          26
         4          11          12          28          27
         4          12          13          29          28
         4          13          14          30          29
         4          14          15          31          30
         4          16          17          33          32
         4          17          18          34          33
         4          18          19          35          34
         4          19          20          36          35
         4          20          21          37          36
         4          21          22          38          37
         4          22          23          39          38
         4          23          24          40          39
         4          24          25          41          40
         4          25          26          42          41
         4          26          27          43          42
         4          27          28          44          43
         4          28          29          45          44
         4          29          30          46          45
         4          30          31          47          46
         4          32          33          49          48
         4          33          34          50          49
         4          34          35          51          50
         4          35          36          52          51
         4          36          37          53          52
         4          37          38          54          53
         4          38          39          55          54
         4          39          40          56          55
         4          40          41          57          56
         4          41          42          58          57
         4          42          43          59          58
         4          43          44          60          59
         4          44          45          61          60
         4          45          46          62          61
         4          46          47          63          62
         4          48          49          65          64
         4          49          50          66          65
         4          50          51          67          66
         4          51          52          68          67
         4          52          53          69          68
         4          53          54          70          69
         4          54          55          71          70
         4          55          56          72          71
         4          56          57          73          72
         4          57          58          74          73
         4          58          59          75          74
         4          59          60          76          75
         4          60          61          77          76
         4          61          62          78          77
         4          62          63          79          78
         4          64          65          81          80
         4          65          66          82          81
         4          66          67          83          82
         4          67          68          84          83
         4          68          69          85          84
         4          69          70          86          85
         4          70          71          87          86
         4          71          72          88          87
         4          72          73          89          88
         4          73          74          90          89
         4          74          75          91          90
         4          75          76          92          91
         4          76          77          93          92
         4          77          78          94          93
         4          78          79          95          94
         4          80          81          97          96
         4          81          82          98          97
         4          82          83          99          98
         4          83          84         100          99
         4          84          85         101         100
         4          85          86         102         101
         4          86          87         103         102
         4          87          88         104         103
         4          88          89         105         104
         4          89          90         106         105
         4          90          91         107         106
         4          91          92         108         107
         4          92          93         109         108
         4          93          94         110         109
         4          94          95         111         110
         4          96          97         113         112
         4          97          98         114         113
         4          98          99         115         114
         4          99         100         116         115
         4         100         101         117         116
         4         101         102         118         117
         4         102         103         119         118
         4         103         104         120         119
         4         104         105         121         120
         4         105         106         122         121
         4         106         107         123         122
         4         107         108         124         123
         4         108         109         125         124
         4         109         110         126         125
         4         110         111         127         126
         4         112         113         129         128
         4         113         114         130         129
         4         114         115         131         130
         4         115         116         132         131
         4         116         117         133         132
         4         117         118         134         133
         4         118         119         135         134
         4         119         120         136         135
         4         120         121         137         136
         4         121         122         138         137
         4         122         123         139         138
         4         123         124         140         139
         4         124         125         141         140
         4         125         126         142         141
         4         126         127         143         142
         4         128         129         145         144
         4         129         130         146         145
         4         130         131         147         146
         4         131         132         148         147
         4         132         133         149         148
         4         133         134         150         149
         4         134         135         151         150
         4         135         136         152         151
         4         136         137         153         152
         4         137         138         154         153
         4         138         139         155         154
         4         139         140         156         155
         4         140         141         157         156
         4         141         142         158         157
         4         142         143         159         158
         4         144         145         161         160
         4         145         146         162         161
         4         146         147         163         162
         4         147         148         164         163
         4         148         149         165         164
         4         149         150         166         165
         4         150         151         167         166
         4         151         152         168         167
         4         152         153         169         168
         4         153         154         170         169
         4         154         155         171         170
         4         155         156         172         171
         4         156         157         173         172
         4         157         158         174         173
         4         158         159         175         174
         4         160         161         177         176
         4         161         162         178         177
         4         162         163         179         178
         4         163         164         180         179
         4         164         165         181         180
         4         165         166         182         181
         4         166         167         183         182
         4         167         168         184         183
         4         168         169         185         184
         4         169         170         186         185
         4         170         171         187         186
         4         171         172         188         187
         4         172         173         189         188
         4         173         174         190         189
         4         174         175         191         190
         4         176         177         193         192
         4         177         178         194         193
         4         178         179         195         194
         4         179         180         196         195
         4         180         181         197         196
         4         181         182         198         197
         4         182         183         199         198
         4         183         184         200         199
         4         184         185         201         200
         4         185         186         202         201
         4         186         187         203         202
         4         187         188         204         203
         4         188         189         205         204
         4         189         190         206         205
         4         190         191         207         206
         4         192         193         209         208
         4         193         194         210         209
         4         194         195         211         210
         4         195         196         212         211
         4         196         197         213         212
         4         197         198         214         213
         4         198         199         215         214
         4         199         200         216         215
         4         200         201         217         216
         4         201         202         218         217
         4         202         203         219         218
         4         203         204         220         219
         4         204         205         221         220
         4         205         206         222         221
         4         206         207         223         222
         4         208         209         225         224
         4         209         210         226         225
         4         210         211         227         226
         4         211         212         228         227
         4         212         213         229         228
         4         213         214         230         229
         4         214         215         231         230
         4         215         216         232         231
         4         216         217         233         232
         4         217         218         234         233
         4         218         219         235         234
         4         219         220         236         235
         4         220         221         237         236
         4         221         222         238         237
         4         222         223         239         238
         4         224         225         241         240
         4         225         226         242         241
         4         226         227         243         242
         4         227         228         244         243
         4         228         229         245         244
         4         229         230         246         245
         4         230         231         247         246
         4         231         232         248         247
         4         232         233         249         248
         4         233         234         250         249
         4         234         235         251         250
         4         235         236         252         251
         4         236         237         253         252
         4         237         238         254         253
         4         238         239         255         254
         4         240         241         257         256
         4         241         242         258         257
         4         242         243         259         258
         4         243         244         260         259
         4         244         245         261         260
         4         245         246         262         261
         4         246         247         263         262
         4         247         248         264         263
         4         248         249         265         264
         4         249         250         266         265
         4         250         251         267         266
         4         251         252         268         267
         4         252         253         269         268
         4         253         254         270         269
         4         254         255         271         270
         4         256         257         273         272
         4         257         258         274         273
         4         258         259         275         274
         4         259         260         276         275
         4         260         261         277         276
         4         261         262         278         277
         4         262         263         279         278
         4         263         264         280         279
         4         264         265         281         280
         4         265         266         282         281
         4         266         267         283         282
         4         267         268         284         283
         4         268         269         285         284
         4         269         270         286         285
         4         270         271         287         286
         4         272         273         289         288
         4         273         274         290         289
         4         274         275         291         290
         4         275         276         292         291
         4         276         277         293         292
         4         277         278         294         293
         4         278         279         295         294
         4         279         280         296         295
         4         280         281         297         296
         4         281         282         298         297
         4         282         283         299         298
         4         283         284         300         299
         4         284         285         301         300
         4         285         286         302         301
         4         286         287         303         302
         4         288         289         305         304
         4         289         290         306         305
         4         290         291         307         306
         4         291         292         308         307
         4         292         293         309         308
         4         293         294         310         309
         4         294         295         311         310
         4         295         296         312         311
         4         296         297         313         312
         4         297         298         314         313
         4         298         299         315         314
         4         299         300         316         315
         4         300         301         317         316
         4         301         302         318         317
         4         302         303         319         318
         4         304         305         321         320
         4         305         306         322         321
         4         306         307         323         322
         4         307         308         324         323
         4         308         309         325         324
         4         309         310         326         325
         4         310         311         327         326
         4         311         312         328         327
         4         312         313         329         328
         4         313         314         330         329
         4         314         315         331         330
         4         315         316         332         331
         4         316         317         333         332
         4         317         318         334         333
         4         318         319         335         334
         4         320         321         337         336
         4         321         322         338         337
         4         322         323         339         338
         4         323         324         340         339
         4         324         325         341         340
         4         325         326         342         341
         4         326         327         343         342
         4         327         328         344         343
         4         328         329         345         344
         4         329         330         346         345
         4         330         331         347         346
         4         331         332         348         347
         4         332         333         349         348
         4         333         334         350         349
         4         334         335         351         350
         4         336         337         353         352
         4         337         338         354         353
         4         338         339         355         354
         4         339         340         356         355
         4         340         341         357         356
         4         341         342         358         357
         4         342         343         359         358
         4         343         344         360         359
         4         344         345         361         360
         4         345         346         362         361
         4         346         347         363         362
         4         347         348         364         363
         4         348         349         365         364
         4         349         350         366         365
         4         350         351         367         366
         4         352         353         369         368
         4         353         354         370         369
         4         354         355         371         370
         4         355         356         372         371
         4         356         357         373         372
         4         357         358         374         373
         4         358         359         375         374
         4         359         360         376         375
         4         360         361         377         376
         4         361         362         378         377
         4         362         363         379         378
         4         363         364         380         379
         4         364         365         381         380
         4         365         366         382         381
         4         366         367         383         382
         4         368         369         385         384
         4         369         370         386         385
         4         370         371         387         386
         4         371         372         388         387
         4         372         373         389         388
         4         373         374         390         389
         4         374         375         391         390
         4         375         376         392         391
         4         376         377         393         392
         4         377         378         394         393
         4         378         379         395         394
         4         379         380         396         395
         4         380         381         397         396
         4         381         382         398         397
         4         382         383         399         398
         4         384         385         401         400
         4         385         386         402         401
         4         386         387         403         402
         4         387         388         404         403
         4         388         389         405         404
         4         389         390         406         405
         4         390         391         407         406
         4         391         392         408         407
         4         392         393         409         408
         4         393         394         410         409
         4         394         395         411         410
         4         395         396         412         411
         4         396         397         413         412
         4         397         398         414         413
         4         398         399         415         414
         4         400         401         417         416
         4         401         402         418         417
         4         402         403         419         418
         4         403         404         420         419
         4         404         405         421         420
         4         405         406         422         421
         4         406         407         423         422
         4         407         408         424         423
         4         408         409         425         424
         4         409         410         426         425
         4         410         411         427         426
         4         411         412         428         427
         4         412         413         429         428
         4         413         414         430         429
         4         414         415         431         430
         4         416         417         433         432
         4         417         418         434         433
         4         418         419         435         434
         4         419         420         436         435
         4         420         421         437         436
         4         421         422         438         437
         4         422         423         439         438
         4         423         424         440         439
         4         424         425         441         440
         4         425         426         442         441
         4         426         427         443         442
         4         427         428         444         443
         4         428         429         445         444
         4         429         430         446         445
         4         430         431         447         446
         4         432         433         449         448
         4         433         434         450         449
         4         434         435         451         450
         4         435         436         452         451
         4         436         437         453         452
         4         437         438         454         453
         4         438         439         455         454
         4         439         440         456         455
         4         440         441         457         456
         4         441         442         458         457
         4         442         443         459         458
         4         443         444         460         459
         4         444         445         461         460
         4         445         446         462         461
         4         446         447         463         462
         4         448         449         465         464
         4         449         450         466         465
         4         450         451         467         466
         4         451         452         468         467
         4         452         453         469         468
         4         453         454         470         469
         4         454         455         471         470
         4         455         456         472         471
         4         456         457         473         472
         4         457         458         474         473
         4         458         459         475         474
         4         459         460         476         475
         4         460         461         477         476
         4         461         462         478         477
         4         462         463         479         478
         4         464         465         481         480
         4         465         466         482         481
         4         466         467         483         482
         4         467         468         484         483
         4         468         469         485         484
         4         469         470         486         485
         4         470         471         487         486
         4         471         472         488         487
         4         472         473         489         488
         4         473         474         490         489
         4         474         475         491         490
         4         475         476         492         491
         4         476         477         493         492
         4         477         478         494         493
         4         478         479         495         494
CELL_TYPES        450
9
9
9
9
9
9
9
9
9
9
9
9
9
9
9
9
9
9
9
9
9
9
9
9
9
9
9
9
9
9
9
9
9
9
9
9
9
9
9
9
9
9
9
9
9
9
9
9
9
9
9
9
9
9
9
9
9
9
9
9
9
9
9
9
9
9
9
9
9
9
9
9
9
9
9
9
9
9
9
9
9
9
9
9
9
9
9
9
9
9
9
9
9
9
9
9
9
9
9
9
9
9
9
9
9
9
9
9
9
9
9
9
9
9
9
9
9
9
9
9
9
9
9
9
9
9
9
9
9
9
9
9
9
9
9
9
9
9
9
9
9
9
9
9
9
9
9
9
9
9
9
9
9
9
9
9
9
9
9
9
9
9
9
9
9
9
9
9
9
9
9
9
9
9
9
9
9
9
9
9
9
9
9
9
9
9
9
9
9
9
9
9
9
9
9
9
9
9
9
9
9
9
9
9
9
9
9
9
9
9
9
9
9
9
9
9
9
9
9
9
9
9
9
9
9
9
9
9
9
9
9
9
9
9
9
9
9
9
9
9
9
9
9
9
9
9
9
9
9
9
9
9
9
9
9
9
9
9
9
9
9
9
9
9
9
9
9
9
9
9
9
9
9
9
9
9
9
9
9
9
9
9
9
9
9
9
9
9
9
9
9
9
9
9
9
9
9
9
9
9
9
9
9
9
9
9
9
9
9
9
9
9
9
9
9
9
9
9
9
9
9
9
9
9
9
9
9
9
9
9
9
9
9
9
9
9
9
9
9
9
9
9
9
9
9
9
9
9
9
9
9
9
9
9
9
9
9
9
9
9
9
9
9
9
9
9
9
9
9
9
9
9
9
9
9
9
9
9
9
9
9
9
9
9
9
9
9
9
9
9
9
9
9
9
9
9
9
9
9
9
9
9
9
9
9
9
9
9
9
9
9
9
9
9
9
9
9
9
9
9
9
9
9
9
9
9
9
9
9
9
9
9
9
9
9
9
9
9
9
9
9
9
9
9
9
9
9
9
9
9
POINT_DATA       496
SCALARS p double 
LOOKUP_TABLE default
   90000000.0000000     
   90000000.0000000     
   90000000.0000000     
   90000000.0000000     
   90000000.0000000     
   90000000.0000000     
   90000000.0000000     
   90000000.0000000     
   90000000.0000000     
   90000000.0000000     
   90000000.0000000     
   90000000.0000000     
   90000000.0000000     
   90000000.0000000     
   90000000.0000000     
   90000000.0000000     
   87239162.2501985     
   87238759.3421315     
   87237918.0128484     
   87236903.7719359     
   87235905.8986336     
   87235104.6786392     
   87234545.6052689     
   87234142.9041112     
   87233827.8533733     
   87233565.5222210     
   87233331.4945864     
   87233107.5812572     
   87232880.7605775     
   87232645.5996742     
   87232408.0027247     
   87232251.3813883     
   84474915.0572425     
   84474475.2531027     
   84473440.9662748     
   84472218.6773678     
   84471106.4221448     
   84470175.7442273     
   84469418.9744765     
   84468823.5573999     
   84468351.1335563     
   84467958.3772051     
   84467611.4356616     
   84467284.4992843     
   84466961.5409658     
   84466641.3203889     
   84466358.7747778     
   84466220.4782418     
   81710377.1908006     
   81710025.3512694     
   81709253.4307761     
   81708351.3801613     
   81707438.7644125     
   81706610.7323933     
   81705909.5404111     
   81705336.1766980     
   81704872.2141078     
   81704487.9547299     
   81704152.3988743     
   81703840.9187341     
   81703539.9237391     
   81703255.1807941     
   81703023.9126114     
   81702921.6898955     
   78948281.1912925     
   78948096.9802235     
   78947639.3389971     
   78947053.1251006     
   78946447.4365263     
   78945883.9135405     
   78945398.9739834     
   78945003.7985296     
   78944689.6111971     
   78944436.7753935     
   78944222.1974080     
   78944026.0774054     
   78943838.1564156     
   78943663.6157568     
   78943527.4715266     
   78943472.3087452     
   76190357.7676405     
   76190291.0326229     
   76190112.8432494     
   76189875.7687957     
   76189630.3815552     
   76189413.4207069     
   76189245.0918566     
   76189131.8103111     
   76189067.8980342     
   76189039.3607329     
   76189028.9707346     
   76189021.2060174     
   76189006.6392622     
   76188985.0403457     
   76188965.4825309     
   76188960.9234746     
   73437988.3740312     
   73438029.2815280     
   73438113.9661161     
   73438225.6759053     
   73438363.7040419     
   73438531.6162997     
   73438730.8934689     
   73438958.1999797     
   73439205.0625073     
   73439458.8796447     
   73439705.1024022     
   73439929.8294540     
   73440121.8985264     
   73440273.4926042     
   73440377.9989593     
   73440423.8414578     
   70692465.9038440     
   70692604.7906466     
   70692934.2032895     
   70693379.2728438     
   70693894.6210464     
   70694452.2022169     
   70695032.9299012     
   70695621.5154662     
   70696203.6271767     
   70696764.7325871     
   70697290.0028403     
   70697764.6562881     
   70698173.9518473     
   70698501.9487022     
   70698728.1574262     
   70698821.4322693     
   67954939.3052676     
   67955164.7764425     
   67955713.4585032     
   67956462.0017170     
   67957326.8911381     
   67958251.7618970     
   67959197.8815936     
   67960137.3511516     
   67961048.4917902     
   67961912.8457471     
   67962713.2384016     
   67963432.3006268     
   67964050.7988110     
   67964545.0978367     
   67964883.1678587     
   67965018.7922331     
   65226392.9297490     
   65226691.2442234     
   65227426.4978035     
   65228436.2569821     
   65229605.6223872     
   65230854.2095457     
   65232125.8779772     
   65233380.8539183     
   65234589.8224008     
   65235729.5292181     
   65236779.4039361     
   65237718.6920971     
   65238523.5686043     
   65239163.7329003     
   65239598.0931905     
   65239769.3544547     
   62507632.6574457     
   62507988.2199132     
   62508871.5920833     
   62510090.7158955     
   62511506.3577006     
   62513019.0220211     
   62514558.2682400     
   62516074.1416804     
   62517530.3766354     
   62518898.9890156     
   62520155.8501935     
   62521276.8191365     
   62522234.0181516     
   62522991.8844031     
   62523502.7324123     
   62523701.7265284     
   59799278.1261408     
   59799674.1277683     
   59800663.2898228     
   59802033.3316817     
   59803627.9056024     
   59805333.7044694     
   59807069.6620173     
   59808778.0185904     
   59810416.9757938     
   59811954.6270099     
   59813363.8281759     
   59814617.6679184     
   59815685.2144801     
   59816527.2680209     
   59817091.9370429     
   59817309.9848020     
   57101759.8760164     
   57102178.9674879     
   57103229.6085713     
   57104688.4555861     
   57106389.2548655     
   57108210.3717028     
   57110064.1305988     
   57111887.7954276     
   57113635.9712634     
   57115274.1753195     
   57116773.3053464     
   57118104.7330827     
   57119235.7722804     
   57120125.3193892     
   57120719.5413120     
   57120947.5839416     
   54415320.9709019     
   54415745.8934271     
   54416813.4903187     
   54418298.0844064     
   54420030.5271698     
   54421886.3343752     
   54423775.3814303     
   54425633.0368463     
   54427412.5662331     
   54429078.6057169     
   54430601.4858536     
   54431952.1878982     
   54433097.7360833     
   54433996.8735367     
   54434595.9340781     
   54434824.9018428     
   51740022.6310457     
   51740436.7803570     
   51741478.1812227     
   51742926.9604783     
   51744617.7225162     
   51746428.4334227     
   51748270.6455396     
   51750080.9846641     
   51751813.7745884     
   51753434.6388772     
   51754914.9013429     
   51756226.6070273     
   51757338.0057972     
   51758209.3803727     
   51758789.1569224     
   51759010.3035523     
   49075753.3718438     
   49076141.2823373     
   49077116.0762134     
   49078471.1017895     
   49080050.8621661     
   49081740.7459434     
   49083457.9159758     
   49085143.3157922     
   49086754.7010956     
   49088260.5654119     
   49089634.8083210     
   49090851.9937287     
   49091883.0645083     
   49092691.4169516     
   49093229.2902831     
   49093434.4873611     
   46422241.0719955     
   46422588.8161530     
   46423460.4784891     
   46424669.2368978     
   46426075.0293604     
   46427575.1866589     
   46429096.0846047     
   46430585.8053659     
   46432007.7367523     
   46433334.9940503     
   46434545.5251113     
   46435617.7571580     
   46436526.6622944     
   46437240.1555579     
   46437715.7905769     
   46437897.7779592     
   43779067.3353248     
   43779362.8388816     
   43780099.6574133     
   43781116.5482995     
   43782293.7350913     
   43783544.4571489     
   43784807.4541528     
   43786040.3955884     
   43787214.1914318     
   43788308.0678598     
   43789305.2645361     
   43790189.2076162     
   43790940.0326610     
   43791531.3708547     
   43791927.3663260     
   43792079.9567159     
   41145683.4710430     
   41145916.7490297     
   41146492.5467297     
   41147280.0849167     
   41148183.9924849     
   41149136.7510414     
   41150092.0579314     
   41151019.1250618     
   41151897.8381690     
   41152714.6393609     
   41153458.9667606     
   41154120.0851997     
   41154684.1659585     
   41155131.5174705     
   41155433.9295807     
   41155552.1673506     
   38521427.4022678     
   38521590.7254822     
   38521985.4098043     
   38522515.1895784     
   38523112.4690441     
   38523731.6089060     
   38524343.2038856     
   38524929.3549114     
   38525479.8214940     
   38525988.8700596     
   38526452.6088662     
   38526866.6080823     
   38527223.6344823     
   38527511.3796826     
   38527710.1290864     
   38527790.4052643     
   35905540.8226389     
   35905628.8287488     
   35905828.8102534     
   35906082.3015530     
   35906352.1025447     
   35906616.3336910     
   35906863.6744394     
   35907089.7379805     
   35907294.3859432     
   35907479.7176623     
   35907648.4610439     
   35907802.5176084     
   35907941.4541424     
   35908060.7850217     
   35908149.9617999     
   35908190.0888595     
   33297185.9537362     
   33297195.7228823     
   33297194.2642516     
   33297163.5385016     
   33297098.6163695     
   33297002.4291647     
   33296882.0611970     
   33296746.4160364     
   33296604.9083602     
   33296466.7913379     
   33296340.7691261     
   33296234.6038005     
   33296154.4737002     
   33296103.8807290     
   33296081.9672450     
   33296081.2191605     
   30695461.3066638     
   30695392.4298339     
   30695190.0137861     
   30694878.5392225     
   30694486.4587471     
   30694041.6154150     
   30693568.7970734     
   30693088.9969743     
   30692619.7650087     
   30692176.0853991     
   30691771.3618303     
   30691418.2094914     
   30691128.7988684     
   30690914.4922933     
   30690784.5324125     
   30690743.6579918     
   28099415.9105653     
   28099270.5939701     
   28098875.4474798     
   28098299.1652439     
   28097603.8290437     
   28096841.1169955     
   28096051.5725891     
   28095265.9579736     
   28094507.6252953     
   28093795.1346302     
   28093144.6966889     
   28092572.2226828     
   28092094.7765251     
   28091731.1120843     
   28091500.8717212     
   28091422.0938187     
   25508061.5231542     
   25507844.8017966     
   25507273.8107417     
   25506462.8347291     
   25505506.6669417     
   25504478.1275652     
   25503429.9924046     
   25502399.2364230     
   25501411.8279163     
   25500487.1561721     
   25499641.8541264     
   25498893.0568014     
   25498261.0699003     
   25497771.0972310     
   25497453.2967424     
   25497340.3205696     
   22920382.3512086     
   22920102.5528532     
   22919383.0089248     
   22918384.5463493     
   22917231.8167291     
   22916013.6512937     
   22914789.5374819     
   22913597.8935975     
   22912463.5485091     
   22911403.7405741     
   22910432.9422619     
   22909567.0580969     
   22908827.3221503     
   22908243.6770631     
   22907856.4599339     
   22907714.5340478     
   20335341.7212687     
   20335011.4835309     
   20334184.5878835     
   20333068.1825060     
   20331810.1277144     
   20330506.3098664     
   20329215.1029991     
   20327970.8272655     
   20326793.5049165     
   20325695.6269875     
   20324687.2750045     
   20323780.6152071     
   20322994.7717382     
   20322361.3565692     
   20321929.3451099     
   20321765.4997296     
   17751884.7385336     
   17751523.3756213     
   17750651.6920184     
   17749518.7946330     
   17748281.1380525     
   17747027.0589150     
   17745804.4300238     
   17744638.5160631     
   17743541.9646025     
   17742521.1263665     
   17741580.5423527     
   17740726.9300853     
   17739973.7835228     
   17739349.1093317     
   17738905.9972717     
   17738729.6005014     
   15168934.9105251     
   15168574.6238578     
   15167758.9085569     
   15166760.3175693     
   15165711.8746192     
   15164675.4704218     
   15163681.4943727     
   15162743.6363322     
   15161866.8498743     
   15161051.8985855     
   15160298.4539008     
   15159607.7823434     
   15158986.1752272     
   15158450.1873489     
   15158044.7448225     
   15157870.2296628     
   12585378.9213427     
   12585083.2886476     
   12584508.1167721     
   12583866.5416619     
   12583220.1967251     
   12582597.1860188     
   12582009.2111600     
   12581460.1280114     
   12580949.7828982     
   12580476.1821896     
   12580036.9011308     
   12579630.2838159     
   12579256.8380266     
   12578922.2168482     
   12578640.1507787     
   12578486.6640683     
   10000000.0000000     
   10000000.0000000     
   10000000.0000000     
   10000000.0000000     
   10000000.0000000     
   10000000.0000000     
   10000000.0000000     
   10000000.0000000     
   10000000.0000000     
   10000000.0000000     
   10000000.0000000     
   10000000.0000000     
   10000000.0000000     
  10000000.00000000     
   10000000.0000000     
   10000000.0000000     
VECTORS u double 
    0.00000E+00         0.21900E-01         0.00000E+00
    0.00000E+00         0.21152E-01         0.00000E+00
    0.00000E+00         0.19996E-01         0.00000E+00
    0.00000E+00         0.18591E-01         0.00000E+00
    0.00000E+00         0.17068E-01         0.00000E+00
    0.00000E+00         0.15542E-01         0.00000E+00
    0.00000E+00         0.14058E-01         0.00000E+00
    0.00000E+00         0.12616E-01         0.00000E+00
    0.00000E+00         0.11197E-01         0.00000E+00
    0.00000E+00         0.97800E-02         0.00000E+00
    0.00000E+00         0.83480E-02         0.00000E+00
    0.00000E+00         0.68803E-02         0.00000E+00
    0.00000E+00         0.53530E-02         0.00000E+00
    0.00000E+00         0.37351E-02         0.00000E+00
    0.00000E+00         0.19827E-02         0.00000E+00
    0.00000E+00         0.00000E+00         0.00000E+00
    0.57764E-02         0.21315E-01         0.00000E+00
    0.49725E-02         0.20494E-01         0.00000E+00
    0.41023E-02         0.19378E-01         0.00000E+00
    0.33542E-02         0.18068E-01         0.00000E+00
    0.27207E-02         0.16677E-01         0.00000E+00
    0.23258E-02         0.15263E-01         0.00000E+00
    0.21011E-02         0.13850E-01         0.00000E+00
    0.19199E-02         0.12450E-01         0.00000E+00
    0.17540E-02         0.11059E-01         0.00000E+00
    0.15914E-02         0.96652E-02         0.00000E+00
    0.14236E-02         0.82516E-02         0.00000E+00
    0.12423E-02         0.68000E-02         0.00000E+00
    0.10373E-02         0.52870E-02         0.00000E+00
    0.79306E-03         0.36826E-02         0.00000E+00
    0.48015E-03         0.19433E-02         0.00000E+00
    0.00000E+00         0.00000E+00         0.00000E+00
    0.98986E-02         0.20383E-01         0.00000E+00
    0.85372E-02         0.19317E-01         0.00000E+00
    0.71401E-02         0.18184E-01         0.00000E+00
    0.59578E-02         0.17002E-01         0.00000E+00
    0.50964E-02         0.15787E-01         0.00000E+00
    0.44822E-02         0.14544E-01         0.00000E+00
    0.40297E-02         0.13270E-01         0.00000E+00
    0.36598E-02         0.11973E-01         0.00000E+00
    0.33235E-02         0.10660E-01         0.00000E+00
    0.29961E-02         0.93287E-02         0.00000E+00
    0.26602E-02         0.79688E-02         0.00000E+00
    0.22991E-02         0.65647E-02         0.00000E+00
    0.18933E-02         0.50959E-02         0.00000E+00
    0.14147E-02         0.35352E-02         0.00000E+00
    0.81333E-03         0.18473E-02         0.00000E+00
    0.00000E+00         0.00000E+00         0.00000E+00
    0.12939E-01         0.18781E-01         0.00000E+00
    0.11164E-01         0.17762E-01         0.00000E+00
    0.96207E-02         0.16721E-01         0.00000E+00
    0.83188E-02         0.15683E-01         0.00000E+00
    0.72758E-02         0.14628E-01         0.00000E+00
    0.64577E-02         0.13535E-01         0.00000E+00
    0.57996E-02         0.12402E-01         0.00000E+00
    0.52400E-02         0.11232E-01         0.00000E+00
    0.47305E-02         0.10028E-01         0.00000E+00
    0.42371E-02         0.87918E-02         0.00000E+00
    0.37340E-02         0.75162E-02         0.00000E+00
    0.31971E-02         0.61899E-02         0.00000E+00
    0.25994E-02         0.47962E-02         0.00000E+00
    0.19051E-02         0.33139E-02         0.00000E+00
    0.10625E-02         0.17206E-02         0.00000E+00
    0.00000E+00         0.00000E+00         0.00000E+00
    0.15498E-01         0.16812E-01         0.00000E+00
    0.13567E-01         0.15954E-01         0.00000E+00
    0.11887E-01         0.15073E-01         0.00000E+00
    0.10453E-01         0.14175E-01         0.00000E+00
    0.92503E-02         0.13256E-01         0.00000E+00
    0.82508E-02         0.12305E-01         0.00000E+00
    0.74073E-02         0.11313E-01         0.00000E+00
    0.66685E-02         0.10278E-01         0.00000E+00
    0.59894E-02         0.92015E-02         0.00000E+00
    0.53324E-02         0.80824E-02         0.00000E+00
    0.46662E-02         0.69166E-02         0.00000E+00
    0.39608E-02         0.56955E-02         0.00000E+00
    0.31845E-02         0.44068E-02         0.00000E+00
    0.22990E-02         0.30360E-02         0.00000E+00
    0.12566E-02         0.15695E-02         0.00000E+00
    0.00000E+00         0.00000E+00         0.00000E+00
    0.17849E-01         0.14665E-01         0.00000E+00
    0.15761E-01         0.13964E-01         0.00000E+00
    0.13944E-01         0.13234E-01         0.00000E+00
    0.12372E-01         0.12482E-01         0.00000E+00
    0.11022E-01         0.11705E-01         0.00000E+00
    0.98620E-02         0.10894E-01         0.00000E+00
    0.88522E-02         0.10045E-01         0.00000E+00
    0.79486E-02         0.91517E-02         0.00000E+00
    0.71092E-02         0.82139E-02         0.00000E+00
    0.62959E-02         0.72292E-02         0.00000E+00
    0.54744E-02         0.61940E-02         0.00000E+00
    0.46114E-02         0.51020E-02         0.00000E+00
    0.36727E-02         0.39446E-02         0.00000E+00
    0.26204E-02         0.27126E-02         0.00000E+00
    0.14117E-02         0.13986E-02         0.00000E+00
    0.00000E+00         0.00000E+00         0.00000E+00
    0.19973E-01         0.12354E-01         0.00000E+00
    0.17741E-01         0.11806E-01         0.00000E+00
    0.15789E-01         0.11229E-01         0.00000E+00
    0.14086E-01         0.10626E-01         0.00000E+00
    0.12599E-01         0.99947E-02         0.00000E+00
    0.11295E-01         0.93305E-02         0.00000E+00
    0.10137E-01         0.86283E-02         0.00000E+00
    0.90837E-02         0.78841E-02         0.00000E+00
    0.80969E-02         0.70950E-02         0.00000E+00
    0.71384E-02         0.62584E-02         0.00000E+00
    0.61728E-02         0.53708E-02         0.00000E+00
    0.51656E-02         0.44277E-02         0.00000E+00
    0.40819E-02         0.34234E-02         0.00000E+00
    0.28853E-02         0.23525E-02         0.00000E+00
    0.15376E-02         0.12112E-02         0.00000E+00
    0.00000E+00         0.00000E+00         0.00000E+00
    0.21862E-01         0.98981E-02         0.00000E+00
    0.19500E-01         0.95031E-02         0.00000E+00
    0.17425E-01         0.90799E-02         0.00000E+00
    0.15600E-01         0.86292E-02         0.00000E+00
    0.13988E-01         0.81495E-02         0.00000E+00
    0.12556E-01         0.76373E-02         0.00000E+00
    0.11265E-01         0.70888E-02         0.00000E+00
    0.10079E-01         0.65004E-02         0.00000E+00
    0.89588E-02         0.58691E-02         0.00000E+00
    0.78687E-02         0.51920E-02         0.00000E+00
    0.67728E-02         0.44662E-02         0.00000E+00
    0.56364E-02         0.36883E-02         0.00000E+00
    0.44252E-02         0.28547E-02         0.00000E+00
    0.31048E-02         0.19624E-02         0.00000E+00
    0.16408E-02         0.10103E-02         0.00000E+00
    0.00000E+00         0.00000E+00         0.00000E+00
    0.23510E-01         0.73208E-02         0.00000E+00
    0.21038E-01         0.70780E-02         0.00000E+00
    0.18854E-01         0.68094E-02         0.00000E+00
    0.16919E-01         0.65140E-02         0.00000E+00
    0.15196E-01         0.61903E-02         0.00000E+00
    0.13649E-01         0.58356E-02         0.00000E+00
    0.12242E-01         0.54470E-02         0.00000E+00
    0.10938E-01         0.50214E-02         0.00000E+00
    0.97010E-02         0.45561E-02         0.00000E+00
    0.84943E-02         0.40485E-02         0.00000E+00
    0.72831E-02         0.34962E-02         0.00000E+00
    0.60335E-02         0.28967E-02         0.00000E+00
    0.47121E-02         0.22478E-02         0.00000E+00
    0.32865E-02         0.15483E-02         0.00000E+00
    0.17255E-02         0.79818E-03         0.00000E+00
    0.00000E+00         0.00000E+00         0.00000E+00
    0.24917E-01         0.46434E-02         0.00000E+00
    0.22354E-01         0.45526E-02         0.00000E+00
    0.20076E-01         0.44392E-02         0.00000E+00
    0.18046E-01         0.43014E-02         0.00000E+00
    0.16226E-01         0.41372E-02         0.00000E+00
    0.14581E-01         0.39447E-02         0.00000E+00
    0.13073E-01         0.37215E-02         0.00000E+00
    0.11668E-01         0.34650E-02         0.00000E+00
    0.10329E-01         0.31731E-02         0.00000E+00
    0.90215E-02         0.28435E-02         0.00000E+00
    0.77109E-02         0.24743E-02         0.00000E+00
    0.63643E-02         0.20638E-02         0.00000E+00
    0.49494E-02         0.16108E-02         0.00000E+00
    0.34358E-02         0.11150E-02         0.00000E+00
    0.17947E-02         0.57715E-03         0.00000E+00
    0.00000E+00         0.00000E+00         0.00000E+00
    0.26087E-01         0.18858E-02         0.00000E+00
    0.23450E-01         0.19470E-02         0.00000E+00
    0.21095E-01         0.19893E-02         0.00000E+00
    0.18985E-01         0.20106E-02         0.00000E+00
    0.17083E-01         0.20088E-02         0.00000E+00
    0.15355E-01         0.19822E-02         0.00000E+00
    0.13763E-01         0.19288E-02         0.00000E+00
    0.12272E-01         0.18469E-02         0.00000E+00
    0.10848E-01         0.17345E-02         0.00000E+00
    0.94556E-02         0.15899E-02         0.00000E+00
    0.80618E-02         0.14117E-02         0.00000E+00
    0.66342E-02         0.11986E-02         0.00000E+00
    0.51421E-02         0.95025E-03         0.00000E+00
    0.35564E-02         0.66664E-03         0.00000E+00
    0.18503E-02         0.34905E-03         0.00000E+00
    0.00000E+00         0.00000E+00         0.00000E+00
    0.27021E-01        -0.93400E-03         0.00000E+00
    0.24327E-01        -0.72074E-03         0.00000E+00
    0.21911E-01        -0.52227E-03         0.00000E+00
    0.19738E-01        -0.34093E-03         0.00000E+00
    0.17770E-01        -0.17844E-03         0.00000E+00
    0.15974E-01        -0.36331E-04         0.00000E+00
    0.14314E-01         0.83920E-04         0.00000E+00
    0.12755E-01         0.18082E-03         0.00000E+00
    0.11262E-01         0.25294E-03         0.00000E+00
    0.98010E-02         0.29899E-03         0.00000E+00
    0.83401E-02         0.31787E-03         0.00000E+00
    0.68476E-02         0.30887E-03         0.00000E+00
    0.52938E-02         0.27172E-03         0.00000E+00
    0.36509E-02         0.20685E-03         0.00000E+00
    0.18937E-02         0.11552E-03         0.00000E+00
    0.00000E+00         0.00000E+00         0.00000E+00
    0.27724E-01        -0.37994E-02         0.00000E+00
    0.24989E-01        -0.34342E-02         0.00000E+00
    0.22528E-01        -0.30795E-02         0.00000E+00
    0.20307E-01        -0.27374E-02         0.00000E+00
    0.18290E-01        -0.24093E-02         0.00000E+00
    0.16443E-01        -0.20964E-02         0.00000E+00
    0.14731E-01        -0.17999E-02         0.00000E+00
    0.13120E-01        -0.15208E-02         0.00000E+00
    0.11574E-01        -0.12603E-02         0.00000E+00
    0.10061E-01        -0.10194E-02         0.00000E+00
    0.85494E-02        -0.79874E-03         0.00000E+00
    0.70076E-02        -0.59889E-03         0.00000E+00
    0.54071E-02        -0.41990E-03         0.00000E+00
    0.37212E-02        -0.26130E-03         0.00000E+00
    0.19258E-02        -0.12195E-03         0.00000E+00
    0.00000E+00         0.00000E+00         0.00000E+00
    0.28198E-01        -0.66957E-02         0.00000E+00
    0.25437E-01        -0.61786E-02         0.00000E+00
    0.22947E-01        -0.56677E-02         0.00000E+00
    0.20694E-01        -0.51646E-02         0.00000E+00
    0.18644E-01        -0.46701E-02         0.00000E+00
    0.16763E-01        -0.41851E-02         0.00000E+00
    0.15016E-01        -0.37105E-02         0.00000E+00
    0.13369E-01        -0.32469E-02         0.00000E+00
    0.11788E-01        -0.27954E-02         0.00000E+00
    0.10239E-01        -0.23565E-02         0.00000E+00
    0.86924E-02        -0.19308E-02         0.00000E+00
    0.71167E-02        -0.15187E-02         0.00000E+00
    0.54841E-02        -0.11203E-02         0.00000E+00
    0.37688E-02        -0.73499E-03         0.00000E+00
    0.19474E-02        -0.36204E-03         0.00000E+00
    0.00000E+00         0.00000E+00         0.00000E+00
    0.28447E-01        -0.96090E-02         0.00000E+00
    0.25674E-01        -0.89403E-02         0.00000E+00
    0.23169E-01        -0.82736E-02         0.00000E+00
    0.20901E-01        -0.76095E-02         0.00000E+00
    0.18835E-01        -0.69483E-02         0.00000E+00
    0.16936E-01        -0.62905E-02         0.00000E+00
    0.15171E-01        -0.56366E-02         0.00000E+00
    0.13505E-01        -0.49872E-02         0.00000E+00
    0.11905E-01        -0.43428E-02         0.00000E+00
    0.10337E-01        -0.37042E-02         0.00000E+00
    0.87711E-02        -0.30715E-02         0.00000E+00
    0.71766E-02        -0.24453E-02         0.00000E+00
    0.55262E-02        -0.18254E-02         0.00000E+00
    0.37945E-02        -0.12117E-02         0.00000E+00
    0.19590E-02        -0.60350E-03         0.00000E+00
    0.00000E+00         0.00000E+00         0.00000E+00
    0.28471E-01        -0.12526E-01         0.00000E+00
    0.25700E-01        -0.11707E-01         0.00000E+00
    0.23197E-01        -0.10885E-01         0.00000E+00
    0.20929E-01        -0.10060E-01         0.00000E+00
    0.18863E-01        -0.92319E-02         0.00000E+00
    0.16964E-01        -0.84012E-02         0.00000E+00
    0.15198E-01        -0.75677E-02         0.00000E+00
    0.13531E-01        -0.67318E-02         0.00000E+00
    0.11928E-01        -0.58941E-02         0.00000E+00
    0.10357E-01        -0.50549E-02         0.00000E+00
    0.87869E-02        -0.42146E-02         0.00000E+00
    0.71885E-02        -0.33735E-02         0.00000E+00
    0.55343E-02        -0.25316E-02         0.00000E+00
    0.37991E-02        -0.16889E-02         0.00000E+00
    0.19608E-02        -0.84515E-03         0.00000E+00
    0.00000E+00         0.00000E+00         0.00000E+00
    0.28272E-01        -0.15436E-01         0.00000E+00
    0.25517E-01        -0.14466E-01         0.00000E+00
    0.23029E-01        -0.13489E-01         0.00000E+00
    0.20778E-01        -0.12504E-01         0.00000E+00
    0.18730E-01        -0.11510E-01         0.00000E+00
    0.16848E-01        -0.10506E-01         0.00000E+00
    0.15098E-01        -0.94934E-02         0.00000E+00
    0.13446E-01        -0.84714E-02         0.00000E+00
    0.11857E-01        -0.74406E-02         0.00000E+00
    0.10299E-01        -0.64013E-02         0.00000E+00
    0.87408E-02        -0.53538E-02         0.00000E+00
    0.71533E-02        -0.42984E-02         0.00000E+00
    0.55091E-02        -0.32351E-02         0.00000E+00
    0.37831E-02        -0.21643E-02         0.00000E+00
    0.19531E-02        -0.10858E-02         0.00000E+00
    0.00000E+00         0.00000E+00         0.00000E+00
    0.27850E-01        -0.18324E-01         0.00000E+00
    0.25123E-01        -0.17205E-01         0.00000E+00
    0.22668E-01        -0.16074E-01         0.00000E+00
    0.20450E-01        -0.14930E-01         0.00000E+00
    0.18436E-01        -0.13770E-01         0.00000E+00
    0.16588E-01        -0.12595E-01         0.00000E+00
    0.14871E-01        -0.11404E-01         0.00000E+00
    0.13251E-01        -0.10196E-01         0.00000E+00
    0.11693E-01        -0.89737E-02         0.00000E+00
    0.10164E-01        -0.77357E-02         0.00000E+00
    0.86332E-02        -0.64827E-02         0.00000E+00
    0.70713E-02        -0.52149E-02         0.00000E+00
    0.54507E-02        -0.39324E-02         0.00000E+00
    0.37464E-02        -0.26354E-02         0.00000E+00
    0.19359E-02        -0.13244E-02         0.00000E+00
    0.00000E+00         0.00000E+00         0.00000E+00
    0.27203E-01        -0.21179E-01         0.00000E+00
    0.24519E-01        -0.19912E-01         0.00000E+00
    0.22111E-01        -0.18628E-01         0.00000E+00
    0.19944E-01        -0.17326E-01         0.00000E+00
    0.17981E-01        -0.16002E-01         0.00000E+00
    0.16185E-01        -0.14656E-01         0.00000E+00
    0.14519E-01        -0.13287E-01         0.00000E+00
    0.12948E-01        -0.11897E-01         0.00000E+00
    0.11436E-01        -0.10484E-01         0.00000E+00
    0.99522E-02        -0.90505E-02         0.00000E+00
    0.84640E-02        -0.75949E-02         0.00000E+00
    0.69422E-02        -0.61179E-02         0.00000E+00
    0.53590E-02        -0.46195E-02         0.00000E+00
    0.36889E-02        -0.30999E-02         0.00000E+00
    0.19092E-02        -0.15597E-02         0.00000E+00
    0.00000E+00         0.00000E+00         0.00000E+00
    0.26328E-01        -0.23987E-01         0.00000E+00
    0.23702E-01        -0.22573E-01         0.00000E+00
    0.21359E-01        -0.21138E-01         0.00000E+00
    0.19260E-01        -0.19678E-01         0.00000E+00
    0.17366E-01        -0.18191E-01         0.00000E+00
    0.15639E-01        -0.16676E-01         0.00000E+00
    0.14041E-01        -0.15133E-01         0.00000E+00
    0.12535E-01        -0.13562E-01         0.00000E+00
    0.11087E-01        -0.11963E-01         0.00000E+00
    0.96631E-02        -0.10337E-01         0.00000E+00
    0.82325E-02        -0.86832E-02         0.00000E+00
    0.67651E-02        -0.70018E-02         0.00000E+00
    0.52331E-02        -0.52923E-02         0.00000E+00
    0.36102E-02        -0.35550E-02         0.00000E+00
    0.18727E-02        -0.17904E-02         0.00000E+00
    0.00000E+00         0.00000E+00         0.00000E+00
    0.25221E-01        -0.26734E-01         0.00000E+00
    0.22670E-01        -0.25174E-01         0.00000E+00
    0.20409E-01        -0.23589E-01         0.00000E+00
    0.18396E-01        -0.21973E-01         0.00000E+00
    0.16590E-01        -0.20325E-01         0.00000E+00
    0.14950E-01        -0.18643E-01         0.00000E+00
    0.13437E-01        -0.16927E-01         0.00000E+00
    0.12013E-01        -0.15179E-01         0.00000E+00
    0.10643E-01        -0.13399E-01         0.00000E+00
    0.92950E-02        -0.11586E-01         0.00000E+00
    0.79368E-02        -0.97398E-02         0.00000E+00
    0.65385E-02        -0.78603E-02         0.00000E+00
    0.50715E-02        -0.59464E-02         0.00000E+00
    0.35089E-02        -0.39979E-02         0.00000E+00
    0.18258E-02        -0.20152E-02         0.00000E+00
    0.00000E+00         0.00000E+00         0.00000E+00
    0.23878E-01        -0.29402E-01         0.00000E+00
    0.21420E-01        -0.27699E-01         0.00000E+00
    0.19260E-01        -0.25965E-01         0.00000E+00
    0.17353E-01        -0.24195E-01         0.00000E+00
    0.15654E-01        -0.22387E-01         0.00000E+00
    0.14118E-01        -0.20540E-01         0.00000E+00
    0.12706E-01        -0.18656E-01         0.00000E+00
    0.11379E-01        -0.16736E-01         0.00000E+00
    0.10104E-01        -0.14779E-01         0.00000E+00
    0.88459E-02        -0.12786E-01         0.00000E+00
    0.75746E-02        -0.10756E-01         0.00000E+00
    0.62597E-02        -0.86866E-02         0.00000E+00
    0.48720E-02        -0.65768E-02         0.00000E+00
    0.33835E-02        -0.44255E-02         0.00000E+00
    0.17676E-02        -0.22327E-02         0.00000E+00
    0.00000E+00         0.00000E+00         0.00000E+00
    0.22293E-01        -0.31974E-01         0.00000E+00
    0.19948E-01        -0.30130E-01         0.00000E+00
    0.17911E-01        -0.28248E-01         0.00000E+00
    0.16130E-01        -0.26325E-01         0.00000E+00
    0.14556E-01        -0.24359E-01         0.00000E+00
    0.13142E-01        -0.22351E-01         0.00000E+00
    0.11847E-01        -0.20303E-01         0.00000E+00
    0.10633E-01        -0.18216E-01         0.00000E+00
    0.94657E-02        -0.16091E-01         0.00000E+00
    0.83122E-02        -0.13927E-01         0.00000E+00
    0.71418E-02        -0.11722E-01         0.00000E+00
    0.59246E-02        -0.94731E-02         0.00000E+00
    0.46309E-02        -0.71781E-02         0.00000E+00
    0.32312E-02        -0.48345E-02         0.00000E+00
    0.16966E-02        -0.24413E-02         0.00000E+00
    0.00000E+00         0.00000E+00         0.00000E+00
    0.20458E-01        -0.34427E-01         0.00000E+00
    0.18251E-01        -0.32443E-01         0.00000E+00
    0.16360E-01        -0.30416E-01         0.00000E+00
    0.14727E-01        -0.28341E-01         0.00000E+00
    0.13297E-01        -0.26220E-01         0.00000E+00
    0.12022E-01        -0.24055E-01         0.00000E+00
    0.10860E-01        -0.21848E-01         0.00000E+00
    0.97721E-02        -0.19603E-01         0.00000E+00
    0.87256E-02        -0.17318E-01         0.00000E+00
    0.76892E-02        -0.14994E-01         0.00000E+00
    0.66331E-02        -0.12626E-01         0.00000E+00
    0.55277E-02        -0.10211E-01         0.00000E+00
    0.43431E-02        -0.77440E-02         0.00000E+00
    0.30480E-02        -0.52209E-02         0.00000E+00
    0.16108E-02        -0.26394E-02         0.00000E+00
    0.00000E+00         0.00000E+00         0.00000E+00
    0.18368E-01        -0.36738E-01         0.00000E+00
    0.16325E-01        -0.34616E-01         0.00000E+00
    0.14606E-01        -0.32444E-01         0.00000E+00
    0.13143E-01        -0.30219E-01         0.00000E+00
    0.11878E-01        -0.27946E-01         0.00000E+00
    0.10758E-01        -0.25628E-01         0.00000E+00
    0.97415E-02        -0.23271E-01         0.00000E+00
    0.87921E-02        -0.20876E-01         0.00000E+00
    0.78780E-02        -0.18444E-01         0.00000E+00
    0.69702E-02        -0.15972E-01         0.00000E+00
    0.60408E-02        -0.13456E-01         0.00000E+00
    0.50612E-02        -0.10891E-01         0.00000E+00
    0.40014E-02        -0.82677E-02         0.00000E+00
    0.28286E-02        -0.55808E-02         0.00000E+00
    0.15071E-02        -0.28252E-02         0.00000E+00
    0.00000E+00         0.00000E+00         0.00000E+00
    0.16013E-01        -0.38876E-01         0.00000E+00
    0.14167E-01        -0.36618E-01         0.00000E+00
    0.12649E-01        -0.34302E-01         0.00000E+00
    0.11382E-01        -0.31929E-01         0.00000E+00
    0.10299E-01        -0.29508E-01         0.00000E+00
    0.93488E-02        -0.27044E-01         0.00000E+00
    0.84898E-02        -0.24545E-01         0.00000E+00
    0.76884E-02        -0.22013E-01         0.00000E+00
    0.69160E-02        -0.19447E-01         0.00000E+00
    0.61466E-02        -0.16845E-01         0.00000E+00
    0.53550E-02        -0.14199E-01         0.00000E+00
    0.45147E-02        -0.11501E-01         0.00000E+00
    0.35961E-02        -0.87413E-02         0.00000E+00
    0.25649E-02        -0.59093E-02         0.00000E+00
    0.13810E-02        -0.29967E-02         0.00000E+00
    0.00000E+00         0.00000E+00         0.00000E+00
    0.13385E-01        -0.40806E-01         0.00000E+00
    0.11775E-01        -0.38413E-01         0.00000E+00
    0.10492E-01        -0.35954E-01         0.00000E+00
    0.94445E-02        -0.33436E-01         0.00000E+00
    0.85622E-02        -0.30872E-01         0.00000E+00
    0.77934E-02        -0.28273E-01         0.00000E+00
    0.71005E-02        -0.25645E-01         0.00000E+00
    0.64543E-02        -0.22991E-01         0.00000E+00
    0.58306E-02        -0.20309E-01         0.00000E+00
    0.52075E-02        -0.17594E-01         0.00000E+00
    0.45633E-02        -0.14838E-01         0.00000E+00
    0.38747E-02        -0.12030E-01         0.00000E+00
    0.31139E-02        -0.91561E-02         0.00000E+00
    0.22461E-02        -0.62013E-02         0.00000E+00
    0.12264E-02        -0.31518E-02         0.00000E+00
    0.00000E+00         0.00000E+00         0.00000E+00
    0.10476E-01        -0.42482E-01         0.00000E+00
    0.91500E-02        -0.39955E-01         0.00000E+00
    0.81397E-02        -0.37354E-01         0.00000E+00
    0.73366E-02        -0.34696E-01         0.00000E+00
    0.66683E-02        -0.32000E-01         0.00000E+00
    0.60890E-02        -0.29280E-01         0.00000E+00
    0.55676E-02        -0.26542E-01         0.00000E+00
    0.50812E-02        -0.23785E-01         0.00000E+00
    0.46108E-02        -0.21008E-01         0.00000E+00
    0.41395E-02        -0.18202E-01         0.00000E+00
    0.36503E-02        -0.15359E-01         0.00000E+00
    0.31242E-02        -0.12465E-01         0.00000E+00
    0.25373E-02        -0.95018E-02         0.00000E+00
    0.18567E-02        -0.64502E-02         0.00000E+00
    0.10336E-02        -0.32882E-02         0.00000E+00
    0.00000E+00         0.00000E+00         0.00000E+00
    0.72766E-02        -0.43846E-01         0.00000E+00
    0.62992E-02        -0.41186E-01         0.00000E+00
    0.56022E-02        -0.38446E-01         0.00000E+00
    0.50620E-02        -0.35659E-01         0.00000E+00
    0.46157E-02        -0.32851E-01         0.00000E+00
    0.42296E-02        -0.30032E-01         0.00000E+00
    0.38821E-02        -0.27207E-01         0.00000E+00
    0.35575E-02        -0.24372E-01         0.00000E+00
    0.32430E-02        -0.21524E-01         0.00000E+00
    0.29272E-02        -0.18652E-01         0.00000E+00
    0.25984E-02        -0.15746E-01         0.00000E+00
    0.22431E-02        -0.12790E-01         0.00000E+00
    0.18439E-02        -0.97656E-02         0.00000E+00
    0.13746E-02        -0.66475E-02         0.00000E+00
    0.78796E-03        -0.34024E-02         0.00000E+00
    0.00000E+00         0.00000E+00         0.00000E+00
    0.37799E-02        -0.44812E-01         0.00000E+00
    0.32403E-02        -0.42019E-01         0.00000E+00
    0.28901E-02        -0.39154E-01         0.00000E+00
    0.26201E-02        -0.36269E-01         0.00000E+00
    0.23976E-02        -0.33382E-01         0.00000E+00
    0.22050E-02        -0.30499E-01         0.00000E+00
    0.20315E-02        -0.27617E-01         0.00000E+00
    0.18692E-02        -0.24734E-01         0.00000E+00
    0.17118E-02        -0.21840E-01         0.00000E+00
    0.15535E-02        -0.18928E-01         0.00000E+00
    0.13883E-02        -0.15984E-01         0.00000E+00
    0.12094E-02        -0.12992E-01         0.00000E+00
    0.10074E-02        -0.99330E-02         0.00000E+00
    0.76776E-03        -0.67787E-02         0.00000E+00
    0.46278E-03        -0.34892E-02         0.00000E+00
    0.00000E+00         0.00000E+00         0.00000E+00
    0.00000E+00        -0.45223E-01         0.00000E+00
    0.00000E+00        -0.42326E-01         0.00000E+00
    0.00000E+00        -0.39402E-01         0.00000E+00
    0.00000E+00        -0.36479E-01         0.00000E+00
    0.00000E+00        -0.33563E-01         0.00000E+00
    0.00000E+00        -0.30657E-01         0.00000E+00
    0.00000E+00        -0.27756E-01         0.00000E+00
    0.00000E+00        -0.24856E-01         0.00000E+00
    0.00000E+00        -0.21947E-01         0.00000E+00
    0.00000E+00        -0.19021E-01         0.00000E+00
    0.00000E+00        -0.16065E-01         0.00000E+00
    0.00000E+00        -0.13061E-01         0.00000E+00
    0.00000E+00        -0.99906E-02         0.00000E+00
    0.00000E+00        -0.68254E-02         0.00000E+00
    0.00000E+00        -0.35249E-02         0.00000E+00
    0.00000E+00         0.00000E+00         0.00000E+00
CELL_DATA        450
VECTORS vDarcy double 
    0.19822E-07        -0.14463E-11         0.00000E+00
    0.19819E-07        -0.30188E-11         0.00000E+00
    0.19816E-07        -0.36375E-11         0.00000E+00
    0.19813E-07        -0.35771E-11         0.00000E+00
    0.19812E-07        -0.28709E-11         0.00000E+00
    0.19811E-07        -0.20027E-11         0.00000E+00
    0.19811E-07        -0.14423E-11         0.00000E+00
    0.19810E-07        -0.11282E-11         0.00000E+00
    0.19810E-07        -0.93928E-12         0.00000E+00
    0.19809E-07        -0.83783E-12         0.00000E+00
    0.19808E-07        -0.80153E-12         0.00000E+00
    0.19808E-07        -0.81185E-12         0.00000E+00
    0.19807E-07        -0.84161E-12         0.00000E+00
    0.19807E-07        -0.85023E-12         0.00000E+00
    0.19805E-07        -0.56038E-12         0.00000E+00
    0.19823E-07        -0.30216E-11         0.00000E+00
    0.19818E-07        -0.67231E-11         0.00000E+00
    0.19813E-07        -0.80144E-11         0.00000E+00
    0.19810E-07        -0.75598E-11         0.00000E+00
    0.19808E-07        -0.62037E-11         0.00000E+00
    0.19805E-07        -0.47126E-11         0.00000E+00
    0.19804E-07        -0.35741E-11         0.00000E+00
    0.19802E-07        -0.28194E-11         0.00000E+00
    0.19800E-07        -0.23451E-11         0.00000E+00
    0.19799E-07        -0.20795E-11         0.00000E+00
    0.19797E-07        -0.19715E-11         0.00000E+00
    0.19796E-07        -0.19675E-11         0.00000E+00
    0.19795E-07        -0.19873E-11         0.00000E+00
    0.19793E-07        -0.18610E-11         0.00000E+00
    0.19791E-07        -0.10551E-11         0.00000E+00
    0.19810E-07        -0.28363E-11         0.00000E+00
    0.19804E-07        -0.64701E-11         0.00000E+00
    0.19801E-07        -0.76090E-11         0.00000E+00
    0.19797E-07        -0.72520E-11         0.00000E+00
    0.19793E-07        -0.62979E-11         0.00000E+00
    0.19790E-07        -0.52202E-11         0.00000E+00
    0.19787E-07        -0.41842E-11         0.00000E+00
    0.19784E-07        -0.33518E-11         0.00000E+00
    0.19782E-07        -0.27810E-11         0.00000E+00
    0.19779E-07        -0.24425E-11         0.00000E+00
    0.19777E-07        -0.22845E-11         0.00000E+00
    0.19775E-07        -0.22325E-11         0.00000E+00
    0.19773E-07        -0.21644E-11         0.00000E+00
    0.19771E-07        -0.18381E-11         0.00000E+00
    0.19769E-07        -0.86035E-12         0.00000E+00
    0.19784E-07        -0.19199E-11         0.00000E+00
    0.19781E-07        -0.44032E-11         0.00000E+00
    0.19776E-07        -0.53291E-11         0.00000E+00
    0.19772E-07        -0.54361E-11         0.00000E+00
    0.19768E-07        -0.49818E-11         0.00000E+00
    0.19764E-07        -0.42458E-11         0.00000E+00
    0.19760E-07        -0.34666E-11         0.00000E+00
    0.19757E-07        -0.27848E-11         0.00000E+00
    0.19753E-07        -0.22798E-11         0.00000E+00
    0.19751E-07        -0.19684E-11         0.00000E+00
    0.19748E-07        -0.18160E-11         0.00000E+00
    0.19745E-07        -0.17490E-11         0.00000E+00
    0.19743E-07        -0.16429E-11         0.00000E+00
    0.19741E-07        -0.13142E-11         0.00000E+00
    0.19739E-07        -0.56290E-12         0.00000E+00
    0.19749E-07        -0.89849E-12         0.00000E+00
    0.19745E-07        -0.22763E-11         0.00000E+00
    0.19741E-07        -0.29471E-11         0.00000E+00
    0.19737E-07        -0.30463E-11         0.00000E+00
    0.19732E-07        -0.27934E-11         0.00000E+00
    0.19728E-07        -0.23378E-11         0.00000E+00
    0.19724E-07        -0.18194E-11         0.00000E+00
    0.19720E-07        -0.13528E-11         0.00000E+00
    0.19716E-07        -0.10066E-11         0.00000E+00
    0.19713E-07        -0.80477E-12         0.00000E+00
    0.19710E-07        -0.72929E-12         0.00000E+00
    0.19707E-07        -0.72424E-12         0.00000E+00
    0.19705E-07        -0.70148E-12         0.00000E+00
    0.19702E-07        -0.55683E-12         0.00000E+00
    0.19701E-07        -0.21357E-12         0.00000E+00
    0.19703E-07        -0.92445E-13         0.00000E+00
    0.19700E-07        -0.33465E-12         0.00000E+00
    0.19696E-07        -0.44864E-12         0.00000E+00
    0.19691E-07        -0.38417E-12         0.00000E+00
    0.19687E-07        -0.17550E-12         0.00000E+00
    0.19682E-07         0.11072E-12         0.00000E+00
    0.19678E-07         0.40791E-12         0.00000E+00
    0.19674E-07         0.65443E-12         0.00000E+00
    0.19670E-07         0.80578E-12         0.00000E+00
    0.19667E-07         0.84346E-12         0.00000E+00
    0.19664E-07         0.77592E-12         0.00000E+00
    0.19661E-07         0.63475E-12         0.00000E+00
    0.19658E-07         0.46484E-12         0.00000E+00
    0.19656E-07         0.30374E-12         0.00000E+00
    0.19655E-07         0.14761E-12         0.00000E+00
    0.19648E-07         0.64334E-12         0.00000E+00
    0.19645E-07         0.14816E-11         0.00000E+00
    0.19641E-07         0.19919E-11         0.00000E+00
    0.19637E-07         0.23374E-11         0.00000E+00
    0.19633E-07         0.25951E-11         0.00000E+00
    0.19629E-07         0.27899E-11         0.00000E+00
    0.19625E-07         0.29181E-11         0.00000E+00
    0.19621E-07         0.29646E-11         0.00000E+00
    0.19617E-07         0.29142E-11         0.00000E+00
    0.19613E-07         0.27587E-11         0.00000E+00
    0.19610E-07         0.25007E-11         0.00000E+00
    0.19608E-07         0.21501E-11         0.00000E+00
    0.19605E-07         0.17146E-11         0.00000E+00
    0.19603E-07         0.11823E-11         0.00000E+00
    0.19602E-07         0.49732E-12         0.00000E+00
    0.19584E-07         0.13033E-11         0.00000E+00
    0.19582E-07         0.31408E-11         0.00000E+00
    0.19579E-07         0.42690E-11         0.00000E+00
    0.19575E-07         0.49362E-11         0.00000E+00
    0.19571E-07         0.53014E-11         0.00000E+00
    0.19567E-07         0.54598E-11         0.00000E+00
    0.19563E-07         0.54638E-11         0.00000E+00
    0.19560E-07         0.53390E-11         0.00000E+00
    0.19556E-07         0.50963E-11         0.00000E+00
    0.19553E-07         0.47392E-11         0.00000E+00
    0.19550E-07         0.42673E-11         0.00000E+00
    0.19548E-07         0.36740E-11         0.00000E+00
    0.19545E-07         0.29393E-11         0.00000E+00
    0.19544E-07         0.20169E-11         0.00000E+00
    0.19543E-07         0.81814E-12         0.00000E+00
    0.19514E-07         0.18730E-11         0.00000E+00
    0.19512E-07         0.45910E-11         0.00000E+00
    0.19509E-07         0.62869E-11         0.00000E+00
    0.19506E-07         0.72731E-11         0.00000E+00
    0.19503E-07         0.77704E-11         0.00000E+00
    0.19499E-07         0.79284E-11         0.00000E+00
    0.19496E-07         0.78446E-11         0.00000E+00
    0.19493E-07         0.75784E-11         0.00000E+00
    0.19490E-07         0.71632E-11         0.00000E+00
    0.19487E-07         0.66132E-11         0.00000E+00
    0.19484E-07         0.59270E-11         0.00000E+00
    0.19482E-07         0.50870E-11         0.00000E+00
    0.19480E-07         0.40543E-11         0.00000E+00
    0.19479E-07         0.27604E-11         0.00000E+00
    0.19478E-07         0.10967E-11         0.00000E+00
    0.19438E-07         0.23375E-11         0.00000E+00
    0.19436E-07         0.57860E-11         0.00000E+00
    0.19434E-07         0.79671E-11         0.00000E+00
    0.19432E-07         0.92396E-11         0.00000E+00
    0.19429E-07         0.98691E-11         0.00000E+00
    0.19426E-07         0.10046E-10         0.00000E+00
    0.19423E-07         0.99026E-11         0.00000E+00
    0.19421E-07         0.95246E-11         0.00000E+00
    0.19418E-07         0.89636E-11         0.00000E+00
    0.19416E-07         0.82429E-11         0.00000E+00
    0.19414E-07         0.73618E-11         0.00000E+00
    0.19412E-07         0.62961E-11         0.00000E+00
    0.19410E-07         0.49952E-11         0.00000E+00
    0.19409E-07         0.33772E-11         0.00000E+00
    0.19408E-07         0.13229E-11         0.00000E+00
    0.19358E-07         0.26859E-11         0.00000E+00
    0.19356E-07         0.66916E-11         0.00000E+00
    0.19355E-07         0.92522E-11         0.00000E+00
    0.19353E-07         0.10756E-10         0.00000E+00
    0.19351E-07         0.11500E-10         0.00000E+00
    0.19349E-07         0.11702E-10         0.00000E+00
    0.19347E-07         0.11520E-10         0.00000E+00
    0.19345E-07         0.11059E-10         0.00000E+00
    0.19343E-07         0.10383E-10         0.00000E+00
    0.19341E-07         0.95247E-11         0.00000E+00
    0.19339E-07         0.84840E-11         0.00000E+00
    0.19338E-07         0.72332E-11         0.00000E+00
    0.19337E-07         0.57154E-11         0.00000E+00
    0.19336E-07         0.38420E-11         0.00000E+00
    0.19335E-07         0.14897E-11         0.00000E+00
    0.19274E-07         0.29120E-11         0.00000E+00
    0.19273E-07         0.72872E-11         0.00000E+00
    0.19272E-07         0.10106E-10         0.00000E+00
    0.19271E-07         0.11772E-10         0.00000E+00
    0.19270E-07         0.12599E-10         0.00000E+00
    0.19268E-07         0.12823E-10         0.00000E+00
    0.19267E-07         0.12616E-10         0.00000E+00
    0.19266E-07         0.12099E-10         0.00000E+00
    0.19265E-07         0.11344E-10         0.00000E+00
    0.19264E-07         0.10388E-10         0.00000E+00
    0.19263E-07         0.92338E-11         0.00000E+00
    0.19262E-07         0.78525E-11         0.00000E+00
    0.19261E-07         0.61845E-11         0.00000E+00
    0.19260E-07         0.41390E-11         0.00000E+00
    0.19260E-07         0.15932E-11         0.00000E+00
    0.19189E-07         0.30144E-11         0.00000E+00
    0.19189E-07         0.75651E-11         0.00000E+00
    0.19188E-07         0.10512E-10         0.00000E+00
    0.19188E-07         0.12261E-10         0.00000E+00
    0.19187E-07         0.13131E-10         0.00000E+00
    0.19187E-07         0.13366E-10         0.00000E+00
    0.19186E-07         0.13146E-10         0.00000E+00
    0.19185E-07         0.12598E-10         0.00000E+00
    0.19185E-07         0.11799E-10         0.00000E+00
    0.19184E-07         0.10791E-10         0.00000E+00
    0.19184E-07         0.95776E-11         0.00000E+00
    0.19184E-07         0.81294E-11         0.00000E+00
    0.19183E-07         0.63871E-11         0.00000E+00
    0.19183E-07         0.42609E-11         0.00000E+00
    0.19183E-07         0.16319E-11         0.00000E+00
    0.19104E-07         0.29958E-11         0.00000E+00
    0.19104E-07         0.75299E-11         0.00000E+00
    0.19104E-07         0.10473E-10         0.00000E+00
    0.19104E-07         0.12222E-10         0.00000E+00
    0.19104E-07         0.13090E-10         0.00000E+00
    0.19104E-07         0.13322E-10         0.00000E+00
    0.19104E-07         0.13096E-10         0.00000E+00
    0.19105E-07         0.12540E-10         0.00000E+00
    0.19105E-07         0.11735E-10         0.00000E+00
    0.19105E-07         0.10722E-10         0.00000E+00
    0.19105E-07         0.95051E-11         0.00000E+00
    0.19105E-07         0.80575E-11         0.00000E+00
    0.19105E-07         0.63208E-11         0.00000E+00
    0.19105E-07         0.42085E-11         0.00000E+00
    0.19105E-07         0.16069E-11         0.00000E+00
    0.19019E-07         0.28628E-11         0.00000E+00
    0.19020E-07         0.71964E-11         0.00000E+00
    0.19020E-07         0.10008E-10         0.00000E+00
    0.19021E-07         0.11674E-10         0.00000E+00
    0.19022E-07         0.12495E-10         0.00000E+00
    0.19023E-07         0.12705E-10         0.00000E+00
    0.19024E-07         0.12477E-10         0.00000E+00
    0.19024E-07         0.11936E-10         0.00000E+00
    0.19025E-07         0.11160E-10         0.00000E+00
    0.19026E-07         0.10189E-10         0.00000E+00
    0.19027E-07         0.90264E-11         0.00000E+00
    0.19027E-07         0.76471E-11         0.00000E+00
    0.19028E-07         0.59955E-11         0.00000E+00
    0.19028E-07         0.39892E-11         0.00000E+00
    0.19028E-07         0.15217E-11         0.00000E+00
    0.18937E-07         0.26250E-11         0.00000E+00
    0.18938E-07         0.65886E-11         0.00000E+00
    0.18939E-07         0.91483E-11         0.00000E+00
    0.18940E-07         0.10653E-10         0.00000E+00
    0.18941E-07         0.11383E-10         0.00000E+00
    0.18943E-07         0.11555E-10         0.00000E+00
    0.18944E-07         0.11330E-10         0.00000E+00
    0.18946E-07         0.10824E-10         0.00000E+00
    0.18947E-07         0.10110E-10         0.00000E+00
    0.18949E-07         0.92238E-11         0.00000E+00
    0.18950E-07         0.81698E-11         0.00000E+00
    0.18951E-07         0.69229E-11         0.00000E+00
    0.18952E-07         0.54308E-11         0.00000E+00
    0.18953E-07         0.36168E-11         0.00000E+00
    0.18953E-07         0.13817E-11         0.00000E+00
    0.18857E-07         0.22946E-11         0.00000E+00
    0.18858E-07         0.57378E-11         0.00000E+00
    0.18860E-07         0.79395E-11         0.00000E+00
    0.18862E-07         0.92144E-11         0.00000E+00
    0.18864E-07         0.98135E-11         0.00000E+00
    0.18866E-07         0.99315E-11         0.00000E+00
    0.18868E-07         0.97132E-11         0.00000E+00
    0.18870E-07         0.92605E-11         0.00000E+00
    0.18872E-07         0.86377E-11         0.00000E+00
    0.18874E-07         0.78765E-11         0.00000E+00
    0.18876E-07         0.69791E-11         0.00000E+00
    0.18877E-07         0.59215E-11         0.00000E+00
    0.18878E-07         0.46554E-11         0.00000E+00
    0.18879E-07         0.31098E-11         0.00000E+00
    0.18880E-07         0.11937E-11         0.00000E+00
    0.18782E-07         0.18857E-11         0.00000E+00
    0.18783E-07         0.46810E-11         0.00000E+00
    0.18785E-07         0.64351E-11         0.00000E+00
    0.18787E-07         0.74219E-11         0.00000E+00
    0.18790E-07         0.78586E-11         0.00000E+00
    0.18793E-07         0.79117E-11         0.00000E+00
    0.18795E-07         0.77040E-11         0.00000E+00
    0.18798E-07         0.73207E-11         0.00000E+00
    0.18800E-07         0.68150E-11         0.00000E+00
    0.18803E-07         0.62118E-11         0.00000E+00
    0.18805E-07         0.55112E-11         0.00000E+00
    0.18806E-07         0.46903E-11         0.00000E+00
    0.18808E-07         0.37051E-11         0.00000E+00
    0.18809E-07         0.24913E-11         0.00000E+00
    0.18810E-07         0.96608E-12         0.00000E+00
    0.18711E-07         0.14139E-11         0.00000E+00
    0.18713E-07         0.34599E-11         0.00000E+00
    0.18715E-07         0.46966E-11         0.00000E+00
    0.18718E-07         0.53523E-11         0.00000E+00
    0.18721E-07         0.56046E-11         0.00000E+00
    0.18724E-07         0.55870E-11         0.00000E+00
    0.18727E-07         0.53958E-11         0.00000E+00
    0.18730E-07         0.50963E-11         0.00000E+00
    0.18733E-07         0.47280E-11         0.00000E+00
    0.18735E-07         0.43081E-11         0.00000E+00
    0.18738E-07         0.38341E-11         0.00000E+00
    0.18740E-07         0.32849E-11         0.00000E+00
    0.18741E-07         0.26216E-11         0.00000E+00
    0.18743E-07         0.17873E-11         0.00000E+00
    0.18743E-07         0.70799E-12         0.00000E+00
    0.18646E-07         0.89571E-12         0.00000E+00
    0.18648E-07         0.21194E-11         0.00000E+00
    0.18650E-07         0.27918E-11         0.00000E+00
    0.18653E-07         0.30906E-11         0.00000E+00
    0.18656E-07         0.31488E-11         0.00000E+00
    0.18660E-07         0.30619E-11         0.00000E+00
    0.18663E-07         0.28954E-11         0.00000E+00
    0.18667E-07         0.26920E-11         0.00000E+00
    0.18670E-07         0.24756E-11         0.00000E+00
    0.18673E-07         0.22550E-11         0.00000E+00
    0.18675E-07         0.20254E-11         0.00000E+00
    0.18677E-07         0.17684E-11         0.00000E+00
    0.18679E-07         0.14515E-11         0.00000E+00
    0.18681E-07         0.10267E-11         0.00000E+00
    0.18682E-07         0.42933E-12         0.00000E+00
    0.18586E-07         0.34835E-12         0.00000E+00
    0.18588E-07         0.70734E-12         0.00000E+00
    0.18591E-07         0.79376E-12         0.00000E+00
    0.18595E-07         0.73007E-12         0.00000E+00
    0.18598E-07         0.59885E-12         0.00000E+00
    0.18602E-07         0.45251E-12         0.00000E+00
    0.18605E-07         0.32225E-12         0.00000E+00
    0.18609E-07         0.22504E-12         0.00000E+00
    0.18612E-07         0.16829E-12         0.00000E+00
    0.18615E-07         0.15228E-12         0.00000E+00
    0.18618E-07         0.17072E-12         0.00000E+00
    0.18620E-07         0.20963E-12         0.00000E+00
    0.18622E-07         0.24504E-12         0.00000E+00
    0.18624E-07         0.23979E-12         0.00000E+00
    0.18625E-07         0.14039E-12         0.00000E+00
    0.18533E-07        -0.21052E-12         0.00000E+00
    0.18536E-07        -0.72619E-12         0.00000E+00
    0.18539E-07        -0.12190E-11         0.00000E+00
    0.18542E-07        -0.16281E-11         0.00000E+00
    0.18546E-07        -0.19275E-11         0.00000E+00
    0.18550E-07        -0.21135E-11         0.00000E+00
    0.18553E-07        -0.21929E-11         0.00000E+00
    0.18557E-07        -0.21763E-11         0.00000E+00
    0.18560E-07        -0.20733E-11         0.00000E+00
    0.18563E-07        -0.18915E-11         0.00000E+00
    0.18566E-07        -0.16370E-11         0.00000E+00
    0.18568E-07        -0.13171E-11         0.00000E+00
    0.18570E-07        -0.94416E-12         0.00000E+00
    0.18572E-07        -0.54133E-12         0.00000E+00
    0.18573E-07        -0.14836E-12         0.00000E+00
    0.18487E-07        -0.76266E-12         0.00000E+00
    0.18490E-07        -0.21279E-11         0.00000E+00
    0.18493E-07        -0.31615E-11         0.00000E+00
    0.18496E-07        -0.38728E-11         0.00000E+00
    0.18500E-07        -0.43011E-11         0.00000E+00
    0.18504E-07        -0.44966E-11         0.00000E+00
    0.18508E-07        -0.45078E-11         0.00000E+00
    0.18511E-07        -0.43733E-11         0.00000E+00
    0.18514E-07        -0.41192E-11         0.00000E+00
    0.18517E-07        -0.37596E-11         0.00000E+00
    0.18520E-07        -0.32982E-11         0.00000E+00
    0.18522E-07        -0.27326E-11         0.00000E+00
    0.18524E-07        -0.20596E-11         0.00000E+00
    0.18526E-07        -0.12836E-11         0.00000E+00
    0.18527E-07        -0.42642E-12         0.00000E+00
    0.18448E-07        -0.12887E-11         0.00000E+00
    0.18451E-07        -0.34393E-11         0.00000E+00
    0.18454E-07        -0.49389E-11         0.00000E+00
    0.18458E-07        -0.58802E-11         0.00000E+00
    0.18461E-07        -0.63784E-11         0.00000E+00
    0.18465E-07        -0.65444E-11         0.00000E+00
    0.18468E-07        -0.64690E-11         0.00000E+00
    0.18471E-07        -0.62180E-11         0.00000E+00
    0.18474E-07        -0.58317E-11         0.00000E+00
    0.18477E-07        -0.53283E-11         0.00000E+00
    0.18480E-07        -0.47071E-11         0.00000E+00
    0.18482E-07        -0.39526E-11         0.00000E+00
    0.18484E-07        -0.30415E-11         0.00000E+00
    0.18485E-07        -0.19527E-11         0.00000E+00
    0.18486E-07        -0.68326E-12         0.00000E+00
    0.18416E-07        -0.17668E-11         0.00000E+00
    0.18419E-07        -0.45927E-11         0.00000E+00
    0.18422E-07        -0.64401E-11         0.00000E+00
    0.18426E-07        -0.75068E-11         0.00000E+00
    0.18429E-07        -0.79983E-11         0.00000E+00
    0.18432E-07        -0.80900E-11         0.00000E+00
    0.18435E-07        -0.79133E-11         0.00000E+00
    0.18438E-07        -0.75556E-11         0.00000E+00
    0.18441E-07        -0.70674E-11         0.00000E+00
    0.18443E-07        -0.64682E-11         0.00000E+00
    0.18445E-07        -0.57513E-11         0.00000E+00
    0.18447E-07        -0.48862E-11         0.00000E+00
    0.18449E-07        -0.38246E-11         0.00000E+00
    0.18451E-07        -0.25116E-11         0.00000E+00
    0.18452E-07        -0.90813E-12         0.00000E+00
    0.18391E-07        -0.21700E-11         0.00000E+00
    0.18394E-07        -0.55018E-11         0.00000E+00
    0.18398E-07        -0.75251E-11         0.00000E+00
    0.18401E-07        -0.85792E-11         0.00000E+00
    0.18404E-07        -0.89761E-11         0.00000E+00
    0.18407E-07        -0.89534E-11         0.00000E+00
    0.18409E-07        -0.86717E-11         0.00000E+00
    0.18411E-07        -0.82302E-11         0.00000E+00
    0.18413E-07        -0.76827E-11         0.00000E+00
    0.18415E-07        -0.70476E-11         0.00000E+00
    0.18417E-07        -0.63124E-11         0.00000E+00
    0.18419E-07        -0.54333E-11         0.00000E+00
    0.18420E-07        -0.43348E-11         0.00000E+00
    0.18422E-07        -0.29181E-11         0.00000E+00
    0.18423E-07        -0.10892E-11         0.00000E+00
    0.18374E-07        -0.24594E-11         0.00000E+00
    0.18377E-07        -0.60413E-11         0.00000E+00
    0.18381E-07        -0.80013E-11         0.00000E+00
    0.18383E-07        -0.88792E-11         0.00000E+00
    0.18386E-07        -0.91018E-11         0.00000E+00
    0.18388E-07        -0.89462E-11         0.00000E+00
    0.18389E-07        -0.85783E-11         0.00000E+00
    0.18391E-07        -0.80940E-11         0.00000E+00
    0.18392E-07        -0.75425E-11         0.00000E+00
    0.18393E-07        -0.69387E-11         0.00000E+00
    0.18395E-07        -0.62676E-11         0.00000E+00
    0.18396E-07        -0.54802E-11         0.00000E+00
    0.18397E-07        -0.44803E-11         0.00000E+00
    0.18398E-07        -0.31167E-11         0.00000E+00
    0.18400E-07        -0.12118E-11         0.00000E+00
    0.18364E-07        -0.25654E-11         0.00000E+00
    0.18368E-07        -0.59998E-11         0.00000E+00
    0.18371E-07        -0.75803E-11         0.00000E+00
    0.18373E-07        -0.81316E-11         0.00000E+00
    0.18374E-07        -0.81484E-11         0.00000E+00
    0.18375E-07        -0.78867E-11         0.00000E+00
    0.18376E-07        -0.74862E-11         0.00000E+00
    0.18377E-07        -0.70229E-11         0.00000E+00
    0.18377E-07        -0.65341E-11         0.00000E+00
    0.18378E-07        -0.60301E-11         0.00000E+00
    0.18378E-07        -0.54976E-11         0.00000E+00
    0.18379E-07        -0.48945E-11         0.00000E+00
    0.18379E-07        -0.41327E-11         0.00000E+00
    0.18381E-07        -0.30216E-11         0.00000E+00
    0.18382E-07        -0.12497E-11         0.00000E+00
    0.18362E-07        -0.23310E-11         0.00000E+00
    0.18366E-07        -0.49442E-11         0.00000E+00
    0.18368E-07        -0.58316E-11         0.00000E+00
    0.18369E-07        -0.60270E-11         0.00000E+00
    0.18369E-07        -0.59022E-11         0.00000E+00
    0.18369E-07        -0.56275E-11         0.00000E+00
    0.18369E-07        -0.52902E-11         0.00000E+00
    0.18368E-07        -0.49357E-11         0.00000E+00
    0.18368E-07        -0.45855E-11         0.00000E+00
    0.18367E-07        -0.42449E-11         0.00000E+00
    0.18367E-07        -0.39057E-11         0.00000E+00
    0.18367E-07        -0.35421E-11         0.00000E+00
    0.18367E-07        -0.30994E-11         0.00000E+00
    0.18368E-07        -0.24478E-11         0.00000E+00
    0.18369E-07        -0.11680E-11         0.00000E+00
    0.18369E-07        -0.10503E-11         0.00000E+00
    0.18372E-07        -0.20441E-11         0.00000E+00
    0.18372E-07        -0.22807E-11         0.00000E+00
    0.18372E-07        -0.22981E-11         0.00000E+00
    0.18370E-07        -0.22155E-11         0.00000E+00
    0.18369E-07        -0.20912E-11         0.00000E+00
    0.18367E-07        -0.19532E-11         0.00000E+00
    0.18366E-07        -0.18156E-11         0.00000E+00
    0.18365E-07        -0.16851E-11         0.00000E+00
    0.18363E-07        -0.15631E-11         0.00000E+00
    0.18362E-07        -0.14471E-11         0.00000E+00
    0.18361E-07        -0.13291E-11         0.00000E+00
    0.18361E-07        -0.11911E-11         0.00000E+00
    0.18360E-07        -0.10041E-11         0.00000E+00
    0.18362E-07        -0.54648E-12         0.00000E+00
POINT_DATA        496
VECTORS vDarcyNodal double 
    0.19821E-07         0.00000E+00         0.00000E+00
    0.19820E-07         0.00000E+00         0.00000E+00
    0.19817E-07         0.00000E+00         0.00000E+00
    0.19814E-07         0.00000E+00         0.00000E+00
    0.19813E-07         0.00000E+00         0.00000E+00
    0.19812E-07         0.00000E+00         0.00000E+00
    0.19811E-07         0.00000E+00         0.00000E+00
    0.19811E-07         0.00000E+00         0.00000E+00
    0.19810E-07         0.00000E+00         0.00000E+00
    0.19809E-07         0.00000E+00         0.00000E+00
    0.19809E-07         0.00000E+00         0.00000E+00
    0.19808E-07         0.00000E+00         0.00000E+00
    0.19807E-07        -0.66662E-22         0.00000E+00
    0.19807E-07        -0.79019E-26         0.00000E+00
    0.19806E-07         0.66654E-22         0.00000E+00
    0.19806E-07         0.00000E+00         0.00000E+00
    0.19822E-07        -0.28909E-11         0.00000E+00
    0.19820E-07        -0.44627E-11         0.00000E+00
    0.19816E-07        -0.66533E-11         0.00000E+00
    0.19813E-07        -0.72120E-11         0.00000E+00
    0.19811E-07        -0.64465E-11         0.00000E+00
    0.19809E-07        -0.48730E-11         0.00000E+00
    0.19808E-07        -0.34446E-11         0.00000E+00
    0.19807E-07        -0.25702E-11         0.00000E+00
    0.19806E-07        -0.20673E-11         0.00000E+00
    0.19804E-07        -0.17769E-11         0.00000E+00
    0.19803E-07        -0.16392E-11         0.00000E+00
    0.19802E-07        -0.16132E-11         0.00000E+00
    0.19801E-07        -0.16533E-11         0.00000E+00
    0.19800E-07        -0.16917E-11         0.00000E+00
    0.19799E-07        -0.14105E-11         0.00000E+00
    0.19798E-07        -0.11207E-11         0.00000E+00
    0.19816E-07        -0.31527E-11         0.00000E+00
    0.19814E-07        -0.52825E-11         0.00000E+00
    0.19809E-07        -0.80852E-11         0.00000E+00
    0.19805E-07        -0.83632E-11         0.00000E+00
    0.19802E-07        -0.73174E-11         0.00000E+00
    0.19799E-07        -0.60432E-11         0.00000E+00
    0.19796E-07        -0.48418E-11         0.00000E+00
    0.19794E-07        -0.38231E-11         0.00000E+00
    0.19792E-07        -0.30971E-11         0.00000E+00
    0.19790E-07        -0.26476E-11         0.00000E+00
    0.19788E-07        -0.24117E-11         0.00000E+00
    0.19787E-07        -0.23257E-11         0.00000E+00
    0.19785E-07        -0.23014E-11         0.00000E+00
    0.19783E-07        -0.21566E-11         0.00000E+00
    0.19781E-07        -0.15056E-11         0.00000E+00
    0.19780E-07        -0.98945E-12         0.00000E+00
    0.19797E-07        -0.25207E-11         0.00000E+00
    0.19795E-07        -0.40251E-11         0.00000E+00
    0.19791E-07        -0.59953E-11         0.00000E+00
    0.19786E-07        -0.64985E-11         0.00000E+00
    0.19782E-07        -0.62328E-11         0.00000E+00
    0.19778E-07        -0.54751E-11         0.00000E+00
    0.19775E-07        -0.45627E-11         0.00000E+00
    0.19772E-07        -0.37130E-11         0.00000E+00
    0.19769E-07        -0.30358E-11         0.00000E+00
    0.19766E-07        -0.25759E-11         0.00000E+00
    0.19764E-07        -0.23152E-11         0.00000E+00
    0.19761E-07        -0.21913E-11         0.00000E+00
    0.19759E-07        -0.20955E-11         0.00000E+00
    0.19757E-07        -0.18459E-11         0.00000E+00
    0.19755E-07        -0.11929E-11         0.00000E+00
    0.19754E-07        -0.73126E-12         0.00000E+00
    0.19767E-07        -0.13193E-11         0.00000E+00
    0.19765E-07        -0.22983E-11         0.00000E+00
    0.19761E-07        -0.37374E-11         0.00000E+00
    0.19757E-07        -0.42671E-11         0.00000E+00
    0.19752E-07        -0.41854E-11         0.00000E+00
    0.19748E-07        -0.37528E-11         0.00000E+00
    0.19744E-07        -0.31499E-11         0.00000E+00
    0.19740E-07        -0.25385E-11         0.00000E+00
    0.19736E-07        -0.20289E-11         0.00000E+00
    0.19733E-07        -0.16723E-11         0.00000E+00
    0.19730E-07        -0.14693E-11         0.00000E+00
    0.19728E-07        -0.13738E-11         0.00000E+00
    0.19725E-07        -0.12965E-11         0.00000E+00
    0.19723E-07        -0.11112E-11         0.00000E+00
    0.19721E-07        -0.68420E-12         0.00000E+00
    0.19720E-07        -0.39456E-12         0.00000E+00
    0.19726E-07        -0.47781E-12         0.00000E+00
    0.19724E-07        -0.87674E-12         0.00000E+00
    0.19721E-07        -0.14864E-11         0.00000E+00
    0.19716E-07        -0.17267E-11         0.00000E+00
    0.19712E-07        -0.16546E-11         0.00000E+00
    0.19707E-07        -0.13787E-11         0.00000E+00
    0.19703E-07        -0.10076E-11         0.00000E+00
    0.19699E-07        -0.63395E-12         0.00000E+00
    0.19695E-07        -0.33073E-12         0.00000E+00
    0.19692E-07        -0.13925E-12         0.00000E+00
    0.19688E-07        -0.64936E-13         0.00000E+00
    0.19685E-07        -0.79868E-13         0.00000E+00
    0.19683E-07        -0.12934E-12         0.00000E+00
    0.19680E-07        -0.14718E-12         0.00000E+00
    0.19678E-07        -0.86239E-13         0.00000E+00
    0.19678E-07        -0.32604E-13         0.00000E+00
    0.19676E-07         0.29280E-12         0.00000E+00
    0.19674E-07         0.44944E-12         0.00000E+00
    0.19671E-07         0.70275E-12         0.00000E+00
    0.19666E-07         0.89356E-12         0.00000E+00
    0.19662E-07         0.10946E-11         0.00000E+00
    0.19658E-07         0.13136E-11         0.00000E+00
    0.19653E-07         0.15259E-11         0.00000E+00
    0.19649E-07         0.16960E-11         0.00000E+00
    0.19645E-07         0.17907E-11         0.00000E+00
    0.19642E-07         0.17883E-11         0.00000E+00
    0.19639E-07         0.16841E-11         0.00000E+00
    0.19636E-07         0.14904E-11         0.00000E+00
    0.19633E-07         0.12288E-11         0.00000E+00
    0.19631E-07         0.91566E-12         0.00000E+00
    0.19629E-07         0.53754E-12         0.00000E+00
    0.19628E-07         0.32779E-12         0.00000E+00
    0.19616E-07         0.99377E-12         0.00000E+00
    0.19615E-07         0.16753E-11         0.00000E+00
    0.19612E-07         0.27705E-11         0.00000E+00
    0.19608E-07         0.34354E-11         0.00000E+00
    0.19604E-07         0.38376E-11         0.00000E+00
    0.19600E-07         0.40711E-11         0.00000E+00
    0.19596E-07         0.41817E-11         0.00000E+00
    0.19592E-07         0.41864E-11         0.00000E+00
    0.19588E-07         0.40878E-11         0.00000E+00
    0.19585E-07         0.38843E-11         0.00000E+00
    0.19582E-07         0.35750E-11         0.00000E+00
    0.19579E-07         0.31602E-11         0.00000E+00
    0.19576E-07         0.26357E-11         0.00000E+00
    0.19574E-07         0.19811E-11         0.00000E+00
    0.19573E-07         0.11420E-11         0.00000E+00
    0.19572E-07         0.66683E-12         0.00000E+00
    0.19549E-07         0.16128E-11         0.00000E+00
    0.19548E-07         0.27686E-11         0.00000E+00
    0.19546E-07         0.46391E-11         0.00000E+00
    0.19542E-07         0.57695E-11         0.00000E+00
    0.19539E-07         0.63997E-11         0.00000E+00
    0.19535E-07         0.66897E-11         0.00000E+00
    0.19531E-07         0.67415E-11         0.00000E+00
    0.19528E-07         0.66161E-11         0.00000E+00
    0.19525E-07         0.63472E-11         0.00000E+00
    0.19521E-07         0.59509E-11         0.00000E+00
    0.19519E-07         0.54313E-11         0.00000E+00
    0.19516E-07         0.47809E-11         0.00000E+00
    0.19514E-07         0.39774E-11         0.00000E+00
    0.19512E-07         0.29749E-11         0.00000E+00
    0.19511E-07         0.16930E-11         0.00000E+00
    0.19510E-07         0.96941E-12         0.00000E+00
    0.19476E-07         0.21332E-11         0.00000E+00
    0.19475E-07         0.36953E-11         0.00000E+00
    0.19473E-07         0.62386E-11         0.00000E+00
    0.19470E-07         0.77902E-11         0.00000E+00
    0.19467E-07         0.86435E-11         0.00000E+00
    0.19464E-07         0.90088E-11         0.00000E+00
    0.19461E-07         0.90312E-11         0.00000E+00
    0.19458E-07         0.88066E-11         0.00000E+00
    0.19455E-07         0.83942E-11         0.00000E+00
    0.19453E-07         0.78253E-11         0.00000E+00
    0.19450E-07         0.71087E-11         0.00000E+00
    0.19448E-07         0.62329E-11         0.00000E+00
    0.19446E-07         0.51638E-11         0.00000E+00
    0.19445E-07         0.38397E-11         0.00000E+00
    0.19443E-07         0.21641E-11         0.00000E+00
    0.19443E-07         0.12239E-11         0.00000E+00
    0.19398E-07         0.25417E-11         0.00000E+00
    0.19397E-07         0.44281E-11         0.00000E+00
    0.19395E-07         0.75144E-11         0.00000E+00
    0.19393E-07         0.94163E-11         0.00000E+00
    0.19391E-07         0.10465E-10         0.00000E+00
    0.19389E-07         0.10906E-10         0.00000E+00
    0.19386E-07         0.10917E-10         0.00000E+00
    0.19384E-07         0.10620E-10         0.00000E+00
    0.19382E-07         0.10094E-10         0.00000E+00
    0.19379E-07         0.93810E-11         0.00000E+00
    0.19377E-07         0.84958E-11         0.00000E+00
    0.19376E-07         0.74249E-11         0.00000E+00
    0.19374E-07         0.61275E-11         0.00000E+00
    0.19373E-07         0.45327E-11         0.00000E+00
    0.19372E-07         0.25360E-11         0.00000E+00
    0.19372E-07         0.14218E-11         0.00000E+00
    0.19316E-07         0.28299E-11         0.00000E+00
    0.19315E-07         0.49493E-11         0.00000E+00
    0.19314E-07         0.84294E-11         0.00000E+00
    0.19313E-07         0.10592E-10         0.00000E+00
    0.19311E-07         0.11791E-10         0.00000E+00
    0.19309E-07         0.12296E-10         0.00000E+00
    0.19308E-07         0.12305E-10         0.00000E+00
    0.19306E-07         0.11958E-10         0.00000E+00
    0.19304E-07         0.11348E-10         0.00000E+00
    0.19303E-07         0.10527E-10         0.00000E+00
    0.19302E-07         0.95127E-11         0.00000E+00
    0.19300E-07         0.82921E-11         0.00000E+00
    0.19299E-07         0.68210E-11         0.00000E+00
    0.19299E-07         0.50247E-11         0.00000E+00
    0.19298E-07         0.27958E-11         0.00000E+00
    0.19298E-07         0.15577E-11         0.00000E+00
    0.19232E-07         0.29940E-11         0.00000E+00
    0.19231E-07         0.52499E-11         0.00000E+00
    0.19231E-07         0.89637E-11         0.00000E+00
    0.19230E-07         0.11286E-10         0.00000E+00
    0.19229E-07         0.12579E-10         0.00000E+00
    0.19228E-07         0.13126E-10         0.00000E+00
    0.19227E-07         0.13134E-10         0.00000E+00
    0.19226E-07         0.12757E-10         0.00000E+00
    0.19225E-07         0.12094E-10         0.00000E+00
    0.19224E-07         0.11205E-10         0.00000E+00
    0.19224E-07         0.10109E-10         0.00000E+00
    0.19223E-07         0.87941E-11         0.00000E+00
    0.19222E-07         0.72159E-11         0.00000E+00
    0.19222E-07         0.52988E-11         0.00000E+00
    0.19222E-07         0.29364E-11         0.00000E+00
    0.19221E-07         0.16287E-11         0.00000E+00
    0.19146E-07         0.30347E-11         0.00000E+00
    0.19146E-07         0.53297E-11         0.00000E+00
    0.19146E-07         0.91136E-11         0.00000E+00
    0.19146E-07         0.11487E-10         0.00000E+00
    0.19146E-07         0.12813E-10         0.00000E+00
    0.19146E-07         0.13372E-10         0.00000E+00
    0.19145E-07         0.13378E-10         0.00000E+00
    0.19145E-07         0.12987E-10         0.00000E+00
    0.19145E-07         0.12303E-10         0.00000E+00
    0.19145E-07         0.11386E-10         0.00000E+00
    0.19145E-07         0.10260E-10         0.00000E+00
    0.19144E-07         0.89128E-11         0.00000E+00
    0.19144E-07         0.73005E-11         0.00000E+00
    0.19144E-07         0.53492E-11         0.00000E+00
    0.19144E-07         0.29564E-11         0.00000E+00
    0.19144E-07         0.16350E-11         0.00000E+00
    0.19061E-07         0.29569E-11         0.00000E+00
    0.19062E-07         0.51961E-11         0.00000E+00
    0.19062E-07         0.88895E-11         0.00000E+00
    0.19062E-07         0.11208E-10         0.00000E+00
    0.19063E-07         0.12500E-10         0.00000E+00
    0.19063E-07         0.13040E-10         0.00000E+00
    0.19064E-07         0.13039E-10         0.00000E+00
    0.19064E-07         0.12648E-10         0.00000E+00
    0.19065E-07         0.11972E-10         0.00000E+00
    0.19065E-07         0.11070E-10         0.00000E+00
    0.19066E-07         0.99665E-11         0.00000E+00
    0.19066E-07         0.86498E-11         0.00000E+00
    0.19066E-07         0.70779E-11         0.00000E+00
    0.19067E-07         0.51801E-11         0.00000E+00
    0.19067E-07         0.28590E-11         0.00000E+00
    0.19067E-07         0.15788E-11         0.00000E+00
    0.18978E-07         0.27687E-11         0.00000E+00
    0.18978E-07         0.48632E-11         0.00000E+00
    0.18979E-07         0.83147E-11         0.00000E+00
    0.18980E-07         0.10474E-10         0.00000E+00
    0.18981E-07         0.11669E-10         0.00000E+00
    0.18982E-07         0.12159E-10         0.00000E+00
    0.18983E-07         0.12143E-10         0.00000E+00
    0.18985E-07         0.11766E-10         0.00000E+00
    0.18986E-07         0.11125E-10         0.00000E+00
    0.18987E-07         0.10279E-10         0.00000E+00
    0.18988E-07         0.92486E-11         0.00000E+00
    0.18989E-07         0.80238E-11         0.00000E+00
    0.18990E-07         0.65648E-11         0.00000E+00
    0.18990E-07         0.48046E-11         0.00000E+00
    0.18991E-07         0.26520E-11         0.00000E+00
    0.18991E-07         0.14647E-11         0.00000E+00
    0.18897E-07         0.24813E-11         0.00000E+00
    0.18897E-07         0.43505E-11         0.00000E+00
    0.18898E-07         0.74225E-11         0.00000E+00
    0.18900E-07         0.93282E-11         0.00000E+00
    0.18902E-07         0.10368E-10         0.00000E+00
    0.18903E-07         0.10779E-10         0.00000E+00
    0.18905E-07         0.10742E-10         0.00000E+00
    0.18907E-07         0.10389E-10         0.00000E+00
    0.18909E-07         0.98092E-11         0.00000E+00
    0.18911E-07         0.90550E-11         0.00000E+00
    0.18912E-07         0.81451E-11         0.00000E+00
    0.18913E-07         0.70690E-11         0.00000E+00
    0.18915E-07         0.57890E-11         0.00000E+00
    0.18916E-07         0.42430E-11         0.00000E+00
    0.18916E-07         0.23465E-11         0.00000E+00
    0.18916E-07         0.12987E-11         0.00000E+00
    0.18819E-07         0.21079E-11         0.00000E+00
    0.18820E-07         0.36819E-11         0.00000E+00
    0.18822E-07         0.62550E-11         0.00000E+00
    0.18823E-07         0.78259E-11         0.00000E+00
    0.18826E-07         0.86601E-11         0.00000E+00
    0.18828E-07         0.89664E-11         0.00000E+00
    0.18830E-07         0.89031E-11         0.00000E+00
    0.18833E-07         0.85851E-11         0.00000E+00
    0.18835E-07         0.80892E-11         0.00000E+00
    0.18837E-07         0.74594E-11         0.00000E+00
    0.18839E-07         0.67106E-11         0.00000E+00
    0.18841E-07         0.58318E-11         0.00000E+00
    0.18842E-07         0.47880E-11         0.00000E+00
    0.18844E-07         0.35223E-11         0.00000E+00
    0.18844E-07         0.19571E-11         0.00000E+00
    0.18845E-07         0.10887E-11         0.00000E+00
    0.18746E-07         0.16635E-11         0.00000E+00
    0.18747E-07         0.28848E-11         0.00000E+00
    0.18749E-07         0.48613E-11         0.00000E+00
    0.18751E-07         0.60314E-11         0.00000E+00
    0.18754E-07         0.66207E-11         0.00000E+00
    0.18757E-07         0.68042E-11         0.00000E+00
    0.18760E-07         0.67128E-11         0.00000E+00
    0.18762E-07         0.64399E-11         0.00000E+00
    0.18765E-07         0.60468E-11         0.00000E+00
    0.18768E-07         0.55677E-11         0.00000E+00
    0.18770E-07         0.50125E-11         0.00000E+00
    0.18772E-07         0.43698E-11         0.00000E+00
    0.18774E-07         0.36074E-11         0.00000E+00
    0.18775E-07         0.26742E-11         0.00000E+00
    0.18776E-07         0.15004E-11         0.00000E+00
    0.18777E-07         0.84346E-12         0.00000E+00
    0.18678E-07         0.11643E-11         0.00000E+00
    0.18679E-07         0.19890E-11         0.00000E+00
    0.18681E-07         0.32954E-11         0.00000E+00
    0.18684E-07         0.40178E-11         0.00000E+00
    0.18687E-07         0.43365E-11         0.00000E+00
    0.18690E-07         0.43877E-11         0.00000E+00
    0.18693E-07         0.42703E-11         0.00000E+00
    0.18697E-07         0.40525E-11         0.00000E+00
    0.18700E-07         0.37777E-11         0.00000E+00
    0.18703E-07         0.34686E-11         0.00000E+00
    0.18705E-07         0.31298E-11         0.00000E+00
    0.18708E-07         0.27494E-11         0.00000E+00
    0.18710E-07         0.22992E-11         0.00000E+00
    0.18711E-07         0.17348E-11         0.00000E+00
    0.18712E-07         0.99502E-12         0.00000E+00
    0.18713E-07         0.57255E-12         0.00000E+00
    0.18616E-07         0.62719E-12         0.00000E+00
    0.18617E-07         0.10262E-11         0.00000E+00
    0.18619E-07         0.16160E-11         0.00000E+00
    0.18622E-07         0.18649E-11         0.00000E+00
    0.18626E-07         0.19033E-11         0.00000E+00
    0.18629E-07         0.18233E-11         0.00000E+00
    0.18633E-07         0.16874E-11         0.00000E+00
    0.18636E-07         0.15353E-11         0.00000E+00
    0.18639E-07         0.13902E-11         0.00000E+00
    0.18642E-07         0.12622E-11         0.00000E+00
    0.18645E-07         0.11508E-11         0.00000E+00
    0.18648E-07         0.10445E-11         0.00000E+00
    0.18650E-07         0.92078E-12         0.00000E+00
    0.18652E-07         0.74339E-12         0.00000E+00
    0.18653E-07         0.46102E-12         0.00000E+00
    0.18653E-07         0.28614E-12         0.00000E+00
    0.18560E-07         0.69600E-13         0.00000E+00
    0.18561E-07         0.29604E-13         0.00000E+00
    0.18563E-07        -0.11466E-12         0.00000E+00
    0.18567E-07        -0.34078E-12         0.00000E+00
    0.18570E-07        -0.57404E-12         0.00000E+00
    0.18574E-07        -0.77165E-12         0.00000E+00
    0.18578E-07        -0.91230E-12         0.00000E+00
    0.18581E-07        -0.98769E-12         0.00000E+00
    0.18584E-07        -0.99655E-12         0.00000E+00
    0.18588E-07        -0.94141E-12         0.00000E+00
    0.18591E-07        -0.82757E-12         0.00000E+00
    0.18593E-07        -0.66403E-12         0.00000E+00
    0.18595E-07        -0.46596E-12         0.00000E+00
    0.18597E-07        -0.25846E-12         0.00000E+00
    0.18598E-07        -0.80781E-13         0.00000E+00
    0.18599E-07        -0.53335E-14         0.00000E+00
    0.18510E-07        -0.49056E-12         0.00000E+00
    0.18511E-07        -0.96617E-12         0.00000E+00
    0.18514E-07        -0.18303E-11         0.00000E+00
    0.18518E-07        -0.25060E-11         0.00000E+00
    0.18521E-07        -0.29812E-11         0.00000E+00
    0.18525E-07        -0.32691E-11         0.00000E+00
    0.18529E-07        -0.33938E-11         0.00000E+00
    0.18532E-07        -0.33813E-11         0.00000E+00
    0.18536E-07        -0.32528E-11         0.00000E+00
    0.18539E-07        -0.30231E-11         0.00000E+00
    0.18542E-07        -0.27007E-11         0.00000E+00
    0.18544E-07        -0.22899E-11         0.00000E+00
    0.18546E-07        -0.17952E-11         0.00000E+00
    0.18548E-07        -0.12269E-11         0.00000E+00
    0.18550E-07        -0.60886E-12         0.00000E+00
    0.18550E-07        -0.29136E-12         0.00000E+00
    0.18467E-07        -0.10347E-11         0.00000E+00
    0.18469E-07        -0.19242E-11         0.00000E+00
    0.18472E-07        -0.34588E-11         0.00000E+00
    0.18475E-07        -0.45281E-11         0.00000E+00
    0.18479E-07        -0.51924E-11         0.00000E+00
    0.18483E-07        -0.55283E-11         0.00000E+00
    0.18486E-07        -0.56104E-11         0.00000E+00
    0.18490E-07        -0.54996E-11         0.00000E+00
    0.18493E-07        -0.52395E-11         0.00000E+00
    0.18496E-07        -0.48555E-11         0.00000E+00
    0.18498E-07        -0.43570E-11         0.00000E+00
    0.18501E-07        -0.37408E-11         0.00000E+00
    0.18503E-07        -0.29970E-11         0.00000E+00
    0.18505E-07        -0.21163E-11         0.00000E+00
    0.18506E-07        -0.11012E-11         0.00000E+00
    0.18507E-07        -0.56145E-12         0.00000E+00
    0.18432E-07        -0.15426E-11         0.00000E+00
    0.18433E-07        -0.28036E-11         0.00000E+00
    0.18436E-07        -0.49191E-11         0.00000E+00
    0.18440E-07        -0.62908E-11         0.00000E+00
    0.18443E-07        -0.70661E-11         0.00000E+00
    0.18447E-07        -0.73942E-11         0.00000E+00
    0.18450E-07        -0.74028E-11         0.00000E+00
    0.18453E-07        -0.71872E-11         0.00000E+00
    0.18456E-07        -0.68100E-11         0.00000E+00
    0.18459E-07        -0.63043E-11         0.00000E+00
    0.18461E-07        -0.56783E-11         0.00000E+00
    0.18463E-07        -0.49188E-11         0.00000E+00
    0.18466E-07        -0.39970E-11         0.00000E+00
    0.18467E-07        -0.28778E-11         0.00000E+00
    0.18469E-07        -0.15348E-11         0.00000E+00
    0.18469E-07        -0.80506E-12         0.00000E+00
    0.18403E-07        -0.19909E-11         0.00000E+00
    0.18405E-07        -0.35558E-11         0.00000E+00
    0.18408E-07        -0.61135E-11         0.00000E+00
    0.18412E-07        -0.76560E-11         0.00000E+00
    0.18415E-07        -0.84389E-11         0.00000E+00
    0.18418E-07        -0.86939E-11         0.00000E+00
    0.18421E-07        -0.86004E-11         0.00000E+00
    0.18424E-07        -0.82817E-11         0.00000E+00
    0.18426E-07        -0.78130E-11         0.00000E+00
    0.18428E-07        -0.72312E-11         0.00000E+00
    0.18430E-07        -0.65412E-11         0.00000E+00
    0.18432E-07        -0.57187E-11         0.00000E+00
    0.18434E-07        -0.47137E-11         0.00000E+00
    0.18435E-07        -0.34583E-11         0.00000E+00
    0.18437E-07        -0.18850E-11         0.00000E+00
    0.18438E-07        -0.10112E-11         0.00000E+00
    0.18382E-07        -0.23491E-11         0.00000E+00
    0.18384E-07        -0.41159E-11         0.00000E+00
    0.18388E-07        -0.69133E-11         0.00000E+00
    0.18391E-07        -0.84483E-11         0.00000E+00
    0.18394E-07        -0.91164E-11         0.00000E+00
    0.18396E-07        -0.92355E-11         0.00000E+00
    0.18398E-07        -0.90247E-11         0.00000E+00
    0.18400E-07        -0.86203E-11         0.00000E+00
    0.18402E-07        -0.80999E-11         0.00000E+00
    0.18403E-07        -0.74991E-11         0.00000E+00
    0.18405E-07        -0.68189E-11         0.00000E+00
    0.18406E-07        -0.60271E-11         0.00000E+00
    0.18408E-07        -0.50544E-11         0.00000E+00
    0.18409E-07        -0.37946E-11         0.00000E+00
    0.18411E-07        -0.21223E-11         0.00000E+00
    0.18411E-07        -0.11672E-11         0.00000E+00
    0.18369E-07        -0.25696E-11         0.00000E+00
    0.18371E-07        -0.43847E-11         0.00000E+00
    0.18374E-07        -0.71293E-11         0.00000E+00
    0.18377E-07        -0.84323E-11         0.00000E+00
    0.18379E-07        -0.88647E-11         0.00000E+00
    0.18381E-07        -0.88125E-11         0.00000E+00
    0.18382E-07        -0.84999E-11         0.00000E+00
    0.18383E-07        -0.80522E-11         0.00000E+00
    0.18384E-07        -0.75367E-11         0.00000E+00
    0.18385E-07        -0.69822E-11         0.00000E+00
    0.18386E-07        -0.63875E-11         0.00000E+00
    0.18387E-07        -0.57207E-11         0.00000E+00
    0.18388E-07        -0.49060E-11         0.00000E+00
    0.18389E-07        -0.38024E-11         0.00000E+00
    0.18390E-07        -0.22062E-11         0.00000E+00
    0.18391E-07        -0.12565E-11         0.00000E+00
    0.18363E-07        -0.25612E-11         0.00000E+00
    0.18365E-07        -0.41806E-11         0.00000E+00
    0.18368E-07        -0.64509E-11         0.00000E+00
    0.18370E-07        -0.72798E-11         0.00000E+00
    0.18371E-07        -0.74155E-11         0.00000E+00
    0.18372E-07        -0.72229E-11         0.00000E+00
    0.18372E-07        -0.68733E-11         0.00000E+00
    0.18372E-07        -0.64571E-11         0.00000E+00
    0.18372E-07        -0.60205E-11         0.00000E+00
    0.18372E-07        -0.55821E-11         0.00000E+00
    0.18373E-07        -0.51403E-11         0.00000E+00
    0.18373E-07        -0.46715E-11         0.00000E+00
    0.18373E-07        -0.41212E-11         0.00000E+00
    0.18374E-07        -0.33520E-11         0.00000E+00
    0.18375E-07        -0.20651E-11         0.00000E+00
    0.18376E-07        -0.12429E-11         0.00000E+00
    0.18366E-07        -0.21009E-11         0.00000E+00
    0.18368E-07        -0.30948E-11         0.00000E+00
    0.18370E-07        -0.43252E-11         0.00000E+00
    0.18370E-07        -0.45792E-11         0.00000E+00
    0.18370E-07        -0.45140E-11         0.00000E+00
    0.18369E-07        -0.43071E-11         0.00000E+00
    0.18368E-07        -0.40448E-11         0.00000E+00
    0.18368E-07        -0.37691E-11         0.00000E+00
    0.18367E-07        -0.35010E-11         0.00000E+00
    0.18366E-07        -0.32485E-11         0.00000E+00
    0.18365E-07        -0.30105E-11         0.00000E+00
    0.18364E-07        -0.27764E-11         0.00000E+00
    0.18364E-07        -0.25204E-11         0.00000E+00
    0.18364E-07        -0.21954E-11         0.00000E+00
    0.18365E-07        -0.15507E-11         0.00000E+00
    0.18365E-07        -0.10930E-11         0.00000E+00
    0.18370E-07         0.00000E+00         0.00000E+00
    0.18371E-07         0.00000E+00         0.00000E+00
    0.18372E-07        -0.49660E-22         0.00000E+00
    0.18372E-07         0.10232E-25         0.00000E+00
    0.18371E-07         0.53809E-22         0.00000E+00
    0.18370E-07         0.00000E+00         0.00000E+00
    0.18368E-07         0.00000E+00         0.00000E+00
    0.18367E-07        -0.49699E-22         0.00000E+00
    0.18365E-07        -0.49699E-22         0.00000E+00
    0.18364E-07         0.49710E-22         0.00000E+00
    0.18363E-07         0.53853E-22         0.00000E+00
    0.18362E-07        -0.53864E-22         0.00000E+00
    0.18361E-07        -0.41386E-23         0.00000E+00
    0.18360E-07         0.53871E-22         0.00000E+00
    0.18361E-07         0.82886E-23         0.00000E+00
    0.18361E-07         0.00000E+00         0.00000E+00
CELL_DATA        450
TENSORS stressef double 
    0.43132E+08         0.27551E+06         0.00000E+00
    0.27551E+06         0.29825E+08         0.00000E+00
    0.00000E+00         0.00000E+00         0.26847E+08
 
    0.43266E+08         0.25065E+05         0.00000E+00
    0.25065E+05         0.29799E+08         0.00000E+00
    0.00000E+00         0.00000E+00         0.24004E+08
 
    0.41687E+08        -0.34887E+06         0.00000E+00
   -0.34887E+06         0.29261E+08         0.00000E+00
    0.00000E+00         0.00000E+00         0.20289E+08
 
    0.39471E+08        -0.42339E+06         0.00000E+00
   -0.42339E+06         0.28292E+08         0.00000E+00
    0.00000E+00         0.00000E+00         0.16445E+08
 
    0.36966E+08        -0.63162E+06         0.00000E+00
   -0.63162E+06         0.27200E+08         0.00000E+00
    0.00000E+00         0.00000E+00         0.13244E+08
 
    0.33483E+08        -0.63712E+06         0.00000E+00
   -0.63712E+06         0.26023E+08         0.00000E+00
    0.00000E+00         0.00000E+00         0.11901E+08
 
    0.30754E+08        -0.46867E+06         0.00000E+00
   -0.46867E+06         0.25005E+08         0.00000E+00
    0.00000E+00         0.00000E+00         0.11152E+08
 
    0.28447E+08        -0.33448E+06         0.00000E+00
   -0.33448E+06         0.24239E+08         0.00000E+00
    0.00000E+00         0.00000E+00         0.10537E+08
 
    0.26313E+08        -0.21759E+06         0.00000E+00
   -0.21759E+06         0.23707E+08         0.00000E+00
    0.00000E+00         0.00000E+00         0.10004E+08
 
    0.24221E+08        -0.10558E+06         0.00000E+00
   -0.10558E+06         0.23395E+08         0.00000E+00
    0.00000E+00         0.00000E+00         0.95232E+07
 
    0.22072E+08         0.11178E+05         0.00000E+00
    0.11178E+05         0.23308E+08         0.00000E+00
    0.00000E+00         0.00000E+00         0.90759E+07
 
    0.19758E+08         0.14283E+06         0.00000E+00
    0.14283E+06         0.23467E+08         0.00000E+00
    0.00000E+00         0.00000E+00         0.86449E+07
 
    0.17133E+08         0.30659E+06         0.00000E+00
    0.30659E+06         0.23918E+08         0.00000E+00
    0.00000E+00         0.00000E+00         0.82104E+07
 
    0.13950E+08         0.53874E+06         0.00000E+00
    0.53874E+06         0.24765E+08         0.00000E+00
    0.00000E+00         0.00000E+00         0.77430E+07
 
    0.95008E+07         0.10743E+07         0.00000E+00
    0.10743E+07         0.26300E+08         0.00000E+00
    0.00000E+00         0.00000E+00         0.71601E+07
 
    0.40706E+08         0.41565E+06         0.00000E+00
    0.41565E+06         0.25055E+08         0.00000E+00
    0.00000E+00         0.00000E+00         0.18997E+08
 
    0.39948E+08         0.62467E+05         0.00000E+00
    0.62467E+05         0.24994E+08         0.00000E+00
    0.00000E+00         0.00000E+00         0.16663E+08
 
    0.38531E+08        -0.63240E+06         0.00000E+00
   -0.63240E+06         0.25067E+08         0.00000E+00
    0.00000E+00         0.00000E+00         0.14095E+08
 
    0.36563E+08        -0.11181E+07         0.00000E+00
   -0.11181E+07         0.25025E+08         0.00000E+00
    0.00000E+00         0.00000E+00         0.12346E+08
 
    0.33776E+08        -0.14629E+07         0.00000E+00
   -0.14629E+07         0.24634E+08         0.00000E+00
    0.00000E+00         0.00000E+00         0.11682E+08
 
    0.30917E+08        -0.15164E+07         0.00000E+00
   -0.15164E+07         0.24099E+08         0.00000E+00
    0.00000E+00         0.00000E+00         0.11003E+08
 
    0.28228E+08        -0.12333E+07         0.00000E+00
   -0.12333E+07         0.23495E+08         0.00000E+00
    0.00000E+00         0.00000E+00         0.10345E+08
 
    0.25905E+08        -0.91287E+06         0.00000E+00
   -0.91287E+06         0.22953E+08         0.00000E+00
    0.00000E+00         0.00000E+00         0.97715E+07
 
    0.23762E+08        -0.59921E+06         0.00000E+00
   -0.59921E+06         0.22549E+08         0.00000E+00
    0.00000E+00         0.00000E+00         0.92622E+07
 
    0.21676E+08        -0.28140E+06         0.00000E+00
   -0.28140E+06         0.22320E+08         0.00000E+00
    0.00000E+00         0.00000E+00         0.87991E+07
 
    0.19548E+08         0.59227E+05         0.00000E+00
    0.59227E+05         0.22289E+08         0.00000E+00
    0.00000E+00         0.00000E+00         0.83674E+07
 
    0.17279E+08         0.44942E+06         0.00000E+00
    0.44942E+06         0.22490E+08         0.00000E+00
    0.00000E+00         0.00000E+00         0.79538E+07
 
    0.14748E+08         0.93670E+06         0.00000E+00
    0.93670E+06         0.22973E+08         0.00000E+00
    0.00000E+00         0.00000E+00         0.75442E+07
 
    0.11776E+08         0.16352E+07         0.00000E+00
    0.16352E+07         0.23829E+08         0.00000E+00
    0.00000E+00         0.00000E+00         0.71209E+07
 
    0.83254E+07         0.29188E+07         0.00000E+00
    0.29188E+07         0.25180E+08         0.00000E+00
    0.00000E+00         0.00000E+00         0.67012E+07
 
    0.38178E+08        -0.12397E+05         0.00000E+00
   -0.12397E+05         0.22622E+08         0.00000E+00
    0.00000E+00         0.00000E+00         0.13328E+08
 
    0.36734E+08        -0.18615E+06         0.00000E+00
   -0.18615E+06         0.22431E+08         0.00000E+00
    0.00000E+00         0.00000E+00         0.11833E+08
 
    0.35077E+08        -0.72508E+06         0.00000E+00
   -0.72508E+06         0.22296E+08         0.00000E+00
    0.00000E+00         0.00000E+00         0.11475E+08
 
    0.33202E+08        -0.13997E+07         0.00000E+00
   -0.13997E+07         0.22138E+08         0.00000E+00
    0.00000E+00         0.00000E+00         0.11068E+08
 
    0.30802E+08        -0.17931E+07         0.00000E+00
   -0.17931E+07         0.21934E+08         0.00000E+00
    0.00000E+00         0.00000E+00         0.10547E+08
 
    0.28255E+08        -0.18669E+07         0.00000E+00
   -0.18669E+07         0.21726E+08         0.00000E+00
    0.00000E+00         0.00000E+00         0.99962E+07
 
    0.25786E+08        -0.16559E+07         0.00000E+00
   -0.16559E+07         0.21485E+08         0.00000E+00
    0.00000E+00         0.00000E+00         0.94541E+07
 
    0.23507E+08        -0.12837E+07         0.00000E+00
   -0.12837E+07         0.21213E+08         0.00000E+00
    0.00000E+00         0.00000E+00         0.89438E+07
 
    0.21385E+08        -0.84762E+06         0.00000E+00
   -0.84762E+06         0.20995E+08         0.00000E+00
    0.00000E+00         0.00000E+00         0.84759E+07
 
    0.19329E+08        -0.36658E+06         0.00000E+00
   -0.36658E+06         0.20893E+08         0.00000E+00
    0.00000E+00         0.00000E+00         0.80443E+07
 
    0.17254E+08         0.17202E+06         0.00000E+00
    0.17202E+06         0.20952E+08         0.00000E+00
    0.00000E+00         0.00000E+00         0.76411E+07
 
    0.15078E+08         0.80185E+06         0.00000E+00
    0.80185E+06         0.21213E+08         0.00000E+00
    0.00000E+00         0.00000E+00         0.72583E+07
 
    0.12722E+08         0.15889E+07         0.00000E+00
    0.15889E+07         0.21723E+08         0.00000E+00
    0.00000E+00         0.00000E+00         0.68890E+07
 
    0.10139E+08         0.26713E+07         0.00000E+00
    0.26713E+07         0.22530E+08         0.00000E+00
    0.00000E+00         0.00000E+00         0.65338E+07
 
    0.74175E+07         0.42635E+07         0.00000E+00
    0.42635E+07         0.23596E+08         0.00000E+00
    0.00000E+00         0.00000E+00         0.62027E+07
 
    0.35302E+08        -0.17530E+06         0.00000E+00
   -0.17530E+06         0.20268E+08         0.00000E+00
    0.00000E+00         0.00000E+00         0.11114E+08
 
    0.33471E+08        -0.57026E+06         0.00000E+00
   -0.57026E+06         0.20079E+08         0.00000E+00
    0.00000E+00         0.00000E+00         0.10710E+08
 
    0.31750E+08        -0.10252E+07         0.00000E+00
   -0.10252E+07         0.19737E+08         0.00000E+00
    0.00000E+00         0.00000E+00         0.10297E+08
 
    0.29913E+08        -0.15459E+07         0.00000E+00
   -0.15459E+07         0.19507E+08         0.00000E+00
    0.00000E+00         0.00000E+00         0.98839E+07
 
    0.27811E+08        -0.19106E+07         0.00000E+00
   -0.19106E+07         0.19406E+08         0.00000E+00
    0.00000E+00         0.00000E+00         0.94432E+07
 
    0.25558E+08        -0.19937E+07         0.00000E+00
   -0.19937E+07         0.19339E+08         0.00000E+00
    0.00000E+00         0.00000E+00         0.89794E+07
 
    0.23319E+08        -0.18164E+07         0.00000E+00
   -0.18164E+07         0.19267E+08         0.00000E+00
    0.00000E+00         0.00000E+00         0.85172E+07
 
    0.21174E+08        -0.14439E+07         0.00000E+00
   -0.14439E+07         0.19189E+08         0.00000E+00
    0.00000E+00         0.00000E+00         0.80726E+07
 
    0.19130E+08        -0.94104E+06         0.00000E+00
   -0.94104E+06         0.19138E+08         0.00000E+00
    0.00000E+00         0.00000E+00         0.76536E+07
 
    0.17146E+08        -0.34030E+06         0.00000E+00
   -0.34030E+06         0.19164E+08         0.00000E+00
    0.00000E+00         0.00000E+00         0.72620E+07
 
    0.15163E+08         0.36137E+06         0.00000E+00
    0.36137E+06         0.19314E+08         0.00000E+00
    0.00000E+00         0.00000E+00         0.68954E+07
 
    0.13127E+08         0.11951E+07         0.00000E+00
    0.11951E+07         0.19628E+08         0.00000E+00
    0.00000E+00         0.00000E+00         0.65508E+07
 
    0.11000E+08         0.22244E+07         0.00000E+00
    0.22244E+07         0.20136E+08         0.00000E+00
    0.00000E+00         0.00000E+00         0.62273E+07
 
    0.87946E+07         0.35490E+07         0.00000E+00
    0.35490E+07         0.20845E+08         0.00000E+00
    0.00000E+00         0.00000E+00         0.59278E+07
 
    0.66081E+07         0.52847E+07         0.00000E+00
    0.52847E+07         0.21701E+08         0.00000E+00
    0.00000E+00         0.00000E+00         0.56618E+07
 
    0.32080E+08        -0.28939E+06         0.00000E+00
   -0.28939E+06         0.17527E+08         0.00000E+00
    0.00000E+00         0.00000E+00         0.99215E+07
 
    0.30248E+08        -0.80821E+06         0.00000E+00
   -0.80821E+06         0.17376E+08         0.00000E+00
    0.00000E+00         0.00000E+00         0.95248E+07
 
    0.28521E+08        -0.12797E+07         0.00000E+00
   -0.12797E+07         0.17184E+08         0.00000E+00
    0.00000E+00         0.00000E+00         0.91409E+07
 
    0.26746E+08        -0.16870E+07         0.00000E+00
   -0.16870E+07         0.17022E+08         0.00000E+00
    0.00000E+00         0.00000E+00         0.87536E+07
 
    0.24851E+08        -0.19582E+07         0.00000E+00
   -0.19582E+07         0.16946E+08         0.00000E+00
    0.00000E+00         0.00000E+00         0.83594E+07
 
    0.22858E+08        -0.20131E+07         0.00000E+00
   -0.20131E+07         0.16938E+08         0.00000E+00
    0.00000E+00         0.00000E+00         0.79592E+07
 
    0.20844E+08        -0.18342E+07         0.00000E+00
   -0.18342E+07         0.16958E+08         0.00000E+00
    0.00000E+00         0.00000E+00         0.75605E+07
 
    0.18872E+08        -0.14516E+07         0.00000E+00
   -0.14516E+07         0.16994E+08         0.00000E+00
    0.00000E+00         0.00000E+00         0.71733E+07
 
    0.16960E+08        -0.90338E+06         0.00000E+00
   -0.90338E+06         0.17060E+08         0.00000E+00
    0.00000E+00         0.00000E+00         0.68040E+07
 
    0.15093E+08        -0.21415E+06         0.00000E+00
   -0.21415E+06         0.17185E+08         0.00000E+00
    0.00000E+00         0.00000E+00         0.64556E+07
 
    0.13241E+08         0.61486E+06         0.00000E+00
    0.61486E+06         0.17406E+08         0.00000E+00
    0.00000E+00         0.00000E+00         0.61293E+07
 
    0.11376E+08         0.16070E+07         0.00000E+00
    0.16070E+07         0.17750E+08         0.00000E+00
    0.00000E+00         0.00000E+00         0.58252E+07
 
    0.94913E+07         0.28086E+07         0.00000E+00
    0.28086E+07         0.18234E+08         0.00000E+00
    0.00000E+00         0.00000E+00         0.55450E+07
 
    0.76150E+07         0.42822E+07         0.00000E+00
    0.42822E+07         0.18848E+08         0.00000E+00
    0.00000E+00         0.00000E+00         0.52926E+07
 
    0.58310E+07         0.60875E+07         0.00000E+00
    0.60875E+07         0.19545E+08         0.00000E+00
    0.00000E+00         0.00000E+00         0.50751E+07
 
    0.28704E+08        -0.36332E+06         0.00000E+00
   -0.36332E+06         0.14790E+08         0.00000E+00
    0.00000E+00         0.00000E+00         0.86988E+07
 
    0.26983E+08        -0.95870E+06         0.00000E+00
   -0.95870E+06         0.14705E+08         0.00000E+00
    0.00000E+00         0.00000E+00         0.83376E+07
 
    0.25337E+08        -0.14284E+07         0.00000E+00
   -0.14284E+07         0.14592E+08         0.00000E+00
    0.00000E+00         0.00000E+00         0.79858E+07
 
    0.23679E+08        -0.17779E+07         0.00000E+00
   -0.17779E+07         0.14506E+08         0.00000E+00
    0.00000E+00         0.00000E+00         0.76368E+07
 
    0.21960E+08        -0.19740E+07         0.00000E+00
   -0.19740E+07         0.14475E+08         0.00000E+00
    0.00000E+00         0.00000E+00         0.72871E+07
 
    0.20185E+08        -0.19784E+07         0.00000E+00
   -0.19784E+07         0.14503E+08         0.00000E+00
    0.00000E+00         0.00000E+00         0.69376E+07
 
    0.18388E+08        -0.17730E+07         0.00000E+00
   -0.17730E+07         0.14573E+08         0.00000E+00
    0.00000E+00         0.00000E+00         0.65922E+07
 
    0.16605E+08        -0.13655E+07         0.00000E+00
   -0.13655E+07         0.14675E+08         0.00000E+00
    0.00000E+00         0.00000E+00         0.62559E+07
 
    0.14856E+08        -0.77524E+06         0.00000E+00
   -0.77524E+06         0.14812E+08         0.00000E+00
    0.00000E+00         0.00000E+00         0.59336E+07
 
    0.13140E+08        -0.16813E+05         0.00000E+00
   -0.16813E+05         0.15002E+08         0.00000E+00
    0.00000E+00         0.00000E+00         0.56284E+07
 
    0.11449E+08         0.90850E+06         0.00000E+00
    0.90850E+06         0.15264E+08         0.00000E+00
    0.00000E+00         0.00000E+00         0.53427E+07
 
    0.97747E+07         0.20156E+07         0.00000E+00
    0.20156E+07         0.15616E+08         0.00000E+00
    0.00000E+00         0.00000E+00         0.50782E+07
 
    0.81238E+07         0.33332E+07         0.00000E+00
    0.33332E+07         0.16065E+08         0.00000E+00
    0.00000E+00         0.00000E+00         0.48377E+07
 
    0.65301E+07         0.48964E+07         0.00000E+00
    0.48964E+07         0.16594E+08         0.00000E+00
    0.00000E+00         0.00000E+00         0.46249E+07
 
    0.50593E+07         0.67322E+07         0.00000E+00
    0.67322E+07         0.17168E+08         0.00000E+00
    0.00000E+00         0.00000E+00         0.44455E+07
 
    0.25241E+08        -0.39978E+06         0.00000E+00
   -0.39978E+06         0.12055E+08         0.00000E+00
    0.00000E+00         0.00000E+00         0.74593E+07
 
    0.23696E+08        -0.10381E+07         0.00000E+00
   -0.10381E+07         0.12018E+08         0.00000E+00
    0.00000E+00         0.00000E+00         0.71428E+07
 
    0.22189E+08        -0.15038E+07         0.00000E+00
   -0.15038E+07         0.11969E+08         0.00000E+00
    0.00000E+00         0.00000E+00         0.68317E+07
 
    0.20678E+08        -0.18131E+07         0.00000E+00
   -0.18131E+07         0.11940E+08         0.00000E+00
    0.00000E+00         0.00000E+00         0.65236E+07
 
    0.19135E+08        -0.19550E+07         0.00000E+00
   -0.19550E+07         0.11952E+08         0.00000E+00
    0.00000E+00         0.00000E+00         0.62175E+07
 
    0.17559E+08        -0.19104E+07         0.00000E+00
   -0.19104E+07         0.12011E+08         0.00000E+00
    0.00000E+00         0.00000E+00         0.59141E+07
 
    0.15966E+08        -0.16674E+07         0.00000E+00
   -0.16674E+07         0.12112E+08         0.00000E+00
    0.00000E+00         0.00000E+00         0.56157E+07
 
    0.14378E+08        -0.12260E+07         0.00000E+00
   -0.12260E+07         0.12250E+08         0.00000E+00
    0.00000E+00         0.00000E+00         0.53256E+07
 
    0.12809E+08        -0.59424E+06         0.00000E+00
   -0.59424E+06         0.12426E+08         0.00000E+00
    0.00000E+00         0.00000E+00         0.50471E+07
 
    0.11268E+08         0.22059E+06         0.00000E+00
    0.22059E+06         0.12648E+08         0.00000E+00
    0.00000E+00         0.00000E+00         0.47833E+07
 
    0.97564E+07         0.12176E+07         0.00000E+00
    0.12176E+07         0.12927E+08         0.00000E+00
    0.00000E+00         0.00000E+00         0.45366E+07
 
    0.82783E+07         0.24051E+07         0.00000E+00
    0.24051E+07         0.13269E+08         0.00000E+00
    0.00000E+00         0.00000E+00         0.43095E+07
 
    0.68487E+07         0.37980E+07         0.00000E+00
    0.37980E+07         0.13676E+08         0.00000E+00
    0.00000E+00         0.00000E+00         0.41048E+07
 
    0.54992E+07         0.54128E+07         0.00000E+00
    0.54128E+07         0.14131E+08         0.00000E+00
    0.00000E+00         0.00000E+00         0.39261E+07
 
    0.42806E+07         0.72575E+07         0.00000E+00
    0.72575E+07         0.14607E+08         0.00000E+00
    0.00000E+00         0.00000E+00         0.37776E+07
 
    0.21744E+08        -0.41140E+06         0.00000E+00
   -0.41140E+06         0.93225E+07         0.00000E+00
    0.00000E+00         0.00000E+00         0.62133E+07
 
    0.20405E+08        -0.10653E+07         0.00000E+00
   -0.10653E+07         0.93172E+07         0.00000E+00
    0.00000E+00         0.00000E+00         0.59443E+07
 
    0.19071E+08        -0.15237E+07         0.00000E+00
   -0.15237E+07         0.93139E+07         0.00000E+00
    0.00000E+00         0.00000E+00         0.56769E+07
 
    0.17728E+08        -0.18038E+07         0.00000E+00
   -0.18038E+07         0.93284E+07         0.00000E+00
    0.00000E+00         0.00000E+00         0.54113E+07
 
    0.16366E+08        -0.19049E+07         0.00000E+00
   -0.19049E+07         0.93737E+07         0.00000E+00
    0.00000E+00         0.00000E+00         0.51479E+07
 
    0.14983E+08        -0.18184E+07         0.00000E+00
   -0.18184E+07         0.94562E+07         0.00000E+00
    0.00000E+00         0.00000E+00         0.48878E+07
 
    0.13588E+08        -0.15373E+07         0.00000E+00
   -0.15373E+07         0.95759E+07         0.00000E+00
    0.00000E+00         0.00000E+00         0.46327E+07
 
    0.12195E+08        -0.10599E+07         0.00000E+00
   -0.10599E+07         0.97314E+07         0.00000E+00
    0.00000E+00         0.00000E+00         0.43852E+07
 
    0.10816E+08        -0.38893E+06         0.00000E+00
   -0.38893E+06         0.99229E+07         0.00000E+00
    0.00000E+00         0.00000E+00         0.41477E+07
 
    0.94604E+07         0.47206E+06         0.00000E+00
    0.47206E+06         0.10154E+08         0.00000E+00
    0.00000E+00         0.00000E+00         0.39228E+07
 
    0.81368E+07         0.15222E+07         0.00000E+00
    0.15222E+07         0.10428E+08         0.00000E+00
    0.00000E+00         0.00000E+00         0.37129E+07
 
    0.68552E+07         0.27645E+07         0.00000E+00
    0.27645E+07         0.10748E+08         0.00000E+00
    0.00000E+00         0.00000E+00         0.35206E+07
 
    0.56330E+07         0.42048E+07         0.00000E+00
    0.42048E+07         0.11108E+08         0.00000E+00
    0.00000E+00         0.00000E+00         0.33483E+07
 
    0.44982E+07         0.58471E+07         0.00000E+00
    0.58471E+07         0.11497E+08         0.00000E+00
    0.00000E+00         0.00000E+00         0.31991E+07
 
    0.34895E+07         0.76885E+07         0.00000E+00
    0.76885E+07         0.11893E+08         0.00000E+00
    0.00000E+00         0.00000E+00         0.30764E+07
 
    0.18247E+08        -0.40791E+06         0.00000E+00
   -0.40791E+06         0.65946E+07         0.00000E+00
    0.00000E+00         0.00000E+00         0.49684E+07
 
    0.17122E+08        -0.10581E+07         0.00000E+00
   -0.10581E+07         0.66087E+07         0.00000E+00
    0.00000E+00         0.00000E+00         0.47462E+07
 
    0.15978E+08        -0.15052E+07         0.00000E+00
   -0.15052E+07         0.66345E+07         0.00000E+00
    0.00000E+00         0.00000E+00         0.45225E+07
 
    0.14819E+08        -0.17624E+07         0.00000E+00
   -0.17624E+07         0.66775E+07         0.00000E+00
    0.00000E+00         0.00000E+00         0.42992E+07
 
    0.13642E+08        -0.18321E+07         0.00000E+00
   -0.18321E+07         0.67449E+07         0.00000E+00
    0.00000E+00         0.00000E+00         0.40775E+07
 
    0.12452E+08        -0.17113E+07         0.00000E+00
   -0.17113E+07         0.68416E+07         0.00000E+00
    0.00000E+00         0.00000E+00         0.38587E+07
 
    0.11253E+08        -0.13962E+07         0.00000E+00
   -0.13962E+07         0.69694E+07         0.00000E+00
    0.00000E+00         0.00000E+00         0.36444E+07
 
    0.10055E+08        -0.88534E+06         0.00000E+00
   -0.88534E+06         0.71284E+07         0.00000E+00
    0.00000E+00         0.00000E+00         0.34367E+07
 
    0.88694E+07        -0.17977E+06         0.00000E+00
   -0.17977E+06         0.73189E+07         0.00000E+00
    0.00000E+00         0.00000E+00         0.32376E+07
 
    0.77049E+07         0.71838E+06         0.00000E+00
    0.71838E+06         0.75417E+07         0.00000E+00
    0.00000E+00         0.00000E+00         0.30493E+07
 
    0.65720E+07         0.18074E+07         0.00000E+00
    0.18074E+07         0.77976E+07         0.00000E+00
    0.00000E+00         0.00000E+00         0.28739E+07
 
    0.54831E+07         0.30866E+07         0.00000E+00
    0.30866E+07         0.80851E+07         0.00000E+00
    0.00000E+00         0.00000E+00         0.27136E+07
 
    0.44556E+07         0.45554E+07         0.00000E+00
    0.45554E+07         0.83985E+07         0.00000E+00
    0.00000E+00         0.00000E+00         0.25708E+07
 
    0.35129E+07         0.62103E+07         0.00000E+00
    0.62103E+07         0.87264E+07         0.00000E+00
    0.00000E+00         0.00000E+00         0.24479E+07
 
    0.26846E+07         0.80418E+07         0.00000E+00
    0.80418E+07         0.90521E+07         0.00000E+00
    0.00000E+00         0.00000E+00         0.23473E+07
 
    0.14773E+08        -0.39621E+06         0.00000E+00
   -0.39621E+06         0.38735E+07         0.00000E+00
    0.00000E+00         0.00000E+00         0.37293E+07
 
    0.13859E+08        -0.10311E+07         0.00000E+00
   -0.10311E+07         0.38975E+07         0.00000E+00
    0.00000E+00         0.00000E+00         0.35513E+07
 
    0.12912E+08        -0.14638E+07         0.00000E+00
   -0.14638E+07         0.39388E+07         0.00000E+00
    0.00000E+00         0.00000E+00         0.33701E+07
 
    0.11943E+08        -0.17017E+07         0.00000E+00
   -0.17017E+07         0.39968E+07         0.00000E+00
    0.00000E+00         0.00000E+00         0.31880E+07
 
    0.10958E+08        -0.17470E+07         0.00000E+00
   -0.17470E+07         0.40747E+07         0.00000E+00
    0.00000E+00         0.00000E+00         0.30066E+07
 
    0.99611E+07        -0.15987E+07         0.00000E+00
   -0.15987E+07         0.41757E+07         0.00000E+00
    0.00000E+00         0.00000E+00         0.28274E+07
 
    0.89580E+07        -0.12552E+07         0.00000E+00
   -0.12552E+07         0.43016E+07         0.00000E+00
    0.00000E+00         0.00000E+00         0.26519E+07
 
    0.79563E+07        -0.71572E+06         0.00000E+00
   -0.71572E+06         0.44533E+07         0.00000E+00
    0.00000E+00         0.00000E+00         0.24819E+07
 
    0.69646E+07         0.18747E+05         0.00000E+00
    0.18747E+05         0.46307E+07         0.00000E+00
    0.00000E+00         0.00000E+00         0.23191E+07
 
    0.59919E+07         0.94600E+06         0.00000E+00
    0.94600E+06         0.48338E+07         0.00000E+00
    0.00000E+00         0.00000E+00         0.21652E+07
 
    0.50486E+07         0.20632E+07         0.00000E+00
    0.20632E+07         0.50615E+07         0.00000E+00
    0.00000E+00         0.00000E+00         0.20220E+07
 
    0.41471E+07         0.33667E+07         0.00000E+00
    0.33667E+07         0.53107E+07         0.00000E+00
    0.00000E+00         0.00000E+00         0.18916E+07
 
    0.33028E+07         0.48517E+07         0.00000E+00
    0.48517E+07         0.55756E+07         0.00000E+00
    0.00000E+00         0.00000E+00         0.17757E+07
 
    0.25351E+07         0.65100E+07         0.00000E+00
    0.65100E+07         0.58465E+07         0.00000E+00
    0.00000E+00         0.00000E+00         0.16763E+07
 
    0.18665E+07         0.83287E+07         0.00000E+00
    0.83287E+07         0.61107E+07         0.00000E+00
    0.00000E+00         0.00000E+00         0.15954E+07
 
    0.11333E+08        -0.38113E+06         0.00000E+00
   -0.38113E+06         0.11606E+07         0.00000E+00
    0.00000E+00         0.00000E+00         0.24987E+07
 
    0.10622E+08        -0.99531E+06         0.00000E+00
   -0.99531E+06         0.11877E+07         0.00000E+00
    0.00000E+00         0.00000E+00         0.23619E+07
 
    0.98718E+07        -0.14122E+07         0.00000E+00
   -0.14122E+07         0.12336E+07         0.00000E+00
    0.00000E+00         0.00000E+00         0.22211E+07
 
    0.90975E+07        -0.16336E+07         0.00000E+00
   -0.16336E+07         0.12952E+07         0.00000E+00
    0.00000E+00         0.00000E+00         0.20785E+07
 
    0.83068E+07        -0.16597E+07         0.00000E+00
   -0.16597E+07         0.13729E+07         0.00000E+00
    0.00000E+00         0.00000E+00         0.19359E+07
 
    0.75054E+07        -0.14900E+07         0.00000E+00
   -0.14900E+07         0.14685E+07         0.00000E+00
    0.00000E+00         0.00000E+00         0.17948E+07
 
    0.66988E+07        -0.11238E+07         0.00000E+00
   -0.11238E+07         0.15836E+07         0.00000E+00
    0.00000E+00         0.00000E+00         0.16565E+07
 
    0.58931E+07        -0.56118E+06         0.00000E+00
   -0.56118E+06         0.17188E+07         0.00000E+00
    0.00000E+00         0.00000E+00         0.15224E+07
 
    0.50953E+07         0.19627E+06         0.00000E+00
    0.19627E+06         0.18744E+07         0.00000E+00
    0.00000E+00         0.00000E+00         0.13939E+07
 
    0.43136E+07         0.11456E+07         0.00000E+00
    0.11456E+07         0.20494E+07         0.00000E+00
    0.00000E+00         0.00000E+00         0.12726E+07
 
    0.35571E+07         0.22827E+07         0.00000E+00
    0.22827E+07         0.22422E+07         0.00000E+00
    0.00000E+00         0.00000E+00         0.11599E+07
 
    0.28370E+07         0.36018E+07         0.00000E+00
    0.36018E+07         0.24493E+07         0.00000E+00
    0.00000E+00         0.00000E+00         0.10573E+07
 
    0.21664E+07         0.50951E+07         0.00000E+00
    0.50951E+07         0.26651E+07         0.00000E+00
    0.00000E+00         0.00000E+00         0.96631E+06
 
    0.15607E+07         0.67518E+07         0.00000E+00
    0.67518E+07         0.28820E+07         0.00000E+00
    0.00000E+00         0.00000E+00         0.88855E+06
 
    0.10370E+07         0.85567E+07         0.00000E+00
    0.85567E+07         0.30902E+07         0.00000E+00
    0.00000E+00         0.00000E+00         0.82544E+06
 
    0.79298E+07        -0.36605E+06         0.00000E+00
   -0.36605E+06        -0.15429E+07         0.00000E+00
    0.00000E+00         0.00000E+00         0.12774E+07
 
    0.74121E+07        -0.95911E+06         0.00000E+00
   -0.95911E+06        -0.15178E+07         0.00000E+00
    0.00000E+00         0.00000E+00         0.11789E+07
 
    0.68571E+07        -0.13610E+07         0.00000E+00
   -0.13610E+07        -0.14755E+07         0.00000E+00
    0.00000E+00         0.00000E+00         0.10763E+07
 
    0.62783E+07        -0.15686E+07         0.00000E+00
   -0.15686E+07        -0.14199E+07         0.00000E+00
    0.00000E+00         0.00000E+00         0.97167E+06
 
    0.56839E+07        -0.15799E+07         0.00000E+00
   -0.15799E+07        -0.13516E+07         0.00000E+00
    0.00000E+00         0.00000E+00         0.86647E+06
 
    0.50797E+07        -0.13939E+07         0.00000E+00
   -0.13939E+07        -0.12698E+07         0.00000E+00
    0.00000E+00         0.00000E+00         0.76198E+06
 
    0.44702E+07        -0.10101E+07         0.00000E+00
   -0.10101E+07        -0.11734E+07         0.00000E+00
    0.00000E+00         0.00000E+00         0.65936E+06
 
    0.38604E+07        -0.42966E+06         0.00000E+00
   -0.42966E+06        -0.10618E+07         0.00000E+00
    0.00000E+00         0.00000E+00         0.55973E+06
 
    0.32559E+07         0.34530E+06         0.00000E+00
    0.34530E+06        -0.93494E+06         0.00000E+00
    0.00000E+00         0.00000E+00         0.46420E+06
 
    0.26634E+07         0.13109E+07         0.00000E+00
    0.13109E+07        -0.79381E+06         0.00000E+00
    0.00000E+00         0.00000E+00         0.37392E+06
 
    0.20905E+07         0.24617E+07         0.00000E+00
    0.24617E+07        -0.64034E+06         0.00000E+00
    0.00000E+00         0.00000E+00         0.29003E+06
 
    0.15463E+07         0.37903E+07         0.00000E+00
    0.37903E+07        -0.47776E+06         0.00000E+00
    0.00000E+00         0.00000E+00         0.21372E+06
 
    0.10416E+07         0.52871E+07         0.00000E+00
    0.52871E+07        -0.31079E+06         0.00000E+00
    0.00000E+00         0.00000E+00         0.14615E+06
 
    0.58808E+06         0.69395E+07         0.00000E+00
    0.69395E+07        -0.14562E+06         0.00000E+00
    0.00000E+00         0.00000E+00         0.88491E+05
 
    0.19852E+06         0.87312E+07         0.00000E+00
    0.87312E+07         0.10460E+05         0.00000E+00
    0.00000E+00         0.00000E+00         0.41796E+05
 
    0.45626E+07        -0.35336E+06         0.00000E+00
   -0.35336E+06        -0.42363E+07         0.00000E+00
    0.00000E+00         0.00000E+00         0.65262E+05
 
    0.42295E+07        -0.92854E+06         0.00000E+00
   -0.92854E+06        -0.42169E+07         0.00000E+00
    0.00000E+00         0.00000E+00         0.25118E+04
 
    0.38658E+07        -0.13181E+07         0.00000E+00
   -0.13181E+07        -0.41844E+07         0.00000E+00
    0.00000E+00         0.00000E+00        -0.63721E+05
 
    0.34822E+07        -0.15151E+07         0.00000E+00
   -0.15151E+07        -0.41420E+07         0.00000E+00
    0.00000E+00         0.00000E+00        -0.13197E+06
 
    0.30853E+07        -0.15155E+07         0.00000E+00
   -0.15155E+07        -0.40906E+07         0.00000E+00
    0.00000E+00         0.00000E+00        -0.20107E+06
 
    0.26793E+07        -0.13175E+07         0.00000E+00
   -0.13175E+07        -0.40296E+07         0.00000E+00
    0.00000E+00         0.00000E+00        -0.27006E+06
 
    0.22676E+07        -0.92093E+06         0.00000E+00
   -0.92093E+06        -0.39582E+07         0.00000E+00
    0.00000E+00         0.00000E+00        -0.33811E+06
 
    0.18537E+07        -0.32722E+06         0.00000E+00
   -0.32722E+06        -0.38758E+07         0.00000E+00
    0.00000E+00         0.00000E+00        -0.40442E+06
 
    0.14416E+07         0.46052E+06         0.00000E+00
    0.46052E+06        -0.37825E+07         0.00000E+00
    0.00000E+00         0.00000E+00        -0.46818E+06
 
    0.10363E+07         0.14376E+07         0.00000E+00
    0.14376E+07        -0.36793E+07         0.00000E+00
    0.00000E+00         0.00000E+00        -0.52860E+06
 
    0.64370E+06         0.25974E+07         0.00000E+00
    0.25974E+07        -0.35679E+07         0.00000E+00
    0.00000E+00         0.00000E+00        -0.58485E+06
 
    0.27081E+06         0.39314E+07         0.00000E+00
    0.39314E+07        -0.34512E+07         0.00000E+00
    0.00000E+00         0.00000E+00        -0.63607E+06
 
   -0.74378E+05         0.54288E+07         0.00000E+00
    0.54288E+07        -0.33328E+07         0.00000E+00
    0.00000E+00         0.00000E+00        -0.68144E+06
 
   -0.38306E+06         0.70759E+07         0.00000E+00
    0.70759E+07        -0.32176E+07         0.00000E+00
    0.00000E+00         0.00000E+00        -0.72013E+06
 
   -0.64610E+06         0.88559E+07         0.00000E+00
    0.88559E+07        -0.31108E+07         0.00000E+00
    0.00000E+00         0.00000E+00        -0.75139E+06
 
    0.12257E+07        -0.34474E+06         0.00000E+00
   -0.34474E+06        -0.69193E+07         0.00000E+00
    0.00000E+00         0.00000E+00        -0.11387E+07
 
    0.10700E+07        -0.90796E+06         0.00000E+00
   -0.90796E+06        -0.69082E+07         0.00000E+00
    0.00000E+00         0.00000E+00        -0.11676E+07
 
    0.89462E+06        -0.12896E+07         0.00000E+00
   -0.12896E+07        -0.68898E+07         0.00000E+00
    0.00000E+00         0.00000E+00        -0.11990E+07
 
    0.70579E+06        -0.14797E+07         0.00000E+00
   -0.14797E+07        -0.68660E+07         0.00000E+00
    0.00000E+00         0.00000E+00        -0.12320E+07
 
    0.50700E+06        -0.14729E+07         0.00000E+00
   -0.14729E+07        -0.68370E+07         0.00000E+00
    0.00000E+00         0.00000E+00        -0.12660E+07
 
    0.30019E+06        -0.12667E+07         0.00000E+00
   -0.12667E+07        -0.68020E+07         0.00000E+00
    0.00000E+00         0.00000E+00        -0.13004E+07
 
    0.86835E+05        -0.86119E+06         0.00000E+00
   -0.86119E+06        -0.67602E+07         0.00000E+00
    0.00000E+00         0.00000E+00        -0.13347E+07
 
   -0.13134E+06        -0.25824E+06         0.00000E+00
   -0.25824E+06        -0.67110E+07         0.00000E+00
    0.00000E+00         0.00000E+00        -0.13685E+07
 
   -0.35195E+06         0.53832E+06         0.00000E+00
    0.53832E+06        -0.66546E+07         0.00000E+00
    0.00000E+00         0.00000E+00        -0.14013E+07
 
   -0.57181E+06         0.15229E+07         0.00000E+00
    0.15229E+07        -0.65917E+07         0.00000E+00
    0.00000E+00         0.00000E+00        -0.14327E+07
 
   -0.78688E+06         0.26883E+07         0.00000E+00
    0.26883E+07        -0.65240E+07         0.00000E+00
    0.00000E+00         0.00000E+00        -0.14622E+07
 
   -0.99234E+06         0.40250E+07         0.00000E+00
    0.40250E+07        -0.64536E+07         0.00000E+00
    0.00000E+00         0.00000E+00        -0.14892E+07
 
   -0.11827E+07         0.55214E+07         0.00000E+00
    0.55214E+07        -0.63834E+07         0.00000E+00
    0.00000E+00         0.00000E+00        -0.15132E+07
 
   -0.13520E+07         0.71632E+07         0.00000E+00
    0.71632E+07        -0.63167E+07         0.00000E+00
    0.00000E+00         0.00000E+00        -0.15337E+07
 
   -0.14940E+07         0.89333E+07         0.00000E+00
    0.89333E+07        -0.62573E+07         0.00000E+00
    0.00000E+00         0.00000E+00        -0.15503E+07
 
   -0.20895E+07        -0.34133E+06         0.00000E+00
   -0.34133E+06        -0.95916E+07         0.00000E+00
    0.00000E+00         0.00000E+00        -0.23362E+07
 
   -0.20721E+07        -0.90040E+06         0.00000E+00
   -0.90040E+06        -0.95904E+07         0.00000E+00
    0.00000E+00         0.00000E+00        -0.23325E+07
 
   -0.20607E+07        -0.12794E+07         0.00000E+00
   -0.12794E+07        -0.95892E+07         0.00000E+00
    0.00000E+00         0.00000E+00        -0.23300E+07
 
   -0.20547E+07        -0.14669E+07         0.00000E+00
   -0.14669E+07        -0.95876E+07         0.00000E+00
    0.00000E+00         0.00000E+00        -0.23285E+07
 
   -0.20545E+07        -0.14565E+07         0.00000E+00
   -0.14565E+07        -0.95847E+07         0.00000E+00
    0.00000E+00         0.00000E+00        -0.23278E+07
 
   -0.20612E+07        -0.12455E+07         0.00000E+00
   -0.12455E+07        -0.95790E+07         0.00000E+00
    0.00000E+00         0.00000E+00        -0.23280E+07
 
   -0.20757E+07        -0.83427E+06         0.00000E+00
   -0.83427E+06        -0.95696E+07         0.00000E+00
    0.00000E+00         0.00000E+00        -0.23291E+07
 
   -0.20983E+07        -0.22540E+06         0.00000E+00
   -0.22540E+06        -0.95558E+07         0.00000E+00
    0.00000E+00         0.00000E+00        -0.23308E+07
 
   -0.21283E+07         0.57666E+06         0.00000E+00
    0.57666E+06        -0.95379E+07         0.00000E+00
    0.00000E+00         0.00000E+00        -0.23332E+07
 
   -0.21643E+07         0.15657E+07         0.00000E+00
    0.15657E+07        -0.95165E+07         0.00000E+00
    0.00000E+00         0.00000E+00        -0.23362E+07
 
   -0.22041E+07         0.27339E+07         0.00000E+00
    0.27339E+07        -0.94930E+07         0.00000E+00
    0.00000E+00         0.00000E+00        -0.23394E+07
 
   -0.22450E+07         0.40713E+07         0.00000E+00
    0.40713E+07        -0.94689E+07         0.00000E+00
    0.00000E+00         0.00000E+00        -0.23428E+07
 
   -0.22839E+07         0.55658E+07         0.00000E+00
    0.55658E+07        -0.94462E+07         0.00000E+00
    0.00000E+00         0.00000E+00        -0.23460E+07
 
   -0.23174E+07         0.72029E+07         0.00000E+00
    0.72029E+07        -0.94269E+07         0.00000E+00
    0.00000E+00         0.00000E+00        -0.23489E+07
 
   -0.23423E+07         0.89654E+07         0.00000E+00
    0.89654E+07        -0.94133E+07         0.00000E+00
    0.00000E+00         0.00000E+00        -0.23511E+07
 
   -0.53934E+07        -0.34384E+06         0.00000E+00
   -0.34384E+06        -0.12253E+08         0.00000E+00
    0.00000E+00         0.00000E+00        -0.35293E+07
 
   -0.52039E+07        -0.90775E+06         0.00000E+00
   -0.90775E+06        -0.12263E+08         0.00000E+00
    0.00000E+00         0.00000E+00        -0.34934E+07
 
   -0.50054E+07        -0.12904E+07         0.00000E+00
   -0.12904E+07        -0.12281E+08         0.00000E+00
    0.00000E+00         0.00000E+00        -0.34572E+07
 
   -0.48032E+07        -0.14796E+07         0.00000E+00
   -0.14796E+07        -0.12303E+08         0.00000E+00
    0.00000E+00         0.00000E+00        -0.34213E+07
 
   -0.46025E+07        -0.14688E+07         0.00000E+00
   -0.14688E+07        -0.12328E+08         0.00000E+00
    0.00000E+00         0.00000E+00        -0.33861E+07
 
   -0.44081E+07        -0.12558E+07         0.00000E+00
   -0.12558E+07        -0.12353E+08         0.00000E+00
    0.00000E+00         0.00000E+00        -0.33523E+07
 
   -0.42233E+07        -0.84171E+06         0.00000E+00
   -0.84171E+06        -0.12377E+08         0.00000E+00
    0.00000E+00         0.00000E+00        -0.33201E+07
 
   -0.40504E+07        -0.22973E+06         0.00000E+00
   -0.22973E+06        -0.12399E+08         0.00000E+00
    0.00000E+00         0.00000E+00        -0.32899E+07
 
   -0.38906E+07         0.57500E+06         0.00000E+00
    0.57500E+06        -0.12420E+08         0.00000E+00
    0.00000E+00         0.00000E+00        -0.32621E+07
 
   -0.37440E+07         0.15658E+07         0.00000E+00
    0.15658E+07        -0.12440E+08         0.00000E+00
    0.00000E+00         0.00000E+00        -0.32367E+07
 
   -0.36102E+07         0.27344E+07         0.00000E+00
    0.27344E+07        -0.12460E+08         0.00000E+00
    0.00000E+00         0.00000E+00        -0.32140E+07
 
   -0.34885E+07         0.40708E+07         0.00000E+00
    0.40708E+07        -0.12481E+08         0.00000E+00
    0.00000E+00         0.00000E+00        -0.31940E+07
 
   -0.33780E+07         0.55629E+07         0.00000E+00
    0.55629E+07        -0.12505E+08         0.00000E+00
    0.00000E+00         0.00000E+00        -0.31767E+07
 
   -0.32781E+07         0.71961E+07         0.00000E+00
    0.71961E+07        -0.12533E+08         0.00000E+00
    0.00000E+00         0.00000E+00        -0.31622E+07
 
   -0.31879E+07         0.89534E+07         0.00000E+00
    0.89534E+07        -0.12564E+08         0.00000E+00
    0.00000E+00         0.00000E+00        -0.31504E+07
 
   -0.86976E+07        -0.35266E+06         0.00000E+00
   -0.35266E+06        -0.14904E+08         0.00000E+00
    0.00000E+00         0.00000E+00        -0.47204E+07
 
   -0.83334E+07        -0.93094E+06         0.00000E+00
   -0.93094E+06        -0.14926E+08         0.00000E+00
    0.00000E+00         0.00000E+00        -0.46518E+07
 
   -0.79448E+07        -0.13235E+07         0.00000E+00
   -0.13235E+07        -0.14963E+08         0.00000E+00
    0.00000E+00         0.00000E+00        -0.45815E+07
 
   -0.75436E+07        -0.15185E+07         0.00000E+00
   -0.15185E+07        -0.15010E+08         0.00000E+00
    0.00000E+00         0.00000E+00        -0.45107E+07
 
   -0.71403E+07        -0.15104E+07         0.00000E+00
   -0.15104E+07        -0.15062E+08         0.00000E+00
    0.00000E+00         0.00000E+00        -0.44405E+07
 
   -0.67433E+07        -0.12979E+07         0.00000E+00
   -0.12979E+07        -0.15118E+08         0.00000E+00
    0.00000E+00         0.00000E+00        -0.43722E+07
 
   -0.63586E+07        -0.88313E+06         0.00000E+00
   -0.88313E+06        -0.15174E+08         0.00000E+00
    0.00000E+00         0.00000E+00        -0.43065E+07
 
   -0.59907E+07        -0.27046E+06         0.00000E+00
   -0.27046E+06        -0.15230E+08         0.00000E+00
    0.00000E+00         0.00000E+00        -0.42442E+07
 
   -0.56419E+07         0.53431E+06         0.00000E+00
    0.53431E+06        -0.15288E+08         0.00000E+00
    0.00000E+00         0.00000E+00        -0.41859E+07
 
   -0.53139E+07         0.15241E+07         0.00000E+00
    0.15241E+07        -0.15347E+08         0.00000E+00
    0.00000E+00         0.00000E+00        -0.41322E+07
 
   -0.50077E+07         0.26907E+07         0.00000E+00
    0.26907E+07        -0.15409E+08         0.00000E+00
    0.00000E+00         0.00000E+00        -0.40834E+07
 
   -0.47244E+07         0.40244E+07         0.00000E+00
    0.40244E+07        -0.15475E+08         0.00000E+00
    0.00000E+00         0.00000E+00        -0.40400E+07
 
   -0.44654E+07         0.55134E+07         0.00000E+00
    0.55134E+07        -0.15545E+08         0.00000E+00
    0.00000E+00         0.00000E+00        -0.40022E+07
 
   -0.42327E+07         0.71436E+07         0.00000E+00
    0.71436E+07        -0.15619E+08         0.00000E+00
    0.00000E+00         0.00000E+00        -0.39703E+07
 
   -0.40282E+07         0.88979E+07         0.00000E+00
    0.88979E+07        -0.15695E+08         0.00000E+00
    0.00000E+00         0.00000E+00        -0.39446E+07
 
   -0.12014E+08        -0.36789E+06         0.00000E+00
   -0.36789E+06        -0.17546E+08         0.00000E+00
    0.00000E+00         0.00000E+00        -0.59119E+07
 
   -0.11469E+08        -0.97004E+06         0.00000E+00
   -0.97004E+06        -0.17578E+08         0.00000E+00
    0.00000E+00         0.00000E+00        -0.58094E+07
 
   -0.10884E+08        -0.13786E+07         0.00000E+00
   -0.13786E+07        -0.17634E+08         0.00000E+00
    0.00000E+00         0.00000E+00        -0.57036E+07
 
   -0.10280E+08        -0.15832E+07         0.00000E+00
   -0.15832E+07        -0.17704E+08         0.00000E+00
    0.00000E+00         0.00000E+00        -0.55968E+07
 
   -0.96706E+07        -0.15799E+07         0.00000E+00
   -0.15799E+07        -0.17783E+08         0.00000E+00
    0.00000E+00         0.00000E+00        -0.54906E+07
 
   -0.90693E+07        -0.13696E+07         0.00000E+00
   -0.13696E+07        -0.17865E+08         0.00000E+00
    0.00000E+00         0.00000E+00        -0.53869E+07
 
   -0.84845E+07        -0.95608E+06         0.00000E+00
   -0.95608E+06        -0.17950E+08         0.00000E+00
    0.00000E+00         0.00000E+00        -0.52870E+07
 
   -0.79220E+07        -0.34495E+06         0.00000E+00
   -0.34495E+06        -0.18038E+08         0.00000E+00
    0.00000E+00         0.00000E+00        -0.51919E+07
 
   -0.73854E+07         0.45716E+06         0.00000E+00
    0.45716E+06        -0.18128E+08         0.00000E+00
    0.00000E+00         0.00000E+00        -0.51028E+07
 
   -0.68771E+07         0.14430E+07         0.00000E+00
    0.14430E+07        -0.18224E+08         0.00000E+00
    0.00000E+00         0.00000E+00        -0.50203E+07
 
   -0.63993E+07         0.26048E+07         0.00000E+00
    0.26048E+07        -0.18326E+08         0.00000E+00
    0.00000E+00         0.00000E+00        -0.49451E+07
 
   -0.59546E+07         0.39334E+07         0.00000E+00
    0.39334E+07        -0.18435E+08         0.00000E+00
    0.00000E+00         0.00000E+00        -0.48779E+07
 
   -0.55466E+07         0.54181E+07         0.00000E+00
    0.54181E+07        -0.18550E+08         0.00000E+00
    0.00000E+00         0.00000E+00        -0.48193E+07
 
   -0.51800E+07         0.70455E+07         0.00000E+00
    0.70455E+07        -0.18669E+08         0.00000E+00
    0.00000E+00         0.00000E+00        -0.47699E+07
 
   -0.48602E+07         0.87991E+07         0.00000E+00
    0.87991E+07        -0.18790E+08         0.00000E+00
    0.00000E+00         0.00000E+00        -0.47300E+07
 
   -0.15355E+08        -0.38933E+06         0.00000E+00
   -0.38933E+06        -0.20177E+08         0.00000E+00
    0.00000E+00         0.00000E+00        -0.71064E+07
 
   -0.14618E+08        -0.10243E+07         0.00000E+00
   -0.10243E+07        -0.20220E+08         0.00000E+00
    0.00000E+00         0.00000E+00        -0.69677E+07
 
   -0.13829E+08        -0.14541E+07         0.00000E+00
   -0.14541E+07        -0.20293E+08         0.00000E+00
    0.00000E+00         0.00000E+00        -0.68244E+07
 
   -0.13014E+08        -0.16709E+07         0.00000E+00
   -0.16709E+07        -0.20384E+08         0.00000E+00
    0.00000E+00         0.00000E+00        -0.66796E+07
 
   -0.12195E+08        -0.16739E+07         0.00000E+00
   -0.16739E+07        -0.20484E+08         0.00000E+00
    0.00000E+00         0.00000E+00        -0.65359E+07
 
   -0.11388E+08        -0.14668E+07         0.00000E+00
   -0.14668E+07        -0.20589E+08         0.00000E+00
    0.00000E+00         0.00000E+00        -0.63955E+07
 
   -0.10603E+08        -0.10559E+07         0.00000E+00
   -0.10559E+07        -0.20698E+08         0.00000E+00
    0.00000E+00         0.00000E+00        -0.62602E+07
 
   -0.98474E+07        -0.44849E+06         0.00000E+00
   -0.44849E+06        -0.20810E+08         0.00000E+00
    0.00000E+00         0.00000E+00        -0.61315E+07
 
   -0.91247E+07         0.34789E+06         0.00000E+00
    0.34789E+06        -0.20929E+08         0.00000E+00
    0.00000E+00         0.00000E+00        -0.60106E+07
 
   -0.84375E+07         0.13261E+07         0.00000E+00
    0.13261E+07        -0.21056E+08         0.00000E+00
    0.00000E+00         0.00000E+00        -0.58987E+07
 
   -0.77887E+07         0.24790E+07         0.00000E+00
    0.24790E+07        -0.21194E+08         0.00000E+00
    0.00000E+00         0.00000E+00        -0.57966E+07
 
   -0.71820E+07         0.37991E+07         0.00000E+00
    0.37991E+07        -0.21344E+08         0.00000E+00
    0.00000E+00         0.00000E+00        -0.57051E+07
 
   -0.66230E+07         0.52771E+07         0.00000E+00
    0.52771E+07        -0.21503E+08         0.00000E+00
    0.00000E+00         0.00000E+00        -0.56252E+07
 
   -0.61197E+07         0.69014E+07         0.00000E+00
    0.69014E+07        -0.21668E+08         0.00000E+00
    0.00000E+00         0.00000E+00        -0.55576E+07
 
   -0.56812E+07         0.86562E+07         0.00000E+00
    0.86562E+07        -0.21835E+08         0.00000E+00
    0.00000E+00         0.00000E+00        -0.55032E+07
 
   -0.18732E+08        -0.41659E+06         0.00000E+00
   -0.41659E+06        -0.22800E+08         0.00000E+00
    0.00000E+00         0.00000E+00        -0.83063E+07
 
   -0.17788E+08        -0.10923E+07         0.00000E+00
   -0.10923E+07        -0.22852E+08         0.00000E+00
    0.00000E+00         0.00000E+00        -0.81281E+07
 
   -0.16783E+08        -0.15470E+07         0.00000E+00
   -0.15470E+07        -0.22939E+08         0.00000E+00
    0.00000E+00         0.00000E+00        -0.79444E+07
 
   -0.15750E+08        -0.17773E+07         0.00000E+00
   -0.17773E+07        -0.23046E+08         0.00000E+00
    0.00000E+00         0.00000E+00        -0.77591E+07
 
   -0.14716E+08        -0.17865E+07         0.00000E+00
   -0.17865E+07        -0.23162E+08         0.00000E+00
    0.00000E+00         0.00000E+00        -0.75756E+07
 
   -0.13701E+08        -0.15827E+07         0.00000E+00
   -0.15827E+07        -0.23282E+08         0.00000E+00
    0.00000E+00         0.00000E+00        -0.73966E+07
 
   -0.12717E+08        -0.11753E+07         0.00000E+00
   -0.11753E+07        -0.23405E+08         0.00000E+00
    0.00000E+00         0.00000E+00        -0.72245E+07
 
   -0.11771E+08        -0.57409E+06         0.00000E+00
   -0.57409E+06        -0.23534E+08         0.00000E+00
    0.00000E+00         0.00000E+00        -0.70610E+07
 
   -0.10864E+08         0.21272E+06         0.00000E+00
    0.21272E+06        -0.23673E+08         0.00000E+00
    0.00000E+00         0.00000E+00        -0.69075E+07
 
   -0.10000E+08         0.11783E+07         0.00000E+00
    0.11783E+07        -0.23826E+08         0.00000E+00
    0.00000E+00         0.00000E+00        -0.67652E+07
 
   -0.91812E+07         0.23169E+07         0.00000E+00
    0.23169E+07        -0.23995E+08         0.00000E+00
    0.00000E+00         0.00000E+00        -0.66353E+07
 
   -0.84109E+07         0.36232E+07         0.00000E+00
    0.36232E+07        -0.24182E+08         0.00000E+00
    0.00000E+00         0.00000E+00        -0.65187E+07
 
   -0.76975E+07         0.50907E+07         0.00000E+00
    0.50907E+07        -0.24385E+08         0.00000E+00
    0.00000E+00         0.00000E+00        -0.64165E+07
 
   -0.70522E+07         0.67100E+07         0.00000E+00
    0.67100E+07        -0.24598E+08         0.00000E+00
    0.00000E+00         0.00000E+00        -0.63300E+07
 
   -0.64890E+07         0.84672E+07         0.00000E+00
    0.84672E+07        -0.24813E+08         0.00000E+00
    0.00000E+00         0.00000E+00        -0.62603E+07
 
   -0.22155E+08        -0.44904E+06         0.00000E+00
   -0.44904E+06        -0.25414E+08         0.00000E+00
    0.00000E+00         0.00000E+00        -0.95138E+07
 
   -0.20985E+08        -0.11716E+07         0.00000E+00
   -0.11716E+07        -0.25474E+08         0.00000E+00
    0.00000E+00         0.00000E+00        -0.92918E+07
 
   -0.19747E+08        -0.16531E+07         0.00000E+00
   -0.16531E+07        -0.25572E+08         0.00000E+00
    0.00000E+00         0.00000E+00        -0.90637E+07
 
   -0.18485E+08        -0.18957E+07         0.00000E+00
   -0.18957E+07        -0.25688E+08         0.00000E+00
    0.00000E+00         0.00000E+00        -0.88346E+07
 
   -0.17232E+08        -0.19094E+07         0.00000E+00
   -0.19094E+07        -0.25810E+08         0.00000E+00
    0.00000E+00         0.00000E+00        -0.86085E+07
 
   -0.16009E+08        -0.17077E+07         0.00000E+00
   -0.17077E+07        -0.25935E+08         0.00000E+00
    0.00000E+00         0.00000E+00        -0.83888E+07
 
   -0.14829E+08        -0.13045E+07         0.00000E+00
   -0.13045E+07        -0.26062E+08         0.00000E+00
    0.00000E+00         0.00000E+00        -0.81781E+07
 
   -0.13696E+08        -0.71224E+06         0.00000E+00
   -0.71224E+06        -0.26196E+08         0.00000E+00
    0.00000E+00         0.00000E+00        -0.79784E+07
 
   -0.12610E+08         0.59964E+05         0.00000E+00
    0.59964E+05        -0.26345E+08         0.00000E+00
    0.00000E+00         0.00000E+00        -0.77911E+07
 
   -0.11573E+08         0.10060E+07         0.00000E+00
    0.10060E+07        -0.26514E+08         0.00000E+00
    0.00000E+00         0.00000E+00        -0.76175E+07
 
   -0.10584E+08         0.21225E+07         0.00000E+00
    0.21225E+07        -0.26709E+08         0.00000E+00
    0.00000E+00         0.00000E+00        -0.74587E+07
 
   -0.96480E+07         0.34074E+07         0.00000E+00
    0.34074E+07        -0.26931E+08         0.00000E+00
    0.00000E+00         0.00000E+00        -0.73159E+07
 
   -0.87746E+07         0.48580E+07         0.00000E+00
    0.48580E+07        -0.27177E+08         0.00000E+00
    0.00000E+00         0.00000E+00        -0.71904E+07
 
   -0.79790E+07         0.64688E+07         0.00000E+00
    0.64688E+07        -0.27439E+08         0.00000E+00
    0.00000E+00         0.00000E+00        -0.70837E+07
 
   -0.72813E+07         0.82288E+07         0.00000E+00
    0.82288E+07        -0.27706E+08         0.00000E+00
    0.00000E+00         0.00000E+00        -0.69974E+07
 
   -0.25634E+08        -0.48584E+06         0.00000E+00
   -0.48584E+06        -0.28021E+08         0.00000E+00
    0.00000E+00         0.00000E+00        -0.10731E+08
 
   -0.24211E+08        -0.12591E+07         0.00000E+00
   -0.12591E+07        -0.28086E+08         0.00000E+00
    0.00000E+00         0.00000E+00        -0.10459E+08
 
   -0.22722E+08        -0.17659E+07         0.00000E+00
   -0.17659E+07        -0.28189E+08         0.00000E+00
    0.00000E+00         0.00000E+00        -0.10182E+08
 
   -0.21219E+08        -0.20170E+07         0.00000E+00
   -0.20170E+07        -0.28305E+08         0.00000E+00
    0.00000E+00         0.00000E+00        -0.99049E+07
 
   -0.19742E+08        -0.20310E+07         0.00000E+00
   -0.20310E+07        -0.28423E+08         0.00000E+00
    0.00000E+00         0.00000E+00        -0.96329E+07
 
   -0.18312E+08        -0.18290E+07         0.00000E+00
   -0.18290E+07        -0.28537E+08         0.00000E+00
    0.00000E+00         0.00000E+00        -0.93700E+07
 
   -0.16941E+08        -0.14305E+07         0.00000E+00
   -0.14305E+07        -0.28653E+08         0.00000E+00
    0.00000E+00         0.00000E+00        -0.91188E+07
 
   -0.15628E+08        -0.85074E+06         0.00000E+00
   -0.85074E+06        -0.28779E+08         0.00000E+00
    0.00000E+00         0.00000E+00        -0.88814E+07
 
   -0.14371E+08        -0.99862E+05         0.00000E+00
   -0.99862E+05        -0.28925E+08         0.00000E+00
    0.00000E+00         0.00000E+00        -0.86592E+07
 
   -0.13164E+08         0.81748E+06         0.00000E+00
    0.81748E+06        -0.29101E+08         0.00000E+00
    0.00000E+00         0.00000E+00        -0.84532E+07
 
   -0.12007E+08         0.19010E+07         0.00000E+00
    0.19010E+07        -0.29314E+08         0.00000E+00
    0.00000E+00         0.00000E+00        -0.82644E+07
 
   -0.10903E+08         0.31534E+07         0.00000E+00
    0.31534E+07        -0.29567E+08         0.00000E+00
    0.00000E+00         0.00000E+00        -0.80940E+07
 
   -0.98616E+07         0.45777E+07         0.00000E+00
    0.45777E+07        -0.29857E+08         0.00000E+00
    0.00000E+00         0.00000E+00        -0.79436E+07
 
   -0.89036E+07         0.61739E+07         0.00000E+00
    0.61739E+07        -0.30172E+08         0.00000E+00
    0.00000E+00         0.00000E+00        -0.78151E+07
 
   -0.80565E+07         0.79356E+07         0.00000E+00
    0.79356E+07        -0.30496E+08         0.00000E+00
    0.00000E+00         0.00000E+00        -0.77106E+07
 
   -0.29174E+08        -0.52596E+06         0.00000E+00
   -0.52596E+06        -0.30621E+08         0.00000E+00
    0.00000E+00         0.00000E+00        -0.11959E+08
 
   -0.27467E+08        -0.13503E+07         0.00000E+00
   -0.13503E+07        -0.30689E+08         0.00000E+00
    0.00000E+00         0.00000E+00        -0.11631E+08
 
   -0.25703E+08        -0.18771E+07         0.00000E+00
   -0.18771E+07        -0.30789E+08         0.00000E+00
    0.00000E+00         0.00000E+00        -0.11298E+08
 
   -0.23947E+08        -0.21289E+07         0.00000E+00
   -0.21289E+07        -0.30893E+08         0.00000E+00
    0.00000E+00         0.00000E+00        -0.10968E+08
 
   -0.22242E+08        -0.21363E+07         0.00000E+00
   -0.21363E+07        -0.30990E+08         0.00000E+00
    0.00000E+00         0.00000E+00        -0.10646E+08
 
   -0.20610E+08        -0.19302E+07         0.00000E+00
   -0.19302E+07        -0.31077E+08         0.00000E+00
    0.00000E+00         0.00000E+00        -0.10337E+08
 
   -0.19056E+08        -0.15368E+07         0.00000E+00
   -0.15368E+07        -0.31164E+08         0.00000E+00
    0.00000E+00         0.00000E+00        -0.10044E+08
 
   -0.17574E+08        -0.97466E+06         0.00000E+00
   -0.97466E+06        -0.31264E+08         0.00000E+00
    0.00000E+00         0.00000E+00        -0.97676E+07
 
   -0.16155E+08        -0.25405E+06         0.00000E+00
   -0.25405E+06        -0.31392E+08         0.00000E+00
    0.00000E+00         0.00000E+00        -0.95095E+07
 
   -0.14788E+08         0.62232E+06         0.00000E+00
    0.62232E+06        -0.31563E+08         0.00000E+00
    0.00000E+00         0.00000E+00        -0.92701E+07
 
   -0.13465E+08         0.16584E+07         0.00000E+00
    0.16584E+07        -0.31786E+08         0.00000E+00
    0.00000E+00         0.00000E+00        -0.90502E+07
 
   -0.12189E+08         0.28631E+07         0.00000E+00
    0.28631E+07        -0.32066E+08         0.00000E+00
    0.00000E+00         0.00000E+00        -0.88508E+07
 
   -0.10969E+08         0.42470E+07         0.00000E+00
    0.42470E+07        -0.32399E+08         0.00000E+00
    0.00000E+00         0.00000E+00        -0.86736E+07
 
   -0.98320E+07         0.58188E+07         0.00000E+00
    0.58188E+07        -0.32773E+08         0.00000E+00
    0.00000E+00         0.00000E+00        -0.85209E+07
 
   -0.88140E+07         0.75791E+07         0.00000E+00
    0.75791E+07        -0.33164E+08         0.00000E+00
    0.00000E+00         0.00000E+00        -0.83956E+07
 
   -0.32781E+08        -0.56814E+06         0.00000E+00
   -0.56814E+06        -0.33215E+08         0.00000E+00
    0.00000E+00         0.00000E+00        -0.13199E+08
 
   -0.30748E+08        -0.14396E+07         0.00000E+00
   -0.14396E+07        -0.33281E+08         0.00000E+00
    0.00000E+00         0.00000E+00        -0.12806E+08
 
   -0.28681E+08        -0.19751E+07         0.00000E+00
   -0.19751E+07        -0.33369E+08         0.00000E+00
    0.00000E+00         0.00000E+00        -0.12410E+08
 
   -0.26659E+08        -0.22146E+07         0.00000E+00
   -0.22146E+07        -0.33445E+08         0.00000E+00
    0.00000E+00         0.00000E+00        -0.12021E+08
 
   -0.24727E+08        -0.22055E+07         0.00000E+00
   -0.22055E+07        -0.33499E+08         0.00000E+00
    0.00000E+00         0.00000E+00        -0.11645E+08
 
   -0.22902E+08        -0.19910E+07         0.00000E+00
   -0.19910E+07        -0.33536E+08         0.00000E+00
    0.00000E+00         0.00000E+00        -0.11288E+08
 
   -0.21179E+08        -0.16043E+07         0.00000E+00
   -0.16043E+07        -0.33573E+08         0.00000E+00
    0.00000E+00         0.00000E+00        -0.10950E+08
 
   -0.19544E+08        -0.10667E+07         0.00000E+00
   -0.10667E+07        -0.33627E+08         0.00000E+00
    0.00000E+00         0.00000E+00        -0.10634E+08
 
   -0.17977E+08        -0.38801E+06         0.00000E+00
   -0.38801E+06        -0.33721E+08         0.00000E+00
    0.00000E+00         0.00000E+00        -0.10340E+08
 
   -0.16459E+08         0.43171E+06         0.00000E+00
    0.43171E+06        -0.33873E+08         0.00000E+00
    0.00000E+00         0.00000E+00        -0.10066E+08
 
   -0.14976E+08         0.14015E+07         0.00000E+00
    0.14015E+07        -0.34095E+08         0.00000E+00
    0.00000E+00         0.00000E+00        -0.98143E+07
 
   -0.13524E+08         0.25379E+07         0.00000E+00
    0.25379E+07        -0.34398E+08         0.00000E+00
    0.00000E+00         0.00000E+00        -0.95843E+07
 
   -0.12114E+08         0.38620E+07         0.00000E+00
    0.38620E+07        -0.34777E+08         0.00000E+00
    0.00000E+00         0.00000E+00        -0.93780E+07
 
   -0.10774E+08         0.53944E+07         0.00000E+00
    0.53944E+07        -0.35217E+08         0.00000E+00
    0.00000E+00         0.00000E+00        -0.91981E+07
 
   -0.95541E+07         0.71471E+07         0.00000E+00
    0.71471E+07        -0.35688E+08         0.00000E+00
    0.00000E+00         0.00000E+00        -0.90484E+07
 
   -0.36453E+08        -0.61081E+06         0.00000E+00
   -0.61081E+06        -0.35805E+08         0.00000E+00
    0.00000E+00         0.00000E+00        -0.14452E+08
 
   -0.34042E+08        -0.15187E+07         0.00000E+00
   -0.15187E+07        -0.35863E+08         0.00000E+00
    0.00000E+00         0.00000E+00        -0.13981E+08
 
   -0.31641E+08        -0.20433E+07         0.00000E+00
   -0.20433E+07        -0.35922E+08         0.00000E+00
    0.00000E+00         0.00000E+00        -0.13513E+08
 
   -0.29343E+08        -0.22515E+07         0.00000E+00
   -0.22515E+07        -0.35947E+08         0.00000E+00
    0.00000E+00         0.00000E+00        -0.13058E+08
 
   -0.27190E+08        -0.22137E+07         0.00000E+00
   -0.22137E+07        -0.35931E+08         0.00000E+00
    0.00000E+00         0.00000E+00        -0.12624E+08
 
   -0.25188E+08        -0.19872E+07         0.00000E+00
   -0.19872E+07        -0.35892E+08         0.00000E+00
    0.00000E+00         0.00000E+00        -0.12216E+08
 
   -0.23317E+08        -0.16113E+07         0.00000E+00
   -0.16113E+07        -0.35854E+08         0.00000E+00
    0.00000E+00         0.00000E+00        -0.11834E+08
 
   -0.21549E+08        -0.11081E+07         0.00000E+00
   -0.11081E+07        -0.35843E+08         0.00000E+00
    0.00000E+00         0.00000E+00        -0.11478E+08
 
   -0.19852E+08        -0.48609E+06         0.00000E+00
   -0.48609E+06        -0.35885E+08         0.00000E+00
    0.00000E+00         0.00000E+00        -0.11147E+08
 
   -0.18198E+08         0.25797E+06         0.00000E+00
    0.25797E+06        -0.36003E+08         0.00000E+00
    0.00000E+00         0.00000E+00        -0.10840E+08
 
   -0.16563E+08         0.11383E+07         0.00000E+00
    0.11383E+07        -0.36215E+08         0.00000E+00
    0.00000E+00         0.00000E+00        -0.10555E+08
 
   -0.14934E+08         0.21800E+07         0.00000E+00
    0.21800E+07        -0.36534E+08         0.00000E+00
    0.00000E+00         0.00000E+00        -0.10293E+08
 
   -0.13317E+08         0.34171E+07         0.00000E+00
    0.34171E+07        -0.36960E+08         0.00000E+00
    0.00000E+00         0.00000E+00        -0.10055E+08
 
   -0.11744E+08         0.48878E+07         0.00000E+00
    0.48878E+07        -0.37477E+08         0.00000E+00
    0.00000E+00         0.00000E+00        -0.98442E+07
 
   -0.10280E+08         0.66217E+07         0.00000E+00
    0.66217E+07        -0.38047E+08         0.00000E+00
    0.00000E+00         0.00000E+00        -0.96653E+07
 
   -0.40186E+08        -0.65185E+06         0.00000E+00
   -0.65185E+06        -0.38390E+08         0.00000E+00
    0.00000E+00         0.00000E+00        -0.15715E+08
 
   -0.37329E+08        -0.15745E+07         0.00000E+00
   -0.15745E+07        -0.38432E+08         0.00000E+00
    0.00000E+00         0.00000E+00        -0.15152E+08
 
   -0.34559E+08        -0.20566E+07         0.00000E+00
   -0.20566E+07        -0.38438E+08         0.00000E+00
    0.00000E+00         0.00000E+00        -0.14599E+08
 
   -0.31982E+08        -0.22084E+07         0.00000E+00
   -0.22084E+07        -0.38376E+08         0.00000E+00
    0.00000E+00         0.00000E+00        -0.14072E+08
 
   -0.29626E+08        -0.21302E+07         0.00000E+00
   -0.21302E+07        -0.38256E+08         0.00000E+00
    0.00000E+00         0.00000E+00        -0.13576E+08
 
   -0.27471E+08        -0.18923E+07         0.00000E+00
   -0.18923E+07        -0.38110E+08         0.00000E+00
    0.00000E+00         0.00000E+00        -0.13116E+08
 
   -0.25479E+08        -0.15358E+07         0.00000E+00
   -0.15358E+07        -0.37973E+08         0.00000E+00
    0.00000E+00         0.00000E+00        -0.12690E+08
 
   -0.23603E+08        -0.10810E+07         0.00000E+00
   -0.10810E+07        -0.37878E+08         0.00000E+00
    0.00000E+00         0.00000E+00        -0.12296E+08
 
   -0.21800E+08        -0.53322E+06         0.00000E+00
   -0.53322E+06        -0.37854E+08         0.00000E+00
    0.00000E+00         0.00000E+00        -0.11931E+08
 
   -0.20029E+08         0.11381E+06         0.00000E+00
    0.11381E+06        -0.37925E+08         0.00000E+00
    0.00000E+00         0.00000E+00        -0.11591E+08
 
   -0.18253E+08         0.87828E+06         0.00000E+00
    0.87828E+06        -0.38115E+08         0.00000E+00
    0.00000E+00         0.00000E+00        -0.11274E+08
 
   -0.16449E+08         0.17927E+07         0.00000E+00
    0.17927E+07        -0.38442E+08         0.00000E+00
    0.00000E+00         0.00000E+00        -0.10978E+08
 
   -0.14610E+08         0.29062E+07         0.00000E+00
    0.29062E+07        -0.38916E+08         0.00000E+00
    0.00000E+00         0.00000E+00        -0.10705E+08
 
   -0.12766E+08         0.42812E+07         0.00000E+00
    0.42812E+07        -0.39523E+08         0.00000E+00
    0.00000E+00         0.00000E+00        -0.10458E+08
 
   -0.10997E+08         0.59773E+07         0.00000E+00
    0.59773E+07        -0.40217E+08         0.00000E+00
    0.00000E+00         0.00000E+00        -0.10243E+08
 
   -0.43965E+08        -0.68774E+06         0.00000E+00
   -0.68774E+06        -0.40972E+08         0.00000E+00
    0.00000E+00         0.00000E+00        -0.16987E+08
 
   -0.40571E+08        -0.15841E+07         0.00000E+00
   -0.15841E+07        -0.40977E+08         0.00000E+00
    0.00000E+00         0.00000E+00        -0.16310E+08
 
   -0.37400E+08        -0.19753E+07         0.00000E+00
   -0.19753E+07        -0.40889E+08         0.00000E+00
    0.00000E+00         0.00000E+00        -0.15658E+08
 
   -0.34559E+08        -0.20429E+07         0.00000E+00
   -0.20429E+07        -0.40690E+08         0.00000E+00
    0.00000E+00         0.00000E+00        -0.15050E+08
 
   -0.32033E+08        -0.19203E+07         0.00000E+00
   -0.19203E+07        -0.40424E+08         0.00000E+00
    0.00000E+00         0.00000E+00        -0.14491E+08
 
   -0.29763E+08        -0.16811E+07         0.00000E+00
   -0.16811E+07        -0.40143E+08         0.00000E+00
    0.00000E+00         0.00000E+00        -0.13981E+08
 
   -0.27682E+08        -0.13603E+07         0.00000E+00
   -0.13603E+07        -0.39890E+08         0.00000E+00
    0.00000E+00         0.00000E+00        -0.13514E+08
 
   -0.25726E+08        -0.97194E+06         0.00000E+00
   -0.97194E+06        -0.39699E+08         0.00000E+00
    0.00000E+00         0.00000E+00        -0.13085E+08
 
   -0.23841E+08        -0.51769E+06         0.00000E+00
   -0.51769E+06        -0.39599E+08         0.00000E+00
    0.00000E+00         0.00000E+00        -0.12688E+08
 
   -0.21975E+08         0.10749E+05         0.00000E+00
    0.10749E+05        -0.39614E+08         0.00000E+00
    0.00000E+00         0.00000E+00        -0.12318E+08
 
   -0.20080E+08         0.63268E+06         0.00000E+00
    0.63268E+06        -0.39771E+08         0.00000E+00
    0.00000E+00         0.00000E+00        -0.11970E+08
 
   -0.18111E+08         0.13835E+07         0.00000E+00
    0.13835E+07        -0.40095E+08         0.00000E+00
    0.00000E+00         0.00000E+00        -0.11641E+08
 
   -0.16039E+08         0.23252E+07         0.00000E+00
    0.23252E+07        -0.40611E+08         0.00000E+00
    0.00000E+00         0.00000E+00        -0.11330E+08
 
   -0.13878E+08         0.35525E+07         0.00000E+00
    0.35525E+07        -0.41321E+08         0.00000E+00
    0.00000E+00         0.00000E+00        -0.11040E+08
 
   -0.11718E+08         0.51763E+07         0.00000E+00
    0.51763E+07        -0.42174E+08         0.00000E+00
    0.00000E+00         0.00000E+00        -0.10778E+08
 
   -0.47755E+08        -0.71025E+06         0.00000E+00
   -0.71025E+06        -0.43546E+08         0.00000E+00
    0.00000E+00         0.00000E+00        -0.18260E+08
 
   -0.43703E+08        -0.14994E+07         0.00000E+00
   -0.14994E+07        -0.43473E+08         0.00000E+00
    0.00000E+00         0.00000E+00        -0.17435E+08
 
   -0.40126E+08        -0.17334E+07         0.00000E+00
   -0.17334E+07        -0.43210E+08         0.00000E+00
    0.00000E+00         0.00000E+00        -0.16667E+08
 
   -0.37070E+08        -0.17033E+07         0.00000E+00
   -0.17033E+07        -0.42806E+08         0.00000E+00
    0.00000E+00         0.00000E+00        -0.15975E+08
 
   -0.34428E+08        -0.15535E+07         0.00000E+00
   -0.15535E+07        -0.42358E+08         0.00000E+00
    0.00000E+00         0.00000E+00        -0.15357E+08
 
   -0.32084E+08        -0.13378E+07         0.00000E+00
   -0.13378E+07        -0.41928E+08         0.00000E+00
    0.00000E+00         0.00000E+00        -0.14802E+08
 
   -0.29945E+08        -0.10767E+07         0.00000E+00
   -0.10767E+07        -0.41556E+08         0.00000E+00
    0.00000E+00         0.00000E+00        -0.14300E+08
 
   -0.27937E+08        -0.77628E+06         0.00000E+00
   -0.77628E+06        -0.41270E+08         0.00000E+00
    0.00000E+00         0.00000E+00        -0.13841E+08
 
   -0.25996E+08        -0.43473E+06         0.00000E+00
   -0.43473E+06        -0.41094E+08         0.00000E+00
    0.00000E+00         0.00000E+00        -0.13418E+08
 
   -0.24060E+08        -0.43758E+05         0.00000E+00
   -0.43758E+05        -0.41051E+08         0.00000E+00
    0.00000E+00         0.00000E+00        -0.13022E+08
 
   -0.22071E+08         0.41328E+06         0.00000E+00
    0.41328E+06        -0.41167E+08         0.00000E+00
    0.00000E+00         0.00000E+00        -0.12648E+08
 
   -0.19963E+08         0.96740E+06         0.00000E+00
    0.96740E+06        -0.41474E+08         0.00000E+00
    0.00000E+00         0.00000E+00        -0.12287E+08
 
   -0.17667E+08         0.16791E+07         0.00000E+00
    0.16791E+07        -0.42013E+08         0.00000E+00
    0.00000E+00         0.00000E+00        -0.11936E+08
 
   -0.15142E+08         0.26768E+07         0.00000E+00
    0.26768E+07        -0.42829E+08         0.00000E+00
    0.00000E+00         0.00000E+00        -0.11594E+08
 
   -0.12469E+08         0.41618E+07         0.00000E+00
    0.41618E+07        -0.43888E+08         0.00000E+00
    0.00000E+00         0.00000E+00        -0.11271E+08
 
   -0.51473E+08        -0.69001E+06         0.00000E+00
   -0.69001E+06        -0.46096E+08         0.00000E+00
    0.00000E+00         0.00000E+00        -0.19514E+08
 
   -0.46622E+08        -0.12052E+07         0.00000E+00
   -0.12052E+07        -0.45815E+08         0.00000E+00
    0.00000E+00         0.00000E+00        -0.18487E+08
 
   -0.42718E+08        -0.12379E+07         0.00000E+00
   -0.12379E+07        -0.45240E+08         0.00000E+00
    0.00000E+00         0.00000E+00        -0.17592E+08
 
   -0.39544E+08        -0.11517E+07         0.00000E+00
   -0.11517E+07        -0.44588E+08         0.00000E+00
    0.00000E+00         0.00000E+00        -0.16826E+08
 
   -0.36844E+08        -0.10212E+07         0.00000E+00
   -0.10212E+07        -0.43958E+08         0.00000E+00
    0.00000E+00         0.00000E+00        -0.16160E+08
 
   -0.34463E+08        -0.86665E+06         0.00000E+00
   -0.86665E+06        -0.43392E+08         0.00000E+00
    0.00000E+00         0.00000E+00        -0.15571E+08
 
   -0.32295E+08        -0.69370E+06         0.00000E+00
   -0.69370E+06        -0.42919E+08         0.00000E+00
    0.00000E+00         0.00000E+00        -0.15043E+08
 
   -0.30258E+08        -0.50254E+06         0.00000E+00
   -0.50254E+06        -0.42555E+08         0.00000E+00
    0.00000E+00         0.00000E+00        -0.14562E+08
 
   -0.28282E+08        -0.29015E+06         0.00000E+00
   -0.29015E+06        -0.42318E+08         0.00000E+00
    0.00000E+00         0.00000E+00        -0.14120E+08
 
   -0.26302E+08        -0.50398E+05         0.00000E+00
   -0.50398E+05        -0.42226E+08         0.00000E+00
    0.00000E+00         0.00000E+00        -0.13706E+08
 
   -0.24249E+08         0.22762E+06         0.00000E+00
    0.22762E+06        -0.42304E+08         0.00000E+00
    0.00000E+00         0.00000E+00        -0.13311E+08
 
   -0.22043E+08         0.56408E+06         0.00000E+00
    0.56408E+06        -0.42583E+08         0.00000E+00
    0.00000E+00         0.00000E+00        -0.12925E+08
 
   -0.19574E+08         0.10005E+07         0.00000E+00
    0.10005E+07        -0.43116E+08         0.00000E+00
    0.00000E+00         0.00000E+00        -0.12538E+08
 
   -0.16677E+08         0.16420E+07         0.00000E+00
    0.16420E+07        -0.43989E+08         0.00000E+00
    0.00000E+00         0.00000E+00        -0.12133E+08
 
   -0.13312E+08         0.28372E+07         0.00000E+00
    0.28372E+07        -0.45324E+08         0.00000E+00
    0.00000E+00         0.00000E+00        -0.11727E+08
 
   -0.54878E+08        -0.43402E+06         0.00000E+00
   -0.43402E+06        -0.48393E+08         0.00000E+00
    0.00000E+00         0.00000E+00        -0.20654E+08
 
   -0.49256E+08        -0.49762E+06         0.00000E+00
   -0.49762E+06        -0.47597E+08         0.00000E+00
    0.00000E+00         0.00000E+00        -0.19371E+08
 
   -0.45254E+08        -0.45715E+06         0.00000E+00
   -0.45715E+06        -0.46705E+08         0.00000E+00
    0.00000E+00         0.00000E+00        -0.18392E+08
 
   -0.42043E+08        -0.41009E+06         0.00000E+00
   -0.41009E+06        -0.45866E+08         0.00000E+00
    0.00000E+00         0.00000E+00        -0.17582E+08
 
   -0.39326E+08        -0.35732E+06         0.00000E+00
   -0.35732E+06        -0.45115E+08         0.00000E+00
    0.00000E+00         0.00000E+00        -0.16888E+08
 
   -0.36933E+08        -0.30061E+06         0.00000E+00
   -0.30061E+06        -0.44469E+08         0.00000E+00
    0.00000E+00         0.00000E+00        -0.16280E+08
 
   -0.34754E+08        -0.23979E+06         0.00000E+00
   -0.23979E+06        -0.43936E+08         0.00000E+00
    0.00000E+00         0.00000E+00        -0.15738E+08
 
   -0.32703E+08        -0.17405E+06         0.00000E+00
   -0.17405E+06        -0.43528E+08         0.00000E+00
    0.00000E+00         0.00000E+00        -0.15246E+08
 
   -0.30712E+08        -0.10195E+06         0.00000E+00
   -0.10195E+06        -0.43256E+08         0.00000E+00
    0.00000E+00         0.00000E+00        -0.14794E+08
 
   -0.28710E+08        -0.21221E+05         0.00000E+00
   -0.21221E+05        -0.43136E+08         0.00000E+00
    0.00000E+00         0.00000E+00        -0.14369E+08
 
   -0.26627E+08         0.71869E+05         0.00000E+00
    0.71869E+05        -0.43189E+08         0.00000E+00
    0.00000E+00         0.00000E+00        -0.13963E+08
 
   -0.24370E+08         0.18403E+06         0.00000E+00
    0.18403E+06        -0.43447E+08         0.00000E+00
    0.00000E+00         0.00000E+00        -0.13563E+08
 
   -0.21808E+08         0.32984E+06         0.00000E+00
    0.32984E+06        -0.43962E+08         0.00000E+00
    0.00000E+00         0.00000E+00        -0.13154E+08
 
   -0.18707E+08         0.54248E+06         0.00000E+00
    0.54248E+06        -0.44834E+08         0.00000E+00
    0.00000E+00         0.00000E+00        -0.12708E+08
 
   -0.14406E+08         0.10409E+07         0.00000E+00
    0.10409E+07        -0.46344E+08         0.00000E+00
    0.00000E+00         0.00000E+00        -0.12150E+08
 
TENSORS stresstot double 
   -0.45487E+08         0.27551E+06         0.00000E+00
    0.27551E+06        -0.58794E+08         0.00000E+00
    0.00000E+00         0.00000E+00        -0.61772E+08
 
   -0.45353E+08         0.25065E+05         0.00000E+00
    0.25065E+05        -0.58820E+08         0.00000E+00
    0.00000E+00         0.00000E+00        -0.64615E+08
 
   -0.46932E+08        -0.34887E+06         0.00000E+00
   -0.34887E+06        -0.59358E+08         0.00000E+00
    0.00000E+00         0.00000E+00        -0.68330E+08
 
   -0.49147E+08        -0.42339E+06         0.00000E+00
   -0.42339E+06        -0.60327E+08         0.00000E+00
    0.00000E+00         0.00000E+00        -0.72173E+08
 
   -0.51652E+08        -0.63162E+06         0.00000E+00
   -0.63162E+06        -0.61418E+08         0.00000E+00
    0.00000E+00         0.00000E+00        -0.75373E+08
 
   -0.55135E+08        -0.63712E+06         0.00000E+00
   -0.63712E+06        -0.62594E+08         0.00000E+00
    0.00000E+00         0.00000E+00        -0.76716E+08
 
   -0.57863E+08        -0.46867E+06         0.00000E+00
   -0.46867E+06        -0.63612E+08         0.00000E+00
    0.00000E+00         0.00000E+00        -0.77465E+08
 
   -0.60169E+08        -0.33448E+06         0.00000E+00
   -0.33448E+06        -0.64378E+08         0.00000E+00
    0.00000E+00         0.00000E+00        -0.78080E+08
 
   -0.62304E+08        -0.21759E+06         0.00000E+00
   -0.21759E+06        -0.64910E+08         0.00000E+00
    0.00000E+00         0.00000E+00        -0.78613E+08
 
   -0.64396E+08        -0.10558E+06         0.00000E+00
   -0.10558E+06        -0.65222E+08         0.00000E+00
    0.00000E+00         0.00000E+00        -0.79093E+08
 
   -0.66545E+08         0.11178E+05         0.00000E+00
    0.11178E+05        -0.65309E+08         0.00000E+00
    0.00000E+00         0.00000E+00        -0.79541E+08
 
   -0.68859E+08         0.14283E+06         0.00000E+00
    0.14283E+06        -0.65150E+08         0.00000E+00
    0.00000E+00         0.00000E+00        -0.79972E+08
 
   -0.71483E+08         0.30659E+06         0.00000E+00
    0.30659E+06        -0.64698E+08         0.00000E+00
    0.00000E+00         0.00000E+00        -0.80406E+08
 
   -0.74666E+08         0.53874E+06         0.00000E+00
    0.53874E+06        -0.63851E+08         0.00000E+00
    0.00000E+00         0.00000E+00        -0.80873E+08
 
   -0.79115E+08         0.10743E+07         0.00000E+00
    0.10743E+07        -0.62317E+08         0.00000E+00
    0.00000E+00         0.00000E+00        -0.81456E+08
 
   -0.45150E+08         0.41565E+06         0.00000E+00
    0.41565E+06        -0.60802E+08         0.00000E+00
    0.00000E+00         0.00000E+00        -0.66860E+08
 
   -0.45909E+08         0.62467E+05         0.00000E+00
    0.62467E+05        -0.60862E+08         0.00000E+00
    0.00000E+00         0.00000E+00        -0.69193E+08
 
   -0.47324E+08        -0.63240E+06         0.00000E+00
   -0.63240E+06        -0.60789E+08         0.00000E+00
    0.00000E+00         0.00000E+00        -0.71760E+08
 
   -0.49291E+08        -0.11181E+07         0.00000E+00
   -0.11181E+07        -0.60829E+08         0.00000E+00
    0.00000E+00         0.00000E+00        -0.73508E+08
 
   -0.52077E+08        -0.14629E+07         0.00000E+00
   -0.14629E+07        -0.61219E+08         0.00000E+00
    0.00000E+00         0.00000E+00        -0.74171E+08
 
   -0.54935E+08        -0.15164E+07         0.00000E+00
   -0.15164E+07        -0.61754E+08         0.00000E+00
    0.00000E+00         0.00000E+00        -0.74849E+08
 
   -0.57623E+08        -0.12333E+07         0.00000E+00
   -0.12333E+07        -0.62357E+08         0.00000E+00
    0.00000E+00         0.00000E+00        -0.75507E+08
 
   -0.59946E+08        -0.91287E+06         0.00000E+00
   -0.91287E+06        -0.62899E+08         0.00000E+00
    0.00000E+00         0.00000E+00        -0.76080E+08
 
   -0.62089E+08        -0.59921E+06         0.00000E+00
   -0.59921E+06        -0.63302E+08         0.00000E+00
    0.00000E+00         0.00000E+00        -0.76589E+08
 
   -0.64175E+08        -0.28140E+06         0.00000E+00
   -0.28140E+06        -0.63531E+08         0.00000E+00
    0.00000E+00         0.00000E+00        -0.77052E+08
 
   -0.66302E+08         0.59227E+05         0.00000E+00
    0.59227E+05        -0.63561E+08         0.00000E+00
    0.00000E+00         0.00000E+00        -0.77483E+08
 
   -0.68571E+08         0.44942E+06         0.00000E+00
    0.44942E+06        -0.63360E+08         0.00000E+00
    0.00000E+00         0.00000E+00        -0.77896E+08
 
   -0.71102E+08         0.93670E+06         0.00000E+00
    0.93670E+06        -0.62876E+08         0.00000E+00
    0.00000E+00         0.00000E+00        -0.78306E+08
 
   -0.74074E+08         0.16352E+07         0.00000E+00
    0.16352E+07        -0.62021E+08         0.00000E+00
    0.00000E+00         0.00000E+00        -0.78729E+08
 
   -0.77524E+08         0.29188E+07         0.00000E+00
    0.29188E+07        -0.60669E+08         0.00000E+00
    0.00000E+00         0.00000E+00        -0.79148E+08
 
   -0.44915E+08        -0.12397E+05         0.00000E+00
   -0.12397E+05        -0.60470E+08         0.00000E+00
    0.00000E+00         0.00000E+00        -0.69764E+08
 
   -0.46358E+08        -0.18615E+06         0.00000E+00
   -0.18615E+06        -0.60661E+08         0.00000E+00
    0.00000E+00         0.00000E+00        -0.71259E+08
 
   -0.48014E+08        -0.72508E+06         0.00000E+00
   -0.72508E+06        -0.60795E+08         0.00000E+00
    0.00000E+00         0.00000E+00        -0.71616E+08
 
   -0.49888E+08        -0.13997E+07         0.00000E+00
   -0.13997E+07        -0.60952E+08         0.00000E+00
    0.00000E+00         0.00000E+00        -0.72022E+08
 
   -0.52286E+08        -0.17931E+07         0.00000E+00
   -0.17931E+07        -0.61155E+08         0.00000E+00
    0.00000E+00         0.00000E+00        -0.72542E+08
 
   -0.54833E+08        -0.18669E+07         0.00000E+00
   -0.18669E+07        -0.61362E+08         0.00000E+00
    0.00000E+00         0.00000E+00        -0.73092E+08
 
   -0.57301E+08        -0.16559E+07         0.00000E+00
   -0.16559E+07        -0.61603E+08         0.00000E+00
    0.00000E+00         0.00000E+00        -0.73633E+08
 
   -0.59580E+08        -0.12837E+07         0.00000E+00
   -0.12837E+07        -0.61874E+08         0.00000E+00
    0.00000E+00         0.00000E+00        -0.74143E+08
 
   -0.61701E+08        -0.84762E+06         0.00000E+00
   -0.84762E+06        -0.62092E+08         0.00000E+00
    0.00000E+00         0.00000E+00        -0.74611E+08
 
   -0.63757E+08        -0.36658E+06         0.00000E+00
   -0.36658E+06        -0.62193E+08         0.00000E+00
    0.00000E+00         0.00000E+00        -0.75042E+08
 
   -0.65832E+08         0.17202E+06         0.00000E+00
    0.17202E+06        -0.62134E+08         0.00000E+00
    0.00000E+00         0.00000E+00        -0.75445E+08
 
   -0.68007E+08         0.80185E+06         0.00000E+00
    0.80185E+06        -0.61872E+08         0.00000E+00
    0.00000E+00         0.00000E+00        -0.75827E+08
 
   -0.70363E+08         0.15889E+07         0.00000E+00
    0.15889E+07        -0.61362E+08         0.00000E+00
    0.00000E+00         0.00000E+00        -0.76196E+08
 
   -0.72946E+08         0.26713E+07         0.00000E+00
    0.26713E+07        -0.60555E+08         0.00000E+00
    0.00000E+00         0.00000E+00        -0.76551E+08
 
   -0.75667E+08         0.42635E+07         0.00000E+00
    0.42635E+07        -0.59489E+08         0.00000E+00
    0.00000E+00         0.00000E+00        -0.76882E+08
 
   -0.45027E+08        -0.17530E+06         0.00000E+00
   -0.17530E+06        -0.60061E+08         0.00000E+00
    0.00000E+00         0.00000E+00        -0.69215E+08
 
   -0.46858E+08        -0.57026E+06         0.00000E+00
   -0.57026E+06        -0.60250E+08         0.00000E+00
    0.00000E+00         0.00000E+00        -0.69619E+08
 
   -0.48578E+08        -0.10252E+07         0.00000E+00
   -0.10252E+07        -0.60591E+08         0.00000E+00
    0.00000E+00         0.00000E+00        -0.70031E+08
 
   -0.50414E+08        -0.15459E+07         0.00000E+00
   -0.15459E+07        -0.60821E+08         0.00000E+00
    0.00000E+00         0.00000E+00        -0.70443E+08
 
   -0.52516E+08        -0.19106E+07         0.00000E+00
   -0.19106E+07        -0.60921E+08         0.00000E+00
    0.00000E+00         0.00000E+00        -0.70883E+08
 
   -0.54768E+08        -0.19937E+07         0.00000E+00
   -0.19937E+07        -0.60987E+08         0.00000E+00
    0.00000E+00         0.00000E+00        -0.71347E+08
 
   -0.57007E+08        -0.18164E+07         0.00000E+00
   -0.18164E+07        -0.61058E+08         0.00000E+00
    0.00000E+00         0.00000E+00        -0.71808E+08
 
   -0.59151E+08        -0.14439E+07         0.00000E+00
   -0.14439E+07        -0.61136E+08         0.00000E+00
    0.00000E+00         0.00000E+00        -0.72252E+08
 
   -0.61194E+08        -0.94104E+06         0.00000E+00
   -0.94104E+06        -0.61187E+08         0.00000E+00
    0.00000E+00         0.00000E+00        -0.72671E+08
 
   -0.63178E+08        -0.34030E+06         0.00000E+00
   -0.34030E+06        -0.61160E+08         0.00000E+00
    0.00000E+00         0.00000E+00        -0.73062E+08
 
   -0.65161E+08         0.36137E+06         0.00000E+00
    0.36137E+06        -0.61010E+08         0.00000E+00
    0.00000E+00         0.00000E+00        -0.73429E+08
 
   -0.67197E+08         0.11951E+07         0.00000E+00
    0.11951E+07        -0.60696E+08         0.00000E+00
    0.00000E+00         0.00000E+00        -0.73773E+08
 
   -0.69323E+08         0.22244E+07         0.00000E+00
    0.22244E+07        -0.60187E+08         0.00000E+00
    0.00000E+00         0.00000E+00        -0.74096E+08
 
   -0.71529E+08         0.35490E+07         0.00000E+00
    0.35490E+07        -0.59479E+08         0.00000E+00
    0.00000E+00         0.00000E+00        -0.74396E+08
 
   -0.73715E+08         0.52847E+07         0.00000E+00
    0.52847E+07        -0.58622E+08         0.00000E+00
    0.00000E+00         0.00000E+00        -0.74661E+08
 
   -0.45489E+08        -0.28939E+06         0.00000E+00
   -0.28939E+06        -0.60042E+08         0.00000E+00
    0.00000E+00         0.00000E+00        -0.67648E+08
 
   -0.47321E+08        -0.80821E+06         0.00000E+00
   -0.80821E+06        -0.60193E+08         0.00000E+00
    0.00000E+00         0.00000E+00        -0.68044E+08
 
   -0.49048E+08        -0.12797E+07         0.00000E+00
   -0.12797E+07        -0.60385E+08         0.00000E+00
    0.00000E+00         0.00000E+00        -0.68428E+08
 
   -0.50823E+08        -0.16870E+07         0.00000E+00
   -0.16870E+07        -0.60546E+08         0.00000E+00
    0.00000E+00         0.00000E+00        -0.68815E+08
 
   -0.52717E+08        -0.19582E+07         0.00000E+00
   -0.19582E+07        -0.60621E+08         0.00000E+00
    0.00000E+00         0.00000E+00        -0.69208E+08
 
   -0.54710E+08        -0.20131E+07         0.00000E+00
   -0.20131E+07        -0.60629E+08         0.00000E+00
    0.00000E+00         0.00000E+00        -0.69608E+08
 
   -0.56723E+08        -0.18342E+07         0.00000E+00
   -0.18342E+07        -0.60609E+08         0.00000E+00
    0.00000E+00         0.00000E+00        -0.70007E+08
 
   -0.58695E+08        -0.14516E+07         0.00000E+00
   -0.14516E+07        -0.60573E+08         0.00000E+00
    0.00000E+00         0.00000E+00        -0.70394E+08
 
   -0.60607E+08        -0.90338E+06         0.00000E+00
   -0.90338E+06        -0.60507E+08         0.00000E+00
    0.00000E+00         0.00000E+00        -0.70763E+08
 
   -0.62474E+08        -0.21415E+06         0.00000E+00
   -0.21415E+06        -0.60381E+08         0.00000E+00
    0.00000E+00         0.00000E+00        -0.71111E+08
 
   -0.64326E+08         0.61486E+06         0.00000E+00
    0.61486E+06        -0.60161E+08         0.00000E+00
    0.00000E+00         0.00000E+00        -0.71437E+08
 
   -0.66190E+08         0.16070E+07         0.00000E+00
    0.16070E+07        -0.59817E+08         0.00000E+00
    0.00000E+00         0.00000E+00        -0.71741E+08
 
   -0.68075E+08         0.28086E+07         0.00000E+00
    0.28086E+07        -0.59333E+08         0.00000E+00
    0.00000E+00         0.00000E+00        -0.72021E+08
 
   -0.69951E+08         0.42822E+07         0.00000E+00
    0.42822E+07        -0.58718E+08         0.00000E+00
    0.00000E+00         0.00000E+00        -0.72274E+08
 
   -0.71735E+08         0.60875E+07         0.00000E+00
    0.60875E+07        -0.58022E+08         0.00000E+00
    0.00000E+00         0.00000E+00        -0.72491E+08
 
   -0.46110E+08        -0.36332E+06         0.00000E+00
   -0.36332E+06        -0.60024E+08         0.00000E+00
    0.00000E+00         0.00000E+00        -0.66115E+08
 
   -0.47831E+08        -0.95870E+06         0.00000E+00
   -0.95870E+06        -0.60109E+08         0.00000E+00
    0.00000E+00         0.00000E+00        -0.66477E+08
 
   -0.49477E+08        -0.14284E+07         0.00000E+00
   -0.14284E+07        -0.60222E+08         0.00000E+00
    0.00000E+00         0.00000E+00        -0.66828E+08
 
   -0.51135E+08        -0.17779E+07         0.00000E+00
   -0.17779E+07        -0.60308E+08         0.00000E+00
    0.00000E+00         0.00000E+00        -0.67177E+08
 
   -0.52854E+08        -0.19740E+07         0.00000E+00
   -0.19740E+07        -0.60339E+08         0.00000E+00
    0.00000E+00         0.00000E+00        -0.67527E+08
 
   -0.54629E+08        -0.19784E+07         0.00000E+00
   -0.19784E+07        -0.60311E+08         0.00000E+00
    0.00000E+00         0.00000E+00        -0.67876E+08
 
   -0.56426E+08        -0.17730E+07         0.00000E+00
   -0.17730E+07        -0.60241E+08         0.00000E+00
    0.00000E+00         0.00000E+00        -0.68222E+08
 
   -0.58209E+08        -0.13655E+07         0.00000E+00
   -0.13655E+07        -0.60139E+08         0.00000E+00
    0.00000E+00         0.00000E+00        -0.68558E+08
 
   -0.59959E+08        -0.77524E+06         0.00000E+00
   -0.77524E+06        -0.60002E+08         0.00000E+00
    0.00000E+00         0.00000E+00        -0.68881E+08
 
   -0.61674E+08        -0.16813E+05         0.00000E+00
   -0.16813E+05        -0.59813E+08         0.00000E+00
    0.00000E+00         0.00000E+00        -0.69186E+08
 
   -0.63365E+08         0.90850E+06         0.00000E+00
    0.90850E+06        -0.59550E+08         0.00000E+00
    0.00000E+00         0.00000E+00        -0.69472E+08
 
   -0.65040E+08         0.20156E+07         0.00000E+00
    0.20156E+07        -0.59198E+08         0.00000E+00
    0.00000E+00         0.00000E+00        -0.69736E+08
 
   -0.66691E+08         0.33332E+07         0.00000E+00
    0.33332E+07        -0.58750E+08         0.00000E+00
    0.00000E+00         0.00000E+00        -0.69977E+08
 
   -0.68285E+08         0.48964E+07         0.00000E+00
    0.48964E+07        -0.58220E+08         0.00000E+00
    0.00000E+00         0.00000E+00        -0.70190E+08
 
   -0.69755E+08         0.67322E+07         0.00000E+00
    0.67322E+07        -0.57646E+08         0.00000E+00
    0.00000E+00         0.00000E+00        -0.70369E+08
 
   -0.46824E+08        -0.39978E+06         0.00000E+00
   -0.39978E+06        -0.60010E+08         0.00000E+00
    0.00000E+00         0.00000E+00        -0.64606E+08
 
   -0.48369E+08        -0.10381E+07         0.00000E+00
   -0.10381E+07        -0.60048E+08         0.00000E+00
    0.00000E+00         0.00000E+00        -0.64923E+08
 
   -0.49876E+08        -0.15038E+07         0.00000E+00
   -0.15038E+07        -0.60097E+08         0.00000E+00
    0.00000E+00         0.00000E+00        -0.65234E+08
 
   -0.51388E+08        -0.18131E+07         0.00000E+00
   -0.18131E+07        -0.60126E+08         0.00000E+00
    0.00000E+00         0.00000E+00        -0.65542E+08
 
   -0.52931E+08        -0.19550E+07         0.00000E+00
   -0.19550E+07        -0.60114E+08         0.00000E+00
    0.00000E+00         0.00000E+00        -0.65849E+08
 
   -0.54507E+08        -0.19104E+07         0.00000E+00
   -0.19104E+07        -0.60056E+08         0.00000E+00
    0.00000E+00         0.00000E+00        -0.66153E+08
 
   -0.56101E+08        -0.16674E+07         0.00000E+00
   -0.16674E+07        -0.59955E+08         0.00000E+00
    0.00000E+00         0.00000E+00        -0.66451E+08
 
   -0.57690E+08        -0.12260E+07         0.00000E+00
   -0.12260E+07        -0.59817E+08         0.00000E+00
    0.00000E+00         0.00000E+00        -0.66742E+08
 
   -0.59259E+08        -0.59424E+06         0.00000E+00
   -0.59424E+06        -0.59641E+08         0.00000E+00
    0.00000E+00         0.00000E+00        -0.67021E+08
 
   -0.60800E+08         0.22059E+06         0.00000E+00
    0.22059E+06        -0.59420E+08         0.00000E+00
    0.00000E+00         0.00000E+00        -0.67285E+08
 
   -0.62312E+08         0.12176E+07         0.00000E+00
    0.12176E+07        -0.59142E+08         0.00000E+00
    0.00000E+00         0.00000E+00        -0.67532E+08
 
   -0.63791E+08         0.24051E+07         0.00000E+00
    0.24051E+07        -0.58800E+08         0.00000E+00
    0.00000E+00         0.00000E+00        -0.67759E+08
 
   -0.65221E+08         0.37980E+07         0.00000E+00
    0.37980E+07        -0.58394E+08         0.00000E+00
    0.00000E+00         0.00000E+00        -0.67964E+08
 
   -0.66570E+08         0.54128E+07         0.00000E+00
    0.54128E+07        -0.57938E+08         0.00000E+00
    0.00000E+00         0.00000E+00        -0.68143E+08
 
   -0.67789E+08         0.72575E+07         0.00000E+00
    0.72575E+07        -0.57462E+08         0.00000E+00
    0.00000E+00         0.00000E+00        -0.68292E+08
 
   -0.47580E+08        -0.41140E+06         0.00000E+00
   -0.41140E+06        -0.60001E+08         0.00000E+00
    0.00000E+00         0.00000E+00        -0.63110E+08
 
   -0.48920E+08        -0.10653E+07         0.00000E+00
   -0.10653E+07        -0.60007E+08         0.00000E+00
    0.00000E+00         0.00000E+00        -0.63380E+08
 
   -0.50254E+08        -0.15237E+07         0.00000E+00
   -0.15237E+07        -0.60011E+08         0.00000E+00
    0.00000E+00         0.00000E+00        -0.63648E+08
 
   -0.51597E+08        -0.18038E+07         0.00000E+00
   -0.18038E+07        -0.59997E+08         0.00000E+00
    0.00000E+00         0.00000E+00        -0.63914E+08
 
   -0.52960E+08        -0.19049E+07         0.00000E+00
   -0.19049E+07        -0.59952E+08         0.00000E+00
    0.00000E+00         0.00000E+00        -0.64178E+08
 
   -0.54344E+08        -0.18184E+07         0.00000E+00
   -0.18184E+07        -0.59871E+08         0.00000E+00
    0.00000E+00         0.00000E+00        -0.64439E+08
 
   -0.55740E+08        -0.15373E+07         0.00000E+00
   -0.15373E+07        -0.59752E+08         0.00000E+00
    0.00000E+00         0.00000E+00        -0.64695E+08
 
   -0.57134E+08        -0.10599E+07         0.00000E+00
   -0.10599E+07        -0.59597E+08         0.00000E+00
    0.00000E+00         0.00000E+00        -0.64943E+08
 
   -0.58513E+08        -0.38893E+06         0.00000E+00
   -0.38893E+06        -0.59406E+08         0.00000E+00
    0.00000E+00         0.00000E+00        -0.65181E+08
 
   -0.59869E+08         0.47206E+06         0.00000E+00
    0.47206E+06        -0.59176E+08         0.00000E+00
    0.00000E+00         0.00000E+00        -0.65407E+08
 
   -0.61194E+08         0.15222E+07         0.00000E+00
    0.15222E+07        -0.58902E+08         0.00000E+00
    0.00000E+00         0.00000E+00        -0.65617E+08
 
   -0.62476E+08         0.27645E+07         0.00000E+00
    0.27645E+07        -0.58583E+08         0.00000E+00
    0.00000E+00         0.00000E+00        -0.65810E+08
 
   -0.63698E+08         0.42048E+07         0.00000E+00
    0.42048E+07        -0.58223E+08         0.00000E+00
    0.00000E+00         0.00000E+00        -0.65983E+08
 
   -0.64833E+08         0.58471E+07         0.00000E+00
    0.58471E+07        -0.57834E+08         0.00000E+00
    0.00000E+00         0.00000E+00        -0.66133E+08
 
   -0.65842E+08         0.76885E+07         0.00000E+00
    0.76885E+07        -0.57439E+08         0.00000E+00
    0.00000E+00         0.00000E+00        -0.66255E+08
 
   -0.48343E+08        -0.40791E+06         0.00000E+00
   -0.40791E+06        -0.59996E+08         0.00000E+00
    0.00000E+00         0.00000E+00        -0.61622E+08
 
   -0.49469E+08        -0.10581E+07         0.00000E+00
   -0.10581E+07        -0.59983E+08         0.00000E+00
    0.00000E+00         0.00000E+00        -0.61845E+08
 
   -0.50614E+08        -0.15052E+07         0.00000E+00
   -0.15052E+07        -0.59957E+08         0.00000E+00
    0.00000E+00         0.00000E+00        -0.62069E+08
 
   -0.51774E+08        -0.17624E+07         0.00000E+00
   -0.17624E+07        -0.59915E+08         0.00000E+00
    0.00000E+00         0.00000E+00        -0.62294E+08
 
   -0.52952E+08        -0.18321E+07         0.00000E+00
   -0.18321E+07        -0.59849E+08         0.00000E+00
    0.00000E+00         0.00000E+00        -0.62517E+08
 
   -0.54143E+08        -0.17113E+07         0.00000E+00
   -0.17113E+07        -0.59754E+08         0.00000E+00
    0.00000E+00         0.00000E+00        -0.62736E+08
 
   -0.55343E+08        -0.13962E+07         0.00000E+00
   -0.13962E+07        -0.59627E+08         0.00000E+00
    0.00000E+00         0.00000E+00        -0.62952E+08
 
   -0.56542E+08        -0.88534E+06         0.00000E+00
   -0.88534E+06        -0.59469E+08         0.00000E+00
    0.00000E+00         0.00000E+00        -0.63161E+08
 
   -0.57729E+08        -0.17977E+06         0.00000E+00
   -0.17977E+06        -0.59279E+08         0.00000E+00
    0.00000E+00         0.00000E+00        -0.63361E+08
 
   -0.58894E+08         0.71838E+06         0.00000E+00
    0.71838E+06        -0.59058E+08         0.00000E+00
    0.00000E+00         0.00000E+00        -0.63550E+08
 
   -0.60028E+08         0.18074E+07         0.00000E+00
    0.18074E+07        -0.58803E+08         0.00000E+00
    0.00000E+00         0.00000E+00        -0.63726E+08
 
   -0.61118E+08         0.30866E+07         0.00000E+00
    0.30866E+07        -0.58516E+08         0.00000E+00
    0.00000E+00         0.00000E+00        -0.63887E+08
 
   -0.62146E+08         0.45554E+07         0.00000E+00
    0.45554E+07        -0.58203E+08         0.00000E+00
    0.00000E+00         0.00000E+00        -0.64031E+08
 
   -0.63089E+08         0.62103E+07         0.00000E+00
    0.62103E+07        -0.57876E+08         0.00000E+00
    0.00000E+00         0.00000E+00        -0.64154E+08
 
   -0.63918E+08         0.80418E+07         0.00000E+00
    0.80418E+07        -0.57550E+08         0.00000E+00
    0.00000E+00         0.00000E+00        -0.64255E+08
 
   -0.49094E+08        -0.39621E+06         0.00000E+00
   -0.39621E+06        -0.59994E+08         0.00000E+00
    0.00000E+00         0.00000E+00        -0.60138E+08
 
   -0.50009E+08        -0.10311E+07         0.00000E+00
   -0.10311E+07        -0.59970E+08         0.00000E+00
    0.00000E+00         0.00000E+00        -0.60316E+08
 
   -0.50957E+08        -0.14638E+07         0.00000E+00
   -0.14638E+07        -0.59930E+08         0.00000E+00
    0.00000E+00         0.00000E+00        -0.60499E+08
 
   -0.51927E+08        -0.17017E+07         0.00000E+00
   -0.17017E+07        -0.59873E+08         0.00000E+00
    0.00000E+00         0.00000E+00        -0.60682E+08
 
   -0.52913E+08        -0.17470E+07         0.00000E+00
   -0.17470E+07        -0.59797E+08         0.00000E+00
    0.00000E+00         0.00000E+00        -0.60865E+08
 
   -0.53912E+08        -0.15987E+07         0.00000E+00
   -0.15987E+07        -0.59697E+08         0.00000E+00
    0.00000E+00         0.00000E+00        -0.61045E+08
 
   -0.54916E+08        -0.12552E+07         0.00000E+00
   -0.12552E+07        -0.59572E+08         0.00000E+00
    0.00000E+00         0.00000E+00        -0.61222E+08
 
   -0.55919E+08        -0.71572E+06         0.00000E+00
   -0.71572E+06        -0.59422E+08         0.00000E+00
    0.00000E+00         0.00000E+00        -0.61393E+08
 
   -0.56912E+08         0.18747E+05         0.00000E+00
    0.18747E+05        -0.59246E+08         0.00000E+00
    0.00000E+00         0.00000E+00        -0.61558E+08
 
   -0.57886E+08         0.94600E+06         0.00000E+00
    0.94600E+06        -0.59044E+08         0.00000E+00
    0.00000E+00         0.00000E+00        -0.61713E+08
 
   -0.58830E+08         0.20632E+07         0.00000E+00
    0.20632E+07        -0.58817E+08         0.00000E+00
    0.00000E+00         0.00000E+00        -0.61857E+08
 
   -0.59733E+08         0.33667E+07         0.00000E+00
    0.33667E+07        -0.58569E+08         0.00000E+00
    0.00000E+00         0.00000E+00        -0.61988E+08
 
   -0.60578E+08         0.48517E+07         0.00000E+00
    0.48517E+07        -0.58305E+08         0.00000E+00
    0.00000E+00         0.00000E+00        -0.62105E+08
 
   -0.61346E+08         0.65100E+07         0.00000E+00
    0.65100E+07        -0.58035E+08         0.00000E+00
    0.00000E+00         0.00000E+00        -0.62205E+08
 
   -0.62015E+08         0.83287E+07         0.00000E+00
    0.83287E+07        -0.57771E+08         0.00000E+00
    0.00000E+00         0.00000E+00        -0.62286E+08
 
   -0.49821E+08        -0.38113E+06         0.00000E+00
   -0.38113E+06        -0.59993E+08         0.00000E+00
    0.00000E+00         0.00000E+00        -0.58655E+08
 
   -0.50533E+08        -0.99531E+06         0.00000E+00
   -0.99531E+06        -0.59967E+08         0.00000E+00
    0.00000E+00         0.00000E+00        -0.58792E+08
 
   -0.51284E+08        -0.14122E+07         0.00000E+00
   -0.14122E+07        -0.59922E+08         0.00000E+00
    0.00000E+00         0.00000E+00        -0.58934E+08
 
   -0.52059E+08        -0.16336E+07         0.00000E+00
   -0.16336E+07        -0.59862E+08         0.00000E+00
    0.00000E+00         0.00000E+00        -0.59078E+08
 
   -0.52852E+08        -0.16597E+07         0.00000E+00
   -0.16597E+07        -0.59786E+08         0.00000E+00
    0.00000E+00         0.00000E+00        -0.59222E+08
 
   -0.53655E+08        -0.14900E+07         0.00000E+00
   -0.14900E+07        -0.59691E+08         0.00000E+00
    0.00000E+00         0.00000E+00        -0.59365E+08
 
   -0.54463E+08        -0.11238E+07         0.00000E+00
   -0.11238E+07        -0.59578E+08         0.00000E+00
    0.00000E+00         0.00000E+00        -0.59505E+08
 
   -0.55270E+08        -0.56118E+06         0.00000E+00
   -0.56118E+06        -0.59444E+08         0.00000E+00
    0.00000E+00         0.00000E+00        -0.59641E+08
 
   -0.56069E+08         0.19627E+06         0.00000E+00
    0.19627E+06        -0.59290E+08         0.00000E+00
    0.00000E+00         0.00000E+00        -0.59771E+08
 
   -0.56853E+08         0.11456E+07         0.00000E+00
    0.11456E+07        -0.59117E+08         0.00000E+00
    0.00000E+00         0.00000E+00        -0.59894E+08
 
   -0.57610E+08         0.22827E+07         0.00000E+00
    0.22827E+07        -0.58925E+08         0.00000E+00
    0.00000E+00         0.00000E+00        -0.60007E+08
 
   -0.58331E+08         0.36018E+07         0.00000E+00
    0.36018E+07        -0.58719E+08         0.00000E+00
    0.00000E+00         0.00000E+00        -0.60111E+08
 
   -0.59003E+08         0.50951E+07         0.00000E+00
    0.50951E+07        -0.58504E+08         0.00000E+00
    0.00000E+00         0.00000E+00        -0.60203E+08
 
   -0.59609E+08         0.67518E+07         0.00000E+00
    0.67518E+07        -0.58288E+08         0.00000E+00
    0.00000E+00         0.00000E+00        -0.60281E+08
 
   -0.60133E+08         0.85567E+07         0.00000E+00
    0.85567E+07        -0.58080E+08         0.00000E+00
    0.00000E+00         0.00000E+00        -0.60345E+08
 
   -0.50521E+08        -0.36605E+06         0.00000E+00
   -0.36605E+06        -0.59994E+08         0.00000E+00
    0.00000E+00         0.00000E+00        -0.57173E+08
 
   -0.51039E+08        -0.95911E+06         0.00000E+00
   -0.95911E+06        -0.59969E+08         0.00000E+00
    0.00000E+00         0.00000E+00        -0.57273E+08
 
   -0.51596E+08        -0.13610E+07         0.00000E+00
   -0.13610E+07        -0.59928E+08         0.00000E+00
    0.00000E+00         0.00000E+00        -0.57376E+08
 
   -0.52176E+08        -0.15686E+07         0.00000E+00
   -0.15686E+07        -0.59874E+08         0.00000E+00
    0.00000E+00         0.00000E+00        -0.57483E+08
 
   -0.52772E+08        -0.15799E+07         0.00000E+00
   -0.15799E+07        -0.59808E+08         0.00000E+00
    0.00000E+00         0.00000E+00        -0.57589E+08
 
   -0.53378E+08        -0.13939E+07         0.00000E+00
   -0.13939E+07        -0.59727E+08         0.00000E+00
    0.00000E+00         0.00000E+00        -0.57696E+08
 
   -0.53989E+08        -0.10101E+07         0.00000E+00
   -0.10101E+07        -0.59633E+08         0.00000E+00
    0.00000E+00         0.00000E+00        -0.57800E+08
 
   -0.54601E+08        -0.42966E+06         0.00000E+00
   -0.42966E+06        -0.59523E+08         0.00000E+00
    0.00000E+00         0.00000E+00        -0.57901E+08
 
   -0.55207E+08         0.34530E+06         0.00000E+00
    0.34530E+06        -0.59398E+08         0.00000E+00
    0.00000E+00         0.00000E+00        -0.57999E+08
 
   -0.55801E+08         0.13109E+07         0.00000E+00
    0.13109E+07        -0.59258E+08         0.00000E+00
    0.00000E+00         0.00000E+00        -0.58090E+08
 
   -0.56375E+08         0.24617E+07         0.00000E+00
    0.24617E+07        -0.59106E+08         0.00000E+00
    0.00000E+00         0.00000E+00        -0.58176E+08
 
   -0.56921E+08         0.37903E+07         0.00000E+00
    0.37903E+07        -0.58945E+08         0.00000E+00
    0.00000E+00         0.00000E+00        -0.58253E+08
 
   -0.57426E+08         0.52871E+07         0.00000E+00
    0.52871E+07        -0.58779E+08         0.00000E+00
    0.00000E+00         0.00000E+00        -0.58322E+08
 
   -0.57881E+08         0.69395E+07         0.00000E+00
    0.69395E+07        -0.58614E+08         0.00000E+00
    0.00000E+00         0.00000E+00        -0.58380E+08
 
   -0.58270E+08         0.87312E+07         0.00000E+00
    0.87312E+07        -0.58459E+08         0.00000E+00
    0.00000E+00         0.00000E+00        -0.58427E+08
 
   -0.51196E+08        -0.35336E+06         0.00000E+00
   -0.35336E+06        -0.59995E+08         0.00000E+00
    0.00000E+00         0.00000E+00        -0.55693E+08
 
   -0.51530E+08        -0.92854E+06         0.00000E+00
   -0.92854E+06        -0.59976E+08         0.00000E+00
    0.00000E+00         0.00000E+00        -0.55757E+08
 
   -0.51895E+08        -0.13181E+07         0.00000E+00
   -0.13181E+07        -0.59945E+08         0.00000E+00
    0.00000E+00         0.00000E+00        -0.55824E+08
 
   -0.52280E+08        -0.15151E+07         0.00000E+00
   -0.15151E+07        -0.59904E+08         0.00000E+00
    0.00000E+00         0.00000E+00        -0.55894E+08
 
   -0.52679E+08        -0.15155E+07         0.00000E+00
   -0.15155E+07        -0.59855E+08         0.00000E+00
    0.00000E+00         0.00000E+00        -0.55965E+08
 
   -0.53087E+08        -0.13175E+07         0.00000E+00
   -0.13175E+07        -0.59796E+08         0.00000E+00
    0.00000E+00         0.00000E+00        -0.56036E+08
 
   -0.53500E+08        -0.92093E+06         0.00000E+00
   -0.92093E+06        -0.59726E+08         0.00000E+00
    0.00000E+00         0.00000E+00        -0.56106E+08
 
   -0.53916E+08        -0.32722E+06         0.00000E+00
   -0.32722E+06        -0.59645E+08         0.00000E+00
    0.00000E+00         0.00000E+00        -0.56174E+08
 
   -0.54330E+08         0.46052E+06         0.00000E+00
    0.46052E+06        -0.59554E+08         0.00000E+00
    0.00000E+00         0.00000E+00        -0.56240E+08
 
   -0.54737E+08         0.14376E+07         0.00000E+00
    0.14376E+07        -0.59452E+08         0.00000E+00
    0.00000E+00         0.00000E+00        -0.56302E+08
 
   -0.55131E+08         0.25974E+07         0.00000E+00
    0.25974E+07        -0.59342E+08         0.00000E+00
    0.00000E+00         0.00000E+00        -0.56359E+08
 
   -0.55505E+08         0.39314E+07         0.00000E+00
    0.39314E+07        -0.59227E+08         0.00000E+00
    0.00000E+00         0.00000E+00        -0.56412E+08
 
   -0.55851E+08         0.54288E+07         0.00000E+00
    0.54288E+07        -0.59109E+08         0.00000E+00
    0.00000E+00         0.00000E+00        -0.56458E+08
 
   -0.56160E+08         0.70759E+07         0.00000E+00
    0.70759E+07        -0.58995E+08         0.00000E+00
    0.00000E+00         0.00000E+00        -0.56497E+08
 
   -0.56424E+08         0.88559E+07         0.00000E+00
    0.88559E+07        -0.58889E+08         0.00000E+00
    0.00000E+00         0.00000E+00        -0.56529E+08
 
   -0.51852E+08        -0.34474E+06         0.00000E+00
   -0.34474E+06        -0.59997E+08         0.00000E+00
    0.00000E+00         0.00000E+00        -0.54217E+08
 
   -0.52009E+08        -0.90796E+06         0.00000E+00
   -0.90796E+06        -0.59987E+08         0.00000E+00
    0.00000E+00         0.00000E+00        -0.54246E+08
 
   -0.52185E+08        -0.12896E+07         0.00000E+00
   -0.12896E+07        -0.59970E+08         0.00000E+00
    0.00000E+00         0.00000E+00        -0.54279E+08
 
   -0.52376E+08        -0.14797E+07         0.00000E+00
   -0.14797E+07        -0.59947E+08         0.00000E+00
    0.00000E+00         0.00000E+00        -0.54314E+08
 
   -0.52576E+08        -0.14729E+07         0.00000E+00
   -0.14729E+07        -0.59920E+08         0.00000E+00
    0.00000E+00         0.00000E+00        -0.54349E+08
 
   -0.52785E+08        -0.12667E+07         0.00000E+00
   -0.12667E+07        -0.59887E+08         0.00000E+00
    0.00000E+00         0.00000E+00        -0.54385E+08
 
   -0.53000E+08        -0.86119E+06         0.00000E+00
   -0.86119E+06        -0.59847E+08         0.00000E+00
    0.00000E+00         0.00000E+00        -0.54422E+08
 
   -0.53220E+08        -0.25824E+06         0.00000E+00
   -0.25824E+06        -0.59800E+08         0.00000E+00
    0.00000E+00         0.00000E+00        -0.54457E+08
 
   -0.53442E+08         0.53832E+06         0.00000E+00
    0.53832E+06        -0.59745E+08         0.00000E+00
    0.00000E+00         0.00000E+00        -0.54492E+08
 
   -0.53664E+08         0.15229E+07         0.00000E+00
    0.15229E+07        -0.59684E+08         0.00000E+00
    0.00000E+00         0.00000E+00        -0.54525E+08
 
   -0.53880E+08         0.26883E+07         0.00000E+00
    0.26883E+07        -0.59617E+08         0.00000E+00
    0.00000E+00         0.00000E+00        -0.54556E+08
 
   -0.54087E+08         0.40250E+07         0.00000E+00
    0.40250E+07        -0.59548E+08         0.00000E+00
    0.00000E+00         0.00000E+00        -0.54584E+08
 
   -0.54278E+08         0.55214E+07         0.00000E+00
    0.55214E+07        -0.59479E+08         0.00000E+00
    0.00000E+00         0.00000E+00        -0.54609E+08
 
   -0.54448E+08         0.71632E+07         0.00000E+00
    0.71632E+07        -0.59413E+08         0.00000E+00
    0.00000E+00         0.00000E+00        -0.54630E+08
 
   -0.54591E+08         0.89333E+07         0.00000E+00
    0.89333E+07        -0.59354E+08         0.00000E+00
    0.00000E+00         0.00000E+00        -0.54647E+08
 
   -0.52498E+08        -0.34133E+06         0.00000E+00
   -0.34133E+06        -0.60000E+08         0.00000E+00
    0.00000E+00         0.00000E+00        -0.52744E+08
 
   -0.52481E+08        -0.90040E+06         0.00000E+00
   -0.90040E+06        -0.59999E+08         0.00000E+00
    0.00000E+00         0.00000E+00        -0.52741E+08
 
   -0.52471E+08        -0.12794E+07         0.00000E+00
   -0.12794E+07        -0.59999E+08         0.00000E+00
    0.00000E+00         0.00000E+00        -0.52740E+08
 
   -0.52466E+08        -0.14669E+07         0.00000E+00
   -0.14669E+07        -0.59999E+08         0.00000E+00
    0.00000E+00         0.00000E+00        -0.52740E+08
 
   -0.52468E+08        -0.14565E+07         0.00000E+00
   -0.14565E+07        -0.59998E+08         0.00000E+00
    0.00000E+00         0.00000E+00        -0.52741E+08
 
   -0.52476E+08        -0.12455E+07         0.00000E+00
   -0.12455E+07        -0.59994E+08         0.00000E+00
    0.00000E+00         0.00000E+00        -0.52743E+08
 
   -0.52492E+08        -0.83427E+06         0.00000E+00
   -0.83427E+06        -0.59986E+08         0.00000E+00
    0.00000E+00         0.00000E+00        -0.52746E+08
 
   -0.52517E+08        -0.22540E+06         0.00000E+00
   -0.22540E+06        -0.59974E+08         0.00000E+00
    0.00000E+00         0.00000E+00        -0.52749E+08
 
   -0.52548E+08         0.57666E+06         0.00000E+00
    0.57666E+06        -0.59958E+08         0.00000E+00
    0.00000E+00         0.00000E+00        -0.52753E+08
 
   -0.52586E+08         0.15657E+07         0.00000E+00
    0.15657E+07        -0.59938E+08         0.00000E+00
    0.00000E+00         0.00000E+00        -0.52758E+08
 
   -0.52627E+08         0.27339E+07         0.00000E+00
    0.27339E+07        -0.59916E+08         0.00000E+00
    0.00000E+00         0.00000E+00        -0.52762E+08
 
   -0.52669E+08         0.40713E+07         0.00000E+00
    0.40713E+07        -0.59893E+08         0.00000E+00
    0.00000E+00         0.00000E+00        -0.52767E+08
 
   -0.52709E+08         0.55658E+07         0.00000E+00
    0.55658E+07        -0.59871E+08         0.00000E+00
    0.00000E+00         0.00000E+00        -0.52771E+08
 
   -0.52743E+08         0.72029E+07         0.00000E+00
    0.72029E+07        -0.59853E+08         0.00000E+00
    0.00000E+00         0.00000E+00        -0.52775E+08
 
   -0.52768E+08         0.89654E+07         0.00000E+00
    0.89654E+07        -0.59839E+08         0.00000E+00
    0.00000E+00         0.00000E+00        -0.52777E+08
 
   -0.53143E+08        -0.34384E+06         0.00000E+00
   -0.34384E+06        -0.60002E+08         0.00000E+00
    0.00000E+00         0.00000E+00        -0.51279E+08
 
   -0.52954E+08        -0.90775E+06         0.00000E+00
   -0.90775E+06        -0.60013E+08         0.00000E+00
    0.00000E+00         0.00000E+00        -0.51243E+08
 
   -0.52756E+08        -0.12904E+07         0.00000E+00
   -0.12904E+07        -0.60032E+08         0.00000E+00
    0.00000E+00         0.00000E+00        -0.51208E+08
 
   -0.52555E+08        -0.14796E+07         0.00000E+00
   -0.14796E+07        -0.60056E+08         0.00000E+00
    0.00000E+00         0.00000E+00        -0.51174E+08
 
   -0.52356E+08        -0.14688E+07         0.00000E+00
   -0.14688E+07        -0.60082E+08         0.00000E+00
    0.00000E+00         0.00000E+00        -0.51140E+08
 
   -0.52164E+08        -0.12558E+07         0.00000E+00
   -0.12558E+07        -0.60109E+08         0.00000E+00
    0.00000E+00         0.00000E+00        -0.51108E+08
 
   -0.51980E+08        -0.84171E+06         0.00000E+00
   -0.84171E+06        -0.60134E+08         0.00000E+00
    0.00000E+00         0.00000E+00        -0.51077E+08
 
   -0.51809E+08        -0.22973E+06         0.00000E+00
   -0.22973E+06        -0.60158E+08         0.00000E+00
    0.00000E+00         0.00000E+00        -0.51049E+08
 
   -0.51651E+08         0.57500E+06         0.00000E+00
    0.57500E+06        -0.60180E+08         0.00000E+00
    0.00000E+00         0.00000E+00        -0.51022E+08
 
   -0.51505E+08         0.15658E+07         0.00000E+00
    0.15658E+07        -0.60201E+08         0.00000E+00
    0.00000E+00         0.00000E+00        -0.50998E+08
 
   -0.51373E+08         0.27344E+07         0.00000E+00
    0.27344E+07        -0.60222E+08         0.00000E+00
    0.00000E+00         0.00000E+00        -0.50977E+08
 
   -0.51252E+08         0.40708E+07         0.00000E+00
    0.40708E+07        -0.60245E+08         0.00000E+00
    0.00000E+00         0.00000E+00        -0.50958E+08
 
   -0.51143E+08         0.55629E+07         0.00000E+00
    0.55629E+07        -0.60270E+08         0.00000E+00
    0.00000E+00         0.00000E+00        -0.50941E+08
 
   -0.51043E+08         0.71961E+07         0.00000E+00
    0.71961E+07        -0.60298E+08         0.00000E+00
    0.00000E+00         0.00000E+00        -0.50927E+08
 
   -0.50954E+08         0.89534E+07         0.00000E+00
    0.89534E+07        -0.60330E+08         0.00000E+00
    0.00000E+00         0.00000E+00        -0.50916E+08
 
   -0.53798E+08        -0.35266E+06         0.00000E+00
   -0.35266E+06        -0.60005E+08         0.00000E+00
    0.00000E+00         0.00000E+00        -0.49821E+08
 
   -0.53435E+08        -0.93094E+06         0.00000E+00
   -0.93094E+06        -0.60027E+08         0.00000E+00
    0.00000E+00         0.00000E+00        -0.49753E+08
 
   -0.53047E+08        -0.13235E+07         0.00000E+00
   -0.13235E+07        -0.60065E+08         0.00000E+00
    0.00000E+00         0.00000E+00        -0.49684E+08
 
   -0.52647E+08        -0.15185E+07         0.00000E+00
   -0.15185E+07        -0.60113E+08         0.00000E+00
    0.00000E+00         0.00000E+00        -0.49614E+08
 
   -0.52245E+08        -0.15104E+07         0.00000E+00
   -0.15104E+07        -0.60167E+08         0.00000E+00
    0.00000E+00         0.00000E+00        -0.49545E+08
 
   -0.51850E+08        -0.12979E+07         0.00000E+00
   -0.12979E+07        -0.60224E+08         0.00000E+00
    0.00000E+00         0.00000E+00        -0.49478E+08
 
   -0.51466E+08        -0.88313E+06         0.00000E+00
   -0.88313E+06        -0.60281E+08         0.00000E+00
    0.00000E+00         0.00000E+00        -0.49414E+08
 
   -0.51100E+08        -0.27046E+06         0.00000E+00
   -0.27046E+06        -0.60339E+08         0.00000E+00
    0.00000E+00         0.00000E+00        -0.49353E+08
 
   -0.50752E+08         0.53431E+06         0.00000E+00
    0.53431E+06        -0.60398E+08         0.00000E+00
    0.00000E+00         0.00000E+00        -0.49296E+08
 
   -0.50425E+08         0.15241E+07         0.00000E+00
    0.15241E+07        -0.60458E+08         0.00000E+00
    0.00000E+00         0.00000E+00        -0.49244E+08
 
   -0.50120E+08         0.26907E+07         0.00000E+00
    0.26907E+07        -0.60522E+08         0.00000E+00
    0.00000E+00         0.00000E+00        -0.49196E+08
 
   -0.49838E+08         0.40244E+07         0.00000E+00
    0.40244E+07        -0.60589E+08         0.00000E+00
    0.00000E+00         0.00000E+00        -0.49153E+08
 
   -0.49579E+08         0.55134E+07         0.00000E+00
    0.55134E+07        -0.60659E+08         0.00000E+00
    0.00000E+00         0.00000E+00        -0.49116E+08
 
   -0.49347E+08         0.71436E+07         0.00000E+00
    0.71436E+07        -0.60733E+08         0.00000E+00
    0.00000E+00         0.00000E+00        -0.49085E+08
 
   -0.49143E+08         0.88979E+07         0.00000E+00
    0.88979E+07        -0.60810E+08         0.00000E+00
    0.00000E+00         0.00000E+00        -0.49059E+08
 
   -0.54477E+08        -0.36789E+06         0.00000E+00
   -0.36789E+06        -0.60008E+08         0.00000E+00
    0.00000E+00         0.00000E+00        -0.48374E+08
 
   -0.53932E+08        -0.97004E+06         0.00000E+00
   -0.97004E+06        -0.60041E+08         0.00000E+00
    0.00000E+00         0.00000E+00        -0.48272E+08
 
   -0.53348E+08        -0.13786E+07         0.00000E+00
   -0.13786E+07        -0.60097E+08         0.00000E+00
    0.00000E+00         0.00000E+00        -0.48167E+08
 
   -0.52744E+08        -0.15832E+07         0.00000E+00
   -0.15832E+07        -0.60169E+08         0.00000E+00
    0.00000E+00         0.00000E+00        -0.48061E+08
 
   -0.52136E+08        -0.15799E+07         0.00000E+00
   -0.15799E+07        -0.60248E+08         0.00000E+00
    0.00000E+00         0.00000E+00        -0.47956E+08
 
   -0.51536E+08        -0.13696E+07         0.00000E+00
   -0.13696E+07        -0.60332E+08         0.00000E+00
    0.00000E+00         0.00000E+00        -0.47854E+08
 
   -0.50952E+08        -0.95608E+06         0.00000E+00
   -0.95608E+06        -0.60418E+08         0.00000E+00
    0.00000E+00         0.00000E+00        -0.47755E+08
 
   -0.50391E+08        -0.34495E+06         0.00000E+00
   -0.34495E+06        -0.60507E+08         0.00000E+00
    0.00000E+00         0.00000E+00        -0.47661E+08
 
   -0.49855E+08         0.45716E+06         0.00000E+00
    0.45716E+06        -0.60598E+08         0.00000E+00
    0.00000E+00         0.00000E+00        -0.47573E+08
 
   -0.49348E+08         0.14430E+07         0.00000E+00
    0.14430E+07        -0.60695E+08         0.00000E+00
    0.00000E+00         0.00000E+00        -0.47491E+08
 
   -0.48871E+08         0.26048E+07         0.00000E+00
    0.26048E+07        -0.60798E+08         0.00000E+00
    0.00000E+00         0.00000E+00        -0.47417E+08
 
   -0.48427E+08         0.39334E+07         0.00000E+00
    0.39334E+07        -0.60908E+08         0.00000E+00
    0.00000E+00         0.00000E+00        -0.47350E+08
 
   -0.48020E+08         0.54181E+07         0.00000E+00
    0.54181E+07        -0.61023E+08         0.00000E+00
    0.00000E+00         0.00000E+00        -0.47292E+08
 
   -0.47654E+08         0.70455E+07         0.00000E+00
    0.70455E+07        -0.61143E+08         0.00000E+00
    0.00000E+00         0.00000E+00        -0.47243E+08
 
   -0.47334E+08         0.87991E+07         0.00000E+00
    0.87991E+07        -0.61264E+08         0.00000E+00
    0.00000E+00         0.00000E+00        -0.47204E+08
 
   -0.55189E+08        -0.38933E+06         0.00000E+00
   -0.38933E+06        -0.60011E+08         0.00000E+00
    0.00000E+00         0.00000E+00        -0.46940E+08
 
   -0.54452E+08        -0.10243E+07         0.00000E+00
   -0.10243E+07        -0.60054E+08         0.00000E+00
    0.00000E+00         0.00000E+00        -0.46802E+08
 
   -0.53664E+08        -0.14541E+07         0.00000E+00
   -0.14541E+07        -0.60128E+08         0.00000E+00
    0.00000E+00         0.00000E+00        -0.46659E+08
 
   -0.52850E+08        -0.16709E+07         0.00000E+00
   -0.16709E+07        -0.60219E+08         0.00000E+00
    0.00000E+00         0.00000E+00        -0.46515E+08
 
   -0.52031E+08        -0.16739E+07         0.00000E+00
   -0.16739E+07        -0.60320E+08         0.00000E+00
    0.00000E+00         0.00000E+00        -0.46372E+08
 
   -0.51225E+08        -0.14668E+07         0.00000E+00
   -0.14668E+07        -0.60426E+08         0.00000E+00
    0.00000E+00         0.00000E+00        -0.46232E+08
 
   -0.50441E+08        -0.10559E+07         0.00000E+00
   -0.10559E+07        -0.60535E+08         0.00000E+00
    0.00000E+00         0.00000E+00        -0.46098E+08
 
   -0.49686E+08        -0.44849E+06         0.00000E+00
   -0.44849E+06        -0.60648E+08         0.00000E+00
    0.00000E+00         0.00000E+00        -0.45970E+08
 
   -0.48964E+08         0.34789E+06         0.00000E+00
    0.34789E+06        -0.60768E+08         0.00000E+00
    0.00000E+00         0.00000E+00        -0.45850E+08
 
   -0.48277E+08         0.13261E+07         0.00000E+00
    0.13261E+07        -0.60896E+08         0.00000E+00
    0.00000E+00         0.00000E+00        -0.45738E+08
 
   -0.47629E+08         0.24790E+07         0.00000E+00
    0.24790E+07        -0.61034E+08         0.00000E+00
    0.00000E+00         0.00000E+00        -0.45637E+08
 
   -0.47023E+08         0.37991E+07         0.00000E+00
    0.37991E+07        -0.61184E+08         0.00000E+00
    0.00000E+00         0.00000E+00        -0.45546E+08
 
   -0.46464E+08         0.52771E+07         0.00000E+00
    0.52771E+07        -0.61344E+08         0.00000E+00
    0.00000E+00         0.00000E+00        -0.45466E+08
 
   -0.45961E+08         0.69014E+07         0.00000E+00
    0.69014E+07        -0.61510E+08         0.00000E+00
    0.00000E+00         0.00000E+00        -0.45399E+08
 
   -0.45523E+08         0.86562E+07         0.00000E+00
    0.86562E+07        -0.61676E+08         0.00000E+00
    0.00000E+00         0.00000E+00        -0.45345E+08
 
   -0.55945E+08        -0.41659E+06         0.00000E+00
   -0.41659E+06        -0.60013E+08         0.00000E+00
    0.00000E+00         0.00000E+00        -0.45520E+08
 
   -0.55002E+08        -0.10923E+07         0.00000E+00
   -0.10923E+07        -0.60066E+08         0.00000E+00
    0.00000E+00         0.00000E+00        -0.45342E+08
 
   -0.53997E+08        -0.15470E+07         0.00000E+00
   -0.15470E+07        -0.60153E+08         0.00000E+00
    0.00000E+00         0.00000E+00        -0.45158E+08
 
   -0.52964E+08        -0.17773E+07         0.00000E+00
   -0.17773E+07        -0.60260E+08         0.00000E+00
    0.00000E+00         0.00000E+00        -0.44974E+08
 
   -0.51931E+08        -0.17865E+07         0.00000E+00
   -0.17865E+07        -0.60377E+08         0.00000E+00
    0.00000E+00         0.00000E+00        -0.44791E+08
 
   -0.50917E+08        -0.15827E+07         0.00000E+00
   -0.15827E+07        -0.60497E+08         0.00000E+00
    0.00000E+00         0.00000E+00        -0.44612E+08
 
   -0.49933E+08        -0.11753E+07         0.00000E+00
   -0.11753E+07        -0.60621E+08         0.00000E+00
    0.00000E+00         0.00000E+00        -0.44440E+08
 
   -0.48987E+08        -0.57409E+06         0.00000E+00
   -0.57409E+06        -0.60750E+08         0.00000E+00
    0.00000E+00         0.00000E+00        -0.44277E+08
 
   -0.48081E+08         0.21272E+06         0.00000E+00
    0.21272E+06        -0.60890E+08         0.00000E+00
    0.00000E+00         0.00000E+00        -0.44124E+08
 
   -0.47217E+08         0.11783E+07         0.00000E+00
    0.11783E+07        -0.61043E+08         0.00000E+00
    0.00000E+00         0.00000E+00        -0.43982E+08
 
   -0.46398E+08         0.23169E+07         0.00000E+00
    0.23169E+07        -0.61212E+08         0.00000E+00
    0.00000E+00         0.00000E+00        -0.43852E+08
 
   -0.45628E+08         0.36232E+07         0.00000E+00
    0.36232E+07        -0.61400E+08         0.00000E+00
    0.00000E+00         0.00000E+00        -0.43736E+08
 
   -0.44915E+08         0.50907E+07         0.00000E+00
    0.50907E+07        -0.61603E+08         0.00000E+00
    0.00000E+00         0.00000E+00        -0.43634E+08
 
   -0.44270E+08         0.67100E+07         0.00000E+00
    0.67100E+07        -0.61816E+08         0.00000E+00
    0.00000E+00         0.00000E+00        -0.43548E+08
 
   -0.43707E+08         0.84672E+07         0.00000E+00
    0.84672E+07        -0.62031E+08         0.00000E+00
    0.00000E+00         0.00000E+00        -0.43478E+08
 
   -0.56757E+08        -0.44904E+06         0.00000E+00
   -0.44904E+06        -0.60015E+08         0.00000E+00
    0.00000E+00         0.00000E+00        -0.44115E+08
 
   -0.55586E+08        -0.11716E+07         0.00000E+00
   -0.11716E+07        -0.60075E+08         0.00000E+00
    0.00000E+00         0.00000E+00        -0.43893E+08
 
   -0.54349E+08        -0.16531E+07         0.00000E+00
   -0.16531E+07        -0.60173E+08         0.00000E+00
    0.00000E+00         0.00000E+00        -0.43665E+08
 
   -0.53087E+08        -0.18957E+07         0.00000E+00
   -0.18957E+07        -0.60289E+08         0.00000E+00
    0.00000E+00         0.00000E+00        -0.43436E+08
 
   -0.51834E+08        -0.19094E+07         0.00000E+00
   -0.19094E+07        -0.60412E+08         0.00000E+00
    0.00000E+00         0.00000E+00        -0.43210E+08
 
   -0.50611E+08        -0.17077E+07         0.00000E+00
   -0.17077E+07        -0.60537E+08         0.00000E+00
    0.00000E+00         0.00000E+00        -0.42991E+08
 
   -0.49431E+08        -0.13045E+07         0.00000E+00
   -0.13045E+07        -0.60664E+08         0.00000E+00
    0.00000E+00         0.00000E+00        -0.42780E+08
 
   -0.48298E+08        -0.71224E+06         0.00000E+00
   -0.71224E+06        -0.60798E+08         0.00000E+00
    0.00000E+00         0.00000E+00        -0.42580E+08
 
   -0.47212E+08         0.59964E+05         0.00000E+00
    0.59964E+05        -0.60947E+08         0.00000E+00
    0.00000E+00         0.00000E+00        -0.42393E+08
 
   -0.46175E+08         0.10060E+07         0.00000E+00
    0.10060E+07        -0.61116E+08         0.00000E+00
    0.00000E+00         0.00000E+00        -0.42219E+08
 
   -0.45186E+08         0.21225E+07         0.00000E+00
    0.21225E+07        -0.61311E+08         0.00000E+00
    0.00000E+00         0.00000E+00        -0.42061E+08
 
   -0.44250E+08         0.34074E+07         0.00000E+00
    0.34074E+07        -0.61533E+08         0.00000E+00
    0.00000E+00         0.00000E+00        -0.41918E+08
 
   -0.43377E+08         0.48580E+07         0.00000E+00
    0.48580E+07        -0.61779E+08         0.00000E+00
    0.00000E+00         0.00000E+00        -0.41792E+08
 
   -0.42581E+08         0.64688E+07         0.00000E+00
    0.64688E+07        -0.62041E+08         0.00000E+00
    0.00000E+00         0.00000E+00        -0.41686E+08
 
   -0.41883E+08         0.82288E+07         0.00000E+00
    0.82288E+07        -0.62308E+08         0.00000E+00
    0.00000E+00         0.00000E+00        -0.41600E+08
 
   -0.57630E+08        -0.48584E+06         0.00000E+00
   -0.48584E+06        -0.60017E+08         0.00000E+00
    0.00000E+00         0.00000E+00        -0.42727E+08
 
   -0.56207E+08        -0.12591E+07         0.00000E+00
   -0.12591E+07        -0.60082E+08         0.00000E+00
    0.00000E+00         0.00000E+00        -0.42456E+08
 
   -0.54718E+08        -0.17659E+07         0.00000E+00
   -0.17659E+07        -0.60185E+08         0.00000E+00
    0.00000E+00         0.00000E+00        -0.42178E+08
 
   -0.53215E+08        -0.20170E+07         0.00000E+00
   -0.20170E+07        -0.60301E+08         0.00000E+00
    0.00000E+00         0.00000E+00        -0.41901E+08
 
   -0.51738E+08        -0.20310E+07         0.00000E+00
   -0.20310E+07        -0.60418E+08         0.00000E+00
    0.00000E+00         0.00000E+00        -0.41629E+08
 
   -0.50308E+08        -0.18290E+07         0.00000E+00
   -0.18290E+07        -0.60533E+08         0.00000E+00
    0.00000E+00         0.00000E+00        -0.41365E+08
 
   -0.48936E+08        -0.14305E+07         0.00000E+00
   -0.14305E+07        -0.60648E+08         0.00000E+00
    0.00000E+00         0.00000E+00        -0.41114E+08
 
   -0.47623E+08        -0.85074E+06         0.00000E+00
   -0.85074E+06        -0.60774E+08         0.00000E+00
    0.00000E+00         0.00000E+00        -0.40876E+08
 
   -0.46365E+08        -0.99862E+05         0.00000E+00
   -0.99862E+05        -0.60920E+08         0.00000E+00
    0.00000E+00         0.00000E+00        -0.40654E+08
 
   -0.45159E+08         0.81748E+06         0.00000E+00
    0.81748E+06        -0.61095E+08         0.00000E+00
    0.00000E+00         0.00000E+00        -0.40447E+08
 
   -0.44001E+08         0.19010E+07         0.00000E+00
    0.19010E+07        -0.61308E+08         0.00000E+00
    0.00000E+00         0.00000E+00        -0.40258E+08
 
   -0.42897E+08         0.31534E+07         0.00000E+00
    0.31534E+07        -0.61561E+08         0.00000E+00
    0.00000E+00         0.00000E+00        -0.40088E+08
 
   -0.41855E+08         0.45777E+07         0.00000E+00
    0.45777E+07        -0.61850E+08         0.00000E+00
    0.00000E+00         0.00000E+00        -0.39937E+08
 
   -0.40897E+08         0.61739E+07         0.00000E+00
    0.61739E+07        -0.62165E+08         0.00000E+00
    0.00000E+00         0.00000E+00        -0.39809E+08
 
   -0.40050E+08         0.79356E+07         0.00000E+00
    0.79356E+07        -0.62490E+08         0.00000E+00
    0.00000E+00         0.00000E+00        -0.39704E+08
 
   -0.58572E+08        -0.52596E+06         0.00000E+00
   -0.52596E+06        -0.60018E+08         0.00000E+00
    0.00000E+00         0.00000E+00        -0.41356E+08
 
   -0.56864E+08        -0.13503E+07         0.00000E+00
   -0.13503E+07        -0.60086E+08         0.00000E+00
    0.00000E+00         0.00000E+00        -0.41028E+08
 
   -0.55100E+08        -0.18771E+07         0.00000E+00
   -0.18771E+07        -0.60186E+08         0.00000E+00
    0.00000E+00         0.00000E+00        -0.40695E+08
 
   -0.53343E+08        -0.21289E+07         0.00000E+00
   -0.21289E+07        -0.60290E+08         0.00000E+00
    0.00000E+00         0.00000E+00        -0.40364E+08
 
   -0.51638E+08        -0.21363E+07         0.00000E+00
   -0.21363E+07        -0.60385E+08         0.00000E+00
    0.00000E+00         0.00000E+00        -0.40042E+08
 
   -0.50005E+08        -0.19302E+07         0.00000E+00
   -0.19302E+07        -0.60472E+08         0.00000E+00
    0.00000E+00         0.00000E+00        -0.39733E+08
 
   -0.48450E+08        -0.15368E+07         0.00000E+00
   -0.15368E+07        -0.60558E+08         0.00000E+00
    0.00000E+00         0.00000E+00        -0.39438E+08
 
   -0.46968E+08        -0.97466E+06         0.00000E+00
   -0.97466E+06        -0.60658E+08         0.00000E+00
    0.00000E+00         0.00000E+00        -0.39162E+08
 
   -0.45548E+08        -0.25405E+06         0.00000E+00
   -0.25405E+06        -0.60786E+08         0.00000E+00
    0.00000E+00         0.00000E+00        -0.38903E+08
 
   -0.44180E+08         0.62232E+06         0.00000E+00
    0.62232E+06        -0.60955E+08         0.00000E+00
    0.00000E+00         0.00000E+00        -0.38663E+08
 
   -0.42857E+08         0.16584E+07         0.00000E+00
    0.16584E+07        -0.61178E+08         0.00000E+00
    0.00000E+00         0.00000E+00        -0.38442E+08
 
   -0.41580E+08         0.28631E+07         0.00000E+00
    0.28631E+07        -0.61457E+08         0.00000E+00
    0.00000E+00         0.00000E+00        -0.38243E+08
 
   -0.40361E+08         0.42470E+07         0.00000E+00
    0.42470E+07        -0.61790E+08         0.00000E+00
    0.00000E+00         0.00000E+00        -0.38065E+08
 
   -0.39223E+08         0.58188E+07         0.00000E+00
    0.58188E+07        -0.62164E+08         0.00000E+00
    0.00000E+00         0.00000E+00        -0.37912E+08
 
   -0.38205E+08         0.75791E+07         0.00000E+00
    0.75791E+07        -0.62555E+08         0.00000E+00
    0.00000E+00         0.00000E+00        -0.37787E+08
 
   -0.59584E+08        -0.56814E+06         0.00000E+00
   -0.56814E+06        -0.60019E+08         0.00000E+00
    0.00000E+00         0.00000E+00        -0.40003E+08
 
   -0.57551E+08        -0.14396E+07         0.00000E+00
   -0.14396E+07        -0.60085E+08         0.00000E+00
    0.00000E+00         0.00000E+00        -0.39609E+08
 
   -0.55484E+08        -0.19751E+07         0.00000E+00
   -0.19751E+07        -0.60171E+08         0.00000E+00
    0.00000E+00         0.00000E+00        -0.39213E+08
 
   -0.53461E+08        -0.22146E+07         0.00000E+00
   -0.22146E+07        -0.60247E+08         0.00000E+00
    0.00000E+00         0.00000E+00        -0.38823E+08
 
   -0.51528E+08        -0.22055E+07         0.00000E+00
   -0.22055E+07        -0.60300E+08         0.00000E+00
    0.00000E+00         0.00000E+00        -0.38446E+08
 
   -0.49702E+08        -0.19910E+07         0.00000E+00
   -0.19910E+07        -0.60337E+08         0.00000E+00
    0.00000E+00         0.00000E+00        -0.38088E+08
 
   -0.47978E+08        -0.16043E+07         0.00000E+00
   -0.16043E+07        -0.60372E+08         0.00000E+00
    0.00000E+00         0.00000E+00        -0.37750E+08
 
   -0.46342E+08        -0.10667E+07         0.00000E+00
   -0.10667E+07        -0.60426E+08         0.00000E+00
    0.00000E+00         0.00000E+00        -0.37433E+08
 
   -0.44774E+08        -0.38801E+06         0.00000E+00
   -0.38801E+06        -0.60519E+08         0.00000E+00
    0.00000E+00         0.00000E+00        -0.37137E+08
 
   -0.43256E+08         0.43171E+06         0.00000E+00
    0.43171E+06        -0.60669E+08         0.00000E+00
    0.00000E+00         0.00000E+00        -0.36863E+08
 
   -0.41772E+08         0.14015E+07         0.00000E+00
    0.14015E+07        -0.60892E+08         0.00000E+00
    0.00000E+00         0.00000E+00        -0.36610E+08
 
   -0.40319E+08         0.25379E+07         0.00000E+00
    0.25379E+07        -0.61193E+08         0.00000E+00
    0.00000E+00         0.00000E+00        -0.36380E+08
 
   -0.38909E+08         0.38620E+07         0.00000E+00
    0.38620E+07        -0.61572E+08         0.00000E+00
    0.00000E+00         0.00000E+00        -0.36173E+08
 
   -0.37568E+08         0.53944E+07         0.00000E+00
    0.53944E+07        -0.62011E+08         0.00000E+00
    0.00000E+00         0.00000E+00        -0.35993E+08
 
   -0.36349E+08         0.71471E+07         0.00000E+00
    0.71471E+07        -0.62483E+08         0.00000E+00
    0.00000E+00         0.00000E+00        -0.35843E+08
 
   -0.60667E+08        -0.61081E+06         0.00000E+00
   -0.61081E+06        -0.60019E+08         0.00000E+00
    0.00000E+00         0.00000E+00        -0.38666E+08
 
   -0.58256E+08        -0.15187E+07         0.00000E+00
   -0.15187E+07        -0.60077E+08         0.00000E+00
    0.00000E+00         0.00000E+00        -0.38195E+08
 
   -0.55854E+08        -0.20433E+07         0.00000E+00
   -0.20433E+07        -0.60135E+08         0.00000E+00
    0.00000E+00         0.00000E+00        -0.37726E+08
 
   -0.53555E+08        -0.22515E+07         0.00000E+00
   -0.22515E+07        -0.60159E+08         0.00000E+00
    0.00000E+00         0.00000E+00        -0.37270E+08
 
   -0.51401E+08        -0.22137E+07         0.00000E+00
   -0.22137E+07        -0.60142E+08         0.00000E+00
    0.00000E+00         0.00000E+00        -0.36835E+08
 
   -0.49397E+08        -0.19872E+07         0.00000E+00
   -0.19872E+07        -0.60102E+08         0.00000E+00
    0.00000E+00         0.00000E+00        -0.36426E+08
 
   -0.47525E+08        -0.16113E+07         0.00000E+00
   -0.16113E+07        -0.60062E+08         0.00000E+00
    0.00000E+00         0.00000E+00        -0.36043E+08
 
   -0.45756E+08        -0.11081E+07         0.00000E+00
   -0.11081E+07        -0.60050E+08         0.00000E+00
    0.00000E+00         0.00000E+00        -0.35686E+08
 
   -0.44059E+08        -0.48609E+06         0.00000E+00
   -0.48609E+06        -0.60091E+08         0.00000E+00
    0.00000E+00         0.00000E+00        -0.35354E+08
 
   -0.42403E+08         0.25797E+06         0.00000E+00
    0.25797E+06        -0.60208E+08         0.00000E+00
    0.00000E+00         0.00000E+00        -0.35046E+08
 
   -0.40767E+08         0.11383E+07         0.00000E+00
    0.11383E+07        -0.60419E+08         0.00000E+00
    0.00000E+00         0.00000E+00        -0.34760E+08
 
   -0.39137E+08         0.21800E+07         0.00000E+00
    0.21800E+07        -0.60737E+08         0.00000E+00
    0.00000E+00         0.00000E+00        -0.34497E+08
 
   -0.37520E+08         0.34171E+07         0.00000E+00
    0.34171E+07        -0.61163E+08         0.00000E+00
    0.00000E+00         0.00000E+00        -0.34259E+08
 
   -0.35947E+08         0.48878E+07         0.00000E+00
    0.48878E+07        -0.61680E+08         0.00000E+00
    0.00000E+00         0.00000E+00        -0.34047E+08
 
   -0.34482E+08         0.66217E+07         0.00000E+00
    0.66217E+07        -0.62249E+08         0.00000E+00
    0.00000E+00         0.00000E+00        -0.33868E+08
 
   -0.61814E+08        -0.65185E+06         0.00000E+00
   -0.65185E+06        -0.60018E+08         0.00000E+00
    0.00000E+00         0.00000E+00        -0.37343E+08
 
   -0.58956E+08        -0.15745E+07         0.00000E+00
   -0.15745E+07        -0.60059E+08         0.00000E+00
    0.00000E+00         0.00000E+00        -0.36779E+08
 
   -0.56185E+08        -0.20566E+07         0.00000E+00
   -0.20566E+07        -0.60064E+08         0.00000E+00
    0.00000E+00         0.00000E+00        -0.36226E+08
 
   -0.53607E+08        -0.22084E+07         0.00000E+00
   -0.22084E+07        -0.60001E+08         0.00000E+00
    0.00000E+00         0.00000E+00        -0.35697E+08
 
   -0.51249E+08        -0.21302E+07         0.00000E+00
   -0.21302E+07        -0.59880E+08         0.00000E+00
    0.00000E+00         0.00000E+00        -0.35200E+08
 
   -0.49094E+08        -0.18923E+07         0.00000E+00
   -0.18923E+07        -0.59733E+08         0.00000E+00
    0.00000E+00         0.00000E+00        -0.34739E+08
 
   -0.47100E+08        -0.15358E+07         0.00000E+00
   -0.15358E+07        -0.59595E+08         0.00000E+00
    0.00000E+00         0.00000E+00        -0.34312E+08
 
   -0.45223E+08        -0.10810E+07         0.00000E+00
   -0.10810E+07        -0.59498E+08         0.00000E+00
    0.00000E+00         0.00000E+00        -0.33917E+08
 
   -0.43419E+08        -0.53322E+06         0.00000E+00
   -0.53322E+06        -0.59473E+08         0.00000E+00
    0.00000E+00         0.00000E+00        -0.33550E+08
 
   -0.41647E+08         0.11381E+06         0.00000E+00
    0.11381E+06        -0.59543E+08         0.00000E+00
    0.00000E+00         0.00000E+00        -0.33209E+08
 
   -0.39871E+08         0.87828E+06         0.00000E+00
    0.87828E+06        -0.59732E+08         0.00000E+00
    0.00000E+00         0.00000E+00        -0.32891E+08
 
   -0.38066E+08         0.17927E+07         0.00000E+00
    0.17927E+07        -0.60059E+08         0.00000E+00
    0.00000E+00         0.00000E+00        -0.32595E+08
 
   -0.36226E+08         0.29062E+07         0.00000E+00
    0.29062E+07        -0.60532E+08         0.00000E+00
    0.00000E+00         0.00000E+00        -0.32321E+08
 
   -0.34381E+08         0.42812E+07         0.00000E+00
    0.42812E+07        -0.61138E+08         0.00000E+00
    0.00000E+00         0.00000E+00        -0.32073E+08
 
   -0.32612E+08         0.59773E+07         0.00000E+00
    0.59773E+07        -0.61832E+08         0.00000E+00
    0.00000E+00         0.00000E+00        -0.31858E+08
 
   -0.63008E+08        -0.68774E+06         0.00000E+00
   -0.68774E+06        -0.60015E+08         0.00000E+00
    0.00000E+00         0.00000E+00        -0.36031E+08
 
   -0.59614E+08        -0.15841E+07         0.00000E+00
   -0.15841E+07        -0.60020E+08         0.00000E+00
    0.00000E+00         0.00000E+00        -0.35352E+08
 
   -0.56442E+08        -0.19753E+07         0.00000E+00
   -0.19753E+07        -0.59931E+08         0.00000E+00
    0.00000E+00         0.00000E+00        -0.34700E+08
 
   -0.53600E+08        -0.20429E+07         0.00000E+00
   -0.20429E+07        -0.59731E+08         0.00000E+00
    0.00000E+00         0.00000E+00        -0.34090E+08
 
   -0.51073E+08        -0.19203E+07         0.00000E+00
   -0.19203E+07        -0.59463E+08         0.00000E+00
    0.00000E+00         0.00000E+00        -0.33531E+08
 
   -0.48802E+08        -0.16811E+07         0.00000E+00
   -0.16811E+07        -0.59181E+08         0.00000E+00
    0.00000E+00         0.00000E+00        -0.33019E+08
 
   -0.46718E+08        -0.13603E+07         0.00000E+00
   -0.13603E+07        -0.58927E+08         0.00000E+00
    0.00000E+00         0.00000E+00        -0.32551E+08
 
   -0.44762E+08        -0.97194E+06         0.00000E+00
   -0.97194E+06        -0.58735E+08         0.00000E+00
    0.00000E+00         0.00000E+00        -0.32121E+08
 
   -0.42876E+08        -0.51769E+06         0.00000E+00
   -0.51769E+06        -0.58633E+08         0.00000E+00
    0.00000E+00         0.00000E+00        -0.31723E+08
 
   -0.41009E+08         0.10749E+05         0.00000E+00
    0.10749E+05        -0.58648E+08         0.00000E+00
    0.00000E+00         0.00000E+00        -0.31351E+08
 
   -0.39112E+08         0.63268E+06         0.00000E+00
    0.63268E+06        -0.58803E+08         0.00000E+00
    0.00000E+00         0.00000E+00        -0.31003E+08
 
   -0.37143E+08         0.13835E+07         0.00000E+00
    0.13835E+07        -0.59127E+08         0.00000E+00
    0.00000E+00         0.00000E+00        -0.30673E+08
 
   -0.35071E+08         0.23252E+07         0.00000E+00
    0.23252E+07        -0.59642E+08         0.00000E+00
    0.00000E+00         0.00000E+00        -0.30361E+08
 
   -0.32908E+08         0.35525E+07         0.00000E+00
    0.35525E+07        -0.60351E+08         0.00000E+00
    0.00000E+00         0.00000E+00        -0.30070E+08
 
   -0.30748E+08         0.51763E+07         0.00000E+00
    0.51763E+07        -0.61204E+08         0.00000E+00
    0.00000E+00         0.00000E+00        -0.29809E+08
 
   -0.64215E+08        -0.71025E+06         0.00000E+00
   -0.71025E+06        -0.60006E+08         0.00000E+00
    0.00000E+00         0.00000E+00        -0.34720E+08
 
   -0.60162E+08        -0.14994E+07         0.00000E+00
   -0.14994E+07        -0.59932E+08         0.00000E+00
    0.00000E+00         0.00000E+00        -0.33895E+08
 
   -0.56584E+08        -0.17334E+07         0.00000E+00
   -0.17334E+07        -0.59668E+08         0.00000E+00
    0.00000E+00         0.00000E+00        -0.33126E+08
 
   -0.53528E+08        -0.17033E+07         0.00000E+00
   -0.17033E+07        -0.59264E+08         0.00000E+00
    0.00000E+00         0.00000E+00        -0.32433E+08
 
   -0.50885E+08        -0.15535E+07         0.00000E+00
   -0.15535E+07        -0.58815E+08         0.00000E+00
    0.00000E+00         0.00000E+00        -0.31814E+08
 
   -0.48539E+08        -0.13378E+07         0.00000E+00
   -0.13378E+07        -0.58383E+08         0.00000E+00
    0.00000E+00         0.00000E+00        -0.31258E+08
 
   -0.46399E+08        -0.10767E+07         0.00000E+00
   -0.10767E+07        -0.58010E+08         0.00000E+00
    0.00000E+00         0.00000E+00        -0.30754E+08
 
   -0.44391E+08        -0.77628E+06         0.00000E+00
   -0.77628E+06        -0.57723E+08         0.00000E+00
    0.00000E+00         0.00000E+00        -0.30295E+08
 
   -0.42448E+08        -0.43473E+06         0.00000E+00
   -0.43473E+06        -0.57546E+08         0.00000E+00
    0.00000E+00         0.00000E+00        -0.29870E+08
 
   -0.40512E+08        -0.43758E+05         0.00000E+00
   -0.43758E+05        -0.57503E+08         0.00000E+00
    0.00000E+00         0.00000E+00        -0.29474E+08
 
   -0.38521E+08         0.41328E+06         0.00000E+00
    0.41328E+06        -0.57618E+08         0.00000E+00
    0.00000E+00         0.00000E+00        -0.29098E+08
 
   -0.36413E+08         0.96740E+06         0.00000E+00
    0.96740E+06        -0.57924E+08         0.00000E+00
    0.00000E+00         0.00000E+00        -0.28737E+08
 
   -0.34116E+08         0.16791E+07         0.00000E+00
    0.16791E+07        -0.58462E+08         0.00000E+00
    0.00000E+00         0.00000E+00        -0.28385E+08
 
   -0.31591E+08         0.26768E+07         0.00000E+00
    0.26768E+07        -0.59278E+08         0.00000E+00
    0.00000E+00         0.00000E+00        -0.28043E+08
 
   -0.28918E+08         0.41618E+07         0.00000E+00
    0.41618E+07        -0.60337E+08         0.00000E+00
    0.00000E+00         0.00000E+00        -0.27720E+08
 
   -0.65350E+08        -0.69001E+06         0.00000E+00
   -0.69001E+06        -0.59973E+08         0.00000E+00
    0.00000E+00         0.00000E+00        -0.33391E+08
 
   -0.60498E+08        -0.12052E+07         0.00000E+00
   -0.12052E+07        -0.59692E+08         0.00000E+00
    0.00000E+00         0.00000E+00        -0.32364E+08
 
   -0.56593E+08        -0.12379E+07         0.00000E+00
   -0.12379E+07        -0.59116E+08         0.00000E+00
    0.00000E+00         0.00000E+00        -0.31467E+08
 
   -0.53419E+08        -0.11517E+07         0.00000E+00
   -0.11517E+07        -0.58463E+08         0.00000E+00
    0.00000E+00         0.00000E+00        -0.30701E+08
 
   -0.50718E+08        -0.10212E+07         0.00000E+00
   -0.10212E+07        -0.57832E+08         0.00000E+00
    0.00000E+00         0.00000E+00        -0.30034E+08
 
   -0.48336E+08        -0.86665E+06         0.00000E+00
   -0.86665E+06        -0.57266E+08         0.00000E+00
    0.00000E+00         0.00000E+00        -0.29444E+08
 
   -0.46167E+08        -0.69370E+06         0.00000E+00
   -0.69370E+06        -0.56791E+08         0.00000E+00
    0.00000E+00         0.00000E+00        -0.28915E+08
 
   -0.44129E+08        -0.50254E+06         0.00000E+00
   -0.50254E+06        -0.56427E+08         0.00000E+00
    0.00000E+00         0.00000E+00        -0.28434E+08
 
   -0.42153E+08        -0.29015E+06         0.00000E+00
   -0.29015E+06        -0.56189E+08         0.00000E+00
    0.00000E+00         0.00000E+00        -0.27991E+08
 
   -0.40172E+08        -0.50398E+05         0.00000E+00
   -0.50398E+05        -0.56097E+08         0.00000E+00
    0.00000E+00         0.00000E+00        -0.27576E+08
 
   -0.38119E+08         0.22762E+06         0.00000E+00
    0.22762E+06        -0.56174E+08         0.00000E+00
    0.00000E+00         0.00000E+00        -0.27181E+08
 
   -0.35912E+08         0.56408E+06         0.00000E+00
    0.56408E+06        -0.56452E+08         0.00000E+00
    0.00000E+00         0.00000E+00        -0.26795E+08
 
   -0.33443E+08         0.10005E+07         0.00000E+00
    0.10005E+07        -0.56985E+08         0.00000E+00
    0.00000E+00         0.00000E+00        -0.26407E+08
 
   -0.30545E+08         0.16420E+07         0.00000E+00
    0.16420E+07        -0.57858E+08         0.00000E+00
    0.00000E+00         0.00000E+00        -0.26002E+08
 
   -0.27181E+08         0.28372E+07         0.00000E+00
    0.28372E+07        -0.59192E+08         0.00000E+00
    0.00000E+00         0.00000E+00        -0.25595E+08
 
   -0.66170E+08        -0.43402E+06         0.00000E+00
   -0.43402E+06        -0.59686E+08         0.00000E+00
    0.00000E+00         0.00000E+00        -0.31947E+08
 
   -0.60549E+08        -0.49762E+06         0.00000E+00
   -0.49762E+06        -0.58890E+08         0.00000E+00
    0.00000E+00         0.00000E+00        -0.30663E+08
 
   -0.56546E+08        -0.45715E+06         0.00000E+00
   -0.45715E+06        -0.57997E+08         0.00000E+00
    0.00000E+00         0.00000E+00        -0.29684E+08
 
   -0.53335E+08        -0.41009E+06         0.00000E+00
   -0.41009E+06        -0.57158E+08         0.00000E+00
    0.00000E+00         0.00000E+00        -0.28874E+08
 
   -0.50617E+08        -0.35732E+06         0.00000E+00
   -0.35732E+06        -0.56407E+08         0.00000E+00
    0.00000E+00         0.00000E+00        -0.28180E+08
 
   -0.48224E+08        -0.30061E+06         0.00000E+00
   -0.30061E+06        -0.55760E+08         0.00000E+00
    0.00000E+00         0.00000E+00        -0.27571E+08
 
   -0.46044E+08        -0.23979E+06         0.00000E+00
   -0.23979E+06        -0.55227E+08         0.00000E+00
    0.00000E+00         0.00000E+00        -0.27029E+08
 
   -0.43994E+08        -0.17405E+06         0.00000E+00
   -0.17405E+06        -0.54818E+08         0.00000E+00
    0.00000E+00         0.00000E+00        -0.26537E+08
 
   -0.42002E+08        -0.10195E+06         0.00000E+00
   -0.10195E+06        -0.54546E+08         0.00000E+00
    0.00000E+00         0.00000E+00        -0.26084E+08
 
   -0.40001E+08        -0.21221E+05         0.00000E+00
   -0.21221E+05        -0.54426E+08         0.00000E+00
    0.00000E+00         0.00000E+00        -0.25659E+08
 
   -0.37917E+08         0.71869E+05         0.00000E+00
    0.71869E+05        -0.54479E+08         0.00000E+00
    0.00000E+00         0.00000E+00        -0.25253E+08
 
   -0.35660E+08         0.18403E+06         0.00000E+00
    0.18403E+06        -0.54737E+08         0.00000E+00
    0.00000E+00         0.00000E+00        -0.24853E+08
 
   -0.33097E+08         0.32984E+06         0.00000E+00
    0.32984E+06        -0.55251E+08         0.00000E+00
    0.00000E+00         0.00000E+00        -0.24443E+08
 
   -0.29997E+08         0.54248E+06         0.00000E+00
    0.54248E+06        -0.56124E+08         0.00000E+00
    0.00000E+00         0.00000E+00        -0.23998E+08
 
   -0.25695E+08         0.10409E+07         0.00000E+00
    0.10409E+07        -0.57633E+08         0.00000E+00
    0.00000E+00         0.00000E+00        -0.23439E+08
 
SCALARS stressS double 
LOOKUP_TABLE default
  -55351041.8998337     
  -56262777.0270724     
  -58206517.1334478     
  -60548929.9593286     
  -62814183.6759590     
  -64815056.8484772     
  -66313558.6742885     
  -67542306.5754681     
  -68609035.8455401     
  -69570253.9040699     
  -70464762.0520165     
  -71326769.8800649     
  -72195655.5702366     
  -73130315.6686943     
  -74296036.1957113     
  -57604016.4745340     
  -58654400.4787436     
  -59957350.1319985     
  -61209388.4414556     
  -62489154.1317772     
  -63846054.5841087     
  -65162314.7813113     
  -66308256.7825468     
  -67326542.6771915     
  -68252446.1618607     
  -69115459.7086818     
  -69942513.9973642     
  -70761287.8439940     
  -71607681.3884117     
  -72446999.9149955     
  -58383261.1279569     
  -59426074.3790442     
  -60141673.6997022     
  -60953681.9086825     
  -61994415.3197043     
  -63095559.3816327     
  -64179152.4611063     
  -65199195.6105446     
  -66134597.6694777     
  -66997395.9409028     
  -67803499.3817170     
  -68568766.9739865     
  -69307134.7186087     
  -70017142.1542206     
  -70679222.8660891     
  -58101080.5372082     
  -58908925.6453892     
  -59733486.6975795     
  -60559485.6763604     
  -61440127.6084784     
  -62367088.9507652     
  -63291028.9203118     
  -64179754.9299747     
  -65017381.3294409     
  -65800260.2548436     
  -66533193.3288249     
  -67222132.3769602     
  -67868973.2748023     
  -68467687.6115976     
  -68999675.4151605     
  -57726177.7926887     
  -58519389.4021947     
  -59286773.5987695     
  -60061110.2997079     
  -60848987.4404846     
  -61649174.5603202     
  -62446146.4724393     
  -63220398.2715919     
  -63958900.4207790     
  -64655397.8296147     
  -65307994.6693085     
  -65915982.2289077     
  -66476390.8977981     
  -66981153.7139110     
  -67416017.5629071     
  -57416540.7527971     
  -58138882.6420973     
  -58842518.7094391     
  -59540400.7911118     
  -60239846.2257104     
  -60938779.9166707     
  -61629665.2635279     
  -62302211.5389812     
  -62947008.4149718     
  -63557438.1600610     
  -64129079.2908295     
  -64658071.6268104     
  -65139271.1342199     
  -65564823.8125083     
  -65923616.1371689     
  -57146578.0915273     
  -57779882.7134672     
  -58402323.8187919     
  -59018706.0803357     
  -59631211.6235086     
  -60238472.1311778     
  -60835678.5627542     
  -61416302.7068968     
  -61973623.2388114     
  -62501702.1669506     
  -62995450.3413961     
  -63449951.7838431     
  -63859571.7086872     
  -64217271.2943145     
  -64514457.0032374     
  -56897170.6553301     
  -57435416.0086440     
  -57970837.5300283     
  -58502670.4064195     
  -59030166.1902673     
  -59551175.8815142     
  -60062007.9589005     
  -60557870.5472227     
  -61033583.3100770     
  -61484061.0046325     
  -61904420.4910372     
  -62289749.3897935     
  -62634731.3705935     
  -62933377.6169507     
  -63179052.6244758     
  -56653979.0092283     
  -57098947.9442720     
  -57546944.8341791     
  -57994526.9300545     
  -58439069.1312222     
  -58877792.9757385     
  -59307343.1540334     
  -59723825.3415298     
  -60123029.1281000     
  -60500642.4411948     
  -60852326.1578066     
  -61173647.8517255     
  -61459957.9811421     
  -61706327.8063348     
  -61907654.5631584     
  -56408494.9137725     
  -56765118.8606346     
  -57128440.9890079     
  -57493932.3533112     
  -57858128.3706034     
  -58217924.9353305     
  -58570177.6859474     
  -58911556.9601707     
  -59238562.4084144     
  -59547582.1657626     
  -59834927.2289947     
  -60096823.5927592     
  -60329394.2305553     
  -60528686.7162570     
  -60690798.3701886     
  -56156297.2231755     
  -56430564.0928660     
  -56713253.1156865     
  -56999758.8059244     
  -57286496.1442024     
  -57570417.3225687     
  -57848676.0941890     
  -58118444.2936103     
  -58376839.0189413     
  -58620908.7819134     
  -58847637.7000516     
  -59053952.9421755     
  -59236744.6747239     
  -59392921.9153324     
  -59519527.3680886     
  -55895967.3169549     
  -56093711.5242336     
  -56300023.7172443     
  -56510838.4086407     
  -56722957.6417026     
  -56933718.3934424     
  -57140734.1041700     
  -57341723.6984798     
  -57534416.6223140     
  -57716510.2872238     
  -57885658.5534353     
  -58039479.8486215     
  -58175585.2351472     
  -58291634.0971764     
  -58385425.5288285     
  -55628227.6802473     
  -55754468.4122016     
  -55888199.5585823     
  -56026284.6412061     
  -56166260.9434853     
  -56306110.2528677     
  -56444067.1004313     
  -56578479.1775494     
  -56707719.2348525     
  -56830138.9096938     
  -56944052.9792601     
  -57047745.7818714     
  -57139496.4898720     
  -57217623.5762750     
  -57280549.3038277     
  -55355318.9167873     
  -55413875.9539285     
  -55477942.7838662     
  -55545563.1660028     
  -55615249.3353303     
  -55685822.2958682     
  -55756273.6059416     
  -55825660.7624802     
  -55893038.8237076     
  -55957424.1879296     
  -56017783.5205737     
  -56073041.0260985     
  -56122099.1064205     
  -56163869.2657449     
  -56197310.8030109     
  -55080531.0235360     
  -55073793.2348006     
  -55069965.6067170     
  -55068440.8828285     
  -55068872.3839973     
  -55071060.7686160     
  -55074857.4877556     
  -55080093.9243524     
  -55086538.5205565     
  -55093878.8902488     
  -55101722.8426689     
  -55109611.3644959     
  -55117037.2266985     
  -55123464.1162585     
  -55128342.3309710     
  -54807839.7002371     
  -54736615.6183593     
  -54665338.9946658     
  -54594871.8144214     
  -54526125.6374253     
  -54459978.5326986     
  -54397211.1801030     
  -54338468.1586399     
  -54284244.6170518     
  -54234893.7389226     
  -54190647.4243701     
  -54151641.5187589     
  -54117937.3709694     
  -54089532.9428781     
  -54066358.5994671     
  -54541611.6202547     
  -54405022.1882312     
  -54265292.3970085     
  -54124848.1959783     
  -53985944.9200591     
  -53850602.1117346     
  -53720566.2091348     
  -53597304.3147008     
  -53482025.8031600     
  -53375723.5270038     
  -53279223.4502558     
  -53193230.7160926     
  -53118361.0922243     
  -53055148.9580977     
  -53004026.0231057     
  -54286354.7535905     
  -54081742.2190820     
  -53871007.1571943     
  -53658226.7015999     
  -53447066.9820346     
  -53240725.4238406     
  -53041916.9857492     
  -52852904.3390581     
  -52675563.5545713     
  -52511471.0817784     
  -52361995.0232669     
  -52228373.5883036     
  -52111765.5674667     
  -52013261.1632884     
  -51933846.0638426     
  -54046497.3939394     
  -53769329.2598534     
  -53483397.7321836     
  -53194528.5387635     
  -52907858.0778246     
  -52627773.1797414     
  -52357921.5840216     
  -52101288.1717049     
  -51860320.2075762     
  -51637078.1295690     
  -51433386.3513640     
  -51250959.8263952     
  -51091485.6395022     
  -50956644.0465675     
  -50848059.9237899     
  -53826184.3371591     
  -53469929.4579045     
  -53102867.8879174     
  -52732703.0272427     
  -52366103.6789884     
  -52008631.1138970     
  -51664780.5635027     
  -51338122.5337516     
  -51031512.9526913     
  -50747334.5147428     
  -50487731.9690507     
  -50254808.0944148     
  -50050752.5538156     
  -49877882.6584008     
  -49738583.8602489     
  -53629080.9916041     
  -53185026.1872013     
  -52729020.0243404     
  -52270834.0980317     
  -51818743.9329854     
  -51379434.6692942     
  -50958092.5204882     
  -50558646.4877316     
  -50184103.8147854     
  -49836920.1263042     
  -49519352.6371058     
  -49233753.6321467     
  -48982768.5322593     
  -48769409.6138875     
  -48596987.3372380     
  -53458175.4617546     
  -52915132.7817846     
  -52360280.7978208     
  -51805754.7878281     
  -51261529.2811599     
  -50735302.6288927     
  -50232683.9268933     
  -49757599.9176553     
  -49312818.2568662     
  -48900497.5893478     
  -48522699.5415473     
  -48181815.1908608     
  -47880862.8660267     
  -47623616.1847206     
  -47414529.7901151     
  -53315562.4739679     
  -52659383.0521248     
  -51993378.8310081     
  -51332512.3735778     
  -50688558.4085486     
  -50069999.2664944     
  -49482413.0805389     
  -48929164.5710757     
  -48412208.3643725     
  -47932877.6038848     
  -47492595.8083507     
  -47093476.2090394     
  -46738766.2778051     
  -46433068.7592685     
  -46182276.1824049     
  -53202174.7544416     
  -52414921.7002617     
  -51622557.5096115     
  -50843591.1491043     
  -50091648.8906586     
  -49375513.8014351     
  -48699958.3721716     
  -48066934.5519434     
  -47476778.6478899     
  -46929280.6491172     
  -46424610.0465581     
  -45964130.0398925     
  -45551059.2209676     
  -45190879.7330223     
  -44891317.5348385     
  -53117382.7601950     
  -52175886.9255060     
  -51238301.4834606     
  -50327745.3428025     
  -49459491.7208578     
  -48641575.3611887     
  -47876628.5524494     
  -47163944.2720419     
  -46501189.5532621     
  -45885707.9809491     
  -45315601.0886518     
  -44790756.6665098     
  -44313892.3021046     
  -43891315.2419231     
  -43533137.9674560     
  -53058247.2799896     
  -51931519.4243702     
  -50825132.8729176     
  -49768231.6840706     
  -48776600.7034240     
  -47855206.6560211     
  -47002291.4689946     
  -46212794.4271261     
  -45480527.0702745     
  -44799408.8401777     
  -44164436.6736542     
  -43572950.2420930     
  -43026133.5726352     
  -42530833.5462772     
  -42100189.7823632     
  -53017879.9551874     
  -51662149.5724341     
  -50357609.7035509     
  -49140262.7895948     
  -48022303.3229619     
  -47000640.6966661     
  -46065576.4578368     
  -45205920.5828292     
  -44410595.5998819     
  -43669284.4766798     
  -42972883.5950371     
  -42314309.0271959     
  -41691428.3547691     
  -41109846.2417766     
  -40586935.9243626     
  -52980306.5181197     
  -51329882.6741326     
  -49792838.1214789     
  -48408121.4012676     
  -47170986.4822232     
  -46060026.1079337     
  -45054544.8339933     
  -44136032.4774149     
  -43288131.5080638     
  -42496036.3312449     
  -41745913.3987729     
  -41024794.1161456     
  -40321125.0594285     
  -39637135.4110812     
  -38991345.7805289     
  -52904442.5887620     
  -50851249.0847852     
  -49058885.1875537     
  -47527835.6754870     
  -46194517.9643760     
  -45015405.6248360     
  -43957901.8963265     
  -42996705.0407272     
  -42110861.0322804     
  -41281706.6785116     
  -40491130.8971230     
  -39719664.6486732     
  -38944826.3550435     
  -38134900.6539417     
  -37322735.9930536     
  -52601004.6953340     
  -50033941.2389220     
  -48075627.8050506     
  -46455463.7583860     
  -45067942.2521062     
  -43851755.7866169     
  -42766616.5244900     
  -41783034.8619696     
  -40877359.7143447     
  -40028682.5590851     
  -39216275.5369802     
  -38416532.7472987     
  -37597279.9012355     
  -36705912.5175883     
  -35589155.1501042     
SCALARS 2waySource double 
LOOKUP_TABLE default
  6.476288282161733E-006
  4.778830674967900E-006
  3.705180646013304E-006
  2.940460622140325E-006
  2.372955412293026E-006
  1.937392154865492E-006
  1.592148756846185E-006
  1.307970984281619E-006
  1.062566855468464E-006
  8.373222086428153E-007
  6.148344053196640E-007
  3.764241507918876E-007
  9.823352488885178E-008
 -2.546264913090411E-007
 -7.813383630833791E-007
  6.583562985548950E-006
  5.415153187976583E-006
  4.512574539094655E-006
  3.846787167431311E-006
  3.340241291934447E-006
  2.945745984523969E-006
  2.629852214223075E-006
  2.368039004914773E-006
  2.141145652258946E-006
  1.933055894552443E-006
  1.728887760281922E-006
  1.513220558490825E-006
  1.268263693907594E-006
  9.679334400000058E-007
  5.864257102973453E-007
  6.492491441653843E-006
  5.758261574946665E-006
  5.113303762551081E-006
  4.593424284532228E-006
  4.182744379111300E-006
  3.854807238773625E-006
  3.587879975811435E-006
  3.364335155660860E-006
  3.169753585886097E-006
  2.991831749491320E-006
  2.819436989485817E-006
  2.641846121277885E-006
  2.447860387930875E-006
  2.227313242785354E-006
  1.975884589902104E-006
  6.352771131854444E-006
  5.948517691619764E-006
  5.551408327465967E-006
  5.200511223651034E-006
  4.905742562629551E-006
  4.661472049510090E-006
  4.457625050255574E-006
  4.284238967883482E-006
  4.132330811261519E-006
  3.993987144102214E-006
  3.862226715209820E-006
  3.730910422559771E-006
  3.595235966770169E-006
  3.453316907264241E-006
  3.311418369286877E-006
  6.193795235528228E-006
  6.054887049675830E-006
  5.875065642778572E-006
  5.689755343324433E-006
  5.517810343749040E-006
  5.365697607597362E-006
  5.233227083674096E-006
  5.117508023686099E-006
  5.014908757956125E-006
  4.921882827381305E-006
  4.835411633369180E-006
  4.753453846529203E-006
  4.675720102112757E-006
  4.605361587256704E-006
  4.551437075603525E-006
  6.027775340951247E-006
  6.108252857656947E-006
  6.115206756506801E-006
  6.081175204731360E-006
  6.028252592581228E-006
  5.969369261947124E-006
  5.911098311659772E-006
  5.856324923767480E-006
  5.806107276078450E-006
  5.760827884059468E-006
  5.720961875714522E-006
  5.687764561677835E-006
  5.664140074324390E-006
  5.655809731331994E-006
  5.672645656814672E-006
  5.861965398825113E-006
  6.124721286657947E-006
  6.290191497047019E-006
  6.389333360137577E-006
  6.445567766845998E-006
  6.475318454535894E-006
  6.489497791894442E-006
  6.495228219869791E-006
  6.497328183267863E-006
  6.499442951415400E-006
  6.504913324599071E-006
  6.517538238599022E-006
  6.542356676178876E-006
  6.586484396059253E-006
  6.659855386786624E-006
  5.701631062882248E-006
  6.113867934020734E-006
  6.411419189884224E-006
  6.624364183655393E-006
  6.776702682088978E-006
  6.886771889501843E-006
  6.968178271094565E-006
  7.030961566252228E-006
  7.082731879095694E-006
  7.129654687435806E-006
  7.177280057065109E-006
  7.231269956063043E-006
  7.298073728817405E-006
  7.385546222977623E-006
  7.503425988328129E-006
  5.550855983423339E-006
  6.082123738796719E-006
  6.486588696511705E-006
  6.793640263994886E-006
  7.027403855894787E-006
  7.207186715303949E-006
  7.348177571931357E-006
  7.462300104981551E-006
  7.559092934536530E-006
  7.646529837916465E-006
  7.731750102137871E-006
  7.821704741099789E-006
  7.923727781635567E-006
  8.046019240113519E-006
  8.197994335346555E-006
  5.412845245443577E-006
  6.034271003523342E-006
  6.521485987704552E-006
  6.903048245288119E-006
  7.202804506006045E-006
  7.440372202329123E-006
  7.631730113466327E-006
  7.789891654422365E-006
  7.925604069616911E-006
  8.048022433046719E-006
  8.165328863986801E-006
  8.285285213577104E-006
  8.415712247849017E-006
  8.564880978550740E-006
  8.741791754167365E-006
  5.290063483509356E-006
  5.974170791950358E-006
  6.520951528715423E-006
  6.957812992299009E-006
  7.307917498068463E-006
  7.590670097268311E-006
  7.822238872954475E-006
  8.016109897666514E-006
  8.183654777644237E-006
  8.334683076484983E-006
  8.477957389190062E-006
  8.621656171670026E-006
  8.773772810059946E-006
  8.942438423192987E-006
  9.136154415971675E-006
  5.184321742852245E-006
  5.905135750171861E-006
  6.489399866314930E-006
  6.962979610867157E-006
  7.347955559185079E-006
  7.663081266637834E-006
  7.924238287855123E-006
  8.144898922860992E-006
  8.336590289362979E-006
  8.509345474696677E-006
  8.672126617262276E-006
  8.833206776363884E-006
  9.000499318672587E-006
  9.181824548628910E-006
  9.385104823305542E-006
  5.096850306372698E-006
  5.830124691741282E-006
  6.431083211433929E-006
  6.923659857559784E-006
  7.328488588495933E-006
  7.663301103081932E-006
  7.943310058892967E-006
  8.181588783874525E-006
  8.389447056022703E-006
  8.576795510933240E-006
  8.752488349796469E-006
  8.924633717361164E-006
  9.100861940161383E-006
  9.288543179402891E-006
  9.494948285328692E-006
  5.028368755804831E-006
  5.751838923214843E-006
  6.350201101524661E-006
  6.845118531643227E-006
  7.255469607326137E-006
  7.597662762379873E-006
  7.885939232640244E-006
  8.132671961186019E-006
  8.348661364883854E-006
  8.543423198114491E-006
  8.725460677304201E-006
  8.902511942719401E-006
  9.081764215811476E-006
  9.270027280697174E-006
  9.473861134371217E-006
  4.979154173462167E-006
  5.672759226077550E-006
  6.250912669646612E-006
  6.732750595801435E-006
  7.135161188763653E-006
  7.473001554960368E-006
  7.759313164209564E-006
  8.005540396507682E-006
  8.221751718434649E-006
  8.416858898446015E-006
  8.598826994625126E-006
  8.774866679490935E-006
  8.951600592452969E-006
  9.135196586962940E-006
  9.331462808939516E-006
  4.949104781927812E-006
  5.595143577939163E-006
  6.137284653886792E-006
  6.591983242588797E-006
  6.973989341922232E-006
  7.296457953591758E-006
  7.571073562208731E-006
  7.808189618955941E-006
  8.016980279603197E-006
  8.205598403740356E-006
  8.381331584327710E-006
  8.550747020933743E-006
  8.719816306062306E-006
  8.894012436395575E-006
  9.078373376217563E-006
  4.937795584146327E-006
  5.520996735282352E-006
  6.013195723841139E-006
  6.428126562343725E-006
  6.778346532850569E-006
  7.075236635151299E-006
  7.329034958529593E-006
  7.548900597792531E-006
  7.743002566653674E-006
  7.918625122311577E-006
  8.082278940747296E-006
  8.239807005755853E-006
  8.396474745865286E-006
  8.557035505277357E-006
  8.725764553720141E-006
  4.944523072017810E-006
  5.452018279865247E-006
  5.882210402956992E-006
  6.246189335040610E-006
  6.554360734673425E-006
  6.816337203465653E-006
  7.040883635808904E-006
  7.235912095764400E-006
  7.408517389378009E-006
  7.565040829035473E-006
  7.711147783911627E-006
  7.851904692007933E-006
  7.991842735708073E-006
  8.134997593720247E-006
  8.284917054023249E-006
  4.968337036537307E-006
  5.389533050009422E-006
  5.747430808286544E-006
  6.050670859679712E-006
  6.307642838906791E-006
  6.526269585182640E-006
  6.713870356495583E-006
  6.877097149306317E-006
  7.021930899204110E-006
  7.153719003801802E-006
  7.277233833454032E-006
  7.396733344050058E-006
  7.516008117841781E-006
  7.638402545287848E-006
  7.766800559165475E-006
  5.008058548392641E-006
  5.334405537122263E-006
  5.611329696020401E-006
  5.845334142347063E-006
  6.043019803720050E-006
  6.210763732200129E-006
  6.354508747383390E-006
  6.479657434472063E-006
  6.591049926104327E-006
  6.692996841129762E-006
  6.789337955374125E-006
  6.883501704533808E-006
  6.978547004399978E-006
  7.077174236846735E-006
  7.181695061899618E-006
  5.062283991104392E-006
  5.286936583505402E-006
  5.475562203570199E-006
  5.632958735637923E-006
  5.764254819007569E-006
  5.874479217946782E-006
  5.968289390300266E-006
  6.049849273461307E-006
  6.122820949486675E-006
  6.190423852156862E-006
  6.255518489885455E-006
  6.320682681963587E-006
  6.388260433816708E-006
  6.460371712342559E-006
  6.538873896266702E-006
  5.129375191353346E-006
  5.246734895010548E-006
  5.340743945301961E-006
  5.415061218504177E-006
  5.473747783677023E-006
  5.520715884347272E-006
  5.559418355770546E-006
  5.592755671794736E-006
  5.623132587347304E-006
  5.652586905565869E-006
  5.682928651553650E-006
  5.715852013040004E-006
  5.753002364460599E-006
  5.795993463952247E-006
  5.846369828441999E-006
  5.207434388027067E-006
  5.212544171277961E-006
  5.206165643003654E-006
  5.191554910910780E-006
  5.172199163863923E-006
  5.151123302448852E-006
  5.130589853458163E-006
  5.112121079548392E-006
  5.096701714131043E-006
  5.085033463841528E-006
  5.077762118800498E-006
  5.075640908239037E-006
  5.079623875217338E-006
  5.090895401811485E-006
  5.110846851214914E-006
  5.294257805904422E-006
  5.181981642120028E-006
  5.069380175005650E-006
  4.960293617023294E-006
  4.858209466939786E-006
  4.765409100066204E-006
  4.682809551697278E-006
  4.610270680648220E-006
  4.547065129716789E-006
  4.492315996786266E-006
  4.445331515854088E-006
  4.405830977233731E-006
  4.374062959796760E-006
  4.350852967606081E-006
  4.337603175373591E-006
  5.387249567418651E-006
  5.151083375785468E-006
  4.925526925446251E-006
  4.716401154814567E-006
  4.527784759753685E-006
  4.361067265062519E-006
  4.215304379956026E-006
  4.088142996018698E-006
  3.976696831222708E-006
  3.878175118217970E-006
  3.790307798638483E-006
  3.711623639586098E-006
  3.641623684973074E-006
  3.580807838352131E-006
  3.530742461421216E-006
  5.483231812209778E-006
  5.113401021836332E-006
  4.766094601825161E-006
  4.451235725961063E-006
  4.173764785512381E-006
  3.933213729963374E-006
  3.725595069942033E-006
  3.545466222828523E-006
  3.387249584236794E-006
  3.245866961883809E-006
  3.117132616163482E-006
  2.998148460364035E-006
  2.887494353224016E-006
  2.785390990966392E-006
  2.693569073735244E-006
  5.577999644395230E-006
  5.057873613328340E-006
  4.576488486912758E-006
  4.150859757733168E-006
  3.785392394888502E-006
  3.474787253575913E-006
  3.209834133664553E-006
  2.981093069669585E-006
  2.779877800063689E-006
  2.598548833343666E-006
  2.430650609120020E-006
  2.271212824536145E-006
  2.117740764671335E-006
  1.969775056998035E-006
  1.829426439163083E-006
  5.664422201125451E-006
  4.963280384877028E-006
  4.331051015619470E-006
  3.794480435844917E-006
  3.349032639257368E-006
  2.977401026364888E-006
  2.663497014372329E-006
  2.393463165444750E-006
  2.155533006103488E-006
  1.939550881602767E-006
  1.736587023523618E-006
  1.538884645577149E-006
  1.340465526949851E-006
  1.141886346692089E-006
  9.430242343689292E-007
  5.725718941566457E-006
  4.779011028422665E-006
  3.985634828750542E-006
  3.357868986408505E-006
  2.850594129240598E-006
  2.433023796421371E-006
  2.082355099614344E-006
  1.781105102983055E-006
  1.515113429007847E-006
  1.272245336136414E-006
  1.041416120507290E-006
  8.117713657334328E-007
  5.722451317850236E-007
  3.120628698354360E-007
  4.690895090611399E-008
  5.650809460884285E-006
  4.381503303054851E-006
  3.498552186585810E-006
  2.820814443578758E-006
  2.279707038201250E-006
  1.835959977119720E-006
  1.463479563804270E-006
  1.143058376359408E-006
  8.594219200195348E-007
  5.994671057571343E-007
  3.509282217883258E-007
  1.009916352735294E-007
 -1.656690296717063E-007
 -4.710268657558916E-007
 -8.464344179221545E-007
SCALARS poroP double 
LOOKUP_TABLE default
  5.202765729064762E-005
  3.478438222233338E-005
  2.033922206311786E-005
  8.815568906826070E-006
  1.165087325194126E-006
  0.000000000000000E+000
  0.000000000000000E+000
  0.000000000000000E+000
  0.000000000000000E+000
  0.000000000000000E+000
  0.000000000000000E+000
  0.000000000000000E+000
  0.000000000000000E+000
  0.000000000000000E+000
  0.000000000000000E+000
  2.200123869729448E-005
  1.205615367026657E-005
  4.092008344561555E-006
  7.643721887685024E-008
  0.000000000000000E+000
  0.000000000000000E+000
  0.000000000000000E+000
  0.000000000000000E+000
  0.000000000000000E+000
  0.000000000000000E+000
  0.000000000000000E+000
  0.000000000000000E+000
  0.000000000000000E+000
  0.000000000000000E+000
  0.000000000000000E+000
  3.735757183731499E-006
  0.000000000000000E+000
  0.000000000000000E+000
  0.000000000000000E+000
  0.000000000000000E+000
  0.000000000000000E+000
  0.000000000000000E+000
  0.000000000000000E+000
  0.000000000000000E+000
  0.000000000000000E+000
  0.000000000000000E+000
  0.000000000000000E+000
  0.000000000000000E+000
  0.000000000000000E+000
  0.000000000000000E+000
  0.000000000000000E+000
  0.000000000000000E+000
  0.000000000000000E+000
  0.000000000000000E+000
  0.000000000000000E+000
  0.000000000000000E+000
  0.000000000000000E+000
  0.000000000000000E+000
  0.000000000000000E+000
  0.000000000000000E+000
  0.000000000000000E+000
  0.000000000000000E+000
  0.000000000000000E+000
  0.000000000000000E+000
  0.000000000000000E+000
  0.000000000000000E+000
  0.000000000000000E+000
  0.000000000000000E+000
  0.000000000000000E+000
  0.000000000000000E+000
  0.000000000000000E+000
  0.000000000000000E+000
  0.000000000000000E+000
  0.000000000000000E+000
  0.000000000000000E+000
  0.000000000000000E+000
  0.000000000000000E+000
  0.000000000000000E+000
  0.000000000000000E+000
  0.000000000000000E+000
  0.000000000000000E+000
  0.000000000000000E+000
  0.000000000000000E+000
  0.000000000000000E+000
  0.000000000000000E+000
  0.000000000000000E+000
  0.000000000000000E+000
  0.000000000000000E+000
  0.000000000000000E+000
  0.000000000000000E+000
  0.000000000000000E+000
  0.000000000000000E+000
  0.000000000000000E+000
  0.000000000000000E+000
  0.000000000000000E+000
  0.000000000000000E+000
  0.000000000000000E+000
  0.000000000000000E+000
  0.000000000000000E+000
  0.000000000000000E+000
  0.000000000000000E+000
  0.000000000000000E+000
  0.000000000000000E+000
  0.000000000000000E+000
  0.000000000000000E+000
  0.000000000000000E+000
  0.000000000000000E+000
  0.000000000000000E+000
  0.000000000000000E+000
  0.000000000000000E+000
  0.000000000000000E+000
  0.000000000000000E+000
  0.000000000000000E+000
  0.000000000000000E+000
  0.000000000000000E+000
  0.000000000000000E+000
  0.000000000000000E+000
  0.000000000000000E+000
  0.000000000000000E+000
  0.000000000000000E+000
  0.000000000000000E+000
  0.000000000000000E+000
  0.000000000000000E+000
  0.000000000000000E+000
  0.000000000000000E+000
  0.000000000000000E+000
  0.000000000000000E+000
  0.000000000000000E+000
  0.000000000000000E+000
  0.000000000000000E+000
  0.000000000000000E+000
  0.000000000000000E+000
  0.000000000000000E+000
  0.000000000000000E+000
  0.000000000000000E+000
  0.000000000000000E+000
  0.000000000000000E+000
  0.000000000000000E+000
  0.000000000000000E+000
  0.000000000000000E+000
  0.000000000000000E+000
  0.000000000000000E+000
  0.000000000000000E+000
  0.000000000000000E+000
  0.000000000000000E+000
  0.000000000000000E+000
  0.000000000000000E+000
  0.000000000000000E+000
  0.000000000000000E+000
  0.000000000000000E+000
  0.000000000000000E+000
  0.000000000000000E+000
  0.000000000000000E+000
  0.000000000000000E+000
  0.000000000000000E+000
  0.000000000000000E+000
  0.000000000000000E+000
  0.000000000000000E+000
  0.000000000000000E+000
  0.000000000000000E+000
  0.000000000000000E+000
  0.000000000000000E+000
  0.000000000000000E+000
  0.000000000000000E+000
  0.000000000000000E+000
  0.000000000000000E+000
  0.000000000000000E+000
  0.000000000000000E+000
  0.000000000000000E+000
  0.000000000000000E+000
  0.000000000000000E+000
  0.000000000000000E+000
  0.000000000000000E+000
  0.000000000000000E+000
  0.000000000000000E+000
  0.000000000000000E+000
  0.000000000000000E+000
  0.000000000000000E+000
  0.000000000000000E+000
  0.000000000000000E+000
  0.000000000000000E+000
  0.000000000000000E+000
  0.000000000000000E+000
  0.000000000000000E+000
  0.000000000000000E+000
  0.000000000000000E+000
  0.000000000000000E+000
  0.000000000000000E+000
  0.000000000000000E+000
  0.000000000000000E+000
  0.000000000000000E+000
  0.000000000000000E+000
  0.000000000000000E+000
  0.000000000000000E+000
  0.000000000000000E+000
  0.000000000000000E+000
  0.000000000000000E+000
  0.000000000000000E+000
  0.000000000000000E+000
  0.000000000000000E+000
  0.000000000000000E+000
  0.000000000000000E+000
  0.000000000000000E+000
  0.000000000000000E+000
  0.000000000000000E+000
  0.000000000000000E+000
  0.000000000000000E+000
  0.000000000000000E+000
  0.000000000000000E+000
  0.000000000000000E+000
  0.000000000000000E+000
  0.000000000000000E+000
  0.000000000000000E+000
  0.000000000000000E+000
  0.000000000000000E+000
  0.000000000000000E+000
  0.000000000000000E+000
  0.000000000000000E+000
  0.000000000000000E+000
  0.000000000000000E+000
  0.000000000000000E+000
  0.000000000000000E+000
  0.000000000000000E+000
  0.000000000000000E+000
  0.000000000000000E+000
  0.000000000000000E+000
  0.000000000000000E+000
  0.000000000000000E+000
  0.000000000000000E+000
  0.000000000000000E+000
  0.000000000000000E+000
  0.000000000000000E+000
  0.000000000000000E+000
  0.000000000000000E+000
  0.000000000000000E+000
  0.000000000000000E+000
  0.000000000000000E+000
  0.000000000000000E+000
  0.000000000000000E+000
  0.000000000000000E+000
  0.000000000000000E+000
  0.000000000000000E+000
  0.000000000000000E+000
  0.000000000000000E+000
  0.000000000000000E+000
  0.000000000000000E+000
  0.000000000000000E+000
  0.000000000000000E+000
  0.000000000000000E+000
  0.000000000000000E+000
  0.000000000000000E+000
  0.000000000000000E+000
  0.000000000000000E+000
  0.000000000000000E+000
  0.000000000000000E+000
  0.000000000000000E+000
  0.000000000000000E+000
  0.000000000000000E+000
  0.000000000000000E+000
  0.000000000000000E+000
  0.000000000000000E+000
  0.000000000000000E+000
  0.000000000000000E+000
  0.000000000000000E+000
  0.000000000000000E+000
  0.000000000000000E+000
  0.000000000000000E+000
  0.000000000000000E+000
  0.000000000000000E+000
  0.000000000000000E+000
  0.000000000000000E+000
  0.000000000000000E+000
  0.000000000000000E+000
  0.000000000000000E+000
  0.000000000000000E+000
  0.000000000000000E+000
  0.000000000000000E+000
  0.000000000000000E+000
  0.000000000000000E+000
  0.000000000000000E+000
  0.000000000000000E+000
  0.000000000000000E+000
  0.000000000000000E+000
  0.000000000000000E+000
  0.000000000000000E+000
  0.000000000000000E+000
  0.000000000000000E+000
  0.000000000000000E+000
  0.000000000000000E+000
  0.000000000000000E+000
  0.000000000000000E+000
  0.000000000000000E+000
  0.000000000000000E+000
  0.000000000000000E+000
  0.000000000000000E+000
  0.000000000000000E+000
  0.000000000000000E+000
  0.000000000000000E+000
  0.000000000000000E+000
  0.000000000000000E+000
  0.000000000000000E+000
  0.000000000000000E+000
  0.000000000000000E+000
  0.000000000000000E+000
  0.000000000000000E+000
  0.000000000000000E+000
  0.000000000000000E+000
  0.000000000000000E+000
  0.000000000000000E+000
  0.000000000000000E+000
  0.000000000000000E+000
  0.000000000000000E+000
  0.000000000000000E+000
  0.000000000000000E+000
  0.000000000000000E+000
  0.000000000000000E+000
  0.000000000000000E+000
  0.000000000000000E+000
  0.000000000000000E+000
  0.000000000000000E+000
  0.000000000000000E+000
  0.000000000000000E+000
  0.000000000000000E+000
  0.000000000000000E+000
  0.000000000000000E+000
  0.000000000000000E+000
  0.000000000000000E+000
  0.000000000000000E+000
  0.000000000000000E+000
  0.000000000000000E+000
  0.000000000000000E+000
  0.000000000000000E+000
  0.000000000000000E+000
  0.000000000000000E+000
  0.000000000000000E+000
  0.000000000000000E+000
  0.000000000000000E+000
  0.000000000000000E+000
  0.000000000000000E+000
  0.000000000000000E+000
  0.000000000000000E+000
  0.000000000000000E+000
  0.000000000000000E+000
  0.000000000000000E+000
  0.000000000000000E+000
  0.000000000000000E+000
  0.000000000000000E+000
  0.000000000000000E+000
  0.000000000000000E+000
  0.000000000000000E+000
  0.000000000000000E+000
  0.000000000000000E+000
  0.000000000000000E+000
  0.000000000000000E+000
  0.000000000000000E+000
  0.000000000000000E+000
  0.000000000000000E+000
  0.000000000000000E+000
  0.000000000000000E+000
  0.000000000000000E+000
  0.000000000000000E+000
  0.000000000000000E+000
  0.000000000000000E+000
  0.000000000000000E+000
  0.000000000000000E+000
  0.000000000000000E+000
  0.000000000000000E+000
  0.000000000000000E+000
  0.000000000000000E+000
  0.000000000000000E+000
  0.000000000000000E+000
  0.000000000000000E+000
  0.000000000000000E+000
  0.000000000000000E+000
  0.000000000000000E+000
  0.000000000000000E+000
  0.000000000000000E+000
  0.000000000000000E+000
  0.000000000000000E+000
  0.000000000000000E+000
  0.000000000000000E+000
  0.000000000000000E+000
  0.000000000000000E+000
  0.000000000000000E+000
  0.000000000000000E+000
  0.000000000000000E+000
  0.000000000000000E+000
  0.000000000000000E+000
  0.000000000000000E+000
  0.000000000000000E+000
  0.000000000000000E+000
  0.000000000000000E+000
  0.000000000000000E+000
  0.000000000000000E+000
  0.000000000000000E+000
  0.000000000000000E+000
  0.000000000000000E+000
  0.000000000000000E+000
  0.000000000000000E+000
  0.000000000000000E+000
  0.000000000000000E+000
  0.000000000000000E+000
  0.000000000000000E+000
  0.000000000000000E+000
  0.000000000000000E+000
  0.000000000000000E+000
  0.000000000000000E+000
  0.000000000000000E+000
  0.000000000000000E+000
  0.000000000000000E+000
  0.000000000000000E+000
  0.000000000000000E+000
  0.000000000000000E+000
  0.000000000000000E+000
  0.000000000000000E+000
  0.000000000000000E+000
  0.000000000000000E+000
  0.000000000000000E+000
  0.000000000000000E+000
  0.000000000000000E+000
  0.000000000000000E+000
  0.000000000000000E+000
  0.000000000000000E+000
  0.000000000000000E+000
  0.000000000000000E+000
  0.000000000000000E+000
  0.000000000000000E+000
  0.000000000000000E+000
  0.000000000000000E+000
  0.000000000000000E+000
  0.000000000000000E+000
  0.000000000000000E+000
  0.000000000000000E+000
  0.000000000000000E+000
  0.000000000000000E+000
  0.000000000000000E+000
  0.000000000000000E+000
  0.000000000000000E+000
  0.000000000000000E+000
  0.000000000000000E+000
  0.000000000000000E+000
  0.000000000000000E+000
  0.000000000000000E+000
  0.000000000000000E+000
  0.000000000000000E+000
  0.000000000000000E+000
  0.000000000000000E+000
  0.000000000000000E+000
  0.000000000000000E+000
  0.000000000000000E+000
  0.000000000000000E+000
  0.000000000000000E+000
  0.000000000000000E+000
  0.000000000000000E+000
  0.000000000000000E+000
SCALARS elementIsPlast double 
LOOKUP_TABLE default
  0.000000000000000E+000
  0.000000000000000E+000
  0.000000000000000E+000
  0.000000000000000E+000
  0.000000000000000E+000
  0.000000000000000E+000
  0.000000000000000E+000
  0.000000000000000E+000
  0.000000000000000E+000
  0.000000000000000E+000
  0.000000000000000E+000
  0.000000000000000E+000
  0.000000000000000E+000
  0.000000000000000E+000
  0.000000000000000E+000
  0.000000000000000E+000
  0.000000000000000E+000
  0.000000000000000E+000
  0.000000000000000E+000
  0.000000000000000E+000
  0.000000000000000E+000
  0.000000000000000E+000
  0.000000000000000E+000
  0.000000000000000E+000
  0.000000000000000E+000
  0.000000000000000E+000
  0.000000000000000E+000
  0.000000000000000E+000
  0.000000000000000E+000
  0.000000000000000E+000
  0.000000000000000E+000
  0.000000000000000E+000
  0.000000000000000E+000
  0.000000000000000E+000
  0.000000000000000E+000
  0.000000000000000E+000
  0.000000000000000E+000
  0.000000000000000E+000
  0.000000000000000E+000
  0.000000000000000E+000
  0.000000000000000E+000
  0.000000000000000E+000
  0.000000000000000E+000
  0.000000000000000E+000
  0.000000000000000E+000
  0.000000000000000E+000
  0.000000000000000E+000
  0.000000000000000E+000
  0.000000000000000E+000
  0.000000000000000E+000
  0.000000000000000E+000
  0.000000000000000E+000
  0.000000000000000E+000
  0.000000000000000E+000
  0.000000000000000E+000
  0.000000000000000E+000
  0.000000000000000E+000
  0.000000000000000E+000
  0.000000000000000E+000
  0.000000000000000E+000
  0.000000000000000E+000
  0.000000000000000E+000
  0.000000000000000E+000
  0.000000000000000E+000
  0.000000000000000E+000
  0.000000000000000E+000
  0.000000000000000E+000
  0.000000000000000E+000
  0.000000000000000E+000
  0.000000000000000E+000
  0.000000000000000E+000
  0.000000000000000E+000
  0.000000000000000E+000
  0.000000000000000E+000
  0.000000000000000E+000
  0.000000000000000E+000
  0.000000000000000E+000
  0.000000000000000E+000
  0.000000000000000E+000
  0.000000000000000E+000
  0.000000000000000E+000
  0.000000000000000E+000
  0.000000000000000E+000
  0.000000000000000E+000
  0.000000000000000E+000
  0.000000000000000E+000
  0.000000000000000E+000
  0.000000000000000E+000
  0.000000000000000E+000
  0.000000000000000E+000
  0.000000000000000E+000
  0.000000000000000E+000
  0.000000000000000E+000
  0.000000000000000E+000
  0.000000000000000E+000
  0.000000000000000E+000
  0.000000000000000E+000
  0.000000000000000E+000
  0.000000000000000E+000
  0.000000000000000E+000
  0.000000000000000E+000
  0.000000000000000E+000
  0.000000000000000E+000
  0.000000000000000E+000
  0.000000000000000E+000
  0.000000000000000E+000
  0.000000000000000E+000
  0.000000000000000E+000
  0.000000000000000E+000
  0.000000000000000E+000
  0.000000000000000E+000
  0.000000000000000E+000
  0.000000000000000E+000
  0.000000000000000E+000
  0.000000000000000E+000
  0.000000000000000E+000
  0.000000000000000E+000
  0.000000000000000E+000
  0.000000000000000E+000
  0.000000000000000E+000
  0.000000000000000E+000
  0.000000000000000E+000
  0.000000000000000E+000
  0.000000000000000E+000
  0.000000000000000E+000
  0.000000000000000E+000
  0.000000000000000E+000
  0.000000000000000E+000
  0.000000000000000E+000
  0.000000000000000E+000
  0.000000000000000E+000
  0.000000000000000E+000
  0.000000000000000E+000
  0.000000000000000E+000
  0.000000000000000E+000
  0.000000000000000E+000
  0.000000000000000E+000
  0.000000000000000E+000
  0.000000000000000E+000
  0.000000000000000E+000
  0.000000000000000E+000
  0.000000000000000E+000
  0.000000000000000E+000
  0.000000000000000E+000
  0.000000000000000E+000
  0.000000000000000E+000
  0.000000000000000E+000
  0.000000000000000E+000
  0.000000000000000E+000
  0.000000000000000E+000
  0.000000000000000E+000
  0.000000000000000E+000
  0.000000000000000E+000
  0.000000000000000E+000
  0.000000000000000E+000
  0.000000000000000E+000
  0.000000000000000E+000
  0.000000000000000E+000
  0.000000000000000E+000
  0.000000000000000E+000
  0.000000000000000E+000
  0.000000000000000E+000
  0.000000000000000E+000
  0.000000000000000E+000
  0.000000000000000E+000
  0.000000000000000E+000
  0.000000000000000E+000
  0.000000000000000E+000
  0.000000000000000E+000
  0.000000000000000E+000
  0.000000000000000E+000
  0.000000000000000E+000
  0.000000000000000E+000
  0.000000000000000E+000
  0.000000000000000E+000
  0.000000000000000E+000
  0.000000000000000E+000
  0.000000000000000E+000
  0.000000000000000E+000
  0.000000000000000E+000
  0.000000000000000E+000
  0.000000000000000E+000
  0.000000000000000E+000
  0.000000000000000E+000
  0.000000000000000E+000
  0.000000000000000E+000
  0.000000000000000E+000
  0.000000000000000E+000
  0.000000000000000E+000
  0.000000000000000E+000
  0.000000000000000E+000
  0.000000000000000E+000
  0.000000000000000E+000
  0.000000000000000E+000
  0.000000000000000E+000
  0.000000000000000E+000
  0.000000000000000E+000
  0.000000000000000E+000
  0.000000000000000E+000
  0.000000000000000E+000
  0.000000000000000E+000
  0.000000000000000E+000
  0.000000000000000E+000
  0.000000000000000E+000
  0.000000000000000E+000
  0.000000000000000E+000
  0.000000000000000E+000
  0.000000000000000E+000
  0.000000000000000E+000
  0.000000000000000E+000
  0.000000000000000E+000
  0.000000000000000E+000
  0.000000000000000E+000
  0.000000000000000E+000
  0.000000000000000E+000
  0.000000000000000E+000
  0.000000000000000E+000
  0.000000000000000E+000
  0.000000000000000E+000
  0.000000000000000E+000
  0.000000000000000E+000
  0.000000000000000E+000
  0.000000000000000E+000
  0.000000000000000E+000
  0.000000000000000E+000
  0.000000000000000E+000
  0.000000000000000E+000
  0.000000000000000E+000
  0.000000000000000E+000
  0.000000000000000E+000
  0.000000000000000E+000
  0.000000000000000E+000
  0.000000000000000E+000
  0.000000000000000E+000
  0.000000000000000E+000
  0.000000000000000E+000
  0.000000000000000E+000
  0.000000000000000E+000
  0.000000000000000E+000
  0.000000000000000E+000
  0.000000000000000E+000
  0.000000000000000E+000
  0.000000000000000E+000
  0.000000000000000E+000
  0.000000000000000E+000
  0.000000000000000E+000
  0.000000000000000E+000
  0.000000000000000E+000
  0.000000000000000E+000
  0.000000000000000E+000
  0.000000000000000E+000
  0.000000000000000E+000
  0.000000000000000E+000
  0.000000000000000E+000
  0.000000000000000E+000
  0.000000000000000E+000
  0.000000000000000E+000
  0.000000000000000E+000
  0.000000000000000E+000
  0.000000000000000E+000
  0.000000000000000E+000
  0.000000000000000E+000
  0.000000000000000E+000
  0.000000000000000E+000
  0.000000000000000E+000
  0.000000000000000E+000
  0.000000000000000E+000
  0.000000000000000E+000
  0.000000000000000E+000
  0.000000000000000E+000
  0.000000000000000E+000
  0.000000000000000E+000
  0.000000000000000E+000
  0.000000000000000E+000
  0.000000000000000E+000
  0.000000000000000E+000
  0.000000000000000E+000
  0.000000000000000E+000
  0.000000000000000E+000
  0.000000000000000E+000
  0.000000000000000E+000
  0.000000000000000E+000
  0.000000000000000E+000
  0.000000000000000E+000
  0.000000000000000E+000
  0.000000000000000E+000
  0.000000000000000E+000
  0.000000000000000E+000
  0.000000000000000E+000
  0.000000000000000E+000
  0.000000000000000E+000
  0.000000000000000E+000
  0.000000000000000E+000
  0.000000000000000E+000
  0.000000000000000E+000
  0.000000000000000E+000
  0.000000000000000E+000
  0.000000000000000E+000
  0.000000000000000E+000
  0.000000000000000E+000
  0.000000000000000E+000
  0.000000000000000E+000
  0.000000000000000E+000
  0.000000000000000E+000
  0.000000000000000E+000
  0.000000000000000E+000
  0.000000000000000E+000
  0.000000000000000E+000
  0.000000000000000E+000
  0.000000000000000E+000
  0.000000000000000E+000
  0.000000000000000E+000
  0.000000000000000E+000
  0.000000000000000E+000
  0.000000000000000E+000
  0.000000000000000E+000
  0.000000000000000E+000
  0.000000000000000E+000
  0.000000000000000E+000
  0.000000000000000E+000
  0.000000000000000E+000
  0.000000000000000E+000
  0.000000000000000E+000
  0.000000000000000E+000
  0.000000000000000E+000
  0.000000000000000E+000
  0.000000000000000E+000
  0.000000000000000E+000
  0.000000000000000E+000
  0.000000000000000E+000
  0.000000000000000E+000
  0.000000000000000E+000
  0.000000000000000E+000
  0.000000000000000E+000
  0.000000000000000E+000
  0.000000000000000E+000
  0.000000000000000E+000
  0.000000000000000E+000
  0.000000000000000E+000
  0.000000000000000E+000
  0.000000000000000E+000
  0.000000000000000E+000
  0.000000000000000E+000
  0.000000000000000E+000
  0.000000000000000E+000
  0.000000000000000E+000
  0.000000000000000E+000
  0.000000000000000E+000
  0.000000000000000E+000
  0.000000000000000E+000
  0.000000000000000E+000
  0.000000000000000E+000
  0.000000000000000E+000
  0.000000000000000E+000
  0.000000000000000E+000
  0.000000000000000E+000
  0.000000000000000E+000
  0.000000000000000E+000
  0.000000000000000E+000
  0.000000000000000E+000
  0.000000000000000E+000
  0.000000000000000E+000
  0.000000000000000E+000
  0.000000000000000E+000
  0.000000000000000E+000
  0.000000000000000E+000
  0.000000000000000E+000
  0.000000000000000E+000
  0.000000000000000E+000
  0.000000000000000E+000
  0.000000000000000E+000
  0.000000000000000E+000
  0.000000000000000E+000
  0.000000000000000E+000
  0.000000000000000E+000
  0.000000000000000E+000
  0.000000000000000E+000
  0.000000000000000E+000
  0.000000000000000E+000
  0.000000000000000E+000
  0.000000000000000E+000
  0.000000000000000E+000
  0.000000000000000E+000
  0.000000000000000E+000
  0.000000000000000E+000
  0.000000000000000E+000
  0.000000000000000E+000
  0.000000000000000E+000
  0.000000000000000E+000
  0.000000000000000E+000
  0.000000000000000E+000
  0.000000000000000E+000
  0.000000000000000E+000
  0.000000000000000E+000
  0.000000000000000E+000
  0.000000000000000E+000
  0.000000000000000E+000
  0.000000000000000E+000
  0.000000000000000E+000
  0.000000000000000E+000
  0.000000000000000E+000
  0.000000000000000E+000
  0.000000000000000E+000
  0.000000000000000E+000
  0.000000000000000E+000
  0.000000000000000E+000
  0.000000000000000E+000
  0.000000000000000E+000
  0.000000000000000E+000
  0.000000000000000E+000
  0.000000000000000E+000
  0.000000000000000E+000
  0.000000000000000E+000
  0.000000000000000E+000
  0.000000000000000E+000
  0.000000000000000E+000
  0.000000000000000E+000
  0.000000000000000E+000
  0.000000000000000E+000
  0.000000000000000E+000
  0.000000000000000E+000
  0.000000000000000E+000
  0.000000000000000E+000
  0.000000000000000E+000
  0.000000000000000E+000
  0.000000000000000E+000
  0.000000000000000E+000
  0.000000000000000E+000
  0.000000000000000E+000
  0.000000000000000E+000
  0.000000000000000E+000
  0.000000000000000E+000
  0.000000000000000E+000
  0.000000000000000E+000
  0.000000000000000E+000
  0.000000000000000E+000
  0.000000000000000E+000
  0.000000000000000E+000
  0.000000000000000E+000
  0.000000000000000E+000
  0.000000000000000E+000
  0.000000000000000E+000
  0.000000000000000E+000
  0.000000000000000E+000
  0.000000000000000E+000
  0.000000000000000E+000
  0.000000000000000E+000
  0.000000000000000E+000
  0.000000000000000E+000
  0.000000000000000E+000
SCALARS poroL double 
LOOKUP_TABLE default
  0.156307938722662     
  0.156283679707697     
  0.156254279132161     
  0.156224733049355     
  0.156199654079389     
  0.156183095044019     
  0.156171566257331     
  0.156162112970107     
  0.156153906249987     
  0.156146511310386     
  0.156139629597823     
  0.156132997901580     
  0.156126313277076     
  0.156119122674861     
  0.156110154835772     
  0.156239330557937     
  0.156221300368400     
  0.156203305625461     
  0.156189650631458     
  0.156179722454263     
  0.156169278897435     
  0.156159149369069     
  0.156150330996766     
  0.156142495254188     
  0.156135370542658     
  0.156128729800339     
  0.156122365727678     
  0.156116065342011     
  0.156109552554123     
  0.156103094690341     
  0.156193806427069     
  0.156182044033625     
  0.156176531864723     
  0.156170277668480     
  0.156162264750739     
  0.156153788225894     
  0.156145447843086     
  0.156137597308922     
  0.156130398613465     
  0.156123758896929     
  0.156117555561011     
  0.156111666459590     
  0.156105984344407     
  0.156100520597253     
  0.156095426218060     
  0.156170985497240     
  0.156164767908692     
  0.156158419904778     
  0.156152060284617     
  0.156145280520025     
  0.156138145091072     
  0.156131033716939     
  0.156124194004001     
  0.156117748002380     
  0.156111723573667     
  0.156106083592841     
  0.156100782145324     
  0.156095804622649     
  0.156091197537951     
  0.156087104314850     
  0.156152639068848     
  0.156146535735743     
  0.156140629974387     
  0.156134670318295     
  0.156128606587289     
  0.156122448544536     
  0.156116315757279     
  0.156110358269292     
  0.156104676215312     
  0.156099317569203     
  0.156094296768797     
  0.156089619159930     
  0.156085307557424     
  0.156081424089913     
  0.156078078569105     
  0.156133827891240     
  0.156128271185683     
  0.156122858179647     
  0.156117489408396     
  0.156112108758115     
  0.156106732310299     
  0.156101418086426     
  0.156096245224644     
  0.156091286033733     
  0.156086591307064     
  0.156082194938356     
  0.156078126525127     
  0.156074425581796     
  0.156071152513008     
  0.156068392814803     
  0.156114759184585     
  0.156109888752669     
  0.156105102611237     
  0.156100363536447     
  0.156095654607018     
  0.156090986267533     
  0.156086395440938     
  0.156081932264572     
  0.156077648344897     
  0.156073589250096     
  0.156069794015818     
  0.156066300352309     
  0.156063151508571     
  0.156060401531578     
  0.156058116391187     
  0.156095589407990     
  0.156091451448451     
  0.156087336805416     
  0.156083250733002     
  0.156079198578299     
  0.156075196598557     
  0.156071272995851     
  0.156067464478455     
  0.156063810762417     
  0.156060350840002     
  0.156057122150450     
  0.156054162354132     
  0.156051512204452     
  0.156049217592123     
  0.156047329309715     
  0.156076437061959     
  0.156073017700384     
  0.156069577420920     
  0.156066141775100     
  0.156062730311462     
  0.156059363957362     
  0.156056068210286     
  0.156052872798371     
  0.156049809931109     
  0.156046912625486     
  0.156044214113469     
  0.156041748334525     
  0.156039550867834     
  0.156037659382435     
  0.156036112790683     
  0.156057374471916     
  0.156054635580984     
  0.156051848194436     
  0.156049045979884     
  0.156046254753325     
  0.156043497803147     
  0.156040798900765     
  0.156038183360296     
  0.156035677882853     
  0.156033310067518     
  0.156031108118941     
  0.156029100882167     
  0.156027317954388     
  0.156025789441496     
  0.156024544958511     
  0.156038441123536     
  0.156036336424727     
  0.156034170473974     
  0.156031977352091     
  0.156029783658487     
  0.156027612137243     
  0.156025484184065     
  0.156023421196804     
  0.156021445086332     
  0.156019578342628     
  0.156017843968010     
  0.156016265388367     
  0.156014866268627     
  0.156013670050309     
  0.156012699032516     
  0.156019651965057     
  0.156018136345955     
  0.156016558691955     
  0.156014948817910     
  0.156013330251288     
  0.156011722700567     
  0.156010143967673     
  0.156008611199937     
  0.156007141567808     
  0.156005752547667     
  0.156004461971771     
  0.156003287930756     
  0.156002248524295     
  0.156001361399379     
  0.156000643013330     
  0.156001004028821     
  0.156000038642906     
  0.155999019675778     
  0.155997969745687     
  0.155996906678296     
  0.155995845183090     
  0.155994798253736     
  0.155993778178191     
  0.155992797162268     
  0.155991867638334     
  0.155991002345760     
  0.155990214244811     
  0.155989516287965     
  0.155988921044929     
  0.155988440174511     
  0.155982481251170     
  0.155982036481788     
  0.155981553356886     
  0.155981045424290     
  0.155980523010916     
  0.155979994368483     
  0.155979466664663     
  0.155978946725601     
  0.155978441508251     
  0.155977958332462     
  0.155977504925192     
  0.155977089327755     
  0.155976719703019     
  0.155976404065927     
  0.155976149955931     
  0.155964058134560     
  0.155964115383425     
  0.155964154095948     
  0.155964177505992     
  0.155964187208131     
  0.155964183951282     
  0.155964168313290     
  0.155964141186690     
  0.155964104056919     
  0.155964059094910     
  0.155964009109500     
  0.155963957411948     
  0.155963907640309     
  0.155963863582268     
  0.155963829026758     
  0.155945702626426     
  0.155946255469576     
  0.155946812232528     
  0.155947364959563     
  0.155947905652451     
  0.155948426838082     
  0.155948921996926     
  0.155949385805624     
  0.155949814191402     
  0.155950204232572     
  0.155950553962282     
  0.155950862141159     
  0.155951128061184     
  0.155951351432465     
  0.155951532390285     
  0.155927378487656     
  0.155928433505842     
  0.155929515723717     
  0.155930605311088     
  0.155931684055246     
  0.155932735797569     
  0.155933746663275     
  0.155934705059366     
  0.155935601464957     
  0.155936428076430     
  0.155937178392218     
  0.155937846828453     
  0.155938428449716     
  0.155938918882406     
  0.155939314455383     
  0.155909047329577     
  0.155910624813299     
  0.155912251846555     
  0.155913896091451     
  0.155915528636553     
  0.155917124382740     
  0.155918662098250     
  0.155920124142681     
  0.155921495924074     
  0.155922765197330     
  0.155923921333521     
  0.155924954690650     
  0.155925856201571     
  0.155926617268329     
  0.155927230017624     
  0.155890670439946     
  0.155892805131522     
  0.155895009004427     
  0.155897236495348     
  0.155899447562520     
  0.155901608097890     
  0.155903689802703     
  0.155905669564332     
  0.155907528462190     
  0.155909250581859     
  0.155910821832430     
  0.155912228952285     
  0.155913458861807     
  0.155914498482249     
  0.155915335090262     
  0.155872210481597     
  0.155874952530659     
  0.155877778731076     
  0.155880629326834     
  0.155883452688074     
  0.155886205827626     
  0.155888854045610     
  0.155891369813779     
  0.155893731136508     
  0.155895919676151     
  0.155897918927537     
  0.155899712695840     
  0.155901284090458     
  0.155902615195427     
  0.155903687509892     
  0.155853633129542     
  0.155857049505533     
  0.155860558055418     
  0.155864083384936     
  0.155867561718750     
  0.155870941588118     
  0.155874183099630     
  0.155877256056726     
  0.155880137366431     
  0.155882808183142     
  0.155885251184237     
  0.155887448304847     
  0.155889379204740     
  0.155891020688729     
  0.155892347219016     
  0.155834908718396     
  0.155839085464045     
  0.155843352506086     
  0.155847616553849     
  0.155851800984606     
  0.155855846700745     
  0.155859710674161     
  0.155863362808492     
  0.155866781912544     
  0.155869951470481     
  0.155872855705342     
  0.155875476298697     
  0.155877790096503     
  0.155879768115642     
  0.155881376100416     
  0.155816014019895     
  0.155821059992840     
  0.155826180245849     
  0.155831260035573     
  0.155836209114204     
  0.155840962511608     
  0.155845477544236     
  0.155849728507810     
  0.155853700509909     
  0.155857383417044     
  0.155860766390879     
  0.155863833286868     
  0.155866559238593     
  0.155868908953791     
  0.155870837204666     
  0.155796934411176     
  0.155802987649717     
  0.155809078233115     
  0.155815064438268     
  0.155820841988804     
  0.155826343741546     
  0.155831533294751     
  0.155836395858538     
  0.155840929013755     
  0.155845134512010     
  0.155849011176239     
  0.155852548655704     
  0.155855722348407     
  0.155858490264319     
  0.155860793166237     
  0.155777667038824     
  0.155784905877831     
  0.155792112112052     
  0.155799108854795     
  0.155805779352652     
  0.155812062326662     
  0.155817937889327     
  0.155823411721958     
  0.155828501938577     
  0.155833229103403     
  0.155837607943378     
  0.155841639465079     
  0.155845302949919     
  0.155848550122237     
  0.155851303486041     
  0.155758226632671     
  0.155766889622953     
  0.155775393247758     
  0.155783514553725     
  0.155791132998254     
  0.155798210957649     
  0.155804762322087     
  0.155810826246280     
  0.155816450477192     
  0.155821681892739     
  0.155826559079223     
  0.155831102632305     
  0.155835303640071     
  0.155839109724334     
  0.155842420205210     
  0.155738658156727     
  0.155749082255479     
  0.155759109585467     
  0.155768464667470     
  0.155777054637197     
  0.155784903827144     
  0.155792087159702     
  0.155798690889388     
  0.155804800326583     
  0.155810494897431     
  0.155815844694197     
  0.155820904307676     
  0.155825690318466     
  0.155830159924695     
  0.155834179974510     
  0.155719076329954     
  0.155731767265199     
  0.155743583340821     
  0.155754226512538     
  0.155763734133871     
  0.155772271315427     
  0.155779997478348     
  0.155787055117418     
  0.155793570107321     
  0.155799656359031     
  0.155805420307911     
  0.155810961765782     
  0.155816369728880     
  0.155821627323835     
  0.155826592629712     
  0.155699788848826     
  0.155715578708844     
  0.155729360294489     
  0.155741131185055     
  0.155751381024751     
  0.155760444886274     
  0.155768573628624     
  0.155775961923527     
  0.155782770962662     
  0.155789144301388     
  0.155795221249678     
  0.155801151581701     
  0.155807108288456     
  0.155813335489777     
  0.155819580957341     
  0.155682243160440     
  0.155701988127788     
  0.155717049737381     
  0.155729510060971     
  0.155740180862258     
  0.155749533813944     
  0.155757878852387     
  0.155765442827814     
  0.155772407667515     
  0.155778934197783     
  0.155785181855840     
  0.155791332223332     
  0.155797632806634     
  0.155804488292879     
  0.155813077896566     
