# vtk DataFile Version 3.0
vtk output
ASCII
DATASET UNSTRUCTURED_GRID
POINTS       496 double 
  0.00000000E+00  3.00000000E+02  0.00000000E+00
  0.00000000E+00  2.80000000E+02  0.00000000E+00
  0.00000000E+00  2.60000000E+02  0.00000000E+00
  0.00000000E+00  2.40000000E+02  0.00000000E+00
  0.00000000E+00  2.20000000E+02  0.00000000E+00
  0.00000000E+00  2.00000000E+02  0.00000000E+00
  0.00000000E+00  1.80000000E+02  0.00000000E+00
  0.00000000E+00  1.60000000E+02  0.00000000E+00
  0.00000000E+00  1.40000000E+02  0.00000000E+00
  0.00000000E+00  1.20000000E+02  0.00000000E+00
  0.00000000E+00  1.00000000E+02  0.00000000E+00
  0.00000000E+00  8.00000000E+01  0.00000000E+00
  0.00000000E+00  6.00000000E+01  0.00000000E+00
  0.00000000E+00  4.00000000E+01  0.00000000E+00
  0.00000000E+00  2.00000000E+01  0.00000000E+00
  0.00000000E+00  4.99600361E-14  0.00000000E+00
  2.00000000E+01  3.00000000E+02  0.00000000E+00
  2.00000000E+01  2.80000000E+02  0.00000000E+00
  2.00000000E+01  2.60000000E+02  0.00000000E+00
  2.00000000E+01  2.40000000E+02  0.00000000E+00
  2.00000000E+01  2.20000000E+02  0.00000000E+00
  2.00000000E+01  2.00000000E+02  0.00000000E+00
  2.00000000E+01  1.80000000E+02  0.00000000E+00
  2.00000000E+01  1.60000000E+02  0.00000000E+00
  2.00000000E+01  1.40000000E+02  0.00000000E+00
  2.00000000E+01  1.20000000E+02  0.00000000E+00
  2.00000000E+01  1.00000000E+02  0.00000000E+00
  2.00000000E+01  8.00000000E+01  0.00000000E+00
  2.00000000E+01  6.00000000E+01  0.00000000E+00
  2.00000000E+01  4.00000000E+01  0.00000000E+00
  2.00000000E+01  2.00000000E+01  0.00000000E+00
  2.00000000E+01  4.99600361E-14  0.00000000E+00
  4.00000000E+01  3.00000000E+02  0.00000000E+00
  4.00000000E+01  2.80000000E+02  0.00000000E+00
  4.00000000E+01  2.60000000E+02  0.00000000E+00
  4.00000000E+01  2.40000000E+02  0.00000000E+00
  4.00000000E+01  2.20000000E+02  0.00000000E+00
  4.00000000E+01  2.00000000E+02  0.00000000E+00
  4.00000000E+01  1.80000000E+02  0.00000000E+00
  4.00000000E+01  1.60000000E+02  0.00000000E+00
  4.00000000E+01  1.40000000E+02  0.00000000E+00
  4.00000000E+01  1.20000000E+02  0.00000000E+00
  4.00000000E+01  1.00000000E+02  0.00000000E+00
  4.00000000E+01  8.00000000E+01  0.00000000E+00
  4.00000000E+01  6.00000000E+01  0.00000000E+00
  4.00000000E+01  4.00000000E+01  0.00000000E+00
  4.00000000E+01  2.00000000E+01  0.00000000E+00
  4.00000000E+01  4.99600361E-14  0.00000000E+00
  6.00000000E+01  3.00000000E+02  0.00000000E+00
  6.00000000E+01  2.80000000E+02  0.00000000E+00
  6.00000000E+01  2.60000000E+02  0.00000000E+00
  6.00000000E+01  2.40000000E+02  0.00000000E+00
  6.00000000E+01  2.20000000E+02  0.00000000E+00
  6.00000000E+01  2.00000000E+02  0.00000000E+00
  6.00000000E+01  1.80000000E+02  0.00000000E+00
  6.00000000E+01  1.60000000E+02  0.00000000E+00
  6.00000000E+01  1.40000000E+02  0.00000000E+00
  6.00000000E+01  1.20000000E+02  0.00000000E+00
  6.00000000E+01  1.00000000E+02  0.00000000E+00
  6.00000000E+01  8.00000000E+01  0.00000000E+00
  6.00000000E+01  6.00000000E+01  0.00000000E+00
  6.00000000E+01  4.00000000E+01  0.00000000E+00
  6.00000000E+01  2.00000000E+01  0.00000000E+00
  6.00000000E+01  4.99600361E-14  0.00000000E+00
  8.00000000E+01  3.00000000E+02  0.00000000E+00
  8.00000000E+01  2.80000000E+02  0.00000000E+00
  8.00000000E+01  2.60000000E+02  0.00000000E+00
  8.00000000E+01  2.40000000E+02  0.00000000E+00
  8.00000000E+01  2.20000000E+02  0.00000000E+00
  8.00000000E+01  2.00000000E+02  0.00000000E+00
  8.00000000E+01  1.80000000E+02  0.00000000E+00
  8.00000000E+01  1.60000000E+02  0.00000000E+00
  8.00000000E+01  1.40000000E+02  0.00000000E+00
  8.00000000E+01  1.20000000E+02  0.00000000E+00
  8.00000000E+01  1.00000000E+02  0.00000000E+00
  8.00000000E+01  8.00000000E+01  0.00000000E+00
  8.00000000E+01  6.00000000E+01  0.00000000E+00
  8.00000000E+01  4.00000000E+01  0.00000000E+00
  8.00000000E+01  2.00000000E+01  0.00000000E+00
  8.00000000E+01  4.99600361E-14  0.00000000E+00
  1.00000000E+02  3.00000000E+02  0.00000000E+00
  1.00000000E+02  2.80000000E+02  0.00000000E+00
  1.00000000E+02  2.60000000E+02  0.00000000E+00
  1.00000000E+02  2.40000000E+02  0.00000000E+00
  1.00000000E+02  2.20000000E+02  0.00000000E+00
  1.00000000E+02  2.00000000E+02  0.00000000E+00
  1.00000000E+02  1.80000000E+02  0.00000000E+00
  1.00000000E+02  1.60000000E+02  0.00000000E+00
  1.00000000E+02  1.40000000E+02  0.00000000E+00
  1.00000000E+02  1.20000000E+02  0.00000000E+00
  1.00000000E+02  1.00000000E+02  0.00000000E+00
  1.00000000E+02  8.00000000E+01  0.00000000E+00
  1.00000000E+02  6.00000000E+01  0.00000000E+00
  1.00000000E+02  4.00000000E+01  0.00000000E+00
  1.00000000E+02  2.00000000E+01  0.00000000E+00
  1.00000000E+02  4.99600361E-14  0.00000000E+00
  1.20000000E+02  3.00000000E+02  0.00000000E+00
  1.20000000E+02  2.80000000E+02  0.00000000E+00
  1.20000000E+02  2.60000000E+02  0.00000000E+00
  1.20000000E+02  2.40000000E+02  0.00000000E+00
  1.20000000E+02  2.20000000E+02  0.00000000E+00
  1.20000000E+02  2.00000000E+02  0.00000000E+00
  1.20000000E+02  1.80000000E+02  0.00000000E+00
  1.20000000E+02  1.60000000E+02  0.00000000E+00
  1.20000000E+02  1.40000000E+02  0.00000000E+00
  1.20000000E+02  1.20000000E+02  0.00000000E+00
  1.20000000E+02  1.00000000E+02  0.00000000E+00
  1.20000000E+02  8.00000000E+01  0.00000000E+00
  1.20000000E+02  6.00000000E+01  0.00000000E+00
  1.20000000E+02  4.00000000E+01  0.00000000E+00
  1.20000000E+02  2.00000000E+01  0.00000000E+00
  1.20000000E+02  4.99600361E-14  0.00000000E+00
  1.40000000E+02  3.00000000E+02  0.00000000E+00
  1.40000000E+02  2.80000000E+02  0.00000000E+00
  1.40000000E+02  2.60000000E+02  0.00000000E+00
  1.40000000E+02  2.40000000E+02  0.00000000E+00
  1.40000000E+02  2.20000000E+02  0.00000000E+00
  1.40000000E+02  2.00000000E+02  0.00000000E+00
  1.40000000E+02  1.80000000E+02  0.00000000E+00
  1.40000000E+02  1.60000000E+02  0.00000000E+00
  1.40000000E+02  1.40000000E+02  0.00000000E+00
  1.40000000E+02  1.20000000E+02  0.00000000E+00
  1.40000000E+02  1.00000000E+02  0.00000000E+00
  1.40000000E+02  8.00000000E+01  0.00000000E+00
  1.40000000E+02  6.00000000E+01  0.00000000E+00
  1.40000000E+02  4.00000000E+01  0.00000000E+00
  1.40000000E+02  2.00000000E+01  0.00000000E+00
  1.40000000E+02  4.99600361E-14  0.00000000E+00
  1.60000000E+02  3.00000000E+02  0.00000000E+00
  1.60000000E+02  2.80000000E+02  0.00000000E+00
  1.60000000E+02  2.60000000E+02  0.00000000E+00
  1.60000000E+02  2.40000000E+02  0.00000000E+00
  1.60000000E+02  2.20000000E+02  0.00000000E+00
  1.60000000E+02  2.00000000E+02  0.00000000E+00
  1.60000000E+02  1.80000000E+02  0.00000000E+00
  1.60000000E+02  1.60000000E+02  0.00000000E+00
  1.60000000E+02  1.40000000E+02  0.00000000E+00
  1.60000000E+02  1.20000000E+02  0.00000000E+00
  1.60000000E+02  1.00000000E+02  0.00000000E+00
  1.60000000E+02  8.00000000E+01  0.00000000E+00
  1.60000000E+02  6.00000000E+01  0.00000000E+00
  1.60000000E+02  4.00000000E+01  0.00000000E+00
  1.60000000E+02  2.00000000E+01  0.00000000E+00
  1.60000000E+02  4.99600361E-14  0.00000000E+00
  1.80000000E+02  3.00000000E+02  0.00000000E+00
  1.80000000E+02  2.80000000E+02  0.00000000E+00
  1.80000000E+02  2.60000000E+02  0.00000000E+00
  1.80000000E+02  2.40000000E+02  0.00000000E+00
  1.80000000E+02  2.20000000E+02  0.00000000E+00
  1.80000000E+02  2.00000000E+02  0.00000000E+00
  1.80000000E+02  1.80000000E+02  0.00000000E+00
  1.80000000E+02  1.60000000E+02  0.00000000E+00
  1.80000000E+02  1.40000000E+02  0.00000000E+00
  1.80000000E+02  1.20000000E+02  0.00000000E+00
  1.80000000E+02  1.00000000E+02  0.00000000E+00
  1.80000000E+02  8.00000000E+01  0.00000000E+00
  1.80000000E+02  6.00000000E+01  0.00000000E+00
  1.80000000E+02  4.00000000E+01  0.00000000E+00
  1.80000000E+02  2.00000000E+01  0.00000000E+00
  1.80000000E+02  4.99600361E-14  0.00000000E+00
  2.00000000E+02  3.00000000E+02  0.00000000E+00
  2.00000000E+02  2.80000000E+02  0.00000000E+00
  2.00000000E+02  2.60000000E+02  0.00000000E+00
  2.00000000E+02  2.40000000E+02  0.00000000E+00
  2.00000000E+02  2.20000000E+02  0.00000000E+00
  2.00000000E+02  2.00000000E+02  0.00000000E+00
  2.00000000E+02  1.80000000E+02  0.00000000E+00
  2.00000000E+02  1.60000000E+02  0.00000000E+00
  2.00000000E+02  1.40000000E+02  0.00000000E+00
  2.00000000E+02  1.20000000E+02  0.00000000E+00
  2.00000000E+02  1.00000000E+02  0.00000000E+00
  2.00000000E+02  8.00000000E+01  0.00000000E+00
  2.00000000E+02  6.00000000E+01  0.00000000E+00
  2.00000000E+02  4.00000000E+01  0.00000000E+00
  2.00000000E+02  2.00000000E+01  0.00000000E+00
  2.00000000E+02  4.99600361E-14  0.00000000E+00
  2.20000000E+02  3.00000000E+02  0.00000000E+00
  2.20000000E+02  2.80000000E+02  0.00000000E+00
  2.20000000E+02  2.60000000E+02  0.00000000E+00
  2.20000000E+02  2.40000000E+02  0.00000000E+00
  2.20000000E+02  2.20000000E+02  0.00000000E+00
  2.20000000E+02  2.00000000E+02  0.00000000E+00
  2.20000000E+02  1.80000000E+02  0.00000000E+00
  2.20000000E+02  1.60000000E+02  0.00000000E+00
  2.20000000E+02  1.40000000E+02  0.00000000E+00
  2.20000000E+02  1.20000000E+02  0.00000000E+00
  2.20000000E+02  1.00000000E+02  0.00000000E+00
  2.20000000E+02  8.00000000E+01  0.00000000E+00
  2.20000000E+02  6.00000000E+01  0.00000000E+00
  2.20000000E+02  4.00000000E+01  0.00000000E+00
  2.20000000E+02  2.00000000E+01  0.00000000E+00
  2.20000000E+02  4.99600361E-14  0.00000000E+00
  2.40000000E+02  3.00000000E+02  0.00000000E+00
  2.40000000E+02  2.80000000E+02  0.00000000E+00
  2.40000000E+02  2.60000000E+02  0.00000000E+00
  2.40000000E+02  2.40000000E+02  0.00000000E+00
  2.40000000E+02  2.20000000E+02  0.00000000E+00
  2.40000000E+02  2.00000000E+02  0.00000000E+00
  2.40000000E+02  1.80000000E+02  0.00000000E+00
  2.40000000E+02  1.60000000E+02  0.00000000E+00
  2.40000000E+02  1.40000000E+02  0.00000000E+00
  2.40000000E+02  1.20000000E+02  0.00000000E+00
  2.40000000E+02  1.00000000E+02  0.00000000E+00
  2.40000000E+02  8.00000000E+01  0.00000000E+00
  2.40000000E+02  6.00000000E+01  0.00000000E+00
  2.40000000E+02  4.00000000E+01  0.00000000E+00
  2.40000000E+02  2.00000000E+01  0.00000000E+00
  2.40000000E+02  4.99600361E-14  0.00000000E+00
  2.60000000E+02  3.00000000E+02  0.00000000E+00
  2.60000000E+02  2.80000000E+02  0.00000000E+00
  2.60000000E+02  2.60000000E+02  0.00000000E+00
  2.60000000E+02  2.40000000E+02  0.00000000E+00
  2.60000000E+02  2.20000000E+02  0.00000000E+00
  2.60000000E+02  2.00000000E+02  0.00000000E+00
  2.60000000E+02  1.80000000E+02  0.00000000E+00
  2.60000000E+02  1.60000000E+02  0.00000000E+00
  2.60000000E+02  1.40000000E+02  0.00000000E+00
  2.60000000E+02  1.20000000E+02  0.00000000E+00
  2.60000000E+02  1.00000000E+02  0.00000000E+00
  2.60000000E+02  8.00000000E+01  0.00000000E+00
  2.60000000E+02  6.00000000E+01  0.00000000E+00
  2.60000000E+02  4.00000000E+01  0.00000000E+00
  2.60000000E+02  2.00000000E+01  0.00000000E+00
  2.60000000E+02  4.99600361E-14  0.00000000E+00
  2.80000000E+02  3.00000000E+02  0.00000000E+00
  2.80000000E+02  2.80000000E+02  0.00000000E+00
  2.80000000E+02  2.60000000E+02  0.00000000E+00
  2.80000000E+02  2.40000000E+02  0.00000000E+00
  2.80000000E+02  2.20000000E+02  0.00000000E+00
  2.80000000E+02  2.00000000E+02  0.00000000E+00
  2.80000000E+02  1.80000000E+02  0.00000000E+00
  2.80000000E+02  1.60000000E+02  0.00000000E+00
  2.80000000E+02  1.40000000E+02  0.00000000E+00
  2.80000000E+02  1.20000000E+02  0.00000000E+00
  2.80000000E+02  1.00000000E+02  0.00000000E+00
  2.80000000E+02  8.00000000E+01  0.00000000E+00
  2.80000000E+02  6.00000000E+01  0.00000000E+00
  2.80000000E+02  4.00000000E+01  0.00000000E+00
  2.80000000E+02  2.00000000E+01  0.00000000E+00
  2.80000000E+02  4.99600361E-14  0.00000000E+00
  3.00000000E+02  3.00000000E+02  0.00000000E+00
  3.00000000E+02  2.80000000E+02  0.00000000E+00
  3.00000000E+02  2.60000000E+02  0.00000000E+00
  3.00000000E+02  2.40000000E+02  0.00000000E+00
  3.00000000E+02  2.20000000E+02  0.00000000E+00
  3.00000000E+02  2.00000000E+02  0.00000000E+00
  3.00000000E+02  1.80000000E+02  0.00000000E+00
  3.00000000E+02  1.60000000E+02  0.00000000E+00
  3.00000000E+02  1.40000000E+02  0.00000000E+00
  3.00000000E+02  1.20000000E+02  0.00000000E+00
  3.00000000E+02  1.00000000E+02  0.00000000E+00
  3.00000000E+02  8.00000000E+01  0.00000000E+00
  3.00000000E+02  6.00000000E+01  0.00000000E+00
  3.00000000E+02  4.00000000E+01  0.00000000E+00
  3.00000000E+02  2.00000000E+01  0.00000000E+00
  3.00000000E+02  4.99600361E-14  0.00000000E+00
  3.20000000E+02  3.00000000E+02  0.00000000E+00
  3.20000000E+02  2.80000000E+02  0.00000000E+00
  3.20000000E+02  2.60000000E+02  0.00000000E+00
  3.20000000E+02  2.40000000E+02  0.00000000E+00
  3.20000000E+02  2.20000000E+02  0.00000000E+00
  3.20000000E+02  2.00000000E+02  0.00000000E+00
  3.20000000E+02  1.80000000E+02  0.00000000E+00
  3.20000000E+02  1.60000000E+02  0.00000000E+00
  3.20000000E+02  1.40000000E+02  0.00000000E+00
  3.20000000E+02  1.20000000E+02  0.00000000E+00
  3.20000000E+02  1.00000000E+02  0.00000000E+00
  3.20000000E+02  8.00000000E+01  0.00000000E+00
  3.20000000E+02  6.00000000E+01  0.00000000E+00
  3.20000000E+02  4.00000000E+01  0.00000000E+00
  3.20000000E+02  2.00000000E+01  0.00000000E+00
  3.20000000E+02  4.99600361E-14  0.00000000E+00
  3.40000000E+02  3.00000000E+02  0.00000000E+00
  3.40000000E+02  2.80000000E+02  0.00000000E+00
  3.40000000E+02  2.60000000E+02  0.00000000E+00
  3.40000000E+02  2.40000000E+02  0.00000000E+00
  3.40000000E+02  2.20000000E+02  0.00000000E+00
  3.40000000E+02  2.00000000E+02  0.00000000E+00
  3.40000000E+02  1.80000000E+02  0.00000000E+00
  3.40000000E+02  1.60000000E+02  0.00000000E+00
  3.40000000E+02  1.40000000E+02  0.00000000E+00
  3.40000000E+02  1.20000000E+02  0.00000000E+00
  3.40000000E+02  1.00000000E+02  0.00000000E+00
  3.40000000E+02  8.00000000E+01  0.00000000E+00
  3.40000000E+02  6.00000000E+01  0.00000000E+00
  3.40000000E+02  4.00000000E+01  0.00000000E+00
  3.40000000E+02  2.00000000E+01  0.00000000E+00
  3.40000000E+02  4.99600361E-14  0.00000000E+00
  3.60000000E+02  3.00000000E+02  0.00000000E+00
  3.60000000E+02  2.80000000E+02  0.00000000E+00
  3.60000000E+02  2.60000000E+02  0.00000000E+00
  3.60000000E+02  2.40000000E+02  0.00000000E+00
  3.60000000E+02  2.20000000E+02  0.00000000E+00
  3.60000000E+02  2.00000000E+02  0.00000000E+00
  3.60000000E+02  1.80000000E+02  0.00000000E+00
  3.60000000E+02  1.60000000E+02  0.00000000E+00
  3.60000000E+02  1.40000000E+02  0.00000000E+00
  3.60000000E+02  1.20000000E+02  0.00000000E+00
  3.60000000E+02  1.00000000E+02  0.00000000E+00
  3.60000000E+02  8.00000000E+01  0.00000000E+00
  3.60000000E+02  6.00000000E+01  0.00000000E+00
  3.60000000E+02  4.00000000E+01  0.00000000E+00
  3.60000000E+02  2.00000000E+01  0.00000000E+00
  3.60000000E+02  4.99600361E-14  0.00000000E+00
  3.80000000E+02  3.00000000E+02  0.00000000E+00
  3.80000000E+02  2.80000000E+02  0.00000000E+00
  3.80000000E+02  2.60000000E+02  0.00000000E+00
  3.80000000E+02  2.40000000E+02  0.00000000E+00
  3.80000000E+02  2.20000000E+02  0.00000000E+00
  3.80000000E+02  2.00000000E+02  0.00000000E+00
  3.80000000E+02  1.80000000E+02  0.00000000E+00
  3.80000000E+02  1.60000000E+02  0.00000000E+00
  3.80000000E+02  1.40000000E+02  0.00000000E+00
  3.80000000E+02  1.20000000E+02  0.00000000E+00
  3.80000000E+02  1.00000000E+02  0.00000000E+00
  3.80000000E+02  8.00000000E+01  0.00000000E+00
  3.80000000E+02  6.00000000E+01  0.00000000E+00
  3.80000000E+02  4.00000000E+01  0.00000000E+00
  3.80000000E+02  2.00000000E+01  0.00000000E+00
  3.80000000E+02  4.99600361E-14  0.00000000E+00
  4.00000000E+02  3.00000000E+02  0.00000000E+00
  4.00000000E+02  2.80000000E+02  0.00000000E+00
  4.00000000E+02  2.60000000E+02  0.00000000E+00
  4.00000000E+02  2.40000000E+02  0.00000000E+00
  4.00000000E+02  2.20000000E+02  0.00000000E+00
  4.00000000E+02  2.00000000E+02  0.00000000E+00
  4.00000000E+02  1.80000000E+02  0.00000000E+00
  4.00000000E+02  1.60000000E+02  0.00000000E+00
  4.00000000E+02  1.40000000E+02  0.00000000E+00
  4.00000000E+02  1.20000000E+02  0.00000000E+00
  4.00000000E+02  1.00000000E+02  0.00000000E+00
  4.00000000E+02  8.00000000E+01  0.00000000E+00
  4.00000000E+02  6.00000000E+01  0.00000000E+00
  4.00000000E+02  4.00000000E+01  0.00000000E+00
  4.00000000E+02  2.00000000E+01  0.00000000E+00
  4.00000000E+02  4.99600361E-14  0.00000000E+00
  4.20000000E+02  3.00000000E+02  0.00000000E+00
  4.20000000E+02  2.80000000E+02  0.00000000E+00
  4.20000000E+02  2.60000000E+02  0.00000000E+00
  4.20000000E+02  2.40000000E+02  0.00000000E+00
  4.20000000E+02  2.20000000E+02  0.00000000E+00
  4.20000000E+02  2.00000000E+02  0.00000000E+00
  4.20000000E+02  1.80000000E+02  0.00000000E+00
  4.20000000E+02  1.60000000E+02  0.00000000E+00
  4.20000000E+02  1.40000000E+02  0.00000000E+00
  4.20000000E+02  1.20000000E+02  0.00000000E+00
  4.20000000E+02  1.00000000E+02  0.00000000E+00
  4.20000000E+02  8.00000000E+01  0.00000000E+00
  4.20000000E+02  6.00000000E+01  0.00000000E+00
  4.20000000E+02  4.00000000E+01  0.00000000E+00
  4.20000000E+02  2.00000000E+01  0.00000000E+00
  4.20000000E+02  4.99600361E-14  0.00000000E+00
  4.40000000E+02  3.00000000E+02  0.00000000E+00
  4.40000000E+02  2.80000000E+02  0.00000000E+00
  4.40000000E+02  2.60000000E+02  0.00000000E+00
  4.40000000E+02  2.40000000E+02  0.00000000E+00
  4.40000000E+02  2.20000000E+02  0.00000000E+00
  4.40000000E+02  2.00000000E+02  0.00000000E+00
  4.40000000E+02  1.80000000E+02  0.00000000E+00
  4.40000000E+02  1.60000000E+02  0.00000000E+00
  4.40000000E+02  1.40000000E+02  0.00000000E+00
  4.40000000E+02  1.20000000E+02  0.00000000E+00
  4.40000000E+02  1.00000000E+02  0.00000000E+00
  4.40000000E+02  8.00000000E+01  0.00000000E+00
  4.40000000E+02  6.00000000E+01  0.00000000E+00
  4.40000000E+02  4.00000000E+01  0.00000000E+00
  4.40000000E+02  2.00000000E+01  0.00000000E+00
  4.40000000E+02  4.99600361E-14  0.00000000E+00
  4.60000000E+02  3.00000000E+02  0.00000000E+00
  4.60000000E+02  2.80000000E+02  0.00000000E+00
  4.60000000E+02  2.60000000E+02  0.00000000E+00
  4.60000000E+02  2.40000000E+02  0.00000000E+00
  4.60000000E+02  2.20000000E+02  0.00000000E+00
  4.60000000E+02  2.00000000E+02  0.00000000E+00
  4.60000000E+02  1.80000000E+02  0.00000000E+00
  4.60000000E+02  1.60000000E+02  0.00000000E+00
  4.60000000E+02  1.40000000E+02  0.00000000E+00
  4.60000000E+02  1.20000000E+02  0.00000000E+00
  4.60000000E+02  1.00000000E+02  0.00000000E+00
  4.60000000E+02  8.00000000E+01  0.00000000E+00
  4.60000000E+02  6.00000000E+01  0.00000000E+00
  4.60000000E+02  4.00000000E+01  0.00000000E+00
  4.60000000E+02  2.00000000E+01  0.00000000E+00
  4.60000000E+02  4.99600361E-14  0.00000000E+00
  4.80000000E+02  3.00000000E+02  0.00000000E+00
  4.80000000E+02  2.80000000E+02  0.00000000E+00
  4.80000000E+02  2.60000000E+02  0.00000000E+00
  4.80000000E+02  2.40000000E+02  0.00000000E+00
  4.80000000E+02  2.20000000E+02  0.00000000E+00
  4.80000000E+02  2.00000000E+02  0.00000000E+00
  4.80000000E+02  1.80000000E+02  0.00000000E+00
  4.80000000E+02  1.60000000E+02  0.00000000E+00
  4.80000000E+02  1.40000000E+02  0.00000000E+00
  4.80000000E+02  1.20000000E+02  0.00000000E+00
  4.80000000E+02  1.00000000E+02  0.00000000E+00
  4.80000000E+02  8.00000000E+01  0.00000000E+00
  4.80000000E+02  6.00000000E+01  0.00000000E+00
  4.80000000E+02  4.00000000E+01  0.00000000E+00
  4.80000000E+02  2.00000000E+01  0.00000000E+00
  4.80000000E+02  4.99600361E-14  0.00000000E+00
  5.00000000E+02  3.00000000E+02  0.00000000E+00
  5.00000000E+02  2.80000000E+02  0.00000000E+00
  5.00000000E+02  2.60000000E+02  0.00000000E+00
  5.00000000E+02  2.40000000E+02  0.00000000E+00
  5.00000000E+02  2.20000000E+02  0.00000000E+00
  5.00000000E+02  2.00000000E+02  0.00000000E+00
  5.00000000E+02  1.80000000E+02  0.00000000E+00
  5.00000000E+02  1.60000000E+02  0.00000000E+00
  5.00000000E+02  1.40000000E+02  0.00000000E+00
  5.00000000E+02  1.20000000E+02  0.00000000E+00
  5.00000000E+02  1.00000000E+02  0.00000000E+00
  5.00000000E+02  8.00000000E+01  0.00000000E+00
  5.00000000E+02  6.00000000E+01  0.00000000E+00
  5.00000000E+02  4.00000000E+01  0.00000000E+00
  5.00000000E+02  2.00000000E+01  0.00000000E+00
  5.00000000E+02  4.99600361E-14  0.00000000E+00
  5.20000000E+02  3.00000000E+02  0.00000000E+00
  5.20000000E+02  2.80000000E+02  0.00000000E+00
  5.20000000E+02  2.60000000E+02  0.00000000E+00
  5.20000000E+02  2.40000000E+02  0.00000000E+00
  5.20000000E+02  2.20000000E+02  0.00000000E+00
  5.20000000E+02  2.00000000E+02  0.00000000E+00
  5.20000000E+02  1.80000000E+02  0.00000000E+00
  5.20000000E+02  1.60000000E+02  0.00000000E+00
  5.20000000E+02  1.40000000E+02  0.00000000E+00
  5.20000000E+02  1.20000000E+02  0.00000000E+00
  5.20000000E+02  1.00000000E+02  0.00000000E+00
  5.20000000E+02  8.00000000E+01  0.00000000E+00
  5.20000000E+02  6.00000000E+01  0.00000000E+00
  5.20000000E+02  4.00000000E+01  0.00000000E+00
  5.20000000E+02  2.00000000E+01  0.00000000E+00
  5.20000000E+02  4.99600361E-14  0.00000000E+00
  5.40000000E+02  3.00000000E+02  0.00000000E+00
  5.40000000E+02  2.80000000E+02  0.00000000E+00
  5.40000000E+02  2.60000000E+02  0.00000000E+00
  5.40000000E+02  2.40000000E+02  0.00000000E+00
  5.40000000E+02  2.20000000E+02  0.00000000E+00
  5.40000000E+02  2.00000000E+02  0.00000000E+00
  5.40000000E+02  1.80000000E+02  0.00000000E+00
  5.40000000E+02  1.60000000E+02  0.00000000E+00
  5.40000000E+02  1.40000000E+02  0.00000000E+00
  5.40000000E+02  1.20000000E+02  0.00000000E+00
  5.40000000E+02  1.00000000E+02  0.00000000E+00
  5.40000000E+02  8.00000000E+01  0.00000000E+00
  5.40000000E+02  6.00000000E+01  0.00000000E+00
  5.40000000E+02  4.00000000E+01  0.00000000E+00
  5.40000000E+02  2.00000000E+01  0.00000000E+00
  5.40000000E+02  4.99600361E-14  0.00000000E+00
  5.60000000E+02  3.00000000E+02  0.00000000E+00
  5.60000000E+02  2.80000000E+02  0.00000000E+00
  5.60000000E+02  2.60000000E+02  0.00000000E+00
  5.60000000E+02  2.40000000E+02  0.00000000E+00
  5.60000000E+02  2.20000000E+02  0.00000000E+00
  5.60000000E+02  2.00000000E+02  0.00000000E+00
  5.60000000E+02  1.80000000E+02  0.00000000E+00
  5.60000000E+02  1.60000000E+02  0.00000000E+00
  5.60000000E+02  1.40000000E+02  0.00000000E+00
  5.60000000E+02  1.20000000E+02  0.00000000E+00
  5.60000000E+02  1.00000000E+02  0.00000000E+00
  5.60000000E+02  8.00000000E+01  0.00000000E+00
  5.60000000E+02  6.00000000E+01  0.00000000E+00
  5.60000000E+02  4.00000000E+01  0.00000000E+00
  5.60000000E+02  2.00000000E+01  0.00000000E+00
  5.60000000E+02  4.99600361E-14  0.00000000E+00
  5.80000000E+02  3.00000000E+02  0.00000000E+00
  5.80000000E+02  2.80000000E+02  0.00000000E+00
  5.80000000E+02  2.60000000E+02  0.00000000E+00
  5.80000000E+02  2.40000000E+02  0.00000000E+00
  5.80000000E+02  2.20000000E+02  0.00000000E+00
  5.80000000E+02  2.00000000E+02  0.00000000E+00
  5.80000000E+02  1.80000000E+02  0.00000000E+00
  5.80000000E+02  1.60000000E+02  0.00000000E+00
  5.80000000E+02  1.40000000E+02  0.00000000E+00
  5.80000000E+02  1.20000000E+02  0.00000000E+00
  5.80000000E+02  1.00000000E+02  0.00000000E+00
  5.80000000E+02  8.00000000E+01  0.00000000E+00
  5.80000000E+02  6.00000000E+01  0.00000000E+00
  5.80000000E+02  4.00000000E+01  0.00000000E+00
  5.80000000E+02  2.00000000E+01  0.00000000E+00
  5.80000000E+02  4.99600361E-14  0.00000000E+00
  6.00000000E+02  3.00000000E+02  0.00000000E+00
  6.00000000E+02  2.80000000E+02  0.00000000E+00
  6.00000000E+02  2.60000000E+02  0.00000000E+00
  6.00000000E+02  2.40000000E+02  0.00000000E+00
  6.00000000E+02  2.20000000E+02  0.00000000E+00
  6.00000000E+02  2.00000000E+02  0.00000000E+00
  6.00000000E+02  1.80000000E+02  0.00000000E+00
  6.00000000E+02  1.60000000E+02  0.00000000E+00
  6.00000000E+02  1.40000000E+02  0.00000000E+00
  6.00000000E+02  1.20000000E+02  0.00000000E+00
  6.00000000E+02  1.00000000E+02  0.00000000E+00
  6.00000000E+02  8.00000000E+01  0.00000000E+00
  6.00000000E+02  6.00000000E+01  0.00000000E+00
  6.00000000E+02  4.00000000E+01  0.00000000E+00
  6.00000000E+02  2.00000000E+01  0.00000000E+00
  6.00000000E+02  4.99600361E-14  0.00000000E+00
CELLS       450      2250
         4           0           1          17          16
         4           1           2          18          17
         4           2           3          19          18
         4           3           4          20          19
         4           4           5          21          20
         4           5           6          22          21
         4           6           7          23          22
         4           7           8          24          23
         4           8           9          25          24
         4           9          10          26          25
         4          10          11          27          26
         4          11          12          28          27
         4          12          13          29          28
         4          13          14          30          29
         4          14          15          31          30
         4          16          17          33          32
         4          17          18          34          33
         4          18          19          35          34
         4          19          20          36          35
         4          20          21          37          36
         4          21          22          38          37
         4          22          23          39          38
         4          23          24          40          39
         4          24          25          41          40
         4          25          26          42          41
         4          26          27          43          42
         4          27          28          44          43
         4          28          29          45          44
         4          29          30          46          45
         4          30          31          47          46
         4          32          33          49          48
         4          33          34          50          49
         4          34          35          51          50
         4          35          36          52          51
         4          36          37          53          52
         4          37          38          54          53
         4          38          39          55          54
         4          39          40          56          55
         4          40          41          57          56
         4          41          42          58          57
         4          42          43          59          58
         4          43          44          60          59
         4          44          45          61          60
         4          45          46          62          61
         4          46          47          63          62
         4          48          49          65          64
         4          49          50          66          65
         4          50          51          67          66
         4          51          52          68          67
         4          52          53          69          68
         4          53          54          70          69
         4          54          55          71          70
         4          55          56          72          71
         4          56          57          73          72
         4          57          58          74          73
         4          58          59          75          74
         4          59          60          76          75
         4          60          61          77          76
         4          61          62          78          77
         4          62          63          79          78
         4          64          65          81          80
         4          65          66          82          81
         4          66          67          83          82
         4          67          68          84          83
         4          68          69          85          84
         4          69          70          86          85
         4          70          71          87          86
         4          71          72          88          87
         4          72          73          89          88
         4          73          74          90          89
         4          74          75          91          90
         4          75          76          92          91
         4          76          77          93          92
         4          77          78          94          93
         4          78          79          95          94
         4          80          81          97          96
         4          81          82          98          97
         4          82          83          99          98
         4          83          84         100          99
         4          84          85         101         100
         4          85          86         102         101
         4          86          87         103         102
         4          87          88         104         103
         4          88          89         105         104
         4          89          90         106         105
         4          90          91         107         106
         4          91          92         108         107
         4          92          93         109         108
         4          93          94         110         109
         4          94          95         111         110
         4          96          97         113         112
         4          97          98         114         113
         4          98          99         115         114
         4          99         100         116         115
         4         100         101         117         116
         4         101         102         118         117
         4         102         103         119         118
         4         103         104         120         119
         4         104         105         121         120
         4         105         106         122         121
         4         106         107         123         122
         4         107         108         124         123
         4         108         109         125         124
         4         109         110         126         125
         4         110         111         127         126
         4         112         113         129         128
         4         113         114         130         129
         4         114         115         131         130
         4         115         116         132         131
         4         116         117         133         132
         4         117         118         134         133
         4         118         119         135         134
         4         119         120         136         135
         4         120         121         137         136
         4         121         122         138         137
         4         122         123         139         138
         4         123         124         140         139
         4         124         125         141         140
         4         125         126         142         141
         4         126         127         143         142
         4         128         129         145         144
         4         129         130         146         145
         4         130         131         147         146
         4         131         132         148         147
         4         132         133         149         148
         4         133         134         150         149
         4         134         135         151         150
         4         135         136         152         151
         4         136         137         153         152
         4         137         138         154         153
         4         138         139         155         154
         4         139         140         156         155
         4         140         141         157         156
         4         141         142         158         157
         4         142         143         159         158
         4         144         145         161         160
         4         145         146         162         161
         4         146         147         163         162
         4         147         148         164         163
         4         148         149         165         164
         4         149         150         166         165
         4         150         151         167         166
         4         151         152         168         167
         4         152         153         169         168
         4         153         154         170         169
         4         154         155         171         170
         4         155         156         172         171
         4         156         157         173         172
         4         157         158         174         173
         4         158         159         175         174
         4         160         161         177         176
         4         161         162         178         177
         4         162         163         179         178
         4         163         164         180         179
         4         164         165         181         180
         4         165         166         182         181
         4         166         167         183         182
         4         167         168         184         183
         4         168         169         185         184
         4         169         170         186         185
         4         170         171         187         186
         4         171         172         188         187
         4         172         173         189         188
         4         173         174         190         189
         4         174         175         191         190
         4         176         177         193         192
         4         177         178         194         193
         4         178         179         195         194
         4         179         180         196         195
         4         180         181         197         196
         4         181         182         198         197
         4         182         183         199         198
         4         183         184         200         199
         4         184         185         201         200
         4         185         186         202         201
         4         186         187         203         202
         4         187         188         204         203
         4         188         189         205         204
         4         189         190         206         205
         4         190         191         207         206
         4         192         193         209         208
         4         193         194         210         209
         4         194         195         211         210
         4         195         196         212         211
         4         196         197         213         212
         4         197         198         214         213
         4         198         199         215         214
         4         199         200         216         215
         4         200         201         217         216
         4         201         202         218         217
         4         202         203         219         218
         4         203         204         220         219
         4         204         205         221         220
         4         205         206         222         221
         4         206         207         223         222
         4         208         209         225         224
         4         209         210         226         225
         4         210         211         227         226
         4         211         212         228         227
         4         212         213         229         228
         4         213         214         230         229
         4         214         215         231         230
         4         215         216         232         231
         4         216         217         233         232
         4         217         218         234         233
         4         218         219         235         234
         4         219         220         236         235
         4         220         221         237         236
         4         221         222         238         237
         4         222         223         239         238
         4         224         225         241         240
         4         225         226         242         241
         4         226         227         243         242
         4         227         228         244         243
         4         228         229         245         244
         4         229         230         246         245
         4         230         231         247         246
         4         231         232         248         247
         4         232         233         249         248
         4         233         234         250         249
         4         234         235         251         250
         4         235         236         252         251
         4         236         237         253         252
         4         237         238         254         253
         4         238         239         255         254
         4         240         241         257         256
         4         241         242         258         257
         4         242         243         259         258
         4         243         244         260         259
         4         244         245         261         260
         4         245         246         262         261
         4         246         247         263         262
         4         247         248         264         263
         4         248         249         265         264
         4         249         250         266         265
         4         250         251         267         266
         4         251         252         268         267
         4         252         253         269         268
         4         253         254         270         269
         4         254         255         271         270
         4         256         257         273         272
         4         257         258         274         273
         4         258         259         275         274
         4         259         260         276         275
         4         260         261         277         276
         4         261         262         278         277
         4         262         263         279         278
         4         263         264         280         279
         4         264         265         281         280
         4         265         266         282         281
         4         266         267         283         282
         4         267         268         284         283
         4         268         269         285         284
         4         269         270         286         285
         4         270         271         287         286
         4         272         273         289         288
         4         273         274         290         289
         4         274         275         291         290
         4         275         276         292         291
         4         276         277         293         292
         4         277         278         294         293
         4         278         279         295         294
         4         279         280         296         295
         4         280         281         297         296
         4         281         282         298         297
         4         282         283         299         298
         4         283         284         300         299
         4         284         285         301         300
         4         285         286         302         301
         4         286         287         303         302
         4         288         289         305         304
         4         289         290         306         305
         4         290         291         307         306
         4         291         292         308         307
         4         292         293         309         308
         4         293         294         310         309
         4         294         295         311         310
         4         295         296         312         311
         4         296         297         313         312
         4         297         298         314         313
         4         298         299         315         314
         4         299         300         316         315
         4         300         301         317         316
         4         301         302         318         317
         4         302         303         319         318
         4         304         305         321         320
         4         305         306         322         321
         4         306         307         323         322
         4         307         308         324         323
         4         308         309         325         324
         4         309         310         326         325
         4         310         311         327         326
         4         311         312         328         327
         4         312         313         329         328
         4         313         314         330         329
         4         314         315         331         330
         4         315         316         332         331
         4         316         317         333         332
         4         317         318         334         333
         4         318         319         335         334
         4         320         321         337         336
         4         321         322         338         337
         4         322         323         339         338
         4         323         324         340         339
         4         324         325         341         340
         4         325         326         342         341
         4         326         327         343         342
         4         327         328         344         343
         4         328         329         345         344
         4         329         330         346         345
         4         330         331         347         346
         4         331         332         348         347
         4         332         333         349         348
         4         333         334         350         349
         4         334         335         351         350
         4         336         337         353         352
         4         337         338         354         353
         4         338         339         355         354
         4         339         340         356         355
         4         340         341         357         356
         4         341         342         358         357
         4         342         343         359         358
         4         343         344         360         359
         4         344         345         361         360
         4         345         346         362         361
         4         346         347         363         362
         4         347         348         364         363
         4         348         349         365         364
         4         349         350         366         365
         4         350         351         367         366
         4         352         353         369         368
         4         353         354         370         369
         4         354         355         371         370
         4         355         356         372         371
         4         356         357         373         372
         4         357         358         374         373
         4         358         359         375         374
         4         359         360         376         375
         4         360         361         377         376
         4         361         362         378         377
         4         362         363         379         378
         4         363         364         380         379
         4         364         365         381         380
         4         365         366         382         381
         4         366         367         383         382
         4         368         369         385         384
         4         369         370         386         385
         4         370         371         387         386
         4         371         372         388         387
         4         372         373         389         388
         4         373         374         390         389
         4         374         375         391         390
         4         375         376         392         391
         4         376         377         393         392
         4         377         378         394         393
         4         378         379         395         394
         4         379         380         396         395
         4         380         381         397         396
         4         381         382         398         397
         4         382         383         399         398
         4         384         385         401         400
         4         385         386         402         401
         4         386         387         403         402
         4         387         388         404         403
         4         388         389         405         404
         4         389         390         406         405
         4         390         391         407         406
         4         391         392         408         407
         4         392         393         409         408
         4         393         394         410         409
         4         394         395         411         410
         4         395         396         412         411
         4         396         397         413         412
         4         397         398         414         413
         4         398         399         415         414
         4         400         401         417         416
         4         401         402         418         417
         4         402         403         419         418
         4         403         404         420         419
         4         404         405         421         420
         4         405         406         422         421
         4         406         407         423         422
         4         407         408         424         423
         4         408         409         425         424
         4         409         410         426         425
         4         410         411         427         426
         4         411         412         428         427
         4         412         413         429         428
         4         413         414         430         429
         4         414         415         431         430
         4         416         417         433         432
         4         417         418         434         433
         4         418         419         435         434
         4         419         420         436         435
         4         420         421         437         436
         4         421         422         438         437
         4         422         423         439         438
         4         423         424         440         439
         4         424         425         441         440
         4         425         426         442         441
         4         426         427         443         442
         4         427         428         444         443
         4         428         429         445         444
         4         429         430         446         445
         4         430         431         447         446
         4         432         433         449         448
         4         433         434         450         449
         4         434         435         451         450
         4         435         436         452         451
         4         436         437         453         452
         4         437         438         454         453
         4         438         439         455         454
         4         439         440         456         455
         4         440         441         457         456
         4         441         442         458         457
         4         442         443         459         458
         4         443         444         460         459
         4         444         445         461         460
         4         445         446         462         461
         4         446         447         463         462
         4         448         449         465         464
         4         449         450         466         465
         4         450         451         467         466
         4         451         452         468         467
         4         452         453         469         468
         4         453         454         470         469
         4         454         455         471         470
         4         455         456         472         471
         4         456         457         473         472
         4         457         458         474         473
         4         458         459         475         474
         4         459         460         476         475
         4         460         461         477         476
         4         461         462         478         477
         4         462         463         479         478
         4         464         465         481         480
         4         465         466         482         481
         4         466         467         483         482
         4         467         468         484         483
         4         468         469         485         484
         4         469         470         486         485
         4         470         471         487         486
         4         471         472         488         487
         4         472         473         489         488
         4         473         474         490         489
         4         474         475         491         490
         4         475         476         492         491
         4         476         477         493         492
         4         477         478         494         493
         4         478         479         495         494
CELL_TYPES        450
9
9
9
9
9
9
9
9
9
9
9
9
9
9
9
9
9
9
9
9
9
9
9
9
9
9
9
9
9
9
9
9
9
9
9
9
9
9
9
9
9
9
9
9
9
9
9
9
9
9
9
9
9
9
9
9
9
9
9
9
9
9
9
9
9
9
9
9
9
9
9
9
9
9
9
9
9
9
9
9
9
9
9
9
9
9
9
9
9
9
9
9
9
9
9
9
9
9
9
9
9
9
9
9
9
9
9
9
9
9
9
9
9
9
9
9
9
9
9
9
9
9
9
9
9
9
9
9
9
9
9
9
9
9
9
9
9
9
9
9
9
9
9
9
9
9
9
9
9
9
9
9
9
9
9
9
9
9
9
9
9
9
9
9
9
9
9
9
9
9
9
9
9
9
9
9
9
9
9
9
9
9
9
9
9
9
9
9
9
9
9
9
9
9
9
9
9
9
9
9
9
9
9
9
9
9
9
9
9
9
9
9
9
9
9
9
9
9
9
9
9
9
9
9
9
9
9
9
9
9
9
9
9
9
9
9
9
9
9
9
9
9
9
9
9
9
9
9
9
9
9
9
9
9
9
9
9
9
9
9
9
9
9
9
9
9
9
9
9
9
9
9
9
9
9
9
9
9
9
9
9
9
9
9
9
9
9
9
9
9
9
9
9
9
9
9
9
9
9
9
9
9
9
9
9
9
9
9
9
9
9
9
9
9
9
9
9
9
9
9
9
9
9
9
9
9
9
9
9
9
9
9
9
9
9
9
9
9
9
9
9
9
9
9
9
9
9
9
9
9
9
9
9
9
9
9
9
9
9
9
9
9
9
9
9
9
9
9
9
9
9
9
9
9
9
9
9
9
9
9
9
9
9
9
9
9
9
9
9
9
9
9
9
9
9
9
9
9
9
9
9
9
9
9
9
9
9
9
9
9
9
9
9
9
9
9
9
9
9
9
9
9
9
9
9
9
9
9
9
9
9
9
9
9
9
9
9
9
9
9
9
9
9
9
9
9
9
9
9
9
POINT_DATA       496
SCALARS p double 
LOOKUP_TABLE default
   90000000.0000000     
   90000000.0000000     
   90000000.0000000     
   90000000.0000000     
   90000000.0000000     
   90000000.0000000     
   90000000.0000000     
   90000000.0000000     
   90000000.0000000     
   90000000.0000000     
   90000000.0000000     
   90000000.0000000     
   90000000.0000000     
   90000000.0000000     
   90000000.0000000     
   90000000.0000000     
   87134362.5723441     
   87133749.0112641     
   87132662.9085074     
   87131538.0799858     
   87130583.1835731     
   87129959.8968726     
   87129680.0503639     
   87129618.5577063     
   87129670.3596005     
   87129768.4599547     
   87129859.5842150     
   87129899.4730537     
   87129852.1729063     
   87129694.9669649     
   87129430.3118586     
   87129184.6885745     
   84266134.1829530     
   84265596.3667966     
   84264483.4432526     
   84263369.7746390     
   84262590.0196636     
   84262186.9556956     
   84262100.9635245     
   84262262.8301552     
   84262578.4266416     
   84262952.5442554     
   84263304.4061587     
   84263566.5083556     
   84263687.8780604     
   84263643.9071101     
   84263470.5858600     
   84263334.5116260     
   81401292.8447096     
   81401011.7470330     
   81400513.5376383     
   81400142.6251503     
   81400015.6919018     
   81400185.9967968     
   81400634.5176857     
   81401294.9414002     
   81402082.7894990     
   81402906.5696224     
   81403679.0531586     
   81404325.8397069     
   81404791.7288709     
   81405053.0976501     
   81405137.9742908     
   81405135.7388831     
   78545070.6749336     
   78545135.3432331     
   78545350.1565374     
   78545789.0585105     
   78546496.3889192     
   78547462.2707173     
   78548647.4344769     
   78549987.8283312     
   78551403.2410950     
   78552808.1031406     
   78554119.4325454     
   78555263.7761459     
   78556183.9013599     
   78556845.5856570     
   78557241.3533809     
   78557380.7786917     
   75701373.3786656     
   75701717.4049973     
   75702591.2945463     
   75703865.6284560     
   75705457.7417179     
   75707295.8894905     
   75709306.0823837     
   75711411.0555860     
   75713530.3550574     
   75715582.9390183     
   75717491.0025791     
   75719183.4833933     
   75720598.7312329     
   75721684.8817753     
   75722394.3620178     
   75722667.0694903     
   72873416.3711091     
   72874003.2180550     
   72875464.0904021     
   72877510.4137264     
   72879947.2589753     
   72882633.0541824     
   72885455.7065070     
   72888319.5935558     
   72891138.9450561     
   72893834.4471128     
   72896331.7960159     
   72898560.7892795     
   72900453.4143229     
   72901939.0327353     
   72902934.0223772     
   72903323.0995290     
   70063952.5898803     
   70064738.4402943     
   70066689.3542795     
   70069392.4965035     
   70072560.7390484     
   70075990.5462673     
   70079532.4832959     
   70083071.6438432     
   70086514.8500257     
   70089782.1762933     
   70092800.8943441     
   70095500.2868334     
   70097805.7206897     
   70099630.2134175     
   70100861.6637997     
   70101344.3059235     
   67275183.1869537     
   67276118.0799101     
   67278440.6710269     
   67281647.9269356     
   67285383.2407391     
   67289394.0699832     
   67293499.9059261     
   67297568.8068603     
   67301500.4104872     
   67305213.4100363     
   67308635.7509267     
   67311695.9815897     
   67314314.2736139     
   67316391.6708231     
   67317796.3049229     
   67318345.7895875     
   64508719.0369945     
   64509748.8165662     
   64512310.8228786     
   64515845.2170459     
   64519949.7348292     
   64524338.4334545     
   64528809.0065311     
   64533217.4295005     
   64537458.4217404     
   64541450.1612680     
   64545121.7613507     
   64548402.1309417     
   64551208.9468546     
   64553436.6072573     
   64554942.2859762     
   64555529.6297466     
   61765565.6135873     
   61766634.7240155     
   61769297.9046669     
   61772970.6154063     
   61777228.7279895     
   61781769.5426866     
   61786379.8795755     
   61790910.3383499     
   61795254.6135554     
   61799332.6611122     
   61803076.5181382     
   61806417.6423411     
   61809274.7443492     
   61811541.2477947     
   61813071.7569566     
   61813667.2553121     
   59046130.5099267     
   59047184.6875810     
   59049812.3238604     
   59053434.0805911     
   59057626.7143932     
   59062087.3408321     
   59066603.4250492     
   59071027.8471870     
   59075258.2332574     
   59079219.6512627     
   59082849.7511613     
   59086085.4662283     
   59088850.4854875     
   59091042.8551976     
   59092522.2776645     
   59093096.9436365     
   56350251.3200977     
   56351240.0357931     
   56353703.6289300     
   56357094.8052951     
   56361012.0443800     
   56365167.8992094     
   56369361.7688045     
   56373456.7105300     
   56377359.7343331     
   56381004.9374671     
   56384338.8072422     
   56387307.0412609     
   56389842.3076183     
   56391852.4902513     
   56393209.1337282     
   56393736.0062766     
   53677241.5811430     
   53678120.1147793     
   53680305.0692808     
   53683304.2484262     
   53686756.0747004     
   53690402.5127005     
   53694065.2885727     
   53697625.1725856     
   53701003.9837371     
   53704148.8976823     
   53707018.6029462     
   53709570.8591483     
   53711751.0645082     
   53713481.5353088     
   53714651.3308564     
   53715106.6118023     
   51025951.8590515     
   51026682.9444605     
   51028493.0985847     
   51030963.9430522     
   51033788.9079630     
   51036751.1585518     
   51039703.7206978     
   51042551.7567053     
   51045236.8399705     
   51047723.0008976     
   51049984.2751264     
   51051993.4824527     
   51053712.0006003     
   51055080.3688064     
   51056009.6551521     
   51056373.6377919     
   48394842.6084540     
   48395397.6131460     
   48396758.5395949     
   48398594.8689615     
   48400666.5855675     
   48402807.2769975     
   48404908.4283508     
   48406905.0286919     
   48408762.5023649     
   48410464.8988893     
   48412004.2280942     
   48413370.8142965     
   48414544.5639423     
   48415487.0916653     
   48416134.7238073     
   48416392.4868838     
   45782065.1247863     
   45782424.7551882     
   45783285.8142020     
   45784414.8719234     
   45785646.3083315     
   45786870.5548301     
   45788022.6364753     
   45789071.2773192     
   45790008.7185214     
   45790841.3146114     
   45791580.9201742     
   45792237.0577440     
   45792809.8662089     
   45793283.8639591     
   45793622.6168601     
   45793764.4704110     
   43185546.7731932     
   43185701.3194359     
   43186036.5042873     
   43186420.4753036     
   43186766.1262202     
   43187024.2618068     
   43187176.3023072     
   43187226.9066096     
   43187196.7706971     
   43187115.7675280     
   43187016.5362162     
   43186928.6004956     
   43186873.0961556     
   43186858.2108957     
   43186875.4834517     
   43186897.1661678     
   40603076.7146607     
   40603025.8702838     
   40602833.5392745     
   40602469.4566995     
   40601925.5621497     
   40601213.7078229     
   40600362.2991327     
   40599412.3300167     
   40598413.1420507     
   40597418.1412317     
   40596480.6455457     
   40595650.0054140     
   40594968.1333521     
   40594466.5954454     
   40594164.4528455     
   40594067.0928715     
   38032388.5422564     
   38032140.8528326     
   38031442.4905800     
   38030360.7400932     
   38028963.8051338     
   38027322.5495294     
   38025510.7393032     
   38023604.2900151     
   38021679.8807052     
   38019813.2000566     
   38018077.0328170     
   38016539.3651631     
   38015261.6795496     
   38014297.6204046     
   38013692.2425518     
   38013482.1045397     
   35471236.5661472     
   35470808.5768257     
   35469646.7706440     
   35467908.4643123     
   35465732.4094114     
   35463243.9648515     
   35460558.5375083     
   35457783.7840489     
   35455020.9183072     
   35452365.3821856     
   35449907.0945923     
   35447730.4724568     
   35445914.4092878     
   35444532.4005518     
   35443653.0295496     
   35443341.0799233     
   32917462.9174998     
   32916878.1035647     
   32915313.9599816     
   32913007.5094290     
   32910159.8496133     
   32906944.1154896     
   32903511.6999860     
   32899997.1413905     
   32896521.9405852     
   32893197.5159878     
   32890127.4956056     
   32887409.5449978     
   32885136.9196084     
   32883399.9175974     
   32882287.4186250     
   32881888.7484853     
   30369053.1471357     
   30368340.7257903     
   30366450.9929178     
   30363688.2716664     
   30360305.7886420     
   30356515.8136642     
   30352498.3017951     
   30348408.2451497     
   30344381.8277427     
   30340541.4994047     
   30337000.1502223     
   30333864.6014226     
   30331238.6080782     
   30329225.5160787     
   30327930.6850516     
   30327463.8365064     
   27824178.5401456     
   27823372.2800512     
   27821246.4949620     
   27818159.0553910     
   27814403.5007428     
   27810220.8866774     
   27805810.6661048     
   27801340.4087347     
   27796954.1575177     
   27792779.4212530     
   27788933.0070509     
   27785525.9825212     
   27782668.0025754     
   27780471.0947713     
   27779052.8677352     
   27778539.1160434     
   25281223.9122102     
   25280361.0886495     
   25278099.1594511     
   25274835.0893659     
   25270889.5550329     
   25266520.3858433     
   25261935.8728829     
   25257306.9750413     
   25252777.7669712     
   25248474.0574507     
   25244510.5339258     
   25240996.9155998     
   25238043.4743110     
   25235765.9717491     
   25234289.7254197     
   25233752.3803500     
   22738800.1411827     
   22737920.8517403     
   22735631.6676574     
   22732353.8908185     
   22728420.6268812     
   22724092.5189742     
   22719574.3832852     
   22715030.2845889     
   22710595.8729867     
   22706388.1151364     
   22702513.1870539     
   22699073.3839022     
   22696173.6451680     
   22693927.8234366     
   22692464.0313558     
   22691927.8411071     
   20195741.0320278     
   20194888.2432458     
   20192690.3211030     
   20189577.5850906     
   20185878.2280523     
   20181838.9997803     
   20177647.2317080     
   20173449.2158277     
   20169363.7396419     
   20165492.0023192     
   20161925.4702784     
   20158752.8176720     
   20156067.0797400     
   20153973.4810715     
   20152597.1565697     
   20152087.9758528     
   17651084.0775765     
   17650305.2251131     
   17648331.4768785     
   17645584.0867936     
   17642363.3525683     
   17638881.3212148     
   17635292.7916311     
   17631715.9960330     
   17628245.3392052     
   17624960.3226711     
   17621932.4182264     
   17619231.2019563     
   17616930.8622381     
   17615119.5774059     
   17613911.4718414     
   17613456.3886401     
   15104033.8641404     
   15103386.3184508     
   15101797.6675896     
   15099651.6813741     
   15097184.3325943     
   15094548.7915646     
   15091854.4895908     
   15089183.3656976     
   15086599.8946763     
   15084157.7468539     
   15081904.8507384     
   15079887.8471173     
   15078157.0502846     
   15076772.8781749     
   15075824.2839215     
   15075453.9505266     
   12553903.3949000     
   12553470.4859088     
   12552495.3301146     
   12551245.0468061     
   12549840.0509891     
   12548360.1516871     
   12546860.9357563     
   12545383.4652258     
   12543959.5836334     
   12542615.4799884     
   12541374.3491395     
   12540258.7099501     
   12539292.8026040     
   12538506.3872419     
   12537938.1564146     
   12537687.4548560     
   10000000.0000000     
   10000000.0000000     
   10000000.0000000     
   10000000.0000000     
   10000000.0000000     
   10000000.0000000     
   10000000.0000000     
   10000000.0000000     
   10000000.0000000     
   10000000.0000000     
   10000000.0000000     
   10000000.0000000     
   10000000.0000000     
  10000000.00000000     
   10000000.0000000     
   10000000.0000000     
VECTORS u double 
    0.00000E+00         0.21518E-01         0.00000E+00
    0.00000E+00         0.20784E-01         0.00000E+00
    0.00000E+00         0.19643E-01         0.00000E+00
    0.00000E+00         0.18255E-01         0.00000E+00
    0.00000E+00         0.16752E-01         0.00000E+00
    0.00000E+00         0.15249E-01         0.00000E+00
    0.00000E+00         0.13790E-01         0.00000E+00
    0.00000E+00         0.12375E-01         0.00000E+00
    0.00000E+00         0.10984E-01         0.00000E+00
    0.00000E+00         0.95984E-02         0.00000E+00
    0.00000E+00         0.81980E-02         0.00000E+00
    0.00000E+00         0.67627E-02         0.00000E+00
    0.00000E+00         0.52677E-02         0.00000E+00
    0.00000E+00         0.36816E-02         0.00000E+00
    0.00000E+00         0.19587E-02         0.00000E+00
    0.00000E+00         0.00000E+00         0.00000E+00
    0.58275E-02         0.20919E-01         0.00000E+00
    0.50093E-02         0.20117E-01         0.00000E+00
    0.41329E-02         0.19018E-01         0.00000E+00
    0.33816E-02         0.17727E-01         0.00000E+00
    0.27467E-02         0.16357E-01         0.00000E+00
    0.23513E-02         0.14967E-01         0.00000E+00
    0.21266E-02         0.13580E-01         0.00000E+00
    0.19455E-02         0.12207E-01         0.00000E+00
    0.17798E-02         0.10845E-01         0.00000E+00
    0.16172E-02         0.94819E-02         0.00000E+00
    0.14490E-02         0.81002E-02         0.00000E+00
    0.12667E-02         0.66809E-02         0.00000E+00
    0.10598E-02         0.52005E-02         0.00000E+00
    0.81205E-03         0.36279E-02         0.00000E+00
    0.49294E-03         0.19182E-02         0.00000E+00
    0.00000E+00         0.00000E+00         0.00000E+00
    0.99890E-02         0.19959E-01         0.00000E+00
    0.86034E-02         0.18917E-01         0.00000E+00
    0.71939E-02         0.17806E-01         0.00000E+00
    0.60054E-02         0.16647E-01         0.00000E+00
    0.51410E-02         0.15456E-01         0.00000E+00
    0.45258E-02         0.14238E-01         0.00000E+00
    0.40732E-02         0.12992E-01         0.00000E+00
    0.37036E-02         0.11723E-01         0.00000E+00
    0.33676E-02         0.10440E-01         0.00000E+00
    0.30403E-02         0.91406E-02         0.00000E+00
    0.27036E-02         0.78130E-02         0.00000E+00
    0.23406E-02         0.64418E-02         0.00000E+00
    0.19311E-02         0.50058E-02         0.00000E+00
    0.14460E-02         0.34773E-02         0.00000E+00
    0.83318E-03         0.18197E-02         0.00000E+00
    0.00000E+00         0.00000E+00         0.00000E+00
    0.13056E-01         0.18322E-01         0.00000E+00
    0.11251E-01         0.17331E-01         0.00000E+00
    0.96908E-02         0.16318E-01         0.00000E+00
    0.83798E-02         0.15306E-01         0.00000E+00
    0.73325E-02         0.14279E-01         0.00000E+00
    0.65127E-02         0.13215E-01         0.00000E+00
    0.58544E-02         0.12112E-01         0.00000E+00
    0.52952E-02         0.10972E-01         0.00000E+00
    0.47862E-02         0.98000E-02         0.00000E+00
    0.42927E-02         0.85960E-02         0.00000E+00
    0.37886E-02         0.73537E-02         0.00000E+00
    0.32491E-02         0.60610E-02         0.00000E+00
    0.26463E-02         0.47008E-02         0.00000E+00
    0.19432E-02         0.32515E-02         0.00000E+00
    0.10860E-02         0.16901E-02         0.00000E+00
    0.00000E+00         0.00000E+00         0.00000E+00
    0.15630E-01         0.16312E-01         0.00000E+00
    0.13666E-01         0.15487E-01         0.00000E+00
    0.11966E-01         0.14638E-01         0.00000E+00
    0.10521E-01         0.13772E-01         0.00000E+00
    0.93130E-02         0.12885E-01         0.00000E+00
    0.83113E-02         0.11966E-01         0.00000E+00
    0.74673E-02         0.11007E-01         0.00000E+00
    0.67290E-02         0.10005E-01         0.00000E+00
    0.60504E-02         0.89618E-02         0.00000E+00
    0.53935E-02         0.78769E-02         0.00000E+00
    0.47260E-02         0.67456E-02         0.00000E+00
    0.40176E-02         0.55592E-02         0.00000E+00
    0.32354E-02         0.43051E-02         0.00000E+00
    0.23398E-02         0.29686E-02         0.00000E+00
    0.12812E-02         0.15360E-02         0.00000E+00
    0.00000E+00         0.00000E+00         0.00000E+00
    0.17984E-01         0.14124E-01         0.00000E+00
    0.15863E-01         0.13459E-01         0.00000E+00
    0.14025E-01         0.12767E-01         0.00000E+00
    0.12441E-01         0.12051E-01         0.00000E+00
    0.11085E-01         0.11309E-01         0.00000E+00
    0.99225E-02         0.10535E-01         0.00000E+00
    0.89121E-02         0.97207E-02         0.00000E+00
    0.80090E-02         0.88634E-02         0.00000E+00
    0.71703E-02         0.79614E-02         0.00000E+00
    0.63571E-02         0.70126E-02         0.00000E+00
    0.55344E-02         0.60134E-02         0.00000E+00
    0.46682E-02         0.49574E-02         0.00000E+00
    0.37233E-02         0.38361E-02         0.00000E+00
    0.26605E-02         0.26400E-02         0.00000E+00
    0.14356E-02         0.13620E-02         0.00000E+00
    0.00000E+00         0.00000E+00         0.00000E+00
    0.20101E-01         0.11773E-01         0.00000E+00
    0.17837E-01         0.11266E-01         0.00000E+00
    0.15866E-01         0.10730E-01         0.00000E+00
    0.14150E-01         0.10167E-01         0.00000E+00
    0.12657E-01         0.95751E-02         0.00000E+00
    0.11351E-01         0.89499E-02         0.00000E+00
    0.10192E-01         0.82863E-02         0.00000E+00
    0.91396E-02         0.75803E-02         0.00000E+00
    0.81535E-02         0.68291E-02         0.00000E+00
    0.71954E-02         0.60302E-02         0.00000E+00
    0.62288E-02         0.51802E-02         0.00000E+00
    0.52185E-02         0.42747E-02         0.00000E+00
    0.41289E-02         0.33079E-02         0.00000E+00
    0.29224E-02         0.22747E-02         0.00000E+00
    0.15595E-02         0.11718E-02         0.00000E+00
    0.00000E+00         0.00000E+00         0.00000E+00
    0.21973E-01         0.92814E-02         0.00000E+00
    0.19584E-01         0.89301E-02         0.00000E+00
    0.17491E-01         0.85508E-02         0.00000E+00
    0.15655E-01         0.81436E-02         0.00000E+00
    0.14037E-01         0.77066E-02         0.00000E+00
    0.12602E-01         0.72365E-02         0.00000E+00
    0.11312E-01         0.67292E-02         0.00000E+00
    0.10126E-01         0.61814E-02         0.00000E+00
    0.90073E-02         0.55900E-02         0.00000E+00
    0.79178E-02         0.49525E-02         0.00000E+00
    0.68212E-02         0.42659E-02         0.00000E+00
    0.56824E-02         0.35271E-02         0.00000E+00
    0.44660E-02         0.27326E-02         0.00000E+00
    0.31370E-02         0.18799E-02         0.00000E+00
    0.16597E-02         0.96823E-03         0.00000E+00
    0.00000E+00         0.00000E+00         0.00000E+00
    0.23598E-01         0.66733E-02         0.00000E+00
    0.21103E-01         0.64765E-02         0.00000E+00
    0.18904E-01         0.62544E-02         0.00000E+00
    0.16960E-01         0.60052E-02         0.00000E+00
    0.15232E-01         0.57268E-02         0.00000E+00
    0.13684E-01         0.54166E-02         0.00000E+00
    0.12277E-01         0.50715E-02         0.00000E+00
    0.10974E-01         0.46885E-02         0.00000E+00
    0.97384E-02         0.42650E-02         0.00000E+00
    0.85327E-02         0.37987E-02         0.00000E+00
    0.73215E-02         0.32871E-02         0.00000E+00
    0.60702E-02         0.27282E-02         0.00000E+00
    0.47449E-02         0.21200E-02         0.00000E+00
    0.33124E-02         0.14617E-02         0.00000E+00
    0.17407E-02         0.75392E-03         0.00000E+00
    0.00000E+00         0.00000E+00         0.00000E+00
    0.24976E-01         0.39714E-02         0.00000E+00
    0.22395E-01         0.39284E-02         0.00000E+00
    0.20106E-01         0.38633E-02         0.00000E+00
    0.18069E-01         0.37735E-02         0.00000E+00
    0.16246E-01         0.36568E-02         0.00000E+00
    0.14600E-01         0.35107E-02         0.00000E+00
    0.13094E-01         0.33327E-02         0.00000E+00
    0.11690E-01         0.31205E-02         0.00000E+00
    0.10353E-01         0.28719E-02         0.00000E+00
    0.90471E-02         0.25849E-02         0.00000E+00
    0.77373E-02         0.22578E-02         0.00000E+00
    0.63901E-02         0.18891E-02         0.00000E+00
    0.49728E-02         0.14782E-02         0.00000E+00
    0.34545E-02         0.10250E-02         0.00000E+00
    0.18057E-02         0.53109E-03         0.00000E+00
    0.00000E+00         0.00000E+00         0.00000E+00
    0.26112E-01         0.11964E-02         0.00000E+00
    0.23464E-01         0.13064E-02         0.00000E+00
    0.21102E-01         0.13983E-02         0.00000E+00
    0.18988E-01         0.14689E-02         0.00000E+00
    0.17085E-01         0.15157E-02         0.00000E+00
    0.15357E-01         0.15368E-02         0.00000E+00
    0.13767E-01         0.15300E-02         0.00000E+00
    0.12279E-01         0.14935E-02         0.00000E+00
    0.10857E-01         0.14255E-02         0.00000E+00
    0.94671E-02         0.13246E-02         0.00000E+00
    0.80750E-02         0.11894E-02         0.00000E+00
    0.66482E-02         0.10193E-02         0.00000E+00
    0.51554E-02         0.81398E-03         0.00000E+00
    0.35673E-02         0.57414E-03         0.00000E+00
    0.18568E-02         0.30169E-03         0.00000E+00
    0.00000E+00         0.00000E+00         0.00000E+00
    0.27010E-01        -0.16330E-02         0.00000E+00
    0.24311E-01        -0.13706E-02         0.00000E+00
    0.21893E-01        -0.11221E-02         0.00000E+00
    0.19718E-01        -0.89088E-03         0.00000E+00
    0.17752E-01        -0.67914E-03         0.00000E+00
    0.15958E-01        -0.48871E-03         0.00000E+00
    0.14301E-01        -0.32124E-03         0.00000E+00
    0.12745E-01        -0.17821E-03         0.00000E+00
    0.11255E-01        -0.60963E-04         0.00000E+00
    0.97977E-02         0.29391E-04         0.00000E+00
    0.83396E-02         0.92035E-04         0.00000E+00
    0.68492E-02         0.12657E-03         0.00000E+00
    0.52966E-02         0.13318E-03         0.00000E+00
    0.36538E-02         0.11280E-03         0.00000E+00
    0.18957E-02         0.67389E-04         0.00000E+00
    0.00000E+00         0.00000E+00         0.00000E+00
    0.27675E-01        -0.45003E-02         0.00000E+00
    0.24942E-01        -0.40861E-02         0.00000E+00
    0.22483E-01        -0.36816E-02         0.00000E+00
    0.20265E-01        -0.32897E-02         0.00000E+00
    0.18251E-01        -0.29124E-02         0.00000E+00
    0.16408E-01        -0.25512E-02         0.00000E+00
    0.14700E-01        -0.22073E-02         0.00000E+00
    0.13093E-01        -0.18820E-02         0.00000E+00
    0.11552E-01        -0.15761E-02         0.00000E+00
    0.10043E-01        -0.12906E-02         0.00000E+00
    0.85351E-02        -0.10260E-02         0.00000E+00
    0.69969E-02        -0.78230E-03         0.00000E+00
    0.53995E-02        -0.55926E-03         0.00000E+00
    0.37163E-02        -0.35585E-03         0.00000E+00
    0.19234E-02        -0.17031E-03         0.00000E+00
    0.00000E+00         0.00000E+00         0.00000E+00
    0.28112E-01        -0.73908E-02         0.00000E+00
    0.25359E-01        -0.68255E-02         0.00000E+00
    0.22876E-01        -0.62656E-02         0.00000E+00
    0.20629E-01        -0.57134E-02         0.00000E+00
    0.18585E-01        -0.51704E-02         0.00000E+00
    0.16710E-01        -0.46375E-02         0.00000E+00
    0.14968E-01        -0.41160E-02         0.00000E+00
    0.13326E-01        -0.36065E-02         0.00000E+00
    0.11750E-01        -0.31099E-02         0.00000E+00
    0.10207E-01        -0.26266E-02         0.00000E+00
    0.86647E-02        -0.21571E-02         0.00000E+00
    0.70940E-02        -0.17014E-02         0.00000E+00
    0.54665E-02        -0.12590E-02         0.00000E+00
    0.37564E-02        -0.82902E-03         0.00000E+00
    0.19408E-02        -0.41007E-03         0.00000E+00
    0.00000E+00         0.00000E+00         0.00000E+00
    0.28324E-01        -0.10291E-01         0.00000E+00
    0.25566E-01        -0.95754E-02         0.00000E+00
    0.23073E-01        -0.88611E-02         0.00000E+00
    0.20814E-01        -0.81491E-02         0.00000E+00
    0.18756E-01        -0.74405E-02         0.00000E+00
    0.16865E-01        -0.67359E-02         0.00000E+00
    0.15107E-01        -0.60361E-02         0.00000E+00
    0.13447E-01        -0.53416E-02         0.00000E+00
    0.11853E-01        -0.46529E-02         0.00000E+00
    0.10291E-01        -0.39705E-02         0.00000E+00
    0.87309E-02        -0.32947E-02         0.00000E+00
    0.71428E-02        -0.26253E-02         0.00000E+00
    0.54992E-02        -0.19620E-02         0.00000E+00
    0.37752E-02        -0.13042E-02         0.00000E+00
    0.19485E-02        -0.65067E-03         0.00000E+00
    0.00000E+00         0.00000E+00         0.00000E+00
    0.28316E-01        -0.13189E-01         0.00000E+00
    0.25565E-01        -0.12324E-01         0.00000E+00
    0.23077E-01        -0.11456E-01         0.00000E+00
    0.20822E-01        -0.10585E-01         0.00000E+00
    0.18766E-01        -0.97114E-02         0.00000E+00
    0.16876E-01        -0.88353E-02         0.00000E+00
    0.15118E-01        -0.79573E-02         0.00000E+00
    0.13458E-01        -0.70776E-02         0.00000E+00
    0.11862E-01        -0.61967E-02         0.00000E+00
    0.10298E-01        -0.53149E-02         0.00000E+00
    0.87353E-02        -0.44323E-02         0.00000E+00
    0.71447E-02        -0.35490E-02         0.00000E+00
    0.54990E-02        -0.26647E-02         0.00000E+00
    0.37737E-02        -0.17789E-02         0.00000E+00
    0.19469E-02        -0.89096E-03         0.00000E+00
    0.00000E+00         0.00000E+00         0.00000E+00
    0.28088E-01        -0.16072E-01         0.00000E+00
    0.25357E-01        -0.15059E-01         0.00000E+00
    0.22889E-01        -0.14039E-01         0.00000E+00
    0.20654E-01        -0.13010E-01         0.00000E+00
    0.18617E-01        -0.11972E-01         0.00000E+00
    0.16746E-01        -0.10925E-01         0.00000E+00
    0.15005E-01        -0.98696E-02         0.00000E+00
    0.13361E-01        -0.88054E-02         0.00000E+00
    0.11779E-01        -0.77329E-02         0.00000E+00
    0.10229E-01        -0.66524E-02         0.00000E+00
    0.86794E-02        -0.55640E-02         0.00000E+00
    0.71008E-02        -0.44677E-02         0.00000E+00
    0.54666E-02        -0.33634E-02         0.00000E+00
    0.37523E-02        -0.22509E-02         0.00000E+00
    0.19362E-02        -0.11299E-02         0.00000E+00
    0.00000E+00         0.00000E+00         0.00000E+00
    0.27641E-01        -0.18930E-01         0.00000E+00
    0.24943E-01        -0.17770E-01         0.00000E+00
    0.22510E-01        -0.16598E-01         0.00000E+00
    0.20310E-01        -0.15412E-01         0.00000E+00
    0.18310E-01        -0.14211E-01         0.00000E+00
    0.16474E-01        -0.12995E-01         0.00000E+00
    0.14767E-01        -0.11763E-01         0.00000E+00
    0.13156E-01        -0.10516E-01         0.00000E+00
    0.11606E-01        -0.92533E-02         0.00000E+00
    0.10086E-01        -0.79759E-02         0.00000E+00
    0.85637E-02        -0.66837E-02         0.00000E+00
    0.70115E-02        -0.53767E-02         0.00000E+00
    0.54022E-02        -0.40548E-02         0.00000E+00
    0.37112E-02        -0.27179E-02         0.00000E+00
    0.19166E-02        -0.13662E-02         0.00000E+00
    0.00000E+00         0.00000E+00         0.00000E+00
    0.26975E-01        -0.21750E-01         0.00000E+00
    0.24323E-01        -0.20445E-01         0.00000E+00
    0.21940E-01        -0.19123E-01         0.00000E+00
    0.19793E-01        -0.17781E-01         0.00000E+00
    0.17845E-01        -0.16419E-01         0.00000E+00
    0.16062E-01        -0.15034E-01         0.00000E+00
    0.14407E-01        -0.13628E-01         0.00000E+00
    0.12845E-01        -0.12199E-01         0.00000E+00
    0.11342E-01        -0.10749E-01         0.00000E+00
    0.98669E-02        -0.92779E-02         0.00000E+00
    0.83881E-02        -0.77851E-02         0.00000E+00
    0.68768E-02        -0.62708E-02         0.00000E+00
    0.53058E-02        -0.47350E-02         0.00000E+00
    0.36503E-02        -0.31776E-02         0.00000E+00
    0.18880E-02        -0.15990E-02         0.00000E+00
    0.00000E+00         0.00000E+00         0.00000E+00
    0.26087E-01        -0.24520E-01         0.00000E+00
    0.23495E-01        -0.23071E-01         0.00000E+00
    0.21179E-01        -0.21600E-01         0.00000E+00
    0.19101E-01        -0.20104E-01         0.00000E+00
    0.17223E-01        -0.18581E-01         0.00000E+00
    0.15510E-01        -0.17031E-01         0.00000E+00
    0.13923E-01        -0.15452E-01         0.00000E+00
    0.12426E-01        -0.13845E-01         0.00000E+00
    0.10987E-01        -0.12211E-01         0.00000E+00
    0.95729E-02        -0.10550E-01         0.00000E+00
    0.81521E-02        -0.88614E-02         0.00000E+00
    0.66958E-02        -0.71449E-02         0.00000E+00
    0.51766E-02        -0.54002E-02         0.00000E+00
    0.35691E-02        -0.36274E-02         0.00000E+00
    0.18502E-02        -0.18269E-02         0.00000E+00
    0.00000E+00         0.00000E+00         0.00000E+00
    0.24973E-01        -0.27227E-01         0.00000E+00
    0.22458E-01        -0.25635E-01         0.00000E+00
    0.20224E-01        -0.24017E-01         0.00000E+00
    0.18233E-01        -0.22368E-01         0.00000E+00
    0.16444E-01        -0.20687E-01         0.00000E+00
    0.14818E-01        -0.18972E-01         0.00000E+00
    0.13315E-01        -0.17224E-01         0.00000E+00
    0.11901E-01        -0.15443E-01         0.00000E+00
    0.10541E-01        -0.13629E-01         0.00000E+00
    0.92022E-02        -0.11784E-01         0.00000E+00
    0.78540E-02        -0.99051E-02         0.00000E+00
    0.64669E-02        -0.79928E-02         0.00000E+00
    0.50131E-02        -0.60461E-02         0.00000E+00
    0.34664E-02        -0.40646E-02         0.00000E+00
    0.18025E-02        -0.20487E-02         0.00000E+00
    0.00000E+00         0.00000E+00         0.00000E+00
    0.23629E-01        -0.29855E-01         0.00000E+00
    0.21207E-01        -0.28122E-01         0.00000E+00
    0.19076E-01        -0.26358E-01         0.00000E+00
    0.17191E-01        -0.24558E-01         0.00000E+00
    0.15508E-01        -0.22719E-01         0.00000E+00
    0.13986E-01        -0.20843E-01         0.00000E+00
    0.12585E-01        -0.18929E-01         0.00000E+00
    0.11268E-01        -0.16978E-01         0.00000E+00
    0.10001E-01        -0.14992E-01         0.00000E+00
    0.87526E-02        -0.12968E-01         0.00000E+00
    0.74912E-02        -0.10908E-01         0.00000E+00
    0.61874E-02        -0.88082E-02         0.00000E+00
    0.48130E-02        -0.66681E-02         0.00000E+00
    0.33404E-02        -0.44864E-02         0.00000E+00
    0.17440E-02        -0.22632E-02         0.00000E+00
    0.00000E+00         0.00000E+00         0.00000E+00
    0.22050E-01        -0.32386E-01         0.00000E+00
    0.19741E-01        -0.30515E-01         0.00000E+00
    0.17731E-01        -0.28606E-01         0.00000E+00
    0.15972E-01        -0.26656E-01         0.00000E+00
    0.14414E-01        -0.24662E-01         0.00000E+00
    0.13013E-01        -0.22627E-01         0.00000E+00
    0.11729E-01        -0.20552E-01         0.00000E+00
    0.10524E-01        -0.18438E-01         0.00000E+00
    0.93655E-02        -0.16285E-01         0.00000E+00
    0.82207E-02        -0.14093E-01         0.00000E+00
    0.70598E-02        -0.11860E-01         0.00000E+00
    0.58534E-02        -0.95836E-02         0.00000E+00
    0.45726E-02        -0.72608E-02         0.00000E+00
    0.31886E-02        -0.48894E-02         0.00000E+00
    0.16732E-02        -0.24687E-02         0.00000E+00
    0.00000E+00         0.00000E+00         0.00000E+00
    0.20228E-01        -0.34801E-01         0.00000E+00
    0.18054E-01        -0.32792E-01         0.00000E+00
    0.16189E-01        -0.30740E-01         0.00000E+00
    0.14576E-01        -0.28641E-01         0.00000E+00
    0.13162E-01        -0.26495E-01         0.00000E+00
    0.11900E-01        -0.24305E-01         0.00000E+00
    0.10747E-01        -0.22074E-01         0.00000E+00
    0.96683E-02        -0.19804E-01         0.00000E+00
    0.86298E-02        -0.17494E-01         0.00000E+00
    0.76015E-02        -0.15144E-01         0.00000E+00
    0.65543E-02        -0.12751E-01         0.00000E+00
    0.54592E-02        -0.10311E-01         0.00000E+00
    0.42868E-02        -0.78182E-02         0.00000E+00
    0.30068E-02        -0.52700E-02         0.00000E+00
    0.15881E-02        -0.26637E-02         0.00000E+00
    0.00000E+00         0.00000E+00         0.00000E+00
    0.18155E-01        -0.37074E-01         0.00000E+00
    0.16143E-01        -0.34930E-01         0.00000E+00
    0.14449E-01        -0.32735E-01         0.00000E+00
    0.13005E-01        -0.30489E-01         0.00000E+00
    0.11754E-01        -0.28194E-01         0.00000E+00
    0.10645E-01        -0.25854E-01         0.00000E+00
    0.96376E-02        -0.23475E-01         0.00000E+00
    0.86959E-02        -0.21057E-01         0.00000E+00
    0.77890E-02        -0.18602E-01         0.00000E+00
    0.68885E-02        -0.16107E-01         0.00000E+00
    0.59671E-02        -0.13569E-01         0.00000E+00
    0.49969E-02        -0.10980E-01         0.00000E+00
    0.39484E-02        -0.83338E-02         0.00000E+00
    0.27895E-02        -0.56243E-02         0.00000E+00
    0.14855E-02        -0.28465E-02         0.00000E+00
    0.00000E+00         0.00000E+00         0.00000E+00
    0.15823E-01        -0.39178E-01         0.00000E+00
    0.14006E-01        -0.36899E-01         0.00000E+00
    0.12510E-01        -0.34564E-01         0.00000E+00
    0.11259E-01        -0.32172E-01         0.00000E+00
    0.10189E-01        -0.29731E-01         0.00000E+00
    0.92482E-02        -0.27248E-01         0.00000E+00
    0.83970E-02        -0.24729E-01         0.00000E+00
    0.76023E-02        -0.22177E-01         0.00000E+00
    0.68360E-02        -0.19590E-01         0.00000E+00
    0.60730E-02        -0.16967E-01         0.00000E+00
    0.52884E-02        -0.14299E-01         0.00000E+00
    0.44563E-02        -0.11581E-01         0.00000E+00
    0.35477E-02        -0.88000E-02         0.00000E+00
    0.25290E-02        -0.59476E-02         0.00000E+00
    0.13611E-02        -0.30153E-02         0.00000E+00
    0.00000E+00         0.00000E+00         0.00000E+00
    0.13224E-01        -0.41077E-01         0.00000E+00
    0.11639E-01        -0.38665E-01         0.00000E+00
    0.10374E-01        -0.36189E-01         0.00000E+00
    0.93406E-02        -0.33654E-01         0.00000E+00
    0.84687E-02        -0.31073E-01         0.00000E+00
    0.77079E-02        -0.28457E-01         0.00000E+00
    0.70214E-02        -0.25811E-01         0.00000E+00
    0.63807E-02        -0.23139E-01         0.00000E+00
    0.57620E-02        -0.20438E-01         0.00000E+00
    0.51440E-02        -0.17704E-01         0.00000E+00
    0.45056E-02        -0.14929E-01         0.00000E+00
    0.38238E-02        -0.12101E-01         0.00000E+00
    0.30715E-02        -0.92081E-02         0.00000E+00
    0.22144E-02        -0.62348E-02         0.00000E+00
    0.12085E-02        -0.31680E-02         0.00000E+00
    0.00000E+00         0.00000E+00         0.00000E+00
    0.10349E-01        -0.42727E-01         0.00000E+00
    0.90429E-02        -0.40184E-01         0.00000E+00
    0.80472E-02        -0.37567E-01         0.00000E+00
    0.72547E-02        -0.34895E-01         0.00000E+00
    0.65944E-02        -0.32184E-01         0.00000E+00
    0.60212E-02        -0.29448E-01         0.00000E+00
    0.55046E-02        -0.26693E-01         0.00000E+00
    0.50223E-02        -0.23920E-01         0.00000E+00
    0.45557E-02        -0.21125E-01         0.00000E+00
    0.40884E-02        -0.18302E-01         0.00000E+00
    0.36035E-02        -0.15441E-01         0.00000E+00
    0.30826E-02        -0.12528E-01         0.00000E+00
    0.25024E-02        -0.95481E-02         0.00000E+00
    0.18303E-02        -0.64797E-02         0.00000E+00
    0.10185E-02        -0.33021E-02         0.00000E+00
    0.00000E+00         0.00000E+00         0.00000E+00
    0.71877E-02        -0.44070E-01         0.00000E+00
    0.62249E-02        -0.41396E-01         0.00000E+00
    0.55380E-02        -0.38642E-01         0.00000E+00
    0.50050E-02        -0.35842E-01         0.00000E+00
    0.45640E-02        -0.33021E-01         0.00000E+00
    0.41819E-02        -0.30188E-01         0.00000E+00
    0.38376E-02        -0.27348E-01         0.00000E+00
    0.35157E-02        -0.24498E-01         0.00000E+00
    0.32038E-02        -0.21633E-01         0.00000E+00
    0.28906E-02        -0.18744E-01         0.00000E+00
    0.25647E-02        -0.15821E-01         0.00000E+00
    0.22130E-02        -0.12848E-01         0.00000E+00
    0.18183E-02        -0.98076E-02         0.00000E+00
    0.13549E-02        -0.66737E-02         0.00000E+00
    0.77637E-03        -0.34144E-02         0.00000E+00
    0.00000E+00         0.00000E+00         0.00000E+00
    0.37336E-02        -0.45022E-01         0.00000E+00
    0.32019E-02        -0.42217E-01         0.00000E+00
    0.28567E-02        -0.39339E-01         0.00000E+00
    0.25904E-02        -0.36442E-01         0.00000E+00
    0.23705E-02        -0.33543E-01         0.00000E+00
    0.21799E-02        -0.30647E-01         0.00000E+00
    0.20080E-02        -0.27751E-01         0.00000E+00
    0.18470E-02        -0.24853E-01         0.00000E+00
    0.16909E-02        -0.21944E-01         0.00000E+00
    0.15339E-02        -0.19016E-01         0.00000E+00
    0.13702E-02        -0.16056E-01         0.00000E+00
    0.11930E-02        -0.13048E-01         0.00000E+00
    0.99329E-03        -0.99721E-02         0.00000E+00
    0.75668E-03        -0.68027E-02         0.00000E+00
    0.45593E-03        -0.34998E-02         0.00000E+00
    0.00000E+00         0.00000E+00         0.00000E+00
    0.00000E+00        -0.45427E-01         0.00000E+00
    0.00000E+00        -0.42519E-01         0.00000E+00
    0.00000E+00        -0.39583E-01         0.00000E+00
    0.00000E+00        -0.36649E-01         0.00000E+00
    0.00000E+00        -0.33722E-01         0.00000E+00
    0.00000E+00        -0.30802E-01         0.00000E+00
    0.00000E+00        -0.27888E-01         0.00000E+00
    0.00000E+00        -0.24973E-01         0.00000E+00
    0.00000E+00        -0.22050E-01         0.00000E+00
    0.00000E+00        -0.19108E-01         0.00000E+00
    0.00000E+00        -0.16135E-01         0.00000E+00
    0.00000E+00        -0.13115E-01         0.00000E+00
    0.00000E+00        -0.10029E-01         0.00000E+00
    0.00000E+00        -0.68486E-02         0.00000E+00
    0.00000E+00        -0.35350E-02         0.00000E+00
    0.00000E+00         0.00000E+00         0.00000E+00
CELL_DATA        450
VECTORS vDarcy double 
    0.20576E-07        -0.22025E-11         0.00000E+00
    0.20573E-07        -0.38972E-11         0.00000E+00
    0.20571E-07        -0.40342E-11         0.00000E+00
    0.20569E-07        -0.34230E-11         0.00000E+00
    0.20566E-07        -0.22334E-11         0.00000E+00
    0.20563E-07        -0.10025E-11         0.00000E+00
    0.20561E-07        -0.22024E-12         0.00000E+00
    0.20557E-07         0.18550E-12         0.00000E+00
    0.20554E-07         0.35125E-12         0.00000E+00
    0.20551E-07         0.32623E-12         0.00000E+00
    0.20548E-07         0.14279E-12         0.00000E+00
    0.20546E-07        -0.16930E-12         0.00000E+00
    0.20544E-07        -0.56262E-12         0.00000E+00
    0.20543E-07        -0.94705E-12         0.00000E+00
    0.20542E-07        -0.87881E-12         0.00000E+00
    0.20568E-07        -0.41284E-11         0.00000E+00
    0.20562E-07        -0.78824E-11         0.00000E+00
    0.20556E-07        -0.80215E-11         0.00000E+00
    0.20550E-07        -0.62146E-11         0.00000E+00
    0.20546E-07        -0.36764E-11         0.00000E+00
    0.20541E-07        -0.13102E-11         0.00000E+00
    0.20536E-07         0.35942E-12         0.00000E+00
    0.20531E-07         0.13154E-11         0.00000E+00
    0.20526E-07         0.16904E-11         0.00000E+00
    0.20522E-07         0.15856E-11         0.00000E+00
    0.20518E-07         0.10808E-11         0.00000E+00
    0.20514E-07         0.26506E-12         0.00000E+00
    0.20511E-07        -0.71985E-12         0.00000E+00
    0.20508E-07        -0.15670E-11         0.00000E+00
    0.20505E-07        -0.13655E-11         0.00000E+00
    0.20528E-07        -0.29340E-11         0.00000E+00
    0.20521E-07        -0.57713E-11         0.00000E+00
    0.20514E-07        -0.53175E-11         0.00000E+00
    0.20507E-07        -0.32472E-11         0.00000E+00
    0.20499E-07        -0.83350E-12         0.00000E+00
    0.20493E-07         0.12980E-11         0.00000E+00
    0.20486E-07         0.29438E-11         0.00000E+00
    0.20480E-07         0.39498E-11         0.00000E+00
    0.20474E-07         0.42873E-11         0.00000E+00
    0.20469E-07         0.40237E-11         0.00000E+00
    0.20464E-07         0.32523E-11         0.00000E+00
    0.20459E-07         0.21012E-11         0.00000E+00
    0.20455E-07         0.77776E-12         0.00000E+00
    0.20451E-07        -0.31639E-12         0.00000E+00
    0.20448E-07        -0.49473E-12         0.00000E+00
    0.20458E-07        -0.77513E-12         0.00000E+00
    0.20452E-07        -0.10149E-11         0.00000E+00
    0.20444E-07         0.24345E-12         0.00000E+00
    0.20436E-07         0.20780E-11         0.00000E+00
    0.20428E-07         0.40675E-11         0.00000E+00
    0.20420E-07         0.58478E-11         0.00000E+00
    0.20413E-07         0.71611E-11         0.00000E+00
    0.20406E-07         0.78847E-11         0.00000E+00
    0.20399E-07         0.79747E-11         0.00000E+00
    0.20393E-07         0.74557E-11         0.00000E+00
    0.20387E-07         0.64079E-11         0.00000E+00
    0.20382E-07         0.49582E-11         0.00000E+00
    0.20377E-07         0.33017E-11         0.00000E+00
    0.20373E-07         0.17191E-11         0.00000E+00
    0.20370E-07         0.49066E-12         0.00000E+00
    0.20362E-07         0.14633E-11         0.00000E+00
    0.20356E-07         0.38975E-11         0.00000E+00
    0.20349E-07         0.61327E-11         0.00000E+00
    0.20341E-07         0.82303E-11         0.00000E+00
    0.20333E-07         0.10035E-10         0.00000E+00
    0.20324E-07         0.11435E-10         0.00000E+00
    0.20317E-07         0.12328E-10         0.00000E+00
    0.20309E-07         0.12647E-10         0.00000E+00
    0.20303E-07         0.12369E-10         0.00000E+00
    0.20296E-07         0.11516E-10         0.00000E+00
    0.20291E-07         0.10147E-10         0.00000E+00
    0.20285E-07         0.83527E-11         0.00000E+00
    0.20281E-07         0.62509E-11         0.00000E+00
    0.20277E-07         0.39525E-11         0.00000E+00
    0.20274E-07         0.14738E-11         0.00000E+00
    0.20243E-07         0.33318E-11         0.00000E+00
    0.20238E-07         0.83558E-11         0.00000E+00
    0.20231E-07         0.11883E-10         0.00000E+00
    0.20224E-07         0.14417E-10         0.00000E+00
    0.20216E-07         0.16186E-10         0.00000E+00
    0.20208E-07         0.17290E-10         0.00000E+00
    0.20201E-07         0.17775E-10         0.00000E+00
    0.20194E-07         0.17665E-10         0.00000E+00
    0.20187E-07         0.16982E-10         0.00000E+00
    0.20181E-07         0.15756E-10         0.00000E+00
    0.20176E-07         0.14024E-10         0.00000E+00
    0.20171E-07         0.11829E-10         0.00000E+00
    0.20167E-07         0.91959E-11         0.00000E+00
    0.20163E-07         0.60943E-11         0.00000E+00
    0.20161E-07         0.23661E-11         0.00000E+00
    0.20104E-07         0.49116E-11         0.00000E+00
    0.20100E-07         0.12207E-10         0.00000E+00
    0.20094E-07         0.16991E-10         0.00000E+00
    0.20088E-07         0.20051E-10         0.00000E+00
    0.20081E-07         0.21875E-10         0.00000E+00
    0.20074E-07         0.22764E-10         0.00000E+00
    0.20068E-07         0.22900E-10         0.00000E+00
    0.20062E-07         0.22396E-10         0.00000E+00
    0.20056E-07         0.21322E-10         0.00000E+00
    0.20051E-07         0.19723E-10         0.00000E+00
    0.20046E-07         0.17621E-10         0.00000E+00
    0.20042E-07         0.15009E-10         0.00000E+00
    0.20038E-07         0.11834E-10         0.00000E+00
    0.20035E-07         0.79592E-11         0.00000E+00
    0.20033E-07         0.31162E-11         0.00000E+00
    0.19950E-07         0.61549E-11         0.00000E+00
    0.19946E-07         0.15285E-10         0.00000E+00
    0.19942E-07         0.21138E-10         0.00000E+00
    0.19937E-07         0.24688E-10         0.00000E+00
    0.19931E-07         0.26607E-10         0.00000E+00
    0.19926E-07         0.27346E-10         0.00000E+00
    0.19921E-07         0.27202E-10         0.00000E+00
    0.19916E-07         0.26367E-10         0.00000E+00
    0.19911E-07         0.24955E-10         0.00000E+00
    0.19907E-07         0.23026E-10         0.00000E+00
    0.19904E-07         0.20589E-10         0.00000E+00
    0.19900E-07         0.17600E-10         0.00000E+00
    0.19897E-07         0.13947E-10         0.00000E+00
    0.19895E-07         0.94219E-11         0.00000E+00
    0.19894E-07         0.36889E-11         0.00000E+00
    0.19784E-07         0.70251E-11         0.00000E+00
    0.19782E-07         0.17465E-10         0.00000E+00
    0.19779E-07         0.24104E-10         0.00000E+00
    0.19775E-07         0.28029E-10         0.00000E+00
    0.19771E-07         0.30028E-10         0.00000E+00
    0.19767E-07         0.30659E-10         0.00000E+00
    0.19764E-07         0.30303E-10         0.00000E+00
    0.19761E-07         0.29212E-10         0.00000E+00
    0.19757E-07         0.27538E-10         0.00000E+00
    0.19755E-07         0.25354E-10         0.00000E+00
    0.19752E-07         0.22661E-10         0.00000E+00
    0.19750E-07         0.19388E-10         0.00000E+00
    0.19748E-07         0.15385E-10         0.00000E+00
    0.19747E-07         0.10400E-10         0.00000E+00
    0.19746E-07         0.40624E-11         0.00000E+00
    0.19611E-07         0.75026E-11         0.00000E+00
    0.19610E-07         0.18677E-10         0.00000E+00
    0.19608E-07         0.25760E-10         0.00000E+00
    0.19606E-07         0.29889E-10         0.00000E+00
    0.19604E-07         0.31914E-10         0.00000E+00
    0.19602E-07         0.32453E-10         0.00000E+00
    0.19601E-07         0.31944E-10         0.00000E+00
    0.19599E-07         0.30679E-10         0.00000E+00
    0.19597E-07         0.28836E-10         0.00000E+00
    0.19596E-07         0.26497E-10         0.00000E+00
    0.19595E-07         0.23659E-10         0.00000E+00
    0.19594E-07         0.20237E-10         0.00000E+00
    0.19593E-07         0.16057E-10         0.00000E+00
    0.19592E-07         0.10848E-10         0.00000E+00
    0.19592E-07         0.42260E-11         0.00000E+00
    0.19436E-07         0.75875E-11         0.00000E+00
    0.19435E-07         0.18906E-10         0.00000E+00
    0.19435E-07         0.26065E-10         0.00000E+00
    0.19435E-07         0.30195E-10         0.00000E+00
    0.19434E-07         0.32162E-10         0.00000E+00
    0.19434E-07         0.32607E-10         0.00000E+00
    0.19435E-07         0.31994E-10         0.00000E+00
    0.19435E-07         0.30634E-10         0.00000E+00
    0.19435E-07         0.28721E-10         0.00000E+00
    0.19435E-07         0.26343E-10         0.00000E+00
    0.19435E-07         0.23495E-10         0.00000E+00
    0.19436E-07         0.20083E-10         0.00000E+00
    0.19436E-07         0.15928E-10         0.00000E+00
    0.19436E-07         0.10752E-10         0.00000E+00
    0.19436E-07         0.41799E-11         0.00000E+00
    0.19261E-07         0.72979E-11         0.00000E+00
    0.19262E-07         0.18187E-10         0.00000E+00
    0.19263E-07         0.25051E-10         0.00000E+00
    0.19264E-07         0.28969E-10         0.00000E+00
    0.19266E-07         0.30778E-10         0.00000E+00
    0.19268E-07         0.31111E-10         0.00000E+00
    0.19269E-07         0.30430E-10         0.00000E+00
    0.19271E-07         0.29051E-10         0.00000E+00
    0.19273E-07         0.27168E-10         0.00000E+00
    0.19275E-07         0.24872E-10         0.00000E+00
    0.19277E-07         0.22158E-10         0.00000E+00
    0.19278E-07         0.18930E-10         0.00000E+00
    0.19279E-07         0.15009E-10         0.00000E+00
    0.19280E-07         0.10129E-10         0.00000E+00
    0.19280E-07         0.39339E-11         0.00000E+00
    0.19092E-07         0.66684E-11         0.00000E+00
    0.19093E-07         0.16601E-10         0.00000E+00
    0.19096E-07         0.22821E-10         0.00000E+00
    0.19098E-07         0.26316E-10         0.00000E+00
    0.19102E-07         0.27862E-10         0.00000E+00
    0.19105E-07         0.28056E-10         0.00000E+00
    0.19109E-07         0.27335E-10         0.00000E+00
    0.19112E-07         0.26003E-10         0.00000E+00
    0.19115E-07         0.24246E-10         0.00000E+00
    0.19119E-07         0.22152E-10         0.00000E+00
    0.19121E-07         0.19712E-10         0.00000E+00
    0.19124E-07         0.16837E-10         0.00000E+00
    0.19126E-07         0.13357E-10         0.00000E+00
    0.19128E-07         0.90210E-11         0.00000E+00
    0.19128E-07         0.35069E-11         0.00000E+00
    0.18932E-07         0.57466E-11         0.00000E+00
    0.18933E-07         0.14263E-10         0.00000E+00
    0.18937E-07         0.19529E-10         0.00000E+00
    0.18941E-07         0.22409E-10         0.00000E+00
    0.18945E-07         0.23594E-10         0.00000E+00
    0.18950E-07         0.23617E-10         0.00000E+00
    0.18955E-07         0.22877E-10         0.00000E+00
    0.18960E-07         0.21648E-10         0.00000E+00
    0.18964E-07         0.20103E-10         0.00000E+00
    0.18969E-07         0.18317E-10         0.00000E+00
    0.18973E-07         0.16284E-10         0.00000E+00
    0.18976E-07         0.13918E-10         0.00000E+00
    0.18979E-07         0.11063E-10         0.00000E+00
    0.18981E-07         0.74935E-11         0.00000E+00
    0.18982E-07         0.29247E-11         0.00000E+00
    0.18782E-07         0.45902E-11         0.00000E+00
    0.18784E-07         0.11318E-10         0.00000E+00
    0.18788E-07         0.15373E-10         0.00000E+00
    0.18793E-07         0.17477E-10         0.00000E+00
    0.18799E-07         0.18213E-10         0.00000E+00
    0.18805E-07         0.18037E-10         0.00000E+00
    0.18811E-07         0.17291E-10         0.00000E+00
    0.18817E-07         0.16213E-10         0.00000E+00
    0.18823E-07         0.14950E-10         0.00000E+00
    0.18828E-07         0.13565E-10         0.00000E+00
    0.18833E-07         0.12049E-10         0.00000E+00
    0.18837E-07         0.10323E-10         0.00000E+00
    0.18841E-07         0.82479E-11         0.00000E+00
    0.18843E-07         0.56283E-11         0.00000E+00
    0.18845E-07         0.22191E-11         0.00000E+00
    0.18646E-07         0.32634E-11         0.00000E+00
    0.18648E-07         0.79282E-11         0.00000E+00
    0.18653E-07         0.10581E-10         0.00000E+00
    0.18659E-07         0.11786E-10         0.00000E+00
    0.18665E-07         0.12007E-10         0.00000E+00
    0.18672E-07         0.11608E-10         0.00000E+00
    0.18679E-07         0.10866E-10         0.00000E+00
    0.18686E-07         0.99731E-11         0.00000E+00
    0.18692E-07         0.90457E-11         0.00000E+00
    0.18698E-07         0.81320E-11         0.00000E+00
    0.18704E-07         0.72178E-11         0.00000E+00
    0.18709E-07         0.62324E-11         0.00000E+00
    0.18712E-07         0.50547E-11         0.00000E+00
    0.18715E-07         0.35198E-11         0.00000E+00
    0.18717E-07         0.14260E-11         0.00000E+00
    0.18524E-07         0.18340E-11         0.00000E+00
    0.18527E-07         0.42670E-11         0.00000E+00
    0.18532E-07         0.53971E-11         0.00000E+00
    0.18538E-07         0.56257E-11         0.00000E+00
    0.18545E-07         0.52880E-11         0.00000E+00
    0.18552E-07         0.46522E-11         0.00000E+00
    0.18560E-07         0.39214E-11         0.00000E+00
    0.18567E-07         0.32368E-11         0.00000E+00
    0.18574E-07         0.26813E-11         0.00000E+00
    0.18581E-07         0.22846E-11         0.00000E+00
    0.18587E-07         0.20271E-11         0.00000E+00
    0.18592E-07         0.18455E-11         0.00000E+00
    0.18596E-07         0.16380E-11         0.00000E+00
    0.18599E-07         0.12702E-11         0.00000E+00
    0.18601E-07         0.58345E-12         0.00000E+00
    0.18418E-07         0.36979E-12         0.00000E+00
    0.18422E-07         0.50942E-12         0.00000E+00
    0.18427E-07         0.70924E-13         0.00000E+00
    0.18433E-07        -0.70698E-12         0.00000E+00
    0.18440E-07        -0.16181E-11         0.00000E+00
    0.18448E-07        -0.24942E-11         0.00000E+00
    0.18455E-07        -0.32076E-11         0.00000E+00
    0.18463E-07        -0.36712E-11         0.00000E+00
    0.18470E-07        -0.38378E-11         0.00000E+00
    0.18477E-07        -0.36977E-11         0.00000E+00
    0.18483E-07        -0.32764E-11         0.00000E+00
    0.18488E-07        -0.26301E-11         0.00000E+00
    0.18492E-07        -0.18420E-11         0.00000E+00
    0.18495E-07        -0.10161E-11         0.00000E+00
    0.18497E-07        -0.26994E-12         0.00000E+00
    0.18329E-07        -0.10642E-11         0.00000E+00
    0.18332E-07        -0.31753E-11         0.00000E+00
    0.18337E-07        -0.51546E-11         0.00000E+00
    0.18343E-07        -0.69195E-11         0.00000E+00
    0.18350E-07        -0.83897E-11         0.00000E+00
    0.18358E-07        -0.94957E-11         0.00000E+00
    0.18365E-07        -0.10185E-10         0.00000E+00
    0.18373E-07        -0.10425E-10         0.00000E+00
    0.18380E-07        -0.10204E-10         0.00000E+00
    0.18386E-07        -0.95342E-11         0.00000E+00
    0.18392E-07        -0.84455E-11         0.00000E+00
    0.18397E-07        -0.69881E-11         0.00000E+00
    0.18401E-07        -0.52266E-11         0.00000E+00
    0.18404E-07        -0.32365E-11         0.00000E+00
    0.18406E-07        -0.10966E-11         0.00000E+00
    0.18255E-07        -0.24080E-11         0.00000E+00
    0.18259E-07        -0.66295E-11         0.00000E+00
    0.18263E-07        -0.10051E-10         0.00000E+00
    0.18269E-07        -0.12735E-10         0.00000E+00
    0.18276E-07        -0.14720E-10         0.00000E+00
    0.18283E-07        -0.16031E-10         0.00000E+00
    0.18290E-07        -0.16687E-10         0.00000E+00
    0.18297E-07        -0.16710E-10         0.00000E+00
    0.18303E-07        -0.16122E-10         0.00000E+00
    0.18309E-07        -0.14954E-10         0.00000E+00
    0.18315E-07        -0.13243E-10         0.00000E+00
    0.18320E-07        -0.11030E-10         0.00000E+00
    0.18324E-07        -0.83649E-11         0.00000E+00
    0.18326E-07        -0.52940E-11         0.00000E+00
    0.18328E-07        -0.18616E-11         0.00000E+00
    0.18197E-07        -0.36083E-11         0.00000E+00
    0.18200E-07        -0.97123E-11         0.00000E+00
    0.18205E-07        -0.14412E-10         0.00000E+00
    0.18210E-07        -0.17901E-10         0.00000E+00
    0.18216E-07        -0.20327E-10         0.00000E+00
    0.18223E-07        -0.21802E-10         0.00000E+00
    0.18229E-07        -0.22415E-10         0.00000E+00
    0.18235E-07        -0.22233E-10         0.00000E+00
    0.18241E-07        -0.21314E-10         0.00000E+00
    0.18246E-07        -0.19705E-10         0.00000E+00
    0.18251E-07        -0.17447E-10         0.00000E+00
    0.18255E-07        -0.14575E-10         0.00000E+00
    0.18259E-07        -0.11119E-10         0.00000E+00
    0.18261E-07        -0.71008E-11         0.00000E+00
    0.18263E-07        -0.25334E-11         0.00000E+00
    0.18153E-07        -0.46203E-11         0.00000E+00
    0.18156E-07        -0.12302E-10         0.00000E+00
    0.18160E-07        -0.18057E-10         0.00000E+00
    0.18165E-07        -0.22194E-10         0.00000E+00
    0.18170E-07        -0.24959E-10         0.00000E+00
    0.18176E-07        -0.26543E-10         0.00000E+00
    0.18181E-07        -0.27096E-10         0.00000E+00
    0.18186E-07        -0.26731E-10         0.00000E+00
    0.18191E-07        -0.25532E-10         0.00000E+00
    0.18195E-07        -0.23561E-10         0.00000E+00
    0.18199E-07        -0.20861E-10         0.00000E+00
    0.18203E-07        -0.17459E-10         0.00000E+00
    0.18206E-07        -0.13366E-10         0.00000E+00
    0.18208E-07        -0.85804E-11         0.00000E+00
    0.18210E-07        -0.30850E-11         0.00000E+00
    0.18123E-07        -0.54073E-11         0.00000E+00
    0.18125E-07        -0.14299E-10         0.00000E+00
    0.18129E-07        -0.20833E-10         0.00000E+00
    0.18133E-07        -0.25422E-10         0.00000E+00
    0.18137E-07        -0.28396E-10         0.00000E+00
    0.18141E-07        -0.30020E-10         0.00000E+00
    0.18145E-07        -0.30494E-10         0.00000E+00
    0.18149E-07        -0.29970E-10         0.00000E+00
    0.18153E-07        -0.28556E-10         0.00000E+00
    0.18156E-07        -0.26322E-10         0.00000E+00
    0.18159E-07        -0.23312E-10         0.00000E+00
    0.18162E-07        -0.19541E-10         0.00000E+00
    0.18164E-07        -0.15002E-10         0.00000E+00
    0.18166E-07        -0.96683E-11         0.00000E+00
    0.18167E-07        -0.34946E-11         0.00000E+00
    0.18103E-07        -0.59410E-11         0.00000E+00
    0.18106E-07        -0.15619E-10         0.00000E+00
    0.18109E-07        -0.22612E-10         0.00000E+00
    0.18112E-07        -0.27420E-10         0.00000E+00
    0.18115E-07        -0.30452E-10         0.00000E+00
    0.18118E-07        -0.32032E-10         0.00000E+00
    0.18120E-07        -0.32406E-10         0.00000E+00
    0.18123E-07        -0.31755E-10         0.00000E+00
    0.18125E-07        -0.30200E-10         0.00000E+00
    0.18127E-07        -0.27821E-10         0.00000E+00
    0.18129E-07        -0.24655E-10         0.00000E+00
    0.18131E-07        -0.20704E-10         0.00000E+00
    0.18133E-07        -0.15942E-10         0.00000E+00
    0.18134E-07        -0.10313E-10         0.00000E+00
    0.18135E-07        -0.37452E-11         0.00000E+00
    0.18094E-07        -0.61990E-11         0.00000E+00
    0.18096E-07        -0.16196E-10         0.00000E+00
    0.18098E-07        -0.23284E-10         0.00000E+00
    0.18100E-07        -0.28045E-10         0.00000E+00
    0.18102E-07        -0.30962E-10         0.00000E+00
    0.18104E-07        -0.32408E-10         0.00000E+00
    0.18105E-07        -0.32662E-10         0.00000E+00
    0.18106E-07        -0.31919E-10         0.00000E+00
    0.18107E-07        -0.30312E-10         0.00000E+00
    0.18107E-07        -0.27917E-10         0.00000E+00
    0.18108E-07        -0.24767E-10         0.00000E+00
    0.18109E-07        -0.20849E-10         0.00000E+00
    0.18110E-07        -0.16113E-10         0.00000E+00
    0.18110E-07        -0.10474E-10         0.00000E+00
    0.18111E-07        -0.38246E-11         0.00000E+00
    0.18092E-07        -0.61614E-11         0.00000E+00
    0.18094E-07        -0.15964E-10         0.00000E+00
    0.18096E-07        -0.22739E-10         0.00000E+00
    0.18097E-07        -0.27162E-10         0.00000E+00
    0.18097E-07        -0.29780E-10         0.00000E+00
    0.18097E-07        -0.31003E-10         0.00000E+00
    0.18097E-07        -0.31121E-10         0.00000E+00
    0.18096E-07        -0.30333E-10         0.00000E+00
    0.18095E-07        -0.28768E-10         0.00000E+00
    0.18095E-07        -0.26498E-10         0.00000E+00
    0.18094E-07        -0.23548E-10         0.00000E+00
    0.18094E-07        -0.19892E-10         0.00000E+00
    0.18094E-07        -0.15456E-10         0.00000E+00
    0.18094E-07        -0.10116E-10         0.00000E+00
    0.18094E-07        -0.37237E-11         0.00000E+00
    0.18098E-07        -0.58023E-11         0.00000E+00
    0.18100E-07        -0.14837E-10         0.00000E+00
    0.18101E-07        -0.20846E-10         0.00000E+00
    0.18100E-07        -0.24620E-10         0.00000E+00
    0.18099E-07        -0.26763E-10         0.00000E+00
    0.18097E-07        -0.27688E-10         0.00000E+00
    0.18095E-07        -0.27672E-10         0.00000E+00
    0.18093E-07        -0.26897E-10         0.00000E+00
    0.18090E-07        -0.25477E-10         0.00000E+00
    0.18088E-07        -0.23478E-10         0.00000E+00
    0.18086E-07        -0.20914E-10         0.00000E+00
    0.18084E-07        -0.17755E-10         0.00000E+00
    0.18083E-07        -0.13906E-10         0.00000E+00
    0.18083E-07        -0.92042E-11         0.00000E+00
    0.18083E-07        -0.34343E-11         0.00000E+00
    0.18109E-07        -0.50708E-11         0.00000E+00
    0.18111E-07        -0.12667E-10         0.00000E+00
    0.18111E-07        -0.17403E-10         0.00000E+00
    0.18109E-07        -0.20232E-10         0.00000E+00
    0.18106E-07        -0.21764E-10         0.00000E+00
    0.18102E-07        -0.22355E-10         0.00000E+00
    0.18098E-07        -0.22233E-10         0.00000E+00
    0.18094E-07        -0.21546E-10         0.00000E+00
    0.18090E-07        -0.20385E-10         0.00000E+00
    0.18086E-07        -0.18798E-10         0.00000E+00
    0.18082E-07        -0.16797E-10         0.00000E+00
    0.18080E-07        -0.14352E-10         0.00000E+00
    0.18078E-07        -0.11378E-10         0.00000E+00
    0.18077E-07        -0.76798E-11         0.00000E+00
    0.18077E-07        -0.29395E-11         0.00000E+00
    0.18125E-07        -0.38398E-11         0.00000E+00
    0.18126E-07        -0.91137E-11         0.00000E+00
    0.18125E-07        -0.12076E-10         0.00000E+00
    0.18122E-07        -0.13771E-10         0.00000E+00
    0.18117E-07        -0.14638E-10         0.00000E+00
    0.18111E-07        -0.14918E-10         0.00000E+00
    0.18105E-07        -0.14760E-10         0.00000E+00
    0.18099E-07        -0.14259E-10         0.00000E+00
    0.18093E-07        -0.13474E-10         0.00000E+00
    0.18087E-07        -0.12435E-10         0.00000E+00
    0.18082E-07        -0.11150E-10         0.00000E+00
    0.18078E-07        -0.95995E-11         0.00000E+00
    0.18075E-07        -0.77274E-11         0.00000E+00
    0.18073E-07        -0.54005E-11         0.00000E+00
    0.18073E-07        -0.22114E-11         0.00000E+00
    0.18146E-07        -0.15380E-11         0.00000E+00
    0.18146E-07        -0.34657E-11         0.00000E+00
    0.18143E-07        -0.44446E-11         0.00000E+00
    0.18137E-07        -0.49955E-11         0.00000E+00
    0.18130E-07        -0.52628E-11         0.00000E+00
    0.18122E-07        -0.53323E-11         0.00000E+00
    0.18114E-07        -0.52557E-11         0.00000E+00
    0.18106E-07        -0.50657E-11         0.00000E+00
    0.18098E-07        -0.47824E-11         0.00000E+00
    0.18091E-07        -0.44165E-11         0.00000E+00
    0.18084E-07        -0.39703E-11         0.00000E+00
    0.18079E-07        -0.34378E-11         0.00000E+00
    0.18074E-07        -0.27993E-11         0.00000E+00
    0.18072E-07        -0.20228E-11         0.00000E+00
    0.18071E-07        -0.89260E-12         0.00000E+00
POINT_DATA        496
VECTORS vDarcyNodal double 
    0.20573E-07         0.00000E+00         0.00000E+00
    0.20574E-07         0.00000E+00         0.00000E+00
    0.20572E-07         0.00000E+00         0.00000E+00
    0.20570E-07         0.00000E+00         0.00000E+00
    0.20568E-07         0.00000E+00         0.00000E+00
    0.20565E-07         0.00000E+00         0.00000E+00
    0.20562E-07         0.00000E+00         0.00000E+00
    0.20559E-07         0.00000E+00         0.00000E+00
    0.20556E-07         0.00000E+00         0.00000E+00
    0.20552E-07         0.00000E+00         0.00000E+00
    0.20549E-07         0.00000E+00         0.00000E+00
    0.20547E-07         0.00000E+00         0.00000E+00
    0.20545E-07        -0.66661E-22         0.00000E+00
    0.20544E-07        -0.80508E-26         0.00000E+00
    0.20543E-07         0.66653E-22         0.00000E+00
    0.20543E-07         0.00000E+00         0.00000E+00
    0.20571E-07        -0.44025E-11         0.00000E+00
    0.20569E-07        -0.60964E-11         0.00000E+00
    0.20566E-07        -0.79276E-11         0.00000E+00
    0.20562E-07        -0.74545E-11         0.00000E+00
    0.20558E-07        -0.56550E-11         0.00000E+00
    0.20554E-07        -0.32354E-11         0.00000E+00
    0.20550E-07        -0.12226E-11         0.00000E+00
    0.20546E-07        -0.34732E-13         0.00000E+00
    0.20542E-07         0.53670E-12         0.00000E+00
    0.20538E-07         0.67741E-12         0.00000E+00
    0.20535E-07         0.46897E-12         0.00000E+00
    0.20531E-07        -0.26509E-13         0.00000E+00
    0.20529E-07        -0.73185E-12         0.00000E+00
    0.20527E-07        -0.15095E-11         0.00000E+00
    0.20525E-07        -0.18257E-11         0.00000E+00
    0.20524E-07        -0.17575E-11         0.00000E+00
    0.20549E-07        -0.38553E-11         0.00000E+00
    0.20545E-07        -0.59156E-11         0.00000E+00
    0.20538E-07        -0.79778E-11         0.00000E+00
    0.20532E-07        -0.67829E-11         0.00000E+00
    0.20525E-07        -0.42367E-11         0.00000E+00
    0.20519E-07        -0.17515E-11         0.00000E+00
    0.20514E-07         0.27161E-12         0.00000E+00
    0.20508E-07         0.17093E-11         0.00000E+00
    0.20503E-07         0.24689E-11         0.00000E+00
    0.20498E-07         0.25984E-11         0.00000E+00
    0.20493E-07         0.21973E-11         0.00000E+00
    0.20489E-07         0.13723E-11         0.00000E+00
    0.20485E-07         0.27697E-12         0.00000E+00
    0.20481E-07        -0.77739E-12         0.00000E+00
    0.20478E-07        -0.11068E-11         0.00000E+00
    0.20476E-07        -0.97353E-12         0.00000E+00
    0.20494E-07        -0.20139E-11         0.00000E+00
    0.20490E-07        -0.27913E-11         0.00000E+00
    0.20483E-07        -0.31127E-11         0.00000E+00
    0.20475E-07        -0.17829E-11         0.00000E+00
    0.20467E-07         0.15523E-12         0.00000E+00
    0.20460E-07         0.22155E-11         0.00000E+00
    0.20453E-07         0.39697E-11         0.00000E+00
    0.20446E-07         0.51838E-11         0.00000E+00
    0.20440E-07         0.57678E-11         0.00000E+00
    0.20434E-07         0.57122E-11         0.00000E+00
    0.20428E-07         0.50783E-11         0.00000E+00
    0.20423E-07         0.39809E-11         0.00000E+00
    0.20418E-07         0.26018E-11         0.00000E+00
    0.20414E-07         0.12386E-11         0.00000E+00
    0.20410E-07         0.29561E-12         0.00000E+00
    0.20409E-07        -0.15991E-13         0.00000E+00
    0.20411E-07         0.46314E-12         0.00000E+00
    0.20408E-07         0.10007E-11         0.00000E+00
    0.20401E-07         0.23405E-11         0.00000E+00
    0.20393E-07         0.41034E-11         0.00000E+00
    0.20384E-07         0.59894E-11         0.00000E+00
    0.20376E-07         0.76990E-11         0.00000E+00
    0.20368E-07         0.90385E-11         0.00000E+00
    0.20361E-07         0.98615E-11         0.00000E+00
    0.20354E-07         0.10091E-10         0.00000E+00
    0.20348E-07         0.97178E-11         0.00000E+00
    0.20342E-07         0.87849E-11         0.00000E+00
    0.20336E-07         0.73848E-11         0.00000E+00
    0.20331E-07         0.56579E-11         0.00000E+00
    0.20327E-07         0.37821E-11         0.00000E+00
    0.20323E-07         0.19140E-11         0.00000E+00
    0.20322E-07         0.99723E-12         0.00000E+00
    0.20303E-07         0.24631E-11         0.00000E+00
    0.20300E-07         0.43595E-11         0.00000E+00
    0.20294E-07         0.76890E-11         0.00000E+00
    0.20286E-07         0.10259E-10         0.00000E+00
    0.20278E-07         0.12275E-10         0.00000E+00
    0.20270E-07         0.13770E-10         0.00000E+00
    0.20262E-07         0.14724E-10         0.00000E+00
    0.20255E-07         0.15113E-10         0.00000E+00
    0.20248E-07         0.14924E-10         0.00000E+00
    0.20242E-07         0.14167E-10         0.00000E+00
    0.20236E-07         0.12878E-10         0.00000E+00
    0.20231E-07         0.11114E-10         0.00000E+00
    0.20226E-07         0.89454E-11         0.00000E+00
    0.20221E-07         0.64211E-11         0.00000E+00
    0.20218E-07         0.35121E-11         0.00000E+00
    0.20217E-07         0.19502E-11         0.00000E+00
    0.20174E-07         0.42002E-11         0.00000E+00
    0.20172E-07         0.73275E-11         0.00000E+00
    0.20166E-07         0.12549E-10         0.00000E+00
    0.20159E-07         0.16040E-10         0.00000E+00
    0.20152E-07         0.18327E-10         0.00000E+00
    0.20145E-07         0.19705E-10         0.00000E+00
    0.20138E-07         0.20341E-10         0.00000E+00
    0.20131E-07         0.20327E-10         0.00000E+00
    0.20125E-07         0.19723E-10         0.00000E+00
    0.20119E-07         0.18570E-10         0.00000E+00
    0.20113E-07         0.16901E-10         0.00000E+00
    0.20108E-07         0.14738E-10         0.00000E+00
    0.20104E-07         0.12079E-10         0.00000E+00
    0.20100E-07         0.88689E-11         0.00000E+00
    0.20098E-07         0.49482E-11         0.00000E+00
    0.20096E-07         0.27819E-11         0.00000E+00
    0.20027E-07         0.56227E-11         0.00000E+00
    0.20025E-07         0.97901E-11         0.00000E+00
    0.20021E-07         0.16648E-10         0.00000E+00
    0.20015E-07         0.21001E-10         0.00000E+00
    0.20009E-07         0.23598E-10         0.00000E+00
    0.20003E-07         0.24933E-10         0.00000E+00
    0.19997E-07         0.25322E-10         0.00000E+00
    0.19991E-07         0.24968E-10         0.00000E+00
    0.19986E-07         0.23994E-10         0.00000E+00
    0.19981E-07         0.22475E-10         0.00000E+00
    0.19977E-07         0.20443E-10         0.00000E+00
    0.19973E-07         0.17892E-10         0.00000E+00
    0.19969E-07         0.14764E-10         0.00000E+00
    0.19966E-07         0.10924E-10         0.00000E+00
    0.19964E-07         0.61270E-11         0.00000E+00
    0.19963E-07         0.34503E-11         0.00000E+00
    0.19867E-07         0.66869E-11         0.00000E+00
    0.19866E-07         0.11649E-10         0.00000E+00
    0.19862E-07         0.19775E-10         0.00000E+00
    0.19858E-07         0.24825E-10         0.00000E+00
    0.19854E-07         0.27697E-10         0.00000E+00
    0.19849E-07         0.29020E-10         0.00000E+00
    0.19845E-07         0.29226E-10         0.00000E+00
    0.19840E-07         0.28601E-10         0.00000E+00
    0.19836E-07         0.27327E-10         0.00000E+00
    0.19833E-07         0.25506E-10         0.00000E+00
    0.19829E-07         0.23171E-10         0.00000E+00
    0.19826E-07         0.20296E-10         0.00000E+00
    0.19824E-07         0.16783E-10         0.00000E+00
    0.19822E-07         0.12445E-10         0.00000E+00
    0.19820E-07         0.69837E-11         0.00000E+00
    0.19819E-07         0.39274E-11         0.00000E+00
    0.19698E-07         0.73632E-11         0.00000E+00
    0.19697E-07         0.12841E-10         0.00000E+00
    0.19695E-07         0.21794E-10         0.00000E+00
    0.19692E-07         0.27307E-10         0.00000E+00
    0.19689E-07         0.30359E-10         0.00000E+00
    0.19686E-07         0.31666E-10         0.00000E+00
    0.19684E-07         0.31735E-10         0.00000E+00
    0.19681E-07         0.30913E-10         0.00000E+00
    0.19679E-07         0.29423E-10         0.00000E+00
    0.19676E-07         0.27387E-10         0.00000E+00
    0.19674E-07         0.24843E-10         0.00000E+00
    0.19673E-07         0.21752E-10         0.00000E+00
    0.19671E-07         0.17990E-10         0.00000E+00
    0.19670E-07         0.13340E-10         0.00000E+00
    0.19669E-07         0.74786E-11         0.00000E+00
    0.19669E-07         0.41972E-11         0.00000E+00
    0.19523E-07         0.76420E-11         0.00000E+00
    0.19523E-07         0.13339E-10         0.00000E+00
    0.19522E-07         0.22643E-10         0.00000E+00
    0.19521E-07         0.28342E-10         0.00000E+00
    0.19520E-07         0.31443E-10         0.00000E+00
    0.19519E-07         0.32701E-10         0.00000E+00
    0.19518E-07         0.32663E-10         0.00000E+00
    0.19517E-07         0.31711E-10         0.00000E+00
    0.19516E-07         0.30093E-10         0.00000E+00
    0.19516E-07         0.27947E-10         0.00000E+00
    0.19515E-07         0.25313E-10         0.00000E+00
    0.19515E-07         0.22144E-10         0.00000E+00
    0.19515E-07         0.18304E-10         0.00000E+00
    0.19514E-07         0.13565E-10         0.00000E+00
    0.19514E-07         0.75950E-11         0.00000E+00
    0.19514E-07         0.42547E-11         0.00000E+00
    0.19348E-07         0.75329E-11         0.00000E+00
    0.19348E-07         0.13154E-10         0.00000E+00
    0.19349E-07         0.22328E-10         0.00000E+00
    0.19349E-07         0.27918E-10         0.00000E+00
    0.19350E-07         0.30914E-10         0.00000E+00
    0.19351E-07         0.32069E-10         0.00000E+00
    0.19351E-07         0.31939E-10         0.00000E+00
    0.19352E-07         0.30917E-10         0.00000E+00
    0.19354E-07         0.29262E-10         0.00000E+00
    0.19355E-07         0.27117E-10         0.00000E+00
    0.19356E-07         0.24524E-10         0.00000E+00
    0.19356E-07         0.21434E-10         0.00000E+00
    0.19357E-07         0.17707E-10         0.00000E+00
    0.19358E-07         0.13115E-10         0.00000E+00
    0.19358E-07         0.73366E-11         0.00000E+00
    0.19358E-07         0.41050E-11         0.00000E+00
    0.19177E-07         0.70630E-11         0.00000E+00
    0.19177E-07         0.12331E-10         0.00000E+00
    0.19178E-07         0.20911E-10         0.00000E+00
    0.19180E-07         0.26103E-10         0.00000E+00
    0.19182E-07         0.28834E-10         0.00000E+00
    0.19185E-07         0.29821E-10         0.00000E+00
    0.19188E-07         0.29603E-10         0.00000E+00
    0.19190E-07         0.28564E-10         0.00000E+00
    0.19193E-07         0.26957E-10         0.00000E+00
    0.19196E-07         0.24924E-10         0.00000E+00
    0.19198E-07         0.22506E-10         0.00000E+00
    0.19200E-07         0.19654E-10         0.00000E+00
    0.19202E-07         0.16232E-10         0.00000E+00
    0.19203E-07         0.12023E-10         0.00000E+00
    0.19204E-07         0.67260E-11         0.00000E+00
    0.19205E-07         0.37629E-11         0.00000E+00
    0.19011E-07         0.62740E-11         0.00000E+00
    0.19012E-07         0.10939E-10         0.00000E+00
    0.19015E-07         0.18511E-10         0.00000E+00
    0.19018E-07         0.23034E-10         0.00000E+00
    0.19021E-07         0.25345E-10         0.00000E+00
    0.19025E-07         0.26098E-10         0.00000E+00
    0.19030E-07         0.25789E-10         0.00000E+00
    0.19034E-07         0.24774E-10         0.00000E+00
    0.19038E-07         0.23292E-10         0.00000E+00
    0.19042E-07         0.21475E-10         0.00000E+00
    0.19046E-07         0.19358E-10         0.00000E+00
    0.19049E-07         0.16896E-10         0.00000E+00
    0.19052E-07         0.13962E-10         0.00000E+00
    0.19054E-07         0.10355E-10         0.00000E+00
    0.19055E-07         0.58019E-11         0.00000E+00
    0.19056E-07         0.32509E-11         0.00000E+00
    0.18856E-07         0.52194E-11         0.00000E+00
    0.18857E-07         0.90713E-11         0.00000E+00
    0.18860E-07         0.15282E-10         0.00000E+00
    0.18864E-07         0.18904E-10         0.00000E+00
    0.18869E-07         0.20658E-10         0.00000E+00
    0.18875E-07         0.21114E-10         0.00000E+00
    0.18880E-07         0.20706E-10         0.00000E+00
    0.18886E-07         0.19751E-10         0.00000E+00
    0.18891E-07         0.18459E-10         0.00000E+00
    0.18896E-07         0.16946E-10         0.00000E+00
    0.18901E-07         0.15244E-10         0.00000E+00
    0.18905E-07         0.13306E-10         0.00000E+00
    0.18909E-07         0.11019E-10         0.00000E+00
    0.18911E-07         0.82015E-11         0.00000E+00
    0.18913E-07         0.46163E-11         0.00000E+00
    0.18914E-07         0.25985E-11         0.00000E+00
    0.18713E-07         0.39611E-11         0.00000E+00
    0.18715E-07         0.68371E-11         0.00000E+00
    0.18718E-07         0.11410E-10         0.00000E+00
    0.18723E-07         0.13946E-10         0.00000E+00
    0.18729E-07         0.15033E-10         0.00000E+00
    0.18735E-07         0.15138E-10         0.00000E+00
    0.18742E-07         0.14624E-10         0.00000E+00
    0.18748E-07         0.13754E-10         0.00000E+00
    0.18754E-07         0.12704E-10         0.00000E+00
    0.18760E-07         0.11569E-10         0.00000E+00
    0.18766E-07         0.10370E-10         0.00000E+00
    0.18771E-07         0.90659E-11         0.00000E+00
    0.18775E-07         0.75525E-11         0.00000E+00
    0.18778E-07         0.56749E-11         0.00000E+00
    0.18780E-07         0.32312E-11         0.00000E+00
    0.18781E-07         0.18398E-11         0.00000E+00
    0.18584E-07         0.25660E-11         0.00000E+00
    0.18586E-07         0.43548E-11         0.00000E+00
    0.18590E-07         0.70999E-11         0.00000E+00
    0.18595E-07         0.84214E-11         0.00000E+00
    0.18602E-07         0.87611E-11         0.00000E+00
    0.18609E-07         0.84781E-11         0.00000E+00
    0.18616E-07         0.78517E-11         0.00000E+00
    0.18623E-07         0.70860E-11         0.00000E+00
    0.18630E-07         0.63153E-11         0.00000E+00
    0.18637E-07         0.56095E-11         0.00000E+00
    0.18643E-07         0.49800E-11         0.00000E+00
    0.18648E-07         0.43849E-11         0.00000E+00
    0.18652E-07         0.37350E-11         0.00000E+00
    0.18656E-07         0.28999E-11         0.00000E+00
    0.18658E-07         0.17148E-11         0.00000E+00
    0.18659E-07         0.10123E-11         0.00000E+00
    0.18471E-07         0.11024E-11         0.00000E+00
    0.18472E-07         0.17466E-11         0.00000E+00
    0.18476E-07         0.25649E-11         0.00000E+00
    0.18482E-07         0.26023E-11         0.00000E+00
    0.18489E-07         0.21535E-11         0.00000E+00
    0.18496E-07         0.14630E-11         0.00000E+00
    0.18504E-07         0.72281E-12         0.00000E+00
    0.18511E-07         0.73007E-13         0.00000E+00
    0.18519E-07        -0.39644E-12         0.00000E+00
    0.18526E-07        -0.64292E-12         0.00000E+00
    0.18532E-07        -0.66766E-12         0.00000E+00
    0.18537E-07        -0.51168E-12         0.00000E+00
    0.18542E-07        -0.25110E-12         0.00000E+00
    0.18546E-07         0.85169E-14         0.00000E+00
    0.18548E-07         0.13897E-12         0.00000E+00
    0.18549E-07         0.15470E-12         0.00000E+00
    0.18373E-07        -0.36256E-12         0.00000E+00
    0.18375E-07        -0.86703E-12         0.00000E+00
    0.18379E-07        -0.19839E-11         0.00000E+00
    0.18385E-07        -0.32376E-11         0.00000E+00
    0.18392E-07        -0.44777E-11         0.00000E+00
    0.18399E-07        -0.55744E-11         0.00000E+00
    0.18407E-07        -0.64237E-11         0.00000E+00
    0.18414E-07        -0.69509E-11         0.00000E+00
    0.18421E-07        -0.71117E-11         0.00000E+00
    0.18428E-07        -0.68919E-11         0.00000E+00
    0.18434E-07        -0.63059E-11         0.00000E+00
    0.18440E-07        -0.53943E-11         0.00000E+00
    0.18445E-07        -0.42207E-11         0.00000E+00
    0.18448E-07        -0.28664E-11         0.00000E+00
    0.18451E-07        -0.14249E-11         0.00000E+00
    0.18452E-07        -0.69450E-12         0.00000E+00
    0.18291E-07        -0.17657E-11         0.00000E+00
    0.18293E-07        -0.33721E-11         0.00000E+00
    0.18297E-07        -0.63453E-11         0.00000E+00
    0.18303E-07        -0.88358E-11         0.00000E+00
    0.18310E-07        -0.10831E-10         0.00000E+00
    0.18317E-07        -0.12310E-10         0.00000E+00
    0.18324E-07        -0.13256E-10         0.00000E+00
    0.18331E-07        -0.13658E-10         0.00000E+00
    0.18338E-07        -0.13517E-10         0.00000E+00
    0.18345E-07        -0.12846E-10         0.00000E+00
    0.18351E-07        -0.11673E-10         0.00000E+00
    0.18356E-07        -0.10039E-10         0.00000E+00
    0.18361E-07        -0.79936E-11         0.00000E+00
    0.18364E-07        -0.55964E-11         0.00000E+00
    0.18367E-07        -0.29081E-11         0.00000E+00
    0.18367E-07        -0.14987E-11         0.00000E+00
    0.18226E-07        -0.30501E-11         0.00000E+00
    0.18227E-07        -0.56651E-11         0.00000E+00
    0.18231E-07        -0.10335E-10         0.00000E+00
    0.18237E-07        -0.13950E-10         0.00000E+00
    0.18243E-07        -0.16624E-10         0.00000E+00
    0.18249E-07        -0.18440E-10         0.00000E+00
    0.18256E-07        -0.19462E-10         0.00000E+00
    0.18263E-07        -0.19738E-10         0.00000E+00
    0.18269E-07        -0.19314E-10         0.00000E+00
    0.18275E-07        -0.18229E-10         0.00000E+00
    0.18281E-07        -0.16523E-10         0.00000E+00
    0.18285E-07        -0.14234E-10         0.00000E+00
    0.18289E-07        -0.11401E-10         0.00000E+00
    0.18293E-07        -0.80623E-11         0.00000E+00
    0.18295E-07        -0.42474E-11         0.00000E+00
    0.18296E-07        -0.22244E-11         0.00000E+00
    0.18175E-07        -0.41664E-11         0.00000E+00
    0.18176E-07        -0.76553E-11         0.00000E+00
    0.18180E-07        -0.13789E-10         0.00000E+00
    0.18185E-07        -0.18363E-10         0.00000E+00
    0.18190E-07        -0.21604E-10         0.00000E+00
    0.18196E-07        -0.23689E-10         0.00000E+00
    0.18202E-07        -0.24755E-10         0.00000E+00
    0.18208E-07        -0.24909E-10         0.00000E+00
    0.18213E-07        -0.24232E-10         0.00000E+00
    0.18218E-07        -0.22790E-10         0.00000E+00
    0.18223E-07        -0.20629E-10         0.00000E+00
    0.18227E-07        -0.17788E-10         0.00000E+00
    0.18231E-07        -0.14292E-10         0.00000E+00
    0.18234E-07        -0.10157E-10         0.00000E+00
    0.18236E-07        -0.53867E-11         0.00000E+00
    0.18236E-07        -0.28423E-11         0.00000E+00
    0.18138E-07        -0.50740E-11         0.00000E+00
    0.18139E-07        -0.92670E-11         0.00000E+00
    0.18143E-07        -0.16570E-10         0.00000E+00
    0.18147E-07        -0.21888E-10         0.00000E+00
    0.18151E-07        -0.25549E-10         0.00000E+00
    0.18156E-07        -0.27813E-10         0.00000E+00
    0.18161E-07        -0.28884E-10         0.00000E+00
    0.18165E-07        -0.28917E-10         0.00000E+00
    0.18170E-07        -0.28029E-10         0.00000E+00
    0.18174E-07        -0.26303E-10         0.00000E+00
    0.18178E-07        -0.23793E-10         0.00000E+00
    0.18181E-07        -0.20532E-10         0.00000E+00
    0.18184E-07        -0.16532E-10         0.00000E+00
    0.18186E-07        -0.11789E-10         0.00000E+00
    0.18188E-07        -0.62786E-11         0.00000E+00
    0.18189E-07        -0.33277E-11         0.00000E+00
    0.18113E-07        -0.57406E-11         0.00000E+00
    0.18114E-07        -0.10439E-10         0.00000E+00
    0.18117E-07        -0.18562E-10         0.00000E+00
    0.18120E-07        -0.24367E-10         0.00000E+00
    0.18124E-07        -0.28269E-10         0.00000E+00
    0.18128E-07        -0.30603E-10         0.00000E+00
    0.18131E-07        -0.31630E-10         0.00000E+00
    0.18134E-07        -0.31547E-10         0.00000E+00
    0.18138E-07        -0.30496E-10         0.00000E+00
    0.18140E-07        -0.28575E-10         0.00000E+00
    0.18143E-07        -0.25842E-10         0.00000E+00
    0.18145E-07        -0.22322E-10         0.00000E+00
    0.18148E-07        -0.18011E-10         0.00000E+00
    0.18149E-07        -0.12882E-10         0.00000E+00
    0.18151E-07        -0.68843E-11         0.00000E+00
    0.18151E-07        -0.36615E-11         0.00000E+00
    0.18098E-07        -0.61414E-11         0.00000E+00
    0.18100E-07        -0.11122E-10         0.00000E+00
    0.18102E-07        -0.19670E-10         0.00000E+00
    0.18105E-07        -0.25665E-10         0.00000E+00
    0.18107E-07        -0.29602E-10         0.00000E+00
    0.18110E-07        -0.31880E-10         0.00000E+00
    0.18112E-07        -0.32808E-10         0.00000E+00
    0.18113E-07        -0.32614E-10         0.00000E+00
    0.18115E-07        -0.31458E-10         0.00000E+00
    0.18117E-07        -0.29446E-10         0.00000E+00
    0.18118E-07        -0.26634E-10         0.00000E+00
    0.18119E-07        -0.23037E-10         0.00000E+00
    0.18120E-07        -0.18635E-10         0.00000E+00
    0.18122E-07        -0.13373E-10         0.00000E+00
    0.18123E-07        -0.71740E-11         0.00000E+00
    0.18123E-07        -0.38290E-11         0.00000E+00
    0.18093E-07        -0.62566E-11         0.00000E+00
    0.18094E-07        -0.11274E-10         0.00000E+00
    0.18096E-07        -0.19810E-10         0.00000E+00
    0.18098E-07        -0.25664E-10         0.00000E+00
    0.18099E-07        -0.29405E-10         0.00000E+00
    0.18100E-07        -0.31490E-10         0.00000E+00
    0.18101E-07        -0.32263E-10         0.00000E+00
    0.18101E-07        -0.31968E-10         0.00000E+00
    0.18101E-07        -0.30773E-10         0.00000E+00
    0.18101E-07        -0.28783E-10         0.00000E+00
    0.18101E-07        -0.26050E-10         0.00000E+00
    0.18101E-07        -0.22579E-10         0.00000E+00
    0.18101E-07        -0.18328E-10         0.00000E+00
    0.18102E-07        -0.13214E-10         0.00000E+00
    0.18102E-07        -0.71244E-11         0.00000E+00
    0.18103E-07        -0.38202E-11         0.00000E+00
    0.18095E-07        -0.60661E-11         0.00000E+00
    0.18096E-07        -0.10852E-10         0.00000E+00
    0.18098E-07        -0.18893E-10         0.00000E+00
    0.18099E-07        -0.24238E-10         0.00000E+00
    0.18099E-07        -0.27538E-10         0.00000E+00
    0.18098E-07        -0.29294E-10         0.00000E+00
    0.18097E-07        -0.29862E-10         0.00000E+00
    0.18095E-07        -0.29487E-10         0.00000E+00
    0.18094E-07        -0.28328E-10         0.00000E+00
    0.18092E-07        -0.26483E-10         0.00000E+00
    0.18091E-07        -0.23996E-10         0.00000E+00
    0.18089E-07        -0.20862E-10         0.00000E+00
    0.18089E-07        -0.17020E-10         0.00000E+00
    0.18088E-07        -0.12358E-10         0.00000E+00
    0.18089E-07        -0.67156E-11         0.00000E+00
    0.18089E-07        -0.36273E-11         0.00000E+00
    0.18104E-07        -0.55385E-11         0.00000E+00
    0.18105E-07        -0.97882E-11         0.00000E+00
    0.18106E-07        -0.16791E-10         0.00000E+00
    0.18105E-07        -0.21229E-10         0.00000E+00
    0.18104E-07        -0.23846E-10         0.00000E+00
    0.18101E-07        -0.25158E-10         0.00000E+00
    0.18098E-07        -0.25499E-10         0.00000E+00
    0.18095E-07        -0.25082E-10         0.00000E+00
    0.18092E-07        -0.24046E-10         0.00000E+00
    0.18088E-07        -0.22472E-10         0.00000E+00
    0.18085E-07        -0.20396E-10         0.00000E+00
    0.18083E-07        -0.17808E-10         0.00000E+00
    0.18081E-07        -0.14640E-10         0.00000E+00
    0.18080E-07        -0.10752E-10         0.00000E+00
    0.18080E-07        -0.59230E-11         0.00000E+00
    0.18080E-07        -0.32415E-11         0.00000E+00
    0.18117E-07        -0.46033E-11         0.00000E+00
    0.18118E-07        -0.79496E-11         0.00000E+00
    0.18119E-07        -0.13279E-10         0.00000E+00
    0.18117E-07        -0.16406E-10         0.00000E+00
    0.18114E-07        -0.18150E-10         0.00000E+00
    0.18109E-07        -0.18961E-10         0.00000E+00
    0.18104E-07        -0.19090E-10         0.00000E+00
    0.18099E-07        -0.18698E-10         0.00000E+00
    0.18094E-07        -0.17885E-10         0.00000E+00
    0.18089E-07        -0.16710E-10         0.00000E+00
    0.18084E-07        -0.15199E-10         0.00000E+00
    0.18080E-07        -0.13341E-10         0.00000E+00
    0.18077E-07        -0.11090E-10         0.00000E+00
    0.18075E-07        -0.83057E-11         0.00000E+00
    0.18075E-07        -0.46964E-11         0.00000E+00
    0.18075E-07        -0.26375E-11         0.00000E+00
    0.18136E-07        -0.30765E-11         0.00000E+00
    0.18137E-07        -0.50043E-11         0.00000E+00
    0.18136E-07        -0.79110E-11         0.00000E+00
    0.18132E-07        -0.94410E-11         0.00000E+00
    0.18127E-07        -0.10259E-10         0.00000E+00
    0.18120E-07        -0.10596E-10         0.00000E+00
    0.18113E-07        -0.10589E-10         0.00000E+00
    0.18106E-07        -0.10322E-10         0.00000E+00
    0.18099E-07        -0.98489E-11         0.00000E+00
    0.18092E-07        -0.91996E-11         0.00000E+00
    0.18086E-07        -0.83875E-11         0.00000E+00
    0.18081E-07        -0.74087E-11         0.00000E+00
    0.18076E-07        -0.62375E-11         0.00000E+00
    0.18073E-07        -0.48225E-11         0.00000E+00
    0.18072E-07        -0.29156E-11         0.00000E+00
    0.18072E-07        -0.17853E-11         0.00000E+00
    0.18147E-07         0.00000E+00         0.00000E+00
    0.18147E-07         0.00000E+00         0.00000E+00
    0.18145E-07        -0.49660E-22         0.00000E+00
    0.18140E-07         0.10081E-25         0.00000E+00
    0.18134E-07         0.53810E-22         0.00000E+00
    0.18126E-07         0.00000E+00         0.00000E+00
    0.18118E-07         0.00000E+00         0.00000E+00
    0.18110E-07        -0.49700E-22         0.00000E+00
    0.18102E-07        -0.49700E-22         0.00000E+00
    0.18094E-07         0.49711E-22         0.00000E+00
    0.18087E-07         0.53853E-22         0.00000E+00
    0.18081E-07        -0.53864E-22         0.00000E+00
    0.18076E-07        -0.41387E-23         0.00000E+00
    0.18073E-07         0.53870E-22         0.00000E+00
    0.18071E-07         0.82885E-23         0.00000E+00
    0.18070E-07         0.00000E+00         0.00000E+00
CELL_DATA        450
TENSORS stressef double 
    0.43652E+08         0.25682E+06         0.00000E+00
    0.25682E+06         0.29759E+08         0.00000E+00
    0.00000E+00         0.00000E+00         0.26938E+08
 
    0.43652E+08         0.28482E+04         0.00000E+00
    0.28482E+04         0.29697E+08         0.00000E+00
    0.00000E+00         0.00000E+00         0.24061E+08
 
    0.42004E+08        -0.36962E+06         0.00000E+00
   -0.36962E+06         0.29119E+08         0.00000E+00
    0.00000E+00         0.00000E+00         0.20324E+08
 
    0.39751E+08        -0.44220E+06         0.00000E+00
   -0.44220E+06         0.28111E+08         0.00000E+00
    0.00000E+00         0.00000E+00         0.16465E+08
 
    0.37226E+08        -0.64829E+06         0.00000E+00
   -0.64829E+06         0.26985E+08         0.00000E+00
    0.00000E+00         0.00000E+00         0.13253E+08
 
    0.33732E+08        -0.65168E+06         0.00000E+00
   -0.65168E+06         0.25778E+08         0.00000E+00
    0.00000E+00         0.00000E+00         0.11902E+08
 
    0.30998E+08        -0.48122E+06         0.00000E+00
   -0.48122E+06         0.24733E+08         0.00000E+00
    0.00000E+00         0.00000E+00         0.11146E+08
 
    0.28687E+08        -0.34510E+06         0.00000E+00
   -0.34510E+06         0.23944E+08         0.00000E+00
    0.00000E+00         0.00000E+00         0.10526E+08
 
    0.26549E+08        -0.22632E+06         0.00000E+00
   -0.22632E+06         0.23393E+08         0.00000E+00
    0.00000E+00         0.00000E+00         0.99883E+07
 
    0.24451E+08        -0.11233E+06         0.00000E+00
   -0.11233E+06         0.23066E+08         0.00000E+00
    0.00000E+00         0.00000E+00         0.95034E+07
 
    0.22291E+08         0.66705E+04         0.00000E+00
    0.66705E+04         0.22968E+08         0.00000E+00
    0.00000E+00         0.00000E+00         0.90517E+07
 
    0.19957E+08         0.14118E+06         0.00000E+00
    0.14118E+06         0.23121E+08         0.00000E+00
    0.00000E+00         0.00000E+00         0.86155E+07
 
    0.17300E+08         0.30910E+06         0.00000E+00
    0.30910E+06         0.23573E+08         0.00000E+00
    0.00000E+00         0.00000E+00         0.81746E+07
 
    0.14060E+08         0.54823E+06         0.00000E+00
    0.54823E+06         0.24432E+08         0.00000E+00
    0.00000E+00         0.00000E+00         0.76984E+07
 
    0.95042E+07         0.11028E+07         0.00000E+00
    0.11028E+07         0.26001E+08         0.00000E+00
    0.00000E+00         0.00000E+00         0.71011E+07
 
    0.41085E+08         0.38476E+06         0.00000E+00
    0.38476E+06         0.24896E+08         0.00000E+00
    0.00000E+00         0.00000E+00         0.19041E+08
 
    0.40225E+08         0.80575E+04         0.00000E+00
    0.80575E+04         0.24822E+08         0.00000E+00
    0.00000E+00         0.00000E+00         0.16684E+08
 
    0.38746E+08        -0.68872E+06         0.00000E+00
   -0.68872E+06         0.24867E+08         0.00000E+00
    0.00000E+00         0.00000E+00         0.14099E+08
 
    0.36742E+08        -0.11709E+07         0.00000E+00
   -0.11709E+07         0.24796E+08         0.00000E+00
    0.00000E+00         0.00000E+00         0.12336E+08
 
    0.33935E+08        -0.15106E+07         0.00000E+00
   -0.15106E+07         0.24376E+08         0.00000E+00
    0.00000E+00         0.00000E+00         0.11662E+08
 
    0.31066E+08        -0.15584E+07         0.00000E+00
   -0.15584E+07         0.23815E+08         0.00000E+00
    0.00000E+00         0.00000E+00         0.10976E+08
 
    0.28372E+08        -0.12698E+07         0.00000E+00
   -0.12698E+07         0.23188E+08         0.00000E+00
    0.00000E+00         0.00000E+00         0.10312E+08
 
    0.26045E+08        -0.94383E+06         0.00000E+00
   -0.94383E+06         0.22625E+08         0.00000E+00
    0.00000E+00         0.00000E+00         0.97341E+07
 
    0.23899E+08        -0.62468E+06         0.00000E+00
   -0.62468E+06         0.22205E+08         0.00000E+00
    0.00000E+00         0.00000E+00         0.92207E+07
 
    0.21807E+08        -0.30107E+06         0.00000E+00
   -0.30107E+06         0.21962E+08         0.00000E+00
    0.00000E+00         0.00000E+00         0.87538E+07
 
    0.19669E+08         0.46237E+05         0.00000E+00
    0.46237E+05         0.21922E+08         0.00000E+00
    0.00000E+00         0.00000E+00         0.83182E+07
 
    0.17383E+08         0.44498E+06         0.00000E+00
    0.44498E+06         0.22118E+08         0.00000E+00
    0.00000E+00         0.00000E+00         0.79002E+07
 
    0.14823E+08         0.94467E+06         0.00000E+00
    0.94467E+06         0.22603E+08         0.00000E+00
    0.00000E+00         0.00000E+00         0.74852E+07
 
    0.11804E+08         0.16642E+07         0.00000E+00
    0.16642E+07         0.23470E+08         0.00000E+00
    0.00000E+00         0.00000E+00         0.70549E+07
 
    0.82857E+07         0.29923E+07         0.00000E+00
    0.29923E+07         0.24849E+08         0.00000E+00
    0.00000E+00         0.00000E+00         0.66270E+07
 
    0.38403E+08        -0.45189E+05         0.00000E+00
   -0.45189E+05         0.22363E+08         0.00000E+00
    0.00000E+00         0.00000E+00         0.13321E+08
 
    0.36894E+08        -0.25477E+06         0.00000E+00
   -0.25477E+06         0.22168E+08         0.00000E+00
    0.00000E+00         0.00000E+00         0.11812E+08
 
    0.35190E+08        -0.80414E+06         0.00000E+00
   -0.80414E+06         0.22020E+08         0.00000E+00
    0.00000E+00         0.00000E+00         0.11442E+08
 
    0.33285E+08        -0.14777E+07         0.00000E+00
   -0.14777E+07         0.21845E+08         0.00000E+00
    0.00000E+00         0.00000E+00         0.11026E+08
 
    0.30867E+08        -0.18653E+07         0.00000E+00
   -0.18653E+07         0.21621E+08         0.00000E+00
    0.00000E+00         0.00000E+00         0.10498E+08
 
    0.28311E+08        -0.19318E+07         0.00000E+00
   -0.19318E+07         0.21394E+08         0.00000E+00
    0.00000E+00         0.00000E+00         0.99409E+07
 
    0.25837E+08        -0.17127E+07         0.00000E+00
   -0.17127E+07         0.21134E+08         0.00000E+00
    0.00000E+00         0.00000E+00         0.93942E+07
 
    0.23554E+08        -0.13322E+07         0.00000E+00
   -0.13322E+07         0.20847E+08         0.00000E+00
    0.00000E+00         0.00000E+00         0.88802E+07
 
    0.21430E+08        -0.88760E+06         0.00000E+00
   -0.88760E+06         0.20615E+08         0.00000E+00
    0.00000E+00         0.00000E+00         0.84091E+07
 
    0.19370E+08        -0.39733E+06         0.00000E+00
   -0.39733E+06         0.20503E+08         0.00000E+00
    0.00000E+00         0.00000E+00         0.79746E+07
 
    0.17287E+08         0.15206E+06         0.00000E+00
    0.15206E+06         0.20555E+08         0.00000E+00
    0.00000E+00         0.00000E+00         0.75684E+07
 
    0.15098E+08         0.79577E+06         0.00000E+00
    0.79577E+06         0.20813E+08         0.00000E+00
    0.00000E+00         0.00000E+00         0.71823E+07
 
    0.12720E+08         0.16027E+07         0.00000E+00
    0.16027E+07         0.21326E+08         0.00000E+00
    0.00000E+00         0.00000E+00         0.68091E+07
 
    0.10106E+08         0.27168E+07         0.00000E+00
    0.27168E+07         0.22143E+08         0.00000E+00
    0.00000E+00         0.00000E+00         0.64497E+07
 
    0.73464E+07         0.43619E+07         0.00000E+00
    0.43619E+07         0.23224E+08         0.00000E+00
    0.00000E+00         0.00000E+00         0.61141E+07
 
    0.35374E+08        -0.20750E+06         0.00000E+00
   -0.20750E+06         0.19913E+08         0.00000E+00
    0.00000E+00         0.00000E+00         0.11057E+08
 
    0.33510E+08        -0.64306E+06         0.00000E+00
   -0.64306E+06         0.19724E+08         0.00000E+00
    0.00000E+00         0.00000E+00         0.10647E+08
 
    0.31760E+08        -0.11150E+07         0.00000E+00
   -0.11150E+07         0.19379E+08         0.00000E+00
    0.00000E+00         0.00000E+00         0.10228E+08
 
    0.29902E+08        -0.16388E+07         0.00000E+00
   -0.16388E+07         0.19142E+08         0.00000E+00
    0.00000E+00         0.00000E+00         0.98087E+07
 
    0.27786E+08        -0.19994E+07         0.00000E+00
   -0.19994E+07         0.19030E+08         0.00000E+00
    0.00000E+00         0.00000E+00         0.93634E+07
 
    0.25527E+08        -0.20749E+07         0.00000E+00
   -0.20749E+07         0.18952E+08         0.00000E+00
    0.00000E+00         0.00000E+00         0.88959E+07
 
    0.23284E+08        -0.18884E+07         0.00000E+00
   -0.18884E+07         0.18870E+08         0.00000E+00
    0.00000E+00         0.00000E+00         0.84307E+07
 
    0.21137E+08        -0.15058E+07         0.00000E+00
   -0.15058E+07         0.18782E+08         0.00000E+00
    0.00000E+00         0.00000E+00         0.79837E+07
 
    0.19092E+08        -0.99220E+06         0.00000E+00
   -0.99220E+06         0.18721E+08         0.00000E+00
    0.00000E+00         0.00000E+00         0.75627E+07
 
    0.17105E+08        -0.37949E+06         0.00000E+00
   -0.37949E+06         0.18741E+08         0.00000E+00
    0.00000E+00         0.00000E+00         0.71692E+07
 
    0.15118E+08         0.33637E+06         0.00000E+00
    0.33637E+06         0.18886E+08         0.00000E+00
    0.00000E+00         0.00000E+00         0.68008E+07
 
    0.13073E+08         0.11882E+07         0.00000E+00
    0.11882E+07         0.19199E+08         0.00000E+00
    0.00000E+00         0.00000E+00         0.64543E+07
 
    0.10934E+08         0.22428E+07         0.00000E+00
    0.22428E+07         0.19710E+08         0.00000E+00
    0.00000E+00         0.00000E+00         0.61287E+07
 
    0.87126E+07         0.36043E+07         0.00000E+00
    0.36043E+07         0.20424E+08         0.00000E+00
    0.00000E+00         0.00000E+00         0.58272E+07
 
    0.65115E+07         0.53944E+07         0.00000E+00
    0.53944E+07         0.21286E+08         0.00000E+00
    0.00000E+00         0.00000E+00         0.55596E+07
 
    0.32007E+08        -0.31973E+06         0.00000E+00
   -0.31973E+06         0.17083E+08         0.00000E+00
    0.00000E+00         0.00000E+00         0.98180E+07
 
    0.30169E+08        -0.87978E+06         0.00000E+00
   -0.87978E+06         0.16935E+08         0.00000E+00
    0.00000E+00         0.00000E+00         0.94207E+07
 
    0.28431E+08        -0.13719E+07         0.00000E+00
   -0.13719E+07         0.16746E+08         0.00000E+00
    0.00000E+00         0.00000E+00         0.90353E+07
 
    0.26646E+08        -0.17858E+07         0.00000E+00
   -0.17858E+07         0.16585E+08         0.00000E+00
    0.00000E+00         0.00000E+00         0.86461E+07
 
    0.24744E+08        -0.20552E+07         0.00000E+00
   -0.20552E+07         0.16507E+08         0.00000E+00
    0.00000E+00         0.00000E+00         0.82502E+07
 
    0.22747E+08        -0.21036E+07         0.00000E+00
   -0.21036E+07         0.16496E+08         0.00000E+00
    0.00000E+00         0.00000E+00         0.78485E+07
 
    0.20732E+08        -0.19155E+07         0.00000E+00
   -0.19155E+07         0.16511E+08         0.00000E+00
    0.00000E+00         0.00000E+00         0.74487E+07
 
    0.18760E+08        -0.15221E+07         0.00000E+00
   -0.15221E+07         0.16543E+08         0.00000E+00
    0.00000E+00         0.00000E+00         0.70606E+07
 
    0.16848E+08        -0.96184E+06         0.00000E+00
   -0.96184E+06         0.16605E+08         0.00000E+00
    0.00000E+00         0.00000E+00         0.66905E+07
 
    0.14980E+08        -0.25881E+06         0.00000E+00
   -0.25881E+06         0.16728E+08         0.00000E+00
    0.00000E+00         0.00000E+00         0.63416E+07
 
    0.13127E+08         0.58669E+06         0.00000E+00
    0.58669E+06         0.16946E+08         0.00000E+00
    0.00000E+00         0.00000E+00         0.60147E+07
 
    0.11260E+08         0.15997E+07         0.00000E+00
    0.15997E+07         0.17290E+08         0.00000E+00
    0.00000E+00         0.00000E+00         0.57101E+07
 
    0.93717E+07         0.28292E+07         0.00000E+00
    0.28292E+07         0.17776E+08         0.00000E+00
    0.00000E+00         0.00000E+00         0.54295E+07
 
    0.74935E+07         0.43410E+07         0.00000E+00
    0.43410E+07         0.18391E+08         0.00000E+00
    0.00000E+00         0.00000E+00         0.51770E+07
 
    0.57129E+07         0.61984E+07         0.00000E+00
    0.61984E+07         0.19088E+08         0.00000E+00
    0.00000E+00         0.00000E+00         0.49601E+07
 
    0.28499E+08        -0.39092E+06         0.00000E+00
   -0.39092E+06         0.14265E+08         0.00000E+00
    0.00000E+00         0.00000E+00         0.85527E+07
 
    0.26793E+08        -0.10256E+07         0.00000E+00
   -0.10256E+07         0.14186E+08         0.00000E+00
    0.00000E+00         0.00000E+00         0.81958E+07
 
    0.25153E+08        -0.15171E+07         0.00000E+00
   -0.15171E+07         0.14079E+08         0.00000E+00
    0.00000E+00         0.00000E+00         0.78466E+07
 
    0.23496E+08        -0.18757E+07         0.00000E+00
   -0.18757E+07         0.14000E+08         0.00000E+00
    0.00000E+00         0.00000E+00         0.74992E+07
 
    0.21778E+08        -0.20722E+07         0.00000E+00
   -0.20722E+07         0.13975E+08         0.00000E+00
    0.00000E+00         0.00000E+00         0.71505E+07
 
    0.20004E+08        -0.20716E+07         0.00000E+00
   -0.20716E+07         0.14006E+08         0.00000E+00
    0.00000E+00         0.00000E+00         0.68019E+07
 
    0.18207E+08        -0.18578E+07         0.00000E+00
   -0.18578E+07         0.14078E+08         0.00000E+00
    0.00000E+00         0.00000E+00         0.64571E+07
 
    0.16426E+08        -0.14398E+07         0.00000E+00
   -0.14398E+07         0.14181E+08         0.00000E+00
    0.00000E+00         0.00000E+00         0.61215E+07
 
    0.14679E+08        -0.83707E+06         0.00000E+00
   -0.83707E+06         0.14320E+08         0.00000E+00
    0.00000E+00         0.00000E+00         0.57998E+07
 
    0.12967E+08        -0.64075E+05         0.00000E+00
   -0.64075E+05         0.14510E+08         0.00000E+00
    0.00000E+00         0.00000E+00         0.54953E+07
 
    0.11278E+08         0.87875E+06         0.00000E+00
    0.87875E+06         0.14773E+08         0.00000E+00
    0.00000E+00         0.00000E+00         0.52102E+07
 
    0.96067E+07         0.20077E+07         0.00000E+00
    0.20077E+07         0.15126E+08         0.00000E+00
    0.00000E+00         0.00000E+00         0.49466E+07
 
    0.79608E+07         0.33535E+07         0.00000E+00
    0.33535E+07         0.15575E+08         0.00000E+00
    0.00000E+00         0.00000E+00         0.47071E+07
 
    0.63763E+07         0.49535E+07         0.00000E+00
    0.49535E+07         0.16103E+08         0.00000E+00
    0.00000E+00         0.00000E+00         0.44959E+07
 
    0.49228E+07         0.68371E+07         0.00000E+00
    0.68371E+07         0.16671E+08         0.00000E+00
    0.00000E+00         0.00000E+00         0.43188E+07
 
    0.24919E+08        -0.42400E+06         0.00000E+00
   -0.42400E+06         0.11461E+08         0.00000E+00
    0.00000E+00         0.00000E+00         0.72760E+07
 
    0.23408E+08        -0.10981E+07         0.00000E+00
   -0.10981E+07         0.11430E+08         0.00000E+00
    0.00000E+00         0.00000E+00         0.69676E+07
 
    0.21921E+08        -0.15850E+07         0.00000E+00
   -0.15850E+07         0.11392E+08         0.00000E+00
    0.00000E+00         0.00000E+00         0.66626E+07
 
    0.20422E+08        -0.19045E+07         0.00000E+00
   -0.19045E+07         0.11374E+08         0.00000E+00
    0.00000E+00         0.00000E+00         0.63591E+07
 
    0.18887E+08        -0.20486E+07         0.00000E+00
   -0.20486E+07         0.11396E+08         0.00000E+00
    0.00000E+00         0.00000E+00         0.60566E+07
 
    0.17316E+08        -0.20007E+07         0.00000E+00
   -0.20007E+07         0.11464E+08         0.00000E+00
    0.00000E+00         0.00000E+00         0.57560E+07
 
    0.15727E+08        -0.17506E+07         0.00000E+00
   -0.17506E+07         0.11573E+08         0.00000E+00
    0.00000E+00         0.00000E+00         0.54600E+07
 
    0.14143E+08        -0.12996E+07         0.00000E+00
   -0.12996E+07         0.11717E+08         0.00000E+00
    0.00000E+00         0.00000E+00         0.51720E+07
 
    0.12579E+08        -0.65582E+06         0.00000E+00
   -0.65582E+06         0.11898E+08         0.00000E+00
    0.00000E+00         0.00000E+00         0.48955E+07
 
    0.11044E+08         0.17329E+06         0.00000E+00
    0.17329E+06         0.12124E+08         0.00000E+00
    0.00000E+00         0.00000E+00         0.46335E+07
 
    0.95381E+07         0.11876E+07         0.00000E+00
    0.11876E+07         0.12405E+08         0.00000E+00
    0.00000E+00         0.00000E+00         0.43886E+07
 
    0.80684E+07         0.23963E+07         0.00000E+00
    0.23963E+07         0.12749E+08         0.00000E+00
    0.00000E+00         0.00000E+00         0.41635E+07
 
    0.66509E+07         0.38159E+07         0.00000E+00
    0.38159E+07         0.13155E+08         0.00000E+00
    0.00000E+00         0.00000E+00         0.39612E+07
 
    0.53196E+07         0.54642E+07         0.00000E+00
    0.54642E+07         0.13607E+08         0.00000E+00
    0.00000E+00         0.00000E+00         0.37852E+07
 
    0.41286E+07         0.73508E+07         0.00000E+00
    0.73508E+07         0.14073E+08         0.00000E+00
    0.00000E+00         0.00000E+00         0.36403E+07
 
    0.21323E+08        -0.43176E+06         0.00000E+00
   -0.43176E+06         0.86706E+07         0.00000E+00
    0.00000E+00         0.00000E+00         0.59988E+07
 
    0.20032E+08        -0.11166E+07         0.00000E+00
   -0.11166E+07         0.86732E+07         0.00000E+00
    0.00000E+00         0.00000E+00         0.57411E+07
 
    0.18730E+08        -0.15945E+07         0.00000E+00
   -0.15945E+07         0.86824E+07         0.00000E+00
    0.00000E+00         0.00000E+00         0.54825E+07
 
    0.17409E+08        -0.18850E+07         0.00000E+00
   -0.18850E+07         0.87110E+07         0.00000E+00
    0.00000E+00         0.00000E+00         0.52239E+07
 
    0.16060E+08        -0.19894E+07         0.00000E+00
   -0.19894E+07         0.87705E+07         0.00000E+00
    0.00000E+00         0.00000E+00         0.49662E+07
 
    0.14687E+08        -0.19011E+07         0.00000E+00
   -0.19011E+07         0.88661E+07         0.00000E+00
    0.00000E+00         0.00000E+00         0.47107E+07
 
    0.13301E+08        -0.16145E+07         0.00000E+00
   -0.16145E+07         0.89974E+07         0.00000E+00
    0.00000E+00         0.00000E+00         0.44596E+07
 
    0.11914E+08        -0.11288E+07         0.00000E+00
   -0.11288E+07         0.91628E+07         0.00000E+00
    0.00000E+00         0.00000E+00         0.42154E+07
 
    0.10543E+08        -0.44720E+06         0.00000E+00
   -0.44720E+06         0.93626E+07         0.00000E+00
    0.00000E+00         0.00000E+00         0.39810E+07
 
    0.91953E+07         0.42689E+06         0.00000E+00
    0.42689E+06         0.95998E+07         0.00000E+00
    0.00000E+00         0.00000E+00         0.37590E+07
 
    0.78816E+07         0.14929E+07         0.00000E+00
    0.14929E+07         0.98786E+07         0.00000E+00
    0.00000E+00         0.00000E+00         0.35520E+07
 
    0.66128E+07         0.27546E+07         0.00000E+00
    0.27546E+07         0.10200E+08         0.00000E+00
    0.00000E+00         0.00000E+00         0.33626E+07
 
    0.54084E+07         0.42185E+07         0.00000E+00
    0.42185E+07         0.10560E+08         0.00000E+00
    0.00000E+00         0.00000E+00         0.31937E+07
 
    0.42985E+07         0.58898E+07         0.00000E+00
    0.58898E+07         0.10943E+08         0.00000E+00
    0.00000E+00         0.00000E+00         0.30483E+07
 
    0.33250E+07         0.77662E+07         0.00000E+00
    0.77662E+07         0.11326E+08         0.00000E+00
    0.00000E+00         0.00000E+00         0.29301E+07
 
    0.17749E+08        -0.42410E+06         0.00000E+00
   -0.42410E+06         0.58983E+07         0.00000E+00
    0.00000E+00         0.00000E+00         0.47294E+07
 
    0.16682E+08        -0.10996E+07         0.00000E+00
   -0.10996E+07         0.59209E+07         0.00000E+00
    0.00000E+00         0.00000E+00         0.45207E+07
 
    0.15579E+08        -0.15637E+07         0.00000E+00
   -0.15637E+07         0.59605E+07         0.00000E+00
    0.00000E+00         0.00000E+00         0.43080E+07
 
    0.14448E+08        -0.18307E+07         0.00000E+00
   -0.18307E+07         0.60196E+07         0.00000E+00
    0.00000E+00         0.00000E+00         0.40936E+07
 
    0.13292E+08        -0.19044E+07         0.00000E+00
   -0.19044E+07         0.61037E+07         0.00000E+00
    0.00000E+00         0.00000E+00         0.38791E+07
 
    0.12115E+08        -0.17831E+07         0.00000E+00
   -0.17831E+07         0.62164E+07         0.00000E+00
    0.00000E+00         0.00000E+00         0.36664E+07
 
    0.10928E+08        -0.14642E+07         0.00000E+00
   -0.14642E+07         0.63588E+07         0.00000E+00
    0.00000E+00         0.00000E+00         0.34573E+07
 
    0.97400E+07        -0.94675E+06         0.00000E+00
   -0.94675E+06         0.65306E+07         0.00000E+00
    0.00000E+00         0.00000E+00         0.32541E+07
 
    0.85636E+07        -0.23227E+06         0.00000E+00
   -0.23227E+06         0.67318E+07         0.00000E+00
    0.00000E+00         0.00000E+00         0.30591E+07
 
    0.74096E+07         0.67704E+06         0.00000E+00
    0.67704E+06         0.69630E+07         0.00000E+00
    0.00000E+00         0.00000E+00         0.28745E+07
 
    0.62895E+07         0.17797E+07         0.00000E+00
    0.17797E+07         0.72247E+07         0.00000E+00
    0.00000E+00         0.00000E+00         0.27028E+07
 
    0.52170E+07         0.30754E+07         0.00000E+00
    0.30754E+07         0.75146E+07         0.00000E+00
    0.00000E+00         0.00000E+00         0.25463E+07
 
    0.42114E+07         0.45639E+07         0.00000E+00
    0.45639E+07         0.78263E+07         0.00000E+00
    0.00000E+00         0.00000E+00         0.24075E+07
 
    0.32984E+07         0.62423E+07         0.00000E+00
    0.62423E+07         0.81470E+07         0.00000E+00
    0.00000E+00         0.00000E+00         0.22891E+07
 
    0.25105E+07         0.81012E+07         0.00000E+00
    0.81012E+07         0.84582E+07         0.00000E+00
    0.00000E+00         0.00000E+00         0.21937E+07
 
    0.14217E+08        -0.40808E+06         0.00000E+00
   -0.40808E+06         0.31460E+07         0.00000E+00
    0.00000E+00         0.00000E+00         0.34726E+07
 
    0.13369E+08        -0.10623E+07         0.00000E+00
   -0.10623E+07         0.31789E+07         0.00000E+00
    0.00000E+00         0.00000E+00         0.33097E+07
 
    0.12470E+08        -0.15087E+07         0.00000E+00
   -0.15087E+07         0.32345E+07         0.00000E+00
    0.00000E+00         0.00000E+00         0.31409E+07
 
    0.11535E+08        -0.17553E+07         0.00000E+00
   -0.17553E+07         0.33098E+07         0.00000E+00
    0.00000E+00         0.00000E+00         0.29690E+07
 
    0.10574E+08        -0.18048E+07         0.00000E+00
   -0.18048E+07         0.34059E+07         0.00000E+00
    0.00000E+00         0.00000E+00         0.27960E+07
 
    0.95952E+07        -0.16573E+07         0.00000E+00
   -0.16573E+07         0.35246E+07         0.00000E+00
    0.00000E+00         0.00000E+00         0.26240E+07
 
    0.86061E+07        -0.13115E+07         0.00000E+00
   -0.13115E+07         0.36670E+07         0.00000E+00
    0.00000E+00         0.00000E+00         0.24546E+07
 
    0.76165E+07        -0.76736E+06         0.00000E+00
   -0.76736E+06         0.38333E+07         0.00000E+00
    0.00000E+00         0.00000E+00         0.22900E+07
 
    0.66363E+07        -0.26153E+05         0.00000E+00
   -0.26153E+05         0.40231E+07         0.00000E+00
    0.00000E+00         0.00000E+00         0.21319E+07
 
    0.56762E+07         0.90981E+06         0.00000E+00
    0.90981E+06         0.42359E+07         0.00000E+00
    0.00000E+00         0.00000E+00         0.19824E+07
 
    0.47480E+07         0.20377E+07         0.00000E+00
    0.20377E+07         0.44700E+07         0.00000E+00
    0.00000E+00         0.00000E+00         0.18436E+07
 
    0.38654E+07         0.33540E+07         0.00000E+00
    0.33540E+07         0.47219E+07         0.00000E+00
    0.00000E+00         0.00000E+00         0.17175E+07
 
    0.30459E+07         0.48541E+07         0.00000E+00
    0.48541E+07         0.49847E+07         0.00000E+00
    0.00000E+00         0.00000E+00         0.16061E+07
 
    0.23110E+07         0.65300E+07         0.00000E+00
    0.65300E+07         0.52476E+07         0.00000E+00
    0.00000E+00         0.00000E+00         0.15117E+07
 
    0.16857E+07         0.83682E+07         0.00000E+00
    0.83682E+07         0.54962E+07         0.00000E+00
    0.00000E+00         0.00000E+00         0.14364E+07
 
    0.10740E+08        -0.38867E+06         0.00000E+00
   -0.38867E+06         0.41536E+06         0.00000E+00
    0.00000E+00         0.00000E+00         0.22312E+07
 
    0.10100E+08        -0.10160E+07         0.00000E+00
   -0.10160E+07         0.45115E+06         0.00000E+00
    0.00000E+00         0.00000E+00         0.21102E+07
 
    0.94020E+07        -0.14432E+07         0.00000E+00
   -0.14432E+07         0.51145E+06         0.00000E+00
    0.00000E+00         0.00000E+00         0.19827E+07
 
    0.86653E+07        -0.16716E+07         0.00000E+00
   -0.16716E+07         0.59049E+06         0.00000E+00
    0.00000E+00         0.00000E+00         0.18512E+07
 
    0.79022E+07        -0.17019E+07         0.00000E+00
   -0.17019E+07         0.68693E+06         0.00000E+00
    0.00000E+00         0.00000E+00         0.17178E+07
 
    0.71213E+07        -0.15338E+07         0.00000E+00
   -0.15338E+07         0.80112E+06         0.00000E+00
    0.00000E+00         0.00000E+00         0.15845E+07
 
    0.63308E+07        -0.11668E+07         0.00000E+00
   -0.11668E+07         0.93358E+06         0.00000E+00
    0.00000E+00         0.00000E+00         0.14529E+07
 
    0.55389E+07        -0.60158E+06         0.00000E+00
   -0.60158E+06         0.10844E+07         0.00000E+00
    0.00000E+00         0.00000E+00         0.13247E+07
 
    0.47543E+07         0.16021E+06         0.00000E+00
    0.16021E+06         0.12531E+07         0.00000E+00
    0.00000E+00         0.00000E+00         0.12015E+07
 
    0.39867E+07         0.11155E+07         0.00000E+00
    0.11155E+07         0.14384E+07         0.00000E+00
    0.00000E+00         0.00000E+00         0.10850E+07
 
    0.32469E+07         0.22599E+07         0.00000E+00
    0.22599E+07         0.16380E+07         0.00000E+00
    0.00000E+00         0.00000E+00         0.97698E+06
 
    0.25474E+07         0.35877E+07         0.00000E+00
    0.35877E+07         0.18478E+07         0.00000E+00
    0.00000E+00         0.00000E+00         0.87904E+06
 
    0.19032E+07         0.50912E+07         0.00000E+00
    0.50912E+07         0.20615E+07         0.00000E+00
    0.00000E+00         0.00000E+00         0.79294E+06
 
    0.13318E+07         0.67590E+07         0.00000E+00
    0.67590E+07         0.22699E+07         0.00000E+00
    0.00000E+00         0.00000E+00         0.72035E+06
 
    0.85240E+06         0.85757E+07         0.00000E+00
    0.85757E+07         0.24622E+07         0.00000E+00
    0.00000E+00         0.00000E+00         0.66291E+06
 
    0.73221E+07        -0.36938E+06         0.00000E+00
   -0.36938E+06        -0.22930E+07         0.00000E+00
    0.00000E+00         0.00000E+00         0.10058E+07
 
    0.68764E+07        -0.96948E+06         0.00000E+00
   -0.96948E+06        -0.22596E+07         0.00000E+00
    0.00000E+00         0.00000E+00         0.92335E+06
 
    0.63749E+07        -0.13779E+07         0.00000E+00
   -0.13779E+07        -0.22034E+07         0.00000E+00
    0.00000E+00         0.00000E+00         0.83428E+06
 
    0.58356E+07        -0.15908E+07         0.00000E+00
   -0.15908E+07        -0.21308E+07         0.00000E+00
    0.00000E+00         0.00000E+00         0.74096E+06
 
    0.52706E+07        -0.16059E+07         0.00000E+00
   -0.16059E+07        -0.20441E+07         0.00000E+00
    0.00000E+00         0.00000E+00         0.64532E+06
 
    0.46886E+07        -0.14221E+07         0.00000E+00
   -0.14221E+07        -0.19438E+07         0.00000E+00
    0.00000E+00         0.00000E+00         0.54896E+06
 
    0.40966E+07        -0.10391E+07         0.00000E+00
   -0.10391E+07        -0.18300E+07         0.00000E+00
    0.00000E+00         0.00000E+00         0.45334E+06
 
    0.35018E+07        -0.45800E+06         0.00000E+00
   -0.45800E+06        -0.17026E+07         0.00000E+00
    0.00000E+00         0.00000E+00         0.35984E+06
 
    0.29116E+07         0.31880E+06         0.00000E+00
    0.31880E+06        -0.15625E+07         0.00000E+00
    0.00000E+00         0.00000E+00         0.26981E+06
 
    0.23340E+07         0.12873E+07         0.00000E+00
    0.12873E+07        -0.14110E+07         0.00000E+00
    0.00000E+00         0.00000E+00         0.18461E+06
 
    0.17785E+07         0.24418E+07         0.00000E+00
    0.24418E+07        -0.12507E+07         0.00000E+00
    0.00000E+00         0.00000E+00         0.10557E+06
 
    0.12557E+07         0.37749E+07         0.00000E+00
    0.37749E+07        -0.10855E+07         0.00000E+00
    0.00000E+00         0.00000E+00         0.34046E+05
 
    0.77788E+06         0.52767E+07         0.00000E+00
    0.52767E+07        -0.92092E+06         0.00000E+00
    0.00000E+00         0.00000E+00        -0.28608E+05
 
    0.35875E+06         0.69339E+07         0.00000E+00
    0.69339E+07        -0.76422E+06         0.00000E+00
    0.00000E+00         0.00000E+00        -0.81094E+05
 
    0.12955E+05         0.87298E+07         0.00000E+00
    0.87298E+07        -0.62391E+06         0.00000E+00
    0.00000E+00         0.00000E+00        -0.12219E+06
 
    0.39592E+07        -0.35274E+06         0.00000E+00
   -0.35274E+06        -0.49791E+07         0.00000E+00
    0.00000E+00         0.00000E+00        -0.20398E+06
 
    0.36965E+07        -0.92903E+06         0.00000E+00
   -0.92903E+06        -0.49521E+07         0.00000E+00
    0.00000E+00         0.00000E+00        -0.25111E+06
 
    0.33859E+07        -0.13215E+07         0.00000E+00
   -0.13215E+07        -0.49066E+07         0.00000E+00
    0.00000E+00         0.00000E+00        -0.30414E+06
 
    0.30421E+07        -0.15219E+07         0.00000E+00
   -0.15219E+07        -0.48482E+07         0.00000E+00
    0.00000E+00         0.00000E+00        -0.36122E+06
 
    0.26751E+07        -0.15256E+07         0.00000E+00
   -0.15256E+07        -0.47794E+07         0.00000E+00
    0.00000E+00         0.00000E+00        -0.42086E+06
 
    0.22919E+07        -0.13303E+07         0.00000E+00
   -0.13303E+07        -0.47007E+07         0.00000E+00
    0.00000E+00         0.00000E+00        -0.48177E+06
 
    0.18983E+07        -0.93567E+06         0.00000E+00
   -0.93567E+06        -0.46125E+07         0.00000E+00
    0.00000E+00         0.00000E+00        -0.54285E+06
 
    0.14999E+07        -0.34327E+06         0.00000E+00
   -0.34327E+06        -0.45150E+07         0.00000E+00
    0.00000E+00         0.00000E+00        -0.60303E+06
 
    0.11024E+07         0.44383E+06         0.00000E+00
    0.44383E+06        -0.44089E+07         0.00000E+00
    0.00000E+00         0.00000E+00        -0.66131E+06
 
    0.71234E+06         0.14207E+07         0.00000E+00
    0.14207E+07        -0.42958E+07         0.00000E+00
    0.00000E+00         0.00000E+00        -0.71668E+06
 
    0.33722E+06         0.25807E+07         0.00000E+00
    0.25807E+07        -0.41779E+07         0.00000E+00
    0.00000E+00         0.00000E+00        -0.76813E+06
 
   -0.14499E+05         0.39149E+07         0.00000E+00
    0.39149E+07        -0.40587E+07         0.00000E+00
    0.00000E+00         0.00000E+00        -0.81464E+06
 
   -0.33329E+06         0.54121E+07         0.00000E+00
    0.54121E+07        -0.39428E+07         0.00000E+00
    0.00000E+00         0.00000E+00        -0.85522E+06
 
   -0.60875E+06         0.70579E+07         0.00000E+00
    0.70579E+07        -0.38358E+07         0.00000E+00
    0.00000E+00         0.00000E+00        -0.88892E+06
 
   -0.83002E+06         0.88347E+07         0.00000E+00
    0.88347E+07        -0.37442E+07         0.00000E+00
    0.00000E+00         0.00000E+00        -0.91484E+06
 
    0.64466E+06        -0.34049E+06         0.00000E+00
   -0.34049E+06        -0.76436E+07         0.00000E+00
    0.00000E+00         0.00000E+00        -0.13998E+07
 
    0.55556E+06        -0.89932E+06         0.00000E+00
   -0.89932E+06        -0.76257E+07         0.00000E+00
    0.00000E+00         0.00000E+00        -0.14140E+07
 
    0.43091E+06        -0.12802E+07         0.00000E+00
   -0.12802E+07        -0.75957E+07         0.00000E+00
    0.00000E+00         0.00000E+00        -0.14330E+07
 
    0.28051E+06        -0.14719E+07         0.00000E+00
   -0.14719E+07        -0.75575E+07         0.00000E+00
    0.00000E+00         0.00000E+00        -0.14554E+07
 
    0.11084E+06        -0.14676E+07         0.00000E+00
   -0.14676E+07        -0.75126E+07         0.00000E+00
    0.00000E+00         0.00000E+00        -0.14803E+07
 
   -0.73581E+05        -0.12645E+07         0.00000E+00
   -0.12645E+07        -0.74614E+07         0.00000E+00
    0.00000E+00         0.00000E+00        -0.15070E+07
 
   -0.26907E+06        -0.86206E+06         0.00000E+00
   -0.86206E+06        -0.74041E+07         0.00000E+00
    0.00000E+00         0.00000E+00        -0.15346E+07
 
   -0.47201E+06        -0.26221E+06         0.00000E+00
   -0.26221E+06        -0.73409E+07         0.00000E+00
    0.00000E+00         0.00000E+00        -0.15626E+07
 
   -0.67833E+06         0.53131E+06         0.00000E+00
    0.53131E+06        -0.72726E+07         0.00000E+00
    0.00000E+00         0.00000E+00        -0.15902E+07
 
   -0.88333E+06         0.15129E+07         0.00000E+00
    0.15129E+07        -0.72005E+07         0.00000E+00
    0.00000E+00         0.00000E+00        -0.16168E+07
 
   -0.10815E+07         0.26748E+07         0.00000E+00
    0.26748E+07        -0.71269E+07         0.00000E+00
    0.00000E+00         0.00000E+00        -0.16417E+07
 
   -0.12668E+07         0.40076E+07         0.00000E+00
    0.40076E+07        -0.70544E+07         0.00000E+00
    0.00000E+00         0.00000E+00        -0.16642E+07
 
   -0.14322E+07         0.54988E+07         0.00000E+00
    0.54988E+07        -0.69867E+07         0.00000E+00
    0.00000E+00         0.00000E+00        -0.16838E+07
 
   -0.15704E+07         0.71336E+07         0.00000E+00
    0.71336E+07        -0.69278E+07         0.00000E+00
    0.00000E+00         0.00000E+00        -0.16996E+07
 
   -0.16738E+07         0.88938E+07         0.00000E+00
    0.88938E+07        -0.68823E+07         0.00000E+00
    0.00000E+00         0.00000E+00        -0.17112E+07
 
   -0.26320E+07        -0.33387E+06         0.00000E+00
   -0.33387E+06        -0.10288E+08         0.00000E+00
    0.00000E+00         0.00000E+00        -0.25839E+07
 
   -0.25539E+07        -0.88357E+06         0.00000E+00
   -0.88357E+06        -0.10281E+08         0.00000E+00
    0.00000E+00         0.00000E+00        -0.25669E+07
 
   -0.24959E+07        -0.12586E+07         0.00000E+00
   -0.12586E+07        -0.10269E+08         0.00000E+00
    0.00000E+00         0.00000E+00        -0.25531E+07
 
   -0.24542E+07        -0.14457E+07         0.00000E+00
   -0.14457E+07        -0.10255E+08         0.00000E+00
    0.00000E+00         0.00000E+00        -0.25419E+07
 
   -0.24267E+07        -0.14370E+07         0.00000E+00
   -0.14370E+07        -0.10238E+08         0.00000E+00
    0.00000E+00         0.00000E+00        -0.25330E+07
 
   -0.24124E+07        -0.12292E+07         0.00000E+00
   -0.12292E+07        -0.10218E+08         0.00000E+00
    0.00000E+00         0.00000E+00        -0.25262E+07
 
   -0.24102E+07        -0.82207E+06         0.00000E+00
   -0.82207E+06        -0.10195E+08         0.00000E+00
    0.00000E+00         0.00000E+00        -0.25211E+07
 
   -0.24184E+07        -0.21791E+06         0.00000E+00
   -0.21791E+06        -0.10169E+08         0.00000E+00
    0.00000E+00         0.00000E+00        -0.25175E+07
 
   -0.24351E+07         0.57891E+06         0.00000E+00
    0.57891E+06        -0.10141E+08         0.00000E+00
    0.00000E+00         0.00000E+00        -0.25151E+07
 
   -0.24572E+07         0.15621E+07         0.00000E+00
    0.15621E+07        -0.10111E+08         0.00000E+00
    0.00000E+00         0.00000E+00        -0.25137E+07
 
   -0.24815E+07         0.27236E+07         0.00000E+00
    0.27236E+07        -0.10082E+08         0.00000E+00
    0.00000E+00         0.00000E+00        -0.25128E+07
 
   -0.25038E+07         0.40531E+07         0.00000E+00
    0.40531E+07        -0.10057E+08         0.00000E+00
    0.00000E+00         0.00000E+00        -0.25121E+07
 
   -0.25200E+07         0.55379E+07         0.00000E+00
    0.55379E+07        -0.10036E+08         0.00000E+00
    0.00000E+00         0.00000E+00        -0.25113E+07
 
   -0.25255E+07         0.71627E+07         0.00000E+00
    0.71627E+07        -0.10024E+08         0.00000E+00
    0.00000E+00         0.00000E+00        -0.25099E+07
 
   -0.25157E+07         0.89093E+07         0.00000E+00
    0.89093E+07        -0.10023E+08         0.00000E+00
    0.00000E+00         0.00000E+00        -0.25078E+07
 
   -0.58835E+07        -0.33365E+06         0.00000E+00
   -0.33365E+06        -0.12913E+08         0.00000E+00
    0.00000E+00         0.00000E+00        -0.37592E+07
 
   -0.56409E+07        -0.88381E+06         0.00000E+00
   -0.88381E+06        -0.12918E+08         0.00000E+00
    0.00000E+00         0.00000E+00        -0.37117E+07
 
   -0.54012E+07        -0.12594E+07         0.00000E+00
   -0.12594E+07        -0.12927E+08         0.00000E+00
    0.00000E+00         0.00000E+00        -0.36657E+07
 
   -0.51673E+07        -0.14463E+07         0.00000E+00
   -0.14463E+07        -0.12939E+08         0.00000E+00
    0.00000E+00         0.00000E+00        -0.36213E+07
 
   -0.49424E+07        -0.14365E+07         0.00000E+00
   -0.14365E+07        -0.12952E+08         0.00000E+00
    0.00000E+00         0.00000E+00        -0.35790E+07
 
   -0.47291E+07        -0.12268E+07         0.00000E+00
   -0.12268E+07        -0.12966E+08         0.00000E+00
    0.00000E+00         0.00000E+00        -0.35389E+07
 
   -0.45293E+07        -0.81756E+06         0.00000E+00
   -0.81756E+06        -0.12978E+08         0.00000E+00
    0.00000E+00         0.00000E+00        -0.35014E+07
 
   -0.43437E+07        -0.21169E+06         0.00000E+00
   -0.21169E+06        -0.12989E+08         0.00000E+00
    0.00000E+00         0.00000E+00        -0.34666E+07
 
   -0.41721E+07         0.58582E+06         0.00000E+00
    0.58582E+06        -0.13001E+08         0.00000E+00
    0.00000E+00         0.00000E+00        -0.34346E+07
 
   -0.40133E+07         0.15682E+07         0.00000E+00
    0.15682E+07        -0.13014E+08         0.00000E+00
    0.00000E+00         0.00000E+00        -0.34054E+07
 
   -0.38658E+07         0.27271E+07         0.00000E+00
    0.27271E+07        -0.13030E+08         0.00000E+00
    0.00000E+00         0.00000E+00        -0.33791E+07
 
   -0.37278E+07         0.40520E+07         0.00000E+00
    0.40520E+07        -0.13050E+08         0.00000E+00
    0.00000E+00         0.00000E+00        -0.33556E+07
 
   -0.35975E+07         0.55303E+07         0.00000E+00
    0.55303E+07        -0.13077E+08         0.00000E+00
    0.00000E+00         0.00000E+00        -0.33348E+07
 
   -0.34731E+07         0.71467E+07         0.00000E+00
    0.71467E+07        -0.13110E+08         0.00000E+00
    0.00000E+00         0.00000E+00        -0.33167E+07
 
   -0.33531E+07         0.88827E+07         0.00000E+00
    0.88827E+07        -0.13153E+08         0.00000E+00
    0.00000E+00         0.00000E+00        -0.33012E+07
 
   -0.91238E+07        -0.34022E+06         0.00000E+00
   -0.34022E+06        -0.15520E+08         0.00000E+00
    0.00000E+00         0.00000E+00        -0.49288E+07
 
   -0.87154E+07        -0.90107E+06         0.00000E+00
   -0.90107E+06        -0.15538E+08         0.00000E+00
    0.00000E+00         0.00000E+00        -0.48507E+07
 
   -0.82922E+07        -0.12840E+07         0.00000E+00
   -0.12840E+07        -0.15569E+08         0.00000E+00
    0.00000E+00         0.00000E+00        -0.47722E+07
 
   -0.78644E+07        -0.14751E+07         0.00000E+00
   -0.14751E+07        -0.15608E+08         0.00000E+00
    0.00000E+00         0.00000E+00        -0.46944E+07
 
   -0.74406E+07        -0.14670E+07         0.00000E+00
   -0.14670E+07        -0.15651E+08         0.00000E+00
    0.00000E+00         0.00000E+00        -0.46183E+07
 
   -0.70277E+07        -0.12577E+07         0.00000E+00
   -0.12577E+07        -0.15697E+08         0.00000E+00
    0.00000E+00         0.00000E+00        -0.45449E+07
 
   -0.66306E+07        -0.84840E+06         0.00000E+00
   -0.84840E+06        -0.15744E+08         0.00000E+00
    0.00000E+00         0.00000E+00        -0.44748E+07
 
   -0.62520E+07        -0.24302E+06         0.00000E+00
   -0.24302E+06        -0.15792E+08         0.00000E+00
    0.00000E+00         0.00000E+00        -0.44087E+07
 
   -0.58935E+07         0.55284E+06         0.00000E+00
    0.55284E+06        -0.15842E+08         0.00000E+00
    0.00000E+00         0.00000E+00        -0.43471E+07
 
   -0.55554E+07         0.15321E+07         0.00000E+00
    0.15321E+07        -0.15896E+08         0.00000E+00
    0.00000E+00         0.00000E+00        -0.42902E+07
 
   -0.52379E+07         0.26864E+07         0.00000E+00
    0.26864E+07        -0.15955E+08         0.00000E+00
    0.00000E+00         0.00000E+00        -0.42385E+07
 
   -0.49411E+07         0.40054E+07         0.00000E+00
    0.40054E+07        -0.16020E+08         0.00000E+00
    0.00000E+00         0.00000E+00        -0.41922E+07
 
   -0.46656E+07         0.54771E+07         0.00000E+00
    0.54771E+07        -0.16092E+08         0.00000E+00
    0.00000E+00         0.00000E+00        -0.41516E+07
 
   -0.44125E+07         0.70863E+07         0.00000E+00
    0.70863E+07        -0.16171E+08         0.00000E+00
    0.00000E+00         0.00000E+00        -0.41168E+07
 
   -0.41834E+07         0.88151E+07         0.00000E+00
    0.88151E+07        -0.16256E+08         0.00000E+00
    0.00000E+00         0.00000E+00        -0.40880E+07
 
   -0.12368E+08        -0.35369E+06         0.00000E+00
   -0.35369E+06        -0.18113E+08         0.00000E+00
    0.00000E+00         0.00000E+00        -0.60961E+07
 
   -0.11788E+08        -0.93545E+06         0.00000E+00
   -0.93545E+06        -0.18143E+08         0.00000E+00
    0.00000E+00         0.00000E+00        -0.59862E+07
 
   -0.11176E+08        -0.13321E+07         0.00000E+00
   -0.13321E+07        -0.18194E+08         0.00000E+00
    0.00000E+00         0.00000E+00        -0.58741E+07
 
   -0.10551E+08        -0.15312E+07         0.00000E+00
   -0.15312E+07        -0.18259E+08         0.00000E+00
    0.00000E+00         0.00000E+00        -0.57619E+07
 
   -0.99257E+07        -0.15273E+07         0.00000E+00
   -0.15273E+07        -0.18331E+08         0.00000E+00
    0.00000E+00         0.00000E+00        -0.56513E+07
 
   -0.93122E+07        -0.13200E+07         0.00000E+00
   -0.13200E+07        -0.18406E+08         0.00000E+00
    0.00000E+00         0.00000E+00        -0.55437E+07
 
   -0.87179E+07        -0.91232E+06         0.00000E+00
   -0.91232E+06        -0.18484E+08         0.00000E+00
    0.00000E+00         0.00000E+00        -0.54405E+07
 
   -0.81474E+07        -0.30940E+06         0.00000E+00
   -0.30940E+06        -0.18566E+08         0.00000E+00
    0.00000E+00         0.00000E+00        -0.53426E+07
 
   -0.76036E+07         0.48241E+06         0.00000E+00
    0.48241E+06        -0.18651E+08         0.00000E+00
    0.00000E+00         0.00000E+00        -0.52509E+07
 
   -0.70878E+07         0.14559E+07         0.00000E+00
    0.14559E+07        -0.18743E+08         0.00000E+00
    0.00000E+00         0.00000E+00        -0.51661E+07
 
   -0.66014E+07         0.26030E+07         0.00000E+00
    0.26030E+07        -0.18843E+08         0.00000E+00
    0.00000E+00         0.00000E+00        -0.50888E+07
 
   -0.61463E+07         0.39144E+07         0.00000E+00
    0.39144E+07        -0.18951E+08         0.00000E+00
    0.00000E+00         0.00000E+00        -0.50195E+07
 
   -0.57256E+07         0.53788E+07         0.00000E+00
    0.53788E+07        -0.19068E+08         0.00000E+00
    0.00000E+00         0.00000E+00        -0.49588E+07
 
   -0.53432E+07         0.69820E+07         0.00000E+00
    0.69820E+07        -0.19192E+08         0.00000E+00
    0.00000E+00         0.00000E+00        -0.49071E+07
 
   -0.50042E+07         0.87066E+07         0.00000E+00
    0.87066E+07        -0.19320E+08         0.00000E+00
    0.00000E+00         0.00000E+00        -0.48649E+07
 
   -0.15629E+08        -0.37388E+06         0.00000E+00
   -0.37388E+06        -0.20693E+08         0.00000E+00
    0.00000E+00         0.00000E+00        -0.72644E+07
 
   -0.14868E+08        -0.98622E+06         0.00000E+00
   -0.98622E+06        -0.20734E+08         0.00000E+00
    0.00000E+00         0.00000E+00        -0.71205E+07
 
   -0.14060E+08        -0.14023E+07         0.00000E+00
   -0.14023E+07        -0.20805E+08         0.00000E+00
    0.00000E+00         0.00000E+00        -0.69730E+07
 
   -0.13231E+08        -0.16123E+07         0.00000E+00
   -0.16123E+07        -0.20892E+08         0.00000E+00
    0.00000E+00         0.00000E+00        -0.68245E+07
 
   -0.12401E+08        -0.16139E+07         0.00000E+00
   -0.16139E+07        -0.20988E+08         0.00000E+00
    0.00000E+00         0.00000E+00        -0.66778E+07
 
   -0.11586E+08        -0.14096E+07         0.00000E+00
   -0.14096E+07        -0.21088E+08         0.00000E+00
    0.00000E+00         0.00000E+00        -0.65349E+07
 
   -0.10795E+08        -0.10048E+07         0.00000E+00
   -0.10048E+07        -0.21192E+08         0.00000E+00
    0.00000E+00         0.00000E+00        -0.63974E+07
 
   -0.10034E+08        -0.40626E+06         0.00000E+00
   -0.40626E+06        -0.21301E+08         0.00000E+00
    0.00000E+00         0.00000E+00        -0.62670E+07
 
   -0.93070E+07         0.37875E+06         0.00000E+00
    0.37875E+06        -0.21416E+08         0.00000E+00
    0.00000E+00         0.00000E+00        -0.61446E+07
 
   -0.86153E+07         0.13431E+07         0.00000E+00
    0.13431E+07        -0.21541E+08         0.00000E+00
    0.00000E+00         0.00000E+00        -0.60312E+07
 
   -0.79609E+07         0.24797E+07         0.00000E+00
    0.24797E+07        -0.21678E+08         0.00000E+00
    0.00000E+00         0.00000E+00        -0.59278E+07
 
   -0.73473E+07         0.37805E+07         0.00000E+00
    0.37805E+07        -0.21828E+08         0.00000E+00
    0.00000E+00         0.00000E+00        -0.58350E+07
 
   -0.67795E+07         0.52358E+07         0.00000E+00
    0.52358E+07        -0.21989E+08         0.00000E+00
    0.00000E+00         0.00000E+00        -0.57536E+07
 
   -0.62651E+07         0.68333E+07         0.00000E+00
    0.68333E+07        -0.22158E+08         0.00000E+00
    0.00000E+00         0.00000E+00        -0.56845E+07
 
   -0.58131E+07         0.85564E+07         0.00000E+00
    0.85564E+07        -0.22330E+08         0.00000E+00
    0.00000E+00         0.00000E+00        -0.56285E+07
 
   -0.18923E+08        -0.40033E+06         0.00000E+00
   -0.40033E+06        -0.23261E+08         0.00000E+00
    0.00000E+00         0.00000E+00        -0.84369E+07
 
   -0.17966E+08        -0.10518E+07         0.00000E+00
   -0.10518E+07        -0.23313E+08         0.00000E+00
    0.00000E+00         0.00000E+00        -0.82559E+07
 
   -0.16950E+08        -0.14915E+07         0.00000E+00
   -0.14915E+07        -0.23400E+08         0.00000E+00
    0.00000E+00         0.00000E+00        -0.80699E+07
 
   -0.15909E+08        -0.17139E+07         0.00000E+00
   -0.17139E+07        -0.23505E+08         0.00000E+00
    0.00000E+00         0.00000E+00        -0.78827E+07
 
   -0.14870E+08        -0.17211E+07         0.00000E+00
   -0.17211E+07        -0.23619E+08         0.00000E+00
    0.00000E+00         0.00000E+00        -0.76977E+07
 
   -0.13851E+08        -0.15197E+07         0.00000E+00
   -0.15197E+07        -0.23737E+08         0.00000E+00
    0.00000E+00         0.00000E+00        -0.75177E+07
 
   -0.12865E+08        -0.11186E+07         0.00000E+00
   -0.11186E+07        -0.23858E+08         0.00000E+00
    0.00000E+00         0.00000E+00        -0.73447E+07
 
   -0.11917E+08        -0.52666E+06         0.00000E+00
   -0.52666E+06        -0.23985E+08         0.00000E+00
    0.00000E+00         0.00000E+00        -0.71805E+07
 
   -0.11009E+08         0.24804E+06         0.00000E+00
    0.24804E+06        -0.24123E+08         0.00000E+00
    0.00000E+00         0.00000E+00        -0.70264E+07
 
   -0.10144E+08         0.11987E+07         0.00000E+00
    0.11987E+07        -0.24274E+08         0.00000E+00
    0.00000E+00         0.00000E+00        -0.68837E+07
 
   -0.93225E+07         0.23197E+07         0.00000E+00
    0.23197E+07        -0.24444E+08         0.00000E+00
    0.00000E+00         0.00000E+00        -0.67532E+07
 
   -0.85489E+07         0.36052E+07         0.00000E+00
    0.36052E+07        -0.24631E+08         0.00000E+00
    0.00000E+00         0.00000E+00        -0.66361E+07
 
   -0.78308E+07         0.50483E+07         0.00000E+00
    0.50483E+07        -0.24836E+08         0.00000E+00
    0.00000E+00         0.00000E+00        -0.65333E+07
 
   -0.71792E+07         0.66389E+07         0.00000E+00
    0.66389E+07        -0.25051E+08         0.00000E+00
    0.00000E+00         0.00000E+00        -0.64460E+07
 
   -0.66080E+07         0.83626E+07         0.00000E+00
    0.83626E+07        -0.25269E+08         0.00000E+00
    0.00000E+00         0.00000E+00        -0.63754E+07
 
   -0.22262E+08        -0.43239E+06         0.00000E+00
   -0.43239E+06        -0.25821E+08         0.00000E+00
    0.00000E+00         0.00000E+00        -0.96166E+07
 
   -0.21088E+08        -0.11298E+07         0.00000E+00
   -0.11298E+07        -0.25882E+08         0.00000E+00
    0.00000E+00         0.00000E+00        -0.93940E+07
 
   -0.19848E+08        -0.15952E+07         0.00000E+00
   -0.15952E+07        -0.25980E+08         0.00000E+00
    0.00000E+00         0.00000E+00        -0.91656E+07
 
   -0.18586E+08        -0.18293E+07         0.00000E+00
   -0.18293E+07        -0.26097E+08         0.00000E+00
    0.00000E+00         0.00000E+00        -0.89364E+07
 
   -0.17333E+08        -0.18404E+07         0.00000E+00
   -0.18404E+07        -0.26220E+08         0.00000E+00
    0.00000E+00         0.00000E+00        -0.87104E+07
 
   -0.16111E+08        -0.16409E+07         0.00000E+00
   -0.16409E+07        -0.26344E+08         0.00000E+00
    0.00000E+00         0.00000E+00        -0.84910E+07
 
   -0.14932E+08        -0.12439E+07         0.00000E+00
   -0.12439E+07        -0.26472E+08         0.00000E+00
    0.00000E+00         0.00000E+00        -0.82807E+07
 
   -0.13801E+08        -0.66115E+06         0.00000E+00
   -0.66115E+06        -0.26606E+08         0.00000E+00
    0.00000E+00         0.00000E+00        -0.80814E+07
 
   -0.12718E+08         0.98543E+05         0.00000E+00
    0.98543E+05        -0.26755E+08         0.00000E+00
    0.00000E+00         0.00000E+00        -0.78946E+07
 
   -0.11682E+08         0.10292E+07         0.00000E+00
    0.10292E+07        -0.26925E+08         0.00000E+00
    0.00000E+00         0.00000E+00        -0.77214E+07
 
   -0.10694E+08         0.21272E+07         0.00000E+00
    0.21272E+07        -0.27121E+08         0.00000E+00
    0.00000E+00         0.00000E+00        -0.75630E+07
 
   -0.97585E+07         0.33903E+07         0.00000E+00
    0.33903E+07        -0.27344E+08         0.00000E+00
    0.00000E+00         0.00000E+00        -0.74204E+07
 
   -0.88846E+07         0.48154E+07         0.00000E+00
    0.48154E+07        -0.27591E+08         0.00000E+00
    0.00000E+00         0.00000E+00        -0.72950E+07
 
   -0.80874E+07         0.63965E+07         0.00000E+00
    0.63965E+07        -0.27854E+08         0.00000E+00
    0.00000E+00         0.00000E+00        -0.71883E+07
 
   -0.73871E+07         0.81218E+07         0.00000E+00
    0.81218E+07        -0.28122E+08         0.00000E+00
    0.00000E+00         0.00000E+00        -0.71019E+07
 
   -0.25656E+08        -0.46917E+06         0.00000E+00
   -0.46917E+06        -0.28374E+08         0.00000E+00
    0.00000E+00         0.00000E+00        -0.10806E+08
 
   -0.24240E+08        -0.12169E+07         0.00000E+00
   -0.12169E+07        -0.28441E+08         0.00000E+00
    0.00000E+00         0.00000E+00        -0.10536E+08
 
   -0.22757E+08        -0.17073E+07         0.00000E+00
   -0.17073E+07        -0.28545E+08         0.00000E+00
    0.00000E+00         0.00000E+00        -0.10260E+08
 
   -0.21261E+08        -0.19494E+07         0.00000E+00
   -0.19494E+07        -0.28664E+08         0.00000E+00
    0.00000E+00         0.00000E+00        -0.99850E+07
 
   -0.19789E+08        -0.19604E+07         0.00000E+00
   -0.19604E+07        -0.28784E+08         0.00000E+00
    0.00000E+00         0.00000E+00        -0.97147E+07
 
   -0.18365E+08        -0.17603E+07         0.00000E+00
   -0.17603E+07        -0.28901E+08         0.00000E+00
    0.00000E+00         0.00000E+00        -0.94533E+07
 
   -0.16999E+08        -0.13678E+07         0.00000E+00
   -0.13678E+07        -0.29020E+08         0.00000E+00
    0.00000E+00         0.00000E+00        -0.92038E+07
 
   -0.15692E+08        -0.79758E+06         0.00000E+00
   -0.79758E+06        -0.29148E+08         0.00000E+00
    0.00000E+00         0.00000E+00        -0.89679E+07
 
   -0.14440E+08        -0.59277E+05         0.00000E+00
   -0.59277E+05        -0.29296E+08         0.00000E+00
    0.00000E+00         0.00000E+00        -0.87472E+07
 
   -0.13239E+08         0.84248E+06         0.00000E+00
    0.84248E+06        -0.29474E+08         0.00000E+00
    0.00000E+00         0.00000E+00        -0.85425E+07
 
   -0.12086E+08         0.19073E+07         0.00000E+00
    0.19073E+07        -0.29688E+08         0.00000E+00
    0.00000E+00         0.00000E+00        -0.83549E+07
 
   -0.10986E+08         0.31376E+07         0.00000E+00
    0.31376E+07        -0.29942E+08         0.00000E+00
    0.00000E+00         0.00000E+00        -0.81857E+07
 
   -0.99485E+07         0.45359E+07         0.00000E+00
    0.45359E+07        -0.30232E+08         0.00000E+00
    0.00000E+00         0.00000E+00        -0.80361E+07
 
   -0.89936E+07         0.61018E+07         0.00000E+00
    0.61018E+07        -0.30548E+08         0.00000E+00
    0.00000E+00         0.00000E+00        -0.79083E+07
 
   -0.81491E+07         0.78284E+07         0.00000E+00
    0.78284E+07        -0.30872E+08         0.00000E+00
    0.00000E+00         0.00000E+00        -0.78042E+07
 
   -0.29114E+08        -0.50957E+06         0.00000E+00
   -0.50957E+06        -0.30922E+08         0.00000E+00
    0.00000E+00         0.00000E+00        -0.12007E+08
 
   -0.27423E+08        -0.13087E+07         0.00000E+00
   -0.13087E+07        -0.30992E+08         0.00000E+00
    0.00000E+00         0.00000E+00        -0.11683E+08
 
   -0.25673E+08        -0.18190E+07         0.00000E+00
   -0.18190E+07        -0.31095E+08         0.00000E+00
    0.00000E+00         0.00000E+00        -0.11354E+08
 
   -0.23931E+08        -0.20616E+07         0.00000E+00
   -0.20616E+07        -0.31204E+08         0.00000E+00
    0.00000E+00         0.00000E+00        -0.11027E+08
 
   -0.22237E+08        -0.20659E+07         0.00000E+00
   -0.20659E+07        -0.31304E+08         0.00000E+00
    0.00000E+00         0.00000E+00        -0.10708E+08
 
   -0.20616E+08        -0.18616E+07         0.00000E+00
   -0.18616E+07        -0.31396E+08         0.00000E+00
    0.00000E+00         0.00000E+00        -0.10402E+08
 
   -0.19071E+08        -0.14740E+07         0.00000E+00
   -0.14740E+07        -0.31487E+08         0.00000E+00
    0.00000E+00         0.00000E+00        -0.10112E+08
 
   -0.17598E+08        -0.92107E+06         0.00000E+00
   -0.92107E+06        -0.31592E+08         0.00000E+00
    0.00000E+00         0.00000E+00        -0.98379E+07
 
   -0.16187E+08        -0.21276E+06         0.00000E+00
   -0.21276E+06        -0.31724E+08         0.00000E+00
    0.00000E+00         0.00000E+00        -0.95822E+07
 
   -0.14828E+08         0.64832E+06         0.00000E+00
    0.64832E+06        -0.31897E+08         0.00000E+00
    0.00000E+00         0.00000E+00        -0.93450E+07
 
   -0.13513E+08         0.16660E+07         0.00000E+00
    0.16660E+07        -0.32122E+08         0.00000E+00
    0.00000E+00         0.00000E+00        -0.91272E+07
 
   -0.12245E+08         0.28488E+07         0.00000E+00
    0.28488E+07        -0.32403E+08         0.00000E+00
    0.00000E+00         0.00000E+00        -0.89296E+07
 
   -0.11033E+08         0.42070E+07         0.00000E+00
    0.42070E+07        -0.32737E+08         0.00000E+00
    0.00000E+00         0.00000E+00        -0.87541E+07
 
   -0.99039E+07         0.57486E+07         0.00000E+00
    0.57486E+07        -0.33110E+08         0.00000E+00
    0.00000E+00         0.00000E+00        -0.86027E+07
 
   -0.88935E+07         0.74739E+07         0.00000E+00
    0.74739E+07        -0.33499E+08         0.00000E+00
    0.00000E+00         0.00000E+00        -0.84785E+07
 
   -0.32641E+08        -0.55227E+06         0.00000E+00
   -0.55227E+06        -0.33467E+08         0.00000E+00
    0.00000E+00         0.00000E+00        -0.13222E+08
 
   -0.30633E+08        -0.13992E+07         0.00000E+00
   -0.13992E+07        -0.33535E+08         0.00000E+00
    0.00000E+00         0.00000E+00        -0.12834E+08
 
   -0.28589E+08        -0.19186E+07         0.00000E+00
   -0.19186E+07        -0.33627E+08         0.00000E+00
    0.00000E+00         0.00000E+00        -0.12443E+08
 
   -0.26587E+08        -0.21493E+07         0.00000E+00
   -0.21493E+07        -0.33708E+08         0.00000E+00
    0.00000E+00         0.00000E+00        -0.12059E+08
 
   -0.24672E+08        -0.21372E+07         0.00000E+00
   -0.21372E+07        -0.33768E+08         0.00000E+00
    0.00000E+00         0.00000E+00        -0.11688E+08
 
   -0.22861E+08        -0.19244E+07         0.00000E+00
   -0.19244E+07        -0.33812E+08         0.00000E+00
    0.00000E+00         0.00000E+00        -0.11335E+08
 
   -0.21151E+08        -0.15432E+07         0.00000E+00
   -0.15432E+07        -0.33855E+08         0.00000E+00
    0.00000E+00         0.00000E+00        -0.11001E+08
 
   -0.19528E+08        -0.10143E+07         0.00000E+00
   -0.10143E+07        -0.33916E+08         0.00000E+00
    0.00000E+00         0.00000E+00        -0.10689E+08
 
   -0.17972E+08        -0.34737E+06         0.00000E+00
   -0.34737E+06        -0.34015E+08         0.00000E+00
    0.00000E+00         0.00000E+00        -0.10398E+08
 
   -0.16466E+08         0.45780E+06         0.00000E+00
    0.45780E+06        -0.34171E+08         0.00000E+00
    0.00000E+00         0.00000E+00        -0.10127E+08
 
   -0.14994E+08         0.14100E+07         0.00000E+00
    0.14100E+07        -0.34396E+08         0.00000E+00
    0.00000E+00         0.00000E+00        -0.98780E+07
 
   -0.13554E+08         0.25254E+07         0.00000E+00
    0.25254E+07        -0.34700E+08         0.00000E+00
    0.00000E+00         0.00000E+00        -0.96507E+07
 
   -0.12155E+08         0.38246E+07         0.00000E+00
    0.38246E+07        -0.35078E+08         0.00000E+00
    0.00000E+00         0.00000E+00        -0.94467E+07
 
   -0.10828E+08         0.53277E+07         0.00000E+00
    0.53277E+07        -0.35516E+08         0.00000E+00
    0.00000E+00         0.00000E+00        -0.92688E+07
 
   -0.96210E+07         0.70461E+07         0.00000E+00
    0.70461E+07        -0.35983E+08         0.00000E+00
    0.00000E+00         0.00000E+00        -0.91209E+07
 
   -0.36237E+08        -0.59566E+06         0.00000E+00
   -0.59566E+06        -0.36010E+08         0.00000E+00
    0.00000E+00         0.00000E+00        -0.14449E+08
 
   -0.33862E+08        -0.14801E+07         0.00000E+00
   -0.14801E+07        -0.36071E+08         0.00000E+00
    0.00000E+00         0.00000E+00        -0.13987E+08
 
   -0.31491E+08        -0.19897E+07         0.00000E+00
   -0.19897E+07        -0.36135E+08         0.00000E+00
    0.00000E+00         0.00000E+00        -0.13525E+08
 
   -0.29218E+08        -0.21898E+07         0.00000E+00
   -0.21898E+07        -0.36166E+08         0.00000E+00
    0.00000E+00         0.00000E+00        -0.13077E+08
 
   -0.27087E+08        -0.21494E+07         0.00000E+00
   -0.21494E+07        -0.36158E+08         0.00000E+00
    0.00000E+00         0.00000E+00        -0.12649E+08
 
   -0.25103E+08        -0.19247E+07         0.00000E+00
   -0.19247E+07        -0.36128E+08         0.00000E+00
    0.00000E+00         0.00000E+00        -0.12246E+08
 
   -0.23248E+08        -0.15539E+07         0.00000E+00
   -0.15539E+07        -0.36097E+08         0.00000E+00
    0.00000E+00         0.00000E+00        -0.11869E+08
 
   -0.21495E+08        -0.10588E+07         0.00000E+00
   -0.10588E+07        -0.36094E+08         0.00000E+00
    0.00000E+00         0.00000E+00        -0.11518E+08
 
   -0.19812E+08        -0.44754E+06         0.00000E+00
   -0.44754E+06        -0.36143E+08         0.00000E+00
    0.00000E+00         0.00000E+00        -0.11191E+08
 
   -0.18172E+08         0.28318E+06         0.00000E+00
    0.28318E+06        -0.36266E+08         0.00000E+00
    0.00000E+00         0.00000E+00        -0.10888E+08
 
   -0.16551E+08         0.11474E+07         0.00000E+00
    0.11474E+07        -0.36482E+08         0.00000E+00
    0.00000E+00         0.00000E+00        -0.10607E+08
 
   -0.14937E+08         0.21696E+07         0.00000E+00
    0.21696E+07        -0.36802E+08         0.00000E+00
    0.00000E+00         0.00000E+00        -0.10348E+08
 
   -0.13336E+08         0.33834E+07         0.00000E+00
    0.33834E+07        -0.37227E+08         0.00000E+00
    0.00000E+00         0.00000E+00        -0.10113E+08
 
   -0.11781E+08         0.48261E+07         0.00000E+00
    0.48261E+07        -0.37741E+08         0.00000E+00
    0.00000E+00         0.00000E+00        -0.99043E+07
 
   -0.10334E+08         0.65270E+07         0.00000E+00
    0.65270E+07        -0.38304E+08         0.00000E+00
    0.00000E+00         0.00000E+00        -0.97277E+07
 
   -0.39900E+08        -0.63757E+06         0.00000E+00
   -0.63757E+06        -0.38552E+08         0.00000E+00
    0.00000E+00         0.00000E+00        -0.15690E+08
 
   -0.37087E+08        -0.15386E+07         0.00000E+00
   -0.15386E+07        -0.38596E+08         0.00000E+00
    0.00000E+00         0.00000E+00        -0.15137E+08
 
   -0.34354E+08        -0.20073E+07         0.00000E+00
   -0.20073E+07        -0.38608E+08         0.00000E+00
    0.00000E+00         0.00000E+00        -0.14592E+08
 
   -0.31808E+08        -0.21522E+07         0.00000E+00
   -0.21522E+07        -0.38554E+08         0.00000E+00
    0.00000E+00         0.00000E+00        -0.14072E+08
 
   -0.29478E+08        -0.20721E+07         0.00000E+00
   -0.20721E+07        -0.38444E+08         0.00000E+00
    0.00000E+00         0.00000E+00        -0.13584E+08
 
   -0.27346E+08        -0.18360E+07         0.00000E+00
   -0.18360E+07        -0.38308E+08         0.00000E+00
    0.00000E+00         0.00000E+00        -0.13131E+08
 
   -0.25372E+08        -0.14843E+07         0.00000E+00
   -0.14843E+07        -0.38182E+08         0.00000E+00
    0.00000E+00         0.00000E+00        -0.12711E+08
 
   -0.23513E+08        -0.10367E+07         0.00000E+00
   -0.10367E+07        -0.38097E+08         0.00000E+00
    0.00000E+00         0.00000E+00        -0.12322E+08
 
   -0.21726E+08        -0.49830E+06         0.00000E+00
   -0.49830E+06        -0.38080E+08         0.00000E+00
    0.00000E+00         0.00000E+00        -0.11961E+08
 
   -0.19970E+08         0.13707E+06         0.00000E+00
    0.13707E+06        -0.38158E+08         0.00000E+00
    0.00000E+00         0.00000E+00        -0.11626E+08
 
   -0.18212E+08         0.88740E+06         0.00000E+00
    0.88740E+06        -0.38352E+08         0.00000E+00
    0.00000E+00         0.00000E+00        -0.11313E+08
 
   -0.16426E+08         0.17847E+07         0.00000E+00
    0.17847E+07        -0.38680E+08         0.00000E+00
    0.00000E+00         0.00000E+00        -0.11021E+08
 
   -0.14608E+08         0.28772E+07         0.00000E+00
    0.28772E+07        -0.39152E+08         0.00000E+00
    0.00000E+00         0.00000E+00        -0.10752E+08
 
   -0.12786E+08         0.42265E+07         0.00000E+00
    0.42265E+07        -0.39754E+08         0.00000E+00
    0.00000E+00         0.00000E+00        -0.10508E+08
 
   -0.11039E+08         0.58912E+07         0.00000E+00
    0.58912E+07        -0.40439E+08         0.00000E+00
    0.00000E+00         0.00000E+00        -0.10296E+08
 
   -0.43612E+08        -0.67445E+06         0.00000E+00
   -0.67445E+06        -0.41092E+08         0.00000E+00
    0.00000E+00         0.00000E+00        -0.16941E+08
 
   -0.40272E+08        -0.15516E+07         0.00000E+00
   -0.15516E+07        -0.41101E+08         0.00000E+00
    0.00000E+00         0.00000E+00        -0.16275E+08
 
   -0.37146E+08        -0.19319E+07         0.00000E+00
   -0.19319E+07        -0.41020E+08         0.00000E+00
    0.00000E+00         0.00000E+00        -0.15633E+08
 
   -0.34340E+08        -0.19944E+07         0.00000E+00
   -0.19944E+07        -0.40831E+08         0.00000E+00
    0.00000E+00         0.00000E+00        -0.15034E+08
 
   -0.31844E+08        -0.18708E+07         0.00000E+00
   -0.18708E+07        -0.40577E+08         0.00000E+00
    0.00000E+00         0.00000E+00        -0.14484E+08
 
   -0.29599E+08        -0.16335E+07         0.00000E+00
   -0.16335E+07        -0.40308E+08         0.00000E+00
    0.00000E+00         0.00000E+00        -0.13981E+08
 
   -0.27537E+08        -0.13168E+07         0.00000E+00
   -0.13168E+07        -0.40068E+08         0.00000E+00
    0.00000E+00         0.00000E+00        -0.13521E+08
 
   -0.25600E+08        -0.93448E+06         0.00000E+00
   -0.93448E+06        -0.39888E+08         0.00000E+00
    0.00000E+00         0.00000E+00        -0.13098E+08
 
   -0.23733E+08        -0.48798E+06         0.00000E+00
   -0.48798E+06        -0.39797E+08         0.00000E+00
    0.00000E+00         0.00000E+00        -0.12706E+08
 
   -0.21885E+08         0.30908E+05         0.00000E+00
    0.30908E+05        -0.39820E+08         0.00000E+00
    0.00000E+00         0.00000E+00        -0.12341E+08
 
   -0.20008E+08         0.64124E+06         0.00000E+00
    0.64124E+06        -0.39981E+08         0.00000E+00
    0.00000E+00         0.00000E+00        -0.11998E+08
 
   -0.18061E+08         0.13779E+07         0.00000E+00
    0.13779E+07        -0.40306E+08         0.00000E+00
    0.00000E+00         0.00000E+00        -0.11673E+08
 
   -0.16013E+08         0.23019E+07         0.00000E+00
    0.23019E+07        -0.40820E+08         0.00000E+00
    0.00000E+00         0.00000E+00        -0.11367E+08
 
   -0.13879E+08         0.35066E+07         0.00000E+00
    0.35066E+07        -0.41522E+08         0.00000E+00
    0.00000E+00         0.00000E+00        -0.11080E+08
 
   -0.11749E+08         0.51013E+07         0.00000E+00
    0.51013E+07        -0.42364E+08         0.00000E+00
    0.00000E+00         0.00000E+00        -0.10823E+08
 
   -0.47342E+08        -0.69814E+06         0.00000E+00
   -0.69814E+06        -0.43629E+08         0.00000E+00
    0.00000E+00         0.00000E+00        -0.18194E+08
 
   -0.43353E+08        -0.14716E+07         0.00000E+00
   -0.14716E+07        -0.43561E+08         0.00000E+00
    0.00000E+00         0.00000E+00        -0.17383E+08
 
   -0.39827E+08        -0.16981E+07         0.00000E+00
   -0.16981E+07        -0.43307E+08         0.00000E+00
    0.00000E+00         0.00000E+00        -0.16627E+08
 
   -0.36811E+08        -0.16651E+07         0.00000E+00
   -0.16651E+07        -0.42915E+08         0.00000E+00
    0.00000E+00         0.00000E+00        -0.15945E+08
 
   -0.34201E+08        -0.15152E+07         0.00000E+00
   -0.15152E+07        -0.42481E+08         0.00000E+00
    0.00000E+00         0.00000E+00        -0.15336E+08
 
   -0.31882E+08        -0.13012E+07         0.00000E+00
   -0.13012E+07        -0.42065E+08         0.00000E+00
    0.00000E+00         0.00000E+00        -0.14790E+08
 
   -0.29766E+08        -0.10434E+07         0.00000E+00
   -0.10434E+07        -0.41707E+08         0.00000E+00
    0.00000E+00         0.00000E+00        -0.14294E+08
 
   -0.27777E+08        -0.74757E+06         0.00000E+00
   -0.74757E+06        -0.41433E+08         0.00000E+00
    0.00000E+00         0.00000E+00        -0.13842E+08
 
   -0.25854E+08        -0.41183E+06         0.00000E+00
   -0.41183E+06        -0.41268E+08         0.00000E+00
    0.00000E+00         0.00000E+00        -0.13424E+08
 
   -0.23937E+08        -0.27938E+05         0.00000E+00
   -0.27938E+05        -0.41234E+08         0.00000E+00
    0.00000E+00         0.00000E+00        -0.13034E+08
 
   -0.21968E+08         0.42052E+06         0.00000E+00
    0.42052E+06        -0.41355E+08         0.00000E+00
    0.00000E+00         0.00000E+00        -0.12665E+08
 
   -0.19884E+08         0.96412E+06         0.00000E+00
    0.96412E+06        -0.41663E+08         0.00000E+00
    0.00000E+00         0.00000E+00        -0.12309E+08
 
   -0.17615E+08         0.16624E+07         0.00000E+00
    0.16624E+07        -0.42199E+08         0.00000E+00
    0.00000E+00         0.00000E+00        -0.11963E+08
 
   -0.15124E+08         0.26420E+07         0.00000E+00
    0.26420E+07        -0.43006E+08         0.00000E+00
    0.00000E+00         0.00000E+00        -0.11626E+08
 
   -0.12488E+08         0.41012E+07         0.00000E+00
    0.41012E+07        -0.44051E+08         0.00000E+00
    0.00000E+00         0.00000E+00        -0.11308E+08
 
   -0.51007E+08        -0.67960E+06         0.00000E+00
   -0.67960E+06        -0.46145E+08         0.00000E+00
    0.00000E+00         0.00000E+00        -0.19430E+08
 
   -0.46228E+08        -0.11848E+07         0.00000E+00
   -0.11848E+07        -0.45871E+08         0.00000E+00
    0.00000E+00         0.00000E+00        -0.18420E+08
 
   -0.42380E+08        -0.12141E+07         0.00000E+00
   -0.12141E+07        -0.45309E+08         0.00000E+00
    0.00000E+00         0.00000E+00        -0.17538E+08
 
   -0.39248E+08        -0.11268E+07         0.00000E+00
   -0.11268E+07        -0.44672E+08         0.00000E+00
    0.00000E+00         0.00000E+00        -0.16784E+08
 
   -0.36581E+08        -0.99670E+06         0.00000E+00
   -0.99670E+06        -0.44057E+08         0.00000E+00
    0.00000E+00         0.00000E+00        -0.16128E+08
 
   -0.34226E+08        -0.84343E+06         0.00000E+00
   -0.84343E+06        -0.43508E+08         0.00000E+00
    0.00000E+00         0.00000E+00        -0.15547E+08
 
   -0.32080E+08        -0.67261E+06         0.00000E+00
   -0.67261E+06        -0.43049E+08         0.00000E+00
    0.00000E+00         0.00000E+00        -0.15026E+08
 
   -0.30063E+08        -0.48432E+06         0.00000E+00
   -0.48432E+06        -0.42699E+08         0.00000E+00
    0.00000E+00         0.00000E+00        -0.14552E+08
 
   -0.28105E+08        -0.27553E+06         0.00000E+00
   -0.27553E+06        -0.42473E+08         0.00000E+00
    0.00000E+00         0.00000E+00        -0.14116E+08
 
   -0.26145E+08        -0.40138E+05         0.00000E+00
   -0.40138E+05        -0.42390E+08         0.00000E+00
    0.00000E+00         0.00000E+00        -0.13707E+08
 
   -0.24114E+08         0.23262E+06         0.00000E+00
    0.23262E+06        -0.42473E+08         0.00000E+00
    0.00000E+00         0.00000E+00        -0.13317E+08
 
   -0.21932E+08         0.56263E+06         0.00000E+00
    0.56263E+06        -0.42754E+08         0.00000E+00
    0.00000E+00         0.00000E+00        -0.12937E+08
 
   -0.19493E+08         0.99076E+06         0.00000E+00
    0.99076E+06        -0.43284E+08         0.00000E+00
    0.00000E+00         0.00000E+00        -0.12555E+08
 
   -0.16635E+08         0.16207E+07         0.00000E+00
    0.16207E+07        -0.44147E+08         0.00000E+00
    0.00000E+00         0.00000E+00        -0.12156E+08
 
   -0.13319E+08         0.27956E+07         0.00000E+00
    0.27956E+07        -0.45463E+08         0.00000E+00
    0.00000E+00         0.00000E+00        -0.11756E+08
 
   -0.54367E+08        -0.42812E+06         0.00000E+00
   -0.42812E+06        -0.48413E+08         0.00000E+00
    0.00000E+00         0.00000E+00        -0.20556E+08
 
   -0.48827E+08        -0.48963E+06         0.00000E+00
   -0.48963E+06        -0.47630E+08         0.00000E+00
    0.00000E+00         0.00000E+00        -0.19291E+08
 
   -0.44882E+08        -0.44860E+06         0.00000E+00
   -0.44860E+06        -0.46753E+08         0.00000E+00
    0.00000E+00         0.00000E+00        -0.18327E+08
 
   -0.41714E+08        -0.40137E+06         0.00000E+00
   -0.40137E+06        -0.45932E+08         0.00000E+00
    0.00000E+00         0.00000E+00        -0.17529E+08
 
   -0.39029E+08        -0.34878E+06         0.00000E+00
   -0.34878E+06        -0.45199E+08         0.00000E+00
    0.00000E+00         0.00000E+00        -0.16845E+08
 
   -0.36662E+08        -0.29255E+06         0.00000E+00
   -0.29255E+06        -0.44568E+08         0.00000E+00
    0.00000E+00         0.00000E+00        -0.16246E+08
 
   -0.34504E+08        -0.23248E+06         0.00000E+00
   -0.23248E+06        -0.44051E+08         0.00000E+00
    0.00000E+00         0.00000E+00        -0.15711E+08
 
   -0.32474E+08        -0.16773E+06         0.00000E+00
   -0.16773E+06        -0.43657E+08         0.00000E+00
    0.00000E+00         0.00000E+00        -0.15226E+08
 
   -0.30500E+08        -0.96844E+05         0.00000E+00
   -0.96844E+05        -0.43397E+08         0.00000E+00
    0.00000E+00         0.00000E+00        -0.14779E+08
 
   -0.28518E+08        -0.17594E+05         0.00000E+00
   -0.17594E+05        -0.43286E+08         0.00000E+00
    0.00000E+00         0.00000E+00        -0.14361E+08
 
   -0.26455E+08         0.73718E+05         0.00000E+00
    0.73718E+05        -0.43345E+08         0.00000E+00
    0.00000E+00         0.00000E+00        -0.13960E+08
 
   -0.24224E+08         0.18371E+06         0.00000E+00
    0.18371E+06        -0.43604E+08         0.00000E+00
    0.00000E+00         0.00000E+00        -0.13566E+08
 
   -0.21693E+08         0.32674E+06         0.00000E+00
    0.32674E+06        -0.44116E+08         0.00000E+00
    0.00000E+00         0.00000E+00        -0.13162E+08
 
   -0.18634E+08         0.53550E+06         0.00000E+00
    0.53550E+06        -0.44978E+08         0.00000E+00
    0.00000E+00         0.00000E+00        -0.12722E+08
 
   -0.14395E+08         0.10256E+07         0.00000E+00
    0.10256E+07        -0.46467E+08         0.00000E+00
    0.00000E+00         0.00000E+00        -0.12172E+08
 
TENSORS stresstot double 
   -0.44915E+08         0.25682E+06         0.00000E+00
    0.25682E+06        -0.58808E+08         0.00000E+00
    0.00000E+00         0.00000E+00        -0.61629E+08
 
   -0.44915E+08         0.28482E+04         0.00000E+00
    0.28482E+04        -0.58869E+08         0.00000E+00
    0.00000E+00         0.00000E+00        -0.64506E+08
 
   -0.46562E+08        -0.36962E+06         0.00000E+00
   -0.36962E+06        -0.59447E+08         0.00000E+00
    0.00000E+00         0.00000E+00        -0.68242E+08
 
   -0.48814E+08        -0.44220E+06         0.00000E+00
   -0.44220E+06        -0.60454E+08         0.00000E+00
    0.00000E+00         0.00000E+00        -0.72100E+08
 
   -0.51339E+08        -0.64829E+06         0.00000E+00
   -0.64829E+06        -0.61580E+08         0.00000E+00
    0.00000E+00         0.00000E+00        -0.75312E+08
 
   -0.54833E+08        -0.65168E+06         0.00000E+00
   -0.65168E+06        -0.62787E+08         0.00000E+00
    0.00000E+00         0.00000E+00        -0.76663E+08
 
   -0.57567E+08        -0.48122E+06         0.00000E+00
   -0.48122E+06        -0.63832E+08         0.00000E+00
    0.00000E+00         0.00000E+00        -0.77419E+08
 
   -0.59877E+08        -0.34510E+06         0.00000E+00
   -0.34510E+06        -0.64620E+08         0.00000E+00
    0.00000E+00         0.00000E+00        -0.78038E+08
 
   -0.62016E+08        -0.22632E+06         0.00000E+00
   -0.22632E+06        -0.65172E+08         0.00000E+00
    0.00000E+00         0.00000E+00        -0.78577E+08
 
   -0.64114E+08        -0.11233E+06         0.00000E+00
   -0.11233E+06        -0.65499E+08         0.00000E+00
    0.00000E+00         0.00000E+00        -0.79062E+08
 
   -0.66274E+08         0.66705E+04         0.00000E+00
    0.66705E+04        -0.65597E+08         0.00000E+00
    0.00000E+00         0.00000E+00        -0.79513E+08
 
   -0.68608E+08         0.14118E+06         0.00000E+00
    0.14118E+06        -0.65444E+08         0.00000E+00
    0.00000E+00         0.00000E+00        -0.79949E+08
 
   -0.71265E+08         0.30910E+06         0.00000E+00
    0.30910E+06        -0.64991E+08         0.00000E+00
    0.00000E+00         0.00000E+00        -0.80390E+08
 
   -0.74505E+08         0.54823E+06         0.00000E+00
    0.54823E+06        -0.64133E+08         0.00000E+00
    0.00000E+00         0.00000E+00        -0.80866E+08
 
   -0.79060E+08         0.11028E+07         0.00000E+00
    0.11028E+07        -0.62563E+08         0.00000E+00
    0.00000E+00         0.00000E+00        -0.81464E+08
 
   -0.44615E+08         0.38476E+06         0.00000E+00
    0.38476E+06        -0.60804E+08         0.00000E+00
    0.00000E+00         0.00000E+00        -0.66659E+08
 
   -0.45474E+08         0.80575E+04         0.00000E+00
    0.80575E+04        -0.60877E+08         0.00000E+00
    0.00000E+00         0.00000E+00        -0.69015E+08
 
   -0.46952E+08        -0.68872E+06         0.00000E+00
   -0.68872E+06        -0.60831E+08         0.00000E+00
    0.00000E+00         0.00000E+00        -0.71599E+08
 
   -0.48955E+08        -0.11709E+07         0.00000E+00
   -0.11709E+07        -0.60901E+08         0.00000E+00
    0.00000E+00         0.00000E+00        -0.73361E+08
 
   -0.51761E+08        -0.15106E+07         0.00000E+00
   -0.15106E+07        -0.61320E+08         0.00000E+00
    0.00000E+00         0.00000E+00        -0.74034E+08
 
   -0.54630E+08        -0.15584E+07         0.00000E+00
   -0.15584E+07        -0.61881E+08         0.00000E+00
    0.00000E+00         0.00000E+00        -0.74720E+08
 
   -0.57324E+08        -0.12698E+07         0.00000E+00
   -0.12698E+07        -0.62508E+08         0.00000E+00
    0.00000E+00         0.00000E+00        -0.75384E+08
 
   -0.59651E+08        -0.94383E+06         0.00000E+00
   -0.94383E+06        -0.63071E+08         0.00000E+00
    0.00000E+00         0.00000E+00        -0.75962E+08
 
   -0.61798E+08        -0.62468E+06         0.00000E+00
   -0.62468E+06        -0.63491E+08         0.00000E+00
    0.00000E+00         0.00000E+00        -0.76476E+08
 
   -0.63889E+08        -0.30107E+06         0.00000E+00
   -0.30107E+06        -0.63735E+08         0.00000E+00
    0.00000E+00         0.00000E+00        -0.76943E+08
 
   -0.66027E+08         0.46237E+05         0.00000E+00
    0.46237E+05        -0.63775E+08         0.00000E+00
    0.00000E+00         0.00000E+00        -0.77378E+08
 
   -0.68314E+08         0.44498E+06         0.00000E+00
    0.44498E+06        -0.63579E+08         0.00000E+00
    0.00000E+00         0.00000E+00        -0.77797E+08
 
   -0.70873E+08         0.94467E+06         0.00000E+00
    0.94467E+06        -0.63094E+08         0.00000E+00
    0.00000E+00         0.00000E+00        -0.78211E+08
 
   -0.73893E+08         0.16642E+07         0.00000E+00
    0.16642E+07        -0.62226E+08         0.00000E+00
    0.00000E+00         0.00000E+00        -0.78642E+08
 
   -0.77411E+08         0.29923E+07         0.00000E+00
    0.29923E+07        -0.60847E+08         0.00000E+00
    0.00000E+00         0.00000E+00        -0.79069E+08
 
   -0.44431E+08        -0.45189E+05         0.00000E+00
   -0.45189E+05        -0.60471E+08         0.00000E+00
    0.00000E+00         0.00000E+00        -0.69512E+08
 
   -0.45939E+08        -0.25477E+06         0.00000E+00
   -0.25477E+06        -0.60665E+08         0.00000E+00
    0.00000E+00         0.00000E+00        -0.71021E+08
 
   -0.47642E+08        -0.80414E+06         0.00000E+00
   -0.80414E+06        -0.60812E+08         0.00000E+00
    0.00000E+00         0.00000E+00        -0.71390E+08
 
   -0.49547E+08        -0.14777E+07         0.00000E+00
   -0.14777E+07        -0.60987E+08         0.00000E+00
    0.00000E+00         0.00000E+00        -0.71806E+08
 
   -0.51964E+08        -0.18653E+07         0.00000E+00
   -0.18653E+07        -0.61210E+08         0.00000E+00
    0.00000E+00         0.00000E+00        -0.72334E+08
 
   -0.54521E+08        -0.19318E+07         0.00000E+00
   -0.19318E+07        -0.61438E+08         0.00000E+00
    0.00000E+00         0.00000E+00        -0.72890E+08
 
   -0.56995E+08        -0.17127E+07         0.00000E+00
   -0.17127E+07        -0.61697E+08         0.00000E+00
    0.00000E+00         0.00000E+00        -0.73437E+08
 
   -0.59278E+08        -0.13322E+07         0.00000E+00
   -0.13322E+07        -0.61985E+08         0.00000E+00
    0.00000E+00         0.00000E+00        -0.73952E+08
 
   -0.61402E+08        -0.88760E+06         0.00000E+00
   -0.88760E+06        -0.62217E+08         0.00000E+00
    0.00000E+00         0.00000E+00        -0.74424E+08
 
   -0.63463E+08        -0.39733E+06         0.00000E+00
   -0.39733E+06        -0.62330E+08         0.00000E+00
    0.00000E+00         0.00000E+00        -0.74859E+08
 
   -0.65547E+08         0.15206E+06         0.00000E+00
    0.15206E+06        -0.62279E+08         0.00000E+00
    0.00000E+00         0.00000E+00        -0.75265E+08
 
   -0.67736E+08         0.79577E+06         0.00000E+00
    0.79577E+06        -0.62021E+08         0.00000E+00
    0.00000E+00         0.00000E+00        -0.75652E+08
 
   -0.70115E+08         0.16027E+07         0.00000E+00
    0.16027E+07        -0.61508E+08         0.00000E+00
    0.00000E+00         0.00000E+00        -0.76025E+08
 
   -0.72729E+08         0.27168E+07         0.00000E+00
    0.27168E+07        -0.60692E+08         0.00000E+00
    0.00000E+00         0.00000E+00        -0.76385E+08
 
   -0.75488E+08         0.43619E+07         0.00000E+00
    0.43619E+07        -0.59610E+08         0.00000E+00
    0.00000E+00         0.00000E+00        -0.76720E+08
 
   -0.44599E+08        -0.20750E+06         0.00000E+00
   -0.20750E+06        -0.60060E+08         0.00000E+00
    0.00000E+00         0.00000E+00        -0.68916E+08
 
   -0.46463E+08        -0.64306E+06         0.00000E+00
   -0.64306E+06        -0.60249E+08         0.00000E+00
    0.00000E+00         0.00000E+00        -0.69326E+08
 
   -0.48213E+08        -0.11150E+07         0.00000E+00
   -0.11150E+07        -0.60594E+08         0.00000E+00
    0.00000E+00         0.00000E+00        -0.69745E+08
 
   -0.50071E+08        -0.16388E+07         0.00000E+00
   -0.16388E+07        -0.60831E+08         0.00000E+00
    0.00000E+00         0.00000E+00        -0.70164E+08
 
   -0.52187E+08        -0.19994E+07         0.00000E+00
   -0.19994E+07        -0.60943E+08         0.00000E+00
    0.00000E+00         0.00000E+00        -0.70610E+08
 
   -0.54447E+08        -0.20749E+07         0.00000E+00
   -0.20749E+07        -0.61022E+08         0.00000E+00
    0.00000E+00         0.00000E+00        -0.71078E+08
 
   -0.56691E+08        -0.18884E+07         0.00000E+00
   -0.18884E+07        -0.61105E+08         0.00000E+00
    0.00000E+00         0.00000E+00        -0.71544E+08
 
   -0.58839E+08        -0.15058E+07         0.00000E+00
   -0.15058E+07        -0.61195E+08         0.00000E+00
    0.00000E+00         0.00000E+00        -0.71992E+08
 
   -0.60885E+08        -0.99220E+06         0.00000E+00
   -0.99220E+06        -0.61256E+08         0.00000E+00
    0.00000E+00         0.00000E+00        -0.72415E+08
 
   -0.62873E+08        -0.37949E+06         0.00000E+00
   -0.37949E+06        -0.61238E+08         0.00000E+00
    0.00000E+00         0.00000E+00        -0.72809E+08
 
   -0.64862E+08         0.33637E+06         0.00000E+00
    0.33637E+06        -0.61093E+08         0.00000E+00
    0.00000E+00         0.00000E+00        -0.73179E+08
 
   -0.66907E+08         0.11882E+07         0.00000E+00
    0.11882E+07        -0.60782E+08         0.00000E+00
    0.00000E+00         0.00000E+00        -0.73526E+08
 
   -0.69047E+08         0.22428E+07         0.00000E+00
    0.22428E+07        -0.60271E+08         0.00000E+00
    0.00000E+00         0.00000E+00        -0.73852E+08
 
   -0.71268E+08         0.36043E+07         0.00000E+00
    0.36043E+07        -0.59558E+08         0.00000E+00
    0.00000E+00         0.00000E+00        -0.74154E+08
 
   -0.73470E+08         0.53944E+07         0.00000E+00
    0.53944E+07        -0.58695E+08         0.00000E+00
    0.00000E+00         0.00000E+00        -0.74422E+08
 
   -0.45116E+08        -0.31973E+06         0.00000E+00
   -0.31973E+06        -0.60041E+08         0.00000E+00
    0.00000E+00         0.00000E+00        -0.67305E+08
 
   -0.46955E+08        -0.87978E+06         0.00000E+00
   -0.87978E+06        -0.60189E+08         0.00000E+00
    0.00000E+00         0.00000E+00        -0.67703E+08
 
   -0.48694E+08        -0.13719E+07         0.00000E+00
   -0.13719E+07        -0.60378E+08         0.00000E+00
    0.00000E+00         0.00000E+00        -0.68089E+08
 
   -0.50480E+08        -0.17858E+07         0.00000E+00
   -0.17858E+07        -0.60541E+08         0.00000E+00
    0.00000E+00         0.00000E+00        -0.68479E+08
 
   -0.52383E+08        -0.20552E+07         0.00000E+00
   -0.20552E+07        -0.60619E+08         0.00000E+00
    0.00000E+00         0.00000E+00        -0.68876E+08
 
   -0.54381E+08        -0.21036E+07         0.00000E+00
   -0.21036E+07        -0.60633E+08         0.00000E+00
    0.00000E+00         0.00000E+00        -0.69280E+08
 
   -0.56398E+08        -0.19155E+07         0.00000E+00
   -0.19155E+07        -0.60618E+08         0.00000E+00
    0.00000E+00         0.00000E+00        -0.69681E+08
 
   -0.58372E+08        -0.15221E+07         0.00000E+00
   -0.15221E+07        -0.60589E+08         0.00000E+00
    0.00000E+00         0.00000E+00        -0.70071E+08
 
   -0.60286E+08        -0.96184E+06         0.00000E+00
   -0.96184E+06        -0.60529E+08         0.00000E+00
    0.00000E+00         0.00000E+00        -0.70443E+08
 
   -0.62155E+08        -0.25881E+06         0.00000E+00
   -0.25881E+06        -0.60407E+08         0.00000E+00
    0.00000E+00         0.00000E+00        -0.70793E+08
 
   -0.64010E+08         0.58669E+06         0.00000E+00
    0.58669E+06        -0.60190E+08         0.00000E+00
    0.00000E+00         0.00000E+00        -0.71122E+08
 
   -0.65878E+08         0.15997E+07         0.00000E+00
    0.15997E+07        -0.59847E+08         0.00000E+00
    0.00000E+00         0.00000E+00        -0.71428E+08
 
   -0.67767E+08         0.28292E+07         0.00000E+00
    0.28292E+07        -0.59363E+08         0.00000E+00
    0.00000E+00         0.00000E+00        -0.71709E+08
 
   -0.69646E+08         0.43410E+07         0.00000E+00
    0.43410E+07        -0.58748E+08         0.00000E+00
    0.00000E+00         0.00000E+00        -0.71963E+08
 
   -0.71427E+08         0.61984E+07         0.00000E+00
    0.61984E+07        -0.58052E+08         0.00000E+00
    0.00000E+00         0.00000E+00        -0.72180E+08
 
   -0.45789E+08        -0.39092E+06         0.00000E+00
   -0.39092E+06        -0.60023E+08         0.00000E+00
    0.00000E+00         0.00000E+00        -0.65735E+08
 
   -0.47495E+08        -0.10256E+07         0.00000E+00
   -0.10256E+07        -0.60103E+08         0.00000E+00
    0.00000E+00         0.00000E+00        -0.66093E+08
 
   -0.49137E+08        -0.15171E+07         0.00000E+00
   -0.15171E+07        -0.60210E+08         0.00000E+00
    0.00000E+00         0.00000E+00        -0.66443E+08
 
   -0.50796E+08        -0.18757E+07         0.00000E+00
   -0.18757E+07        -0.60292E+08         0.00000E+00
    0.00000E+00         0.00000E+00        -0.66792E+08
 
   -0.52516E+08        -0.20722E+07         0.00000E+00
   -0.20722E+07        -0.60319E+08         0.00000E+00
    0.00000E+00         0.00000E+00        -0.67143E+08
 
   -0.54293E+08        -0.20716E+07         0.00000E+00
   -0.20716E+07        -0.60290E+08         0.00000E+00
    0.00000E+00         0.00000E+00        -0.67494E+08
 
   -0.56091E+08        -0.18578E+07         0.00000E+00
   -0.18578E+07        -0.60220E+08         0.00000E+00
    0.00000E+00         0.00000E+00        -0.67842E+08
 
   -0.57875E+08        -0.14398E+07         0.00000E+00
   -0.14398E+07        -0.60120E+08         0.00000E+00
    0.00000E+00         0.00000E+00        -0.68180E+08
 
   -0.59624E+08        -0.83707E+06         0.00000E+00
   -0.83707E+06        -0.59984E+08         0.00000E+00
    0.00000E+00         0.00000E+00        -0.68504E+08
 
   -0.61339E+08        -0.64075E+05         0.00000E+00
   -0.64075E+05        -0.59796E+08         0.00000E+00
    0.00000E+00         0.00000E+00        -0.68811E+08
 
   -0.63030E+08         0.87875E+06         0.00000E+00
    0.87875E+06        -0.59535E+08         0.00000E+00
    0.00000E+00         0.00000E+00        -0.69098E+08
 
   -0.64703E+08         0.20077E+07         0.00000E+00
    0.20077E+07        -0.59184E+08         0.00000E+00
    0.00000E+00         0.00000E+00        -0.69363E+08
 
   -0.66350E+08         0.33535E+07         0.00000E+00
    0.33535E+07        -0.58737E+08         0.00000E+00
    0.00000E+00         0.00000E+00        -0.69604E+08
 
   -0.67936E+08         0.49535E+07         0.00000E+00
    0.49535E+07        -0.58209E+08         0.00000E+00
    0.00000E+00         0.00000E+00        -0.69816E+08
 
   -0.69390E+08         0.68371E+07         0.00000E+00
    0.68371E+07        -0.57642E+08         0.00000E+00
    0.00000E+00         0.00000E+00        -0.69994E+08
 
   -0.46550E+08        -0.42400E+06         0.00000E+00
   -0.42400E+06        -0.60008E+08         0.00000E+00
    0.00000E+00         0.00000E+00        -0.64193E+08
 
   -0.48062E+08        -0.10981E+07         0.00000E+00
   -0.10981E+07        -0.60040E+08         0.00000E+00
    0.00000E+00         0.00000E+00        -0.64503E+08
 
   -0.49551E+08        -0.15850E+07         0.00000E+00
   -0.15850E+07        -0.60081E+08         0.00000E+00
    0.00000E+00         0.00000E+00        -0.64810E+08
 
   -0.51053E+08        -0.19045E+07         0.00000E+00
   -0.19045E+07        -0.60101E+08         0.00000E+00
    0.00000E+00         0.00000E+00        -0.65116E+08
 
   -0.52591E+08        -0.20486E+07         0.00000E+00
   -0.20486E+07        -0.60081E+08         0.00000E+00
    0.00000E+00         0.00000E+00        -0.65421E+08
 
   -0.54165E+08        -0.20007E+07         0.00000E+00
   -0.20007E+07        -0.60017E+08         0.00000E+00
    0.00000E+00         0.00000E+00        -0.65725E+08
 
   -0.55757E+08        -0.17506E+07         0.00000E+00
   -0.17506E+07        -0.59911E+08         0.00000E+00
    0.00000E+00         0.00000E+00        -0.66024E+08
 
   -0.57344E+08        -0.12996E+07         0.00000E+00
   -0.12996E+07        -0.59770E+08         0.00000E+00
    0.00000E+00         0.00000E+00        -0.66315E+08
 
   -0.58911E+08        -0.65582E+06         0.00000E+00
   -0.65582E+06        -0.59592E+08         0.00000E+00
    0.00000E+00         0.00000E+00        -0.66595E+08
 
   -0.60450E+08         0.17329E+06         0.00000E+00
    0.17329E+06        -0.59369E+08         0.00000E+00
    0.00000E+00         0.00000E+00        -0.66860E+08
 
   -0.61958E+08         0.11876E+07         0.00000E+00
    0.11876E+07        -0.59091E+08         0.00000E+00
    0.00000E+00         0.00000E+00        -0.67107E+08
 
   -0.63430E+08         0.23963E+07         0.00000E+00
    0.23963E+07        -0.58749E+08         0.00000E+00
    0.00000E+00         0.00000E+00        -0.67335E+08
 
   -0.64849E+08         0.38159E+07         0.00000E+00
    0.38159E+07        -0.58345E+08         0.00000E+00
    0.00000E+00         0.00000E+00        -0.67539E+08
 
   -0.66182E+08         0.54642E+07         0.00000E+00
    0.54642E+07        -0.57895E+08         0.00000E+00
    0.00000E+00         0.00000E+00        -0.67716E+08
 
   -0.67374E+08         0.73508E+07         0.00000E+00
    0.73508E+07        -0.57429E+08         0.00000E+00
    0.00000E+00         0.00000E+00        -0.67862E+08
 
   -0.47347E+08        -0.43176E+06         0.00000E+00
   -0.43176E+06        -0.59999E+08         0.00000E+00
    0.00000E+00         0.00000E+00        -0.62671E+08
 
   -0.48639E+08        -0.11166E+07         0.00000E+00
   -0.11166E+07        -0.59998E+08         0.00000E+00
    0.00000E+00         0.00000E+00        -0.62930E+08
 
   -0.49944E+08        -0.15945E+07         0.00000E+00
   -0.15945E+07        -0.59992E+08         0.00000E+00
    0.00000E+00         0.00000E+00        -0.63192E+08
 
   -0.51269E+08        -0.18850E+07         0.00000E+00
   -0.18850E+07        -0.59966E+08         0.00000E+00
    0.00000E+00         0.00000E+00        -0.63453E+08
 
   -0.52620E+08        -0.19894E+07         0.00000E+00
   -0.19894E+07        -0.59910E+08         0.00000E+00
    0.00000E+00         0.00000E+00        -0.63715E+08
 
   -0.53997E+08        -0.19011E+07         0.00000E+00
   -0.19011E+07        -0.59819E+08         0.00000E+00
    0.00000E+00         0.00000E+00        -0.63974E+08
 
   -0.55388E+08        -0.16145E+07         0.00000E+00
   -0.16145E+07        -0.59691E+08         0.00000E+00
    0.00000E+00         0.00000E+00        -0.64229E+08
 
   -0.56778E+08        -0.11288E+07         0.00000E+00
   -0.11288E+07        -0.59529E+08         0.00000E+00
    0.00000E+00         0.00000E+00        -0.64477E+08
 
   -0.58153E+08        -0.44720E+06         0.00000E+00
   -0.44720E+06        -0.59333E+08         0.00000E+00
    0.00000E+00         0.00000E+00        -0.64715E+08
 
   -0.59504E+08         0.42689E+06         0.00000E+00
    0.42689E+06        -0.59099E+08         0.00000E+00
    0.00000E+00         0.00000E+00        -0.64940E+08
 
   -0.60821E+08         0.14929E+07         0.00000E+00
    0.14929E+07        -0.58824E+08         0.00000E+00
    0.00000E+00         0.00000E+00        -0.65150E+08
 
   -0.62092E+08         0.27546E+07         0.00000E+00
    0.27546E+07        -0.58504E+08         0.00000E+00
    0.00000E+00         0.00000E+00        -0.65342E+08
 
   -0.63299E+08         0.42185E+07         0.00000E+00
    0.42185E+07        -0.58147E+08         0.00000E+00
    0.00000E+00         0.00000E+00        -0.65513E+08
 
   -0.64410E+08         0.58898E+07         0.00000E+00
    0.58898E+07        -0.57766E+08         0.00000E+00
    0.00000E+00         0.00000E+00        -0.65660E+08
 
   -0.65385E+08         0.77662E+07         0.00000E+00
    0.77662E+07        -0.57384E+08         0.00000E+00
    0.00000E+00         0.00000E+00        -0.65779E+08
 
   -0.48144E+08        -0.42410E+06         0.00000E+00
   -0.42410E+06        -0.59994E+08         0.00000E+00
    0.00000E+00         0.00000E+00        -0.61163E+08
 
   -0.49212E+08        -0.10996E+07         0.00000E+00
   -0.10996E+07        -0.59973E+08         0.00000E+00
    0.00000E+00         0.00000E+00        -0.61373E+08
 
   -0.50318E+08        -0.15637E+07         0.00000E+00
   -0.15637E+07        -0.59937E+08         0.00000E+00
    0.00000E+00         0.00000E+00        -0.61589E+08
 
   -0.51452E+08        -0.18307E+07         0.00000E+00
   -0.18307E+07        -0.59881E+08         0.00000E+00
    0.00000E+00         0.00000E+00        -0.61807E+08
 
   -0.52613E+08        -0.19044E+07         0.00000E+00
   -0.19044E+07        -0.59801E+08         0.00000E+00
    0.00000E+00         0.00000E+00        -0.62026E+08
 
   -0.53794E+08        -0.17831E+07         0.00000E+00
   -0.17831E+07        -0.59693E+08         0.00000E+00
    0.00000E+00         0.00000E+00        -0.62243E+08
 
   -0.54985E+08        -0.14642E+07         0.00000E+00
   -0.14642E+07        -0.59554E+08         0.00000E+00
    0.00000E+00         0.00000E+00        -0.62456E+08
 
   -0.56177E+08        -0.94675E+06         0.00000E+00
   -0.94675E+06        -0.59387E+08         0.00000E+00
    0.00000E+00         0.00000E+00        -0.62663E+08
 
   -0.57358E+08        -0.23227E+06         0.00000E+00
   -0.23227E+06        -0.59190E+08         0.00000E+00
    0.00000E+00         0.00000E+00        -0.62862E+08
 
   -0.58515E+08         0.67704E+06         0.00000E+00
    0.67704E+06        -0.58962E+08         0.00000E+00
    0.00000E+00         0.00000E+00        -0.63051E+08
 
   -0.59639E+08         0.17797E+07         0.00000E+00
    0.17797E+07        -0.58704E+08         0.00000E+00
    0.00000E+00         0.00000E+00        -0.63226E+08
 
   -0.60714E+08         0.30754E+07         0.00000E+00
    0.30754E+07        -0.58417E+08         0.00000E+00
    0.00000E+00         0.00000E+00        -0.63385E+08
 
   -0.61722E+08         0.45639E+07         0.00000E+00
    0.45639E+07        -0.58108E+08         0.00000E+00
    0.00000E+00         0.00000E+00        -0.63526E+08
 
   -0.62637E+08         0.62423E+07         0.00000E+00
    0.62423E+07        -0.57789E+08         0.00000E+00
    0.00000E+00         0.00000E+00        -0.63647E+08
 
   -0.63426E+08         0.81012E+07         0.00000E+00
    0.81012E+07        -0.57478E+08         0.00000E+00
    0.00000E+00         0.00000E+00        -0.63743E+08
 
   -0.48921E+08        -0.40808E+06         0.00000E+00
   -0.40808E+06        -0.59992E+08         0.00000E+00
    0.00000E+00         0.00000E+00        -0.59665E+08
 
   -0.49770E+08        -0.10623E+07         0.00000E+00
   -0.10623E+07        -0.59961E+08         0.00000E+00
    0.00000E+00         0.00000E+00        -0.59830E+08
 
   -0.50673E+08        -0.15087E+07         0.00000E+00
   -0.15087E+07        -0.59908E+08         0.00000E+00
    0.00000E+00         0.00000E+00        -0.60002E+08
 
   -0.51611E+08        -0.17553E+07         0.00000E+00
   -0.17553E+07        -0.59837E+08         0.00000E+00
    0.00000E+00         0.00000E+00        -0.60178E+08
 
   -0.52577E+08        -0.18048E+07         0.00000E+00
   -0.18048E+07        -0.59745E+08         0.00000E+00
    0.00000E+00         0.00000E+00        -0.60355E+08
 
   -0.53560E+08        -0.16573E+07         0.00000E+00
   -0.16573E+07        -0.59631E+08         0.00000E+00
    0.00000E+00         0.00000E+00        -0.60531E+08
 
   -0.54554E+08        -0.13115E+07         0.00000E+00
   -0.13115E+07        -0.59493E+08         0.00000E+00
    0.00000E+00         0.00000E+00        -0.60705E+08
 
   -0.55548E+08        -0.76736E+06         0.00000E+00
   -0.76736E+06        -0.59331E+08         0.00000E+00
    0.00000E+00         0.00000E+00        -0.60874E+08
 
   -0.56532E+08        -0.26153E+05         0.00000E+00
   -0.26153E+05        -0.59145E+08         0.00000E+00
    0.00000E+00         0.00000E+00        -0.61036E+08
 
   -0.57496E+08         0.90981E+06         0.00000E+00
    0.90981E+06        -0.58936E+08         0.00000E+00
    0.00000E+00         0.00000E+00        -0.61190E+08
 
   -0.58428E+08         0.20377E+07         0.00000E+00
    0.20377E+07        -0.58706E+08         0.00000E+00
    0.00000E+00         0.00000E+00        -0.61332E+08
 
   -0.59313E+08         0.33540E+07         0.00000E+00
    0.33540E+07        -0.58457E+08         0.00000E+00
    0.00000E+00         0.00000E+00        -0.61461E+08
 
   -0.60135E+08         0.48541E+07         0.00000E+00
    0.48541E+07        -0.58197E+08         0.00000E+00
    0.00000E+00         0.00000E+00        -0.61575E+08
 
   -0.60872E+08         0.65300E+07         0.00000E+00
    0.65300E+07        -0.57936E+08         0.00000E+00
    0.00000E+00         0.00000E+00        -0.61672E+08
 
   -0.61499E+08         0.83682E+07         0.00000E+00
    0.83682E+07        -0.57688E+08         0.00000E+00
    0.00000E+00         0.00000E+00        -0.61748E+08
 
   -0.49666E+08        -0.38867E+06         0.00000E+00
   -0.38867E+06        -0.59991E+08         0.00000E+00
    0.00000E+00         0.00000E+00        -0.58175E+08
 
   -0.50308E+08        -0.10160E+07         0.00000E+00
   -0.10160E+07        -0.59957E+08         0.00000E+00
    0.00000E+00         0.00000E+00        -0.58298E+08
 
   -0.51009E+08        -0.14432E+07         0.00000E+00
   -0.14432E+07        -0.59900E+08         0.00000E+00
    0.00000E+00         0.00000E+00        -0.58429E+08
 
   -0.51750E+08        -0.16716E+07         0.00000E+00
   -0.16716E+07        -0.59825E+08         0.00000E+00
    0.00000E+00         0.00000E+00        -0.58564E+08
 
   -0.52518E+08        -0.17019E+07         0.00000E+00
   -0.17019E+07        -0.59733E+08         0.00000E+00
    0.00000E+00         0.00000E+00        -0.58702E+08
 
   -0.53303E+08        -0.15338E+07         0.00000E+00
   -0.15338E+07        -0.59623E+08         0.00000E+00
    0.00000E+00         0.00000E+00        -0.58840E+08
 
   -0.54098E+08        -0.11668E+07         0.00000E+00
   -0.11668E+07        -0.59495E+08         0.00000E+00
    0.00000E+00         0.00000E+00        -0.58976E+08
 
   -0.54894E+08        -0.60158E+06         0.00000E+00
   -0.60158E+06        -0.59349E+08         0.00000E+00
    0.00000E+00         0.00000E+00        -0.59108E+08
 
   -0.55683E+08         0.16021E+06         0.00000E+00
    0.16021E+06        -0.59184E+08         0.00000E+00
    0.00000E+00         0.00000E+00        -0.59236E+08
 
   -0.56454E+08         0.11155E+07         0.00000E+00
    0.11155E+07        -0.59003E+08         0.00000E+00
    0.00000E+00         0.00000E+00        -0.59356E+08
 
   -0.57198E+08         0.22599E+07         0.00000E+00
    0.22599E+07        -0.58807E+08         0.00000E+00
    0.00000E+00         0.00000E+00        -0.59468E+08
 
   -0.57900E+08         0.35877E+07         0.00000E+00
    0.35877E+07        -0.58600E+08         0.00000E+00
    0.00000E+00         0.00000E+00        -0.59569E+08
 
   -0.58547E+08         0.50912E+07         0.00000E+00
    0.50912E+07        -0.58389E+08         0.00000E+00
    0.00000E+00         0.00000E+00        -0.59657E+08
 
   -0.59120E+08         0.67590E+07         0.00000E+00
    0.67590E+07        -0.58182E+08         0.00000E+00
    0.00000E+00         0.00000E+00        -0.59732E+08
 
   -0.59601E+08         0.85757E+07         0.00000E+00
    0.85757E+07        -0.57991E+08         0.00000E+00
    0.00000E+00         0.00000E+00        -0.59790E+08
 
   -0.50377E+08        -0.36938E+06         0.00000E+00
   -0.36938E+06        -0.59992E+08         0.00000E+00
    0.00000E+00         0.00000E+00        -0.56693E+08
 
   -0.50824E+08        -0.96948E+06         0.00000E+00
   -0.96948E+06        -0.59960E+08         0.00000E+00
    0.00000E+00         0.00000E+00        -0.56777E+08
 
   -0.51329E+08        -0.13779E+07         0.00000E+00
   -0.13779E+07        -0.59907E+08         0.00000E+00
    0.00000E+00         0.00000E+00        -0.56869E+08
 
   -0.51872E+08        -0.15908E+07         0.00000E+00
   -0.15908E+07        -0.59838E+08         0.00000E+00
    0.00000E+00         0.00000E+00        -0.56966E+08
 
   -0.52441E+08        -0.16059E+07         0.00000E+00
   -0.16059E+07        -0.59756E+08         0.00000E+00
    0.00000E+00         0.00000E+00        -0.57066E+08
 
   -0.53027E+08        -0.14221E+07         0.00000E+00
   -0.14221E+07        -0.59660E+08         0.00000E+00
    0.00000E+00         0.00000E+00        -0.57167E+08
 
   -0.53623E+08        -0.10391E+07         0.00000E+00
   -0.10391E+07        -0.59550E+08         0.00000E+00
    0.00000E+00         0.00000E+00        -0.57267E+08
 
   -0.54222E+08        -0.45800E+06         0.00000E+00
   -0.45800E+06        -0.59427E+08         0.00000E+00
    0.00000E+00         0.00000E+00        -0.57364E+08
 
   -0.54817E+08         0.31880E+06         0.00000E+00
    0.31880E+06        -0.59291E+08         0.00000E+00
    0.00000E+00         0.00000E+00        -0.57458E+08
 
   -0.55398E+08         0.12873E+07         0.00000E+00
    0.12873E+07        -0.59143E+08         0.00000E+00
    0.00000E+00         0.00000E+00        -0.57547E+08
 
   -0.55957E+08         0.24418E+07         0.00000E+00
    0.24418E+07        -0.58986E+08         0.00000E+00
    0.00000E+00         0.00000E+00        -0.57630E+08
 
   -0.56482E+08         0.37749E+07         0.00000E+00
    0.37749E+07        -0.58824E+08         0.00000E+00
    0.00000E+00         0.00000E+00        -0.57704E+08
 
   -0.56963E+08         0.52767E+07         0.00000E+00
    0.52767E+07        -0.58661E+08         0.00000E+00
    0.00000E+00         0.00000E+00        -0.57769E+08
 
   -0.57383E+08         0.69339E+07         0.00000E+00
    0.69339E+07        -0.58506E+08         0.00000E+00
    0.00000E+00         0.00000E+00        -0.57823E+08
 
   -0.57730E+08         0.87298E+07         0.00000E+00
    0.87298E+07        -0.58367E+08         0.00000E+00
    0.00000E+00         0.00000E+00        -0.57865E+08
 
   -0.51055E+08        -0.35274E+06         0.00000E+00
   -0.35274E+06        -0.59993E+08         0.00000E+00
    0.00000E+00         0.00000E+00        -0.55218E+08
 
   -0.51319E+08        -0.92903E+06         0.00000E+00
   -0.92903E+06        -0.59968E+08         0.00000E+00
    0.00000E+00         0.00000E+00        -0.55267E+08
 
   -0.51633E+08        -0.13215E+07         0.00000E+00
   -0.13215E+07        -0.59925E+08         0.00000E+00
    0.00000E+00         0.00000E+00        -0.55323E+08
 
   -0.51980E+08        -0.15219E+07         0.00000E+00
   -0.15219E+07        -0.59870E+08         0.00000E+00
    0.00000E+00         0.00000E+00        -0.55383E+08
 
   -0.52351E+08        -0.15256E+07         0.00000E+00
   -0.15256E+07        -0.59805E+08         0.00000E+00
    0.00000E+00         0.00000E+00        -0.55447E+08
 
   -0.52738E+08        -0.13303E+07         0.00000E+00
   -0.13303E+07        -0.59730E+08         0.00000E+00
    0.00000E+00         0.00000E+00        -0.55512E+08
 
   -0.53135E+08        -0.93567E+06         0.00000E+00
   -0.93567E+06        -0.59646E+08         0.00000E+00
    0.00000E+00         0.00000E+00        -0.55576E+08
 
   -0.53537E+08        -0.34327E+06         0.00000E+00
   -0.34327E+06        -0.59552E+08         0.00000E+00
    0.00000E+00         0.00000E+00        -0.55640E+08
 
   -0.53939E+08         0.44383E+06         0.00000E+00
    0.44383E+06        -0.59450E+08         0.00000E+00
    0.00000E+00         0.00000E+00        -0.55702E+08
 
   -0.54332E+08         0.14207E+07         0.00000E+00
    0.14207E+07        -0.59340E+08         0.00000E+00
    0.00000E+00         0.00000E+00        -0.55761E+08
 
   -0.54710E+08         0.25807E+07         0.00000E+00
    0.25807E+07        -0.59225E+08         0.00000E+00
    0.00000E+00         0.00000E+00        -0.55815E+08
 
   -0.55064E+08         0.39149E+07         0.00000E+00
    0.39149E+07        -0.59108E+08         0.00000E+00
    0.00000E+00         0.00000E+00        -0.55864E+08
 
   -0.55385E+08         0.54121E+07         0.00000E+00
    0.54121E+07        -0.58995E+08         0.00000E+00
    0.00000E+00         0.00000E+00        -0.55907E+08
 
   -0.55662E+08         0.70579E+07         0.00000E+00
    0.70579E+07        -0.58889E+08         0.00000E+00
    0.00000E+00         0.00000E+00        -0.55942E+08
 
   -0.55884E+08         0.88347E+07         0.00000E+00
    0.88347E+07        -0.58798E+08         0.00000E+00
    0.00000E+00         0.00000E+00        -0.55969E+08
 
   -0.51707E+08        -0.34049E+06         0.00000E+00
   -0.34049E+06        -0.59996E+08         0.00000E+00
    0.00000E+00         0.00000E+00        -0.53752E+08
 
   -0.51798E+08        -0.89932E+06         0.00000E+00
   -0.89932E+06        -0.59979E+08         0.00000E+00
    0.00000E+00         0.00000E+00        -0.53767E+08
 
   -0.51925E+08        -0.12802E+07         0.00000E+00
   -0.12802E+07        -0.59951E+08         0.00000E+00
    0.00000E+00         0.00000E+00        -0.53789E+08
 
   -0.52078E+08        -0.14719E+07         0.00000E+00
   -0.14719E+07        -0.59916E+08         0.00000E+00
    0.00000E+00         0.00000E+00        -0.53814E+08
 
   -0.52251E+08        -0.14676E+07         0.00000E+00
   -0.14676E+07        -0.59874E+08         0.00000E+00
    0.00000E+00         0.00000E+00        -0.53842E+08
 
   -0.52439E+08        -0.12645E+07         0.00000E+00
   -0.12645E+07        -0.59827E+08         0.00000E+00
    0.00000E+00         0.00000E+00        -0.53872E+08
 
   -0.52638E+08        -0.86206E+06         0.00000E+00
   -0.86206E+06        -0.59773E+08         0.00000E+00
    0.00000E+00         0.00000E+00        -0.53903E+08
 
   -0.52844E+08        -0.26221E+06         0.00000E+00
   -0.26221E+06        -0.59712E+08         0.00000E+00
    0.00000E+00         0.00000E+00        -0.53934E+08
 
   -0.53053E+08         0.53131E+06         0.00000E+00
    0.53131E+06        -0.59647E+08         0.00000E+00
    0.00000E+00         0.00000E+00        -0.53965E+08
 
   -0.53261E+08         0.15129E+07         0.00000E+00
    0.15129E+07        -0.59578E+08         0.00000E+00
    0.00000E+00         0.00000E+00        -0.53994E+08
 
   -0.53461E+08         0.26748E+07         0.00000E+00
    0.26748E+07        -0.59507E+08         0.00000E+00
    0.00000E+00         0.00000E+00        -0.54021E+08
 
   -0.53649E+08         0.40076E+07         0.00000E+00
    0.40076E+07        -0.59436E+08         0.00000E+00
    0.00000E+00         0.00000E+00        -0.54046E+08
 
   -0.53816E+08         0.54988E+07         0.00000E+00
    0.54988E+07        -0.59370E+08         0.00000E+00
    0.00000E+00         0.00000E+00        -0.54067E+08
 
   -0.53955E+08         0.71336E+07         0.00000E+00
    0.71336E+07        -0.59313E+08         0.00000E+00
    0.00000E+00         0.00000E+00        -0.54084E+08
 
   -0.54059E+08         0.88938E+07         0.00000E+00
    0.88938E+07        -0.59268E+08         0.00000E+00
    0.00000E+00         0.00000E+00        -0.54097E+08
 
   -0.52343E+08        -0.33387E+06         0.00000E+00
   -0.33387E+06        -0.59998E+08         0.00000E+00
    0.00000E+00         0.00000E+00        -0.52295E+08
 
   -0.52266E+08        -0.88357E+06         0.00000E+00
   -0.88357E+06        -0.59992E+08         0.00000E+00
    0.00000E+00         0.00000E+00        -0.52279E+08
 
   -0.52210E+08        -0.12586E+07         0.00000E+00
   -0.12586E+07        -0.59983E+08         0.00000E+00
    0.00000E+00         0.00000E+00        -0.52267E+08
 
   -0.52170E+08        -0.14457E+07         0.00000E+00
   -0.14457E+07        -0.59971E+08         0.00000E+00
    0.00000E+00         0.00000E+00        -0.52258E+08
 
   -0.52145E+08        -0.14370E+07         0.00000E+00
   -0.14370E+07        -0.59957E+08         0.00000E+00
    0.00000E+00         0.00000E+00        -0.52252E+08
 
   -0.52133E+08        -0.12292E+07         0.00000E+00
   -0.12292E+07        -0.59940E+08         0.00000E+00
    0.00000E+00         0.00000E+00        -0.52247E+08
 
   -0.52134E+08        -0.82207E+06         0.00000E+00
   -0.82207E+06        -0.59919E+08         0.00000E+00
    0.00000E+00         0.00000E+00        -0.52245E+08
 
   -0.52144E+08        -0.21791E+06         0.00000E+00
   -0.21791E+06        -0.59895E+08         0.00000E+00
    0.00000E+00         0.00000E+00        -0.52243E+08
 
   -0.52163E+08         0.57891E+06         0.00000E+00
    0.57891E+06        -0.59869E+08         0.00000E+00
    0.00000E+00         0.00000E+00        -0.52243E+08
 
   -0.52187E+08         0.15621E+07         0.00000E+00
    0.15621E+07        -0.59841E+08         0.00000E+00
    0.00000E+00         0.00000E+00        -0.52244E+08
 
   -0.52213E+08         0.27236E+07         0.00000E+00
    0.27236E+07        -0.59814E+08         0.00000E+00
    0.00000E+00         0.00000E+00        -0.52245E+08
 
   -0.52237E+08         0.40531E+07         0.00000E+00
    0.40531E+07        -0.59790E+08         0.00000E+00
    0.00000E+00         0.00000E+00        -0.52245E+08
 
   -0.52255E+08         0.55379E+07         0.00000E+00
    0.55379E+07        -0.59771E+08         0.00000E+00
    0.00000E+00         0.00000E+00        -0.52246E+08
 
   -0.52261E+08         0.71627E+07         0.00000E+00
    0.71627E+07        -0.59760E+08         0.00000E+00
    0.00000E+00         0.00000E+00        -0.52246E+08
 
   -0.52252E+08         0.89093E+07         0.00000E+00
    0.89093E+07        -0.59759E+08         0.00000E+00
    0.00000E+00         0.00000E+00        -0.52244E+08
 
   -0.52972E+08        -0.33365E+06         0.00000E+00
   -0.33365E+06        -0.60001E+08         0.00000E+00
    0.00000E+00         0.00000E+00        -0.50848E+08
 
   -0.52730E+08        -0.88381E+06         0.00000E+00
   -0.88381E+06        -0.60007E+08         0.00000E+00
    0.00000E+00         0.00000E+00        -0.50801E+08
 
   -0.52492E+08        -0.12594E+07         0.00000E+00
   -0.12594E+07        -0.60018E+08         0.00000E+00
    0.00000E+00         0.00000E+00        -0.50756E+08
 
   -0.52260E+08        -0.14463E+07         0.00000E+00
   -0.14463E+07        -0.60032E+08         0.00000E+00
    0.00000E+00         0.00000E+00        -0.50714E+08
 
   -0.52036E+08        -0.14365E+07         0.00000E+00
   -0.14365E+07        -0.60046E+08         0.00000E+00
    0.00000E+00         0.00000E+00        -0.50673E+08
 
   -0.51825E+08        -0.12268E+07         0.00000E+00
   -0.12268E+07        -0.60061E+08         0.00000E+00
    0.00000E+00         0.00000E+00        -0.50635E+08
 
   -0.51627E+08        -0.81756E+06         0.00000E+00
   -0.81756E+06        -0.60075E+08         0.00000E+00
    0.00000E+00         0.00000E+00        -0.50599E+08
 
   -0.51442E+08        -0.21169E+06         0.00000E+00
   -0.21169E+06        -0.60088E+08         0.00000E+00
    0.00000E+00         0.00000E+00        -0.50565E+08
 
   -0.51272E+08         0.58582E+06         0.00000E+00
    0.58582E+06        -0.60101E+08         0.00000E+00
    0.00000E+00         0.00000E+00        -0.50535E+08
 
   -0.51115E+08         0.15682E+07         0.00000E+00
    0.15682E+07        -0.60115E+08         0.00000E+00
    0.00000E+00         0.00000E+00        -0.50507E+08
 
   -0.50968E+08         0.27271E+07         0.00000E+00
    0.27271E+07        -0.60132E+08         0.00000E+00
    0.00000E+00         0.00000E+00        -0.50481E+08
 
   -0.50831E+08         0.40520E+07         0.00000E+00
    0.40520E+07        -0.60153E+08         0.00000E+00
    0.00000E+00         0.00000E+00        -0.50459E+08
 
   -0.50702E+08         0.55303E+07         0.00000E+00
    0.55303E+07        -0.60181E+08         0.00000E+00
    0.00000E+00         0.00000E+00        -0.50439E+08
 
   -0.50578E+08         0.71467E+07         0.00000E+00
    0.71467E+07        -0.60215E+08         0.00000E+00
    0.00000E+00         0.00000E+00        -0.50421E+08
 
   -0.50458E+08         0.88827E+07         0.00000E+00
    0.88827E+07        -0.60258E+08         0.00000E+00
    0.00000E+00         0.00000E+00        -0.50406E+08
 
   -0.53608E+08        -0.34022E+06         0.00000E+00
   -0.34022E+06        -0.60004E+08         0.00000E+00
    0.00000E+00         0.00000E+00        -0.49413E+08
 
   -0.53200E+08        -0.90107E+06         0.00000E+00
   -0.90107E+06        -0.60022E+08         0.00000E+00
    0.00000E+00         0.00000E+00        -0.49335E+08
 
   -0.52777E+08        -0.12840E+07         0.00000E+00
   -0.12840E+07        -0.60054E+08         0.00000E+00
    0.00000E+00         0.00000E+00        -0.49257E+08
 
   -0.52350E+08        -0.14751E+07         0.00000E+00
   -0.14751E+07        -0.60093E+08         0.00000E+00
    0.00000E+00         0.00000E+00        -0.49180E+08
 
   -0.51927E+08        -0.14670E+07         0.00000E+00
   -0.14670E+07        -0.60138E+08         0.00000E+00
    0.00000E+00         0.00000E+00        -0.49105E+08
 
   -0.51515E+08        -0.12577E+07         0.00000E+00
   -0.12577E+07        -0.60184E+08         0.00000E+00
    0.00000E+00         0.00000E+00        -0.49032E+08
 
   -0.51118E+08        -0.84840E+06         0.00000E+00
   -0.84840E+06        -0.60231E+08         0.00000E+00
    0.00000E+00         0.00000E+00        -0.48963E+08
 
   -0.50740E+08        -0.24302E+06         0.00000E+00
   -0.24302E+06        -0.60280E+08         0.00000E+00
    0.00000E+00         0.00000E+00        -0.48897E+08
 
   -0.50382E+08         0.55284E+06         0.00000E+00
    0.55284E+06        -0.60331E+08         0.00000E+00
    0.00000E+00         0.00000E+00        -0.48836E+08
 
   -0.50045E+08         0.15321E+07         0.00000E+00
    0.15321E+07        -0.60385E+08         0.00000E+00
    0.00000E+00         0.00000E+00        -0.48779E+08
 
   -0.49727E+08         0.26864E+07         0.00000E+00
    0.26864E+07        -0.60444E+08         0.00000E+00
    0.00000E+00         0.00000E+00        -0.48728E+08
 
   -0.49431E+08         0.40054E+07         0.00000E+00
    0.40054E+07        -0.60510E+08         0.00000E+00
    0.00000E+00         0.00000E+00        -0.48682E+08
 
   -0.49156E+08         0.54771E+07         0.00000E+00
    0.54771E+07        -0.60582E+08         0.00000E+00
    0.00000E+00         0.00000E+00        -0.48642E+08
 
   -0.48903E+08         0.70863E+07         0.00000E+00
    0.70863E+07        -0.60661E+08         0.00000E+00
    0.00000E+00         0.00000E+00        -0.48607E+08
 
   -0.48674E+08         0.88151E+07         0.00000E+00
    0.88151E+07        -0.60747E+08         0.00000E+00
    0.00000E+00         0.00000E+00        -0.48578E+08
 
   -0.54262E+08        -0.35369E+06         0.00000E+00
   -0.35369E+06        -0.60007E+08         0.00000E+00
    0.00000E+00         0.00000E+00        -0.47990E+08
 
   -0.53682E+08        -0.93545E+06         0.00000E+00
   -0.93545E+06        -0.60037E+08         0.00000E+00
    0.00000E+00         0.00000E+00        -0.47881E+08
 
   -0.53071E+08        -0.13321E+07         0.00000E+00
   -0.13321E+07        -0.60089E+08         0.00000E+00
    0.00000E+00         0.00000E+00        -0.47769E+08
 
   -0.52445E+08        -0.15312E+07         0.00000E+00
   -0.15312E+07        -0.60153E+08         0.00000E+00
    0.00000E+00         0.00000E+00        -0.47656E+08
 
   -0.51820E+08        -0.15273E+07         0.00000E+00
   -0.15273E+07        -0.60225E+08         0.00000E+00
    0.00000E+00         0.00000E+00        -0.47545E+08
 
   -0.51206E+08        -0.13200E+07         0.00000E+00
   -0.13200E+07        -0.60300E+08         0.00000E+00
    0.00000E+00         0.00000E+00        -0.47438E+08
 
   -0.50611E+08        -0.91232E+06         0.00000E+00
   -0.91232E+06        -0.60378E+08         0.00000E+00
    0.00000E+00         0.00000E+00        -0.47334E+08
 
   -0.50041E+08        -0.30940E+06         0.00000E+00
   -0.30940E+06        -0.60459E+08         0.00000E+00
    0.00000E+00         0.00000E+00        -0.47236E+08
 
   -0.49496E+08         0.48241E+06         0.00000E+00
    0.48241E+06        -0.60544E+08         0.00000E+00
    0.00000E+00         0.00000E+00        -0.47143E+08
 
   -0.48980E+08         0.14559E+07         0.00000E+00
    0.14559E+07        -0.60635E+08         0.00000E+00
    0.00000E+00         0.00000E+00        -0.47058E+08
 
   -0.48493E+08         0.26030E+07         0.00000E+00
    0.26030E+07        -0.60734E+08         0.00000E+00
    0.00000E+00         0.00000E+00        -0.46980E+08
 
   -0.48037E+08         0.39144E+07         0.00000E+00
    0.39144E+07        -0.60842E+08         0.00000E+00
    0.00000E+00         0.00000E+00        -0.46911E+08
 
   -0.47616E+08         0.53788E+07         0.00000E+00
    0.53788E+07        -0.60959E+08         0.00000E+00
    0.00000E+00         0.00000E+00        -0.46850E+08
 
   -0.47234E+08         0.69820E+07         0.00000E+00
    0.69820E+07        -0.61083E+08         0.00000E+00
    0.00000E+00         0.00000E+00        -0.46798E+08
 
   -0.46895E+08         0.87066E+07         0.00000E+00
    0.87066E+07        -0.61211E+08         0.00000E+00
    0.00000E+00         0.00000E+00        -0.46755E+08
 
   -0.54947E+08        -0.37388E+06         0.00000E+00
   -0.37388E+06        -0.60010E+08         0.00000E+00
    0.00000E+00         0.00000E+00        -0.46582E+08
 
   -0.54186E+08        -0.98622E+06         0.00000E+00
   -0.98622E+06        -0.60052E+08         0.00000E+00
    0.00000E+00         0.00000E+00        -0.46438E+08
 
   -0.53377E+08        -0.14023E+07         0.00000E+00
   -0.14023E+07        -0.60121E+08         0.00000E+00
    0.00000E+00         0.00000E+00        -0.46290E+08
 
   -0.52547E+08        -0.16123E+07         0.00000E+00
   -0.16123E+07        -0.60208E+08         0.00000E+00
    0.00000E+00         0.00000E+00        -0.46140E+08
 
   -0.51716E+08        -0.16139E+07         0.00000E+00
   -0.16139E+07        -0.60303E+08         0.00000E+00
    0.00000E+00         0.00000E+00        -0.45993E+08
 
   -0.50899E+08        -0.14096E+07         0.00000E+00
   -0.14096E+07        -0.60402E+08         0.00000E+00
    0.00000E+00         0.00000E+00        -0.45848E+08
 
   -0.50107E+08        -0.10048E+07         0.00000E+00
   -0.10048E+07        -0.60505E+08         0.00000E+00
    0.00000E+00         0.00000E+00        -0.45710E+08
 
   -0.49345E+08        -0.40626E+06         0.00000E+00
   -0.40626E+06        -0.60611E+08         0.00000E+00
    0.00000E+00         0.00000E+00        -0.45578E+08
 
   -0.48616E+08         0.37875E+06         0.00000E+00
    0.37875E+06        -0.60725E+08         0.00000E+00
    0.00000E+00         0.00000E+00        -0.45454E+08
 
   -0.47923E+08         0.13431E+07         0.00000E+00
    0.13431E+07        -0.60849E+08         0.00000E+00
    0.00000E+00         0.00000E+00        -0.45339E+08
 
   -0.47268E+08         0.24797E+07         0.00000E+00
    0.24797E+07        -0.60985E+08         0.00000E+00
    0.00000E+00         0.00000E+00        -0.45234E+08
 
   -0.46653E+08         0.37805E+07         0.00000E+00
    0.37805E+07        -0.61133E+08         0.00000E+00
    0.00000E+00         0.00000E+00        -0.45141E+08
 
   -0.46084E+08         0.52358E+07         0.00000E+00
    0.52358E+07        -0.61293E+08         0.00000E+00
    0.00000E+00         0.00000E+00        -0.45058E+08
 
   -0.45569E+08         0.68333E+07         0.00000E+00
    0.68333E+07        -0.61462E+08         0.00000E+00
    0.00000E+00         0.00000E+00        -0.44989E+08
 
   -0.45117E+08         0.85564E+07         0.00000E+00
    0.85564E+07        -0.61633E+08         0.00000E+00
    0.00000E+00         0.00000E+00        -0.44932E+08
 
   -0.55675E+08        -0.40033E+06         0.00000E+00
   -0.40033E+06        -0.60013E+08         0.00000E+00
    0.00000E+00         0.00000E+00        -0.45189E+08
 
   -0.54717E+08        -0.10518E+07         0.00000E+00
   -0.10518E+07        -0.60064E+08         0.00000E+00
    0.00000E+00         0.00000E+00        -0.45007E+08
 
   -0.53700E+08        -0.14915E+07         0.00000E+00
   -0.14915E+07        -0.60149E+08         0.00000E+00
    0.00000E+00         0.00000E+00        -0.44820E+08
 
   -0.52657E+08        -0.17139E+07         0.00000E+00
   -0.17139E+07        -0.60253E+08         0.00000E+00
    0.00000E+00         0.00000E+00        -0.44631E+08
 
   -0.51616E+08        -0.17211E+07         0.00000E+00
   -0.17211E+07        -0.60365E+08         0.00000E+00
    0.00000E+00         0.00000E+00        -0.44444E+08
 
   -0.50596E+08        -0.15197E+07         0.00000E+00
   -0.15197E+07        -0.60481E+08         0.00000E+00
    0.00000E+00         0.00000E+00        -0.44262E+08
 
   -0.49607E+08        -0.11186E+07         0.00000E+00
   -0.11186E+07        -0.60600E+08         0.00000E+00
    0.00000E+00         0.00000E+00        -0.44087E+08
 
   -0.48656E+08        -0.52666E+06         0.00000E+00
   -0.52666E+06        -0.60725E+08         0.00000E+00
    0.00000E+00         0.00000E+00        -0.43920E+08
 
   -0.47747E+08         0.24804E+06         0.00000E+00
    0.24804E+06        -0.60860E+08         0.00000E+00
    0.00000E+00         0.00000E+00        -0.43764E+08
 
   -0.46879E+08         0.11987E+07         0.00000E+00
    0.11987E+07        -0.61009E+08         0.00000E+00
    0.00000E+00         0.00000E+00        -0.43619E+08
 
   -0.46056E+08         0.23197E+07         0.00000E+00
    0.23197E+07        -0.61177E+08         0.00000E+00
    0.00000E+00         0.00000E+00        -0.43486E+08
 
   -0.45280E+08         0.36052E+07         0.00000E+00
    0.36052E+07        -0.61363E+08         0.00000E+00
    0.00000E+00         0.00000E+00        -0.43367E+08
 
   -0.44561E+08         0.50483E+07         0.00000E+00
    0.50483E+07        -0.61566E+08         0.00000E+00
    0.00000E+00         0.00000E+00        -0.43263E+08
 
   -0.43908E+08         0.66389E+07         0.00000E+00
    0.66389E+07        -0.61780E+08         0.00000E+00
    0.00000E+00         0.00000E+00        -0.43175E+08
 
   -0.43337E+08         0.83626E+07         0.00000E+00
    0.83626E+07        -0.61998E+08         0.00000E+00
    0.00000E+00         0.00000E+00        -0.43104E+08
 
   -0.56456E+08        -0.43239E+06         0.00000E+00
   -0.43239E+06        -0.60015E+08         0.00000E+00
    0.00000E+00         0.00000E+00        -0.43811E+08
 
   -0.55281E+08        -0.11298E+07         0.00000E+00
   -0.11298E+07        -0.60075E+08         0.00000E+00
    0.00000E+00         0.00000E+00        -0.43587E+08
 
   -0.54040E+08        -0.15952E+07         0.00000E+00
   -0.15952E+07        -0.60171E+08         0.00000E+00
    0.00000E+00         0.00000E+00        -0.43357E+08
 
   -0.52775E+08        -0.18293E+07         0.00000E+00
   -0.18293E+07        -0.60286E+08         0.00000E+00
    0.00000E+00         0.00000E+00        -0.43126E+08
 
   -0.51519E+08        -0.18404E+07         0.00000E+00
   -0.18404E+07        -0.60406E+08         0.00000E+00
    0.00000E+00         0.00000E+00        -0.42897E+08
 
   -0.50294E+08        -0.16409E+07         0.00000E+00
   -0.16409E+07        -0.60528E+08         0.00000E+00
    0.00000E+00         0.00000E+00        -0.42675E+08
 
   -0.49112E+08        -0.12439E+07         0.00000E+00
   -0.12439E+07        -0.60652E+08         0.00000E+00
    0.00000E+00         0.00000E+00        -0.42461E+08
 
   -0.47978E+08        -0.66115E+06         0.00000E+00
   -0.66115E+06        -0.60784E+08         0.00000E+00
    0.00000E+00         0.00000E+00        -0.42259E+08
 
   -0.46892E+08         0.98543E+05         0.00000E+00
    0.98543E+05        -0.60930E+08         0.00000E+00
    0.00000E+00         0.00000E+00        -0.42069E+08
 
   -0.45853E+08         0.10292E+07         0.00000E+00
    0.10292E+07        -0.61097E+08         0.00000E+00
    0.00000E+00         0.00000E+00        -0.41893E+08
 
   -0.44863E+08         0.21272E+07         0.00000E+00
    0.21272E+07        -0.61290E+08         0.00000E+00
    0.00000E+00         0.00000E+00        -0.41732E+08
 
   -0.43925E+08         0.33903E+07         0.00000E+00
    0.33903E+07        -0.61510E+08         0.00000E+00
    0.00000E+00         0.00000E+00        -0.41587E+08
 
   -0.43049E+08         0.48154E+07         0.00000E+00
    0.48154E+07        -0.61755E+08         0.00000E+00
    0.00000E+00         0.00000E+00        -0.41460E+08
 
   -0.42251E+08         0.63965E+07         0.00000E+00
    0.63965E+07        -0.62018E+08         0.00000E+00
    0.00000E+00         0.00000E+00        -0.41352E+08
 
   -0.41550E+08         0.81218E+07         0.00000E+00
    0.81218E+07        -0.62285E+08         0.00000E+00
    0.00000E+00         0.00000E+00        -0.41265E+08
 
   -0.57299E+08        -0.46917E+06         0.00000E+00
   -0.46917E+06        -0.60017E+08         0.00000E+00
    0.00000E+00         0.00000E+00        -0.42449E+08
 
   -0.55882E+08        -0.12169E+07         0.00000E+00
   -0.12169E+07        -0.60083E+08         0.00000E+00
    0.00000E+00         0.00000E+00        -0.42178E+08
 
   -0.54397E+08        -0.17073E+07         0.00000E+00
   -0.17073E+07        -0.60185E+08         0.00000E+00
    0.00000E+00         0.00000E+00        -0.41900E+08
 
   -0.52898E+08        -0.19494E+07         0.00000E+00
   -0.19494E+07        -0.60301E+08         0.00000E+00
    0.00000E+00         0.00000E+00        -0.41622E+08
 
   -0.51423E+08        -0.19604E+07         0.00000E+00
   -0.19604E+07        -0.60417E+08         0.00000E+00
    0.00000E+00         0.00000E+00        -0.41348E+08
 
   -0.49995E+08        -0.17603E+07         0.00000E+00
   -0.17603E+07        -0.60531E+08         0.00000E+00
    0.00000E+00         0.00000E+00        -0.41083E+08
 
   -0.48625E+08        -0.13678E+07         0.00000E+00
   -0.13678E+07        -0.60646E+08         0.00000E+00
    0.00000E+00         0.00000E+00        -0.40830E+08
 
   -0.47314E+08        -0.79758E+06         0.00000E+00
   -0.79758E+06        -0.60770E+08         0.00000E+00
    0.00000E+00         0.00000E+00        -0.40590E+08
 
   -0.46059E+08        -0.59277E+05         0.00000E+00
   -0.59277E+05        -0.60915E+08         0.00000E+00
    0.00000E+00         0.00000E+00        -0.40366E+08
 
   -0.44854E+08         0.84248E+06         0.00000E+00
    0.84248E+06        -0.61089E+08         0.00000E+00
    0.00000E+00         0.00000E+00        -0.40158E+08
 
   -0.43698E+08         0.19073E+07         0.00000E+00
    0.19073E+07        -0.61300E+08         0.00000E+00
    0.00000E+00         0.00000E+00        -0.39967E+08
 
   -0.42595E+08         0.31376E+07         0.00000E+00
    0.31376E+07        -0.61552E+08         0.00000E+00
    0.00000E+00         0.00000E+00        -0.39795E+08
 
   -0.41556E+08         0.45359E+07         0.00000E+00
    0.45359E+07        -0.61839E+08         0.00000E+00
    0.00000E+00         0.00000E+00        -0.39643E+08
 
   -0.40599E+08         0.61018E+07         0.00000E+00
    0.61018E+07        -0.62153E+08         0.00000E+00
    0.00000E+00         0.00000E+00        -0.39514E+08
 
   -0.39754E+08         0.78284E+07         0.00000E+00
    0.78284E+07        -0.62477E+08         0.00000E+00
    0.00000E+00         0.00000E+00        -0.39409E+08
 
   -0.58210E+08        -0.50957E+06         0.00000E+00
   -0.50957E+06        -0.60019E+08         0.00000E+00
    0.00000E+00         0.00000E+00        -0.41103E+08
 
   -0.56518E+08        -0.13087E+07         0.00000E+00
   -0.13087E+07        -0.60087E+08         0.00000E+00
    0.00000E+00         0.00000E+00        -0.40778E+08
 
   -0.54766E+08        -0.18190E+07         0.00000E+00
   -0.18190E+07        -0.60187E+08         0.00000E+00
    0.00000E+00         0.00000E+00        -0.40446E+08
 
   -0.53020E+08        -0.20616E+07         0.00000E+00
   -0.20616E+07        -0.60293E+08         0.00000E+00
    0.00000E+00         0.00000E+00        -0.40116E+08
 
   -0.51323E+08        -0.20659E+07         0.00000E+00
   -0.20659E+07        -0.60390E+08         0.00000E+00
    0.00000E+00         0.00000E+00        -0.39794E+08
 
   -0.49697E+08        -0.18616E+07         0.00000E+00
   -0.18616E+07        -0.60477E+08         0.00000E+00
    0.00000E+00         0.00000E+00        -0.39484E+08
 
   -0.48148E+08        -0.14740E+07         0.00000E+00
   -0.14740E+07        -0.60565E+08         0.00000E+00
    0.00000E+00         0.00000E+00        -0.39189E+08
 
   -0.46671E+08        -0.92107E+06         0.00000E+00
   -0.92107E+06        -0.60665E+08         0.00000E+00
    0.00000E+00         0.00000E+00        -0.38911E+08
 
   -0.45256E+08        -0.21276E+06         0.00000E+00
   -0.21276E+06        -0.60792E+08         0.00000E+00
    0.00000E+00         0.00000E+00        -0.38651E+08
 
   -0.43893E+08         0.64832E+06         0.00000E+00
    0.64832E+06        -0.60962E+08         0.00000E+00
    0.00000E+00         0.00000E+00        -0.38410E+08
 
   -0.42575E+08         0.16660E+07         0.00000E+00
    0.16660E+07        -0.61184E+08         0.00000E+00
    0.00000E+00         0.00000E+00        -0.38188E+08
 
   -0.41303E+08         0.28488E+07         0.00000E+00
    0.28488E+07        -0.61462E+08         0.00000E+00
    0.00000E+00         0.00000E+00        -0.37988E+08
 
   -0.40089E+08         0.42070E+07         0.00000E+00
    0.42070E+07        -0.61793E+08         0.00000E+00
    0.00000E+00         0.00000E+00        -0.37810E+08
 
   -0.38958E+08         0.57486E+07         0.00000E+00
    0.57486E+07        -0.62164E+08         0.00000E+00
    0.00000E+00         0.00000E+00        -0.37657E+08
 
   -0.37947E+08         0.74739E+07         0.00000E+00
    0.74739E+07        -0.62552E+08         0.00000E+00
    0.00000E+00         0.00000E+00        -0.37532E+08
 
   -0.59193E+08        -0.55227E+06         0.00000E+00
   -0.55227E+06        -0.60019E+08         0.00000E+00
    0.00000E+00         0.00000E+00        -0.39774E+08
 
   -0.57184E+08        -0.13992E+07         0.00000E+00
   -0.13992E+07        -0.60086E+08         0.00000E+00
    0.00000E+00         0.00000E+00        -0.39385E+08
 
   -0.55138E+08        -0.19186E+07         0.00000E+00
   -0.19186E+07        -0.60175E+08         0.00000E+00
    0.00000E+00         0.00000E+00        -0.38991E+08
 
   -0.53132E+08        -0.21493E+07         0.00000E+00
   -0.21493E+07        -0.60253E+08         0.00000E+00
    0.00000E+00         0.00000E+00        -0.38604E+08
 
   -0.51213E+08        -0.21372E+07         0.00000E+00
   -0.21372E+07        -0.60309E+08         0.00000E+00
    0.00000E+00         0.00000E+00        -0.38229E+08
 
   -0.49397E+08        -0.19244E+07         0.00000E+00
   -0.19244E+07        -0.60349E+08         0.00000E+00
    0.00000E+00         0.00000E+00        -0.37871E+08
 
   -0.47683E+08        -0.15432E+07         0.00000E+00
   -0.15432E+07        -0.60387E+08         0.00000E+00
    0.00000E+00         0.00000E+00        -0.37533E+08
 
   -0.46055E+08        -0.10143E+07         0.00000E+00
   -0.10143E+07        -0.60443E+08         0.00000E+00
    0.00000E+00         0.00000E+00        -0.37216E+08
 
   -0.44495E+08        -0.34737E+06         0.00000E+00
   -0.34737E+06        -0.60538E+08         0.00000E+00
    0.00000E+00         0.00000E+00        -0.36920E+08
 
   -0.42984E+08         0.45780E+06         0.00000E+00
    0.45780E+06        -0.60689E+08         0.00000E+00
    0.00000E+00         0.00000E+00        -0.36646E+08
 
   -0.41509E+08         0.14100E+07         0.00000E+00
    0.14100E+07        -0.60911E+08         0.00000E+00
    0.00000E+00         0.00000E+00        -0.36393E+08
 
   -0.40066E+08         0.25254E+07         0.00000E+00
    0.25254E+07        -0.61211E+08         0.00000E+00
    0.00000E+00         0.00000E+00        -0.36162E+08
 
   -0.38665E+08         0.38246E+07         0.00000E+00
    0.38246E+07        -0.61587E+08         0.00000E+00
    0.00000E+00         0.00000E+00        -0.35956E+08
 
   -0.37335E+08         0.53277E+07         0.00000E+00
    0.53277E+07        -0.62023E+08         0.00000E+00
    0.00000E+00         0.00000E+00        -0.35776E+08
 
   -0.36127E+08         0.70461E+07         0.00000E+00
    0.70461E+07        -0.62490E+08         0.00000E+00
    0.00000E+00         0.00000E+00        -0.35627E+08
 
   -0.60247E+08        -0.59566E+06         0.00000E+00
   -0.59566E+06        -0.60019E+08         0.00000E+00
    0.00000E+00         0.00000E+00        -0.38459E+08
 
   -0.57870E+08        -0.14801E+07         0.00000E+00
   -0.14801E+07        -0.60079E+08         0.00000E+00
    0.00000E+00         0.00000E+00        -0.37995E+08
 
   -0.55496E+08        -0.19897E+07         0.00000E+00
   -0.19897E+07        -0.60140E+08         0.00000E+00
    0.00000E+00         0.00000E+00        -0.37530E+08
 
   -0.53220E+08        -0.21898E+07         0.00000E+00
   -0.21898E+07        -0.60167E+08         0.00000E+00
    0.00000E+00         0.00000E+00        -0.37078E+08
 
   -0.51085E+08        -0.21494E+07         0.00000E+00
   -0.21494E+07        -0.60156E+08         0.00000E+00
    0.00000E+00         0.00000E+00        -0.36647E+08
 
   -0.49096E+08        -0.19247E+07         0.00000E+00
   -0.19247E+07        -0.60121E+08         0.00000E+00
    0.00000E+00         0.00000E+00        -0.36239E+08
 
   -0.47237E+08        -0.15539E+07         0.00000E+00
   -0.15539E+07        -0.60086E+08         0.00000E+00
    0.00000E+00         0.00000E+00        -0.35858E+08
 
   -0.45479E+08        -0.10588E+07         0.00000E+00
   -0.10588E+07        -0.60078E+08         0.00000E+00
    0.00000E+00         0.00000E+00        -0.35502E+08
 
   -0.43792E+08        -0.44754E+06         0.00000E+00
   -0.44754E+06        -0.60123E+08         0.00000E+00
    0.00000E+00         0.00000E+00        -0.35171E+08
 
   -0.42148E+08         0.28318E+06         0.00000E+00
    0.28318E+06        -0.60242E+08         0.00000E+00
    0.00000E+00         0.00000E+00        -0.34863E+08
 
   -0.40523E+08         0.11474E+07         0.00000E+00
    0.11474E+07        -0.60454E+08         0.00000E+00
    0.00000E+00         0.00000E+00        -0.34578E+08
 
   -0.38906E+08         0.21696E+07         0.00000E+00
    0.21696E+07        -0.60771E+08         0.00000E+00
    0.00000E+00         0.00000E+00        -0.34316E+08
 
   -0.37302E+08         0.33834E+07         0.00000E+00
    0.33834E+07        -0.61193E+08         0.00000E+00
    0.00000E+00         0.00000E+00        -0.34079E+08
 
   -0.35745E+08         0.48261E+07         0.00000E+00
    0.48261E+07        -0.61705E+08         0.00000E+00
    0.00000E+00         0.00000E+00        -0.33868E+08
 
   -0.34297E+08         0.65270E+07         0.00000E+00
    0.65270E+07        -0.62267E+08         0.00000E+00
    0.00000E+00         0.00000E+00        -0.33691E+08
 
   -0.61366E+08        -0.63757E+06         0.00000E+00
   -0.63757E+06        -0.60018E+08         0.00000E+00
    0.00000E+00         0.00000E+00        -0.37157E+08
 
   -0.58552E+08        -0.15386E+07         0.00000E+00
   -0.15386E+07        -0.60061E+08         0.00000E+00
    0.00000E+00         0.00000E+00        -0.36602E+08
 
   -0.55816E+08        -0.20073E+07         0.00000E+00
   -0.20073E+07        -0.60071E+08         0.00000E+00
    0.00000E+00         0.00000E+00        -0.36055E+08
 
   -0.53267E+08        -0.21522E+07         0.00000E+00
   -0.21522E+07        -0.60013E+08         0.00000E+00
    0.00000E+00         0.00000E+00        -0.35532E+08
 
   -0.50933E+08        -0.20721E+07         0.00000E+00
   -0.20721E+07        -0.59899E+08         0.00000E+00
    0.00000E+00         0.00000E+00        -0.35039E+08
 
   -0.48796E+08        -0.18360E+07         0.00000E+00
   -0.18360E+07        -0.59759E+08         0.00000E+00
    0.00000E+00         0.00000E+00        -0.34582E+08
 
   -0.46818E+08        -0.14843E+07         0.00000E+00
   -0.14843E+07        -0.59628E+08         0.00000E+00
    0.00000E+00         0.00000E+00        -0.34157E+08
 
   -0.44955E+08        -0.10367E+07         0.00000E+00
   -0.10367E+07        -0.59539E+08         0.00000E+00
    0.00000E+00         0.00000E+00        -0.33764E+08
 
   -0.43164E+08        -0.49830E+06         0.00000E+00
   -0.49830E+06        -0.59518E+08         0.00000E+00
    0.00000E+00         0.00000E+00        -0.33399E+08
 
   -0.41404E+08         0.13707E+06         0.00000E+00
    0.13707E+06        -0.59592E+08         0.00000E+00
    0.00000E+00         0.00000E+00        -0.33060E+08
 
   -0.39643E+08         0.88740E+06         0.00000E+00
    0.88740E+06        -0.59782E+08         0.00000E+00
    0.00000E+00         0.00000E+00        -0.32743E+08
 
   -0.37854E+08         0.17847E+07         0.00000E+00
    0.17847E+07        -0.60108E+08         0.00000E+00
    0.00000E+00         0.00000E+00        -0.32449E+08
 
   -0.36033E+08         0.28772E+07         0.00000E+00
    0.28772E+07        -0.60577E+08         0.00000E+00
    0.00000E+00         0.00000E+00        -0.32177E+08
 
   -0.34209E+08         0.42265E+07         0.00000E+00
    0.42265E+07        -0.61177E+08         0.00000E+00
    0.00000E+00         0.00000E+00        -0.31931E+08
 
   -0.32462E+08         0.58912E+07         0.00000E+00
    0.58912E+07        -0.61861E+08         0.00000E+00
    0.00000E+00         0.00000E+00        -0.31718E+08
 
   -0.62535E+08        -0.67445E+06         0.00000E+00
   -0.67445E+06        -0.60015E+08         0.00000E+00
    0.00000E+00         0.00000E+00        -0.35864E+08
 
   -0.59193E+08        -0.15516E+07         0.00000E+00
   -0.15516E+07        -0.60023E+08         0.00000E+00
    0.00000E+00         0.00000E+00        -0.35196E+08
 
   -0.56065E+08        -0.19319E+07         0.00000E+00
   -0.19319E+07        -0.59939E+08         0.00000E+00
    0.00000E+00         0.00000E+00        -0.34552E+08
 
   -0.53256E+08        -0.19944E+07         0.00000E+00
   -0.19944E+07        -0.59747E+08         0.00000E+00
    0.00000E+00         0.00000E+00        -0.33950E+08
 
   -0.50757E+08        -0.18708E+07         0.00000E+00
   -0.18708E+07        -0.59489E+08         0.00000E+00
    0.00000E+00         0.00000E+00        -0.33396E+08
 
   -0.48507E+08        -0.16335E+07         0.00000E+00
   -0.16335E+07        -0.59217E+08         0.00000E+00
    0.00000E+00         0.00000E+00        -0.32890E+08
 
   -0.46442E+08        -0.13168E+07         0.00000E+00
   -0.13168E+07        -0.58972E+08         0.00000E+00
    0.00000E+00         0.00000E+00        -0.32426E+08
 
   -0.44501E+08        -0.93448E+06         0.00000E+00
   -0.93448E+06        -0.58789E+08         0.00000E+00
    0.00000E+00         0.00000E+00        -0.31998E+08
 
   -0.42630E+08        -0.48798E+06         0.00000E+00
   -0.48798E+06        -0.58694E+08         0.00000E+00
    0.00000E+00         0.00000E+00        -0.31603E+08
 
   -0.40778E+08         0.30908E+05         0.00000E+00
    0.30908E+05        -0.58713E+08         0.00000E+00
    0.00000E+00         0.00000E+00        -0.31234E+08
 
   -0.38899E+08         0.64124E+06         0.00000E+00
    0.64124E+06        -0.58871E+08         0.00000E+00
    0.00000E+00         0.00000E+00        -0.30888E+08
 
   -0.36948E+08         0.13779E+07         0.00000E+00
    0.13779E+07        -0.59194E+08         0.00000E+00
    0.00000E+00         0.00000E+00        -0.30561E+08
 
   -0.34899E+08         0.23019E+07         0.00000E+00
    0.23019E+07        -0.59705E+08         0.00000E+00
    0.00000E+00         0.00000E+00        -0.30252E+08
 
   -0.32763E+08         0.35066E+07         0.00000E+00
    0.35066E+07        -0.60406E+08         0.00000E+00
    0.00000E+00         0.00000E+00        -0.29964E+08
 
   -0.30632E+08         0.51013E+07         0.00000E+00
    0.51013E+07        -0.61247E+08         0.00000E+00
    0.00000E+00         0.00000E+00        -0.29706E+08
 
   -0.63720E+08        -0.69814E+06         0.00000E+00
   -0.69814E+06        -0.60006E+08         0.00000E+00
    0.00000E+00         0.00000E+00        -0.34572E+08
 
   -0.59729E+08        -0.14716E+07         0.00000E+00
   -0.14716E+07        -0.59937E+08         0.00000E+00
    0.00000E+00         0.00000E+00        -0.33759E+08
 
   -0.56200E+08        -0.16981E+07         0.00000E+00
   -0.16981E+07        -0.59680E+08         0.00000E+00
    0.00000E+00         0.00000E+00        -0.33000E+08
 
   -0.53182E+08        -0.16651E+07         0.00000E+00
   -0.16651E+07        -0.59287E+08         0.00000E+00
    0.00000E+00         0.00000E+00        -0.32316E+08
 
   -0.50569E+08        -0.15152E+07         0.00000E+00
   -0.15152E+07        -0.58850E+08         0.00000E+00
    0.00000E+00         0.00000E+00        -0.31705E+08
 
   -0.48248E+08        -0.13012E+07         0.00000E+00
   -0.13012E+07        -0.58431E+08         0.00000E+00
    0.00000E+00         0.00000E+00        -0.31155E+08
 
   -0.46128E+08        -0.10434E+07         0.00000E+00
   -0.10434E+07        -0.58069E+08         0.00000E+00
    0.00000E+00         0.00000E+00        -0.30656E+08
 
   -0.44136E+08        -0.74757E+06         0.00000E+00
   -0.74757E+06        -0.57792E+08         0.00000E+00
    0.00000E+00         0.00000E+00        -0.30201E+08
 
   -0.42210E+08        -0.41183E+06         0.00000E+00
   -0.41183E+06        -0.57624E+08         0.00000E+00
    0.00000E+00         0.00000E+00        -0.29780E+08
 
   -0.40291E+08        -0.27938E+05         0.00000E+00
   -0.27938E+05        -0.57587E+08         0.00000E+00
    0.00000E+00         0.00000E+00        -0.29387E+08
 
   -0.38319E+08         0.42052E+06         0.00000E+00
    0.42052E+06        -0.57706E+08         0.00000E+00
    0.00000E+00         0.00000E+00        -0.29015E+08
 
   -0.36232E+08         0.96412E+06         0.00000E+00
    0.96412E+06        -0.58012E+08         0.00000E+00
    0.00000E+00         0.00000E+00        -0.28658E+08
 
   -0.33962E+08         0.16624E+07         0.00000E+00
    0.16624E+07        -0.58545E+08         0.00000E+00
    0.00000E+00         0.00000E+00        -0.28310E+08
 
   -0.31469E+08         0.26420E+07         0.00000E+00
    0.26420E+07        -0.59351E+08         0.00000E+00
    0.00000E+00         0.00000E+00        -0.27971E+08
 
   -0.28833E+08         0.41012E+07         0.00000E+00
    0.41012E+07        -0.60396E+08         0.00000E+00
    0.00000E+00         0.00000E+00        -0.27653E+08
 
   -0.64835E+08        -0.67960E+06         0.00000E+00
   -0.67960E+06        -0.59974E+08         0.00000E+00
    0.00000E+00         0.00000E+00        -0.33259E+08
 
   -0.60056E+08        -0.11848E+07         0.00000E+00
   -0.11848E+07        -0.59699E+08         0.00000E+00
    0.00000E+00         0.00000E+00        -0.32248E+08
 
   -0.56206E+08        -0.12141E+07         0.00000E+00
   -0.12141E+07        -0.59135E+08         0.00000E+00
    0.00000E+00         0.00000E+00        -0.31364E+08
 
   -0.53073E+08        -0.11268E+07         0.00000E+00
   -0.11268E+07        -0.58496E+08         0.00000E+00
    0.00000E+00         0.00000E+00        -0.30608E+08
 
   -0.50403E+08        -0.99670E+06         0.00000E+00
   -0.99670E+06        -0.57879E+08         0.00000E+00
    0.00000E+00         0.00000E+00        -0.29950E+08
 
   -0.48047E+08        -0.84343E+06         0.00000E+00
   -0.84343E+06        -0.57328E+08         0.00000E+00
    0.00000E+00         0.00000E+00        -0.29367E+08
 
   -0.45899E+08        -0.67261E+06         0.00000E+00
   -0.67261E+06        -0.56867E+08         0.00000E+00
    0.00000E+00         0.00000E+00        -0.28844E+08
 
   -0.43879E+08        -0.48432E+06         0.00000E+00
   -0.48432E+06        -0.56515E+08         0.00000E+00
    0.00000E+00         0.00000E+00        -0.28369E+08
 
   -0.41920E+08        -0.27553E+06         0.00000E+00
   -0.27553E+06        -0.56287E+08         0.00000E+00
    0.00000E+00         0.00000E+00        -0.27930E+08
 
   -0.39957E+08        -0.40138E+05         0.00000E+00
   -0.40138E+05        -0.56203E+08         0.00000E+00
    0.00000E+00         0.00000E+00        -0.27520E+08
 
   -0.37924E+08         0.23262E+06         0.00000E+00
    0.23262E+06        -0.56284E+08         0.00000E+00
    0.00000E+00         0.00000E+00        -0.27128E+08
 
   -0.35741E+08         0.56263E+06         0.00000E+00
    0.56263E+06        -0.56564E+08         0.00000E+00
    0.00000E+00         0.00000E+00        -0.26747E+08
 
   -0.33301E+08         0.99076E+06         0.00000E+00
    0.99076E+06        -0.57092E+08         0.00000E+00
    0.00000E+00         0.00000E+00        -0.26364E+08
 
   -0.30442E+08         0.16207E+07         0.00000E+00
    0.16207E+07        -0.57955E+08         0.00000E+00
    0.00000E+00         0.00000E+00        -0.25964E+08
 
   -0.27125E+08         0.27956E+07         0.00000E+00
    0.27956E+07        -0.59270E+08         0.00000E+00
    0.00000E+00         0.00000E+00        -0.25563E+08
 
   -0.65643E+08        -0.42812E+06         0.00000E+00
   -0.42812E+06        -0.59690E+08         0.00000E+00
    0.00000E+00         0.00000E+00        -0.31833E+08
 
   -0.60104E+08        -0.48963E+06         0.00000E+00
   -0.48963E+06        -0.58906E+08         0.00000E+00
    0.00000E+00         0.00000E+00        -0.30568E+08
 
   -0.56158E+08        -0.44860E+06         0.00000E+00
   -0.44860E+06        -0.58029E+08         0.00000E+00
    0.00000E+00         0.00000E+00        -0.29603E+08
 
   -0.52989E+08        -0.40137E+06         0.00000E+00
   -0.40137E+06        -0.57207E+08         0.00000E+00
    0.00000E+00         0.00000E+00        -0.28804E+08
 
   -0.50303E+08        -0.34878E+06         0.00000E+00
   -0.34878E+06        -0.56473E+08         0.00000E+00
    0.00000E+00         0.00000E+00        -0.28120E+08
 
   -0.47936E+08        -0.29255E+06         0.00000E+00
   -0.29255E+06        -0.55842E+08         0.00000E+00
    0.00000E+00         0.00000E+00        -0.27520E+08
 
   -0.45777E+08        -0.23248E+06         0.00000E+00
   -0.23248E+06        -0.55324E+08         0.00000E+00
    0.00000E+00         0.00000E+00        -0.26984E+08
 
   -0.43746E+08        -0.16773E+06         0.00000E+00
   -0.16773E+06        -0.54929E+08         0.00000E+00
    0.00000E+00         0.00000E+00        -0.26498E+08
 
   -0.41772E+08        -0.96844E+05         0.00000E+00
   -0.96844E+05        -0.54669E+08         0.00000E+00
    0.00000E+00         0.00000E+00        -0.26051E+08
 
   -0.39789E+08        -0.17594E+05         0.00000E+00
   -0.17594E+05        -0.54557E+08         0.00000E+00
    0.00000E+00         0.00000E+00        -0.25632E+08
 
   -0.37726E+08         0.73718E+05         0.00000E+00
    0.73718E+05        -0.54615E+08         0.00000E+00
    0.00000E+00         0.00000E+00        -0.25230E+08
 
   -0.35494E+08         0.18371E+06         0.00000E+00
    0.18371E+06        -0.54874E+08         0.00000E+00
    0.00000E+00         0.00000E+00        -0.24836E+08
 
   -0.32962E+08         0.32674E+06         0.00000E+00
    0.32674E+06        -0.55385E+08         0.00000E+00
    0.00000E+00         0.00000E+00        -0.24431E+08
 
   -0.29903E+08         0.53550E+06         0.00000E+00
    0.53550E+06        -0.56248E+08         0.00000E+00
    0.00000E+00         0.00000E+00        -0.23992E+08
 
   -0.25664E+08         0.10256E+07         0.00000E+00
    0.10256E+07        -0.57736E+08         0.00000E+00
    0.00000E+00         0.00000E+00        -0.23441E+08
 
SCALARS stressS double 
LOOKUP_TABLE default
  -55117228.8113656     
  -56096791.3364421     
  -58083659.9101296     
  -60456301.7515504     
  -62743630.7809695     
  -64761176.9546820     
  -66272723.7842289     
  -67512147.6571018     
  -68588160.2982191     
  -69558111.1321410     
  -70461631.2341270     
  -71333889.1408881     
  -72215601.5172939     
  -73167891.1730549     
  -74362456.3602646     
  -57359145.4396203     
  -58455262.0185882     
  -59793894.2862758     
  -61072168.4471871     
  -62371660.7530280     
  -63743735.6989459     
  -65072026.5653097     
  -66227902.3264155     
  -67254857.5181921     
  -68188886.9645559     
  -69060179.3854665     
  -69896429.2871043     
  -70726230.8879261     
  -71586825.6501634     
  -72442335.6342226     
  -58137937.1530887     
  -59208185.3797000     
  -59948003.8083216     
  -60779726.7295752     
  -61836038.3006303     
  -62949567.6311681     
  -64043198.6540814     
  -65071644.9115986     
  -66014414.5860452     
  -66884069.9968816     
  -67697006.2115147     
  -68469544.6726542     
  -69216049.1573799     
  -69934964.2101579     
  -70606011.4700933     
  -57858331.6485480     
  -58679405.0832243     
  -59517442.1035175     
  -60355677.2392290     
  -61246783.6605338     
  -62182498.0635666     
  -63113781.3722652     
  -64008784.7315189     
  -64851951.7398974     
  -65639930.5648869     
  -66377773.7350102     
  -67071611.7282004     
  -67723332.5981659     
  -68326602.3674857     
  -68862048.8841134     
  -57487340.7222664     
  -58282283.4311321     
  -59053809.3073219     
  -59833214.3072306     
  -60626206.2233867     
  -61431142.6200863     
  -62232373.1945263     
  -63010410.2966019     
  -63752294.5676726     
  -64451844.2701579     
  -65107201.3905626     
  -65717608.1913619     
  -66279896.5415802     
  -66785572.3054375     
  -67219688.5819743     
  -57182229.6555822     
  -57896889.6812028     
  -58596739.3323874     
  -59293263.5260331     
  -59992742.6207752     
  -60692430.5953774     
  -61384386.6426622     
  -62058083.8122892     
  -62703964.8903658     
  -63315295.7402057     
  -63887520.3116018     
  -64416579.0164564     
  -64897014.6522900     
  -65320505.4611012     
  -65675291.3712232     
  -56917022.0210510     
  -57535007.1365475     
  -58147072.9095282     
  -58756565.1600847     
  -59364550.3810782     
  -59968844.1638722     
  -60564057.0922931     
  -61143247.0402974     
  -61699381.5517861     
  -62226259.8846943     
  -62718531.8114086     
  -63170980.0677077     
  -63577591.5128130     
  -63930842.6871119     
  -64221533.2475548     
  -56672350.0648099     
  -57189257.1713991     
  -57708995.5518201     
  -58229354.7812645     
  -58748435.6406379     
  -59263194.9344232     
  -59769255.4326596     
  -60261295.7414538     
  -60733711.2315652     
  -61181051.1415174     
  -61598084.4529447     
  -61979532.6977749     
  -62319665.0635503     
  -62612006.9158379     
  -62849351.4351559     
  -56433700.5147135     
  -56852834.5855884     
  -57281073.4053368     
  -57713559.7225490     
  -58146516.4072225     
  -58576238.9931505     
  -58998632.0775984     
  -59409205.1303751     
  -59803254.0332948     
  -60176036.7892665     
  -60522813.2822997     
  -60838748.6696919     
  -61118764.3170696     
  -61357456.2397295     
  -61549187.0986463     
  -56192439.7354522     
  -56520173.5175626     
  -56860845.5797334     
  -57208569.2589647     
  -57558757.5652438     
  -57907384.8557497     
  -58250551.2972542     
  -58584302.8735885     
  -58904611.9327842     
  -59207404.3272390     
  -59488564.7224320     
  -59743903.3048381     
  -59969116.4811454     
  -60159797.7322934     
  -60311550.5955014     
  -55944056.8899414     
  -56187732.9450502     
  -56446002.6930871     
  -56712988.3590073     
  -56984040.9868767     
  -57255225.9812580     
  -57522957.3969545     
  -57783785.2308170     
  -58034294.5314126     
  -58271065.2309516     
  -58490652.3948920     
  -58689572.6245824     
  -58864306.2485052     
  -59011338.9225405     
  -59127265.6921419     
  -55687071.7842282     
  -55853776.8479307     
  -56034948.5151514     
  -56225362.2873691     
  -56420840.7571096     
  -56617894.3725597     
  -56813437.8567590     
  -57004595.2524572     
  -57188582.1745941     
  -57362641.9769247     
  -57524014.8716663     
  -57669928.9851119     
  -57797613.9561821     
  -57904344.9020457     
  -57987524.7996093     
  -55422168.0448262     
  -55518052.7100746     
  -55626879.4210732     
  -55744490.2666714     
  -55867549.5998199     
  -55993293.7923201     
  -56119319.7070630     
  -56243426.2922621     
  -56363508.6243617     
  -56477495.0623280     
  -56583316.3179868     
  -56678898.4967209     
  -56762177.0429875     
  -56831132.0756909     
  -56883845.9432957     
  -55151565.7614205     
  -55181442.9847712     
  -55221693.7761922     
  -55269496.8878593     
  -55322615.1900100     
  -55379221.3624268     
  -55437745.5765147     
  -55496757.2026494     
  -55554883.2889449     
  -55610759.9642463     
  -55663010.0577995     
  -55710240.4366850     
  -55751054.3598963     
  -55784075.8795720     
  -55807983.8877154     
  -54878549.0428140     
  -54845649.1663558     
  -54819829.8152125     
  -54799787.3496898     
  -54784560.6430974     
  -54773409.9927372     
  -54765712.2730504     
  -54760881.4779383     
  -54758317.2094009     
  -54757378.4348466     
  -54757376.7987313     
  -54757582.8876855     
  -54757239.4204026     
  -54755576.4892653     
  -54751825.0194767     
  -54607099.1818996     
  -54512912.3931673     
  -54422080.6847646     
  -54334943.2181014     
  -54251937.3158495     
  -54173514.3209433     
  -54100073.1092731     
  -54031917.6626261     
  -53969239.3246254     
  -53912119.6104452     
  -53860546.4576492     
  -53814435.6891825     
  -53773649.8563674     
  -53738007.9884226     
  -53707281.5856508     
  -54341597.3882832     
  -54185764.4880095     
  -54029402.5064353     
  -53874585.6657631     
  -53723234.4716284     
  -53577055.9478643     
  -53437509.1294777     
  -53305799.6285542     
  -53182900.6446908     
  -53069592.7974841     
  -52966512.2159000     
  -52874195.4511739     
  -52793110.6483435     
  -52723666.5398403     
  -52666193.7439426     
  -54086573.2362223     
  -53866798.9386281     
  -53642717.2463779     
  -53418215.0487373     
  -53196756.4088370     
  -52981336.2231860     
  -52774474.1181542     
  -52578249.3816530     
  -52394369.3034519     
  -52224257.5116577     
  -52069146.0788533     
  -51930154.9895660     
  -51808344.4291440     
  -51704728.7361668     
  -51620245.2876068     
  -53846482.5274667     
  -53558450.0701651     
  -53262703.8941841     
  -52965024.7347371     
  -52670467.6960853     
  -52383318.5768517     
  -52107116.1118797     
  -51844736.1526814     
  -51598522.0612437     
  -51370438.8699995     
  -51162226.6385012     
  -50975529.6328199     
  -50811981.3581741     
  -50673230.4935095     
  -50560899.1633392     
  -53625503.0470359     
  -53262766.8231552     
  -52889564.7024677     
  -52513678.2170792     
  -52141799.0076564     
  -51779476.7575290     
  -51431175.6015990     
  -51100425.5957858     
  -50790039.5440670     
  -50502358.8175657     
  -50239492.1003281     
  -50003514.8702750     
  -49796602.7369138     
  -49621078.4342106     
  -49479360.8643344     
  -53427339.0146860     
  -52981163.1155975     
  -52522744.4401676     
  -52062028.6153139     
  -51607397.6933765     
  -51165599.9861383     
  -50741858.3848411     
  -50340123.1625813     
  -49963414.4036307     
  -49614196.5985274     
  -49294735.2186522     
  -49007393.7235057     
  -48754836.4201884     
  -48540109.1922294     
  -48366580.7691239     
  -53255024.3157870     
  -52714116.6956784     
  -52160565.9101438     
  -51606745.6006903     
  -51062797.2764170     
  -50536541.1059197     
  -50033680.0522631     
  -49558217.1006686     
  -49112984.2397105     
  -48700195.6435171     
  -48321961.7896137     
  -47980718.4394501     
  -47679528.6207013     
  -47422217.7214400     
  -47213310.1524642     
  -53110708.5065199     
  -52460766.5961598     
  -51799718.0306699     
  -51142792.7442024     
  -50501968.1156980     
  -49885891.0725512     
  -49300281.4844600     
  -48748630.1337507     
  -48233004.5548340     
  -47754837.9596774     
  -47315640.7855068     
  -46917600.3569577     
  -46564027.7390442     
  -46259584.8172611     
  -46010230.1140179     
  -52995391.5624598     
  -52218312.3708546     
  -51434480.7144359     
  -50662663.1828753     
  -49916699.9346159     
  -49205568.4252067     
  -48534225.1571871     
  -47904796.2169843     
  -47317779.2483030     
  -46773109.0875189     
  -46271079.9790580     
  -45813156.6221734     
  -45402634.6302052     
  -45045051.7417423     
  -44748178.7822926     
  -52908529.1907189     
  -51981009.8443704     
  -51055467.7263981     
  -50155227.7455187     
  -49295767.8425936     
  -48485341.5882325     
  -47726809.3714453     
  -47019689.9498234     
  -46361863.4586389     
  -45750866.2463741     
  -45184965.4531702     
  -44664179.9273734     
  -44191315.7224564     
  -43772722.8411577     
  -43418517.4773526     
  -52847295.8161210     
  -51738303.1612492     
  -50647448.8024355     
  -49603987.5059726     
  -48623892.6526194     
  -47712385.9613117     
  -46867995.7750782     
  -46085948.8481209     
  -45360327.4869958     
  -44685296.8562850     
  -44056067.6883450     
  -43470148.6653598     
  -42928831.2033355     
  -42438986.8357308     
  -42013696.3795898     
  -52804966.8972853     
  -51470859.8802378     
  -50185393.8910257     
  -48984554.0287497     
  -47880739.1671451     
  -46871196.3454207     
  -45946603.6980549     
  -45096132.8628619     
  -44309039.9540781     
  -43575310.7547106     
  -42886111.9000029     
  -42234588.9166211     
  -41618756.2732357     
  -41044244.3693563     
  -40528275.1092168     
  -52765846.6341974     
  -51141366.9537042     
  -49627071.0604659     
  -48261792.0041310     
  -47041151.3920647     
  -45944275.3442097     
  -44950963.7368779     
  -44043149.3835619     
  -43204869.6367538     
  -42421676.7990979     
  -41680068.8198458     
  -40967385.1918733     
  -40272349.6033325     
  -39597244.4856680     
  -38960384.6257446     
  -52689439.2457243     
  -50667505.6266228     
  -48901591.7742920     
  -47392454.0170008     
  -46077534.5894868     
  -44914076.8370025     
  -43870103.5387112     
  -42920825.4800625     
  -42045731.2387964     
  -41226558.0887334     
  -40445578.1923458     
  -39683716.8432621     
  -38918921.7085607     
  -38120035.4151352     
  -37319429.6771661     
  -52388830.1272723     
  -49859438.8550407     
  -47930003.3639197     
  -46333354.6190868     
  -44965470.0473288     
  -43765995.5996557     
  -42695334.0014515     
  -41724542.5845071     
  -40830433.2427323     
  -39992515.9726328     
  -39190472.1130415     
  -38401139.8841978     
  -37592908.9065042     
  -36714036.9406517     
  -35613651.1283885     
SCALARS 2waySource double 
LOOKUP_TABLE default
  1.189702143832746E-005
  8.090761877557698E-006
  5.863856039198110E-006
  4.386570015062447E-006
  3.368692515491602E-006
  2.644528314434815E-006
  2.111451454698821E-006
  1.699504674876705E-006
  1.356822172383468E-006
  1.040828130822814E-006
  7.117023124116396E-007
  3.258673799575232E-007
 -1.741042109402168E-007
 -8.746360443631774E-007
 -2.026146447642488E-006
  1.217843549725380E-005
  9.767103059774730E-006
  7.984448438773747E-006
  6.755997429615747E-006
  5.883940907691884E-006
  5.251736382867116E-006
  4.779336514778824E-006
  4.409969851933356E-006
  4.100507185633041E-006
  3.815281346197031E-006
  3.521319348656776E-006
  3.183713613887399E-006
  2.760810146483373E-006
  2.188946437027231E-006
  1.403333334423319E-006
  1.194050677880133E-005
  1.067626046588282E-005
  9.561548627286295E-006
  8.700088008293593E-006
  8.059934222765515E-006
  7.581253410337379E-006
  7.216104457316453E-006
  6.926621184831339E-006
  6.682599598303826E-006
  6.458655365838400E-006
  6.231804813202200E-006
  5.979516028250297E-006
  5.677414491871396E-006
  5.302932378219165E-006
  4.847190945069937E-006
  1.157366878550602E-005
  1.117483260701891E-005
  1.069509860673530E-005
  1.025411643652554E-005
  9.891969529916268E-006
  9.605925228274753E-006
  9.380012368544521E-006
  9.197223595171499E-006
  9.041994150760602E-006
  8.900624824331393E-006
  8.761089065251679E-006
  8.612932450727522E-006
  8.448617317811053E-006
  8.267580922097418E-006
  8.089538386080673E-006
  1.115497381852856E-005
  1.143627646984800E-005
  1.149973367123474E-005
  1.146111168021467E-005
  1.138757244505630E-005
  1.131023686337924E-005
  1.124019589991409E-005
  1.117952334871484E-005
  1.112687149024622E-005
  1.107999436369086E-005
  1.103720011413449E-005
  1.099876344567253E-005
  1.096913272826390E-005
  1.096145178919516E-005
  1.100412558215939E-005
  1.071723407562911E-005
  1.153715353312290E-005
  1.204873091860968E-005
  1.236382567382549E-005
  1.256048889558513E-005
  1.268815391430785E-005
  1.277627675132129E-005
  1.284223516578702E-005
  1.289686485618474E-005
  1.294798252234780E-005
  1.300280556482178E-005
  1.307009321502395E-005
  1.316271578342224E-005
  1.330099966056187E-005
  1.351657074256066E-005
  1.028062552154720E-005
  1.151766979091124E-005
  1.238605701469080E-005
  1.299504174495085E-005
  1.342706378156115E-005
  1.374107015533082E-005
  1.397782494900336E-005
  1.416546715976098E-005
  1.432419101506835E-005
  1.446981928818013E-005
  1.461657347240595E-005
  1.477949310736479E-005
  1.497687109070667E-005
  1.523284295073555E-005
  1.557980270233167E-005
  9.860159757337327E-006
  1.140294378852787E-005
  1.254083760496387E-005
  1.338021990207619E-005
  1.400440213349651E-005
  1.447658161662487E-005
  1.484371106284496E-005
  1.514063907705099E-005
  1.539392972345599E-005
  1.562510600016583E-005
  1.585336533674475E-005
  1.609795514077880E-005
  1.638038153248664E-005
  1.672648113329666E-005
  1.716818922015622E-005
  9.467557141875938E-006
  1.121157642594507E-005
  1.253560679409758E-005
  1.354163781640262E-005
  1.431114693570691E-005
  1.490798102403723E-005
  1.538153433800399E-005
  1.577003588937453E-005
  1.610368180046906E-005
  1.640744691483185E-005
  1.670354801776813E-005
  1.701361744467154E-005
  1.736065081532331E-005
  1.777073231359358E-005
  1.827445655737996E-005
  9.111855535043769E-006
  1.095925932361249E-005
  1.239061544945256E-005
  1.350134754883646E-005
  1.436865068409211E-005
  1.505423939284697E-005
  1.560708129745854E-005
  1.606610560289153E-005
  1.646279073846669E-005
  1.682354495328508E-005
  1.717184449206766E-005
  1.753013592081908E-005
  1.792151820565929E-005
  1.837119850583190E-005
  1.890768691061197E-005
  8.799636599448315E-006
  1.066034928321290E-005
  1.212590825787493E-005
  1.328280806756915E-005
  1.420171037789744E-005
  1.493991512691935E-005
  1.554369290299614E-005
  1.605052383690772E-005
  1.649122264797102E-005
  1.689191216375119E-005
  1.727581913346688E-005
  1.766488256773676E-005
  1.808117118833353E-005
  1.854810162969796E-005
  1.909144245809051E-005
  8.535169429416891E-006
  1.032850108716977E-005
  1.176216245513320E-005
  1.291151043993858E-005
  1.383870005227206E-005
  1.459474172398567E-005
  1.522140462966142E-005
  1.575301601588750E-005
  1.621816220488019E-005
  1.664127628926764E-005
  1.704409455439607E-005
  1.744696787545667E-005
  1.787001783300095E-005
  1.833412811640529E-005
  1.886176340960395E-005
  8.320570059062223E-006
  9.976836136433829E-006
  1.132081803144086E-005
  1.241491293954036E-005
  1.331117347303185E-005
  1.405284816637629E-005
  1.467581460680127E-005
  1.520993900851258E-005
  1.568036914835485E-005
  1.610875153265077E-005
  1.651435753071676E-005
  1.691510297156482E-005
  1.732844758457076E-005
  1.777216319691030E-005
  1.826496365577793E-005
  8.156006079994238E-006
  9.617874854267680E-006
  1.082379891329389E-005
  1.182192683986903E-005
  1.265307047574107E-005
  1.335166588372547E-005
  1.394670614863230E-005
  1.446265637814490E-005
  1.492034751439386E-005
  1.533783590692094E-005
  1.573121090929722E-005
  1.611533195578165E-005
  1.650447811499062E-005
  1.691289613745628E-005
  1.735523753692082E-005
  8.039946471110169E-006
  9.263352838084721E-006
  1.029300585762414E-005
  1.116212930112511E-005
  1.189966172455240E-005
  1.253061395455612E-005
  1.307649154023703E-005
  1.355576818831181E-005
  1.398439196502374E-005
  1.437630229741088E-005
  1.474393399651826E-005
  1.509868483623487E-005
  1.545132525053449E-005
  1.581233206478073E-005
  1.619213268936529E-005
  7.969445113473101E-006
  8.923988921118301E-006
  9.749698054614215E-006
  1.046483391955762E-005
  1.108635117844738E-005
  1.162966211712164E-005
  1.210856086219293E-005
  1.253527131811838E-005
  1.292058502357758E-005
  1.327405605118652E-005
  1.360422117050538E-005
  1.391881545083574E-005
  1.422495641928899E-005
  1.452927370399769E-005
  1.483796563576960E-005
  7.940442451440788E-006
  8.609246167146133E-006
  9.213843187512389E-006
  9.758117076303605E-006
  1.024743651546765E-005
  1.068786543971789E-005
  1.108562185143538E-005
  1.144673069825567E-005
  1.177682264536214E-005
  1.208103475244963E-005
  1.236397252593640E-005
  1.262969639617711E-005
  1.288169966667780E-005
  1.312284940503676E-005
  1.335526648796939E-005
  7.948069244077815E-006
  8.327111019914272E-006
  8.703491609882297E-006
  9.067873902557952E-006
  9.414908865585187E-006
  9.741952649162335E-006
  1.004811048906261E-005
  1.033353856001329E-005
  1.059894336591454E-005
  1.084522428292457E-005
  1.107320998751718E-005
  1.128344448165972E-005
  1.147598350800488E-005
  1.165016728788168E-005
  1.180434060458375E-005
  7.986937396753517E-006
  8.083905533992966E-006
  8.234212969078815E-006
  8.416958141701840E-006
  8.617355257792201E-006
  8.825035606831737E-006
  9.032740970211706E-006
  9.235330314846248E-006
  9.429029401289211E-006
  9.610859512592550E-006
  9.778187632886955E-006
  9.928346596109283E-006
  1.005827993627233E-005
  1.016417211559353E-005
  1.024103030903158E-005
  8.051404601978696E-006
  7.884140168331079E-006
  7.818619971905911E-006
  7.824443596422688E-006
  7.879010344541027E-006
  7.965491998133429E-006
  8.071250292118733E-006
  8.186614126330526E-006
  8.303937976676684E-006
  8.416868973492635E-006
  8.519756844213052E-006
  8.607148375260426E-006
  8.673315575027755E-006
  8.711773614933099E-006
  8.714750432744454E-006
  8.135801541753359E-006
  7.730408765812677E-006
  7.465992550769839E-006
  7.305030249809194E-006
  7.218988294351682E-006
  7.186057979949428E-006
  7.189378431667653E-006
  7.215658191668895E-006
  7.254109222616503E-006
  7.295611831899981E-006
  7.332036540431410E-006
  7.355658051160317E-006
  7.358605866846201E-006
  7.332304106890444E-006
  7.266859018182370E-006
  8.234612463512340E-006
  7.623322340786491E-006
  7.182005583518438E-006
  6.868605011714983E-006
  6.650711331397487E-006
  6.503153016003980E-006
  6.406111050577609E-006
  6.343666412636884E-006
  6.302684359871839E-006
  6.271943542638997E-006
  6.241427331507869E-006
  6.201706731916035E-006
  6.143355854055740E-006
  6.056351128232610E-006
  5.929410526111639E-006
  8.342601764647214E-006
  7.561473450036594E-006
  6.968553771163306E-006
  6.519954948389909E-006
  6.181538414810476E-006
  5.926446047443773E-006
  5.733198695282171E-006
  5.584260298933491E-006
  5.464955408421362E-006
  5.362634578475833E-006
  5.265997139359145E-006
  5.164495400720363E-006
  5.047760223041021E-006
  4.904998925357902E-006
  4.724325046220211E-006
  8.454880322966200E-006
  7.541417095175319E-006
  6.823657090345830E-006
  6.258619356517496E-006
  5.812586415715731E-006
  5.458661375380193E-006
  5.174955254776408E-006
  4.943273021452861E-006
  4.748155273835371E-006
  4.576155134054745E-006
  4.415255208612575E-006
  4.254349981449022E-006
  4.082726370881989E-006
  3.889503918615573E-006
  3.662995267711091E-006
  8.566904969726615E-006
  7.557644602111747E-006
  6.741417131599997E-006
  6.078855705264971E-006
  5.538728253572608E-006
  5.095615948490432E-006
  4.728329975371191E-006
  4.418849840628165E-006
  4.151584201970643E-006
  3.912825637626584E-006
  3.690323622793679E-006
  3.472898584610351E-006
  3.250042542545639E-006
  3.011425005015666E-006
  2.746348298214838E-006
  8.674399773249298E-006
  7.602507536183245E-006
  6.711972981653704E-006
  5.969684284481083E-006
  5.348752302285553E-006
  4.826480610791049E-006
  4.383242970681662E-006
  4.001837149345306E-006
  3.667048848144106E-006
  3.365319546080641E-006
  3.084500278968827E-006
  2.813694973162337E-006
  2.543009782375192E-006
  2.263250395513184E-006
  1.965382738475637E-006
  8.773177277331707E-006
  7.665992078459907E-006
  6.721367240040799E-006
  5.914976215044662E-006
  5.225686256932393E-006
  4.634273421898083E-006
  4.123172648152556E-006
  3.676428793845226E-006
  3.279565959570245E-006
  2.919453993771911E-006
  2.584221521959508E-006
  2.263275908334504E-006
  1.947649769318638E-006
  1.629542179348662E-006
  1.302286727239215E-006
  8.858738311328919E-006
  7.735098456752223E-006
  6.751160627143852E-006
  5.893603789658661E-006
  5.147369305576752E-006
  4.496605548063635E-006
  3.925981872745074E-006
  3.421027182142473E-006
  2.968252451935954E-006
  2.555157361774869E-006
  2.170212020486436E-006
  1.802945352118632E-006
  1.444316636062267E-006
  1.089131141244832E-006
  7.321703930245428E-007
  8.925342935101801E-006
  7.791826206420598E-006
  6.777729694271576E-006
  5.880094025873916E-006
  5.087361897253209E-006
  4.386697402660054E-006
  3.764955873364852E-006
  3.209272190157391E-006
  2.707326694270254E-006
  2.247439997286543E-006
  1.818557208650936E-006
  1.410168108703855E-006
  1.012360476455078E-006
  6.163349192449038E-007
  2.278898398505107E-007
  8.957901069552288E-006
  7.808493515048642E-006
  6.773869833541261E-006
  5.845926029073618E-006
  5.016236014405269E-006
  4.274605686767134E-006
  3.610000215853670E-006
  3.011200368861422E-006
  2.467187925118228E-006
  1.967315148847985E-006
  1.501296294635682E-006
  1.058992376648943E-006
  6.298527362063825E-007
  2.013083445745655E-007
 -2.419973777648703E-007
SCALARS poroP double 
LOOKUP_TABLE default
  5.202765729064762E-005
  3.478438222233338E-005
  2.033922206311786E-005
  8.815568906826070E-006
  1.165087325194126E-006
  0.000000000000000E+000
  0.000000000000000E+000
  0.000000000000000E+000
  0.000000000000000E+000
  0.000000000000000E+000
  0.000000000000000E+000
  0.000000000000000E+000
  0.000000000000000E+000
  0.000000000000000E+000
  0.000000000000000E+000
  2.200123869729448E-005
  1.205615367026657E-005
  4.092008344561555E-006
  7.643721887685024E-008
  0.000000000000000E+000
  0.000000000000000E+000
  0.000000000000000E+000
  0.000000000000000E+000
  0.000000000000000E+000
  0.000000000000000E+000
  0.000000000000000E+000
  0.000000000000000E+000
  0.000000000000000E+000
  0.000000000000000E+000
  0.000000000000000E+000
  3.735757183731499E-006
  0.000000000000000E+000
  0.000000000000000E+000
  0.000000000000000E+000
  0.000000000000000E+000
  0.000000000000000E+000
  0.000000000000000E+000
  0.000000000000000E+000
  0.000000000000000E+000
  0.000000000000000E+000
  0.000000000000000E+000
  0.000000000000000E+000
  0.000000000000000E+000
  0.000000000000000E+000
  0.000000000000000E+000
  0.000000000000000E+000
  0.000000000000000E+000
  0.000000000000000E+000
  0.000000000000000E+000
  0.000000000000000E+000
  0.000000000000000E+000
  0.000000000000000E+000
  0.000000000000000E+000
  0.000000000000000E+000
  0.000000000000000E+000
  0.000000000000000E+000
  0.000000000000000E+000
  0.000000000000000E+000
  0.000000000000000E+000
  0.000000000000000E+000
  0.000000000000000E+000
  0.000000000000000E+000
  0.000000000000000E+000
  0.000000000000000E+000
  0.000000000000000E+000
  0.000000000000000E+000
  0.000000000000000E+000
  0.000000000000000E+000
  0.000000000000000E+000
  0.000000000000000E+000
  0.000000000000000E+000
  0.000000000000000E+000
  0.000000000000000E+000
  0.000000000000000E+000
  0.000000000000000E+000
  0.000000000000000E+000
  0.000000000000000E+000
  0.000000000000000E+000
  0.000000000000000E+000
  0.000000000000000E+000
  0.000000000000000E+000
  0.000000000000000E+000
  0.000000000000000E+000
  0.000000000000000E+000
  0.000000000000000E+000
  0.000000000000000E+000
  0.000000000000000E+000
  0.000000000000000E+000
  0.000000000000000E+000
  0.000000000000000E+000
  0.000000000000000E+000
  0.000000000000000E+000
  0.000000000000000E+000
  0.000000000000000E+000
  0.000000000000000E+000
  0.000000000000000E+000
  0.000000000000000E+000
  0.000000000000000E+000
  0.000000000000000E+000
  0.000000000000000E+000
  0.000000000000000E+000
  0.000000000000000E+000
  0.000000000000000E+000
  0.000000000000000E+000
  0.000000000000000E+000
  0.000000000000000E+000
  0.000000000000000E+000
  0.000000000000000E+000
  0.000000000000000E+000
  0.000000000000000E+000
  0.000000000000000E+000
  0.000000000000000E+000
  0.000000000000000E+000
  0.000000000000000E+000
  0.000000000000000E+000
  0.000000000000000E+000
  0.000000000000000E+000
  0.000000000000000E+000
  0.000000000000000E+000
  0.000000000000000E+000
  0.000000000000000E+000
  0.000000000000000E+000
  0.000000000000000E+000
  0.000000000000000E+000
  0.000000000000000E+000
  0.000000000000000E+000
  0.000000000000000E+000
  0.000000000000000E+000
  0.000000000000000E+000
  0.000000000000000E+000
  0.000000000000000E+000
  0.000000000000000E+000
  0.000000000000000E+000
  0.000000000000000E+000
  0.000000000000000E+000
  0.000000000000000E+000
  0.000000000000000E+000
  0.000000000000000E+000
  0.000000000000000E+000
  0.000000000000000E+000
  0.000000000000000E+000
  0.000000000000000E+000
  0.000000000000000E+000
  0.000000000000000E+000
  0.000000000000000E+000
  0.000000000000000E+000
  0.000000000000000E+000
  0.000000000000000E+000
  0.000000000000000E+000
  0.000000000000000E+000
  0.000000000000000E+000
  0.000000000000000E+000
  0.000000000000000E+000
  0.000000000000000E+000
  0.000000000000000E+000
  0.000000000000000E+000
  0.000000000000000E+000
  0.000000000000000E+000
  0.000000000000000E+000
  0.000000000000000E+000
  0.000000000000000E+000
  0.000000000000000E+000
  0.000000000000000E+000
  0.000000000000000E+000
  0.000000000000000E+000
  0.000000000000000E+000
  0.000000000000000E+000
  0.000000000000000E+000
  0.000000000000000E+000
  0.000000000000000E+000
  0.000000000000000E+000
  0.000000000000000E+000
  0.000000000000000E+000
  0.000000000000000E+000
  0.000000000000000E+000
  0.000000000000000E+000
  0.000000000000000E+000
  0.000000000000000E+000
  0.000000000000000E+000
  0.000000000000000E+000
  0.000000000000000E+000
  0.000000000000000E+000
  0.000000000000000E+000
  0.000000000000000E+000
  0.000000000000000E+000
  0.000000000000000E+000
  0.000000000000000E+000
  0.000000000000000E+000
  0.000000000000000E+000
  0.000000000000000E+000
  0.000000000000000E+000
  0.000000000000000E+000
  0.000000000000000E+000
  0.000000000000000E+000
  0.000000000000000E+000
  0.000000000000000E+000
  0.000000000000000E+000
  0.000000000000000E+000
  0.000000000000000E+000
  0.000000000000000E+000
  0.000000000000000E+000
  0.000000000000000E+000
  0.000000000000000E+000
  0.000000000000000E+000
  0.000000000000000E+000
  0.000000000000000E+000
  0.000000000000000E+000
  0.000000000000000E+000
  0.000000000000000E+000
  0.000000000000000E+000
  0.000000000000000E+000
  0.000000000000000E+000
  0.000000000000000E+000
  0.000000000000000E+000
  0.000000000000000E+000
  0.000000000000000E+000
  0.000000000000000E+000
  0.000000000000000E+000
  0.000000000000000E+000
  0.000000000000000E+000
  0.000000000000000E+000
  0.000000000000000E+000
  0.000000000000000E+000
  0.000000000000000E+000
  0.000000000000000E+000
  0.000000000000000E+000
  0.000000000000000E+000
  0.000000000000000E+000
  0.000000000000000E+000
  0.000000000000000E+000
  0.000000000000000E+000
  0.000000000000000E+000
  0.000000000000000E+000
  0.000000000000000E+000
  0.000000000000000E+000
  0.000000000000000E+000
  0.000000000000000E+000
  0.000000000000000E+000
  0.000000000000000E+000
  0.000000000000000E+000
  0.000000000000000E+000
  0.000000000000000E+000
  0.000000000000000E+000
  0.000000000000000E+000
  0.000000000000000E+000
  0.000000000000000E+000
  0.000000000000000E+000
  0.000000000000000E+000
  0.000000000000000E+000
  0.000000000000000E+000
  0.000000000000000E+000
  0.000000000000000E+000
  0.000000000000000E+000
  0.000000000000000E+000
  0.000000000000000E+000
  0.000000000000000E+000
  0.000000000000000E+000
  0.000000000000000E+000
  0.000000000000000E+000
  0.000000000000000E+000
  0.000000000000000E+000
  0.000000000000000E+000
  0.000000000000000E+000
  0.000000000000000E+000
  0.000000000000000E+000
  0.000000000000000E+000
  0.000000000000000E+000
  0.000000000000000E+000
  0.000000000000000E+000
  0.000000000000000E+000
  0.000000000000000E+000
  0.000000000000000E+000
  0.000000000000000E+000
  0.000000000000000E+000
  0.000000000000000E+000
  0.000000000000000E+000
  0.000000000000000E+000
  0.000000000000000E+000
  0.000000000000000E+000
  0.000000000000000E+000
  0.000000000000000E+000
  0.000000000000000E+000
  0.000000000000000E+000
  0.000000000000000E+000
  0.000000000000000E+000
  0.000000000000000E+000
  0.000000000000000E+000
  0.000000000000000E+000
  0.000000000000000E+000
  0.000000000000000E+000
  0.000000000000000E+000
  0.000000000000000E+000
  0.000000000000000E+000
  0.000000000000000E+000
  0.000000000000000E+000
  0.000000000000000E+000
  0.000000000000000E+000
  0.000000000000000E+000
  0.000000000000000E+000
  0.000000000000000E+000
  0.000000000000000E+000
  0.000000000000000E+000
  0.000000000000000E+000
  0.000000000000000E+000
  0.000000000000000E+000
  0.000000000000000E+000
  0.000000000000000E+000
  0.000000000000000E+000
  0.000000000000000E+000
  0.000000000000000E+000
  0.000000000000000E+000
  0.000000000000000E+000
  0.000000000000000E+000
  0.000000000000000E+000
  0.000000000000000E+000
  0.000000000000000E+000
  0.000000000000000E+000
  0.000000000000000E+000
  0.000000000000000E+000
  0.000000000000000E+000
  0.000000000000000E+000
  0.000000000000000E+000
  0.000000000000000E+000
  0.000000000000000E+000
  0.000000000000000E+000
  0.000000000000000E+000
  0.000000000000000E+000
  0.000000000000000E+000
  0.000000000000000E+000
  0.000000000000000E+000
  0.000000000000000E+000
  0.000000000000000E+000
  0.000000000000000E+000
  0.000000000000000E+000
  0.000000000000000E+000
  0.000000000000000E+000
  0.000000000000000E+000
  0.000000000000000E+000
  0.000000000000000E+000
  0.000000000000000E+000
  0.000000000000000E+000
  0.000000000000000E+000
  0.000000000000000E+000
  0.000000000000000E+000
  0.000000000000000E+000
  0.000000000000000E+000
  0.000000000000000E+000
  0.000000000000000E+000
  0.000000000000000E+000
  0.000000000000000E+000
  0.000000000000000E+000
  0.000000000000000E+000
  0.000000000000000E+000
  0.000000000000000E+000
  0.000000000000000E+000
  0.000000000000000E+000
  0.000000000000000E+000
  0.000000000000000E+000
  0.000000000000000E+000
  0.000000000000000E+000
  0.000000000000000E+000
  0.000000000000000E+000
  0.000000000000000E+000
  0.000000000000000E+000
  0.000000000000000E+000
  0.000000000000000E+000
  0.000000000000000E+000
  0.000000000000000E+000
  0.000000000000000E+000
  0.000000000000000E+000
  0.000000000000000E+000
  0.000000000000000E+000
  0.000000000000000E+000
  0.000000000000000E+000
  0.000000000000000E+000
  0.000000000000000E+000
  0.000000000000000E+000
  0.000000000000000E+000
  0.000000000000000E+000
  0.000000000000000E+000
  0.000000000000000E+000
  0.000000000000000E+000
  0.000000000000000E+000
  0.000000000000000E+000
  0.000000000000000E+000
  0.000000000000000E+000
  0.000000000000000E+000
  0.000000000000000E+000
  0.000000000000000E+000
  0.000000000000000E+000
  0.000000000000000E+000
  0.000000000000000E+000
  0.000000000000000E+000
  0.000000000000000E+000
  0.000000000000000E+000
  0.000000000000000E+000
  0.000000000000000E+000
  0.000000000000000E+000
  0.000000000000000E+000
  0.000000000000000E+000
  0.000000000000000E+000
  0.000000000000000E+000
  0.000000000000000E+000
  0.000000000000000E+000
  0.000000000000000E+000
  0.000000000000000E+000
  0.000000000000000E+000
  0.000000000000000E+000
  0.000000000000000E+000
  0.000000000000000E+000
  0.000000000000000E+000
  0.000000000000000E+000
  0.000000000000000E+000
  0.000000000000000E+000
  0.000000000000000E+000
  0.000000000000000E+000
  0.000000000000000E+000
  0.000000000000000E+000
  0.000000000000000E+000
  0.000000000000000E+000
  0.000000000000000E+000
  0.000000000000000E+000
  0.000000000000000E+000
  0.000000000000000E+000
  0.000000000000000E+000
  0.000000000000000E+000
  0.000000000000000E+000
  0.000000000000000E+000
  0.000000000000000E+000
  0.000000000000000E+000
  0.000000000000000E+000
  0.000000000000000E+000
  0.000000000000000E+000
  0.000000000000000E+000
  0.000000000000000E+000
  0.000000000000000E+000
  0.000000000000000E+000
  0.000000000000000E+000
  0.000000000000000E+000
  0.000000000000000E+000
  0.000000000000000E+000
  0.000000000000000E+000
  0.000000000000000E+000
  0.000000000000000E+000
  0.000000000000000E+000
  0.000000000000000E+000
  0.000000000000000E+000
  0.000000000000000E+000
  0.000000000000000E+000
  0.000000000000000E+000
SCALARS elementIsPlast double 
LOOKUP_TABLE default
  0.000000000000000E+000
  0.000000000000000E+000
  0.000000000000000E+000
  0.000000000000000E+000
  0.000000000000000E+000
  0.000000000000000E+000
  0.000000000000000E+000
  0.000000000000000E+000
  0.000000000000000E+000
  0.000000000000000E+000
  0.000000000000000E+000
  0.000000000000000E+000
  0.000000000000000E+000
  0.000000000000000E+000
  0.000000000000000E+000
  0.000000000000000E+000
  0.000000000000000E+000
  0.000000000000000E+000
  0.000000000000000E+000
  0.000000000000000E+000
  0.000000000000000E+000
  0.000000000000000E+000
  0.000000000000000E+000
  0.000000000000000E+000
  0.000000000000000E+000
  0.000000000000000E+000
  0.000000000000000E+000
  0.000000000000000E+000
  0.000000000000000E+000
  0.000000000000000E+000
  0.000000000000000E+000
  0.000000000000000E+000
  0.000000000000000E+000
  0.000000000000000E+000
  0.000000000000000E+000
  0.000000000000000E+000
  0.000000000000000E+000
  0.000000000000000E+000
  0.000000000000000E+000
  0.000000000000000E+000
  0.000000000000000E+000
  0.000000000000000E+000
  0.000000000000000E+000
  0.000000000000000E+000
  0.000000000000000E+000
  0.000000000000000E+000
  0.000000000000000E+000
  0.000000000000000E+000
  0.000000000000000E+000
  0.000000000000000E+000
  0.000000000000000E+000
  0.000000000000000E+000
  0.000000000000000E+000
  0.000000000000000E+000
  0.000000000000000E+000
  0.000000000000000E+000
  0.000000000000000E+000
  0.000000000000000E+000
  0.000000000000000E+000
  0.000000000000000E+000
  0.000000000000000E+000
  0.000000000000000E+000
  0.000000000000000E+000
  0.000000000000000E+000
  0.000000000000000E+000
  0.000000000000000E+000
  0.000000000000000E+000
  0.000000000000000E+000
  0.000000000000000E+000
  0.000000000000000E+000
  0.000000000000000E+000
  0.000000000000000E+000
  0.000000000000000E+000
  0.000000000000000E+000
  0.000000000000000E+000
  0.000000000000000E+000
  0.000000000000000E+000
  0.000000000000000E+000
  0.000000000000000E+000
  0.000000000000000E+000
  0.000000000000000E+000
  0.000000000000000E+000
  0.000000000000000E+000
  0.000000000000000E+000
  0.000000000000000E+000
  0.000000000000000E+000
  0.000000000000000E+000
  0.000000000000000E+000
  0.000000000000000E+000
  0.000000000000000E+000
  0.000000000000000E+000
  0.000000000000000E+000
  0.000000000000000E+000
  0.000000000000000E+000
  0.000000000000000E+000
  0.000000000000000E+000
  0.000000000000000E+000
  0.000000000000000E+000
  0.000000000000000E+000
  0.000000000000000E+000
  0.000000000000000E+000
  0.000000000000000E+000
  0.000000000000000E+000
  0.000000000000000E+000
  0.000000000000000E+000
  0.000000000000000E+000
  0.000000000000000E+000
  0.000000000000000E+000
  0.000000000000000E+000
  0.000000000000000E+000
  0.000000000000000E+000
  0.000000000000000E+000
  0.000000000000000E+000
  0.000000000000000E+000
  0.000000000000000E+000
  0.000000000000000E+000
  0.000000000000000E+000
  0.000000000000000E+000
  0.000000000000000E+000
  0.000000000000000E+000
  0.000000000000000E+000
  0.000000000000000E+000
  0.000000000000000E+000
  0.000000000000000E+000
  0.000000000000000E+000
  0.000000000000000E+000
  0.000000000000000E+000
  0.000000000000000E+000
  0.000000000000000E+000
  0.000000000000000E+000
  0.000000000000000E+000
  0.000000000000000E+000
  0.000000000000000E+000
  0.000000000000000E+000
  0.000000000000000E+000
  0.000000000000000E+000
  0.000000000000000E+000
  0.000000000000000E+000
  0.000000000000000E+000
  0.000000000000000E+000
  0.000000000000000E+000
  0.000000000000000E+000
  0.000000000000000E+000
  0.000000000000000E+000
  0.000000000000000E+000
  0.000000000000000E+000
  0.000000000000000E+000
  0.000000000000000E+000
  0.000000000000000E+000
  0.000000000000000E+000
  0.000000000000000E+000
  0.000000000000000E+000
  0.000000000000000E+000
  0.000000000000000E+000
  0.000000000000000E+000
  0.000000000000000E+000
  0.000000000000000E+000
  0.000000000000000E+000
  0.000000000000000E+000
  0.000000000000000E+000
  0.000000000000000E+000
  0.000000000000000E+000
  0.000000000000000E+000
  0.000000000000000E+000
  0.000000000000000E+000
  0.000000000000000E+000
  0.000000000000000E+000
  0.000000000000000E+000
  0.000000000000000E+000
  0.000000000000000E+000
  0.000000000000000E+000
  0.000000000000000E+000
  0.000000000000000E+000
  0.000000000000000E+000
  0.000000000000000E+000
  0.000000000000000E+000
  0.000000000000000E+000
  0.000000000000000E+000
  0.000000000000000E+000
  0.000000000000000E+000
  0.000000000000000E+000
  0.000000000000000E+000
  0.000000000000000E+000
  0.000000000000000E+000
  0.000000000000000E+000
  0.000000000000000E+000
  0.000000000000000E+000
  0.000000000000000E+000
  0.000000000000000E+000
  0.000000000000000E+000
  0.000000000000000E+000
  0.000000000000000E+000
  0.000000000000000E+000
  0.000000000000000E+000
  0.000000000000000E+000
  0.000000000000000E+000
  0.000000000000000E+000
  0.000000000000000E+000
  0.000000000000000E+000
  0.000000000000000E+000
  0.000000000000000E+000
  0.000000000000000E+000
  0.000000000000000E+000
  0.000000000000000E+000
  0.000000000000000E+000
  0.000000000000000E+000
  0.000000000000000E+000
  0.000000000000000E+000
  0.000000000000000E+000
  0.000000000000000E+000
  0.000000000000000E+000
  0.000000000000000E+000
  0.000000000000000E+000
  0.000000000000000E+000
  0.000000000000000E+000
  0.000000000000000E+000
  0.000000000000000E+000
  0.000000000000000E+000
  0.000000000000000E+000
  0.000000000000000E+000
  0.000000000000000E+000
  0.000000000000000E+000
  0.000000000000000E+000
  0.000000000000000E+000
  0.000000000000000E+000
  0.000000000000000E+000
  0.000000000000000E+000
  0.000000000000000E+000
  0.000000000000000E+000
  0.000000000000000E+000
  0.000000000000000E+000
  0.000000000000000E+000
  0.000000000000000E+000
  0.000000000000000E+000
  0.000000000000000E+000
  0.000000000000000E+000
  0.000000000000000E+000
  0.000000000000000E+000
  0.000000000000000E+000
  0.000000000000000E+000
  0.000000000000000E+000
  0.000000000000000E+000
  0.000000000000000E+000
  0.000000000000000E+000
  0.000000000000000E+000
  0.000000000000000E+000
  0.000000000000000E+000
  0.000000000000000E+000
  0.000000000000000E+000
  0.000000000000000E+000
  0.000000000000000E+000
  0.000000000000000E+000
  0.000000000000000E+000
  0.000000000000000E+000
  0.000000000000000E+000
  0.000000000000000E+000
  0.000000000000000E+000
  0.000000000000000E+000
  0.000000000000000E+000
  0.000000000000000E+000
  0.000000000000000E+000
  0.000000000000000E+000
  0.000000000000000E+000
  0.000000000000000E+000
  0.000000000000000E+000
  0.000000000000000E+000
  0.000000000000000E+000
  0.000000000000000E+000
  0.000000000000000E+000
  0.000000000000000E+000
  0.000000000000000E+000
  0.000000000000000E+000
  0.000000000000000E+000
  0.000000000000000E+000
  0.000000000000000E+000
  0.000000000000000E+000
  0.000000000000000E+000
  0.000000000000000E+000
  0.000000000000000E+000
  0.000000000000000E+000
  0.000000000000000E+000
  0.000000000000000E+000
  0.000000000000000E+000
  0.000000000000000E+000
  0.000000000000000E+000
  0.000000000000000E+000
  0.000000000000000E+000
  0.000000000000000E+000
  0.000000000000000E+000
  0.000000000000000E+000
  0.000000000000000E+000
  0.000000000000000E+000
  0.000000000000000E+000
  0.000000000000000E+000
  0.000000000000000E+000
  0.000000000000000E+000
  0.000000000000000E+000
  0.000000000000000E+000
  0.000000000000000E+000
  0.000000000000000E+000
  0.000000000000000E+000
  0.000000000000000E+000
  0.000000000000000E+000
  0.000000000000000E+000
  0.000000000000000E+000
  0.000000000000000E+000
  0.000000000000000E+000
  0.000000000000000E+000
  0.000000000000000E+000
  0.000000000000000E+000
  0.000000000000000E+000
  0.000000000000000E+000
  0.000000000000000E+000
  0.000000000000000E+000
  0.000000000000000E+000
  0.000000000000000E+000
  0.000000000000000E+000
  0.000000000000000E+000
  0.000000000000000E+000
  0.000000000000000E+000
  0.000000000000000E+000
  0.000000000000000E+000
  0.000000000000000E+000
  0.000000000000000E+000
  0.000000000000000E+000
  0.000000000000000E+000
  0.000000000000000E+000
  0.000000000000000E+000
  0.000000000000000E+000
  0.000000000000000E+000
  0.000000000000000E+000
  0.000000000000000E+000
  0.000000000000000E+000
  0.000000000000000E+000
  0.000000000000000E+000
  0.000000000000000E+000
  0.000000000000000E+000
  0.000000000000000E+000
  0.000000000000000E+000
  0.000000000000000E+000
  0.000000000000000E+000
  0.000000000000000E+000
  0.000000000000000E+000
  0.000000000000000E+000
  0.000000000000000E+000
  0.000000000000000E+000
  0.000000000000000E+000
  0.000000000000000E+000
  0.000000000000000E+000
  0.000000000000000E+000
  0.000000000000000E+000
  0.000000000000000E+000
  0.000000000000000E+000
  0.000000000000000E+000
  0.000000000000000E+000
  0.000000000000000E+000
  0.000000000000000E+000
  0.000000000000000E+000
  0.000000000000000E+000
  0.000000000000000E+000
  0.000000000000000E+000
  0.000000000000000E+000
  0.000000000000000E+000
  0.000000000000000E+000
  0.000000000000000E+000
  0.000000000000000E+000
  0.000000000000000E+000
  0.000000000000000E+000
  0.000000000000000E+000
  0.000000000000000E+000
  0.000000000000000E+000
  0.000000000000000E+000
  0.000000000000000E+000
  0.000000000000000E+000
  0.000000000000000E+000
  0.000000000000000E+000
  0.000000000000000E+000
  0.000000000000000E+000
  0.000000000000000E+000
  0.000000000000000E+000
  0.000000000000000E+000
  0.000000000000000E+000
  0.000000000000000E+000
  0.000000000000000E+000
  0.000000000000000E+000
  0.000000000000000E+000
  0.000000000000000E+000
  0.000000000000000E+000
  0.000000000000000E+000
  0.000000000000000E+000
  0.000000000000000E+000
  0.000000000000000E+000
  0.000000000000000E+000
  0.000000000000000E+000
  0.000000000000000E+000
  0.000000000000000E+000
  0.000000000000000E+000
  0.000000000000000E+000
  0.000000000000000E+000
  0.000000000000000E+000
  0.000000000000000E+000
  0.000000000000000E+000
  0.000000000000000E+000
  0.000000000000000E+000
  0.000000000000000E+000
  0.000000000000000E+000
  0.000000000000000E+000
  0.000000000000000E+000
  0.000000000000000E+000
  0.000000000000000E+000
  0.000000000000000E+000
  0.000000000000000E+000
  0.000000000000000E+000
  0.000000000000000E+000
  0.000000000000000E+000
  0.000000000000000E+000
  0.000000000000000E+000
  0.000000000000000E+000
  0.000000000000000E+000
  0.000000000000000E+000
  0.000000000000000E+000
  0.000000000000000E+000
  0.000000000000000E+000
  0.000000000000000E+000
  0.000000000000000E+000
  0.000000000000000E+000
  0.000000000000000E+000
  0.000000000000000E+000
  0.000000000000000E+000
  0.000000000000000E+000
  0.000000000000000E+000
  0.000000000000000E+000
  0.000000000000000E+000
  0.000000000000000E+000
  0.000000000000000E+000
  0.000000000000000E+000
  0.000000000000000E+000
  0.000000000000000E+000
  0.000000000000000E+000
  0.000000000000000E+000
  0.000000000000000E+000
  0.000000000000000E+000
  0.000000000000000E+000
  0.000000000000000E+000
  0.000000000000000E+000
  0.000000000000000E+000
  0.000000000000000E+000
  0.000000000000000E+000
  0.000000000000000E+000
  0.000000000000000E+000
SCALARS poroL double 
LOOKUP_TABLE default
  0.156309333804095     
  0.156284552164095     
  0.156254819147732     
  0.156225040404017     
  0.156199792048780     
  0.156183105638709     
  0.156171477698983     
  0.156161943650556     
  0.156153666918513     
  0.156146206122145     
  0.156139256219463     
  0.156132546529005     
  0.156125763732828     
  0.156118437616513     
  0.156109247672230     
  0.156240007508649     
  0.156221624314546     
  0.156203354464232     
  0.156189498374275     
  0.156179420532776     
  0.156168863432828     
  0.156158645300270     
  0.156149754847824     
  0.156141856807149     
  0.156134673725262     
  0.156127972908519     
  0.156121540940161     
  0.156115157606487     
  0.156108536417637     
  0.156101953995310     
  0.156193701692817     
  0.156181728583800     
  0.156176031719514     
  0.156169629252294     
  0.156161501587426     
  0.156152936226748     
  0.156144525958916     
  0.156136618537195     
  0.156129370888434     
  0.156122685697280     
  0.156116436251849     
  0.156110496525508     
  0.156104755730735     
  0.156099225862931     
  0.156094063524866     
  0.156170113815415     
  0.156163796904715     
  0.156157350051853     
  0.156150903336168     
  0.156144051972512     
  0.156136859496087     
  0.156129702767755     
  0.156122826211297     
  0.156116348834123     
  0.156110295751729     
  0.156104627486849     
  0.156099296381410     
  0.156094287584463     
  0.156089649747194     
  0.156085532115978     
  0.156151046026755     
  0.156144933962452     
  0.156139004536363     
  0.156133016829978     
  0.156126926706533     
  0.156120746425378     
  0.156114595883890     
  0.156108624406334     
  0.156102931050707     
  0.156097562739224     
  0.156092533177178     
  0.156087847686782     
  0.156083530244103     
  0.156079645917233     
  0.156076309479299     
  0.156131579984136     
  0.156126088879391     
  0.156120716296341     
  0.156115372551805     
  0.156110008391272     
  0.156104644169906     
  0.156099340280514     
  0.156094177047500     
  0.156089227359855     
  0.156084542417738     
  0.156080156703509     
  0.156076100923755     
  0.156072416572021     
  0.156069167173951     
  0.156066442602055     
  0.156111938504875     
  0.156107193974148     
  0.156102501470609     
  0.156097832981284     
  0.156093178711681     
  0.156088554298336     
  0.156084000290496     
  0.156079569340137     
  0.156075314892714     
  0.156071284057260     
  0.156067517435617     
  0.156064054615270     
  0.156060941273711     
  0.156058234604200     
  0.156056004480964     
  0.156092289600073     
  0.156088324918961     
  0.156084346515849     
  0.156080368394766     
  0.156076403050064     
  0.156072472379361     
  0.156068608944441     
  0.156064852832203     
  0.156061246472924     
  0.156057831207049     
  0.156054646721350     
  0.156051733048984     
  0.156049133618508     
  0.156046897408057     
  0.156045078735238     
  0.156072759552041     
  0.156069548615477     
  0.156066276828878     
  0.156062978052364     
  0.156059678845866     
  0.156056405933545     
  0.156053189551612     
  0.156050063316437     
  0.156047062704366     
  0.156044223603705     
  0.156041581927876     
  0.156039174282027     
  0.156037039027366     
  0.156035216811366     
  0.156033749741569     
  0.156053424825480     
  0.156050917881150     
  0.156048321235079     
  0.156045676379345     
  0.156043015877265     
  0.156040368764306     
  0.156037763675894     
  0.156035230056363     
  0.156032798169474     
  0.156030498776525     
  0.156028362998390     
  0.156026422481241     
  0.156024709606965     
  0.156023257309555     
  0.156022098093358     
  0.156034325553799     
  0.156032465380500     
  0.156030502892600     
  0.156028479435966     
  0.156026427977651     
  0.156024376800506     
  0.156022352099812     
  0.156020379442517     
  0.156018484398141     
  0.156016692726265     
  0.156015030422689     
  0.156013523726616     
  0.156012199008344     
  0.156011082350860     
  0.156010198645125     
  0.156015474075801     
  0.156014205448624     
  0.156012835097650     
  0.156011399458645     
  0.156009927944174     
  0.156008445467199     
  0.156006974419855     
  0.156005536002914     
  0.156004150988188     
  0.156002840086999     
  0.156001624079960     
  0.156000523787231     
  0.155999559869834     
  0.155998752398363     
  0.155998120125313     
  0.155996861886293     
  0.155996136842324     
  0.155995320942438     
  0.155994442704050     
  0.155993525269484     
  0.155992588119808     
  0.155991648519447     
  0.155990722577754     
  0.155989825928953     
  0.155988974098069     
  0.155988182634690     
  0.155987467071703     
  0.155986842729280     
  0.155986324358053     
  0.155985925614057     
  0.155978464872026     
  0.155978245825554     
  0.155977954406259     
  0.155977609280044     
  0.155977225457488     
  0.155976815456213     
  0.155976390314678     
  0.155975960363351     
  0.155975535729936     
  0.155975126605615     
  0.155974743321132     
  0.155974396280115     
  0.155974095783711     
  0.155973851768023     
  0.155973673472471     
  0.155960247459334     
  0.155960509106789     
  0.155960722098441     
  0.155960893970975     
  0.155961030329532     
  0.155961135635795     
  0.155961213884312     
  0.155961269096569     
  0.155961305612316     
  0.155961328197430     
  0.155961342010779     
  0.155961352479443     
  0.155961365127583     
  0.155961385395928     
  0.155961418481588     
  0.155942166025719     
  0.155942896571441     
  0.155943605252607     
  0.155944287595697     
  0.155944938925889     
  0.155945554906948     
  0.155946131951796     
  0.155946667455532     
  0.155947159846415     
  0.155947608486385     
  0.155948013475365     
  0.155948375422203     
  0.155948695242231     
  0.155948974031428     
  0.155949213053760     
  0.155924171823884     
  0.155925373827771     
  0.155926581822385     
  0.155927778663690     
  0.155928948787240     
  0.155930078596085     
  0.155931156655009     
  0.155932173663767     
  0.155933122230755     
  0.155933996506440     
  0.155934791758175     
  0.155935503974646     
  0.155936129581623     
  0.155936665334646     
  0.155937108432233     
  0.155906213572563     
  0.155907904618228     
  0.155909628636519     
  0.155911355233510     
  0.155913057507736     
  0.155914712368612     
  0.155916300541087     
  0.155917806253121     
  0.155919216666553     
  0.155920521155854     
  0.155921710560524     
  0.155922776538225     
  0.155923711131383     
  0.155924506634227     
  0.155925155813548     
  0.155888239811289     
  0.155890453158601     
  0.155892723635865     
  0.155895006962741     
  0.155897264528539     
  0.155899463721132     
  0.155901577740790     
  0.155903584932754     
  0.155905467761767     
  0.155907211602961     
  0.155908803539413     
  0.155910231347408     
  0.155911482824223     
  0.155912545574879     
  0.155913407325460     
  0.155870201081442     
  0.155872986483458     
  0.155875848268569     
  0.155878727408751     
  0.155881573205189     
  0.155884343709156     
  0.155887005297970     
  0.155889531512481     
  0.155891901386933     
  0.155894097552768     
  0.155896104395315     
  0.155897906512395     
  0.155899487683004     
  0.155900830502993     
  0.155901916778845     
  0.155852051980972     
  0.155855476913363     
  0.155858990190276     
  0.155862516718791     
  0.155865993249165     
  0.155869368958410     
  0.155872604649276     
  0.155875670829104     
  0.155878545092582     
  0.155881209252104     
  0.155883646603333     
  0.155885839647024     
  0.155887768534551     
  0.155889410453841     
  0.155890740090769     
  0.155833753149290     
  0.155837904840384     
  0.155842146532872     
  0.155846384959647     
  0.155850543723965     
  0.155854564049052     
  0.155858403259960     
  0.155862031616831     
  0.155865428280432     
  0.155868577084783     
  0.155871462605065     
  0.155874066876762     
  0.155876367089382     
  0.155878334562792     
  0.155879935250152     
  0.155815273289744     
  0.155820262200210     
  0.155825328216716     
  0.155830356510845     
  0.155835256872167     
  0.155839964387265     
  0.155844436407085     
  0.155848647238662     
  0.155852581997474     
  0.155856230581229     
  0.155859582231922     
  0.155862620953398     
  0.155865322100510     
  0.155867650655567     
  0.155869561665479     
  0.155796591479945     
  0.155802557364499     
  0.155808566186426     
  0.155814476220133     
  0.155820183143442     
  0.155825619642521     
  0.155830749025565     
  0.155835556143154     
  0.155840038208481     
  0.155844196655134     
  0.155848030089467     
  0.155851528092089     
  0.155854666173120     
  0.155857402639794     
  0.155859678690308     
  0.155777700363906     
  0.155784823025750     
  0.155791921247888     
  0.155798818438808     
  0.155805397791762     
  0.155811597609246     
  0.155817397326981     
  0.155822801829039     
  0.155827828426881     
  0.155832496963285     
  0.155836821600400     
  0.155840803014826     
  0.155844420476971     
  0.155847626069591     
  0.155850343007825     
  0.155758611859623     
  0.155767130612382     
  0.155775500881259     
  0.155783500539052     
  0.155791008961083     
  0.155797987710170     
  0.155804449457721     
  0.155810432007155     
  0.155815981788043     
  0.155821144483365     
  0.155825957680972     
  0.155830441292817     
  0.155834586186954     
  0.155838340413749     
  0.155841604406705     
  0.155739369521132     
  0.155749620722587     
  0.155759489630588     
  0.155768702282957     
  0.155777165394679     
  0.155784901682620     
  0.155791984020083     
  0.155798496620845     
  0.155804522887668     
  0.155810140513836     
  0.155815418065977     
  0.155820408896721     
  0.155825128972899     
  0.155829535815787     
  0.155833497985685     
  0.155720087351824     
  0.155732573755525     
  0.155744205924367     
  0.155754687721994     
  0.155764054561980     
  0.155772468223110     
  0.155780084984030     
  0.155787044513580     
  0.155793470162993     
  0.155799473554119     
  0.155805159001997     
  0.155810624358066     
  0.155815956888375     
  0.155821139712055     
  0.155826032899215     
  0.155701071225155     
  0.155716617552491     
  0.155730190043517     
  0.155741784817392     
  0.155751884221094     
  0.155760817917347     
  0.155768832438657     
  0.155776118893056     
  0.155782835399519     
  0.155789122730907     
  0.155795117524976     
  0.155800966786609     
  0.155806840465931     
  0.155812978653933     
  0.155819133048340     
  0.155683753948792     
  0.155703208096915     
  0.155718045628695     
  0.155730322435810     
  0.155740839076949     
  0.155750060074402     
  0.155758290208452     
  0.155765752255213     
  0.155772624696332     
  0.155779065242190     
  0.155785230278090     
  0.155791298061492     
  0.155797511853007     
  0.155804269801502     
  0.155812732732880     
