# vtk DataFile Version 3.0
vtk output
ASCII
DATASET UNSTRUCTURED_GRID
POINTS       496 double 
  0.00000000E+00  3.00000000E+02  0.00000000E+00
  0.00000000E+00  2.80000000E+02  0.00000000E+00
  0.00000000E+00  2.60000000E+02  0.00000000E+00
  0.00000000E+00  2.40000000E+02  0.00000000E+00
  0.00000000E+00  2.20000000E+02  0.00000000E+00
  0.00000000E+00  2.00000000E+02  0.00000000E+00
  0.00000000E+00  1.80000000E+02  0.00000000E+00
  0.00000000E+00  1.60000000E+02  0.00000000E+00
  0.00000000E+00  1.40000000E+02  0.00000000E+00
  0.00000000E+00  1.20000000E+02  0.00000000E+00
  0.00000000E+00  1.00000000E+02  0.00000000E+00
  0.00000000E+00  8.00000000E+01  0.00000000E+00
  0.00000000E+00  6.00000000E+01  0.00000000E+00
  0.00000000E+00  4.00000000E+01  0.00000000E+00
  0.00000000E+00  2.00000000E+01  0.00000000E+00
  0.00000000E+00  4.99600361E-14  0.00000000E+00
  2.00000000E+01  3.00000000E+02  0.00000000E+00
  2.00000000E+01  2.80000000E+02  0.00000000E+00
  2.00000000E+01  2.60000000E+02  0.00000000E+00
  2.00000000E+01  2.40000000E+02  0.00000000E+00
  2.00000000E+01  2.20000000E+02  0.00000000E+00
  2.00000000E+01  2.00000000E+02  0.00000000E+00
  2.00000000E+01  1.80000000E+02  0.00000000E+00
  2.00000000E+01  1.60000000E+02  0.00000000E+00
  2.00000000E+01  1.40000000E+02  0.00000000E+00
  2.00000000E+01  1.20000000E+02  0.00000000E+00
  2.00000000E+01  1.00000000E+02  0.00000000E+00
  2.00000000E+01  8.00000000E+01  0.00000000E+00
  2.00000000E+01  6.00000000E+01  0.00000000E+00
  2.00000000E+01  4.00000000E+01  0.00000000E+00
  2.00000000E+01  2.00000000E+01  0.00000000E+00
  2.00000000E+01  4.99600361E-14  0.00000000E+00
  4.00000000E+01  3.00000000E+02  0.00000000E+00
  4.00000000E+01  2.80000000E+02  0.00000000E+00
  4.00000000E+01  2.60000000E+02  0.00000000E+00
  4.00000000E+01  2.40000000E+02  0.00000000E+00
  4.00000000E+01  2.20000000E+02  0.00000000E+00
  4.00000000E+01  2.00000000E+02  0.00000000E+00
  4.00000000E+01  1.80000000E+02  0.00000000E+00
  4.00000000E+01  1.60000000E+02  0.00000000E+00
  4.00000000E+01  1.40000000E+02  0.00000000E+00
  4.00000000E+01  1.20000000E+02  0.00000000E+00
  4.00000000E+01  1.00000000E+02  0.00000000E+00
  4.00000000E+01  8.00000000E+01  0.00000000E+00
  4.00000000E+01  6.00000000E+01  0.00000000E+00
  4.00000000E+01  4.00000000E+01  0.00000000E+00
  4.00000000E+01  2.00000000E+01  0.00000000E+00
  4.00000000E+01  4.99600361E-14  0.00000000E+00
  6.00000000E+01  3.00000000E+02  0.00000000E+00
  6.00000000E+01  2.80000000E+02  0.00000000E+00
  6.00000000E+01  2.60000000E+02  0.00000000E+00
  6.00000000E+01  2.40000000E+02  0.00000000E+00
  6.00000000E+01  2.20000000E+02  0.00000000E+00
  6.00000000E+01  2.00000000E+02  0.00000000E+00
  6.00000000E+01  1.80000000E+02  0.00000000E+00
  6.00000000E+01  1.60000000E+02  0.00000000E+00
  6.00000000E+01  1.40000000E+02  0.00000000E+00
  6.00000000E+01  1.20000000E+02  0.00000000E+00
  6.00000000E+01  1.00000000E+02  0.00000000E+00
  6.00000000E+01  8.00000000E+01  0.00000000E+00
  6.00000000E+01  6.00000000E+01  0.00000000E+00
  6.00000000E+01  4.00000000E+01  0.00000000E+00
  6.00000000E+01  2.00000000E+01  0.00000000E+00
  6.00000000E+01  4.99600361E-14  0.00000000E+00
  8.00000000E+01  3.00000000E+02  0.00000000E+00
  8.00000000E+01  2.80000000E+02  0.00000000E+00
  8.00000000E+01  2.60000000E+02  0.00000000E+00
  8.00000000E+01  2.40000000E+02  0.00000000E+00
  8.00000000E+01  2.20000000E+02  0.00000000E+00
  8.00000000E+01  2.00000000E+02  0.00000000E+00
  8.00000000E+01  1.80000000E+02  0.00000000E+00
  8.00000000E+01  1.60000000E+02  0.00000000E+00
  8.00000000E+01  1.40000000E+02  0.00000000E+00
  8.00000000E+01  1.20000000E+02  0.00000000E+00
  8.00000000E+01  1.00000000E+02  0.00000000E+00
  8.00000000E+01  8.00000000E+01  0.00000000E+00
  8.00000000E+01  6.00000000E+01  0.00000000E+00
  8.00000000E+01  4.00000000E+01  0.00000000E+00
  8.00000000E+01  2.00000000E+01  0.00000000E+00
  8.00000000E+01  4.99600361E-14  0.00000000E+00
  1.00000000E+02  3.00000000E+02  0.00000000E+00
  1.00000000E+02  2.80000000E+02  0.00000000E+00
  1.00000000E+02  2.60000000E+02  0.00000000E+00
  1.00000000E+02  2.40000000E+02  0.00000000E+00
  1.00000000E+02  2.20000000E+02  0.00000000E+00
  1.00000000E+02  2.00000000E+02  0.00000000E+00
  1.00000000E+02  1.80000000E+02  0.00000000E+00
  1.00000000E+02  1.60000000E+02  0.00000000E+00
  1.00000000E+02  1.40000000E+02  0.00000000E+00
  1.00000000E+02  1.20000000E+02  0.00000000E+00
  1.00000000E+02  1.00000000E+02  0.00000000E+00
  1.00000000E+02  8.00000000E+01  0.00000000E+00
  1.00000000E+02  6.00000000E+01  0.00000000E+00
  1.00000000E+02  4.00000000E+01  0.00000000E+00
  1.00000000E+02  2.00000000E+01  0.00000000E+00
  1.00000000E+02  4.99600361E-14  0.00000000E+00
  1.20000000E+02  3.00000000E+02  0.00000000E+00
  1.20000000E+02  2.80000000E+02  0.00000000E+00
  1.20000000E+02  2.60000000E+02  0.00000000E+00
  1.20000000E+02  2.40000000E+02  0.00000000E+00
  1.20000000E+02  2.20000000E+02  0.00000000E+00
  1.20000000E+02  2.00000000E+02  0.00000000E+00
  1.20000000E+02  1.80000000E+02  0.00000000E+00
  1.20000000E+02  1.60000000E+02  0.00000000E+00
  1.20000000E+02  1.40000000E+02  0.00000000E+00
  1.20000000E+02  1.20000000E+02  0.00000000E+00
  1.20000000E+02  1.00000000E+02  0.00000000E+00
  1.20000000E+02  8.00000000E+01  0.00000000E+00
  1.20000000E+02  6.00000000E+01  0.00000000E+00
  1.20000000E+02  4.00000000E+01  0.00000000E+00
  1.20000000E+02  2.00000000E+01  0.00000000E+00
  1.20000000E+02  4.99600361E-14  0.00000000E+00
  1.40000000E+02  3.00000000E+02  0.00000000E+00
  1.40000000E+02  2.80000000E+02  0.00000000E+00
  1.40000000E+02  2.60000000E+02  0.00000000E+00
  1.40000000E+02  2.40000000E+02  0.00000000E+00
  1.40000000E+02  2.20000000E+02  0.00000000E+00
  1.40000000E+02  2.00000000E+02  0.00000000E+00
  1.40000000E+02  1.80000000E+02  0.00000000E+00
  1.40000000E+02  1.60000000E+02  0.00000000E+00
  1.40000000E+02  1.40000000E+02  0.00000000E+00
  1.40000000E+02  1.20000000E+02  0.00000000E+00
  1.40000000E+02  1.00000000E+02  0.00000000E+00
  1.40000000E+02  8.00000000E+01  0.00000000E+00
  1.40000000E+02  6.00000000E+01  0.00000000E+00
  1.40000000E+02  4.00000000E+01  0.00000000E+00
  1.40000000E+02  2.00000000E+01  0.00000000E+00
  1.40000000E+02  4.99600361E-14  0.00000000E+00
  1.60000000E+02  3.00000000E+02  0.00000000E+00
  1.60000000E+02  2.80000000E+02  0.00000000E+00
  1.60000000E+02  2.60000000E+02  0.00000000E+00
  1.60000000E+02  2.40000000E+02  0.00000000E+00
  1.60000000E+02  2.20000000E+02  0.00000000E+00
  1.60000000E+02  2.00000000E+02  0.00000000E+00
  1.60000000E+02  1.80000000E+02  0.00000000E+00
  1.60000000E+02  1.60000000E+02  0.00000000E+00
  1.60000000E+02  1.40000000E+02  0.00000000E+00
  1.60000000E+02  1.20000000E+02  0.00000000E+00
  1.60000000E+02  1.00000000E+02  0.00000000E+00
  1.60000000E+02  8.00000000E+01  0.00000000E+00
  1.60000000E+02  6.00000000E+01  0.00000000E+00
  1.60000000E+02  4.00000000E+01  0.00000000E+00
  1.60000000E+02  2.00000000E+01  0.00000000E+00
  1.60000000E+02  4.99600361E-14  0.00000000E+00
  1.80000000E+02  3.00000000E+02  0.00000000E+00
  1.80000000E+02  2.80000000E+02  0.00000000E+00
  1.80000000E+02  2.60000000E+02  0.00000000E+00
  1.80000000E+02  2.40000000E+02  0.00000000E+00
  1.80000000E+02  2.20000000E+02  0.00000000E+00
  1.80000000E+02  2.00000000E+02  0.00000000E+00
  1.80000000E+02  1.80000000E+02  0.00000000E+00
  1.80000000E+02  1.60000000E+02  0.00000000E+00
  1.80000000E+02  1.40000000E+02  0.00000000E+00
  1.80000000E+02  1.20000000E+02  0.00000000E+00
  1.80000000E+02  1.00000000E+02  0.00000000E+00
  1.80000000E+02  8.00000000E+01  0.00000000E+00
  1.80000000E+02  6.00000000E+01  0.00000000E+00
  1.80000000E+02  4.00000000E+01  0.00000000E+00
  1.80000000E+02  2.00000000E+01  0.00000000E+00
  1.80000000E+02  4.99600361E-14  0.00000000E+00
  2.00000000E+02  3.00000000E+02  0.00000000E+00
  2.00000000E+02  2.80000000E+02  0.00000000E+00
  2.00000000E+02  2.60000000E+02  0.00000000E+00
  2.00000000E+02  2.40000000E+02  0.00000000E+00
  2.00000000E+02  2.20000000E+02  0.00000000E+00
  2.00000000E+02  2.00000000E+02  0.00000000E+00
  2.00000000E+02  1.80000000E+02  0.00000000E+00
  2.00000000E+02  1.60000000E+02  0.00000000E+00
  2.00000000E+02  1.40000000E+02  0.00000000E+00
  2.00000000E+02  1.20000000E+02  0.00000000E+00
  2.00000000E+02  1.00000000E+02  0.00000000E+00
  2.00000000E+02  8.00000000E+01  0.00000000E+00
  2.00000000E+02  6.00000000E+01  0.00000000E+00
  2.00000000E+02  4.00000000E+01  0.00000000E+00
  2.00000000E+02  2.00000000E+01  0.00000000E+00
  2.00000000E+02  4.99600361E-14  0.00000000E+00
  2.20000000E+02  3.00000000E+02  0.00000000E+00
  2.20000000E+02  2.80000000E+02  0.00000000E+00
  2.20000000E+02  2.60000000E+02  0.00000000E+00
  2.20000000E+02  2.40000000E+02  0.00000000E+00
  2.20000000E+02  2.20000000E+02  0.00000000E+00
  2.20000000E+02  2.00000000E+02  0.00000000E+00
  2.20000000E+02  1.80000000E+02  0.00000000E+00
  2.20000000E+02  1.60000000E+02  0.00000000E+00
  2.20000000E+02  1.40000000E+02  0.00000000E+00
  2.20000000E+02  1.20000000E+02  0.00000000E+00
  2.20000000E+02  1.00000000E+02  0.00000000E+00
  2.20000000E+02  8.00000000E+01  0.00000000E+00
  2.20000000E+02  6.00000000E+01  0.00000000E+00
  2.20000000E+02  4.00000000E+01  0.00000000E+00
  2.20000000E+02  2.00000000E+01  0.00000000E+00
  2.20000000E+02  4.99600361E-14  0.00000000E+00
  2.40000000E+02  3.00000000E+02  0.00000000E+00
  2.40000000E+02  2.80000000E+02  0.00000000E+00
  2.40000000E+02  2.60000000E+02  0.00000000E+00
  2.40000000E+02  2.40000000E+02  0.00000000E+00
  2.40000000E+02  2.20000000E+02  0.00000000E+00
  2.40000000E+02  2.00000000E+02  0.00000000E+00
  2.40000000E+02  1.80000000E+02  0.00000000E+00
  2.40000000E+02  1.60000000E+02  0.00000000E+00
  2.40000000E+02  1.40000000E+02  0.00000000E+00
  2.40000000E+02  1.20000000E+02  0.00000000E+00
  2.40000000E+02  1.00000000E+02  0.00000000E+00
  2.40000000E+02  8.00000000E+01  0.00000000E+00
  2.40000000E+02  6.00000000E+01  0.00000000E+00
  2.40000000E+02  4.00000000E+01  0.00000000E+00
  2.40000000E+02  2.00000000E+01  0.00000000E+00
  2.40000000E+02  4.99600361E-14  0.00000000E+00
  2.60000000E+02  3.00000000E+02  0.00000000E+00
  2.60000000E+02  2.80000000E+02  0.00000000E+00
  2.60000000E+02  2.60000000E+02  0.00000000E+00
  2.60000000E+02  2.40000000E+02  0.00000000E+00
  2.60000000E+02  2.20000000E+02  0.00000000E+00
  2.60000000E+02  2.00000000E+02  0.00000000E+00
  2.60000000E+02  1.80000000E+02  0.00000000E+00
  2.60000000E+02  1.60000000E+02  0.00000000E+00
  2.60000000E+02  1.40000000E+02  0.00000000E+00
  2.60000000E+02  1.20000000E+02  0.00000000E+00
  2.60000000E+02  1.00000000E+02  0.00000000E+00
  2.60000000E+02  8.00000000E+01  0.00000000E+00
  2.60000000E+02  6.00000000E+01  0.00000000E+00
  2.60000000E+02  4.00000000E+01  0.00000000E+00
  2.60000000E+02  2.00000000E+01  0.00000000E+00
  2.60000000E+02  4.99600361E-14  0.00000000E+00
  2.80000000E+02  3.00000000E+02  0.00000000E+00
  2.80000000E+02  2.80000000E+02  0.00000000E+00
  2.80000000E+02  2.60000000E+02  0.00000000E+00
  2.80000000E+02  2.40000000E+02  0.00000000E+00
  2.80000000E+02  2.20000000E+02  0.00000000E+00
  2.80000000E+02  2.00000000E+02  0.00000000E+00
  2.80000000E+02  1.80000000E+02  0.00000000E+00
  2.80000000E+02  1.60000000E+02  0.00000000E+00
  2.80000000E+02  1.40000000E+02  0.00000000E+00
  2.80000000E+02  1.20000000E+02  0.00000000E+00
  2.80000000E+02  1.00000000E+02  0.00000000E+00
  2.80000000E+02  8.00000000E+01  0.00000000E+00
  2.80000000E+02  6.00000000E+01  0.00000000E+00
  2.80000000E+02  4.00000000E+01  0.00000000E+00
  2.80000000E+02  2.00000000E+01  0.00000000E+00
  2.80000000E+02  4.99600361E-14  0.00000000E+00
  3.00000000E+02  3.00000000E+02  0.00000000E+00
  3.00000000E+02  2.80000000E+02  0.00000000E+00
  3.00000000E+02  2.60000000E+02  0.00000000E+00
  3.00000000E+02  2.40000000E+02  0.00000000E+00
  3.00000000E+02  2.20000000E+02  0.00000000E+00
  3.00000000E+02  2.00000000E+02  0.00000000E+00
  3.00000000E+02  1.80000000E+02  0.00000000E+00
  3.00000000E+02  1.60000000E+02  0.00000000E+00
  3.00000000E+02  1.40000000E+02  0.00000000E+00
  3.00000000E+02  1.20000000E+02  0.00000000E+00
  3.00000000E+02  1.00000000E+02  0.00000000E+00
  3.00000000E+02  8.00000000E+01  0.00000000E+00
  3.00000000E+02  6.00000000E+01  0.00000000E+00
  3.00000000E+02  4.00000000E+01  0.00000000E+00
  3.00000000E+02  2.00000000E+01  0.00000000E+00
  3.00000000E+02  4.99600361E-14  0.00000000E+00
  3.20000000E+02  3.00000000E+02  0.00000000E+00
  3.20000000E+02  2.80000000E+02  0.00000000E+00
  3.20000000E+02  2.60000000E+02  0.00000000E+00
  3.20000000E+02  2.40000000E+02  0.00000000E+00
  3.20000000E+02  2.20000000E+02  0.00000000E+00
  3.20000000E+02  2.00000000E+02  0.00000000E+00
  3.20000000E+02  1.80000000E+02  0.00000000E+00
  3.20000000E+02  1.60000000E+02  0.00000000E+00
  3.20000000E+02  1.40000000E+02  0.00000000E+00
  3.20000000E+02  1.20000000E+02  0.00000000E+00
  3.20000000E+02  1.00000000E+02  0.00000000E+00
  3.20000000E+02  8.00000000E+01  0.00000000E+00
  3.20000000E+02  6.00000000E+01  0.00000000E+00
  3.20000000E+02  4.00000000E+01  0.00000000E+00
  3.20000000E+02  2.00000000E+01  0.00000000E+00
  3.20000000E+02  4.99600361E-14  0.00000000E+00
  3.40000000E+02  3.00000000E+02  0.00000000E+00
  3.40000000E+02  2.80000000E+02  0.00000000E+00
  3.40000000E+02  2.60000000E+02  0.00000000E+00
  3.40000000E+02  2.40000000E+02  0.00000000E+00
  3.40000000E+02  2.20000000E+02  0.00000000E+00
  3.40000000E+02  2.00000000E+02  0.00000000E+00
  3.40000000E+02  1.80000000E+02  0.00000000E+00
  3.40000000E+02  1.60000000E+02  0.00000000E+00
  3.40000000E+02  1.40000000E+02  0.00000000E+00
  3.40000000E+02  1.20000000E+02  0.00000000E+00
  3.40000000E+02  1.00000000E+02  0.00000000E+00
  3.40000000E+02  8.00000000E+01  0.00000000E+00
  3.40000000E+02  6.00000000E+01  0.00000000E+00
  3.40000000E+02  4.00000000E+01  0.00000000E+00
  3.40000000E+02  2.00000000E+01  0.00000000E+00
  3.40000000E+02  4.99600361E-14  0.00000000E+00
  3.60000000E+02  3.00000000E+02  0.00000000E+00
  3.60000000E+02  2.80000000E+02  0.00000000E+00
  3.60000000E+02  2.60000000E+02  0.00000000E+00
  3.60000000E+02  2.40000000E+02  0.00000000E+00
  3.60000000E+02  2.20000000E+02  0.00000000E+00
  3.60000000E+02  2.00000000E+02  0.00000000E+00
  3.60000000E+02  1.80000000E+02  0.00000000E+00
  3.60000000E+02  1.60000000E+02  0.00000000E+00
  3.60000000E+02  1.40000000E+02  0.00000000E+00
  3.60000000E+02  1.20000000E+02  0.00000000E+00
  3.60000000E+02  1.00000000E+02  0.00000000E+00
  3.60000000E+02  8.00000000E+01  0.00000000E+00
  3.60000000E+02  6.00000000E+01  0.00000000E+00
  3.60000000E+02  4.00000000E+01  0.00000000E+00
  3.60000000E+02  2.00000000E+01  0.00000000E+00
  3.60000000E+02  4.99600361E-14  0.00000000E+00
  3.80000000E+02  3.00000000E+02  0.00000000E+00
  3.80000000E+02  2.80000000E+02  0.00000000E+00
  3.80000000E+02  2.60000000E+02  0.00000000E+00
  3.80000000E+02  2.40000000E+02  0.00000000E+00
  3.80000000E+02  2.20000000E+02  0.00000000E+00
  3.80000000E+02  2.00000000E+02  0.00000000E+00
  3.80000000E+02  1.80000000E+02  0.00000000E+00
  3.80000000E+02  1.60000000E+02  0.00000000E+00
  3.80000000E+02  1.40000000E+02  0.00000000E+00
  3.80000000E+02  1.20000000E+02  0.00000000E+00
  3.80000000E+02  1.00000000E+02  0.00000000E+00
  3.80000000E+02  8.00000000E+01  0.00000000E+00
  3.80000000E+02  6.00000000E+01  0.00000000E+00
  3.80000000E+02  4.00000000E+01  0.00000000E+00
  3.80000000E+02  2.00000000E+01  0.00000000E+00
  3.80000000E+02  4.99600361E-14  0.00000000E+00
  4.00000000E+02  3.00000000E+02  0.00000000E+00
  4.00000000E+02  2.80000000E+02  0.00000000E+00
  4.00000000E+02  2.60000000E+02  0.00000000E+00
  4.00000000E+02  2.40000000E+02  0.00000000E+00
  4.00000000E+02  2.20000000E+02  0.00000000E+00
  4.00000000E+02  2.00000000E+02  0.00000000E+00
  4.00000000E+02  1.80000000E+02  0.00000000E+00
  4.00000000E+02  1.60000000E+02  0.00000000E+00
  4.00000000E+02  1.40000000E+02  0.00000000E+00
  4.00000000E+02  1.20000000E+02  0.00000000E+00
  4.00000000E+02  1.00000000E+02  0.00000000E+00
  4.00000000E+02  8.00000000E+01  0.00000000E+00
  4.00000000E+02  6.00000000E+01  0.00000000E+00
  4.00000000E+02  4.00000000E+01  0.00000000E+00
  4.00000000E+02  2.00000000E+01  0.00000000E+00
  4.00000000E+02  4.99600361E-14  0.00000000E+00
  4.20000000E+02  3.00000000E+02  0.00000000E+00
  4.20000000E+02  2.80000000E+02  0.00000000E+00
  4.20000000E+02  2.60000000E+02  0.00000000E+00
  4.20000000E+02  2.40000000E+02  0.00000000E+00
  4.20000000E+02  2.20000000E+02  0.00000000E+00
  4.20000000E+02  2.00000000E+02  0.00000000E+00
  4.20000000E+02  1.80000000E+02  0.00000000E+00
  4.20000000E+02  1.60000000E+02  0.00000000E+00
  4.20000000E+02  1.40000000E+02  0.00000000E+00
  4.20000000E+02  1.20000000E+02  0.00000000E+00
  4.20000000E+02  1.00000000E+02  0.00000000E+00
  4.20000000E+02  8.00000000E+01  0.00000000E+00
  4.20000000E+02  6.00000000E+01  0.00000000E+00
  4.20000000E+02  4.00000000E+01  0.00000000E+00
  4.20000000E+02  2.00000000E+01  0.00000000E+00
  4.20000000E+02  4.99600361E-14  0.00000000E+00
  4.40000000E+02  3.00000000E+02  0.00000000E+00
  4.40000000E+02  2.80000000E+02  0.00000000E+00
  4.40000000E+02  2.60000000E+02  0.00000000E+00
  4.40000000E+02  2.40000000E+02  0.00000000E+00
  4.40000000E+02  2.20000000E+02  0.00000000E+00
  4.40000000E+02  2.00000000E+02  0.00000000E+00
  4.40000000E+02  1.80000000E+02  0.00000000E+00
  4.40000000E+02  1.60000000E+02  0.00000000E+00
  4.40000000E+02  1.40000000E+02  0.00000000E+00
  4.40000000E+02  1.20000000E+02  0.00000000E+00
  4.40000000E+02  1.00000000E+02  0.00000000E+00
  4.40000000E+02  8.00000000E+01  0.00000000E+00
  4.40000000E+02  6.00000000E+01  0.00000000E+00
  4.40000000E+02  4.00000000E+01  0.00000000E+00
  4.40000000E+02  2.00000000E+01  0.00000000E+00
  4.40000000E+02  4.99600361E-14  0.00000000E+00
  4.60000000E+02  3.00000000E+02  0.00000000E+00
  4.60000000E+02  2.80000000E+02  0.00000000E+00
  4.60000000E+02  2.60000000E+02  0.00000000E+00
  4.60000000E+02  2.40000000E+02  0.00000000E+00
  4.60000000E+02  2.20000000E+02  0.00000000E+00
  4.60000000E+02  2.00000000E+02  0.00000000E+00
  4.60000000E+02  1.80000000E+02  0.00000000E+00
  4.60000000E+02  1.60000000E+02  0.00000000E+00
  4.60000000E+02  1.40000000E+02  0.00000000E+00
  4.60000000E+02  1.20000000E+02  0.00000000E+00
  4.60000000E+02  1.00000000E+02  0.00000000E+00
  4.60000000E+02  8.00000000E+01  0.00000000E+00
  4.60000000E+02  6.00000000E+01  0.00000000E+00
  4.60000000E+02  4.00000000E+01  0.00000000E+00
  4.60000000E+02  2.00000000E+01  0.00000000E+00
  4.60000000E+02  4.99600361E-14  0.00000000E+00
  4.80000000E+02  3.00000000E+02  0.00000000E+00
  4.80000000E+02  2.80000000E+02  0.00000000E+00
  4.80000000E+02  2.60000000E+02  0.00000000E+00
  4.80000000E+02  2.40000000E+02  0.00000000E+00
  4.80000000E+02  2.20000000E+02  0.00000000E+00
  4.80000000E+02  2.00000000E+02  0.00000000E+00
  4.80000000E+02  1.80000000E+02  0.00000000E+00
  4.80000000E+02  1.60000000E+02  0.00000000E+00
  4.80000000E+02  1.40000000E+02  0.00000000E+00
  4.80000000E+02  1.20000000E+02  0.00000000E+00
  4.80000000E+02  1.00000000E+02  0.00000000E+00
  4.80000000E+02  8.00000000E+01  0.00000000E+00
  4.80000000E+02  6.00000000E+01  0.00000000E+00
  4.80000000E+02  4.00000000E+01  0.00000000E+00
  4.80000000E+02  2.00000000E+01  0.00000000E+00
  4.80000000E+02  4.99600361E-14  0.00000000E+00
  5.00000000E+02  3.00000000E+02  0.00000000E+00
  5.00000000E+02  2.80000000E+02  0.00000000E+00
  5.00000000E+02  2.60000000E+02  0.00000000E+00
  5.00000000E+02  2.40000000E+02  0.00000000E+00
  5.00000000E+02  2.20000000E+02  0.00000000E+00
  5.00000000E+02  2.00000000E+02  0.00000000E+00
  5.00000000E+02  1.80000000E+02  0.00000000E+00
  5.00000000E+02  1.60000000E+02  0.00000000E+00
  5.00000000E+02  1.40000000E+02  0.00000000E+00
  5.00000000E+02  1.20000000E+02  0.00000000E+00
  5.00000000E+02  1.00000000E+02  0.00000000E+00
  5.00000000E+02  8.00000000E+01  0.00000000E+00
  5.00000000E+02  6.00000000E+01  0.00000000E+00
  5.00000000E+02  4.00000000E+01  0.00000000E+00
  5.00000000E+02  2.00000000E+01  0.00000000E+00
  5.00000000E+02  4.99600361E-14  0.00000000E+00
  5.20000000E+02  3.00000000E+02  0.00000000E+00
  5.20000000E+02  2.80000000E+02  0.00000000E+00
  5.20000000E+02  2.60000000E+02  0.00000000E+00
  5.20000000E+02  2.40000000E+02  0.00000000E+00
  5.20000000E+02  2.20000000E+02  0.00000000E+00
  5.20000000E+02  2.00000000E+02  0.00000000E+00
  5.20000000E+02  1.80000000E+02  0.00000000E+00
  5.20000000E+02  1.60000000E+02  0.00000000E+00
  5.20000000E+02  1.40000000E+02  0.00000000E+00
  5.20000000E+02  1.20000000E+02  0.00000000E+00
  5.20000000E+02  1.00000000E+02  0.00000000E+00
  5.20000000E+02  8.00000000E+01  0.00000000E+00
  5.20000000E+02  6.00000000E+01  0.00000000E+00
  5.20000000E+02  4.00000000E+01  0.00000000E+00
  5.20000000E+02  2.00000000E+01  0.00000000E+00
  5.20000000E+02  4.99600361E-14  0.00000000E+00
  5.40000000E+02  3.00000000E+02  0.00000000E+00
  5.40000000E+02  2.80000000E+02  0.00000000E+00
  5.40000000E+02  2.60000000E+02  0.00000000E+00
  5.40000000E+02  2.40000000E+02  0.00000000E+00
  5.40000000E+02  2.20000000E+02  0.00000000E+00
  5.40000000E+02  2.00000000E+02  0.00000000E+00
  5.40000000E+02  1.80000000E+02  0.00000000E+00
  5.40000000E+02  1.60000000E+02  0.00000000E+00
  5.40000000E+02  1.40000000E+02  0.00000000E+00
  5.40000000E+02  1.20000000E+02  0.00000000E+00
  5.40000000E+02  1.00000000E+02  0.00000000E+00
  5.40000000E+02  8.00000000E+01  0.00000000E+00
  5.40000000E+02  6.00000000E+01  0.00000000E+00
  5.40000000E+02  4.00000000E+01  0.00000000E+00
  5.40000000E+02  2.00000000E+01  0.00000000E+00
  5.40000000E+02  4.99600361E-14  0.00000000E+00
  5.60000000E+02  3.00000000E+02  0.00000000E+00
  5.60000000E+02  2.80000000E+02  0.00000000E+00
  5.60000000E+02  2.60000000E+02  0.00000000E+00
  5.60000000E+02  2.40000000E+02  0.00000000E+00
  5.60000000E+02  2.20000000E+02  0.00000000E+00
  5.60000000E+02  2.00000000E+02  0.00000000E+00
  5.60000000E+02  1.80000000E+02  0.00000000E+00
  5.60000000E+02  1.60000000E+02  0.00000000E+00
  5.60000000E+02  1.40000000E+02  0.00000000E+00
  5.60000000E+02  1.20000000E+02  0.00000000E+00
  5.60000000E+02  1.00000000E+02  0.00000000E+00
  5.60000000E+02  8.00000000E+01  0.00000000E+00
  5.60000000E+02  6.00000000E+01  0.00000000E+00
  5.60000000E+02  4.00000000E+01  0.00000000E+00
  5.60000000E+02  2.00000000E+01  0.00000000E+00
  5.60000000E+02  4.99600361E-14  0.00000000E+00
  5.80000000E+02  3.00000000E+02  0.00000000E+00
  5.80000000E+02  2.80000000E+02  0.00000000E+00
  5.80000000E+02  2.60000000E+02  0.00000000E+00
  5.80000000E+02  2.40000000E+02  0.00000000E+00
  5.80000000E+02  2.20000000E+02  0.00000000E+00
  5.80000000E+02  2.00000000E+02  0.00000000E+00
  5.80000000E+02  1.80000000E+02  0.00000000E+00
  5.80000000E+02  1.60000000E+02  0.00000000E+00
  5.80000000E+02  1.40000000E+02  0.00000000E+00
  5.80000000E+02  1.20000000E+02  0.00000000E+00
  5.80000000E+02  1.00000000E+02  0.00000000E+00
  5.80000000E+02  8.00000000E+01  0.00000000E+00
  5.80000000E+02  6.00000000E+01  0.00000000E+00
  5.80000000E+02  4.00000000E+01  0.00000000E+00
  5.80000000E+02  2.00000000E+01  0.00000000E+00
  5.80000000E+02  4.99600361E-14  0.00000000E+00
  6.00000000E+02  3.00000000E+02  0.00000000E+00
  6.00000000E+02  2.80000000E+02  0.00000000E+00
  6.00000000E+02  2.60000000E+02  0.00000000E+00
  6.00000000E+02  2.40000000E+02  0.00000000E+00
  6.00000000E+02  2.20000000E+02  0.00000000E+00
  6.00000000E+02  2.00000000E+02  0.00000000E+00
  6.00000000E+02  1.80000000E+02  0.00000000E+00
  6.00000000E+02  1.60000000E+02  0.00000000E+00
  6.00000000E+02  1.40000000E+02  0.00000000E+00
  6.00000000E+02  1.20000000E+02  0.00000000E+00
  6.00000000E+02  1.00000000E+02  0.00000000E+00
  6.00000000E+02  8.00000000E+01  0.00000000E+00
  6.00000000E+02  6.00000000E+01  0.00000000E+00
  6.00000000E+02  4.00000000E+01  0.00000000E+00
  6.00000000E+02  2.00000000E+01  0.00000000E+00
  6.00000000E+02  4.99600361E-14  0.00000000E+00
CELLS       450      2250
         4           0           1          17          16
         4           1           2          18          17
         4           2           3          19          18
         4           3           4          20          19
         4           4           5          21          20
         4           5           6          22          21
         4           6           7          23          22
         4           7           8          24          23
         4           8           9          25          24
         4           9          10          26          25
         4          10          11          27          26
         4          11          12          28          27
         4          12          13          29          28
         4          13          14          30          29
         4          14          15          31          30
         4          16          17          33          32
         4          17          18          34          33
         4          18          19          35          34
         4          19          20          36          35
         4          20          21          37          36
         4          21          22          38          37
         4          22          23          39          38
         4          23          24          40          39
         4          24          25          41          40
         4          25          26          42          41
         4          26          27          43          42
         4          27          28          44          43
         4          28          29          45          44
         4          29          30          46          45
         4          30          31          47          46
         4          32          33          49          48
         4          33          34          50          49
         4          34          35          51          50
         4          35          36          52          51
         4          36          37          53          52
         4          37          38          54          53
         4          38          39          55          54
         4          39          40          56          55
         4          40          41          57          56
         4          41          42          58          57
         4          42          43          59          58
         4          43          44          60          59
         4          44          45          61          60
         4          45          46          62          61
         4          46          47          63          62
         4          48          49          65          64
         4          49          50          66          65
         4          50          51          67          66
         4          51          52          68          67
         4          52          53          69          68
         4          53          54          70          69
         4          54          55          71          70
         4          55          56          72          71
         4          56          57          73          72
         4          57          58          74          73
         4          58          59          75          74
         4          59          60          76          75
         4          60          61          77          76
         4          61          62          78          77
         4          62          63          79          78
         4          64          65          81          80
         4          65          66          82          81
         4          66          67          83          82
         4          67          68          84          83
         4          68          69          85          84
         4          69          70          86          85
         4          70          71          87          86
         4          71          72          88          87
         4          72          73          89          88
         4          73          74          90          89
         4          74          75          91          90
         4          75          76          92          91
         4          76          77          93          92
         4          77          78          94          93
         4          78          79          95          94
         4          80          81          97          96
         4          81          82          98          97
         4          82          83          99          98
         4          83          84         100          99
         4          84          85         101         100
         4          85          86         102         101
         4          86          87         103         102
         4          87          88         104         103
         4          88          89         105         104
         4          89          90         106         105
         4          90          91         107         106
         4          91          92         108         107
         4          92          93         109         108
         4          93          94         110         109
         4          94          95         111         110
         4          96          97         113         112
         4          97          98         114         113
         4          98          99         115         114
         4          99         100         116         115
         4         100         101         117         116
         4         101         102         118         117
         4         102         103         119         118
         4         103         104         120         119
         4         104         105         121         120
         4         105         106         122         121
         4         106         107         123         122
         4         107         108         124         123
         4         108         109         125         124
         4         109         110         126         125
         4         110         111         127         126
         4         112         113         129         128
         4         113         114         130         129
         4         114         115         131         130
         4         115         116         132         131
         4         116         117         133         132
         4         117         118         134         133
         4         118         119         135         134
         4         119         120         136         135
         4         120         121         137         136
         4         121         122         138         137
         4         122         123         139         138
         4         123         124         140         139
         4         124         125         141         140
         4         125         126         142         141
         4         126         127         143         142
         4         128         129         145         144
         4         129         130         146         145
         4         130         131         147         146
         4         131         132         148         147
         4         132         133         149         148
         4         133         134         150         149
         4         134         135         151         150
         4         135         136         152         151
         4         136         137         153         152
         4         137         138         154         153
         4         138         139         155         154
         4         139         140         156         155
         4         140         141         157         156
         4         141         142         158         157
         4         142         143         159         158
         4         144         145         161         160
         4         145         146         162         161
         4         146         147         163         162
         4         147         148         164         163
         4         148         149         165         164
         4         149         150         166         165
         4         150         151         167         166
         4         151         152         168         167
         4         152         153         169         168
         4         153         154         170         169
         4         154         155         171         170
         4         155         156         172         171
         4         156         157         173         172
         4         157         158         174         173
         4         158         159         175         174
         4         160         161         177         176
         4         161         162         178         177
         4         162         163         179         178
         4         163         164         180         179
         4         164         165         181         180
         4         165         166         182         181
         4         166         167         183         182
         4         167         168         184         183
         4         168         169         185         184
         4         169         170         186         185
         4         170         171         187         186
         4         171         172         188         187
         4         172         173         189         188
         4         173         174         190         189
         4         174         175         191         190
         4         176         177         193         192
         4         177         178         194         193
         4         178         179         195         194
         4         179         180         196         195
         4         180         181         197         196
         4         181         182         198         197
         4         182         183         199         198
         4         183         184         200         199
         4         184         185         201         200
         4         185         186         202         201
         4         186         187         203         202
         4         187         188         204         203
         4         188         189         205         204
         4         189         190         206         205
         4         190         191         207         206
         4         192         193         209         208
         4         193         194         210         209
         4         194         195         211         210
         4         195         196         212         211
         4         196         197         213         212
         4         197         198         214         213
         4         198         199         215         214
         4         199         200         216         215
         4         200         201         217         216
         4         201         202         218         217
         4         202         203         219         218
         4         203         204         220         219
         4         204         205         221         220
         4         205         206         222         221
         4         206         207         223         222
         4         208         209         225         224
         4         209         210         226         225
         4         210         211         227         226
         4         211         212         228         227
         4         212         213         229         228
         4         213         214         230         229
         4         214         215         231         230
         4         215         216         232         231
         4         216         217         233         232
         4         217         218         234         233
         4         218         219         235         234
         4         219         220         236         235
         4         220         221         237         236
         4         221         222         238         237
         4         222         223         239         238
         4         224         225         241         240
         4         225         226         242         241
         4         226         227         243         242
         4         227         228         244         243
         4         228         229         245         244
         4         229         230         246         245
         4         230         231         247         246
         4         231         232         248         247
         4         232         233         249         248
         4         233         234         250         249
         4         234         235         251         250
         4         235         236         252         251
         4         236         237         253         252
         4         237         238         254         253
         4         238         239         255         254
         4         240         241         257         256
         4         241         242         258         257
         4         242         243         259         258
         4         243         244         260         259
         4         244         245         261         260
         4         245         246         262         261
         4         246         247         263         262
         4         247         248         264         263
         4         248         249         265         264
         4         249         250         266         265
         4         250         251         267         266
         4         251         252         268         267
         4         252         253         269         268
         4         253         254         270         269
         4         254         255         271         270
         4         256         257         273         272
         4         257         258         274         273
         4         258         259         275         274
         4         259         260         276         275
         4         260         261         277         276
         4         261         262         278         277
         4         262         263         279         278
         4         263         264         280         279
         4         264         265         281         280
         4         265         266         282         281
         4         266         267         283         282
         4         267         268         284         283
         4         268         269         285         284
         4         269         270         286         285
         4         270         271         287         286
         4         272         273         289         288
         4         273         274         290         289
         4         274         275         291         290
         4         275         276         292         291
         4         276         277         293         292
         4         277         278         294         293
         4         278         279         295         294
         4         279         280         296         295
         4         280         281         297         296
         4         281         282         298         297
         4         282         283         299         298
         4         283         284         300         299
         4         284         285         301         300
         4         285         286         302         301
         4         286         287         303         302
         4         288         289         305         304
         4         289         290         306         305
         4         290         291         307         306
         4         291         292         308         307
         4         292         293         309         308
         4         293         294         310         309
         4         294         295         311         310
         4         295         296         312         311
         4         296         297         313         312
         4         297         298         314         313
         4         298         299         315         314
         4         299         300         316         315
         4         300         301         317         316
         4         301         302         318         317
         4         302         303         319         318
         4         304         305         321         320
         4         305         306         322         321
         4         306         307         323         322
         4         307         308         324         323
         4         308         309         325         324
         4         309         310         326         325
         4         310         311         327         326
         4         311         312         328         327
         4         312         313         329         328
         4         313         314         330         329
         4         314         315         331         330
         4         315         316         332         331
         4         316         317         333         332
         4         317         318         334         333
         4         318         319         335         334
         4         320         321         337         336
         4         321         322         338         337
         4         322         323         339         338
         4         323         324         340         339
         4         324         325         341         340
         4         325         326         342         341
         4         326         327         343         342
         4         327         328         344         343
         4         328         329         345         344
         4         329         330         346         345
         4         330         331         347         346
         4         331         332         348         347
         4         332         333         349         348
         4         333         334         350         349
         4         334         335         351         350
         4         336         337         353         352
         4         337         338         354         353
         4         338         339         355         354
         4         339         340         356         355
         4         340         341         357         356
         4         341         342         358         357
         4         342         343         359         358
         4         343         344         360         359
         4         344         345         361         360
         4         345         346         362         361
         4         346         347         363         362
         4         347         348         364         363
         4         348         349         365         364
         4         349         350         366         365
         4         350         351         367         366
         4         352         353         369         368
         4         353         354         370         369
         4         354         355         371         370
         4         355         356         372         371
         4         356         357         373         372
         4         357         358         374         373
         4         358         359         375         374
         4         359         360         376         375
         4         360         361         377         376
         4         361         362         378         377
         4         362         363         379         378
         4         363         364         380         379
         4         364         365         381         380
         4         365         366         382         381
         4         366         367         383         382
         4         368         369         385         384
         4         369         370         386         385
         4         370         371         387         386
         4         371         372         388         387
         4         372         373         389         388
         4         373         374         390         389
         4         374         375         391         390
         4         375         376         392         391
         4         376         377         393         392
         4         377         378         394         393
         4         378         379         395         394
         4         379         380         396         395
         4         380         381         397         396
         4         381         382         398         397
         4         382         383         399         398
         4         384         385         401         400
         4         385         386         402         401
         4         386         387         403         402
         4         387         388         404         403
         4         388         389         405         404
         4         389         390         406         405
         4         390         391         407         406
         4         391         392         408         407
         4         392         393         409         408
         4         393         394         410         409
         4         394         395         411         410
         4         395         396         412         411
         4         396         397         413         412
         4         397         398         414         413
         4         398         399         415         414
         4         400         401         417         416
         4         401         402         418         417
         4         402         403         419         418
         4         403         404         420         419
         4         404         405         421         420
         4         405         406         422         421
         4         406         407         423         422
         4         407         408         424         423
         4         408         409         425         424
         4         409         410         426         425
         4         410         411         427         426
         4         411         412         428         427
         4         412         413         429         428
         4         413         414         430         429
         4         414         415         431         430
         4         416         417         433         432
         4         417         418         434         433
         4         418         419         435         434
         4         419         420         436         435
         4         420         421         437         436
         4         421         422         438         437
         4         422         423         439         438
         4         423         424         440         439
         4         424         425         441         440
         4         425         426         442         441
         4         426         427         443         442
         4         427         428         444         443
         4         428         429         445         444
         4         429         430         446         445
         4         430         431         447         446
         4         432         433         449         448
         4         433         434         450         449
         4         434         435         451         450
         4         435         436         452         451
         4         436         437         453         452
         4         437         438         454         453
         4         438         439         455         454
         4         439         440         456         455
         4         440         441         457         456
         4         441         442         458         457
         4         442         443         459         458
         4         443         444         460         459
         4         444         445         461         460
         4         445         446         462         461
         4         446         447         463         462
         4         448         449         465         464
         4         449         450         466         465
         4         450         451         467         466
         4         451         452         468         467
         4         452         453         469         468
         4         453         454         470         469
         4         454         455         471         470
         4         455         456         472         471
         4         456         457         473         472
         4         457         458         474         473
         4         458         459         475         474
         4         459         460         476         475
         4         460         461         477         476
         4         461         462         478         477
         4         462         463         479         478
         4         464         465         481         480
         4         465         466         482         481
         4         466         467         483         482
         4         467         468         484         483
         4         468         469         485         484
         4         469         470         486         485
         4         470         471         487         486
         4         471         472         488         487
         4         472         473         489         488
         4         473         474         490         489
         4         474         475         491         490
         4         475         476         492         491
         4         476         477         493         492
         4         477         478         494         493
         4         478         479         495         494
CELL_TYPES        450
9
9
9
9
9
9
9
9
9
9
9
9
9
9
9
9
9
9
9
9
9
9
9
9
9
9
9
9
9
9
9
9
9
9
9
9
9
9
9
9
9
9
9
9
9
9
9
9
9
9
9
9
9
9
9
9
9
9
9
9
9
9
9
9
9
9
9
9
9
9
9
9
9
9
9
9
9
9
9
9
9
9
9
9
9
9
9
9
9
9
9
9
9
9
9
9
9
9
9
9
9
9
9
9
9
9
9
9
9
9
9
9
9
9
9
9
9
9
9
9
9
9
9
9
9
9
9
9
9
9
9
9
9
9
9
9
9
9
9
9
9
9
9
9
9
9
9
9
9
9
9
9
9
9
9
9
9
9
9
9
9
9
9
9
9
9
9
9
9
9
9
9
9
9
9
9
9
9
9
9
9
9
9
9
9
9
9
9
9
9
9
9
9
9
9
9
9
9
9
9
9
9
9
9
9
9
9
9
9
9
9
9
9
9
9
9
9
9
9
9
9
9
9
9
9
9
9
9
9
9
9
9
9
9
9
9
9
9
9
9
9
9
9
9
9
9
9
9
9
9
9
9
9
9
9
9
9
9
9
9
9
9
9
9
9
9
9
9
9
9
9
9
9
9
9
9
9
9
9
9
9
9
9
9
9
9
9
9
9
9
9
9
9
9
9
9
9
9
9
9
9
9
9
9
9
9
9
9
9
9
9
9
9
9
9
9
9
9
9
9
9
9
9
9
9
9
9
9
9
9
9
9
9
9
9
9
9
9
9
9
9
9
9
9
9
9
9
9
9
9
9
9
9
9
9
9
9
9
9
9
9
9
9
9
9
9
9
9
9
9
9
9
9
9
9
9
9
9
9
9
9
9
9
9
9
9
9
9
9
9
9
9
9
9
9
9
9
9
9
9
9
9
9
9
9
9
9
9
9
9
9
9
9
9
9
9
9
9
9
9
9
9
9
9
9
9
9
9
9
9
9
9
9
9
9
9
9
9
9
9
9
9
9
9
9
9
9
9
9
9
POINT_DATA       496
SCALARS p double 
LOOKUP_TABLE default
   60000000.0000000     
   60000000.0000000     
   60000000.0000000     
   60000000.0000000     
   60000000.0000000     
   60000000.0000000     
   60000000.0000000     
   60000000.0000000     
   60000000.0000000     
   60000000.0000000     
   60000000.0000000     
   60000000.0000000     
   60000000.0000000     
   60000000.0000000     
   60000000.0000000     
   60000000.0000000     
   59877988.4412292     
   59877989.0160498     
   59877990.6697188     
   59877993.1885271     
   59877996.3055972     
   59877999.7904175     
   59878003.4485264     
   59878007.1208757     
   59878010.6791513     
   59878014.0192636     
   59878017.0538842     
   59878019.7048929     
   59878021.8962942     
   59878023.5490073     
   59878024.5718117     
   59878024.9131248     
   59749727.3497712     
   59749728.5821640     
   59749732.0272427     
   59749737.1685152     
   59749743.4905573     
   59749750.5282982     
   59749757.8918381     
   59749765.2643488     
   59749772.3927813     
   59749779.0740045     
   59749785.1390261     
   59749790.4371595     
   59749794.8220319     
   59749798.1401478     
   59749800.2364234     
   59749800.9602882     
   59608766.7691059     
   59608768.7188999     
   59608774.1092373     
   59608782.0509188     
   59608791.7291651     
   59608802.4330955     
   59608813.5725662     
   59608824.6758501     
   59608835.3731742     
   59608845.3734605     
   59608854.4381809     
   59608862.3556136     
   59608868.9181466     
   59608873.9071561     
   59608877.0847495     
   59608878.1895414     
   59448255.6602287     
   59448258.3970092     
   59448265.9042427     
   59448276.8477496     
   59448290.0544290     
   59448304.5362292     
   59448319.4952930     
   59448334.3106984     
   59448348.5105069     
   59448361.7349698     
   59448373.6964946     
   59448384.1407631     
   59448392.8129710     
   59448399.4316870     
   59448403.6714196     
   59448405.1527063     
   59260745.4370852     
   59260749.0399755     
   59260758.8459067     
   59260772.9799534     
   59260789.8456133     
   59260808.1428407     
   59260826.8585151     
   59260845.2350200     
   59260862.7230309     
   59260878.9251154     
   59260893.5364863     
   59260906.2884300     
   59260916.8987675     
   59260925.0325388     
   59260930.2746546     
   59260932.1152510     
   59037999.6712658     
   59038004.2167592     
   59038016.4778739     
   59038033.9186758     
   59038054.4467873     
   59038076.4182781     
   59038098.6058335     
   59038120.1404888     
   59038140.4361641     
   59038159.1054411     
   59038175.8740888     
   59038190.5006981     
   59038202.7065540     
   59038212.1196221     
   59038218.2354290     
   59038220.3967503     
   58770814.2208722     
   58770819.7626003     
   58770834.5514062     
   58770855.2497888     
   58770879.1947820     
   58770904.3766793     
   58770929.3724143     
   58770953.2484411     
   58770975.4457786     
   58770995.6579014     
   58771013.7103505     
   58771029.4493058     
   58771042.6449252     
   58771052.9140703     
   58771059.6661070     
   58771062.0747547     
   58448853.9108206     
   58448860.4498410     
   58448877.6699119     
   58448901.2802806     
   58448927.9807780     
   58448955.3949310     
   58448981.9506391     
   58449006.7281691     
   58449029.2916761     
   58449049.5171880     
   58449067.4271858     
   58449083.0396727     
   58449096.2379745     
   58449106.6664170     
   58449113.6563791     
   58449116.1868135     
   58060514.0916166     
   58060521.5352575     
   58060540.8053477     
   58060566.5109422     
   58060594.6725020     
   58060622.5821641     
   58060648.6077062     
   58060671.9652430     
   58060692.4803135     
   58060710.3521739     
   58060725.9321404     
   58060739.5239070     
   58060751.2119367     
   58060760.7231661     
   58060767.3271431     
   58060769.7799597     
   57592817.8550403     
   57592825.9623674     
   57592846.4654814     
   57592872.7561417     
   57592900.1812920     
   57592925.7940112     
   57592948.0500952     
   57592966.4806929     
   57592981.3635962     
   57592993.4089638     
   57593003.4699029     
   57593012.2846937     
   57593020.2555580     
   57593027.2685393     
   57593032.5598760     
   57593034.6356617     
   57031362.2190194     
   57031370.5318112     
   57031390.8276709     
   57031415.2308337     
   57031438.5006393     
   57031457.6262988     
   57031471.3786633     
   57031479.8543216     
   57031484.0363828     
   57031485.3870161     
   57031485.4798265     
   57031485.6757887     
   57031486.8447536     
   57031489.1351647     
   57031491.7969949     
   57031493.0662178     
   56360328.9704176     
   56360336.7301903     
   56360354.5344254     
   56360373.3079043     
   56360387.4296015     
   56360394.1136968     
   56360392.7731118     
   56360384.4044364     
   56360371.0181943     
   56360355.1260995     
   56360339.2880688     
   56360325.7167444     
   56360315.9361114     
   56360310.4930164     
   56360308.7251685     
   56360308.5953866     
   55562577.7471263     
   55562583.8014444     
   55562595.7424825     
   55562603.5492395     
   55562601.5991139     
   55562587.7679417     
   55562562.5580040     
   55562528.2938366     
   55562488.4059388     
   55562446.8065470     
   55562407.3506261     
   55562373.3697075     
   55562347.2661176     
   55562330.1598290     
   55562321.5884592     
   55562319.2712988     
   54619839.9323532     
   54619842.6375270     
   54619844.0127991     
   54619833.6134878     
   54619806.4230081     
   54619761.5981223     
   54619701.3141408     
   54619629.7468389     
   54619552.2022967     
   54619474.3856128     
   54619401.7860708     
   54619339.1506008     
   54619290.0191344     
   54619256.3037400     
   54619237.9066617     
   54619232.3885323     
   53513031.5226494     
   53513028.6549130     
   53513013.2213430     
   53512975.2391926     
   53512911.1943229     
   53512822.3568457     
   53512713.3023237     
   53512590.6666001     
   53512462.1296515     
   53512335.5984468     
   53512218.5429002     
   53512117.4335664     
   53512037.2343501     
   53511980.9168384     
   53511948.9827771     
   53511939.0050877     
   52222700.7562499     
   52222689.4492715     
   52222649.2979660     
   52222572.1306913     
   52222457.1767049     
   52222308.8847389     
   52222135.0935452     
   52221945.5665436     
   52221750.8610185     
   52221561.4706975     
   52221387.1621533     
   52221236.4211835     
   52221115.9342397     
   52221030.0500734     
   52220980.1953592     
   52220964.2518980     
   50729621.3801713     
   50729598.1124686     
   50729523.6917908     
   50729393.6632217     
   50729211.6259195     
   50728986.5054365     
   50728730.3723106     
   50728456.7942397     
   50728179.6553998     
   50727912.3374250     
   50727667.1362277     
   50727454.7872918     
   50727283.9871509     
   50727160.8275245     
   50727088.0979151     
   50727064.4587123     
   49015534.4963733     
   49015495.1565509     
   49015375.5177885     
   49015177.3727859     
   49014910.7157894     
   49014590.4502621     
   49014233.8926050     
   49013859.0233365     
   49013483.3663154     
   49013123.3291284     
   49012793.8175286     
   49012507.9410106     
   49012276.6502846     
   49012108.1864464     
   49012007.2732760     
   49011974.0451685     
   47064030.6510898     
   47063970.7099491     
   47063794.0509200     
   47063511.8947744     
   47063143.0245361     
   47062709.9535442     
   47062236.2051648     
   47061744.6039735     
   47061256.3825166     
   47060790.8527954     
   47060365.3773734     
   47059995.3908173     
   47059694.2572426     
   47059472.7990766     
   47059338.3958142     
   47059293.6294052     
   44861549.2466091     
   44861464.0610466     
   44861218.6304123     
   44860837.3925232     
   44860350.5915807     
   44859789.9865317     
   44859186.0709705     
   44858566.6251226     
   44857956.2894111     
   44857376.7941950     
   44856847.4870486     
   44856385.8375796     
   44856007.6483510     
   44855726.7552240     
   44855554.0709419     
   44855495.9209760     
   42398454.9984365     
   42398340.2610063     
   42398015.6565811     
   42397523.1150558     
   42396907.1270712     
   42396210.1388851     
   42395469.9798826     
   42394719.0053113     
   42393984.4614034     
   42393289.5516522     
   42392654.7457560     
   42392098.9545366     
   42391640.2540111     
   42391295.8848897     
   42391081.3141387     
   42391008.2549899     
   39670132.2445975     
   39669984.5745318     
   39669573.4240974     
   39668962.7675083     
   39668213.9794426     
   39667381.1499362     
   39666509.1467040     
   39665633.8351579     
   39664783.6558446     
   39663981.8315260     
   39663248.6693766     
   39662603.5807082     
   39662066.4969046     
   39661658.3472217     
   39661400.2726633     
   39661311.3627978     
   36678019.4455340     
   36677837.0950781     
   36677337.0593892     
   36676609.9021250     
   36675735.9855535     
   36674781.0889451     
   36673795.8138541     
   36672817.6028941     
   36671874.0399201     
   36670986.4593730     
   36670173.3544538     
   36669453.3450163     
   36668847.4690748     
   36668380.4040495     
   36668080.0845641     
   36667975.2646406     
   33430491.0117024     
   33430274.6445781     
   33429690.6585469     
   33428860.4067300     
   33427884.2196882     
   33426838.0599920     
   33425775.5215334     
   33424732.7159088     
   33423733.8259857     
   33422796.1817757     
   33421934.6459629     
   33421165.4609454     
   33420509.5841409     
   33419995.0633397     
   33419657.5481667     
   33419537.9518718     
   29943485.1201512     
   29943238.6315899     
   29942585.3660999     
   29941680.9237812     
   29940644.4643487     
   29939558.0723319     
   29938473.6991927     
   29937422.3840433     
   29936422.3399029     
   29935485.0972761     
   29934620.3084331     
   29933840.1296713     
   29933163.6505940     
   29932621.0813261     
   29932256.1206648     
   29932124.3742563     
   26240778.1268161     
   26240509.5552034     
   26239814.3891375     
   26238884.5312997     
   26237852.7127268     
   26236799.0176458     
   26235767.0850176     
   26234779.0973196     
   26233845.6408288     
   26232971.7153337     
   26232161.0904138     
   26231420.3546883     
   26230764.2507157     
   26230222.3698841     
   26229845.3894293     
   26229705.9518025     
   22353821.6062571     
   22353544.6289712     
   22352852.4183890     
   22351971.7681210     
   22351035.3684403     
   22350107.3511552     
   22349215.9252414     
   22348372.7043179     
   22347580.9282124     
   22346840.0624312     
   22346148.8342593     
   22345508.1919072     
   22344925.3692445     
   22344424.1365884     
   22344057.8230027     
   22343917.2379868     
   18321089.5452154     
   18320827.0130340     
   18320210.4745915     
   18319488.9199249     
   18318762.6572759     
   18318063.3151560     
   18317403.1495600     
   18316785.0410954     
   18316207.5537907     
   18315667.3070886     
   18315160.5139236     
   18314684.3599128     
   18314239.4325609     
   18313833.2579210     
   18313510.5967905     
   18313379.8501151     
   14186926.8655987     
   14186726.3350375     
   14186316.9465377     
   14185902.1212150     
   14185500.9857155     
   14185123.2243867     
   14184770.9193969     
   14184443.3425106     
   14184138.3029680     
   14183852.9416707     
   14183584.1996023     
   14183329.2208651     
   14183085.6565392     
   14182853.7494821     
   14182630.2736391     
   14182519.5302732     
   10000000.0000000     
   10000000.0000000     
   10000000.0000000     
   10000000.0000000     
   10000000.0000000     
   10000000.0000000     
   10000000.0000000     
   10000000.0000000     
   10000000.0000000     
   10000000.0000000     
   10000000.0000000     
   10000000.0000000     
   10000000.0000000     
  10000000.00000000     
   10000000.0000000     
   10000000.0000000     
VECTORS u double 
    0.00000E+00        -0.10993E-02         0.00000E+00
    0.00000E+00        -0.84007E-03         0.00000E+00
    0.00000E+00        -0.59952E-03         0.00000E+00
    0.00000E+00        -0.38074E-03         0.00000E+00
    0.00000E+00        -0.18634E-03         0.00000E+00
    0.00000E+00        -0.18133E-04         0.00000E+00
    0.00000E+00         0.12259E-03         0.00000E+00
    0.00000E+00         0.23485E-03         0.00000E+00
    0.00000E+00         0.31783E-03         0.00000E+00
    0.00000E+00         0.37073E-03         0.00000E+00
    0.00000E+00         0.39272E-03         0.00000E+00
    0.00000E+00         0.38287E-03         0.00000E+00
    0.00000E+00         0.34017E-03         0.00000E+00
    0.00000E+00         0.26342E-03         0.00000E+00
    0.00000E+00         0.15112E-03         0.00000E+00
    0.00000E+00         0.00000E+00         0.00000E+00
    0.10663E-02        -0.11409E-02         0.00000E+00
    0.99102E-03        -0.87609E-03         0.00000E+00
    0.91688E-03        -0.63218E-03         0.00000E+00
    0.84167E-03        -0.41094E-03         0.00000E+00
    0.76592E-03        -0.21441E-03         0.00000E+00
    0.69035E-03        -0.44161E-04         0.00000E+00
    0.61554E-03         0.98631E-04         0.00000E+00
    0.54191E-03         0.21306E-03         0.00000E+00
    0.46971E-03         0.29833E-03         0.00000E+00
    0.39907E-03         0.35366E-03         0.00000E+00
    0.33002E-03         0.37820E-03         0.00000E+00
    0.26253E-03         0.37102E-03         0.00000E+00
    0.19650E-03         0.33103E-03         0.00000E+00
    0.13166E-03         0.25702E-03         0.00000E+00
    0.67319E-04         0.14742E-03         0.00000E+00
    0.00000E+00         0.00000E+00         0.00000E+00
    0.21243E-02        -0.12542E-02         0.00000E+00
    0.19768E-02        -0.98106E-03         0.00000E+00
    0.18277E-02        -0.72932E-03         0.00000E+00
    0.16766E-02        -0.50140E-03         0.00000E+00
    0.15247E-02        -0.29873E-03         0.00000E+00
    0.13733E-02        -0.12248E-03         0.00000E+00
    0.12236E-02         0.26482E-04         0.00000E+00
    0.10764E-02         0.14740E-03         0.00000E+00
    0.93218E-03         0.23958E-03         0.00000E+00
    0.79105E-03         0.30224E-03         0.00000E+00
    0.65311E-03         0.33451E-03         0.00000E+00
    0.51827E-03         0.33537E-03         0.00000E+00
    0.38635E-03         0.30366E-03         0.00000E+00
    0.25694E-03         0.23808E-03         0.00000E+00
    0.12894E-03         0.13717E-03         0.00000E+00
    0.00000E+00         0.00000E+00         0.00000E+00
    0.31775E-02        -0.14350E-02         0.00000E+00
    0.29590E-02        -0.11516E-02         0.00000E+00
    0.27343E-02        -0.88979E-03         0.00000E+00
    0.25064E-02        -0.65209E-03         0.00000E+00
    0.22776E-02        -0.43985E-03         0.00000E+00
    0.20502E-02        -0.25386E-03         0.00000E+00
    0.18257E-02        -0.94711E-04         0.00000E+00
    0.16051E-02         0.37047E-04         0.00000E+00
    0.13891E-02         0.14081E-03         0.00000E+00
    0.11778E-02         0.21582E-03         0.00000E+00
    0.97133E-03         0.26115E-03         0.00000E+00
    0.76947E-03         0.27566E-03         0.00000E+00
    0.57198E-03         0.25808E-03         0.00000E+00
    0.37844E-03         0.20702E-03         0.00000E+00
    0.18813E-03         0.12122E-03         0.00000E+00
    0.00000E+00         0.00000E+00         0.00000E+00
    0.42297E-02        -0.16836E-02         0.00000E+00
    0.39387E-02        -0.13880E-02         0.00000E+00
    0.36375E-02        -0.11140E-02         0.00000E+00
    0.33318E-02        -0.86396E-03         0.00000E+00
    0.30255E-02        -0.63906E-03         0.00000E+00
    0.27217E-02        -0.43980E-03         0.00000E+00
    0.24224E-02        -0.26648E-03         0.00000E+00
    0.21288E-02        -0.11948E-03         0.00000E+00
    0.18416E-02         0.69313E-06         0.00000E+00
    0.15608E-02         0.93272E-04         0.00000E+00
    0.12864E-02         0.15723E-03         0.00000E+00
    0.10180E-02         0.19130E-03         0.00000E+00
    0.75542E-03         0.19402E-03         0.00000E+00
    0.49832E-03         0.16385E-03         0.00000E+00
    0.24651E-03         0.99465E-04         0.00000E+00
    0.00000E+00         0.00000E+00         0.00000E+00
    0.52836E-02        -0.20032E-02         0.00000E+00
    0.49170E-02        -0.16928E-02         0.00000E+00
    0.45373E-02        -0.14043E-02         0.00000E+00
    0.41525E-02        -0.11394E-02         0.00000E+00
    0.37681E-02        -0.89878E-03         0.00000E+00
    0.33879E-02        -0.68268E-03         0.00000E+00
    0.30141E-02        -0.49113E-03         0.00000E+00
    0.26482E-02        -0.32431E-03         0.00000E+00
    0.22906E-02        -0.18268E-03         0.00000E+00
    0.19412E-02        -0.67051E-04         0.00000E+00
    0.15996E-02         0.21427E-04         0.00000E+00
    0.12655E-02         0.81268E-04         0.00000E+00
    0.93836E-03         0.11076E-03         0.00000E+00
    0.61815E-03         0.10809E-03         0.00000E+00
    0.30508E-03         0.71595E-04         0.00000E+00
    0.00000E+00         0.00000E+00         0.00000E+00
    0.63407E-02        -0.23986E-02         0.00000E+00
    0.58940E-02        -0.20705E-02         0.00000E+00
    0.54331E-02        -0.17648E-02         0.00000E+00
    0.49677E-02        -0.14821E-02         0.00000E+00
    0.45045E-02        -0.12226E-02         0.00000E+00
    0.40479E-02        -0.98585E-03         0.00000E+00
    0.36004E-02        -0.77175E-03         0.00000E+00
    0.31631E-02        -0.58028E-03         0.00000E+00
    0.27363E-02        -0.41184E-03         0.00000E+00
    0.23196E-02        -0.26732E-03         0.00000E+00
    0.19121E-02        -0.14808E-03         0.00000E+00
    0.15131E-02        -0.55877E-04         0.00000E+00
    0.11221E-02         0.72140E-05         0.00000E+00
    0.73908E-03         0.38961E-04         0.00000E+00
    0.36455E-03         0.37188E-04         0.00000E+00
    0.00000E+00         0.00000E+00         0.00000E+00
    0.74014E-02        -0.28760E-02         0.00000E+00
    0.68689E-02        -0.25271E-02         0.00000E+00
    0.63232E-02        -0.22010E-02         0.00000E+00
    0.57754E-02        -0.18972E-02         0.00000E+00
    0.52329E-02        -0.16150E-02         0.00000E+00
    0.47003E-02        -0.13536E-02         0.00000E+00
    0.41801E-02        -0.11122E-02         0.00000E+00
    0.36730E-02        -0.89087E-03         0.00000E+00
    0.31788E-02        -0.68986E-03         0.00000E+00
    0.26963E-02        -0.51022E-03         0.00000E+00
    0.22244E-02        -0.35353E-03         0.00000E+00
    0.17618E-02        -0.22195E-03         0.00000E+00
    0.13078E-02        -0.11800E-03         0.00000E+00
    0.86205E-03        -0.44494E-04         0.00000E+00
    0.42547E-03        -0.42708E-05         0.00000E+00
    0.00000E+00         0.00000E+00         0.00000E+00
    0.84641E-02        -0.34428E-02         0.00000E+00
    0.78395E-02        -0.30696E-02         0.00000E+00
    0.72052E-02        -0.27194E-02         0.00000E+00
    0.65730E-02        -0.23908E-02         0.00000E+00
    0.59509E-02        -0.20817E-02         0.00000E+00
    0.53431E-02        -0.17909E-02         0.00000E+00
    0.47517E-02        -0.15171E-02         0.00000E+00
    0.41768E-02        -0.12602E-02         0.00000E+00
    0.36173E-02        -0.10203E-02         0.00000E+00
    0.30714E-02        -0.79881E-03         0.00000E+00
    0.25370E-02        -0.59753E-03         0.00000E+00
    0.20123E-02        -0.41906E-03         0.00000E+00
    0.14960E-02        -0.26652E-03         0.00000E+00
    0.98776E-03        -0.14340E-03         0.00000E+00
    0.48831E-03        -0.53361E-04         0.00000E+00
    0.00000E+00         0.00000E+00         0.00000E+00
    0.95260E-02        -0.41075E-02         0.00000E+00
    0.88022E-02        -0.37057E-02         0.00000E+00
    0.80751E-02        -0.33275E-02         0.00000E+00
    0.73568E-02        -0.29695E-02         0.00000E+00
    0.66549E-02        -0.26289E-02         0.00000E+00
    0.59733E-02        -0.23034E-02         0.00000E+00
    0.53128E-02        -0.19915E-02         0.00000E+00
    0.46728E-02        -0.16926E-02         0.00000E+00
    0.40509E-02        -0.14072E-02         0.00000E+00
    0.34443E-02        -0.11365E-02         0.00000E+00
    0.28498E-02        -0.88293E-03         0.00000E+00
    0.22649E-02        -0.64954E-03         0.00000E+00
    0.16875E-02        -0.44012E-03         0.00000E+00
    0.11168E-02        -0.25897E-03         0.00000E+00
    0.55347E-03        -0.11072E-03         0.00000E+00
    0.00000E+00         0.00000E+00         0.00000E+00
    0.10582E-01        -0.48790E-02         0.00000E+00
    0.97515E-02        -0.44441E-02         0.00000E+00
    0.89276E-02        -0.40330E-02         0.00000E+00
    0.81218E-02        -0.36407E-02         0.00000E+00
    0.73407E-02        -0.32631E-02         0.00000E+00
    0.65870E-02        -0.28971E-02         0.00000E+00
    0.58604E-02        -0.25406E-02         0.00000E+00
    0.51585E-02        -0.21930E-02         0.00000E+00
    0.44778E-02        -0.18545E-02         0.00000E+00
    0.38139E-02        -0.15269E-02         0.00000E+00
    0.31625E-02        -0.12127E-02         0.00000E+00
    0.25196E-02        -0.91583E-03         0.00000E+00
    0.18825E-02        -0.64068E-03         0.00000E+00
    0.12496E-02        -0.39251E-03         0.00000E+00
    0.62128E-03        -0.17699E-03         0.00000E+00
    0.00000E+00         0.00000E+00         0.00000E+00
    0.11625E-01        -0.57665E-02         0.00000E+00
    0.10680E-01        -0.52935E-02         0.00000E+00
    0.97558E-02        -0.48441E-02         0.00000E+00
    0.88615E-02        -0.44118E-02         0.00000E+00
    0.80024E-02        -0.39911E-02         0.00000E+00
    0.71794E-02        -0.35780E-02         0.00000E+00
    0.63903E-02        -0.31699E-02         0.00000E+00
    0.56310E-02        -0.27659E-02         0.00000E+00
    0.48959E-02        -0.23664E-02         0.00000E+00
    0.41789E-02        -0.19734E-02         0.00000E+00
    0.34741E-02        -0.15899E-02         0.00000E+00
    0.27762E-02        -0.12203E-02         0.00000E+00
    0.20811E-02        -0.87007E-03         0.00000E+00
    0.13865E-02        -0.54529E-03         0.00000E+00
    0.69199E-03        -0.25286E-03         0.00000E+00
    0.00000E+00         0.00000E+00         0.00000E+00
    0.12644E-01        -0.67796E-02         0.00000E+00
    0.11579E-01        -0.62625E-02         0.00000E+00
    0.10551E-01        -0.57689E-02         0.00000E+00
    0.95681E-02        -0.52902E-02         0.00000E+00
    0.86332E-02        -0.48195E-02         0.00000E+00
    0.77447E-02        -0.43519E-02         0.00000E+00
    0.68979E-02        -0.38845E-02         0.00000E+00
    0.60863E-02        -0.34159E-02         0.00000E+00
    0.53020E-02        -0.29468E-02         0.00000E+00
    0.45369E-02        -0.24794E-02         0.00000E+00
    0.37832E-02        -0.20172E-02         0.00000E+00
    0.30337E-02        -0.15654E-02         0.00000E+00
    0.22830E-02        -0.11300E-02         0.00000E+00
    0.15274E-02        -0.71855E-03         0.00000E+00
    0.76577E-03        -0.33897E-03         0.00000E+00
    0.00000E+00         0.00000E+00         0.00000E+00
    0.13628E-01        -0.79270E-02         0.00000E+00
    0.12436E-01        -0.73595E-02         0.00000E+00
    0.11303E-01        -0.68149E-02         0.00000E+00
    0.10232E-01        -0.62825E-02         0.00000E+00
    0.92249E-02        -0.57542E-02         0.00000E+00
    0.82758E-02        -0.52241E-02         0.00000E+00
    0.73771E-02        -0.46887E-02         0.00000E+00
    0.65195E-02        -0.41468E-02         0.00000E+00
    0.56925E-02        -0.35989E-02         0.00000E+00
    0.48853E-02        -0.30476E-02         0.00000E+00
    0.40878E-02        -0.24970E-02         0.00000E+00
    0.32911E-02        -0.19528E-02         0.00000E+00
    0.24876E-02        -0.14222E-02         0.00000E+00
    0.16722E-02        -0.91338E-03         0.00000E+00
    0.84265E-03        -0.43591E-03         0.00000E+00
    0.00000E+00         0.00000E+00         0.00000E+00
    0.14561E-01        -0.92168E-02         0.00000E+00
    0.13238E-01        -0.85918E-02         0.00000E+00
    0.11998E-01        -0.79885E-02         0.00000E+00
    0.10843E-01        -0.73945E-02         0.00000E+00
    0.97678E-02        -0.68000E-02         0.00000E+00
    0.87643E-02        -0.61985E-02         0.00000E+00
    0.78210E-02        -0.55861E-02         0.00000E+00
    0.69249E-02        -0.49613E-02         0.00000E+00
    0.60625E-02        -0.43250E-02         0.00000E+00
    0.52201E-02        -0.36800E-02         0.00000E+00
    0.43852E-02        -0.30309E-02         0.00000E+00
    0.35462E-02        -0.23841E-02         0.00000E+00
    0.26935E-02        -0.17476E-02         0.00000E+00
    0.18203E-02        -0.11307E-02         0.00000E+00
    0.92247E-03        -0.54417E-03         0.00000E+00
    0.00000E+00         0.00000E+00         0.00000E+00
    0.15425E-01        -0.10656E-01         0.00000E+00
    0.13967E-01        -0.99651E-02         0.00000E+00
    0.12622E-01        -0.92948E-02         0.00000E+00
    0.11387E-01        -0.86301E-02         0.00000E+00
    0.10251E-01        -0.79602E-02         0.00000E+00
    0.92007E-02        -0.72777E-02         0.00000E+00
    0.82213E-02        -0.65784E-02         0.00000E+00
    0.72955E-02        -0.58610E-02         0.00000E+00
    0.64062E-02        -0.51264E-02         0.00000E+00
    0.55368E-02        -0.43776E-02         0.00000E+00
    0.46715E-02        -0.36199E-02         0.00000E+00
    0.37963E-02        -0.28601E-02         0.00000E+00
    0.28991E-02        -0.21070E-02         0.00000E+00
    0.19706E-02        -0.13709E-02         0.00000E+00
    0.10048E-02        -0.66410E-03         0.00000E+00
    0.00000E+00         0.00000E+00         0.00000E+00
    0.16198E-01        -0.12248E-01         0.00000E+00
    0.14604E-01        -0.11483E-01         0.00000E+00
    0.13158E-01        -0.10736E-01         0.00000E+00
    0.11849E-01        -0.99913E-02         0.00000E+00
    0.10661E-01        -0.92359E-02         0.00000E+00
    0.95741E-02        -0.84621E-02         0.00000E+00
    0.85686E-02        -0.76658E-02         0.00000E+00
    0.76231E-02        -0.68454E-02         0.00000E+00
    0.67168E-02        -0.60023E-02         0.00000E+00
    0.58294E-02        -0.51397E-02         0.00000E+00
    0.49421E-02        -0.42633E-02         0.00000E+00
    0.40378E-02        -0.33804E-02         0.00000E+00
    0.31016E-02        -0.25003E-02         0.00000E+00
    0.21215E-02        -0.16344E-02         0.00000E+00
    0.10890E-02        -0.79586E-03         0.00000E+00
    0.00000E+00         0.00000E+00         0.00000E+00
    0.16854E-01        -0.13994E-01         0.00000E+00
    0.15128E-01        -0.13146E-01         0.00000E+00
    0.13588E-01        -0.12313E-01         0.00000E+00
    0.12214E-01        -0.11477E-01         0.00000E+00
    0.10984E-01        -0.10625E-01         0.00000E+00
    0.98721E-02        -0.97496E-02         0.00000E+00
    0.88521E-02        -0.88454E-02         0.00000E+00
    0.78984E-02        -0.79118E-02         0.00000E+00
    0.69859E-02        -0.69501E-02         0.00000E+00
    0.60907E-02        -0.59640E-02         0.00000E+00
    0.51907E-02        -0.49593E-02         0.00000E+00
    0.42656E-02        -0.39436E-02         0.00000E+00
    0.32973E-02        -0.29267E-02         0.00000E+00
    0.22705E-02        -0.19205E-02         0.00000E+00
    0.11738E-02        -0.93937E-03         0.00000E+00
    0.00000E+00         0.00000E+00         0.00000E+00
    0.17366E-01        -0.15894E-01         0.00000E+00
    0.15515E-01        -0.14952E-01         0.00000E+00
    0.13890E-01        -0.14022E-01         0.00000E+00
    0.12464E-01        -0.13083E-01         0.00000E+00
    0.11206E-01        -0.12124E-01         0.00000E+00
    0.10081E-01        -0.11134E-01         0.00000E+00
    0.90599E-02        -0.10112E-01         0.00000E+00
    0.81105E-02        -0.90544E-02         0.00000E+00
    0.72037E-02        -0.79645E-02         0.00000E+00
    0.63121E-02        -0.68458E-02         0.00000E+00
    0.54099E-02        -0.57040E-02         0.00000E+00
    0.44735E-02        -0.45468E-02         0.00000E+00
    0.34813E-02        -0.33842E-02         0.00000E+00
    0.24145E-02        -0.22283E-02         0.00000E+00
    0.12577E-02        -0.10942E-02         0.00000E+00
    0.00000E+00         0.00000E+00         0.00000E+00
    0.17704E-01        -0.17939E-01         0.00000E+00
    0.15738E-01        -0.16893E-01         0.00000E+00
    0.14043E-01        -0.15854E-01         0.00000E+00
    0.12580E-01        -0.14801E-01         0.00000E+00
    0.11308E-01        -0.13721E-01         0.00000E+00
    0.10187E-01        -0.12607E-01         0.00000E+00
    0.91789E-02        -0.11455E-01         0.00000E+00
    0.82474E-02        -0.10264E-01         0.00000E+00
    0.73593E-02        -0.90371E-02         0.00000E+00
    0.64833E-02        -0.77777E-02         0.00000E+00
    0.55904E-02        -0.64913E-02         0.00000E+00
    0.46535E-02        -0.51854E-02         0.00000E+00
    0.36473E-02        -0.38696E-02         0.00000E+00
    0.25488E-02        -0.25559E-02         0.00000E+00
    0.13383E-02        -0.12597E-02         0.00000E+00
    0.00000E+00         0.00000E+00         0.00000E+00
    0.17833E-01        -0.20118E-01         0.00000E+00
    0.15769E-01        -0.18957E-01         0.00000E+00
    0.14023E-01        -0.17796E-01         0.00000E+00
    0.12542E-01        -0.16616E-01         0.00000E+00
    0.11275E-01        -0.15404E-01         0.00000E+00
    0.10174E-01        -0.14153E-01         0.00000E+00
    0.91946E-02        -0.12861E-01         0.00000E+00
    0.82955E-02        -0.11528E-01         0.00000E+00
    0.74395E-02        -0.10156E-01         0.00000E+00
    0.65921E-02        -0.87493E-02         0.00000E+00
    0.57211E-02        -0.73127E-02         0.00000E+00
    0.47958E-02        -0.58529E-02         0.00000E+00
    0.37872E-02        -0.43784E-02         0.00000E+00
    0.26679E-02        -0.29006E-02         0.00000E+00
    0.14127E-02        -0.14347E-02         0.00000E+00
    0.00000E+00         0.00000E+00         0.00000E+00
    0.17718E-01        -0.22412E-01         0.00000E+00
    0.15580E-01        -0.21123E-01         0.00000E+00
    0.13806E-01        -0.19828E-01         0.00000E+00
    0.12330E-01        -0.18508E-01         0.00000E+00
    0.11089E-01        -0.17151E-01         0.00000E+00
    0.10026E-01        -0.15752E-01         0.00000E+00
    0.90920E-02        -0.14311E-01         0.00000E+00
    0.82402E-02        -0.12828E-01         0.00000E+00
    0.74301E-02        -0.11305E-01         0.00000E+00
    0.66245E-02        -0.97468E-02         0.00000E+00
    0.57884E-02        -0.81568E-02         0.00000E+00
    0.48883E-02        -0.65403E-02         0.00000E+00
    0.38911E-02        -0.49043E-02         0.00000E+00
    0.27644E-02        -0.32587E-02         0.00000E+00
    0.14770E-02        -0.16175E-02         0.00000E+00
    0.00000E+00         0.00000E+00         0.00000E+00
    0.17323E-01        -0.24795E-01         0.00000E+00
    0.15141E-01        -0.23367E-01         0.00000E+00
    0.13368E-01        -0.21924E-01         0.00000E+00
    0.11923E-01        -0.20451E-01         0.00000E+00
    0.10731E-01        -0.18937E-01         0.00000E+00
    0.97274E-02        -0.17380E-01         0.00000E+00
    0.88551E-02        -0.15780E-01         0.00000E+00
    0.80652E-02        -0.14141E-01         0.00000E+00
    0.73146E-02        -0.12464E-01         0.00000E+00
    0.65640E-02        -0.10753E-01         0.00000E+00
    0.57767E-02        -0.90091E-02         0.00000E+00
    0.49164E-02        -0.72365E-02         0.00000E+00
    0.39465E-02        -0.54394E-02         0.00000E+00
    0.28292E-02        -0.36253E-02         0.00000E+00
    0.15263E-02        -0.18061E-02         0.00000E+00
    0.00000E+00         0.00000E+00         0.00000E+00
    0.16609E-01        -0.27232E-01         0.00000E+00
    0.14422E-01        -0.25652E-01         0.00000E+00
    0.12686E-01        -0.24050E-01         0.00000E+00
    0.11303E-01        -0.22410E-01         0.00000E+00
    0.10186E-01        -0.20727E-01         0.00000E+00
    0.92612E-02        -0.19002E-01         0.00000E+00
    0.84675E-02        -0.17239E-01         0.00000E+00
    0.77534E-02        -0.15440E-01         0.00000E+00
    0.70748E-02        -0.13608E-01         0.00000E+00
    0.63920E-02        -0.11745E-01         0.00000E+00
    0.56672E-02        -0.98519E-02         0.00000E+00
    0.48627E-02        -0.79277E-02         0.00000E+00
    0.39383E-02        -0.59740E-02         0.00000E+00
    0.28509E-02        -0.39945E-02         0.00000E+00
    0.15543E-02        -0.19978E-02         0.00000E+00
    0.00000E+00         0.00000E+00         0.00000E+00
    0.15541E-01        -0.29678E-01         0.00000E+00
    0.13397E-01        -0.27936E-01         0.00000E+00
    0.11740E-01        -0.26160E-01         0.00000E+00
    0.10454E-01        -0.24341E-01         0.00000E+00
    0.94380E-02        -0.22479E-01         0.00000E+00
    0.86123E-02        -0.20580E-01         0.00000E+00
    0.79123E-02        -0.18649E-01         0.00000E+00
    0.72862E-02        -0.16691E-01         0.00000E+00
    0.66907E-02        -0.14708E-01         0.00000E+00
    0.60871E-02        -0.12700E-01         0.00000E+00
    0.54385E-02        -0.10664E-01         0.00000E+00
    0.47063E-02        -0.85975E-02         0.00000E+00
    0.38482E-02        -0.64963E-02         0.00000E+00
    0.28156E-02        -0.43591E-02         0.00000E+00
    0.15532E-02        -0.21896E-02         0.00000E+00
    0.00000E+00         0.00000E+00         0.00000E+00
    0.14084E-01        -0.32079E-01         0.00000E+00
    0.12040E-01        -0.30162E-01         0.00000E+00
    0.10513E-01        -0.28200E-01         0.00000E+00
    0.93612E-02        -0.26192E-01         0.00000E+00
    0.84739E-02        -0.24143E-01         0.00000E+00
    0.77657E-02        -0.22066E-01         0.00000E+00
    0.71722E-02        -0.19969E-01         0.00000E+00
    0.66438E-02        -0.17856E-01         0.00000E+00
    0.61401E-02        -0.15730E-01         0.00000E+00
    0.56256E-02        -0.13587E-01         0.00000E+00
    0.50657E-02        -0.11422E-01         0.00000E+00
    0.44230E-02        -0.92270E-02         0.00000E+00
    0.36541E-02        -0.69927E-02         0.00000E+00
    0.27058E-02        -0.47108E-02         0.00000E+00
    0.15132E-02        -0.23778E-02         0.00000E+00
    0.00000E+00         0.00000E+00         0.00000E+00
    0.12203E-01        -0.34365E-01         0.00000E+00
    0.10333E-01        -0.32263E-01         0.00000E+00
    0.89923E-02        -0.30104E-01         0.00000E+00
    0.80159E-02        -0.27897E-01         0.00000E+00
    0.72826E-02        -0.25659E-01         0.00000E+00
    0.67070E-02        -0.23406E-01         0.00000E+00
    0.62291E-02        -0.21149E-01         0.00000E+00
    0.58048E-02        -0.18894E-01         0.00000E+00
    0.53991E-02        -0.16637E-01         0.00000E+00
    0.49812E-02        -0.14375E-01         0.00000E+00
    0.45209E-02        -0.12099E-01         0.00000E+00
    0.39842E-02        -0.97945E-02         0.00000E+00
    0.33291E-02        -0.74472E-02         0.00000E+00
    0.24998E-02        -0.50397E-02         0.00000E+00
    0.14218E-02        -0.25583E-02         0.00000E+00
    0.00000E+00         0.00000E+00         0.00000E+00
    0.98712E-02        -0.36450E-01         0.00000E+00
    0.82640E-02        -0.34155E-01         0.00000E+00
    0.71749E-02        -0.31789E-01         0.00000E+00
    0.64131E-02        -0.29379E-01         0.00000E+00
    0.58542E-02        -0.26956E-01         0.00000E+00
    0.54211E-02        -0.24540E-01         0.00000E+00
    0.50635E-02        -0.22141E-01         0.00000E+00
    0.47463E-02        -0.19760E-01         0.00000E+00
    0.44417E-02        -0.17394E-01         0.00000E+00
    0.41256E-02        -0.15034E-01         0.00000E+00
    0.37736E-02        -0.12667E-01         0.00000E+00
    0.33576E-02        -0.10276E-01         0.00000E+00
    0.28408E-02        -0.78411E-02         0.00000E+00
    0.21694E-02        -0.53337E-02         0.00000E+00
    0.12618E-02        -0.27261E-02         0.00000E+00
    0.00000E+00         0.00000E+00         0.00000E+00
    0.70637E-02        -0.38226E-01         0.00000E+00
    0.58332E-02        -0.35728E-01         0.00000E+00
    0.50663E-02        -0.33150E-01         0.00000E+00
    0.45503E-02        -0.30547E-01         0.00000E+00
    0.41772E-02        -0.27961E-01         0.00000E+00
    0.38900E-02        -0.25408E-01         0.00000E+00
    0.36536E-02        -0.22894E-01         0.00000E+00
    0.34435E-02        -0.20415E-01         0.00000E+00
    0.32409E-02        -0.17964E-01         0.00000E+00
    0.30293E-02        -0.15530E-01         0.00000E+00
    0.27918E-02        -0.13098E-01         0.00000E+00
    0.25082E-02        -0.10647E-01         0.00000E+00
    0.21511E-02        -0.81519E-02         0.00000E+00
    0.16775E-02        -0.55771E-02         0.00000E+00
    0.10082E-02        -0.28746E-02         0.00000E+00
    0.00000E+00         0.00000E+00         0.00000E+00
    0.37650E-02        -0.39539E-01         0.00000E+00
    0.30645E-02        -0.36832E-01         0.00000E+00
    0.26774E-02        -0.34057E-01         0.00000E+00
    0.24196E-02        -0.31304E-01         0.00000E+00
    0.22343E-02        -0.28601E-01         0.00000E+00
    0.20919E-02        -0.25955E-01         0.00000E+00
    0.19746E-02        -0.23365E-01         0.00000E+00
    0.18702E-02        -0.20823E-01         0.00000E+00
    0.17692E-02        -0.18320E-01         0.00000E+00
    0.16633E-02        -0.15840E-01         0.00000E+00
    0.15438E-02        -0.13368E-01         0.00000E+00
    0.14002E-02        -0.10882E-01         0.00000E+00
    0.12179E-02        -0.83539E-02         0.00000E+00
    0.97279E-03        -0.57448E-02         0.00000E+00
    0.61827E-03        -0.29941E-02         0.00000E+00
    0.00000E+00         0.00000E+00         0.00000E+00
    0.00000E+00        -0.40123E-01         0.00000E+00
    0.00000E+00        -0.37248E-01         0.00000E+00
    0.00000E+00        -0.34380E-01         0.00000E+00
    0.00000E+00        -0.31567E-01         0.00000E+00
    0.00000E+00        -0.28821E-01         0.00000E+00
    0.00000E+00        -0.26142E-01         0.00000E+00
    0.00000E+00        -0.23525E-01         0.00000E+00
    0.00000E+00        -0.20962E-01         0.00000E+00
    0.00000E+00        -0.18440E-01         0.00000E+00
    0.00000E+00        -0.15945E-01         0.00000E+00
    0.00000E+00        -0.13460E-01         0.00000E+00
    0.00000E+00        -0.10963E-01         0.00000E+00
    0.00000E+00        -0.84244E-02         0.00000E+00
    0.00000E+00        -0.58057E-02         0.00000E+00
    0.00000E+00        -0.30452E-02         0.00000E+00
    0.00000E+00         0.00000E+00         0.00000E+00
CELL_DATA        450
VECTORS vDarcy double 
    0.87202E-09         0.20541E-14         0.00000E+00
    0.87198E-09         0.59092E-14         0.00000E+00
    0.87193E-09         0.90003E-14         0.00000E+00
    0.87188E-09         0.11138E-13         0.00000E+00
    0.87182E-09         0.12451E-13         0.00000E+00
    0.87177E-09         0.13070E-13         0.00000E+00
    0.87171E-09         0.13120E-13         0.00000E+00
    0.87165E-09         0.12712E-13         0.00000E+00
    0.87160E-09         0.11933E-13         0.00000E+00
    0.87155E-09         0.10841E-13         0.00000E+00
    0.87151E-09         0.94702E-14         0.00000E+00
    0.87147E-09         0.78281E-14         0.00000E+00
    0.87144E-09         0.59037E-14         0.00000E+00
    0.87141E-09         0.36535E-14         0.00000E+00
    0.87139E-09         0.12192E-14         0.00000E+00
    0.91668E-09         0.64581E-14         0.00000E+00
    0.91663E-09         0.18220E-13         0.00000E+00
    0.91658E-09         0.27371E-13         0.00000E+00
    0.91653E-09         0.33727E-13         0.00000E+00
    0.91647E-09         0.37597E-13         0.00000E+00
    0.91641E-09         0.39379E-13         0.00000E+00
    0.91635E-09         0.39460E-13         0.00000E+00
    0.91630E-09         0.38179E-13         0.00000E+00
    0.91625E-09         0.35801E-13         0.00000E+00
    0.91620E-09         0.32507E-13         0.00000E+00
    0.91615E-09         0.28397E-13         0.00000E+00
    0.91611E-09         0.23492E-13         0.00000E+00
    0.91607E-09         0.17756E-13         0.00000E+00
    0.91604E-09         0.11141E-13         0.00000E+00
    0.91602E-09         0.38048E-14         0.00000E+00
    0.10074E-08         0.11371E-13         0.00000E+00
    0.10074E-08         0.31572E-13         0.00000E+00
    0.10073E-08         0.46748E-13         0.00000E+00
    0.10073E-08         0.57170E-13         0.00000E+00
    0.10072E-08         0.63390E-13         0.00000E+00
    0.10071E-08         0.66108E-13         0.00000E+00
    0.10071E-08         0.66008E-13         0.00000E+00
    0.10070E-08         0.63684E-13         0.00000E+00
    0.10070E-08         0.59594E-13         0.00000E+00
    0.10069E-08         0.54049E-13         0.00000E+00
    0.10069E-08         0.47209E-13         0.00000E+00
    0.10068E-08         0.39106E-13         0.00000E+00
    0.10068E-08         0.29674E-13         0.00000E+00
    0.10068E-08         0.18838E-13         0.00000E+00
    0.10067E-08         0.65318E-14         0.00000E+00
    0.11472E-08         0.16747E-13         0.00000E+00
    0.11471E-08         0.46087E-13         0.00000E+00
    0.11470E-08         0.67480E-13         0.00000E+00
    0.11470E-08         0.81769E-13         0.00000E+00
    0.11469E-08         0.89986E-13         0.00000E+00
    0.11468E-08         0.93244E-13         0.00000E+00
    0.11468E-08         0.92598E-13         0.00000E+00
    0.11467E-08         0.88945E-13         0.00000E+00
    0.11466E-08         0.82968E-13         0.00000E+00
    0.11466E-08         0.75112E-13         0.00000E+00
    0.11465E-08         0.65592E-13         0.00000E+00
    0.11465E-08         0.54420E-13         0.00000E+00
    0.11464E-08         0.41463E-13         0.00000E+00
    0.11464E-08         0.26494E-13         0.00000E+00
    0.11464E-08         0.92371E-14         0.00000E+00
    0.13401E-08         0.22654E-13         0.00000E+00
    0.13400E-08         0.61865E-13         0.00000E+00
    0.13400E-08         0.89606E-13         0.00000E+00
    0.13399E-08         0.10745E-12         0.00000E+00
    0.13398E-08         0.11711E-12         0.00000E+00
    0.13397E-08         0.12031E-12         0.00000E+00
    0.13397E-08         0.11858E-12         0.00000E+00
    0.13396E-08         0.11320E-12         0.00000E+00
    0.13395E-08         0.10512E-12         0.00000E+00
    0.13395E-08         0.94925E-13         0.00000E+00
    0.13394E-08         0.82860E-13         0.00000E+00
    0.13394E-08         0.68878E-13         0.00000E+00
    0.13393E-08         0.52695E-13         0.00000E+00
    0.13393E-08         0.33868E-13         0.00000E+00
    0.13392E-08         0.11865E-13         0.00000E+00
    0.15919E-08         0.29118E-13         0.00000E+00
    0.15918E-08         0.78851E-13         0.00000E+00
    0.15918E-08         0.11282E-12         0.00000E+00
    0.15917E-08         0.13361E-12         0.00000E+00
    0.15916E-08         0.14387E-12         0.00000E+00
    0.15915E-08         0.14613E-12         0.00000E+00
    0.15914E-08         0.14258E-12         0.00000E+00
    0.15913E-08         0.13498E-12         0.00000E+00
    0.15912E-08         0.12457E-12         0.00000E+00
    0.15912E-08         0.11209E-12         0.00000E+00
    0.15911E-08         0.97798E-13         0.00000E+00
    0.15911E-08         0.81499E-13         0.00000E+00
    0.15910E-08         0.62675E-13         0.00000E+00
    0.15910E-08         0.40568E-13         0.00000E+00
    0.15909E-08         0.14294E-13         0.00000E+00
    0.19095E-08         0.36046E-13         0.00000E+00
    0.19094E-08         0.96655E-13         0.00000E+00
    0.19093E-08         0.13627E-12         0.00000E+00
    0.19092E-08         0.15890E-12         0.00000E+00
    0.19091E-08         0.16847E-12         0.00000E+00
    0.19090E-08         0.16857E-12         0.00000E+00
    0.19089E-08         0.16223E-12         0.00000E+00
    0.19088E-08         0.15180E-12         0.00000E+00
    0.19087E-08         0.13889E-12         0.00000E+00
    0.19087E-08         0.12438E-12         0.00000E+00
    0.19086E-08         0.10847E-12         0.00000E+00
    0.19085E-08         0.90731E-13         0.00000E+00
    0.19085E-08         0.70301E-13         0.00000E+00
    0.19084E-08         0.45960E-13         0.00000E+00
    0.19084E-08         0.16322E-13         0.00000E+00
    0.23009E-08         0.43169E-13         0.00000E+00
    0.23008E-08         0.11437E-12         0.00000E+00
    0.23007E-08         0.15831E-12         0.00000E+00
    0.23006E-08         0.18095E-12         0.00000E+00
    0.23004E-08         0.18791E-12         0.00000E+00
    0.23003E-08         0.18417E-12         0.00000E+00
    0.23002E-08         0.17381E-12         0.00000E+00
    0.23001E-08         0.15990E-12         0.00000E+00
    0.23000E-08         0.14445E-12         0.00000E+00
    0.23000E-08         0.12846E-12         0.00000E+00
    0.22999E-08         0.11198E-12         0.00000E+00
    0.22998E-08         0.94273E-13         0.00000E+00
    0.22998E-08         0.73925E-13         0.00000E+00
    0.22997E-08         0.49081E-13         0.00000E+00
    0.22997E-08         0.17640E-13         0.00000E+00
    0.27753E-08         0.49964E-13         0.00000E+00
    0.27751E-08         0.13038E-12         0.00000E+00
    0.27750E-08         0.17620E-12         0.00000E+00
    0.27748E-08         0.19601E-12         0.00000E+00
    0.27747E-08         0.19765E-12         0.00000E+00
    0.27746E-08         0.18784E-12         0.00000E+00
    0.27744E-08         0.17195E-12         0.00000E+00
    0.27743E-08         0.15388E-12         0.00000E+00
    0.27743E-08         0.13608E-12         0.00000E+00
    0.27742E-08         0.11962E-12         0.00000E+00
    0.27741E-08         0.10431E-12         0.00000E+00
    0.27741E-08         0.88885E-13         0.00000E+00
    0.27740E-08         0.71216E-13         0.00000E+00
    0.27739E-08         0.48550E-13         0.00000E+00
    0.27739E-08         0.17797E-13         0.00000E+00
    0.33424E-08         0.55567E-13         0.00000E+00
    0.33421E-08         0.14211E-12         0.00000E+00
    0.33419E-08         0.18577E-12         0.00000E+00
    0.33418E-08         0.19859E-12         0.00000E+00
    0.33416E-08         0.19120E-12         0.00000E+00
    0.33415E-08         0.17247E-12         0.00000E+00
    0.33414E-08         0.14927E-12         0.00000E+00
    0.33413E-08         0.12644E-12         0.00000E+00
    0.33412E-08         0.10686E-12         0.00000E+00
    0.33411E-08         0.91582E-13         0.00000E+00
    0.33410E-08         0.80027E-13         0.00000E+00
    0.33410E-08         0.70212E-13         0.00000E+00
    0.33409E-08         0.59014E-13         0.00000E+00
    0.33408E-08         0.42482E-13         0.00000E+00
    0.33408E-08         0.16173E-13         0.00000E+00
    0.40123E-08         0.58671E-13         0.00000E+00
    0.40120E-08         0.14577E-12         0.00000E+00
    0.40118E-08         0.18111E-12         0.00000E+00
    0.40116E-08         0.18110E-12         0.00000E+00
    0.40114E-08         0.15982E-12         0.00000E+00
    0.40113E-08         0.12863E-12         0.00000E+00
    0.40111E-08         0.96107E-13         0.00000E+00
    0.40111E-08         0.68096E-13         0.00000E+00
    0.40110E-08         0.47846E-13         0.00000E+00
    0.40109E-08         0.36264E-13         0.00000E+00
    0.40109E-08         0.32181E-13         0.00000E+00
    0.40108E-08         0.32641E-13         0.00000E+00
    0.40107E-08         0.33224E-13         0.00000E+00
    0.40107E-08         0.28402E-13         0.00000E+00
    0.40106E-08         0.11945E-13         0.00000E+00
    0.47951E-08         0.57426E-13         0.00000E+00
    0.47948E-08         0.13612E-12         0.00000E+00
    0.47945E-08         0.15425E-12         0.00000E+00
    0.47943E-08         0.13357E-12         0.00000E+00
    0.47941E-08         0.92194E-13         0.00000E+00
    0.47940E-08         0.44333E-13         0.00000E+00
    0.47939E-08         0.38211E-15         0.00000E+00
    0.47938E-08        -0.32873E-13         0.00000E+00
    0.47938E-08        -0.51934E-13         0.00000E+00
    0.47937E-08        -0.56231E-13         0.00000E+00
    0.47937E-08        -0.47766E-13         0.00000E+00
    0.47936E-08        -0.30753E-13         0.00000E+00
    0.47935E-08        -0.11258E-13         0.00000E+00
    0.47935E-08         0.31923E-14         0.00000E+00
    0.47934E-08         0.40688E-14         0.00000E+00
    0.57003E-08         0.49354E-13         0.00000E+00
    0.56999E-08         0.10626E-12         0.00000E+00
    0.56996E-08         0.94951E-13         0.00000E+00
    0.56993E-08         0.43477E-13         0.00000E+00
    0.56992E-08        -0.25528E-13         0.00000E+00
    0.56990E-08        -0.94829E-13         0.00000E+00
    0.56990E-08        -0.15226E-12         0.00000E+00
    0.56989E-08        -0.19026E-12         0.00000E+00
    0.56989E-08        -0.20531E-12         0.00000E+00
    0.56989E-08        -0.19746E-12         0.00000E+00
    0.56989E-08        -0.16981E-12         0.00000E+00
    0.56988E-08        -0.12814E-12         0.00000E+00
    0.56988E-08        -0.80519E-13         0.00000E+00
    0.56987E-08        -0.36918E-13         0.00000E+00
    0.56986E-08        -0.87370E-14         0.00000E+00
    0.67358E-08         0.31293E-13         0.00000E+00
    0.67353E-08         0.47568E-13         0.00000E+00
    0.67350E-08        -0.92604E-14         0.00000E+00
    0.67347E-08        -0.10408E-12         0.00000E+00
    0.67345E-08        -0.20949E-12         0.00000E+00
    0.67344E-08        -0.30533E-12         0.00000E+00
    0.67344E-08        -0.37794E-12         0.00000E+00
    0.67344E-08        -0.41936E-12         0.00000E+00
    0.67344E-08        -0.42643E-12         0.00000E+00
    0.67345E-08        -0.40013E-12         0.00000E+00
    0.67345E-08        -0.34499E-12         0.00000E+00
    0.67345E-08        -0.26863E-12         0.00000E+00
    0.67344E-08        -0.18146E-12         0.00000E+00
    0.67344E-08        -0.96288E-13         0.00000E+00
    0.67342E-08        -0.27974E-13         0.00000E+00
    0.79074E-08        -0.58070E-15         0.00000E+00
    0.79068E-08        -0.50214E-13         0.00000E+00
    0.79064E-08        -0.17280E-12         0.00000E+00
    0.79061E-08        -0.32583E-12         0.00000E+00
    0.79060E-08        -0.47733E-12         0.00000E+00
    0.79059E-08        -0.60471E-12         0.00000E+00
    0.79060E-08        -0.69347E-12         0.00000E+00
    0.79060E-08        -0.73586E-12         0.00000E+00
    0.79061E-08        -0.72965E-12         0.00000E+00
    0.79062E-08        -0.67716E-12         0.00000E+00
    0.79063E-08        -0.58463E-12         0.00000E+00
    0.79063E-08        -0.46175E-12         0.00000E+00
    0.79063E-08        -0.32144E-12         0.00000E+00
    0.79062E-08        -0.17969E-12         0.00000E+00
    0.79061E-08        -0.55320E-13         0.00000E+00
    0.92175E-08        -0.50628E-13         0.00000E+00
    0.92168E-08        -0.19852E-12         0.00000E+00
    0.92163E-08        -0.41122E-12         0.00000E+00
    0.92161E-08        -0.63919E-12         0.00000E+00
    0.92160E-08        -0.84673E-12         0.00000E+00
    0.92160E-08        -0.10099E-11         0.00000E+00
    0.92162E-08        -0.11146E-11         0.00000E+00
    0.92163E-08        -0.11541E-11         0.00000E+00
    0.92165E-08        -0.11279E-11         0.00000E+00
    0.92167E-08        -0.10402E-11         0.00000E+00
    0.92168E-08        -0.89912E-12         0.00000E+00
    0.92169E-08        -0.71644E-12         0.00000E+00
    0.92169E-08        -0.50764E-12         0.00000E+00
    0.92168E-08        -0.29197E-12         0.00000E+00
    0.92167E-08        -0.92530E-13         0.00000E+00
    0.10664E-07        -0.12347E-12         0.00000E+00
    0.10663E-07        -0.40913E-12         0.00000E+00
    0.10663E-07        -0.73982E-12         0.00000E+00
    0.10663E-07        -0.10604E-11         0.00000E+00
    0.10663E-07        -0.13332E-11         0.00000E+00
    0.10663E-07        -0.15349E-11         0.00000E+00
    0.10663E-07        -0.16533E-11         0.00000E+00
    0.10663E-07        -0.16844E-11         0.00000E+00
    0.10664E-07        -0.16304E-11         0.00000E+00
    0.10664E-07        -0.14975E-11         0.00000E+00
    0.10664E-07        -0.12961E-11         0.00000E+00
    0.10664E-07        -0.10398E-11         0.00000E+00
    0.10665E-07        -0.74618E-12         0.00000E+00
    0.10664E-07        -0.43755E-12         0.00000E+00
    0.10664E-07        -0.14128E-12         0.00000E+00
    0.12241E-07        -0.22355E-12         0.00000E+00
    0.12240E-07        -0.69285E-12         0.00000E+00
    0.12239E-07        -0.11716E-11         0.00000E+00
    0.12239E-07        -0.16018E-11         0.00000E+00
    0.12239E-07        -0.19469E-11         0.00000E+00
    0.12240E-07        -0.21870E-11         0.00000E+00
    0.12240E-07        -0.23146E-11         0.00000E+00
    0.12241E-07        -0.23301E-11         0.00000E+00
    0.12241E-07        -0.22392E-11         0.00000E+00
    0.12241E-07        -0.20513E-11         0.00000E+00
    0.12242E-07        -0.17783E-11         0.00000E+00
    0.12242E-07        -0.14351E-11         0.00000E+00
    0.12242E-07        -0.10408E-11         0.00000E+00
    0.12242E-07        -0.61972E-12         0.00000E+00
    0.12242E-07        -0.20295E-12         0.00000E+00
    0.13933E-07        -0.35442E-12         0.00000E+00
    0.13932E-07        -0.10577E-11         0.00000E+00
    0.13932E-07        -0.17144E-11         0.00000E+00
    0.13932E-07        -0.22683E-11         0.00000E+00
    0.13932E-07        -0.26887E-11         0.00000E+00
    0.13933E-07        -0.29633E-11         0.00000E+00
    0.13933E-07        -0.30923E-11         0.00000E+00
    0.13934E-07        -0.30830E-11         0.00000E+00
    0.13935E-07        -0.29463E-11         0.00000E+00
    0.13935E-07        -0.26943E-11         0.00000E+00
    0.13936E-07        -0.23406E-11         0.00000E+00
    0.13936E-07        -0.19000E-11         0.00000E+00
    0.13936E-07        -0.13915E-11         0.00000E+00
    0.13936E-07        -0.83972E-12         0.00000E+00
    0.13936E-07        -0.27832E-12         0.00000E+00
    0.15721E-07        -0.51795E-12         0.00000E+00
    0.15720E-07        -0.15063E-11         0.00000E+00
    0.15720E-07        -0.23673E-11         0.00000E+00
    0.15720E-07        -0.30534E-11         0.00000E+00
    0.15721E-07        -0.35457E-11         0.00000E+00
    0.15722E-07        -0.38454E-11         0.00000E+00
    0.15722E-07        -0.39645E-11         0.00000E+00
    0.15723E-07        -0.39199E-11         0.00000E+00
    0.15724E-07        -0.37288E-11         0.00000E+00
    0.15725E-07        -0.34068E-11         0.00000E+00
    0.15725E-07        -0.29674E-11         0.00000E+00
    0.15726E-07        -0.24239E-11         0.00000E+00
    0.15726E-07        -0.17924E-11         0.00000E+00
    0.15726E-07        -0.10957E-11         0.00000E+00
    0.15726E-07        -0.36719E-12         0.00000E+00
    0.17576E-07        -0.71331E-12         0.00000E+00
    0.17576E-07        -0.20337E-11         0.00000E+00
    0.17576E-07        -0.31173E-11         0.00000E+00
    0.17576E-07        -0.39342E-11         0.00000E+00
    0.17577E-07        -0.44864E-11         0.00000E+00
    0.17578E-07        -0.47949E-11         0.00000E+00
    0.17579E-07        -0.48889E-11         0.00000E+00
    0.17580E-07        -0.47978E-11         0.00000E+00
    0.17581E-07        -0.45464E-11         0.00000E+00
    0.17582E-07        -0.41530E-11         0.00000E+00
    0.17582E-07        -0.36297E-11         0.00000E+00
    0.17583E-07        -0.29856E-11         0.00000E+00
    0.17583E-07        -0.22306E-11         0.00000E+00
    0.17584E-07        -0.13815E-11         0.00000E+00
    0.17583E-07        -0.46807E-12         0.00000E+00
    0.19463E-07        -0.93594E-12         0.00000E+00
    0.19462E-07        -0.26242E-11         0.00000E+00
    0.19463E-07        -0.39346E-11         0.00000E+00
    0.19464E-07        -0.48675E-11         0.00000E+00
    0.19465E-07        -0.54562E-11         0.00000E+00
    0.19466E-07        -0.57499E-11         0.00000E+00
    0.19467E-07        -0.58004E-11         0.00000E+00
    0.19468E-07        -0.56522E-11         0.00000E+00
    0.19469E-07        -0.53385E-11         0.00000E+00
    0.19470E-07        -0.48793E-11         0.00000E+00
    0.19471E-07        -0.42834E-11         0.00000E+00
    0.19472E-07        -0.35518E-11         0.00000E+00
    0.19472E-07        -0.26841E-11         0.00000E+00
    0.19473E-07        -0.16859E-11         0.00000E+00
    0.19472E-07        -0.57771E-12         0.00000E+00
    0.21336E-07        -0.11767E-11         0.00000E+00
    0.21337E-07        -0.32487E-11         0.00000E+00
    0.21337E-07        -0.47698E-11         0.00000E+00
    0.21339E-07        -0.57857E-11         0.00000E+00
    0.21340E-07        -0.63742E-11         0.00000E+00
    0.21341E-07        -0.66224E-11         0.00000E+00
    0.21343E-07        -0.66092E-11         0.00000E+00
    0.21344E-07        -0.63962E-11         0.00000E+00
    0.21345E-07        -0.60243E-11         0.00000E+00
    0.21347E-07        -0.55141E-11         0.00000E+00
    0.21348E-07        -0.48681E-11         0.00000E+00
    0.21349E-07        -0.40760E-11         0.00000E+00
    0.21349E-07        -0.31212E-11         0.00000E+00
    0.21350E-07        -0.19914E-11         0.00000E+00
    0.21350E-07        -0.69088E-12         0.00000E+00
    0.23148E-07        -0.14210E-11         0.00000E+00
    0.23149E-07        -0.38635E-11         0.00000E+00
    0.23150E-07        -0.55508E-11         0.00000E+00
    0.23152E-07        -0.65943E-11         0.00000E+00
    0.23154E-07        -0.71327E-11         0.00000E+00
    0.23156E-07        -0.72997E-11         0.00000E+00
    0.23157E-07        -0.72045E-11         0.00000E+00
    0.23159E-07        -0.69247E-11         0.00000E+00
    0.23160E-07        -0.65071E-11         0.00000E+00
    0.23161E-07        -0.59705E-11         0.00000E+00
    0.23162E-07        -0.53095E-11         0.00000E+00
    0.23163E-07        -0.44987E-11         0.00000E+00
    0.23164E-07        -0.34999E-11         0.00000E+00
    0.23165E-07        -0.22743E-11         0.00000E+00
    0.23165E-07        -0.80018E-12         0.00000E+00
    0.24844E-07        -0.16488E-11         0.00000E+00
    0.24846E-07        -0.44077E-11         0.00000E+00
    0.24848E-07        -0.61803E-11         0.00000E+00
    0.24850E-07        -0.71711E-11         0.00000E+00
    0.24852E-07        -0.75989E-11         0.00000E+00
    0.24854E-07        -0.76506E-11         0.00000E+00
    0.24856E-07        -0.74629E-11         0.00000E+00
    0.24857E-07        -0.71242E-11         0.00000E+00
    0.24859E-07        -0.66824E-11         0.00000E+00
    0.24860E-07        -0.61532E-11         0.00000E+00
    0.24861E-07        -0.55228E-11         0.00000E+00
    0.24862E-07        -0.47494E-11         0.00000E+00
    0.24864E-07        -0.37683E-11         0.00000E+00
    0.24864E-07        -0.25043E-11         0.00000E+00
    0.24865E-07        -0.89603E-12         0.00000E+00
    0.26368E-07        -0.18339E-11         0.00000E+00
    0.26371E-07        -0.48017E-11         0.00000E+00
    0.26374E-07        -0.65325E-11         0.00000E+00
    0.26377E-07        -0.73666E-11         0.00000E+00
    0.26379E-07        -0.76231E-11         0.00000E+00
    0.26381E-07        -0.75391E-11         0.00000E+00
    0.26383E-07        -0.72654E-11         0.00000E+00
    0.26385E-07        -0.68890E-11         0.00000E+00
    0.26386E-07        -0.64536E-11         0.00000E+00
    0.26387E-07        -0.59702E-11         0.00000E+00
    0.26388E-07        -0.54200E-11         0.00000E+00
    0.26390E-07        -0.47491E-11         0.00000E+00
    0.26391E-07        -0.38650E-11         0.00000E+00
    0.26392E-07        -0.26444E-11         0.00000E+00
    0.26393E-07        -0.96659E-12         0.00000E+00
    0.27665E-07        -0.19415E-11         0.00000E+00
    0.27670E-07        -0.49381E-11         0.00000E+00
    0.27674E-07        -0.64451E-11         0.00000E+00
    0.27677E-07        -0.70076E-11         0.00000E+00
    0.27680E-07        -0.70565E-11         0.00000E+00
    0.27682E-07        -0.68495E-11         0.00000E+00
    0.27684E-07        -0.65220E-11         0.00000E+00
    0.27686E-07        -0.61451E-11         0.00000E+00
    0.27687E-07        -0.57522E-11         0.00000E+00
    0.27688E-07        -0.53503E-11         0.00000E+00
    0.27689E-07        -0.49215E-11         0.00000E+00
    0.27691E-07        -0.44143E-11         0.00000E+00
    0.27692E-07        -0.37169E-11         0.00000E+00
    0.27694E-07        -0.26487E-11         0.00000E+00
    0.27695E-07        -0.99791E-12         0.00000E+00
    0.28687E-07        -0.19189E-11         0.00000E+00
    0.28693E-07        -0.46560E-11         0.00000E+00
    0.28699E-07        -0.57012E-11         0.00000E+00
    0.28703E-07        -0.59174E-11         0.00000E+00
    0.28706E-07        -0.57927E-11         0.00000E+00
    0.28708E-07        -0.55238E-11         0.00000E+00
    0.28710E-07        -0.52030E-11         0.00000E+00
    0.28711E-07        -0.48757E-11         0.00000E+00
    0.28712E-07        -0.45623E-11         0.00000E+00
    0.28713E-07        -0.42668E-11         0.00000E+00
    0.28715E-07        -0.39778E-11         0.00000E+00
    0.28716E-07        -0.36610E-11         0.00000E+00
    0.28718E-07        -0.32326E-11         0.00000E+00
    0.28720E-07        -0.24546E-11         0.00000E+00
    0.28722E-07        -0.96676E-12         0.00000E+00
    0.29392E-07        -0.16461E-11         0.00000E+00
    0.29401E-07        -0.36482E-11         0.00000E+00
    0.29407E-07        -0.40421E-11         0.00000E+00
    0.29411E-07        -0.40110E-11         0.00000E+00
    0.29414E-07        -0.38327E-11         0.00000E+00
    0.29416E-07        -0.36033E-11         0.00000E+00
    0.29418E-07        -0.33660E-11         0.00000E+00
    0.29420E-07        -0.31416E-11         0.00000E+00
    0.29421E-07        -0.29393E-11         0.00000E+00
    0.29422E-07        -0.27613E-11         0.00000E+00
    0.29423E-07        -0.26034E-11         0.00000E+00
    0.29424E-07        -0.24518E-11         0.00000E+00
    0.29426E-07        -0.22726E-11         0.00000E+00
    0.29428E-07        -0.19453E-11         0.00000E+00
    0.29432E-07        -0.86029E-12         0.00000E+00
    0.29752E-07        -0.71249E-12         0.00000E+00
    0.29763E-07        -0.14552E-11         0.00000E+00
    0.29769E-07        -0.14750E-11         0.00000E+00
    0.29774E-07        -0.14267E-11         0.00000E+00
    0.29776E-07        -0.13438E-11         0.00000E+00
    0.29779E-07        -0.12534E-11         0.00000E+00
    0.29780E-07        -0.11656E-11         0.00000E+00
    0.29782E-07        -0.10856E-11         0.00000E+00
    0.29783E-07        -0.10156E-11         0.00000E+00
    0.29784E-07        -0.95658E-12         0.00000E+00
    0.29785E-07        -0.90768E-12         0.00000E+00
    0.29786E-07        -0.86714E-12         0.00000E+00
    0.29788E-07        -0.82573E-12         0.00000E+00
    0.29790E-07        -0.79582E-12         0.00000E+00
    0.29795E-07        -0.39444E-12         0.00000E+00
POINT_DATA        496
VECTORS vDarcyNodal double 
    0.87202E-09         0.00000E+00         0.00000E+00
    0.87200E-09         0.00000E+00         0.00000E+00
    0.87195E-09         0.00000E+00         0.00000E+00
    0.87190E-09         0.00000E+00         0.00000E+00
    0.87185E-09         0.00000E+00         0.00000E+00
    0.87179E-09         0.00000E+00         0.00000E+00
    0.87174E-09         0.00000E+00         0.00000E+00
    0.87168E-09         0.00000E+00         0.00000E+00
    0.87163E-09         0.00000E+00         0.00000E+00
    0.87158E-09         0.00000E+00         0.00000E+00
    0.87153E-09         0.00000E+00         0.00000E+00
    0.87149E-09         0.00000E+00         0.00000E+00
    0.87145E-09        -0.33268E-22         0.00000E+00
    0.87142E-09        -0.71601E-27         0.00000E+00
    0.87140E-09         0.33267E-22         0.00000E+00
    0.87138E-09         0.00000E+00         0.00000E+00
    0.89435E-09         0.41082E-14         0.00000E+00
    0.89433E-09         0.79633E-14         0.00000E+00
    0.89428E-09         0.14909E-13         0.00000E+00
    0.89423E-09         0.20138E-13         0.00000E+00
    0.89418E-09         0.23589E-13         0.00000E+00
    0.89412E-09         0.25521E-13         0.00000E+00
    0.89406E-09         0.26190E-13         0.00000E+00
    0.89400E-09         0.25833E-13         0.00000E+00
    0.89395E-09         0.24645E-13         0.00000E+00
    0.89390E-09         0.22773E-13         0.00000E+00
    0.89385E-09         0.20311E-13         0.00000E+00
    0.89381E-09         0.17298E-13         0.00000E+00
    0.89377E-09         0.13732E-13         0.00000E+00
    0.89374E-09         0.95572E-14         0.00000E+00
    0.89371E-09         0.48727E-14         0.00000E+00
    0.89370E-09         0.24383E-14         0.00000E+00
    0.96206E-09         0.88079E-14         0.00000E+00
    0.96204E-09         0.16714E-13         0.00000E+00
    0.96199E-09         0.30681E-13         0.00000E+00
    0.96193E-09         0.40960E-13         0.00000E+00
    0.96187E-09         0.47735E-13         0.00000E+00
    0.96181E-09         0.51454E-13         0.00000E+00
    0.96175E-09         0.52648E-13         0.00000E+00
    0.96169E-09         0.51807E-13         0.00000E+00
    0.96163E-09         0.49335E-13         0.00000E+00
    0.96158E-09         0.45535E-13         0.00000E+00
    0.96153E-09         0.40593E-13         0.00000E+00
    0.96149E-09         0.34590E-13         0.00000E+00
    0.96145E-09         0.27516E-13         0.00000E+00
    0.96141E-09         0.19340E-13         0.00000E+00
    0.96139E-09         0.10074E-13         0.00000E+00
    0.96138E-09         0.51712E-14         0.00000E+00
    0.10773E-08         0.13935E-13         0.00000E+00
    0.10773E-08         0.26229E-13         0.00000E+00
    0.10772E-08         0.47639E-13         0.00000E+00
    0.10772E-08         0.62958E-13         0.00000E+00
    0.10771E-08         0.72825E-13         0.00000E+00
    0.10770E-08         0.78043E-13         0.00000E+00
    0.10770E-08         0.79467E-13         0.00000E+00
    0.10769E-08         0.77885E-13         0.00000E+00
    0.10768E-08         0.73942E-13         0.00000E+00
    0.10768E-08         0.68107E-13         0.00000E+00
    0.10767E-08         0.60665E-13         0.00000E+00
    0.10767E-08         0.51725E-13         0.00000E+00
    0.10766E-08         0.41263E-13         0.00000E+00
    0.10766E-08         0.29171E-13         0.00000E+00
    0.10766E-08         0.15296E-13         0.00000E+00
    0.10766E-08         0.78924E-14         0.00000E+00
    0.12436E-08         0.19559E-13         0.00000E+00
    0.12436E-08         0.36605E-13         0.00000E+00
    0.12435E-08         0.65928E-13         0.00000E+00
    0.12435E-08         0.86291E-13         0.00000E+00
    0.12434E-08         0.98929E-13         0.00000E+00
    0.12433E-08         0.10519E-12         0.00000E+00
    0.12432E-08         0.10637E-12         0.00000E+00
    0.12432E-08         0.10366E-12         0.00000E+00
    0.12431E-08         0.97971E-13         0.00000E+00
    0.12430E-08         0.89972E-13         0.00000E+00
    0.12430E-08         0.80038E-13         0.00000E+00
    0.12429E-08         0.68286E-13         0.00000E+00
    0.12429E-08         0.54620E-13         0.00000E+00
    0.12429E-08         0.38786E-13         0.00000E+00
    0.12428E-08         0.20435E-13         0.00000E+00
    0.12428E-08         0.10582E-13         0.00000E+00
    0.14660E-08         0.25749E-13         0.00000E+00
    0.14660E-08         0.47914E-13         0.00000E+00
    0.14659E-08         0.85542E-13         0.00000E+00
    0.14658E-08         0.11076E-12         0.00000E+00
    0.14657E-08         0.12563E-12         0.00000E+00
    0.14656E-08         0.13224E-12         0.00000E+00
    0.14656E-08         0.13252E-12         0.00000E+00
    0.14655E-08         0.12813E-12         0.00000E+00
    0.14654E-08         0.12035E-12         0.00000E+00
    0.14653E-08         0.11007E-12         0.00000E+00
    0.14653E-08         0.97746E-13         0.00000E+00
    0.14652E-08         0.83451E-13         0.00000E+00
    0.14652E-08         0.66953E-13         0.00000E+00
    0.14651E-08         0.47777E-13         0.00000E+00
    0.14651E-08         0.25298E-13         0.00000E+00
    0.14651E-08         0.13148E-13         0.00000E+00
    0.17507E-08         0.32486E-13         0.00000E+00
    0.17507E-08         0.60055E-13         0.00000E+00
    0.17506E-08         0.10613E-12         0.00000E+00
    0.17505E-08         0.13566E-12         0.00000E+00
    0.17504E-08         0.15184E-12         0.00000E+00
    0.17503E-08         0.15777E-12         0.00000E+00
    0.17502E-08         0.15620E-12         0.00000E+00
    0.17501E-08         0.14944E-12         0.00000E+00
    0.17500E-08         0.13919E-12         0.00000E+00
    0.17499E-08         0.12659E-12         0.00000E+00
    0.17499E-08         0.11215E-12         0.00000E+00
    0.17498E-08         0.95845E-13         0.00000E+00
    0.17498E-08         0.77220E-13         0.00000E+00
    0.17497E-08         0.55466E-13         0.00000E+00
    0.17497E-08         0.29564E-13         0.00000E+00
    0.17497E-08         0.15439E-13         0.00000E+00
    0.21052E-08         0.39605E-13         0.00000E+00
    0.21052E-08         0.72646E-13         0.00000E+00
    0.21051E-08         0.12680E-12         0.00000E+00
    0.21049E-08         0.15951E-12         0.00000E+00
    0.21048E-08         0.17552E-12         0.00000E+00
    0.21047E-08         0.17927E-12         0.00000E+00
    0.21046E-08         0.17459E-12         0.00000E+00
    0.21045E-08         0.16459E-12         0.00000E+00
    0.21044E-08         0.15150E-12         0.00000E+00
    0.21043E-08         0.13668E-12         0.00000E+00
    0.21043E-08         0.12070E-12         0.00000E+00
    0.21042E-08         0.10335E-12         0.00000E+00
    0.21042E-08         0.83811E-13         0.00000E+00
    0.21041E-08         0.60795E-13         0.00000E+00
    0.21041E-08         0.32719E-13         0.00000E+00
    0.21040E-08         0.17205E-13         0.00000E+00
    0.25381E-08         0.46732E-13         0.00000E+00
    0.25381E-08         0.84896E-13         0.00000E+00
    0.25379E-08         0.14589E-12         0.00000E+00
    0.25378E-08         0.17975E-12         0.00000E+00
    0.25376E-08         0.19333E-12         0.00000E+00
    0.25375E-08         0.19281E-12         0.00000E+00
    0.25374E-08         0.18338E-12         0.00000E+00
    0.25373E-08         0.16911E-12         0.00000E+00
    0.25372E-08         0.15285E-12         0.00000E+00
    0.25371E-08         0.13622E-12         0.00000E+00
    0.25370E-08         0.11974E-12         0.00000E+00
    0.25370E-08         0.10291E-12         0.00000E+00
    0.25369E-08         0.84387E-13         0.00000E+00
    0.25369E-08         0.62211E-13         0.00000E+00
    0.25368E-08         0.34002E-13         0.00000E+00
    0.25368E-08         0.18075E-13         0.00000E+00
    0.30588E-08         0.53196E-13         0.00000E+00
    0.30587E-08         0.95451E-13         0.00000E+00
    0.30585E-08         0.16069E-12         0.00000E+00
    0.30584E-08         0.19245E-12         0.00000E+00
    0.30582E-08         0.20032E-12         0.00000E+00
    0.30581E-08         0.19268E-12         0.00000E+00
    0.30580E-08         0.17641E-12         0.00000E+00
    0.30579E-08         0.15672E-12         0.00000E+00
    0.30578E-08         0.13712E-12         0.00000E+00
    0.30577E-08         0.11948E-12         0.00000E+00
    0.30576E-08         0.10419E-12         0.00000E+00
    0.30576E-08         0.90290E-13         0.00000E+00
    0.30575E-08         0.75714E-13         0.00000E+00
    0.30574E-08         0.57554E-13         0.00000E+00
    0.30574E-08         0.32345E-13         0.00000E+00
    0.30573E-08         0.17520E-13         0.00000E+00
    0.36773E-08         0.57938E-13         0.00000E+00
    0.36772E-08         0.10222E-12         0.00000E+00
    0.36770E-08         0.16719E-12         0.00000E+00
    0.36768E-08         0.19191E-12         0.00000E+00
    0.36766E-08         0.18947E-12         0.00000E+00
    0.36764E-08         0.17100E-12         0.00000E+00
    0.36763E-08         0.14534E-12         0.00000E+00
    0.36762E-08         0.11899E-12         0.00000E+00
    0.36761E-08         0.96183E-13         0.00000E+00
    0.36761E-08         0.78957E-13         0.00000E+00
    0.36760E-08         0.67416E-13         0.00000E+00
    0.36759E-08         0.59949E-13         0.00000E+00
    0.36759E-08         0.53513E-13         0.00000E+00
    0.36758E-08         0.43942E-13         0.00000E+00
    0.36757E-08         0.26309E-13         0.00000E+00
    0.36757E-08         0.14826E-13         0.00000E+00
    0.44037E-08         0.59404E-13         0.00000E+00
    0.44036E-08         0.10221E-12         0.00000E+00
    0.44033E-08         0.15969E-12         0.00000E+00
    0.44030E-08         0.17031E-12         0.00000E+00
    0.44028E-08         0.15145E-12         0.00000E+00
    0.44027E-08         0.11744E-12         0.00000E+00
    0.44026E-08         0.79397E-13         0.00000E+00
    0.44025E-08         0.45211E-13         0.00000E+00
    0.44024E-08         0.19761E-13         0.00000E+00
    0.44023E-08         0.51553E-14         0.00000E+00
    0.44023E-08         0.10313E-14         0.00000E+00
    0.44022E-08         0.48745E-14         0.00000E+00
    0.44022E-08         0.12354E-13         0.00000E+00
    0.44021E-08         0.17685E-13         0.00000E+00
    0.44020E-08         0.14038E-13         0.00000E+00
    0.44020E-08         0.90646E-14         0.00000E+00
    0.52477E-08         0.55449E-13         0.00000E+00
    0.52475E-08         0.91332E-13         0.00000E+00
    0.52472E-08         0.13067E-12         0.00000E+00
    0.52469E-08         0.11751E-12         0.00000E+00
    0.52467E-08         0.74320E-13         0.00000E+00
    0.52466E-08         0.19087E-13         0.00000E+00
    0.52465E-08        -0.34678E-13         0.00000E+00
    0.52464E-08        -0.77698E-13         0.00000E+00
    0.52463E-08        -0.10456E-12         0.00000E+00
    0.52463E-08        -0.11332E-12         0.00000E+00
    0.52463E-08        -0.10503E-12         0.00000E+00
    0.52463E-08        -0.83391E-13         0.00000E+00
    0.52462E-08        -0.54363E-13         0.00000E+00
    0.52461E-08        -0.25749E-13         0.00000E+00
    0.52460E-08        -0.67760E-14         0.00000E+00
    0.52460E-08        -0.92683E-15         0.00000E+00
    0.62181E-08         0.43259E-13         0.00000E+00
    0.62179E-08         0.64287E-13         0.00000E+00
    0.62174E-08         0.70544E-13         0.00000E+00
    0.62171E-08         0.20921E-13         0.00000E+00
    0.62169E-08        -0.56366E-13         0.00000E+00
    0.62168E-08        -0.13944E-12         0.00000E+00
    0.62167E-08        -0.21241E-12         0.00000E+00
    0.62167E-08        -0.26482E-12         0.00000E+00
    0.62167E-08        -0.29100E-12         0.00000E+00
    0.62167E-08        -0.28945E-12         0.00000E+00
    0.62167E-08        -0.26224E-12         0.00000E+00
    0.62167E-08        -0.21455E-12         0.00000E+00
    0.62166E-08        -0.15429E-12         0.00000E+00
    0.62166E-08        -0.91685E-13         0.00000E+00
    0.62165E-08        -0.38878E-13         0.00000E+00
    0.62164E-08        -0.16547E-13         0.00000E+00
    0.73216E-08         0.19327E-13         0.00000E+00
    0.73213E-08         0.14576E-13         0.00000E+00
    0.73209E-08        -0.32231E-13         0.00000E+00
    0.73205E-08        -0.13426E-12         0.00000E+00
    0.73203E-08        -0.25720E-12         0.00000E+00
    0.73202E-08        -0.37537E-12         0.00000E+00
    0.73202E-08        -0.47085E-12         0.00000E+00
    0.73202E-08        -0.53247E-12         0.00000E+00
    0.73203E-08        -0.55477E-12         0.00000E+00
    0.73203E-08        -0.53709E-12         0.00000E+00
    0.73204E-08        -0.48287E-12         0.00000E+00
    0.73204E-08        -0.39906E-12         0.00000E+00
    0.73204E-08        -0.29580E-12         0.00000E+00
    0.73203E-08        -0.18606E-12         0.00000E+00
    0.73202E-08        -0.85383E-13         0.00000E+00
    0.73202E-08        -0.39401E-13         0.00000E+00
    0.85624E-08        -0.20487E-13         0.00000E+00
    0.85621E-08        -0.65366E-13         0.00000E+00
    0.85616E-08        -0.19077E-12         0.00000E+00
    0.85612E-08        -0.36436E-12         0.00000E+00
    0.85610E-08        -0.54595E-12         0.00000E+00
    0.85610E-08        -0.70665E-12         0.00000E+00
    0.85610E-08        -0.82730E-12         0.00000E+00
    0.85611E-08        -0.89683E-12         0.00000E+00
    0.85613E-08        -0.91071E-12         0.00000E+00
    0.85614E-08        -0.86969E-12         0.00000E+00
    0.85615E-08        -0.77891E-12         0.00000E+00
    0.85616E-08        -0.64730E-12         0.00000E+00
    0.85616E-08        -0.48738E-12         0.00000E+00
    0.85616E-08        -0.31506E-12         0.00000E+00
    0.85615E-08        -0.14962E-12         0.00000E+00
    0.85614E-08        -0.71237E-13         0.00000E+00
    0.99408E-08        -0.80765E-13         0.00000E+00
    0.99405E-08        -0.18377E-12         0.00000E+00
    0.99399E-08        -0.41894E-12         0.00000E+00
    0.99396E-08        -0.68602E-12         0.00000E+00
    0.99394E-08        -0.93994E-12         0.00000E+00
    0.99395E-08        -0.11500E-11         0.00000E+00
    0.99396E-08        -0.12972E-11         0.00000E+00
    0.99398E-08        -0.13718E-11         0.00000E+00
    0.99400E-08        -0.13712E-11         0.00000E+00
    0.99403E-08        -0.12984E-11         0.00000E+00
    0.99405E-08        -0.11604E-11         0.00000E+00
    0.99406E-08        -0.96823E-12         0.00000E+00
    0.99407E-08        -0.73669E-12         0.00000E+00
    0.99407E-08        -0.48454E-12         0.00000E+00
    0.99406E-08        -0.23487E-12         0.00000E+00
    0.99405E-08        -0.11382E-12         0.00000E+00
    0.11452E-07        -0.16617E-12         0.00000E+00
    0.11452E-07        -0.34881E-12         0.00000E+00
    0.11451E-07        -0.72997E-12         0.00000E+00
    0.11451E-07        -0.11141E-11         0.00000E+00
    0.11451E-07        -0.14536E-11         0.00000E+00
    0.11451E-07        -0.17180E-11         0.00000E+00
    0.11451E-07        -0.18910E-11         0.00000E+00
    0.11452E-07        -0.19659E-11         0.00000E+00
    0.11452E-07        -0.19435E-11         0.00000E+00
    0.11453E-07        -0.18295E-11         0.00000E+00
    0.11453E-07        -0.16332E-11         0.00000E+00
    0.11453E-07        -0.13676E-11         0.00000E+00
    0.11453E-07        -0.10492E-11         0.00000E+00
    0.11453E-07        -0.69917E-12         0.00000E+00
    0.11453E-07        -0.34395E-12         0.00000E+00
    0.11453E-07        -0.16874E-12         0.00000E+00
    0.13087E-07        -0.28090E-12         0.00000E+00
    0.13086E-07        -0.56755E-12         0.00000E+00
    0.13086E-07        -0.11344E-11         0.00000E+00
    0.13086E-07        -0.16592E-11         0.00000E+00
    0.13086E-07        -0.20950E-11         0.00000E+00
    0.13086E-07        -0.24158E-11         0.00000E+00
    0.13086E-07        -0.26106E-11         0.00000E+00
    0.13087E-07        -0.26787E-11         0.00000E+00
    0.13087E-07        -0.26258E-11         0.00000E+00
    0.13088E-07        -0.24610E-11         0.00000E+00
    0.13088E-07        -0.21963E-11         0.00000E+00
    0.13089E-07        -0.18457E-11         0.00000E+00
    0.13089E-07        -0.14267E-11         0.00000E+00
    0.13089E-07        -0.96135E-12         0.00000E+00
    0.13089E-07        -0.47871E-12         0.00000E+00
    0.13089E-07        -0.23716E-12         0.00000E+00
    0.14827E-07        -0.42791E-12         0.00000E+00
    0.14827E-07        -0.84447E-12         0.00000E+00
    0.14826E-07        -0.16375E-11         0.00000E+00
    0.14826E-07        -0.23234E-11         0.00000E+00
    0.14826E-07        -0.28619E-11         0.00000E+00
    0.14827E-07        -0.32361E-11         0.00000E+00
    0.14828E-07        -0.34449E-11         0.00000E+00
    0.14828E-07        -0.34965E-11         0.00000E+00
    0.14829E-07        -0.34035E-11         0.00000E+00
    0.14830E-07        -0.31795E-11         0.00000E+00
    0.14830E-07        -0.28385E-11         0.00000E+00
    0.14831E-07        -0.23948E-11         0.00000E+00
    0.14831E-07        -0.18648E-11         0.00000E+00
    0.14831E-07        -0.12698E-11         0.00000E+00
    0.14831E-07        -0.63932E-12         0.00000E+00
    0.14831E-07        -0.31947E-12         0.00000E+00
    0.16649E-07        -0.60796E-12         0.00000E+00
    0.16648E-07        -0.11797E-11         0.00000E+00
    0.16648E-07        -0.22360E-11         0.00000E+00
    0.16648E-07        -0.30972E-11         0.00000E+00
    0.16649E-07        -0.37371E-11         0.00000E+00
    0.16649E-07        -0.41549E-11         0.00000E+00
    0.16650E-07        -0.43648E-11         0.00000E+00
    0.16651E-07        -0.43877E-11         0.00000E+00
    0.16652E-07        -0.42451E-11         0.00000E+00
    0.16653E-07        -0.39560E-11         0.00000E+00
    0.16653E-07        -0.35356E-11         0.00000E+00
    0.16654E-07        -0.29964E-11         0.00000E+00
    0.16655E-07        -0.23515E-11         0.00000E+00
    0.16655E-07        -0.16182E-11         0.00000E+00
    0.16655E-07        -0.82355E-12         0.00000E+00
    0.16655E-07        -0.41492E-12         0.00000E+00
    0.18519E-07        -0.81861E-12         0.00000E+00
    0.18519E-07        -0.15672E-11         0.00000E+00
    0.18519E-07        -0.29149E-11         0.00000E+00
    0.18520E-07        -0.39542E-11         0.00000E+00
    0.18520E-07        -0.46834E-11         0.00000E+00
    0.18521E-07        -0.51263E-11         0.00000E+00
    0.18522E-07        -0.53189E-11         0.00000E+00
    0.18523E-07        -0.52990E-11         0.00000E+00
    0.18525E-07        -0.50990E-11         0.00000E+00
    0.18525E-07        -0.47433E-11         0.00000E+00
    0.18526E-07        -0.42471E-11         0.00000E+00
    0.18527E-07        -0.36189E-11         0.00000E+00
    0.18528E-07        -0.28647E-11         0.00000E+00
    0.18528E-07        -0.19938E-11         0.00000E+00
    0.18528E-07        -0.10260E-11         0.00000E+00
    0.18528E-07        -0.52122E-12         0.00000E+00
    0.20399E-07        -0.10532E-11         0.00000E+00
    0.20399E-07        -0.19928E-11         0.00000E+00
    0.20400E-07        -0.36438E-11         0.00000E+00
    0.20401E-07        -0.48478E-11         0.00000E+00
    0.20402E-07        -0.56401E-11         0.00000E+00
    0.20403E-07        -0.60796E-11         0.00000E+00
    0.20404E-07        -0.62312E-11         0.00000E+00
    0.20406E-07        -0.61535E-11         0.00000E+00
    0.20407E-07        -0.58916E-11         0.00000E+00
    0.20408E-07        -0.54744E-11         0.00000E+00
    0.20409E-07        -0.49155E-11         0.00000E+00
    0.20410E-07        -0.42162E-11         0.00000E+00
    0.20410E-07        -0.33712E-11         0.00000E+00
    0.20411E-07        -0.23761E-11         0.00000E+00
    0.20411E-07        -0.12375E-11         0.00000E+00
    0.20411E-07        -0.63419E-12         0.00000E+00
    0.22242E-07        -0.13000E-11         0.00000E+00
    0.22242E-07        -0.24325E-11         0.00000E+00
    0.22243E-07        -0.43746E-11         0.00000E+00
    0.22245E-07        -0.57075E-11         0.00000E+00
    0.22246E-07        -0.65196E-11         0.00000E+00
    0.22248E-07        -0.69168E-11         0.00000E+00
    0.22249E-07        -0.70002E-11         0.00000E+00
    0.22251E-07        -0.68518E-11         0.00000E+00
    0.22252E-07        -0.65289E-11         0.00000E+00
    0.22253E-07        -0.60639E-11         0.00000E+00
    0.22254E-07        -0.54666E-11         0.00000E+00
    0.22255E-07        -0.47278E-11         0.00000E+00
    0.22256E-07        -0.38259E-11         0.00000E+00
    0.22257E-07        -0.27364E-11         0.00000E+00
    0.22257E-07        -0.14447E-11         0.00000E+00
    0.22257E-07        -0.74755E-12         0.00000E+00
    0.23996E-07        -0.15419E-11         0.00000E+00
    0.23997E-07        -0.28518E-11         0.00000E+00
    0.23998E-07        -0.50395E-11         0.00000E+00
    0.24000E-07        -0.64374E-11         0.00000E+00
    0.24002E-07        -0.72072E-11         0.00000E+00
    0.24004E-07        -0.75153E-11         0.00000E+00
    0.24006E-07        -0.75038E-11         0.00000E+00
    0.24007E-07        -0.72773E-11         0.00000E+00
    0.24009E-07        -0.69029E-11         0.00000E+00
    0.24010E-07        -0.64136E-11         0.00000E+00
    0.24011E-07        -0.58133E-11         0.00000E+00
    0.24012E-07        -0.50803E-11         0.00000E+00
    0.24013E-07        -0.41726E-11         0.00000E+00
    0.24014E-07        -0.30377E-11         0.00000E+00
    0.24015E-07        -0.16297E-11         0.00000E+00
    0.24015E-07        -0.85279E-12         0.00000E+00
    0.25606E-07        -0.17557E-11         0.00000E+00
    0.25607E-07        -0.32046E-11         0.00000E+00
    0.25609E-07        -0.55484E-11         0.00000E+00
    0.25612E-07        -0.69139E-11         0.00000E+00
    0.25614E-07        -0.75627E-11         0.00000E+00
    0.25617E-07        -0.77340E-11         0.00000E+00
    0.25619E-07        -0.76096E-11         0.00000E+00
    0.25620E-07        -0.73097E-11         0.00000E+00
    0.25622E-07        -0.69037E-11         0.00000E+00
    0.25623E-07        -0.64221E-11         0.00000E+00
    0.25624E-07        -0.58627E-11         0.00000E+00
    0.25625E-07        -0.51918E-11         0.00000E+00
    0.25627E-07        -0.43451E-11         0.00000E+00
    0.25628E-07        -0.32349E-11         0.00000E+00
    0.25629E-07        -0.17705E-11         0.00000E+00
    0.25629E-07        -0.93926E-12         0.00000E+00
    0.27016E-07        -0.19120E-11         0.00000E+00
    0.27018E-07        -0.34309E-11         0.00000E+00
    0.27022E-07        -0.57857E-11         0.00000E+00
    0.27025E-07        -0.69852E-11         0.00000E+00
    0.27028E-07        -0.74270E-11         0.00000E+00
    0.27031E-07        -0.74282E-11         0.00000E+00
    0.27033E-07        -0.71949E-11         0.00000E+00
    0.27034E-07        -0.68447E-11         0.00000E+00
    0.27036E-07        -0.64389E-11         0.00000E+00
    0.27037E-07        -0.60018E-11         0.00000E+00
    0.27038E-07        -0.55276E-11         0.00000E+00
    0.27040E-07        -0.49774E-11         0.00000E+00
    0.27041E-07        -0.42691E-11         0.00000E+00
    0.27042E-07        -0.32746E-11         0.00000E+00
    0.27044E-07        -0.18405E-11         0.00000E+00
    0.27044E-07        -0.99391E-12         0.00000E+00
    0.28176E-07        -0.19708E-11         0.00000E+00
    0.28179E-07        -0.34486E-11         0.00000E+00
    0.28184E-07        -0.55975E-11         0.00000E+00
    0.28188E-07        -0.64676E-11         0.00000E+00
    0.28191E-07        -0.66372E-11         0.00000E+00
    0.28194E-07        -0.64780E-11         0.00000E+00
    0.28196E-07        -0.61768E-11         0.00000E+00
    0.28198E-07        -0.58226E-11         0.00000E+00
    0.28199E-07        -0.54586E-11         0.00000E+00
    0.28200E-07        -0.51009E-11         0.00000E+00
    0.28201E-07        -0.47443E-11         0.00000E+00
    0.28203E-07        -0.43585E-11         0.00000E+00
    0.28204E-07        -0.38622E-11         0.00000E+00
    0.28206E-07        -0.30910E-11         0.00000E+00
    0.28208E-07        -0.18062E-11         0.00000E+00
    0.28209E-07        -0.10019E-11         0.00000E+00
    0.29040E-07        -0.18670E-11         0.00000E+00
    0.29044E-07        -0.31264E-11         0.00000E+00
    0.29050E-07        -0.47600E-11         0.00000E+00
    0.29055E-07        -0.51514E-11         0.00000E+00
    0.29058E-07        -0.50733E-11         0.00000E+00
    0.29061E-07        -0.48388E-11         0.00000E+00
    0.29063E-07        -0.45503E-11         0.00000E+00
    0.29065E-07        -0.42565E-11         0.00000E+00
    0.29066E-07        -0.39797E-11         0.00000E+00
    0.29067E-07        -0.37283E-11         0.00000E+00
    0.29068E-07        -0.35004E-11         0.00000E+00
    0.29069E-07        -0.32804E-11         0.00000E+00
    0.29071E-07        -0.30315E-11         0.00000E+00
    0.29073E-07        -0.25962E-11         0.00000E+00
    0.29075E-07        -0.16152E-11         0.00000E+00
    0.29077E-07        -0.93163E-12         0.00000E+00
    0.29573E-07        -0.14253E-11         0.00000E+00
    0.29577E-07        -0.21682E-11         0.00000E+00
    0.29585E-07        -0.29308E-11         0.00000E+00
    0.29590E-07        -0.29022E-11         0.00000E+00
    0.29594E-07        -0.27709E-11         0.00000E+00
    0.29596E-07        -0.25976E-11         0.00000E+00
    0.29598E-07        -0.24194E-11         0.00000E+00
    0.29600E-07        -0.22515E-11         0.00000E+00
    0.29601E-07        -0.21015E-11         0.00000E+00
    0.29602E-07        -0.19725E-11         0.00000E+00
    0.29603E-07        -0.18645E-11         0.00000E+00
    0.29605E-07        -0.17751E-11         0.00000E+00
    0.29606E-07        -0.16931E-11         0.00000E+00
    0.29608E-07        -0.16218E-11         0.00000E+00
    0.29611E-07        -0.11904E-11         0.00000E+00
    0.29613E-07        -0.78896E-12         0.00000E+00
    0.29753E-07         0.00000E+00         0.00000E+00
    0.29758E-07         0.00000E+00         0.00000E+00
    0.29766E-07        -0.82788E-22         0.00000E+00
    0.29771E-07         0.19788E-25         0.00000E+00
    0.29775E-07         0.86948E-22         0.00000E+00
    0.29777E-07         0.00000E+00         0.00000E+00
    0.29779E-07         0.00000E+00         0.00000E+00
    0.29781E-07        -0.82858E-22         0.00000E+00
    0.29782E-07        -0.82858E-22         0.00000E+00
    0.29783E-07         0.82876E-22         0.00000E+00
    0.29784E-07         0.87019E-22         0.00000E+00
    0.29785E-07        -0.87037E-22         0.00000E+00
    0.29787E-07        -0.41357E-23         0.00000E+00
    0.29789E-07         0.87048E-22         0.00000E+00
    0.29792E-07         0.82913E-23         0.00000E+00
    0.29794E-07         0.00000E+00         0.00000E+00
CELL_DATA        450
TENSORS stressef double 
    0.12521E+08        -0.56102E+04         0.00000E+00
   -0.56102E+04        -0.62808E+05         0.00000E+00
    0.00000E+00         0.00000E+00         0.24917E+07
 
    0.11614E+08         0.13317E+05         0.00000E+00
    0.13317E+05        -0.48606E+05         0.00000E+00
    0.00000E+00         0.00000E+00         0.23131E+07
 
    0.10716E+08         0.30126E+05         0.00000E+00
    0.30126E+05        -0.24342E+04         0.00000E+00
    0.00000E+00         0.00000E+00         0.21426E+07
 
    0.98141E+07         0.42602E+05         0.00000E+00
    0.42602E+05         0.71248E+05         0.00000E+00
    0.00000E+00         0.00000E+00         0.19771E+07
 
    0.89158E+07         0.52346E+05         0.00000E+00
    0.52346E+05         0.16647E+06         0.00000E+00
    0.00000E+00         0.00000E+00         0.18165E+07
 
    0.80276E+07         0.60498E+05         0.00000E+00
    0.60498E+05         0.27923E+06         0.00000E+00
    0.00000E+00         0.00000E+00         0.16614E+07
 
    0.71551E+07         0.67950E+05         0.00000E+00
    0.67950E+05         0.40739E+06         0.00000E+00
    0.00000E+00         0.00000E+00         0.15125E+07
 
    0.63022E+07         0.75335E+05         0.00000E+00
    0.75335E+05         0.55030E+06         0.00000E+00
    0.00000E+00         0.00000E+00         0.13705E+07
 
    0.54712E+07         0.83058E+05         0.00000E+00
    0.83058E+05         0.70829E+06         0.00000E+00
    0.00000E+00         0.00000E+00         0.12359E+07
 
    0.46635E+07         0.91330E+05         0.00000E+00
    0.91330E+05         0.88230E+06         0.00000E+00
    0.00000E+00         0.00000E+00         0.11092E+07
 
    0.38792E+07         0.10023E+06         0.00000E+00
    0.10023E+06         0.10736E+07         0.00000E+00
    0.00000E+00         0.00000E+00         0.99055E+06
 
    0.31180E+07         0.10976E+06         0.00000E+00
    0.10976E+06         0.12834E+07         0.00000E+00
    0.00000E+00         0.00000E+00         0.88027E+06
 
    0.23780E+07         0.12014E+06         0.00000E+00
    0.12014E+06         0.15132E+07         0.00000E+00
    0.00000E+00         0.00000E+00         0.77824E+06
 
    0.16540E+07         0.13220E+06         0.00000E+00
    0.13220E+06         0.17657E+07         0.00000E+00
    0.00000E+00         0.00000E+00         0.68393E+06
 
    0.92271E+06         0.15506E+06         0.00000E+00
    0.15506E+06         0.20499E+07         0.00000E+00
    0.00000E+00         0.00000E+00         0.59453E+06
 
    0.12410E+08         0.10765E+05         0.00000E+00
    0.10765E+05        -0.17536E+06         0.00000E+00
    0.00000E+00         0.00000E+00         0.24470E+07
 
    0.11522E+08         0.51589E+05         0.00000E+00
    0.51589E+05        -0.13977E+06         0.00000E+00
    0.00000E+00         0.00000E+00         0.22765E+07
 
    0.10617E+08         0.94374E+05         0.00000E+00
    0.94374E+05        -0.82755E+05         0.00000E+00
    0.00000E+00         0.00000E+00         0.21069E+07
 
    0.97100E+07         0.12894E+06         0.00000E+00
    0.12894E+06        -0.51146E+04         0.00000E+00
    0.00000E+00         0.00000E+00         0.19410E+07
 
    0.88078E+07         0.15670E+06         0.00000E+00
    0.15670E+06         0.90442E+05         0.00000E+00
    0.00000E+00         0.00000E+00         0.17797E+07
 
    0.79176E+07         0.18038E+06         0.00000E+00
    0.18038E+06         0.20154E+06         0.00000E+00
    0.00000E+00         0.00000E+00         0.16238E+07
 
    0.70446E+07         0.20236E+06         0.00000E+00
    0.20236E+06         0.32699E+06         0.00000E+00
    0.00000E+00         0.00000E+00         0.14743E+07
 
    0.61921E+07         0.22440E+06         0.00000E+00
    0.22440E+06         0.46673E+06         0.00000E+00
    0.00000E+00         0.00000E+00         0.13318E+07
 
    0.53621E+07         0.24765E+06         0.00000E+00
    0.24765E+06         0.62154E+06         0.00000E+00
    0.00000E+00         0.00000E+00         0.11967E+07
 
    0.45556E+07         0.27271E+06         0.00000E+00
    0.27271E+06         0.79270E+06         0.00000E+00
    0.00000E+00         0.00000E+00         0.10697E+07
 
    0.37727E+07         0.29978E+06         0.00000E+00
    0.29978E+06         0.98171E+06         0.00000E+00
    0.00000E+00         0.00000E+00         0.95089E+06
 
    0.30129E+07         0.32891E+06         0.00000E+00
    0.32891E+06         0.11901E+07         0.00000E+00
    0.00000E+00         0.00000E+00         0.84061E+06
 
    0.22753E+07         0.36059E+06         0.00000E+00
    0.36059E+06         0.14195E+07         0.00000E+00
    0.00000E+00         0.00000E+00         0.73895E+06
 
    0.15570E+07         0.39767E+06         0.00000E+00
    0.39767E+06         0.16720E+07         0.00000E+00
    0.00000E+00         0.00000E+00         0.64580E+06
 
    0.86301E+06         0.45340E+06         0.00000E+00
    0.45340E+06         0.19500E+07         0.00000E+00
    0.00000E+00         0.00000E+00         0.56259E+06
 
    0.12326E+08         0.35854E+05         0.00000E+00
    0.35854E+05        -0.30970E+06         0.00000E+00
    0.00000E+00         0.00000E+00         0.24032E+07
 
    0.11443E+08         0.10417E+06         0.00000E+00
    0.10417E+06        -0.26897E+06         0.00000E+00
    0.00000E+00         0.00000E+00         0.22347E+07
 
    0.10530E+08         0.16542E+06         0.00000E+00
    0.16542E+06        -0.20481E+06         0.00000E+00
    0.00000E+00         0.00000E+00         0.20651E+07
 
    0.96141E+07         0.21664E+06         0.00000E+00
    0.21664E+06        -0.12479E+06         0.00000E+00
    0.00000E+00         0.00000E+00         0.18979E+07
 
    0.87057E+07         0.25915E+06         0.00000E+00
    0.25915E+06        -0.30997E+05         0.00000E+00
    0.00000E+00         0.00000E+00         0.17349E+07
 
    0.78124E+07         0.29647E+06         0.00000E+00
    0.29647E+06         0.75576E+05         0.00000E+00
    0.00000E+00         0.00000E+00         0.15776E+07
 
    0.69388E+07         0.33203E+06         0.00000E+00
    0.33203E+06         0.19492E+06         0.00000E+00
    0.00000E+00         0.00000E+00         0.14267E+07
 
    0.60876E+07         0.36847E+06         0.00000E+00
    0.36847E+06         0.32792E+06         0.00000E+00
    0.00000E+00         0.00000E+00         0.12831E+07
 
    0.52600E+07         0.40752E+06         0.00000E+00
    0.40752E+06         0.47606E+06         0.00000E+00
    0.00000E+00         0.00000E+00         0.11472E+07
 
    0.44563E+07         0.45007E+06         0.00000E+00
    0.45007E+06         0.64121E+06         0.00000E+00
    0.00000E+00         0.00000E+00         0.10195E+07
 
    0.36762E+07         0.49635E+06         0.00000E+00
    0.49635E+06         0.82532E+06         0.00000E+00
    0.00000E+00         0.00000E+00         0.90030E+06
 
    0.29194E+07         0.54631E+06         0.00000E+00
    0.54631E+06         0.10302E+07         0.00000E+00
    0.00000E+00         0.00000E+00         0.78992E+06
 
    0.21858E+07         0.60040E+06         0.00000E+00
    0.60040E+06         0.12573E+07         0.00000E+00
    0.00000E+00         0.00000E+00         0.68862E+06
 
    0.14779E+07         0.66131E+06         0.00000E+00
    0.66131E+06         0.15072E+07         0.00000E+00
    0.00000E+00         0.00000E+00         0.59702E+06
 
    0.80462E+06         0.73401E+06         0.00000E+00
    0.73401E+06         0.17757E+07         0.00000E+00
    0.00000E+00         0.00000E+00         0.51607E+06
 
    0.12267E+08         0.59921E+05         0.00000E+00
    0.59921E+05        -0.46154E+06         0.00000E+00
    0.00000E+00         0.00000E+00         0.23610E+07
 
    0.11368E+08         0.15909E+06         0.00000E+00
    0.15909E+06        -0.42313E+06         0.00000E+00
    0.00000E+00         0.00000E+00         0.21891E+07
 
    0.10443E+08         0.23797E+06         0.00000E+00
    0.23797E+06        -0.36115E+06         0.00000E+00
    0.00000E+00         0.00000E+00         0.20165E+07
 
    0.95160E+07         0.30207E+06         0.00000E+00
    0.30207E+06        -0.28482E+06         0.00000E+00
    0.00000E+00         0.00000E+00         0.18462E+07
 
    0.86002E+07         0.35611E+06         0.00000E+00
    0.35611E+06        -0.19760E+06         0.00000E+00
    0.00000E+00         0.00000E+00         0.16805E+07
 
    0.77037E+07         0.40496E+06         0.00000E+00
    0.40496E+06        -0.99996E+05         0.00000E+00
    0.00000E+00         0.00000E+00         0.15207E+07
 
    0.68304E+07         0.45303E+06         0.00000E+00
    0.45303E+06         0.89053E+04         0.00000E+00
    0.00000E+00         0.00000E+00         0.13679E+07
 
    0.59820E+07         0.50369E+06         0.00000E+00
    0.50369E+06         0.13093E+06         0.00000E+00
    0.00000E+00         0.00000E+00         0.12226E+07
 
    0.51587E+07         0.55909E+06         0.00000E+00
    0.55909E+06         0.26842E+06         0.00000E+00
    0.00000E+00         0.00000E+00         0.10854E+07
 
    0.43598E+07         0.62025E+06         0.00000E+00
    0.62025E+06         0.42396E+06         0.00000E+00
    0.00000E+00         0.00000E+00         0.95674E+06
 
    0.35844E+07         0.68726E+06         0.00000E+00
    0.68726E+06         0.60001E+06         0.00000E+00
    0.00000E+00         0.00000E+00         0.83688E+06
 
    0.28320E+07         0.75965E+06         0.00000E+00
    0.75965E+06         0.79860E+06         0.00000E+00
    0.00000E+00         0.00000E+00         0.72612E+06
 
    0.21036E+07         0.83703E+06         0.00000E+00
    0.83703E+06         0.10209E+07         0.00000E+00
    0.00000E+00         0.00000E+00         0.62488E+06
 
    0.14027E+07         0.91940E+06         0.00000E+00
    0.91940E+06         0.12659E+07         0.00000E+00
    0.00000E+00         0.00000E+00         0.53372E+06
 
    0.73808E+06         0.10064E+07         0.00000E+00
    0.10064E+07         0.15293E+07         0.00000E+00
    0.00000E+00         0.00000E+00         0.45348E+06
 
    0.12224E+08         0.80978E+05         0.00000E+00
    0.80978E+05        -0.63723E+06         0.00000E+00
    0.00000E+00         0.00000E+00         0.23174E+07
 
    0.11293E+08         0.20888E+06         0.00000E+00
    0.20888E+06        -0.60443E+06         0.00000E+00
    0.00000E+00         0.00000E+00         0.21378E+07
 
    0.10347E+08         0.30430E+06         0.00000E+00
    0.30430E+06        -0.55098E+06         0.00000E+00
    0.00000E+00         0.00000E+00         0.19592E+07
 
    0.94053E+07         0.37914E+06         0.00000E+00
    0.37914E+06        -0.48524E+06         0.00000E+00
    0.00000E+00         0.00000E+00         0.17840E+07
 
    0.84817E+07         0.44230E+06         0.00000E+00
    0.44230E+06        -0.41072E+06         0.00000E+00
    0.00000E+00         0.00000E+00         0.16142E+07
 
    0.75830E+07         0.50093E+06         0.00000E+00
    0.50093E+06        -0.32765E+06         0.00000E+00
    0.00000E+00         0.00000E+00         0.14511E+07
 
    0.67119E+07         0.56069E+06         0.00000E+00
    0.56069E+06        -0.23437E+06         0.00000E+00
    0.00000E+00         0.00000E+00         0.12955E+07
 
    0.58687E+07         0.62566E+06         0.00000E+00
    0.62566E+06        -0.12814E+06         0.00000E+00
    0.00000E+00         0.00000E+00         0.11481E+07
 
    0.50523E+07         0.69832E+06         0.00000E+00
    0.69832E+06        -0.57194E+04         0.00000E+00
    0.00000E+00         0.00000E+00         0.10093E+07
 
    0.42606E+07         0.77966E+06         0.00000E+00
    0.77966E+06         0.13622E+06         0.00000E+00
    0.00000E+00         0.00000E+00         0.87936E+06
 
    0.34919E+07         0.86938E+06         0.00000E+00
    0.86938E+06         0.30072E+06         0.00000E+00
    0.00000E+00         0.00000E+00         0.75853E+06
 
    0.27453E+07         0.96625E+06         0.00000E+00
    0.96625E+06         0.49010E+06         0.00000E+00
    0.00000E+00         0.00000E+00         0.64708E+06
 
    0.20213E+07         0.10683E+07         0.00000E+00
    0.10683E+07         0.70540E+06         0.00000E+00
    0.00000E+00         0.00000E+00         0.54535E+06
 
    0.13235E+07         0.11730E+07         0.00000E+00
    0.11730E+07         0.94561E+06         0.00000E+00
    0.00000E+00         0.00000E+00         0.45382E+06
 
    0.65866E+06         0.12766E+07         0.00000E+00
    0.12766E+07         0.12071E+07         0.00000E+00
    0.00000E+00         0.00000E+00         0.37314E+06
 
    0.12185E+08         0.97997E+05         0.00000E+00
    0.97997E+05        -0.84442E+06         0.00000E+00
    0.00000E+00         0.00000E+00         0.22680E+07
 
    0.11207E+08         0.24933E+06         0.00000E+00
    0.24933E+06        -0.81943E+06         0.00000E+00
    0.00000E+00         0.00000E+00         0.20776E+07
 
    0.10231E+08         0.35817E+06         0.00000E+00
    0.35817E+06        -0.77904E+06         0.00000E+00
    0.00000E+00         0.00000E+00         0.18904E+07
 
    0.92719E+07         0.44136E+06         0.00000E+00
    0.44136E+06        -0.72979E+06         0.00000E+00
    0.00000E+00         0.00000E+00         0.17084E+07
 
    0.83405E+07         0.51167E+06         0.00000E+00
    0.51167E+06        -0.67417E+06         0.00000E+00
    0.00000E+00         0.00000E+00         0.15333E+07
 
    0.74414E+07         0.57876E+06         0.00000E+00
    0.57876E+06        -0.61161E+06         0.00000E+00
    0.00000E+00         0.00000E+00         0.13659E+07
 
    0.65752E+07         0.64977E+06         0.00000E+00
    0.64977E+06        -0.53955E+06         0.00000E+00
    0.00000E+00         0.00000E+00         0.12071E+07
 
    0.57406E+07         0.72955E+06         0.00000E+00
    0.72955E+06        -0.45431E+06         0.00000E+00
    0.00000E+00         0.00000E+00         0.10572E+07
 
    0.49343E+07         0.82084E+06         0.00000E+00
    0.82084E+06        -0.35170E+06         0.00000E+00
    0.00000E+00         0.00000E+00         0.91652E+06
 
    0.41530E+07         0.92444E+06         0.00000E+00
    0.92444E+06        -0.22755E+06         0.00000E+00
    0.00000E+00         0.00000E+00         0.78509E+06
 
    0.33935E+07         0.10395E+07         0.00000E+00
    0.10395E+07        -0.78157E+05         0.00000E+00
    0.00000E+00         0.00000E+00         0.66307E+06
 
    0.26537E+07         0.11636E+07         0.00000E+00
    0.11636E+07         0.99279E+05         0.00000E+00
    0.00000E+00         0.00000E+00         0.55060E+06
 
    0.19334E+07         0.12933E+07         0.00000E+00
    0.12933E+07         0.30614E+06         0.00000E+00
    0.00000E+00         0.00000E+00         0.44791E+06
 
    0.12348E+07         0.14237E+07         0.00000E+00
    0.14237E+07         0.54189E+06         0.00000E+00
    0.00000E+00         0.00000E+00         0.35534E+06
 
    0.56331E+06         0.15483E+07         0.00000E+00
    0.15483E+07         0.80372E+06         0.00000E+00
    0.00000E+00         0.00000E+00         0.27341E+06
 
    0.12131E+08         0.11011E+06         0.00000E+00
    0.11011E+06        -0.10918E+07         0.00000E+00
    0.00000E+00         0.00000E+00         0.22078E+07
 
    0.11096E+08         0.27737E+06         0.00000E+00
    0.27737E+06        -0.10765E+07         0.00000E+00
    0.00000E+00         0.00000E+00         0.20039E+07
 
    0.10083E+08         0.39464E+06         0.00000E+00
    0.39464E+06        -0.10528E+07         0.00000E+00
    0.00000E+00         0.00000E+00         0.18061E+07
 
    0.91047E+07         0.48285E+06         0.00000E+00
    0.48285E+06        -0.10251E+07         0.00000E+00
    0.00000E+00         0.00000E+00         0.16159E+07
 
    0.81662E+07         0.55815E+06         0.00000E+00
    0.55815E+06        -0.99418E+06         0.00000E+00
    0.00000E+00         0.00000E+00         0.14344E+07
 
    0.72693E+07         0.63258E+06         0.00000E+00
    0.63258E+06        -0.95799E+06         0.00000E+00
    0.00000E+00         0.00000E+00         0.12623E+07
 
    0.64119E+07         0.71477E+06         0.00000E+00
    0.71477E+06        -0.91281E+06         0.00000E+00
    0.00000E+00         0.00000E+00         0.10998E+07
 
    0.55899E+07         0.81031E+06         0.00000E+00
    0.81031E+06        -0.85383E+06         0.00000E+00
    0.00000E+00         0.00000E+00         0.94722E+06
 
    0.47981E+07         0.92211E+06         0.00000E+00
    0.92211E+06        -0.77582E+06         0.00000E+00
    0.00000E+00         0.00000E+00         0.80446E+06
 
    0.40310E+07         0.10507E+07         0.00000E+00
    0.10507E+07        -0.67367E+06         0.00000E+00
    0.00000E+00         0.00000E+00         0.67146E+06
 
    0.32835E+07         0.11944E+07         0.00000E+00
    0.11944E+07        -0.54286E+06         0.00000E+00
    0.00000E+00         0.00000E+00         0.54812E+06
 
    0.25520E+07         0.13498E+07         0.00000E+00
    0.13498E+07        -0.37987E+06         0.00000E+00
    0.00000E+00         0.00000E+00         0.43443E+06
 
    0.18348E+07         0.15115E+07         0.00000E+00
    0.15115E+07        -0.18269E+06         0.00000E+00
    0.00000E+00         0.00000E+00         0.33043E+06
 
    0.11328E+07         0.16726E+07         0.00000E+00
    0.16726E+07         0.48896E+05         0.00000E+00
    0.00000E+00         0.00000E+00         0.23634E+06
 
    0.44949E+06         0.18246E+07         0.00000E+00
    0.18246E+07         0.31296E+06         0.00000E+00
    0.00000E+00         0.00000E+00         0.15249E+06
 
    0.12044E+08         0.11647E+06         0.00000E+00
    0.11647E+06        -0.13892E+07         0.00000E+00
    0.00000E+00         0.00000E+00         0.21309E+07
 
    0.10943E+08         0.29035E+06         0.00000E+00
    0.29035E+06        -0.13852E+07         0.00000E+00
    0.00000E+00         0.00000E+00         0.19115E+07
 
    0.98897E+07         0.40946E+06         0.00000E+00
    0.40946E+06        -0.13816E+07         0.00000E+00
    0.00000E+00         0.00000E+00         0.17016E+07
 
    0.88908E+07         0.49835E+06         0.00000E+00
    0.49835E+06        -0.13800E+07         0.00000E+00
    0.00000E+00         0.00000E+00         0.15022E+07
 
    0.79473E+07         0.57605E+06         0.00000E+00
    0.57605E+06        -0.13789E+07         0.00000E+00
    0.00000E+00         0.00000E+00         0.13137E+07
 
    0.70565E+07         0.65671E+06         0.00000E+00
    0.65671E+06        -0.13746E+07         0.00000E+00
    0.00000E+00         0.00000E+00         0.11364E+07
 
    0.62127E+07         0.75026E+06         0.00000E+00
    0.75026E+06        -0.13618E+07         0.00000E+00
    0.00000E+00         0.00000E+00         0.97020E+06
 
    0.54088E+07         0.86292E+06         0.00000E+00
    0.86292E+06        -0.13342E+07         0.00000E+00
    0.00000E+00         0.00000E+00         0.81493E+06
 
    0.46366E+07         0.99767E+06         0.00000E+00
    0.99767E+06        -0.12854E+07         0.00000E+00
    0.00000E+00         0.00000E+00         0.67024E+06
 
    0.38882E+07         0.11546E+07         0.00000E+00
    0.11546E+07        -0.12093E+07         0.00000E+00
    0.00000E+00         0.00000E+00         0.53577E+06
 
    0.31562E+07         0.13313E+07         0.00000E+00
    0.13313E+07        -0.11004E+07         0.00000E+00
    0.00000E+00         0.00000E+00         0.41118E+06
 
    0.24352E+07         0.15228E+07         0.00000E+00
    0.15228E+07        -0.95417E+06         0.00000E+00
    0.00000E+00         0.00000E+00         0.29621E+06
 
    0.17214E+07         0.17223E+07         0.00000E+00
    0.17223E+07        -0.76784E+06         0.00000E+00
    0.00000E+00         0.00000E+00         0.19072E+06
 
    0.10140E+07         0.19208E+07         0.00000E+00
    0.19208E+07        -0.54027E+06         0.00000E+00
    0.00000E+00         0.00000E+00         0.94736E+05
 
    0.31483E+06         0.21077E+07         0.00000E+00
    0.21077E+07        -0.27249E+06         0.00000E+00
    0.00000E+00         0.00000E+00         0.84673E+04
 
    0.11900E+08         0.11618E+06         0.00000E+00
    0.11618E+06        -0.17476E+07         0.00000E+00
    0.00000E+00         0.00000E+00         0.20305E+07
 
    0.10728E+08         0.28577E+06         0.00000E+00
    0.28577E+06        -0.17567E+07         0.00000E+00
    0.00000E+00         0.00000E+00         0.17943E+07
 
    0.96331E+07         0.39881E+06         0.00000E+00
    0.39881E+06        -0.17762E+07         0.00000E+00
    0.00000E+00         0.00000E+00         0.15714E+07
 
    0.86155E+07         0.48311E+06         0.00000E+00
    0.48311E+06        -0.18047E+07         0.00000E+00
    0.00000E+00         0.00000E+00         0.13622E+07
 
    0.76709E+07         0.56016E+06         0.00000E+00
    0.56016E+06        -0.18383E+07         0.00000E+00
    0.00000E+00         0.00000E+00         0.11665E+07
 
    0.67916E+07         0.64584E+06         0.00000E+00
    0.64584E+06        -0.18709E+07         0.00000E+00
    0.00000E+00         0.00000E+00         0.98414E+06
 
    0.59677E+07         0.75111E+06         0.00000E+00
    0.75111E+06        -0.18953E+07         0.00000E+00
    0.00000E+00         0.00000E+00         0.81449E+06
 
    0.51883E+07         0.88263E+06         0.00000E+00
    0.88263E+06        -0.19038E+07         0.00000E+00
    0.00000E+00         0.00000E+00         0.65690E+06
 
    0.44420E+07         0.10433E+07         0.00000E+00
    0.10433E+07        -0.18886E+07         0.00000E+00
    0.00000E+00         0.00000E+00         0.51067E+06
 
    0.37178E+07         0.12326E+07         0.00000E+00
    0.12326E+07        -0.18423E+07         0.00000E+00
    0.00000E+00         0.00000E+00         0.37509E+06
 
    0.30059E+07         0.14472E+07         0.00000E+00
    0.14472E+07        -0.17583E+07         0.00000E+00
    0.00000E+00         0.00000E+00         0.24951E+06
 
    0.22982E+07         0.16809E+07         0.00000E+00
    0.16809E+07        -0.16312E+07         0.00000E+00
    0.00000E+00         0.00000E+00         0.13341E+06
 
    0.15890E+07         0.19252E+07         0.00000E+00
    0.19252E+07        -0.14569E+07         0.00000E+00
    0.00000E+00         0.00000E+00         0.26419E+05
 
    0.87509E+06         0.21690E+07         0.00000E+00
    0.21690E+07        -0.12333E+07         0.00000E+00
    0.00000E+00         0.00000E+00        -0.71648E+05
 
    0.15690E+06         0.23995E+07         0.00000E+00
    0.23995E+07        -0.96062E+06         0.00000E+00
    0.00000E+00         0.00000E+00        -0.16074E+06
 
    0.11675E+08         0.10835E+06         0.00000E+00
    0.10835E+06        -0.21793E+07         0.00000E+00
    0.00000E+00         0.00000E+00         0.18991E+07
 
    0.10430E+08         0.26122E+06         0.00000E+00
    0.26122E+06        -0.22030E+07         0.00000E+00
    0.00000E+00         0.00000E+00         0.16453E+07
 
    0.92943E+07         0.35916E+06         0.00000E+00
    0.35916E+06        -0.22485E+07         0.00000E+00
    0.00000E+00         0.00000E+00         0.14092E+07
 
    0.82622E+07         0.43285E+06         0.00000E+00
    0.43285E+06        -0.23110E+07         0.00000E+00
    0.00000E+00         0.00000E+00         0.11902E+07
 
    0.73224E+07         0.50580E+06         0.00000E+00
    0.50580E+06        -0.23834E+07         0.00000E+00
    0.00000E+00         0.00000E+00         0.98781E+06
 
    0.64619E+07         0.59521E+06         0.00000E+00
    0.59521E+06        -0.24573E+07         0.00000E+00
    0.00000E+00         0.00000E+00         0.80092E+06
 
    0.56657E+07         0.71271E+06         0.00000E+00
    0.71271E+06        -0.25234E+07         0.00000E+00
    0.00000E+00         0.00000E+00         0.62847E+06
 
    0.49187E+07         0.86512E+06         0.00000E+00
    0.86512E+06        -0.25722E+07         0.00000E+00
    0.00000E+00         0.00000E+00         0.46930E+06
 
    0.42057E+07         0.10551E+07         0.00000E+00
    0.10551E+07        -0.25944E+07         0.00000E+00
    0.00000E+00         0.00000E+00         0.32225E+06
 
    0.35124E+07         0.12814E+07         0.00000E+00
    0.12814E+07        -0.25813E+07         0.00000E+00
    0.00000E+00         0.00000E+00         0.18622E+06
 
    0.28261E+07         0.15397E+07         0.00000E+00
    0.15397E+07        -0.25250E+07         0.00000E+00
    0.00000E+00         0.00000E+00         0.60206E+05
 
    0.21358E+07         0.18225E+07         0.00000E+00
    0.18225E+07        -0.24189E+07         0.00000E+00
    0.00000E+00         0.00000E+00        -0.56633E+05
 
    0.14331E+07         0.21194E+07         0.00000E+00
    0.21194E+07        -0.22578E+07         0.00000E+00
    0.00000E+00         0.00000E+00        -0.16494E+06
 
    0.71287E+06         0.24177E+07         0.00000E+00
    0.24177E+07        -0.20385E+07         0.00000E+00
    0.00000E+00         0.00000E+00        -0.26513E+06
 
   -0.26791E+05         0.27019E+07         0.00000E+00
    0.27019E+07        -0.17599E+07         0.00000E+00
    0.00000E+00         0.00000E+00        -0.35734E+06
 
    0.11339E+08         0.92077E+05         0.00000E+00
    0.92077E+05        -0.26979E+07         0.00000E+00
    0.00000E+00         0.00000E+00         0.17282E+07
 
    0.10022E+08         0.21442E+06         0.00000E+00
    0.21442E+06        -0.27379E+07         0.00000E+00
    0.00000E+00         0.00000E+00         0.14569E+07
 
    0.88516E+07         0.28730E+06         0.00000E+00
    0.28730E+06        -0.28120E+07         0.00000E+00
    0.00000E+00         0.00000E+00         0.12079E+07
 
    0.78121E+07         0.34378E+06         0.00000E+00
    0.34378E+06        -0.29117E+07         0.00000E+00
    0.00000E+00         0.00000E+00         0.98010E+06
 
    0.68859E+07         0.40891E+06         0.00000E+00
    0.40891E+06        -0.30266E+07         0.00000E+00
    0.00000E+00         0.00000E+00         0.77187E+06
 
    0.60534E+07         0.50071E+06         0.00000E+00
    0.50071E+06        -0.31455E+07         0.00000E+00
    0.00000E+00         0.00000E+00         0.58159E+06
 
    0.52945E+07         0.63109E+06         0.00000E+00
    0.63109E+06        -0.32569E+07         0.00000E+00
    0.00000E+00         0.00000E+00         0.40753E+06
 
    0.45892E+07         0.80672E+06         0.00000E+00
    0.80672E+06        -0.33494E+07         0.00000E+00
    0.00000E+00         0.00000E+00         0.24796E+06
 
    0.39183E+07         0.10297E+07         0.00000E+00
    0.10297E+07        -0.34122E+07         0.00000E+00
    0.00000E+00         0.00000E+00         0.10122E+06
 
    0.32638E+07         0.12981E+07         0.00000E+00
    0.12981E+07        -0.34351E+07         0.00000E+00
    0.00000E+00         0.00000E+00        -0.34251E+05
 
    0.26097E+07         0.16064E+07         0.00000E+00
    0.16064E+07        -0.34089E+07         0.00000E+00
    0.00000E+00         0.00000E+00        -0.15985E+06
 
    0.19419E+07         0.19458E+07         0.00000E+00
    0.19458E+07        -0.33257E+07         0.00000E+00
    0.00000E+00         0.00000E+00        -0.27676E+06
 
    0.12492E+07         0.23043E+07         0.00000E+00
    0.23043E+07        -0.31791E+07         0.00000E+00
    0.00000E+00         0.00000E+00        -0.38597E+06
 
    0.52371E+06         0.26670E+07         0.00000E+00
    0.26670E+07        -0.29644E+07         0.00000E+00
    0.00000E+00         0.00000E+00        -0.48813E+06
 
   -0.23888E+06         0.30161E+07         0.00000E+00
    0.30161E+07        -0.26792E+07         0.00000E+00
    0.00000E+00         0.00000E+00        -0.58361E+06
 
    0.10861E+08         0.66511E+05         0.00000E+00
    0.66511E+05        -0.33186E+07         0.00000E+00
    0.00000E+00         0.00000E+00         0.15084E+07
 
    0.94788E+07         0.14329E+06         0.00000E+00
    0.14329E+06        -0.33762E+07         0.00000E+00
    0.00000E+00         0.00000E+00         0.12205E+07
 
    0.82816E+07         0.18040E+06         0.00000E+00
    0.18040E+06        -0.34812E+07         0.00000E+00
    0.00000E+00         0.00000E+00         0.96008E+06
 
    0.72451E+07         0.21271E+06         0.00000E+00
    0.21271E+06        -0.36207E+07         0.00000E+00
    0.00000E+00         0.00000E+00         0.72488E+06
 
    0.63436E+07         0.26619E+06         0.00000E+00
    0.26619E+06        -0.37809E+07         0.00000E+00
    0.00000E+00         0.00000E+00         0.51254E+06
 
    0.55508E+07         0.35910E+06         0.00000E+00
    0.35910E+06        -0.39477E+07         0.00000E+00
    0.00000E+00         0.00000E+00         0.32062E+06
 
    0.48405E+07         0.50317E+06         0.00000E+00
    0.50317E+06        -0.41070E+07         0.00000E+00
    0.00000E+00         0.00000E+00         0.14670E+06
 
    0.41878E+07         0.70453E+06         0.00000E+00
    0.70453E+06        -0.42458E+07         0.00000E+00
    0.00000E+00         0.00000E+00        -0.11589E+05
 
    0.35692E+07         0.96455E+06         0.00000E+00
    0.96455E+06        -0.43514E+07         0.00000E+00
    0.00000E+00         0.00000E+00        -0.15645E+06
 
    0.29627E+07         0.12804E+07         0.00000E+00
    0.12804E+07        -0.44124E+07         0.00000E+00
    0.00000E+00         0.00000E+00        -0.28995E+06
 
    0.23487E+07         0.16454E+07         0.00000E+00
    0.16454E+07        -0.44183E+07         0.00000E+00
    0.00000E+00         0.00000E+00        -0.41391E+06
 
    0.17100E+07         0.20495E+07         0.00000E+00
    0.20495E+07        -0.43597E+07         0.00000E+00
    0.00000E+00         0.00000E+00        -0.52994E+06
 
    0.10320E+07         0.24790E+07         0.00000E+00
    0.24790E+07        -0.42287E+07         0.00000E+00
    0.00000E+00         0.00000E+00        -0.63933E+06
 
    0.30365E+06         0.29170E+07         0.00000E+00
    0.29170E+07        -0.40191E+07         0.00000E+00
    0.00000E+00         0.00000E+00        -0.74309E+06
 
   -0.48214E+06         0.33434E+07         0.00000E+00
    0.33434E+07        -0.37270E+07         0.00000E+00
    0.00000E+00         0.00000E+00        -0.84184E+06
 
    0.10205E+08         0.30875E+05         0.00000E+00
    0.30875E+05        -0.40578E+07         0.00000E+00
    0.00000E+00         0.00000E+00         0.12295E+07
 
    0.87694E+07         0.46054E+05         0.00000E+00
    0.46054E+05        -0.41341E+07         0.00000E+00
    0.00000E+00         0.00000E+00         0.92706E+06
 
    0.75587E+07         0.36222E+05         0.00000E+00
    0.36222E+05        -0.42718E+07         0.00000E+00
    0.00000E+00         0.00000E+00         0.65738E+06
 
    0.65393E+07         0.37273E+05         0.00000E+00
    0.37273E+05        -0.44531E+07         0.00000E+00
    0.00000E+00         0.00000E+00         0.41723E+06
 
    0.56768E+07         0.75322E+05         0.00000E+00
    0.75322E+05        -0.46605E+07         0.00000E+00
    0.00000E+00         0.00000E+00         0.20326E+06
 
    0.49374E+07         0.16823E+06         0.00000E+00
    0.16823E+06        -0.48767E+07         0.00000E+00
    0.00000E+00         0.00000E+00         0.12151E+05
 
    0.42891E+07         0.32696E+06         0.00000E+00
    0.32696E+06        -0.50854E+07         0.00000E+00
    0.00000E+00         0.00000E+00        -0.15927E+06
 
    0.37015E+07         0.55673E+06         0.00000E+00
    0.55673E+06        -0.52717E+07         0.00000E+00
    0.00000E+00         0.00000E+00        -0.31404E+06
 
    0.31466E+07         0.85789E+06         0.00000E+00
    0.85789E+06        -0.54214E+07         0.00000E+00
    0.00000E+00         0.00000E+00        -0.45497E+06
 
    0.25986E+07         0.12266E+07         0.00000E+00
    0.12266E+07        -0.55218E+07         0.00000E+00
    0.00000E+00         0.00000E+00        -0.58464E+06
 
    0.20342E+07         0.16551E+07         0.00000E+00
    0.16551E+07        -0.55610E+07         0.00000E+00
    0.00000E+00         0.00000E+00        -0.70536E+06
 
    0.14324E+07         0.21320E+07         0.00000E+00
    0.21320E+07        -0.55282E+07         0.00000E+00
    0.00000E+00         0.00000E+00        -0.81917E+06
 
    0.77531E+06         0.26423E+07         0.00000E+00
    0.26423E+07        -0.54141E+07         0.00000E+00
    0.00000E+00         0.00000E+00        -0.92776E+06
 
    0.48231E+05         0.31673E+07         0.00000E+00
    0.31673E+07        -0.52106E+07         0.00000E+00
    0.00000E+00         0.00000E+00        -0.10325E+07
 
   -0.75946E+06         0.36843E+07         0.00000E+00
    0.36843E+07        -0.49118E+07         0.00000E+00
    0.00000E+00         0.00000E+00        -0.11343E+07
 
    0.93363E+07        -0.15467E+05         0.00000E+00
   -0.15467E+05        -0.49330E+07         0.00000E+00
    0.00000E+00         0.00000E+00         0.88066E+06
 
    0.78628E+07        -0.78629E+05         0.00000E+00
   -0.78629E+05        -0.50290E+07         0.00000E+00
    0.00000E+00         0.00000E+00         0.56676E+06
 
    0.66563E+07        -0.14674E+06         0.00000E+00
   -0.14674E+06        -0.52004E+07         0.00000E+00
    0.00000E+00         0.00000E+00         0.29119E+06
 
    0.56717E+07        -0.18390E+06         0.00000E+00
   -0.18390E+06        -0.54244E+07         0.00000E+00
    0.00000E+00         0.00000E+00         0.49461E+05
 
    0.48653E+07        -0.16477E+06         0.00000E+00
   -0.16477E+06        -0.56794E+07         0.00000E+00
    0.00000E+00         0.00000E+00        -0.16283E+06
 
    0.41957E+07        -0.72716E+05         0.00000E+00
   -0.72716E+05        -0.59453E+07         0.00000E+00
    0.00000E+00         0.00000E+00        -0.34991E+06
 
    0.36244E+07         0.10184E+06         0.00000E+00
    0.10184E+06        -0.62034E+07         0.00000E+00
    0.00000E+00         0.00000E+00        -0.51579E+06
 
    0.31158E+07         0.36274E+06         0.00000E+00
    0.36274E+06        -0.64369E+07         0.00000E+00
    0.00000E+00         0.00000E+00        -0.66422E+06
 
    0.26376E+07         0.70908E+06         0.00000E+00
    0.70908E+06        -0.66307E+07         0.00000E+00
    0.00000E+00         0.00000E+00        -0.79862E+06
 
    0.21599E+07         0.11359E+07         0.00000E+00
    0.11359E+07        -0.67706E+07         0.00000E+00
    0.00000E+00         0.00000E+00        -0.92213E+06
 
    0.16557E+07         0.16344E+07         0.00000E+00
    0.16344E+07        -0.68436E+07         0.00000E+00
    0.00000E+00         0.00000E+00        -0.10376E+07
 
    0.11004E+07         0.21922E+07         0.00000E+00
    0.21922E+07        -0.68377E+07         0.00000E+00
    0.00000E+00         0.00000E+00        -0.11475E+07
 
    0.47222E+06         0.27932E+07         0.00000E+00
    0.27932E+07        -0.67416E+07         0.00000E+00
    0.00000E+00         0.00000E+00        -0.12539E+07
 
   -0.24755E+06         0.34169E+07         0.00000E+00
    0.34169E+07        -0.65454E+07         0.00000E+00
    0.00000E+00         0.00000E+00        -0.13586E+07
 
   -0.10738E+07         0.40386E+07         0.00000E+00
    0.40386E+07        -0.62408E+07         0.00000E+00
    0.00000E+00         0.00000E+00        -0.14629E+07
 
    0.82144E+07        -0.72944E+05         0.00000E+00
   -0.72944E+05        -0.59629E+07         0.00000E+00
    0.00000E+00         0.00000E+00         0.45029E+06
 
    0.67263E+07        -0.23147E+06         0.00000E+00
   -0.23147E+06        -0.60789E+07         0.00000E+00
    0.00000E+00         0.00000E+00         0.12948E+06
 
    0.55468E+07        -0.36898E+06         0.00000E+00
   -0.36898E+06        -0.62841E+07         0.00000E+00
    0.00000E+00         0.00000E+00        -0.14746E+06
 
    0.46188E+07        -0.45083E+06         0.00000E+00
   -0.45083E+06        -0.65504E+07         0.00000E+00
    0.00000E+00         0.00000E+00        -0.38632E+06
 
    0.38888E+07        -0.45361E+06         0.00000E+00
   -0.45361E+06        -0.68521E+07         0.00000E+00
    0.00000E+00         0.00000E+00        -0.59266E+06
 
    0.33074E+07        -0.36285E+06         0.00000E+00
   -0.36285E+06        -0.71659E+07         0.00000E+00
    0.00000E+00         0.00000E+00        -0.77171E+06
 
    0.28298E+07        -0.17110E+06         0.00000E+00
   -0.17110E+06        -0.74714E+07         0.00000E+00
    0.00000E+00         0.00000E+00        -0.92831E+06
 
    0.24155E+07         0.12361E+06         0.00000E+00
    0.12361E+06        -0.77502E+07         0.00000E+00
    0.00000E+00         0.00000E+00        -0.10669E+07
 
    0.20279E+07         0.51883E+06         0.00000E+00
    0.51883E+06        -0.79863E+07         0.00000E+00
    0.00000E+00         0.00000E+00        -0.11917E+07
 
    0.16334E+07         0.10085E+07         0.00000E+00
    0.10085E+07        -0.81646E+07         0.00000E+00
    0.00000E+00         0.00000E+00        -0.13062E+07
 
    0.12015E+07         0.15829E+07         0.00000E+00
    0.15829E+07        -0.82711E+07         0.00000E+00
    0.00000E+00         0.00000E+00        -0.14139E+07
 
    0.70391E+06         0.22291E+07         0.00000E+00
    0.22291E+07        -0.82924E+07         0.00000E+00
    0.00000E+00         0.00000E+00        -0.15177E+07
 
    0.11472E+06         0.29301E+07         0.00000E+00
    0.29301E+07        -0.82157E+07         0.00000E+00
    0.00000E+00         0.00000E+00        -0.16202E+07
 
   -0.58932E+06         0.36644E+07         0.00000E+00
    0.36644E+07        -0.80286E+07         0.00000E+00
    0.00000E+00         0.00000E+00        -0.17236E+07
 
   -0.14281E+07         0.44055E+07         0.00000E+00
    0.44055E+07        -0.77199E+07         0.00000E+00
    0.00000E+00         0.00000E+00        -0.18296E+07
 
    0.67998E+07        -0.14171E+06         0.00000E+00
   -0.14171E+06        -0.71667E+07         0.00000E+00
    0.00000E+00         0.00000E+00        -0.73367E+05
 
    0.53270E+07        -0.41240E+06         0.00000E+00
   -0.41240E+06        -0.73023E+07         0.00000E+00
    0.00000E+00         0.00000E+00        -0.39507E+06
 
    0.42027E+07        -0.62972E+06         0.00000E+00
   -0.62972E+06        -0.75403E+07         0.00000E+00
    0.00000E+00         0.00000E+00        -0.66752E+06
 
    0.33572E+07        -0.76190E+06         0.00000E+00
   -0.76190E+06        -0.78469E+07         0.00000E+00
    0.00000E+00         0.00000E+00        -0.89795E+06
 
    0.27266E+07        -0.78879E+06         0.00000E+00
   -0.78879E+06        -0.81922E+07         0.00000E+00
    0.00000E+00         0.00000E+00        -0.10931E+07
 
    0.22538E+07        -0.69922E+06         0.00000E+00
   -0.69922E+06        -0.85502E+07         0.00000E+00
    0.00000E+00         0.00000E+00        -0.12593E+07
 
    0.18881E+07        -0.48870E+06         0.00000E+00
   -0.48870E+06        -0.88987E+07         0.00000E+00
    0.00000E+00         0.00000E+00        -0.14021E+07
 
    0.15843E+07        -0.15772E+06         0.00000E+00
   -0.15772E+06        -0.92187E+07         0.00000E+00
    0.00000E+00         0.00000E+00        -0.15269E+07
 
    0.13020E+07         0.28953E+06         0.00000E+00
    0.28953E+06        -0.94933E+07         0.00000E+00
    0.00000E+00         0.00000E+00        -0.16383E+07
 
    0.10047E+07         0.84582E+06         0.00000E+00
    0.84582E+06        -0.97072E+07         0.00000E+00
    0.00000E+00         0.00000E+00        -0.17405E+07
 
    0.65846E+06         0.15011E+07         0.00000E+00
    0.15011E+07        -0.98458E+07         0.00000E+00
    0.00000E+00         0.00000E+00        -0.18375E+07
 
    0.23149E+06         0.22420E+07         0.00000E+00
    0.22420E+07        -0.98944E+07         0.00000E+00
    0.00000E+00         0.00000E+00        -0.19326E+07
 
   -0.30634E+06         0.30514E+07         0.00000E+00
    0.30514E+07        -0.98384E+07         0.00000E+00
    0.00000E+00         0.00000E+00        -0.20289E+07
 
   -0.98335E+06         0.39075E+07         0.00000E+00
    0.39075E+07        -0.96627E+07         0.00000E+00
    0.00000E+00         0.00000E+00        -0.21292E+07
 
   -0.18254E+07         0.47825E+07         0.00000E+00
    0.47825E+07        -0.93530E+07         0.00000E+00
    0.00000E+00         0.00000E+00        -0.22357E+07
 
    0.50530E+07        -0.22157E+06         0.00000E+00
   -0.22157E+06        -0.85634E+07         0.00000E+00
    0.00000E+00         0.00000E+00        -0.70208E+06
 
    0.36327E+07        -0.62032E+06         0.00000E+00
   -0.62032E+06        -0.87177E+07         0.00000E+00
    0.00000E+00         0.00000E+00        -0.10170E+07
 
    0.25975E+07        -0.92664E+06         0.00000E+00
   -0.92664E+06        -0.89861E+07         0.00000E+00
    0.00000E+00         0.00000E+00        -0.12777E+07
 
    0.18643E+07        -0.11135E+07         0.00000E+00
   -0.11135E+07        -0.93289E+07         0.00000E+00
    0.00000E+00         0.00000E+00        -0.14929E+07
 
    0.13589E+07        -0.11656E+07         0.00000E+00
   -0.11656E+07        -0.97123E+07         0.00000E+00
    0.00000E+00         0.00000E+00        -0.16707E+07
 
    0.10169E+07        -0.10764E+07         0.00000E+00
   -0.10764E+07        -0.10108E+08         0.00000E+00
    0.00000E+00         0.00000E+00        -0.18182E+07
 
    0.78193E+06        -0.84532E+06         0.00000E+00
   -0.84532E+06        -0.10493E+08         0.00000E+00
    0.00000E+00         0.00000E+00        -0.19422E+07
 
    0.60520E+06        -0.47598E+06         0.00000E+00
   -0.47598E+06        -0.10847E+08         0.00000E+00
    0.00000E+00         0.00000E+00        -0.20484E+07
 
    0.44354E+06         0.25494E+05         0.00000E+00
    0.25494E+05        -0.11154E+08         0.00000E+00
    0.00000E+00         0.00000E+00        -0.21421E+07
 
    0.25789E+06         0.65090E+06         0.00000E+00
    0.65090E+06        -0.11399E+08         0.00000E+00
    0.00000E+00         0.00000E+00        -0.22282E+07
 
    0.11810E+05         0.13900E+07         0.00000E+00
    0.13900E+07        -0.11567E+08         0.00000E+00
    0.00000E+00         0.00000E+00        -0.23110E+07
 
   -0.32978E+06         0.22301E+07         0.00000E+00
    0.22301E+07        -0.11642E+08         0.00000E+00
    0.00000E+00         0.00000E+00        -0.23944E+07
 
   -0.80129E+06         0.31548E+07         0.00000E+00
    0.31548E+07        -0.11608E+08         0.00000E+00
    0.00000E+00         0.00000E+00        -0.24819E+07
 
   -0.14366E+07         0.41427E+07         0.00000E+00
    0.41427E+07        -0.11447E+08         0.00000E+00
    0.00000E+00         0.00000E+00        -0.25768E+07
 
   -0.22683E+07         0.51658E+07         0.00000E+00
    0.51658E+07        -0.11141E+08         0.00000E+00
    0.00000E+00         0.00000E+00        -0.26819E+07
 
    0.29357E+07        -0.31189E+06         0.00000E+00
   -0.31189E+06        -0.10172E+08         0.00000E+00
    0.00000E+00         0.00000E+00        -0.14472E+07
 
    0.16132E+07        -0.85294E+06         0.00000E+00
   -0.85294E+06        -0.10343E+08         0.00000E+00
    0.00000E+00         0.00000E+00        -0.17459E+07
 
    0.70681E+06        -0.12555E+07         0.00000E+00
   -0.12555E+07        -0.10637E+08         0.00000E+00
    0.00000E+00         0.00000E+00        -0.19861E+07
 
    0.11964E+06        -0.14995E+07         0.00000E+00
   -0.14995E+07        -0.11010E+08         0.00000E+00
    0.00000E+00         0.00000E+00        -0.21781E+07
 
   -0.23230E+06        -0.15764E+07         0.00000E+00
   -0.15764E+07        -0.11423E+08         0.00000E+00
    0.00000E+00         0.00000E+00        -0.23311E+07
 
   -0.42052E+06        -0.14858E+07         0.00000E+00
   -0.14858E+07        -0.11847E+08         0.00000E+00
    0.00000E+00         0.00000E+00        -0.24535E+07
 
   -0.50553E+06        -0.12324E+07         0.00000E+00
   -0.12324E+07        -0.12258E+08         0.00000E+00
    0.00000E+00         0.00000E+00        -0.25527E+07
 
   -0.53875E+06        -0.82316E+06         0.00000E+00
   -0.82316E+06        -0.12636E+08         0.00000E+00
    0.00000E+00         0.00000E+00        -0.26350E+07
 
   -0.56486E+06        -0.26662E+06         0.00000E+00
   -0.26662E+06        -0.12968E+08         0.00000E+00
    0.00000E+00         0.00000E+00        -0.27065E+07
 
   -0.62414E+06         0.42834E+06         0.00000E+00
    0.42834E+06        -0.13237E+08         0.00000E+00
    0.00000E+00         0.00000E+00        -0.27722E+07
 
   -0.75474E+06         0.12521E+07         0.00000E+00
    0.12521E+07        -0.13430E+08         0.00000E+00
    0.00000E+00         0.00000E+00        -0.28369E+07
 
   -0.99440E+06         0.21933E+07         0.00000E+00
    0.21933E+07        -0.13530E+08         0.00000E+00
    0.00000E+00         0.00000E+00        -0.29049E+07
 
   -0.13817E+07         0.32375E+07         0.00000E+00
    0.32375E+07        -0.13520E+08         0.00000E+00
    0.00000E+00         0.00000E+00        -0.29804E+07
 
   -0.19566E+07         0.43651E+07         0.00000E+00
    0.43651E+07        -0.13379E+08         0.00000E+00
    0.00000E+00         0.00000E+00        -0.30670E+07
 
   -0.27595E+07         0.55493E+07         0.00000E+00
    0.55493E+07        -0.13082E+08         0.00000E+00
    0.00000E+00         0.00000E+00        -0.31683E+07
 
    0.41326E+06        -0.41155E+06         0.00000E+00
   -0.41155E+06        -0.12008E+08         0.00000E+00
    0.00000E+00         0.00000E+00        -0.23190E+07
 
   -0.75792E+06        -0.11066E+07         0.00000E+00
   -0.11066E+07        -0.12193E+08         0.00000E+00
    0.00000E+00         0.00000E+00        -0.25903E+07
 
   -0.14900E+07        -0.16100E+07         0.00000E+00
   -0.16100E+07        -0.12508E+08         0.00000E+00
    0.00000E+00         0.00000E+00        -0.27997E+07
 
   -0.18937E+07        -0.19111E+07         0.00000E+00
   -0.19111E+07        -0.12902E+08         0.00000E+00
    0.00000E+00         0.00000E+00        -0.29591E+07
 
   -0.20625E+07        -0.20105E+07         0.00000E+00
   -0.20105E+07        -0.13334E+08         0.00000E+00
    0.00000E+00         0.00000E+00        -0.30792E+07
 
   -0.20735E+07        -0.19157E+07         0.00000E+00
   -0.19157E+07        -0.13772E+08         0.00000E+00
    0.00000E+00         0.00000E+00        -0.31691E+07
 
   -0.19901E+07        -0.16377E+07         0.00000E+00
   -0.16377E+07        -0.14195E+08         0.00000E+00
    0.00000E+00         0.00000E+00        -0.32370E+07
 
   -0.18645E+07        -0.11881E+07         0.00000E+00
   -0.11881E+07        -0.14584E+08         0.00000E+00
    0.00000E+00         0.00000E+00        -0.32898E+07
 
   -0.17410E+07        -0.57753E+06         0.00000E+00
   -0.57753E+06        -0.14927E+08         0.00000E+00
    0.00000E+00         0.00000E+00        -0.33337E+07
 
   -0.16597E+07         0.18478E+06         0.00000E+00
    0.18478E+06        -0.15212E+08         0.00000E+00
    0.00000E+00         0.00000E+00        -0.33743E+07
 
   -0.16590E+07         0.10906E+07         0.00000E+00
    0.10906E+07        -0.15424E+08         0.00000E+00
    0.00000E+00         0.00000E+00        -0.34166E+07
 
   -0.17785E+07         0.21313E+07         0.00000E+00
    0.21313E+07        -0.15548E+08         0.00000E+00
    0.00000E+00         0.00000E+00        -0.34653E+07
 
   -0.20606E+07         0.32959E+07         0.00000E+00
    0.32959E+07        -0.15564E+08         0.00000E+00
    0.00000E+00         0.00000E+00        -0.35249E+07
 
   -0.25516E+07         0.45683E+07         0.00000E+00
    0.45683E+07        -0.15447E+08         0.00000E+00
    0.00000E+00         0.00000E+00        -0.35998E+07
 
   -0.33011E+07         0.59244E+07         0.00000E+00
    0.59244E+07        -0.15170E+08         0.00000E+00
    0.00000E+00         0.00000E+00        -0.36942E+07
 
   -0.25440E+07        -0.51888E+06         0.00000E+00
   -0.51888E+06        -0.14088E+08         0.00000E+00
    0.00000E+00         0.00000E+00        -0.33265E+07
 
   -0.35016E+07        -0.13760E+07         0.00000E+00
   -0.13760E+07        -0.14283E+08         0.00000E+00
    0.00000E+00         0.00000E+00        -0.35570E+07
 
   -0.40082E+07        -0.19812E+07         0.00000E+00
   -0.19812E+07        -0.14610E+08         0.00000E+00
    0.00000E+00         0.00000E+00        -0.37237E+07
 
   -0.41880E+07        -0.23362E+07         0.00000E+00
   -0.23362E+07        -0.15013E+08         0.00000E+00
    0.00000E+00         0.00000E+00        -0.38402E+07
 
   -0.41428E+07        -0.24532E+07         0.00000E+00
   -0.24532E+07        -0.15447E+08         0.00000E+00
    0.00000E+00         0.00000E+00        -0.39180E+07
 
   -0.39540E+07        -0.23501E+07         0.00000E+00
   -0.23501E+07        -0.15883E+08         0.00000E+00
    0.00000E+00         0.00000E+00        -0.39675E+07
 
   -0.36856E+07        -0.20455E+07         0.00000E+00
   -0.20455E+07        -0.16300E+08         0.00000E+00
    0.00000E+00         0.00000E+00        -0.39971E+07
 
   -0.33880E+07        -0.15561E+07         0.00000E+00
   -0.15561E+07        -0.16683E+08         0.00000E+00
    0.00000E+00         0.00000E+00        -0.40142E+07
 
   -0.31032E+07        -0.89494E+06         0.00000E+00
   -0.89494E+06        -0.17023E+08         0.00000E+00
    0.00000E+00         0.00000E+00        -0.40252E+07
 
   -0.28683E+07        -0.70982E+05         0.00000E+00
   -0.70982E+05        -0.17310E+08         0.00000E+00
    0.00000E+00         0.00000E+00        -0.40356E+07
 
   -0.27205E+07         0.91010E+06         0.00000E+00
    0.91010E+06        -0.17534E+08         0.00000E+00
    0.00000E+00         0.00000E+00        -0.40508E+07
 
   -0.26999E+07         0.20441E+07         0.00000E+00
    0.20441E+07        -0.17679E+08         0.00000E+00
    0.00000E+00         0.00000E+00        -0.40757E+07
 
   -0.28524E+07         0.33253E+07         0.00000E+00
    0.33253E+07        -0.17723E+08         0.00000E+00
    0.00000E+00         0.00000E+00        -0.41151E+07
 
   -0.32308E+07         0.47434E+07         0.00000E+00
    0.47434E+07        -0.17640E+08         0.00000E+00
    0.00000E+00         0.00000E+00        -0.41741E+07
 
   -0.38947E+07         0.62793E+07         0.00000E+00
    0.62793E+07        -0.17393E+08         0.00000E+00
    0.00000E+00         0.00000E+00        -0.42575E+07
 
   -0.59582E+07        -0.63161E+06         0.00000E+00
   -0.63161E+06        -0.16423E+08         0.00000E+00
    0.00000E+00         0.00000E+00        -0.44763E+07
 
   -0.66313E+07        -0.16542E+07         0.00000E+00
   -0.16542E+07        -0.16623E+08         0.00000E+00
    0.00000E+00         0.00000E+00        -0.46508E+07
 
   -0.68556E+07        -0.23573E+07         0.00000E+00
   -0.23573E+07        -0.16951E+08         0.00000E+00
    0.00000E+00         0.00000E+00        -0.47614E+07
 
   -0.67686E+07        -0.27587E+07         0.00000E+00
   -0.27587E+07        -0.17347E+08         0.00000E+00
    0.00000E+00         0.00000E+00        -0.48231E+07
 
   -0.64791E+07        -0.28857E+07         0.00000E+00
   -0.28857E+07        -0.17765E+08         0.00000E+00
    0.00000E+00         0.00000E+00        -0.48487E+07
 
   -0.60701E+07        -0.27684E+07         0.00000E+00
   -0.27684E+07        -0.18176E+08         0.00000E+00
    0.00000E+00         0.00000E+00        -0.48491E+07
 
   -0.56033E+07        -0.24352E+07         0.00000E+00
   -0.24352E+07        -0.18563E+08         0.00000E+00
    0.00000E+00         0.00000E+00        -0.48332E+07
 
   -0.51244E+07        -0.19084E+07         0.00000E+00
   -0.19084E+07        -0.18918E+08         0.00000E+00
    0.00000E+00         0.00000E+00        -0.48084E+07
 
   -0.46693E+07        -0.12033E+07         0.00000E+00
   -0.12033E+07        -0.19235E+08         0.00000E+00
    0.00000E+00         0.00000E+00        -0.47809E+07
 
   -0.42702E+07        -0.32780E+06         0.00000E+00
   -0.32780E+06        -0.19511E+08         0.00000E+00
    0.00000E+00         0.00000E+00        -0.47562E+07
 
   -0.39602E+07         0.71647E+06         0.00000E+00
    0.71647E+06        -0.19737E+08         0.00000E+00
    0.00000E+00         0.00000E+00        -0.47394E+07
 
   -0.37784E+07         0.19316E+07         0.00000E+00
    0.19316E+07        -0.19899E+08         0.00000E+00
    0.00000E+00         0.00000E+00        -0.47355E+07
 
   -0.37731E+07         0.33198E+07         0.00000E+00
    0.33198E+07        -0.19976E+08         0.00000E+00
    0.00000E+00         0.00000E+00        -0.47499E+07
 
   -0.40039E+07         0.48791E+07         0.00000E+00
    0.48791E+07        -0.19935E+08         0.00000E+00
    0.00000E+00         0.00000E+00        -0.47878E+07
 
   -0.45418E+07         0.65983E+07         0.00000E+00
    0.65983E+07        -0.19735E+08         0.00000E+00
    0.00000E+00         0.00000E+00        -0.48553E+07
 
   -0.98418E+07        -0.74691E+06         0.00000E+00
   -0.74691E+06        -0.19019E+08         0.00000E+00
    0.00000E+00         0.00000E+00        -0.57722E+07
 
   -0.10150E+08        -0.19322E+07         0.00000E+00
   -0.19322E+07        -0.19217E+08         0.00000E+00
    0.00000E+00         0.00000E+00        -0.58735E+07
 
   -0.10030E+08        -0.27234E+07         0.00000E+00
   -0.27234E+07        -0.19534E+08         0.00000E+00
    0.00000E+00         0.00000E+00        -0.59128E+07
 
   -0.96323E+07        -0.31585E+07         0.00000E+00
   -0.31585E+07        -0.19902E+08         0.00000E+00
    0.00000E+00         0.00000E+00        -0.59069E+07
 
   -0.90700E+07        -0.32837E+07         0.00000E+00
   -0.32837E+07        -0.20278E+08         0.00000E+00
    0.00000E+00         0.00000E+00        -0.58697E+07
 
   -0.84246E+07        -0.31451E+07         0.00000E+00
   -0.31451E+07        -0.20637E+08         0.00000E+00
    0.00000E+00         0.00000E+00        -0.58123E+07
 
   -0.77512E+07        -0.27817E+07         0.00000E+00
   -0.27817E+07        -0.20967E+08         0.00000E+00
    0.00000E+00         0.00000E+00        -0.57436E+07
 
   -0.70867E+07        -0.22223E+07         0.00000E+00
   -0.22223E+07        -0.21267E+08         0.00000E+00
    0.00000E+00         0.00000E+00        -0.56708E+07
 
   -0.64575E+07        -0.14838E+07         0.00000E+00
   -0.14838E+07        -0.21540E+08         0.00000E+00
    0.00000E+00         0.00000E+00        -0.55994E+07
 
   -0.58867E+07        -0.57216E+06         0.00000E+00
   -0.57216E+06        -0.21786E+08         0.00000E+00
    0.00000E+00         0.00000E+00        -0.55345E+07
 
   -0.54010E+07         0.51673E+06         0.00000E+00
    0.51673E+06        -0.22003E+08         0.00000E+00
    0.00000E+00         0.00000E+00        -0.54808E+07
 
   -0.50359E+07         0.17935E+07         0.00000E+00
    0.17935E+07        -0.22179E+08         0.00000E+00
    0.00000E+00         0.00000E+00        -0.54431E+07
 
   -0.48408E+07         0.32715E+07         0.00000E+00
    0.32715E+07        -0.22293E+08         0.00000E+00
    0.00000E+00         0.00000E+00        -0.54268E+07
 
   -0.48820E+07         0.49607E+07         0.00000E+00
    0.49607E+07        -0.22307E+08         0.00000E+00
    0.00000E+00         0.00000E+00        -0.54379E+07
 
   -0.52432E+07         0.68610E+07         0.00000E+00
    0.68610E+07        -0.22173E+08         0.00000E+00
    0.00000E+00         0.00000E+00        -0.54832E+07
 
   -0.14195E+08        -0.86135E+06         0.00000E+00
   -0.86135E+06        -0.21878E+08         0.00000E+00
    0.00000E+00         0.00000E+00        -0.72147E+07
 
   -0.14050E+08        -0.21989E+07         0.00000E+00
   -0.21989E+07        -0.22066E+08         0.00000E+00
    0.00000E+00         0.00000E+00        -0.72231E+07
 
   -0.13519E+08        -0.30603E+07         0.00000E+00
   -0.30603E+07        -0.22354E+08         0.00000E+00
    0.00000E+00         0.00000E+00        -0.71745E+07
 
   -0.12766E+08        -0.35097E+07         0.00000E+00
   -0.35097E+07        -0.22671E+08         0.00000E+00
    0.00000E+00         0.00000E+00        -0.70872E+07
 
   -0.11906E+08        -0.36176E+07         0.00000E+00
   -0.36176E+07        -0.22974E+08         0.00000E+00
    0.00000E+00         0.00000E+00        -0.69760E+07
 
   -0.11014E+08        -0.34489E+07         0.00000E+00
   -0.34489E+07        -0.23246E+08         0.00000E+00
    0.00000E+00         0.00000E+00        -0.68521E+07
 
   -0.10134E+08        -0.30550E+07         0.00000E+00
   -0.30550E+07        -0.23486E+08         0.00000E+00
    0.00000E+00         0.00000E+00        -0.67239E+07
 
   -0.92864E+07        -0.24708E+07         0.00000E+00
   -0.24708E+07        -0.23701E+08         0.00000E+00
    0.00000E+00         0.00000E+00        -0.65975E+07
 
   -0.84850E+07        -0.17145E+07         0.00000E+00
   -0.17145E+07        -0.23902E+08         0.00000E+00
    0.00000E+00         0.00000E+00        -0.64775E+07
 
   -0.77401E+07        -0.78824E+06         0.00000E+00
   -0.78824E+06        -0.24099E+08         0.00000E+00
    0.00000E+00         0.00000E+00        -0.63678E+07
 
   -0.70679E+07         0.31914E+06         0.00000E+00
    0.31914E+06        -0.24294E+08         0.00000E+00
    0.00000E+00         0.00000E+00        -0.62724E+07
 
   -0.64973E+07         0.16296E+07         0.00000E+00
    0.16296E+07        -0.24481E+08         0.00000E+00
    0.00000E+00         0.00000E+00        -0.61956E+07
 
   -0.60765E+07         0.31708E+07         0.00000E+00
    0.31708E+07        -0.24637E+08         0.00000E+00
    0.00000E+00         0.00000E+00        -0.61426E+07
 
   -0.58778E+07         0.49693E+07         0.00000E+00
    0.49693E+07        -0.24723E+08         0.00000E+00
    0.00000E+00         0.00000E+00        -0.61201E+07
 
   -0.59994E+07         0.70415E+07         0.00000E+00
    0.70415E+07        -0.24679E+08         0.00000E+00
    0.00000E+00         0.00000E+00        -0.61358E+07
 
   -0.19005E+08        -0.97097E+06         0.00000E+00
   -0.97097E+06        -0.24995E+08         0.00000E+00
    0.00000E+00         0.00000E+00        -0.87999E+07
 
   -0.18304E+08        -0.24406E+07         0.00000E+00
   -0.24406E+07        -0.25163E+08         0.00000E+00
    0.00000E+00         0.00000E+00        -0.86935E+07
 
   -0.17291E+08        -0.33438E+07         0.00000E+00
   -0.33438E+07        -0.25401E+08         0.00000E+00
    0.00000E+00         0.00000E+00        -0.85384E+07
 
   -0.16142E+08        -0.37800E+07         0.00000E+00
   -0.37800E+07        -0.25633E+08         0.00000E+00
    0.00000E+00         0.00000E+00        -0.83550E+07
 
   -0.14969E+08        -0.38507E+07         0.00000E+00
   -0.38507E+07        -0.25825E+08         0.00000E+00
    0.00000E+00         0.00000E+00        -0.81587E+07
 
   -0.13830E+08        -0.36429E+07         0.00000E+00
   -0.36429E+07        -0.25971E+08         0.00000E+00
    0.00000E+00         0.00000E+00        -0.79603E+07
 
   -0.12751E+08        -0.32208E+07         0.00000E+00
   -0.32208E+07        -0.26082E+08         0.00000E+00
    0.00000E+00         0.00000E+00        -0.77667E+07
 
   -0.11733E+08        -0.26242E+07         0.00000E+00
   -0.26242E+07        -0.26179E+08         0.00000E+00
    0.00000E+00         0.00000E+00        -0.75823E+07
 
   -0.10769E+08        -0.18708E+07         0.00000E+00
   -0.18708E+07        -0.26281E+08         0.00000E+00
    0.00000E+00         0.00000E+00        -0.74100E+07
 
   -0.98532E+07        -0.95831E+06         0.00000E+00
   -0.95831E+06        -0.26407E+08         0.00000E+00
    0.00000E+00         0.00000E+00        -0.72520E+07
 
   -0.89878E+07         0.13318E+06         0.00000E+00
    0.13318E+06        -0.26566E+08         0.00000E+00
    0.00000E+00         0.00000E+00        -0.71107E+07
 
   -0.81906E+07         0.14390E+07         0.00000E+00
    0.14390E+07        -0.26757E+08         0.00000E+00
    0.00000E+00         0.00000E+00        -0.69895E+07
 
   -0.75047E+07         0.30054E+07         0.00000E+00
    0.30054E+07        -0.26962E+08         0.00000E+00
    0.00000E+00         0.00000E+00        -0.68934E+07
 
   -0.70068E+07         0.48816E+07         0.00000E+00
    0.48816E+07        -0.27140E+08         0.00000E+00
    0.00000E+00         0.00000E+00        -0.68293E+07
 
   -0.68115E+07         0.71069E+07         0.00000E+00
    0.71069E+07        -0.27220E+08         0.00000E+00
    0.00000E+00         0.00000E+00        -0.68062E+07
 
   -0.24239E+08        -0.10712E+07         0.00000E+00
   -0.10712E+07        -0.28357E+08         0.00000E+00
    0.00000E+00         0.00000E+00        -0.10519E+08
 
   -0.22869E+08        -0.26394E+07         0.00000E+00
   -0.26394E+07        -0.28493E+08         0.00000E+00
    0.00000E+00         0.00000E+00        -0.10272E+08
 
   -0.21301E+08        -0.35422E+07         0.00000E+00
   -0.35422E+07        -0.28651E+08         0.00000E+00
    0.00000E+00         0.00000E+00        -0.99903E+07
 
   -0.19722E+08        -0.39281E+07         0.00000E+00
   -0.39281E+07        -0.28756E+08         0.00000E+00
    0.00000E+00         0.00000E+00        -0.96957E+07
 
   -0.18231E+08        -0.39387E+07         0.00000E+00
   -0.39387E+07        -0.28789E+08         0.00000E+00
    0.00000E+00         0.00000E+00        -0.94040E+07
 
   -0.16859E+08        -0.36854E+07         0.00000E+00
   -0.36854E+07        -0.28763E+08         0.00000E+00
    0.00000E+00         0.00000E+00        -0.91244E+07
 
   -0.15601E+08        -0.32424E+07         0.00000E+00
   -0.32424E+07        -0.28706E+08         0.00000E+00
    0.00000E+00         0.00000E+00        -0.88615E+07
 
   -0.14433E+08        -0.26515E+07         0.00000E+00
   -0.26515E+07        -0.28651E+08         0.00000E+00
    0.00000E+00         0.00000E+00        -0.86167E+07
 
   -0.13324E+08        -0.19277E+07         0.00000E+00
   -0.19277E+07        -0.28627E+08         0.00000E+00
    0.00000E+00         0.00000E+00        -0.83901E+07
 
   -0.12249E+08        -0.10635E+07         0.00000E+00
   -0.10635E+07        -0.28659E+08         0.00000E+00
    0.00000E+00         0.00000E+00        -0.81815E+07
 
   -0.11190E+08        -0.30290E+05         0.00000E+00
   -0.30290E+05        -0.28766E+08         0.00000E+00
    0.00000E+00         0.00000E+00        -0.79913E+07
 
   -0.10149E+08         0.12216E+07         0.00000E+00
    0.12216E+07        -0.28956E+08         0.00000E+00
    0.00000E+00         0.00000E+00        -0.78210E+07
 
   -0.91565E+07         0.27611E+07         0.00000E+00
    0.27611E+07        -0.29218E+08         0.00000E+00
    0.00000E+00         0.00000E+00        -0.76749E+07
 
   -0.82899E+07         0.46681E+07         0.00000E+00
    0.46681E+07        -0.29510E+08         0.00000E+00
    0.00000E+00         0.00000E+00        -0.75600E+07
 
   -0.76816E+07         0.70155E+07         0.00000E+00
    0.70155E+07        -0.29753E+08         0.00000E+00
    0.00000E+00         0.00000E+00        -0.74869E+07
 
   -0.29847E+08        -0.11566E+07         0.00000E+00
   -0.11566E+07        -0.31944E+08         0.00000E+00
    0.00000E+00         0.00000E+00        -0.12358E+08
 
   -0.27675E+08        -0.27704E+07         0.00000E+00
   -0.27704E+07        -0.32029E+08         0.00000E+00
    0.00000E+00         0.00000E+00        -0.11941E+08
 
   -0.25479E+08        -0.36108E+07         0.00000E+00
   -0.36108E+07        -0.32064E+08         0.00000E+00
    0.00000E+00         0.00000E+00        -0.11509E+08
 
   -0.23453E+08        -0.39001E+07         0.00000E+00
   -0.39001E+07        -0.31985E+08         0.00000E+00
    0.00000E+00         0.00000E+00        -0.11088E+08
 
   -0.21661E+08        -0.38300E+07         0.00000E+00
   -0.38300E+07        -0.31800E+08         0.00000E+00
    0.00000E+00         0.00000E+00        -0.10692E+08
 
   -0.20086E+08        -0.35324E+07         0.00000E+00
   -0.35324E+07        -0.31552E+08         0.00000E+00
    0.00000E+00         0.00000E+00        -0.10328E+08
 
   -0.18682E+08        -0.30847E+07         0.00000E+00
   -0.30847E+07        -0.31290E+08         0.00000E+00
    0.00000E+00         0.00000E+00        -0.99944E+07
 
   -0.17392E+08        -0.25247E+07         0.00000E+00
   -0.25247E+07        -0.31055E+08         0.00000E+00
    0.00000E+00         0.00000E+00        -0.96895E+07
 
   -0.16163E+08        -0.18624E+07         0.00000E+00
   -0.18624E+07        -0.30883E+08         0.00000E+00
    0.00000E+00         0.00000E+00        -0.94092E+07
 
   -0.14947E+08        -0.10853E+07         0.00000E+00
   -0.10853E+07        -0.30803E+08         0.00000E+00
    0.00000E+00         0.00000E+00        -0.91501E+07
 
   -0.13704E+08        -0.15855E+06         0.00000E+00
   -0.15855E+06        -0.30843E+08         0.00000E+00
    0.00000E+00         0.00000E+00        -0.89094E+07
 
   -0.12410E+08         0.97982E+06         0.00000E+00
    0.97982E+06        -0.31022E+08         0.00000E+00
    0.00000E+00         0.00000E+00        -0.86864E+07
 
   -0.11072E+08         0.24233E+07         0.00000E+00
    0.24233E+07        -0.31344E+08         0.00000E+00
    0.00000E+00         0.00000E+00        -0.84832E+07
 
   -0.97572E+07         0.42931E+07         0.00000E+00
    0.42931E+07        -0.31777E+08         0.00000E+00
    0.00000E+00         0.00000E+00        -0.83069E+07
 
   -0.86156E+07         0.67141E+07         0.00000E+00
    0.67141E+07        -0.32233E+08         0.00000E+00
    0.00000E+00         0.00000E+00        -0.81698E+07
 
   -0.35753E+08        -0.12195E+07         0.00000E+00
   -0.12195E+07        -0.35727E+08         0.00000E+00
    0.00000E+00         0.00000E+00        -0.14296E+08
 
   -0.32618E+08        -0.27931E+07         0.00000E+00
   -0.27931E+07        -0.35729E+08         0.00000E+00
    0.00000E+00         0.00000E+00        -0.13669E+08
 
   -0.29734E+08        -0.34824E+07         0.00000E+00
   -0.34824E+07        -0.35571E+08         0.00000E+00
    0.00000E+00         0.00000E+00        -0.13061E+08
 
   -0.27278E+08        -0.36263E+07         0.00000E+00
   -0.36263E+07        -0.35225E+08         0.00000E+00
    0.00000E+00         0.00000E+00        -0.12500E+08
 
   -0.25230E+08        -0.34686E+07         0.00000E+00
   -0.34686E+07        -0.34756E+08         0.00000E+00
    0.00000E+00         0.00000E+00        -0.11997E+08
 
   -0.23500E+08        -0.31451E+07         0.00000E+00
   -0.31451E+07        -0.34245E+08         0.00000E+00
    0.00000E+00         0.00000E+00        -0.11549E+08
 
   -0.21991E+08        -0.27214E+07         0.00000E+00
   -0.27214E+07        -0.33752E+08         0.00000E+00
    0.00000E+00         0.00000E+00        -0.11149E+08
 
   -0.20615E+08        -0.22249E+07         0.00000E+00
   -0.22249E+07        -0.33322E+08         0.00000E+00
    0.00000E+00         0.00000E+00        -0.10787E+08
 
   -0.19296E+08        -0.16591E+07         0.00000E+00
   -0.16591E+07        -0.32991E+08         0.00000E+00
    0.00000E+00         0.00000E+00        -0.10457E+08
 
   -0.17965E+08        -0.10084E+07         0.00000E+00
   -0.10084E+07        -0.32788E+08         0.00000E+00
    0.00000E+00         0.00000E+00        -0.10151E+08
 
   -0.16559E+08        -0.23660E+06         0.00000E+00
   -0.23660E+06        -0.32747E+08         0.00000E+00
    0.00000E+00         0.00000E+00        -0.98610E+07
 
   -0.15018E+08         0.72204E+06         0.00000E+00
    0.72204E+06        -0.32899E+08         0.00000E+00
    0.00000E+00         0.00000E+00        -0.95834E+07
 
   -0.13307E+08         0.19811E+07         0.00000E+00
    0.19811E+07        -0.33277E+08         0.00000E+00
    0.00000E+00         0.00000E+00        -0.93168E+07
 
   -0.11457E+08         0.37145E+07         0.00000E+00
    0.37145E+07        -0.33875E+08         0.00000E+00
    0.00000E+00         0.00000E+00        -0.90664E+07
 
   -0.96272E+07         0.61321E+07         0.00000E+00
    0.61321E+07        -0.34609E+08         0.00000E+00
    0.00000E+00         0.00000E+00        -0.88472E+07
 
   -0.41837E+08        -0.12453E+07         0.00000E+00
   -0.12453E+07        -0.39665E+08         0.00000E+00
    0.00000E+00         0.00000E+00        -0.16300E+08
 
   -0.37540E+08        -0.26282E+07         0.00000E+00
   -0.26282E+07        -0.39514E+08         0.00000E+00
    0.00000E+00         0.00000E+00        -0.15411E+08
 
   -0.33959E+08        -0.30507E+07         0.00000E+00
   -0.30507E+07        -0.39034E+08         0.00000E+00
    0.00000E+00         0.00000E+00        -0.14599E+08
 
   -0.31150E+08        -0.30255E+07         0.00000E+00
   -0.30255E+07        -0.38314E+08         0.00000E+00
    0.00000E+00         0.00000E+00        -0.13893E+08
 
   -0.28926E+08        -0.28094E+07         0.00000E+00
   -0.28094E+07        -0.37510E+08         0.00000E+00
    0.00000E+00         0.00000E+00        -0.13287E+08
 
   -0.27101E+08        -0.25025E+07         0.00000E+00
   -0.25025E+07        -0.36718E+08         0.00000E+00
    0.00000E+00         0.00000E+00        -0.12764E+08
 
   -0.25530E+08        -0.21449E+07         0.00000E+00
   -0.21449E+07        -0.35995E+08         0.00000E+00
    0.00000E+00         0.00000E+00        -0.12305E+08
 
   -0.24101E+08        -0.17499E+07         0.00000E+00
   -0.17499E+07        -0.35378E+08         0.00000E+00
    0.00000E+00         0.00000E+00        -0.11896E+08
 
   -0.22721E+08        -0.13151E+07         0.00000E+00
   -0.13151E+07        -0.34895E+08         0.00000E+00
    0.00000E+00         0.00000E+00        -0.11523E+08
 
   -0.21307E+08        -0.82526E+06         0.00000E+00
   -0.82526E+06        -0.34573E+08         0.00000E+00
    0.00000E+00         0.00000E+00        -0.11176E+08
 
   -0.19770E+08        -0.24951E+06         0.00000E+00
   -0.24951E+06        -0.34443E+08         0.00000E+00
    0.00000E+00         0.00000E+00        -0.10843E+08
 
   -0.18017E+08         0.46925E+06         0.00000E+00
    0.46925E+06        -0.34550E+08         0.00000E+00
    0.00000E+00         0.00000E+00        -0.10513E+08
 
   -0.15940E+08         0.14399E+07         0.00000E+00
    0.14399E+07        -0.34954E+08         0.00000E+00
    0.00000E+00         0.00000E+00        -0.10179E+08
 
   -0.13475E+08         0.28886E+07         0.00000E+00
    0.28886E+07        -0.35727E+08         0.00000E+00
    0.00000E+00         0.00000E+00        -0.98405E+07
 
   -0.10749E+08         0.51710E+07         0.00000E+00
    0.51710E+07        -0.36817E+08         0.00000E+00
    0.00000E+00         0.00000E+00        -0.95132E+07
 
   -0.47895E+08        -0.11857E+07         0.00000E+00
   -0.11857E+07        -0.43687E+08         0.00000E+00
    0.00000E+00         0.00000E+00        -0.18316E+08
 
   -0.42222E+08        -0.20902E+07         0.00000E+00
   -0.20902E+07        -0.43176E+08         0.00000E+00
    0.00000E+00         0.00000E+00        -0.17080E+08
 
   -0.38080E+08        -0.21698E+07         0.00000E+00
   -0.21698E+07        -0.42158E+08         0.00000E+00
    0.00000E+00         0.00000E+00        -0.16048E+08
 
   -0.35074E+08        -0.20430E+07         0.00000E+00
   -0.20430E+07        -0.41002E+08         0.00000E+00
    0.00000E+00         0.00000E+00        -0.15215E+08
 
   -0.32764E+08        -0.18461E+07         0.00000E+00
   -0.18461E+07        -0.39870E+08         0.00000E+00
    0.00000E+00         0.00000E+00        -0.14527E+08
 
   -0.30896E+08        -0.16196E+07         0.00000E+00
   -0.16196E+07        -0.38831E+08         0.00000E+00
    0.00000E+00         0.00000E+00        -0.13945E+08
 
   -0.29298E+08        -0.13773E+07         0.00000E+00
   -0.13773E+07        -0.37918E+08         0.00000E+00
    0.00000E+00         0.00000E+00        -0.13443E+08
 
   -0.27843E+08        -0.11213E+07         0.00000E+00
   -0.11213E+07        -0.37151E+08         0.00000E+00
    0.00000E+00         0.00000E+00        -0.12999E+08
 
   -0.26429E+08        -0.84700E+06         0.00000E+00
   -0.84700E+06        -0.36547E+08         0.00000E+00
    0.00000E+00         0.00000E+00        -0.12595E+08
 
   -0.24961E+08        -0.54338E+06         0.00000E+00
   -0.54338E+06        -0.36127E+08         0.00000E+00
    0.00000E+00         0.00000E+00        -0.12218E+08
 
   -0.23337E+08        -0.19023E+06         0.00000E+00
   -0.19023E+06        -0.35919E+08         0.00000E+00
    0.00000E+00         0.00000E+00        -0.11851E+08
 
   -0.21431E+08         0.24960E+06         0.00000E+00
    0.24960E+06        -0.35969E+08         0.00000E+00
    0.00000E+00         0.00000E+00        -0.11480E+08
 
   -0.19070E+08         0.85056E+06         0.00000E+00
    0.85056E+06        -0.36356E+08         0.00000E+00
    0.00000E+00         0.00000E+00        -0.11085E+08
 
   -0.15976E+08         0.17956E+07         0.00000E+00
    0.17956E+07        -0.37225E+08         0.00000E+00
    0.00000E+00         0.00000E+00        -0.10640E+08
 
   -0.12071E+08         0.36732E+07         0.00000E+00
    0.36732E+07        -0.38780E+08         0.00000E+00
    0.00000E+00         0.00000E+00        -0.10170E+08
 
   -0.53462E+08        -0.72873E+06         0.00000E+00
   -0.72873E+06        -0.47376E+08         0.00000E+00
    0.00000E+00         0.00000E+00        -0.20168E+08
 
   -0.46493E+08        -0.85577E+06         0.00000E+00
   -0.85577E+06        -0.46013E+08         0.00000E+00
    0.00000E+00         0.00000E+00        -0.18501E+08
 
   -0.42175E+08        -0.79884E+06         0.00000E+00
   -0.79884E+06        -0.44461E+08         0.00000E+00
    0.00000E+00         0.00000E+00        -0.17327E+08
 
   -0.39106E+08        -0.72663E+06         0.00000E+00
   -0.72663E+06        -0.42983E+08         0.00000E+00
    0.00000E+00         0.00000E+00        -0.16418E+08
 
   -0.36773E+08        -0.64563E+06         0.00000E+00
   -0.64563E+06        -0.41641E+08         0.00000E+00
    0.00000E+00         0.00000E+00        -0.15683E+08
 
   -0.34894E+08        -0.56145E+06         0.00000E+00
   -0.56145E+06        -0.40453E+08         0.00000E+00
    0.00000E+00         0.00000E+00        -0.15069E+08
 
   -0.33287E+08        -0.47527E+06         0.00000E+00
   -0.47527E+06        -0.39431E+08         0.00000E+00
    0.00000E+00         0.00000E+00        -0.14544E+08
 
   -0.31823E+08        -0.38642E+06         0.00000E+00
   -0.38642E+06        -0.38580E+08         0.00000E+00
    0.00000E+00         0.00000E+00        -0.14081E+08
 
   -0.30394E+08        -0.29264E+06         0.00000E+00
   -0.29264E+06        -0.37909E+08         0.00000E+00
    0.00000E+00         0.00000E+00        -0.13661E+08
 
   -0.28901E+08        -0.18989E+06         0.00000E+00
   -0.18989E+06        -0.37434E+08         0.00000E+00
    0.00000E+00         0.00000E+00        -0.13267E+08
 
   -0.27234E+08        -0.71234E+05         0.00000E+00
   -0.71234E+05        -0.37178E+08         0.00000E+00
    0.00000E+00         0.00000E+00        -0.12882E+08
 
   -0.25250E+08         0.75745E+05         0.00000E+00
    0.75745E+05        -0.37186E+08         0.00000E+00
    0.00000E+00         0.00000E+00        -0.12487E+08
 
   -0.22735E+08         0.27721E+06         0.00000E+00
    0.27721E+06        -0.37541E+08         0.00000E+00
    0.00000E+00         0.00000E+00        -0.12055E+08
 
   -0.19298E+08         0.59131E+06         0.00000E+00
    0.59131E+06        -0.38409E+08         0.00000E+00
    0.00000E+00         0.00000E+00        -0.11541E+08
 
   -0.13832E+08         0.13825E+07         0.00000E+00
    0.13825E+07        -0.40260E+08         0.00000E+00
    0.00000E+00         0.00000E+00        -0.10818E+08
 
TENSORS stresstot double 
   -0.47418E+08        -0.56102E+04         0.00000E+00
   -0.56102E+04        -0.60002E+08         0.00000E+00
    0.00000E+00         0.00000E+00        -0.57447E+08
 
   -0.48325E+08         0.13317E+05         0.00000E+00
    0.13317E+05        -0.59988E+08         0.00000E+00
    0.00000E+00         0.00000E+00        -0.57626E+08
 
   -0.49223E+08         0.30126E+05         0.00000E+00
    0.30126E+05        -0.59941E+08         0.00000E+00
    0.00000E+00         0.00000E+00        -0.57796E+08
 
   -0.50125E+08         0.42602E+05         0.00000E+00
    0.42602E+05        -0.59868E+08         0.00000E+00
    0.00000E+00         0.00000E+00        -0.57962E+08
 
   -0.51023E+08         0.52346E+05         0.00000E+00
    0.52346E+05        -0.59773E+08         0.00000E+00
    0.00000E+00         0.00000E+00        -0.58123E+08
 
   -0.51911E+08         0.60498E+05         0.00000E+00
    0.60498E+05        -0.59660E+08         0.00000E+00
    0.00000E+00         0.00000E+00        -0.58278E+08
 
   -0.52784E+08         0.67950E+05         0.00000E+00
    0.67950E+05        -0.59532E+08         0.00000E+00
    0.00000E+00         0.00000E+00        -0.58427E+08
 
   -0.53637E+08         0.75335E+05         0.00000E+00
    0.75335E+05        -0.59389E+08         0.00000E+00
    0.00000E+00         0.00000E+00        -0.58569E+08
 
   -0.54468E+08         0.83058E+05         0.00000E+00
    0.83058E+05        -0.59231E+08         0.00000E+00
    0.00000E+00         0.00000E+00        -0.58703E+08
 
   -0.55276E+08         0.91330E+05         0.00000E+00
    0.91330E+05        -0.59057E+08         0.00000E+00
    0.00000E+00         0.00000E+00        -0.58830E+08
 
   -0.56060E+08         0.10023E+06         0.00000E+00
    0.10023E+06        -0.58865E+08         0.00000E+00
    0.00000E+00         0.00000E+00        -0.58948E+08
 
   -0.56821E+08         0.10976E+06         0.00000E+00
    0.10976E+06        -0.58656E+08         0.00000E+00
    0.00000E+00         0.00000E+00        -0.59059E+08
 
   -0.57561E+08         0.12014E+06         0.00000E+00
    0.12014E+06        -0.58426E+08         0.00000E+00
    0.00000E+00         0.00000E+00        -0.59161E+08
 
   -0.58285E+08         0.13220E+06         0.00000E+00
    0.13220E+06        -0.58173E+08         0.00000E+00
    0.00000E+00         0.00000E+00        -0.59255E+08
 
   -0.59016E+08         0.15506E+06         0.00000E+00
    0.15506E+06        -0.57889E+08         0.00000E+00
    0.00000E+00         0.00000E+00        -0.59344E+08
 
   -0.47403E+08         0.10765E+05         0.00000E+00
    0.10765E+05        -0.59989E+08         0.00000E+00
    0.00000E+00         0.00000E+00        -0.57367E+08
 
   -0.48291E+08         0.51589E+05         0.00000E+00
    0.51589E+05        -0.59954E+08         0.00000E+00
    0.00000E+00         0.00000E+00        -0.57537E+08
 
   -0.49197E+08         0.94374E+05         0.00000E+00
    0.94374E+05        -0.59897E+08         0.00000E+00
    0.00000E+00         0.00000E+00        -0.57707E+08
 
   -0.50104E+08         0.12894E+06         0.00000E+00
    0.12894E+06        -0.59819E+08         0.00000E+00
    0.00000E+00         0.00000E+00        -0.57873E+08
 
   -0.51006E+08         0.15670E+06         0.00000E+00
    0.15670E+06        -0.59723E+08         0.00000E+00
    0.00000E+00         0.00000E+00        -0.58034E+08
 
   -0.51896E+08         0.18038E+06         0.00000E+00
    0.18038E+06        -0.59612E+08         0.00000E+00
    0.00000E+00         0.00000E+00        -0.58190E+08
 
   -0.52769E+08         0.20236E+06         0.00000E+00
    0.20236E+06        -0.59487E+08         0.00000E+00
    0.00000E+00         0.00000E+00        -0.58340E+08
 
   -0.53622E+08         0.22440E+06         0.00000E+00
    0.22440E+06        -0.59347E+08         0.00000E+00
    0.00000E+00         0.00000E+00        -0.58482E+08
 
   -0.54452E+08         0.24765E+06         0.00000E+00
    0.24765E+06        -0.59192E+08         0.00000E+00
    0.00000E+00         0.00000E+00        -0.58617E+08
 
   -0.55258E+08         0.27271E+06         0.00000E+00
    0.27271E+06        -0.59021E+08         0.00000E+00
    0.00000E+00         0.00000E+00        -0.58744E+08
 
   -0.56041E+08         0.29978E+06         0.00000E+00
    0.29978E+06        -0.58832E+08         0.00000E+00
    0.00000E+00         0.00000E+00        -0.58863E+08
 
   -0.56801E+08         0.32891E+06         0.00000E+00
    0.32891E+06        -0.58624E+08         0.00000E+00
    0.00000E+00         0.00000E+00        -0.58973E+08
 
   -0.57539E+08         0.36059E+06         0.00000E+00
    0.36059E+06        -0.58394E+08         0.00000E+00
    0.00000E+00         0.00000E+00        -0.59075E+08
 
   -0.58257E+08         0.39767E+06         0.00000E+00
    0.39767E+06        -0.58142E+08         0.00000E+00
    0.00000E+00         0.00000E+00        -0.59168E+08
 
   -0.58951E+08         0.45340E+06         0.00000E+00
    0.45340E+06        -0.57864E+08         0.00000E+00
    0.00000E+00         0.00000E+00        -0.59251E+08
 
   -0.47354E+08         0.35854E+05         0.00000E+00
    0.35854E+05        -0.59989E+08         0.00000E+00
    0.00000E+00         0.00000E+00        -0.57276E+08
 
   -0.48237E+08         0.10417E+06         0.00000E+00
    0.10417E+06        -0.59948E+08         0.00000E+00
    0.00000E+00         0.00000E+00        -0.57445E+08
 
   -0.49149E+08         0.16542E+06         0.00000E+00
    0.16542E+06        -0.59884E+08         0.00000E+00
    0.00000E+00         0.00000E+00        -0.57614E+08
 
   -0.50065E+08         0.21664E+06         0.00000E+00
    0.21664E+06        -0.59804E+08         0.00000E+00
    0.00000E+00         0.00000E+00        -0.57781E+08
 
   -0.50974E+08         0.25915E+06         0.00000E+00
    0.25915E+06        -0.59710E+08         0.00000E+00
    0.00000E+00         0.00000E+00        -0.57944E+08
 
   -0.51867E+08         0.29647E+06         0.00000E+00
    0.29647E+06        -0.59604E+08         0.00000E+00
    0.00000E+00         0.00000E+00        -0.58102E+08
 
   -0.52741E+08         0.33203E+06         0.00000E+00
    0.33203E+06        -0.59484E+08         0.00000E+00
    0.00000E+00         0.00000E+00        -0.58253E+08
 
   -0.53592E+08         0.36847E+06         0.00000E+00
    0.36847E+06        -0.59351E+08         0.00000E+00
    0.00000E+00         0.00000E+00        -0.58396E+08
 
   -0.54419E+08         0.40752E+06         0.00000E+00
    0.40752E+06        -0.59203E+08         0.00000E+00
    0.00000E+00         0.00000E+00        -0.58532E+08
 
   -0.55223E+08         0.45007E+06         0.00000E+00
    0.45007E+06        -0.59038E+08         0.00000E+00
    0.00000E+00         0.00000E+00        -0.58660E+08
 
   -0.56003E+08         0.49635E+06         0.00000E+00
    0.49635E+06        -0.58854E+08         0.00000E+00
    0.00000E+00         0.00000E+00        -0.58779E+08
 
   -0.56760E+08         0.54631E+06         0.00000E+00
    0.54631E+06        -0.58649E+08         0.00000E+00
    0.00000E+00         0.00000E+00        -0.58889E+08
 
   -0.57493E+08         0.60040E+06         0.00000E+00
    0.60040E+06        -0.58422E+08         0.00000E+00
    0.00000E+00         0.00000E+00        -0.58991E+08
 
   -0.58201E+08         0.66131E+06         0.00000E+00
    0.66131E+06        -0.58172E+08         0.00000E+00
    0.00000E+00         0.00000E+00        -0.59082E+08
 
   -0.58875E+08         0.73401E+06         0.00000E+00
    0.73401E+06        -0.57904E+08         0.00000E+00
    0.00000E+00         0.00000E+00        -0.59163E+08
 
   -0.47262E+08         0.59921E+05         0.00000E+00
    0.59921E+05        -0.59990E+08         0.00000E+00
    0.00000E+00         0.00000E+00        -0.57167E+08
 
   -0.48160E+08         0.15909E+06         0.00000E+00
    0.15909E+06        -0.59952E+08         0.00000E+00
    0.00000E+00         0.00000E+00        -0.57339E+08
 
   -0.49085E+08         0.23797E+06         0.00000E+00
    0.23797E+06        -0.59890E+08         0.00000E+00
    0.00000E+00         0.00000E+00        -0.57512E+08
 
   -0.50013E+08         0.30207E+06         0.00000E+00
    0.30207E+06        -0.59813E+08         0.00000E+00
    0.00000E+00         0.00000E+00        -0.57682E+08
 
   -0.50928E+08         0.35611E+06         0.00000E+00
    0.35611E+06        -0.59726E+08         0.00000E+00
    0.00000E+00         0.00000E+00        -0.57848E+08
 
   -0.51825E+08         0.40496E+06         0.00000E+00
    0.40496E+06        -0.59629E+08         0.00000E+00
    0.00000E+00         0.00000E+00        -0.58008E+08
 
   -0.52698E+08         0.45303E+06         0.00000E+00
    0.45303E+06        -0.59520E+08         0.00000E+00
    0.00000E+00         0.00000E+00        -0.58161E+08
 
   -0.53547E+08         0.50369E+06         0.00000E+00
    0.50369E+06        -0.59398E+08         0.00000E+00
    0.00000E+00         0.00000E+00        -0.58306E+08
 
   -0.54370E+08         0.55909E+06         0.00000E+00
    0.55909E+06        -0.59260E+08         0.00000E+00
    0.00000E+00         0.00000E+00        -0.58443E+08
 
   -0.55169E+08         0.62025E+06         0.00000E+00
    0.62025E+06        -0.59105E+08         0.00000E+00
    0.00000E+00         0.00000E+00        -0.58572E+08
 
   -0.55944E+08         0.68726E+06         0.00000E+00
    0.68726E+06        -0.58929E+08         0.00000E+00
    0.00000E+00         0.00000E+00        -0.58692E+08
 
   -0.56697E+08         0.75965E+06         0.00000E+00
    0.75965E+06        -0.58730E+08         0.00000E+00
    0.00000E+00         0.00000E+00        -0.58803E+08
 
   -0.57425E+08         0.83703E+06         0.00000E+00
    0.83703E+06        -0.58508E+08         0.00000E+00
    0.00000E+00         0.00000E+00        -0.58904E+08
 
   -0.58126E+08         0.91940E+06         0.00000E+00
    0.91940E+06        -0.58263E+08         0.00000E+00
    0.00000E+00         0.00000E+00        -0.58995E+08
 
   -0.58791E+08         0.10064E+07         0.00000E+00
    0.10064E+07        -0.57999E+08         0.00000E+00
    0.00000E+00         0.00000E+00        -0.59075E+08
 
   -0.47130E+08         0.80978E+05         0.00000E+00
    0.80978E+05        -0.59992E+08         0.00000E+00
    0.00000E+00         0.00000E+00        -0.57037E+08
 
   -0.48061E+08         0.20888E+06         0.00000E+00
    0.20888E+06        -0.59959E+08         0.00000E+00
    0.00000E+00         0.00000E+00        -0.57217E+08
 
   -0.49008E+08         0.30430E+06         0.00000E+00
    0.30430E+06        -0.59906E+08         0.00000E+00
    0.00000E+00         0.00000E+00        -0.57395E+08
 
   -0.49949E+08         0.37914E+06         0.00000E+00
    0.37914E+06        -0.59840E+08         0.00000E+00
    0.00000E+00         0.00000E+00        -0.57571E+08
 
   -0.50873E+08         0.44230E+06         0.00000E+00
    0.44230E+06        -0.59765E+08         0.00000E+00
    0.00000E+00         0.00000E+00        -0.57740E+08
 
   -0.51772E+08         0.50093E+06         0.00000E+00
    0.50093E+06        -0.59682E+08         0.00000E+00
    0.00000E+00         0.00000E+00        -0.57903E+08
 
   -0.52643E+08         0.56069E+06         0.00000E+00
    0.56069E+06        -0.59589E+08         0.00000E+00
    0.00000E+00         0.00000E+00        -0.58059E+08
 
   -0.53486E+08         0.62566E+06         0.00000E+00
    0.62566E+06        -0.59483E+08         0.00000E+00
    0.00000E+00         0.00000E+00        -0.58206E+08
 
   -0.54302E+08         0.69832E+06         0.00000E+00
    0.69832E+06        -0.59360E+08         0.00000E+00
    0.00000E+00         0.00000E+00        -0.58345E+08
 
   -0.55094E+08         0.77966E+06         0.00000E+00
    0.77966E+06        -0.59218E+08         0.00000E+00
    0.00000E+00         0.00000E+00        -0.58475E+08
 
   -0.55863E+08         0.86938E+06         0.00000E+00
    0.86938E+06        -0.59054E+08         0.00000E+00
    0.00000E+00         0.00000E+00        -0.58596E+08
 
   -0.56609E+08         0.96625E+06         0.00000E+00
    0.96625E+06        -0.58865E+08         0.00000E+00
    0.00000E+00         0.00000E+00        -0.58708E+08
 
   -0.57333E+08         0.10683E+07         0.00000E+00
    0.10683E+07        -0.58649E+08         0.00000E+00
    0.00000E+00         0.00000E+00        -0.58809E+08
 
   -0.58031E+08         0.11730E+07         0.00000E+00
    0.11730E+07        -0.58409E+08         0.00000E+00
    0.00000E+00         0.00000E+00        -0.58901E+08
 
   -0.58696E+08         0.12766E+07         0.00000E+00
    0.12766E+07        -0.58148E+08         0.00000E+00
    0.00000E+00         0.00000E+00        -0.58982E+08
 
   -0.46965E+08         0.97997E+05         0.00000E+00
    0.97997E+05        -0.59994E+08         0.00000E+00
    0.00000E+00         0.00000E+00        -0.56881E+08
 
   -0.47942E+08         0.24933E+06         0.00000E+00
    0.24933E+06        -0.59969E+08         0.00000E+00
    0.00000E+00         0.00000E+00        -0.57072E+08
 
   -0.48919E+08         0.35817E+06         0.00000E+00
    0.35817E+06        -0.59928E+08         0.00000E+00
    0.00000E+00         0.00000E+00        -0.57259E+08
 
   -0.49878E+08         0.44136E+06         0.00000E+00
    0.44136E+06        -0.59879E+08         0.00000E+00
    0.00000E+00         0.00000E+00        -0.57441E+08
 
   -0.50809E+08         0.51167E+06         0.00000E+00
    0.51167E+06        -0.59824E+08         0.00000E+00
    0.00000E+00         0.00000E+00        -0.57616E+08
 
   -0.51708E+08         0.57876E+06         0.00000E+00
    0.57876E+06        -0.59761E+08         0.00000E+00
    0.00000E+00         0.00000E+00        -0.57784E+08
 
   -0.52574E+08         0.64977E+06         0.00000E+00
    0.64977E+06        -0.59689E+08         0.00000E+00
    0.00000E+00         0.00000E+00        -0.57942E+08
 
   -0.53409E+08         0.72955E+06         0.00000E+00
    0.72955E+06        -0.59604E+08         0.00000E+00
    0.00000E+00         0.00000E+00        -0.58092E+08
 
   -0.54215E+08         0.82084E+06         0.00000E+00
    0.82084E+06        -0.59501E+08         0.00000E+00
    0.00000E+00         0.00000E+00        -0.58233E+08
 
   -0.54997E+08         0.92444E+06         0.00000E+00
    0.92444E+06        -0.59377E+08         0.00000E+00
    0.00000E+00         0.00000E+00        -0.58364E+08
 
   -0.55756E+08         0.10395E+07         0.00000E+00
    0.10395E+07        -0.59228E+08         0.00000E+00
    0.00000E+00         0.00000E+00        -0.58486E+08
 
   -0.56496E+08         0.11636E+07         0.00000E+00
    0.11636E+07        -0.59050E+08         0.00000E+00
    0.00000E+00         0.00000E+00        -0.58599E+08
 
   -0.57216E+08         0.12933E+07         0.00000E+00
    0.12933E+07        -0.58843E+08         0.00000E+00
    0.00000E+00         0.00000E+00        -0.58702E+08
 
   -0.57915E+08         0.14237E+07         0.00000E+00
    0.14237E+07        -0.58608E+08         0.00000E+00
    0.00000E+00         0.00000E+00        -0.58794E+08
 
   -0.58586E+08         0.15483E+07         0.00000E+00
    0.15483E+07        -0.58346E+08         0.00000E+00
    0.00000E+00         0.00000E+00        -0.58876E+08
 
   -0.46773E+08         0.11011E+06         0.00000E+00
    0.11011E+06        -0.59996E+08         0.00000E+00
    0.00000E+00         0.00000E+00        -0.56697E+08
 
   -0.47808E+08         0.27737E+06         0.00000E+00
    0.27737E+06        -0.59981E+08         0.00000E+00
    0.00000E+00         0.00000E+00        -0.56901E+08
 
   -0.48821E+08         0.39464E+06         0.00000E+00
    0.39464E+06        -0.59957E+08         0.00000E+00
    0.00000E+00         0.00000E+00        -0.57098E+08
 
   -0.49800E+08         0.48285E+06         0.00000E+00
    0.48285E+06        -0.59930E+08         0.00000E+00
    0.00000E+00         0.00000E+00        -0.57289E+08
 
   -0.50738E+08         0.55815E+06         0.00000E+00
    0.55815E+06        -0.59899E+08         0.00000E+00
    0.00000E+00         0.00000E+00        -0.57470E+08
 
   -0.51635E+08         0.63258E+06         0.00000E+00
    0.63258E+06        -0.59862E+08         0.00000E+00
    0.00000E+00         0.00000E+00        -0.57642E+08
 
   -0.52493E+08         0.71477E+06         0.00000E+00
    0.71477E+06        -0.59817E+08         0.00000E+00
    0.00000E+00         0.00000E+00        -0.57805E+08
 
   -0.53315E+08         0.81031E+06         0.00000E+00
    0.81031E+06        -0.59758E+08         0.00000E+00
    0.00000E+00         0.00000E+00        -0.57957E+08
 
   -0.54106E+08         0.92211E+06         0.00000E+00
    0.92211E+06        -0.59680E+08         0.00000E+00
    0.00000E+00         0.00000E+00        -0.58100E+08
 
   -0.54874E+08         0.10507E+07         0.00000E+00
    0.10507E+07        -0.59578E+08         0.00000E+00
    0.00000E+00         0.00000E+00        -0.58233E+08
 
   -0.55621E+08         0.11944E+07         0.00000E+00
    0.11944E+07        -0.59447E+08         0.00000E+00
    0.00000E+00         0.00000E+00        -0.58356E+08
 
   -0.56353E+08         0.13498E+07         0.00000E+00
    0.13498E+07        -0.59284E+08         0.00000E+00
    0.00000E+00         0.00000E+00        -0.58470E+08
 
   -0.57070E+08         0.15115E+07         0.00000E+00
    0.15115E+07        -0.59087E+08         0.00000E+00
    0.00000E+00         0.00000E+00        -0.58574E+08
 
   -0.57772E+08         0.16726E+07         0.00000E+00
    0.16726E+07        -0.58856E+08         0.00000E+00
    0.00000E+00         0.00000E+00        -0.58668E+08
 
   -0.58455E+08         0.18246E+07         0.00000E+00
    0.18246E+07        -0.58592E+08         0.00000E+00
    0.00000E+00         0.00000E+00        -0.58752E+08
 
   -0.46566E+08         0.11647E+06         0.00000E+00
    0.11647E+06        -0.59999E+08         0.00000E+00
    0.00000E+00         0.00000E+00        -0.56479E+08
 
   -0.47667E+08         0.29035E+06         0.00000E+00
    0.29035E+06        -0.59995E+08         0.00000E+00
    0.00000E+00         0.00000E+00        -0.56698E+08
 
   -0.48720E+08         0.40946E+06         0.00000E+00
    0.40946E+06        -0.59991E+08         0.00000E+00
    0.00000E+00         0.00000E+00        -0.56908E+08
 
   -0.49719E+08         0.49835E+06         0.00000E+00
    0.49835E+06        -0.59990E+08         0.00000E+00
    0.00000E+00         0.00000E+00        -0.57108E+08
 
   -0.50663E+08         0.57605E+06         0.00000E+00
    0.57605E+06        -0.59989E+08         0.00000E+00
    0.00000E+00         0.00000E+00        -0.57296E+08
 
   -0.51553E+08         0.65671E+06         0.00000E+00
    0.65671E+06        -0.59985E+08         0.00000E+00
    0.00000E+00         0.00000E+00        -0.57474E+08
 
   -0.52397E+08         0.75026E+06         0.00000E+00
    0.75026E+06        -0.59972E+08         0.00000E+00
    0.00000E+00         0.00000E+00        -0.57640E+08
 
   -0.53201E+08         0.86292E+06         0.00000E+00
    0.86292E+06        -0.59944E+08         0.00000E+00
    0.00000E+00         0.00000E+00        -0.57795E+08
 
   -0.53973E+08         0.99767E+06         0.00000E+00
    0.99767E+06        -0.59895E+08         0.00000E+00
    0.00000E+00         0.00000E+00        -0.57940E+08
 
   -0.54722E+08         0.11546E+07         0.00000E+00
    0.11546E+07        -0.59819E+08         0.00000E+00
    0.00000E+00         0.00000E+00        -0.58074E+08
 
   -0.55454E+08         0.13313E+07         0.00000E+00
    0.13313E+07        -0.59710E+08         0.00000E+00
    0.00000E+00         0.00000E+00        -0.58199E+08
 
   -0.56175E+08         0.15228E+07         0.00000E+00
    0.15228E+07        -0.59564E+08         0.00000E+00
    0.00000E+00         0.00000E+00        -0.58314E+08
 
   -0.56889E+08         0.17223E+07         0.00000E+00
    0.17223E+07        -0.59378E+08         0.00000E+00
    0.00000E+00         0.00000E+00        -0.58419E+08
 
   -0.57596E+08         0.19208E+07         0.00000E+00
    0.19208E+07        -0.59150E+08         0.00000E+00
    0.00000E+00         0.00000E+00        -0.58515E+08
 
   -0.58295E+08         0.21077E+07         0.00000E+00
    0.21077E+07        -0.58883E+08         0.00000E+00
    0.00000E+00         0.00000E+00        -0.58602E+08
 
   -0.46354E+08         0.11618E+06         0.00000E+00
    0.11618E+06        -0.60002E+08         0.00000E+00
    0.00000E+00         0.00000E+00        -0.56224E+08
 
   -0.47527E+08         0.28577E+06         0.00000E+00
    0.28577E+06        -0.60011E+08         0.00000E+00
    0.00000E+00         0.00000E+00        -0.56460E+08
 
   -0.48622E+08         0.39881E+06         0.00000E+00
    0.39881E+06        -0.60031E+08         0.00000E+00
    0.00000E+00         0.00000E+00        -0.56683E+08
 
   -0.49639E+08         0.48311E+06         0.00000E+00
    0.48311E+06        -0.60059E+08         0.00000E+00
    0.00000E+00         0.00000E+00        -0.56893E+08
 
   -0.50584E+08         0.56016E+06         0.00000E+00
    0.56016E+06        -0.60093E+08         0.00000E+00
    0.00000E+00         0.00000E+00        -0.57088E+08
 
   -0.51463E+08         0.64584E+06         0.00000E+00
    0.64584E+06        -0.60126E+08         0.00000E+00
    0.00000E+00         0.00000E+00        -0.57271E+08
 
   -0.52287E+08         0.75111E+06         0.00000E+00
    0.75111E+06        -0.60150E+08         0.00000E+00
    0.00000E+00         0.00000E+00        -0.57440E+08
 
   -0.53067E+08         0.88263E+06         0.00000E+00
    0.88263E+06        -0.60159E+08         0.00000E+00
    0.00000E+00         0.00000E+00        -0.57598E+08
 
   -0.53813E+08         0.10433E+07         0.00000E+00
    0.10433E+07        -0.60143E+08         0.00000E+00
    0.00000E+00         0.00000E+00        -0.57744E+08
 
   -0.54537E+08         0.12326E+07         0.00000E+00
    0.12326E+07        -0.60097E+08         0.00000E+00
    0.00000E+00         0.00000E+00        -0.57880E+08
 
   -0.55249E+08         0.14472E+07         0.00000E+00
    0.14472E+07        -0.60013E+08         0.00000E+00
    0.00000E+00         0.00000E+00        -0.58005E+08
 
   -0.55957E+08         0.16809E+07         0.00000E+00
    0.16809E+07        -0.59886E+08         0.00000E+00
    0.00000E+00         0.00000E+00        -0.58122E+08
 
   -0.56666E+08         0.19252E+07         0.00000E+00
    0.19252E+07        -0.59712E+08         0.00000E+00
    0.00000E+00         0.00000E+00        -0.58229E+08
 
   -0.57380E+08         0.21690E+07         0.00000E+00
    0.21690E+07        -0.59488E+08         0.00000E+00
    0.00000E+00         0.00000E+00        -0.58327E+08
 
   -0.58098E+08         0.23995E+07         0.00000E+00
    0.23995E+07        -0.59216E+08         0.00000E+00
    0.00000E+00         0.00000E+00        -0.58416E+08
 
   -0.46152E+08         0.10835E+06         0.00000E+00
    0.10835E+06        -0.60006E+08         0.00000E+00
    0.00000E+00         0.00000E+00        -0.55928E+08
 
   -0.47397E+08         0.26122E+06         0.00000E+00
    0.26122E+06        -0.60030E+08         0.00000E+00
    0.00000E+00         0.00000E+00        -0.56181E+08
 
   -0.48532E+08         0.35916E+06         0.00000E+00
    0.35916E+06        -0.60075E+08         0.00000E+00
    0.00000E+00         0.00000E+00        -0.56418E+08
 
   -0.49565E+08         0.43285E+06         0.00000E+00
    0.43285E+06        -0.60138E+08         0.00000E+00
    0.00000E+00         0.00000E+00        -0.56636E+08
 
   -0.50504E+08         0.50580E+06         0.00000E+00
    0.50580E+06        -0.60210E+08         0.00000E+00
    0.00000E+00         0.00000E+00        -0.56839E+08
 
   -0.51365E+08         0.59521E+06         0.00000E+00
    0.59521E+06        -0.60284E+08         0.00000E+00
    0.00000E+00         0.00000E+00        -0.57026E+08
 
   -0.52161E+08         0.71271E+06         0.00000E+00
    0.71271E+06        -0.60350E+08         0.00000E+00
    0.00000E+00         0.00000E+00        -0.57198E+08
 
   -0.52908E+08         0.86512E+06         0.00000E+00
    0.86512E+06        -0.60399E+08         0.00000E+00
    0.00000E+00         0.00000E+00        -0.57358E+08
 
   -0.53621E+08         0.10551E+07         0.00000E+00
    0.10551E+07        -0.60421E+08         0.00000E+00
    0.00000E+00         0.00000E+00        -0.57505E+08
 
   -0.54314E+08         0.12814E+07         0.00000E+00
    0.12814E+07        -0.60408E+08         0.00000E+00
    0.00000E+00         0.00000E+00        -0.57641E+08
 
   -0.55001E+08         0.15397E+07         0.00000E+00
    0.15397E+07        -0.60352E+08         0.00000E+00
    0.00000E+00         0.00000E+00        -0.57767E+08
 
   -0.55691E+08         0.18225E+07         0.00000E+00
    0.18225E+07        -0.60246E+08         0.00000E+00
    0.00000E+00         0.00000E+00        -0.57884E+08
 
   -0.56394E+08         0.21194E+07         0.00000E+00
    0.21194E+07        -0.60085E+08         0.00000E+00
    0.00000E+00         0.00000E+00        -0.57992E+08
 
   -0.57114E+08         0.24177E+07         0.00000E+00
    0.24177E+07        -0.59865E+08         0.00000E+00
    0.00000E+00         0.00000E+00        -0.58092E+08
 
   -0.57854E+08         0.27019E+07         0.00000E+00
    0.27019E+07        -0.59587E+08         0.00000E+00
    0.00000E+00         0.00000E+00        -0.58184E+08
 
   -0.45973E+08         0.92077E+05         0.00000E+00
    0.92077E+05        -0.60010E+08         0.00000E+00
    0.00000E+00         0.00000E+00        -0.55584E+08
 
   -0.47290E+08         0.21442E+06         0.00000E+00
    0.21442E+06        -0.60050E+08         0.00000E+00
    0.00000E+00         0.00000E+00        -0.55855E+08
 
   -0.48460E+08         0.28730E+06         0.00000E+00
    0.28730E+06        -0.60124E+08         0.00000E+00
    0.00000E+00         0.00000E+00        -0.56104E+08
 
   -0.49500E+08         0.34378E+06         0.00000E+00
    0.34378E+06        -0.60224E+08         0.00000E+00
    0.00000E+00         0.00000E+00        -0.56332E+08
 
   -0.50426E+08         0.40891E+06         0.00000E+00
    0.40891E+06        -0.60339E+08         0.00000E+00
    0.00000E+00         0.00000E+00        -0.56540E+08
 
   -0.51259E+08         0.50071E+06         0.00000E+00
    0.50071E+06        -0.60458E+08         0.00000E+00
    0.00000E+00         0.00000E+00        -0.56731E+08
 
   -0.52018E+08         0.63109E+06         0.00000E+00
    0.63109E+06        -0.60569E+08         0.00000E+00
    0.00000E+00         0.00000E+00        -0.56905E+08
 
   -0.52723E+08         0.80672E+06         0.00000E+00
    0.80672E+06        -0.60662E+08         0.00000E+00
    0.00000E+00         0.00000E+00        -0.57064E+08
 
   -0.53394E+08         0.10297E+07         0.00000E+00
    0.10297E+07        -0.60724E+08         0.00000E+00
    0.00000E+00         0.00000E+00        -0.57211E+08
 
   -0.54048E+08         0.12981E+07         0.00000E+00
    0.12981E+07        -0.60747E+08         0.00000E+00
    0.00000E+00         0.00000E+00        -0.57346E+08
 
   -0.54703E+08         0.16064E+07         0.00000E+00
    0.16064E+07        -0.60721E+08         0.00000E+00
    0.00000E+00         0.00000E+00        -0.57472E+08
 
   -0.55370E+08         0.19458E+07         0.00000E+00
    0.19458E+07        -0.60638E+08         0.00000E+00
    0.00000E+00         0.00000E+00        -0.57589E+08
 
   -0.56063E+08         0.23043E+07         0.00000E+00
    0.23043E+07        -0.60491E+08         0.00000E+00
    0.00000E+00         0.00000E+00        -0.57698E+08
 
   -0.56789E+08         0.26670E+07         0.00000E+00
    0.26670E+07        -0.60277E+08         0.00000E+00
    0.00000E+00         0.00000E+00        -0.57800E+08
 
   -0.57551E+08         0.30161E+07         0.00000E+00
    0.30161E+07        -0.59991E+08         0.00000E+00
    0.00000E+00         0.00000E+00        -0.57896E+08
 
   -0.45835E+08         0.66511E+05         0.00000E+00
    0.66511E+05        -0.60014E+08         0.00000E+00
    0.00000E+00         0.00000E+00        -0.55187E+08
 
   -0.47217E+08         0.14329E+06         0.00000E+00
    0.14329E+06        -0.60072E+08         0.00000E+00
    0.00000E+00         0.00000E+00        -0.55475E+08
 
   -0.48414E+08         0.18040E+06         0.00000E+00
    0.18040E+06        -0.60177E+08         0.00000E+00
    0.00000E+00         0.00000E+00        -0.55736E+08
 
   -0.49451E+08         0.21271E+06         0.00000E+00
    0.21271E+06        -0.60317E+08         0.00000E+00
    0.00000E+00         0.00000E+00        -0.55971E+08
 
   -0.50352E+08         0.26619E+06         0.00000E+00
    0.26619E+06        -0.60477E+08         0.00000E+00
    0.00000E+00         0.00000E+00        -0.56183E+08
 
   -0.51145E+08         0.35910E+06         0.00000E+00
    0.35910E+06        -0.60644E+08         0.00000E+00
    0.00000E+00         0.00000E+00        -0.56375E+08
 
   -0.51855E+08         0.50317E+06         0.00000E+00
    0.50317E+06        -0.60803E+08         0.00000E+00
    0.00000E+00         0.00000E+00        -0.56549E+08
 
   -0.52508E+08         0.70453E+06         0.00000E+00
    0.70453E+06        -0.60942E+08         0.00000E+00
    0.00000E+00         0.00000E+00        -0.56708E+08
 
   -0.53127E+08         0.96455E+06         0.00000E+00
    0.96455E+06        -0.61047E+08         0.00000E+00
    0.00000E+00         0.00000E+00        -0.56852E+08
 
   -0.53733E+08         0.12804E+07         0.00000E+00
    0.12804E+07        -0.61108E+08         0.00000E+00
    0.00000E+00         0.00000E+00        -0.56986E+08
 
   -0.54347E+08         0.16454E+07         0.00000E+00
    0.16454E+07        -0.61114E+08         0.00000E+00
    0.00000E+00         0.00000E+00        -0.57110E+08
 
   -0.54986E+08         0.20495E+07         0.00000E+00
    0.20495E+07        -0.61056E+08         0.00000E+00
    0.00000E+00         0.00000E+00        -0.57226E+08
 
   -0.55664E+08         0.24790E+07         0.00000E+00
    0.24790E+07        -0.60925E+08         0.00000E+00
    0.00000E+00         0.00000E+00        -0.57335E+08
 
   -0.56392E+08         0.29170E+07         0.00000E+00
    0.29170E+07        -0.60715E+08         0.00000E+00
    0.00000E+00         0.00000E+00        -0.57439E+08
 
   -0.57178E+08         0.33434E+07         0.00000E+00
    0.33434E+07        -0.60423E+08         0.00000E+00
    0.00000E+00         0.00000E+00        -0.57538E+08
 
   -0.45756E+08         0.30875E+05         0.00000E+00
    0.30875E+05        -0.60019E+08         0.00000E+00
    0.00000E+00         0.00000E+00        -0.54732E+08
 
   -0.47192E+08         0.46054E+05         0.00000E+00
    0.46054E+05        -0.60096E+08         0.00000E+00
    0.00000E+00         0.00000E+00        -0.55034E+08
 
   -0.48403E+08         0.36222E+05         0.00000E+00
    0.36222E+05        -0.60233E+08         0.00000E+00
    0.00000E+00         0.00000E+00        -0.55304E+08
 
   -0.49422E+08         0.37273E+05         0.00000E+00
    0.37273E+05        -0.60415E+08         0.00000E+00
    0.00000E+00         0.00000E+00        -0.55544E+08
 
   -0.50285E+08         0.75322E+05         0.00000E+00
    0.75322E+05        -0.60622E+08         0.00000E+00
    0.00000E+00         0.00000E+00        -0.55758E+08
 
   -0.51024E+08         0.16823E+06         0.00000E+00
    0.16823E+06        -0.60838E+08         0.00000E+00
    0.00000E+00         0.00000E+00        -0.55949E+08
 
   -0.51672E+08         0.32696E+06         0.00000E+00
    0.32696E+06        -0.61047E+08         0.00000E+00
    0.00000E+00         0.00000E+00        -0.56121E+08
 
   -0.52260E+08         0.55673E+06         0.00000E+00
    0.55673E+06        -0.61233E+08         0.00000E+00
    0.00000E+00         0.00000E+00        -0.56275E+08
 
   -0.52815E+08         0.85789E+06         0.00000E+00
    0.85789E+06        -0.61383E+08         0.00000E+00
    0.00000E+00         0.00000E+00        -0.56416E+08
 
   -0.53363E+08         0.12266E+07         0.00000E+00
    0.12266E+07        -0.61483E+08         0.00000E+00
    0.00000E+00         0.00000E+00        -0.56546E+08
 
   -0.53927E+08         0.16551E+07         0.00000E+00
    0.16551E+07        -0.61522E+08         0.00000E+00
    0.00000E+00         0.00000E+00        -0.56667E+08
 
   -0.54529E+08         0.21320E+07         0.00000E+00
    0.21320E+07        -0.61490E+08         0.00000E+00
    0.00000E+00         0.00000E+00        -0.56781E+08
 
   -0.55186E+08         0.26423E+07         0.00000E+00
    0.26423E+07        -0.61375E+08         0.00000E+00
    0.00000E+00         0.00000E+00        -0.56889E+08
 
   -0.55913E+08         0.31673E+07         0.00000E+00
    0.31673E+07        -0.61172E+08         0.00000E+00
    0.00000E+00         0.00000E+00        -0.56994E+08
 
   -0.56721E+08         0.36843E+07         0.00000E+00
    0.36843E+07        -0.60873E+08         0.00000E+00
    0.00000E+00         0.00000E+00        -0.57096E+08
 
   -0.45755E+08        -0.15467E+05         0.00000E+00
   -0.15467E+05        -0.60024E+08         0.00000E+00
    0.00000E+00         0.00000E+00        -0.54211E+08
 
   -0.47228E+08        -0.78629E+05         0.00000E+00
   -0.78629E+05        -0.60120E+08         0.00000E+00
    0.00000E+00         0.00000E+00        -0.54524E+08
 
   -0.48435E+08        -0.14674E+06         0.00000E+00
   -0.14674E+06        -0.60292E+08         0.00000E+00
    0.00000E+00         0.00000E+00        -0.54800E+08
 
   -0.49419E+08        -0.18390E+06         0.00000E+00
   -0.18390E+06        -0.60516E+08         0.00000E+00
    0.00000E+00         0.00000E+00        -0.55042E+08
 
   -0.50226E+08        -0.16477E+06         0.00000E+00
   -0.16477E+06        -0.60771E+08         0.00000E+00
    0.00000E+00         0.00000E+00        -0.55254E+08
 
   -0.50895E+08        -0.72716E+05         0.00000E+00
   -0.72716E+05        -0.61036E+08         0.00000E+00
    0.00000E+00         0.00000E+00        -0.55441E+08
 
   -0.51467E+08         0.10184E+06         0.00000E+00
    0.10184E+06        -0.61294E+08         0.00000E+00
    0.00000E+00         0.00000E+00        -0.55607E+08
 
   -0.51975E+08         0.36274E+06         0.00000E+00
    0.36274E+06        -0.61528E+08         0.00000E+00
    0.00000E+00         0.00000E+00        -0.55755E+08
 
   -0.52453E+08         0.70908E+06         0.00000E+00
    0.70908E+06        -0.61722E+08         0.00000E+00
    0.00000E+00         0.00000E+00        -0.55890E+08
 
   -0.52931E+08         0.11359E+07         0.00000E+00
    0.11359E+07        -0.61862E+08         0.00000E+00
    0.00000E+00         0.00000E+00        -0.56013E+08
 
   -0.53435E+08         0.16344E+07         0.00000E+00
    0.16344E+07        -0.61934E+08         0.00000E+00
    0.00000E+00         0.00000E+00        -0.56128E+08
 
   -0.53990E+08         0.21922E+07         0.00000E+00
    0.21922E+07        -0.61929E+08         0.00000E+00
    0.00000E+00         0.00000E+00        -0.56238E+08
 
   -0.54619E+08         0.27932E+07         0.00000E+00
    0.27932E+07        -0.61832E+08         0.00000E+00
    0.00000E+00         0.00000E+00        -0.56345E+08
 
   -0.55338E+08         0.34169E+07         0.00000E+00
    0.34169E+07        -0.61636E+08         0.00000E+00
    0.00000E+00         0.00000E+00        -0.56449E+08
 
   -0.56165E+08         0.40386E+07         0.00000E+00
    0.40386E+07        -0.61332E+08         0.00000E+00
    0.00000E+00         0.00000E+00        -0.56554E+08
 
   -0.45852E+08        -0.72944E+05         0.00000E+00
   -0.72944E+05        -0.60029E+08         0.00000E+00
    0.00000E+00         0.00000E+00        -0.53616E+08
 
   -0.47340E+08        -0.23147E+06         0.00000E+00
   -0.23147E+06        -0.60145E+08         0.00000E+00
    0.00000E+00         0.00000E+00        -0.53937E+08
 
   -0.48520E+08        -0.36898E+06         0.00000E+00
   -0.36898E+06        -0.60351E+08         0.00000E+00
    0.00000E+00         0.00000E+00        -0.54214E+08
 
   -0.49448E+08        -0.45083E+06         0.00000E+00
   -0.45083E+06        -0.60617E+08         0.00000E+00
    0.00000E+00         0.00000E+00        -0.54453E+08
 
   -0.50178E+08        -0.45361E+06         0.00000E+00
   -0.45361E+06        -0.60918E+08         0.00000E+00
    0.00000E+00         0.00000E+00        -0.54659E+08
 
   -0.50759E+08        -0.36285E+06         0.00000E+00
   -0.36285E+06        -0.61232E+08         0.00000E+00
    0.00000E+00         0.00000E+00        -0.54838E+08
 
   -0.51236E+08        -0.17110E+06         0.00000E+00
   -0.17110E+06        -0.61538E+08         0.00000E+00
    0.00000E+00         0.00000E+00        -0.54994E+08
 
   -0.51651E+08         0.12361E+06         0.00000E+00
    0.12361E+06        -0.61816E+08         0.00000E+00
    0.00000E+00         0.00000E+00        -0.55133E+08
 
   -0.52038E+08         0.51883E+06         0.00000E+00
    0.51883E+06        -0.62052E+08         0.00000E+00
    0.00000E+00         0.00000E+00        -0.55258E+08
 
   -0.52432E+08         0.10085E+07         0.00000E+00
    0.10085E+07        -0.62230E+08         0.00000E+00
    0.00000E+00         0.00000E+00        -0.55372E+08
 
   -0.52864E+08         0.15829E+07         0.00000E+00
    0.15829E+07        -0.62337E+08         0.00000E+00
    0.00000E+00         0.00000E+00        -0.55480E+08
 
   -0.53362E+08         0.22291E+07         0.00000E+00
    0.22291E+07        -0.62358E+08         0.00000E+00
    0.00000E+00         0.00000E+00        -0.55583E+08
 
   -0.53951E+08         0.29301E+07         0.00000E+00
    0.29301E+07        -0.62281E+08         0.00000E+00
    0.00000E+00         0.00000E+00        -0.55686E+08
 
   -0.54655E+08         0.36644E+07         0.00000E+00
    0.36644E+07        -0.62094E+08         0.00000E+00
    0.00000E+00         0.00000E+00        -0.55789E+08
 
   -0.55494E+08         0.44055E+07         0.00000E+00
    0.44055E+07        -0.61785E+08         0.00000E+00
    0.00000E+00         0.00000E+00        -0.55895E+08
 
   -0.46068E+08        -0.14171E+06         0.00000E+00
   -0.14171E+06        -0.60035E+08         0.00000E+00
    0.00000E+00         0.00000E+00        -0.52941E+08
 
   -0.47541E+08        -0.41240E+06         0.00000E+00
   -0.41240E+06        -0.60170E+08         0.00000E+00
    0.00000E+00         0.00000E+00        -0.53263E+08
 
   -0.48665E+08        -0.62972E+06         0.00000E+00
   -0.62972E+06        -0.60408E+08         0.00000E+00
    0.00000E+00         0.00000E+00        -0.53535E+08
 
   -0.49511E+08        -0.76190E+06         0.00000E+00
   -0.76190E+06        -0.60715E+08         0.00000E+00
    0.00000E+00         0.00000E+00        -0.53766E+08
 
   -0.50141E+08        -0.78879E+06         0.00000E+00
   -0.78879E+06        -0.61060E+08         0.00000E+00
    0.00000E+00         0.00000E+00        -0.53961E+08
 
   -0.50614E+08        -0.69922E+06         0.00000E+00
   -0.69922E+06        -0.61418E+08         0.00000E+00
    0.00000E+00         0.00000E+00        -0.54127E+08
 
   -0.50979E+08        -0.48870E+06         0.00000E+00
   -0.48870E+06        -0.61766E+08         0.00000E+00
    0.00000E+00         0.00000E+00        -0.54269E+08
 
   -0.51283E+08        -0.15772E+06         0.00000E+00
   -0.15772E+06        -0.62086E+08         0.00000E+00
    0.00000E+00         0.00000E+00        -0.54394E+08
 
   -0.51565E+08         0.28953E+06         0.00000E+00
    0.28953E+06        -0.62360E+08         0.00000E+00
    0.00000E+00         0.00000E+00        -0.54505E+08
 
   -0.51862E+08         0.84582E+06         0.00000E+00
    0.84582E+06        -0.62574E+08         0.00000E+00
    0.00000E+00         0.00000E+00        -0.54607E+08
 
   -0.52208E+08         0.15011E+07         0.00000E+00
    0.15011E+07        -0.62713E+08         0.00000E+00
    0.00000E+00         0.00000E+00        -0.54704E+08
 
   -0.52635E+08         0.22420E+07         0.00000E+00
    0.22420E+07        -0.62761E+08         0.00000E+00
    0.00000E+00         0.00000E+00        -0.54799E+08
 
   -0.53173E+08         0.30514E+07         0.00000E+00
    0.30514E+07        -0.62705E+08         0.00000E+00
    0.00000E+00         0.00000E+00        -0.54895E+08
 
   -0.53850E+08         0.39075E+07         0.00000E+00
    0.39075E+07        -0.62529E+08         0.00000E+00
    0.00000E+00         0.00000E+00        -0.54996E+08
 
   -0.54692E+08         0.47825E+07         0.00000E+00
    0.47825E+07        -0.62219E+08         0.00000E+00
    0.00000E+00         0.00000E+00        -0.55102E+08
 
   -0.46423E+08        -0.22157E+06         0.00000E+00
   -0.22157E+06        -0.60040E+08         0.00000E+00
    0.00000E+00         0.00000E+00        -0.52178E+08
 
   -0.47843E+08        -0.62032E+06         0.00000E+00
   -0.62032E+06        -0.60194E+08         0.00000E+00
    0.00000E+00         0.00000E+00        -0.52493E+08
 
   -0.48879E+08        -0.92664E+06         0.00000E+00
   -0.92664E+06        -0.60462E+08         0.00000E+00
    0.00000E+00         0.00000E+00        -0.52754E+08
 
   -0.49612E+08        -0.11135E+07         0.00000E+00
   -0.11135E+07        -0.60805E+08         0.00000E+00
    0.00000E+00         0.00000E+00        -0.52969E+08
 
   -0.50117E+08        -0.11656E+07         0.00000E+00
   -0.11656E+07        -0.61188E+08         0.00000E+00
    0.00000E+00         0.00000E+00        -0.53146E+08
 
   -0.50459E+08        -0.10764E+07         0.00000E+00
   -0.10764E+07        -0.61584E+08         0.00000E+00
    0.00000E+00         0.00000E+00        -0.53294E+08
 
   -0.50693E+08        -0.84532E+06         0.00000E+00
   -0.84532E+06        -0.61968E+08         0.00000E+00
    0.00000E+00         0.00000E+00        -0.53417E+08
 
   -0.50870E+08        -0.47598E+06         0.00000E+00
   -0.47598E+06        -0.62322E+08         0.00000E+00
    0.00000E+00         0.00000E+00        -0.53523E+08
 
   -0.51031E+08         0.25494E+05         0.00000E+00
    0.25494E+05        -0.62629E+08         0.00000E+00
    0.00000E+00         0.00000E+00        -0.53617E+08
 
   -0.51217E+08         0.65090E+06         0.00000E+00
    0.65090E+06        -0.62874E+08         0.00000E+00
    0.00000E+00         0.00000E+00        -0.53703E+08
 
   -0.51463E+08         0.13900E+07         0.00000E+00
    0.13900E+07        -0.63041E+08         0.00000E+00
    0.00000E+00         0.00000E+00        -0.53785E+08
 
   -0.51804E+08         0.22301E+07         0.00000E+00
    0.22301E+07        -0.63116E+08         0.00000E+00
    0.00000E+00         0.00000E+00        -0.53869E+08
 
   -0.52275E+08         0.31548E+07         0.00000E+00
    0.31548E+07        -0.63082E+08         0.00000E+00
    0.00000E+00         0.00000E+00        -0.53956E+08
 
   -0.52911E+08         0.41427E+07         0.00000E+00
    0.41427E+07        -0.62922E+08         0.00000E+00
    0.00000E+00         0.00000E+00        -0.54051E+08
 
   -0.53742E+08         0.51658E+07         0.00000E+00
    0.51658E+07        -0.62615E+08         0.00000E+00
    0.00000E+00         0.00000E+00        -0.54156E+08
 
   -0.46937E+08        -0.31189E+06         0.00000E+00
   -0.31189E+06        -0.60044E+08         0.00000E+00
    0.00000E+00         0.00000E+00        -0.51320E+08
 
   -0.48259E+08        -0.85294E+06         0.00000E+00
   -0.85294E+06        -0.60215E+08         0.00000E+00
    0.00000E+00         0.00000E+00        -0.51618E+08
 
   -0.49166E+08        -0.12555E+07         0.00000E+00
   -0.12555E+07        -0.60510E+08         0.00000E+00
    0.00000E+00         0.00000E+00        -0.51858E+08
 
   -0.49753E+08        -0.14995E+07         0.00000E+00
   -0.14995E+07        -0.60882E+08         0.00000E+00
    0.00000E+00         0.00000E+00        -0.52050E+08
 
   -0.50104E+08        -0.15764E+07         0.00000E+00
   -0.15764E+07        -0.61295E+08         0.00000E+00
    0.00000E+00         0.00000E+00        -0.52203E+08
 
   -0.50292E+08        -0.14858E+07         0.00000E+00
   -0.14858E+07        -0.61719E+08         0.00000E+00
    0.00000E+00         0.00000E+00        -0.52325E+08
 
   -0.50377E+08        -0.12324E+07         0.00000E+00
   -0.12324E+07        -0.62129E+08         0.00000E+00
    0.00000E+00         0.00000E+00        -0.52424E+08
 
   -0.50410E+08        -0.82316E+06         0.00000E+00
   -0.82316E+06        -0.62507E+08         0.00000E+00
    0.00000E+00         0.00000E+00        -0.52506E+08
 
   -0.50436E+08        -0.26662E+06         0.00000E+00
   -0.26662E+06        -0.62838E+08         0.00000E+00
    0.00000E+00         0.00000E+00        -0.52577E+08
 
   -0.50495E+08         0.42834E+06         0.00000E+00
    0.42834E+06        -0.63107E+08         0.00000E+00
    0.00000E+00         0.00000E+00        -0.52643E+08
 
   -0.50625E+08         0.12521E+07         0.00000E+00
    0.12521E+07        -0.63300E+08         0.00000E+00
    0.00000E+00         0.00000E+00        -0.52707E+08
 
   -0.50864E+08         0.21933E+07         0.00000E+00
    0.21933E+07        -0.63400E+08         0.00000E+00
    0.00000E+00         0.00000E+00        -0.52775E+08
 
   -0.51251E+08         0.32375E+07         0.00000E+00
    0.32375E+07        -0.63390E+08         0.00000E+00
    0.00000E+00         0.00000E+00        -0.52850E+08
 
   -0.51826E+08         0.43651E+07         0.00000E+00
    0.43651E+07        -0.63248E+08         0.00000E+00
    0.00000E+00         0.00000E+00        -0.52937E+08
 
   -0.52629E+08         0.55493E+07         0.00000E+00
    0.55493E+07        -0.62952E+08         0.00000E+00
    0.00000E+00         0.00000E+00        -0.53038E+08
 
   -0.47626E+08        -0.41155E+06         0.00000E+00
   -0.41155E+06        -0.60048E+08         0.00000E+00
    0.00000E+00         0.00000E+00        -0.50359E+08
 
   -0.48798E+08        -0.11066E+07         0.00000E+00
   -0.11066E+07        -0.60233E+08         0.00000E+00
    0.00000E+00         0.00000E+00        -0.50630E+08
 
   -0.49529E+08        -0.16100E+07         0.00000E+00
   -0.16100E+07        -0.60548E+08         0.00000E+00
    0.00000E+00         0.00000E+00        -0.50839E+08
 
   -0.49933E+08        -0.19111E+07         0.00000E+00
   -0.19111E+07        -0.60941E+08         0.00000E+00
    0.00000E+00         0.00000E+00        -0.50998E+08
 
   -0.50101E+08        -0.20105E+07         0.00000E+00
   -0.20105E+07        -0.61372E+08         0.00000E+00
    0.00000E+00         0.00000E+00        -0.51118E+08
 
   -0.50112E+08        -0.19157E+07         0.00000E+00
   -0.19157E+07        -0.61811E+08         0.00000E+00
    0.00000E+00         0.00000E+00        -0.51208E+08
 
   -0.50028E+08        -0.16377E+07         0.00000E+00
   -0.16377E+07        -0.62233E+08         0.00000E+00
    0.00000E+00         0.00000E+00        -0.51275E+08
 
   -0.49902E+08        -0.11881E+07         0.00000E+00
   -0.11881E+07        -0.62622E+08         0.00000E+00
    0.00000E+00         0.00000E+00        -0.51327E+08
 
   -0.49778E+08        -0.57753E+06         0.00000E+00
   -0.57753E+06        -0.62965E+08         0.00000E+00
    0.00000E+00         0.00000E+00        -0.51371E+08
 
   -0.49697E+08         0.18478E+06         0.00000E+00
    0.18478E+06        -0.63248E+08         0.00000E+00
    0.00000E+00         0.00000E+00        -0.51411E+08
 
   -0.49695E+08         0.10906E+07         0.00000E+00
    0.10906E+07        -0.63460E+08         0.00000E+00
    0.00000E+00         0.00000E+00        -0.51453E+08
 
   -0.49815E+08         0.21313E+07         0.00000E+00
    0.21313E+07        -0.63584E+08         0.00000E+00
    0.00000E+00         0.00000E+00        -0.51501E+08
 
   -0.50097E+08         0.32959E+07         0.00000E+00
    0.32959E+07        -0.63600E+08         0.00000E+00
    0.00000E+00         0.00000E+00        -0.51561E+08
 
   -0.50587E+08         0.45683E+07         0.00000E+00
    0.45683E+07        -0.63483E+08         0.00000E+00
    0.00000E+00         0.00000E+00        -0.51636E+08
 
   -0.51337E+08         0.59244E+07         0.00000E+00
    0.59244E+07        -0.63205E+08         0.00000E+00
    0.00000E+00         0.00000E+00        -0.51730E+08
 
   -0.48507E+08        -0.51888E+06         0.00000E+00
   -0.51888E+06        -0.60051E+08         0.00000E+00
    0.00000E+00         0.00000E+00        -0.49289E+08
 
   -0.49464E+08        -0.13760E+07         0.00000E+00
   -0.13760E+07        -0.60246E+08         0.00000E+00
    0.00000E+00         0.00000E+00        -0.49520E+08
 
   -0.49971E+08        -0.19812E+07         0.00000E+00
   -0.19812E+07        -0.60573E+08         0.00000E+00
    0.00000E+00         0.00000E+00        -0.49686E+08
 
   -0.50150E+08        -0.23362E+07         0.00000E+00
   -0.23362E+07        -0.60975E+08         0.00000E+00
    0.00000E+00         0.00000E+00        -0.49802E+08
 
   -0.50104E+08        -0.24532E+07         0.00000E+00
   -0.24532E+07        -0.61409E+08         0.00000E+00
    0.00000E+00         0.00000E+00        -0.49880E+08
 
   -0.49915E+08        -0.23501E+07         0.00000E+00
   -0.23501E+07        -0.61844E+08         0.00000E+00
    0.00000E+00         0.00000E+00        -0.49928E+08
 
   -0.49646E+08        -0.20455E+07         0.00000E+00
   -0.20455E+07        -0.62260E+08         0.00000E+00
    0.00000E+00         0.00000E+00        -0.49958E+08
 
   -0.49348E+08        -0.15561E+07         0.00000E+00
   -0.15561E+07        -0.62643E+08         0.00000E+00
    0.00000E+00         0.00000E+00        -0.49974E+08
 
   -0.49062E+08        -0.89494E+06         0.00000E+00
   -0.89494E+06        -0.62982E+08         0.00000E+00
    0.00000E+00         0.00000E+00        -0.49985E+08
 
   -0.48827E+08        -0.70982E+05         0.00000E+00
   -0.70982E+05        -0.63269E+08         0.00000E+00
    0.00000E+00         0.00000E+00        -0.49994E+08
 
   -0.48679E+08         0.91010E+06         0.00000E+00
    0.91010E+06        -0.63492E+08         0.00000E+00
    0.00000E+00         0.00000E+00        -0.50009E+08
 
   -0.48658E+08         0.20441E+07         0.00000E+00
    0.20441E+07        -0.63637E+08         0.00000E+00
    0.00000E+00         0.00000E+00        -0.50034E+08
 
   -0.48810E+08         0.33253E+07         0.00000E+00
    0.33253E+07        -0.63681E+08         0.00000E+00
    0.00000E+00         0.00000E+00        -0.50073E+08
 
   -0.49188E+08         0.47434E+07         0.00000E+00
    0.47434E+07        -0.63597E+08         0.00000E+00
    0.00000E+00         0.00000E+00        -0.50132E+08
 
   -0.49852E+08         0.62793E+07         0.00000E+00
    0.62793E+07        -0.63350E+08         0.00000E+00
    0.00000E+00         0.00000E+00        -0.50215E+08
 
   -0.49588E+08        -0.63161E+06         0.00000E+00
   -0.63161E+06        -0.60053E+08         0.00000E+00
    0.00000E+00         0.00000E+00        -0.48106E+08
 
   -0.50261E+08        -0.16542E+07         0.00000E+00
   -0.16542E+07        -0.60252E+08         0.00000E+00
    0.00000E+00         0.00000E+00        -0.48281E+08
 
   -0.50485E+08        -0.23573E+07         0.00000E+00
   -0.23573E+07        -0.60581E+08         0.00000E+00
    0.00000E+00         0.00000E+00        -0.48391E+08
 
   -0.50397E+08        -0.27587E+07         0.00000E+00
   -0.27587E+07        -0.60976E+08         0.00000E+00
    0.00000E+00         0.00000E+00        -0.48452E+08
 
   -0.50107E+08        -0.28857E+07         0.00000E+00
   -0.28857E+07        -0.61393E+08         0.00000E+00
    0.00000E+00         0.00000E+00        -0.48477E+08
 
   -0.49698E+08        -0.27684E+07         0.00000E+00
   -0.27684E+07        -0.61803E+08         0.00000E+00
    0.00000E+00         0.00000E+00        -0.48477E+08
 
   -0.49230E+08        -0.24352E+07         0.00000E+00
   -0.24352E+07        -0.62190E+08         0.00000E+00
    0.00000E+00         0.00000E+00        -0.48460E+08
 
   -0.48751E+08        -0.19084E+07         0.00000E+00
   -0.19084E+07        -0.62544E+08         0.00000E+00
    0.00000E+00         0.00000E+00        -0.48435E+08
 
   -0.48295E+08        -0.12033E+07         0.00000E+00
   -0.12033E+07        -0.62861E+08         0.00000E+00
    0.00000E+00         0.00000E+00        -0.48407E+08
 
   -0.47895E+08        -0.32780E+06         0.00000E+00
   -0.32780E+06        -0.63136E+08         0.00000E+00
    0.00000E+00         0.00000E+00        -0.48381E+08
 
   -0.47585E+08         0.71647E+06         0.00000E+00
    0.71647E+06        -0.63361E+08         0.00000E+00
    0.00000E+00         0.00000E+00        -0.48364E+08
 
   -0.47402E+08         0.19316E+07         0.00000E+00
    0.19316E+07        -0.63523E+08         0.00000E+00
    0.00000E+00         0.00000E+00        -0.48360E+08
 
   -0.47397E+08         0.33198E+07         0.00000E+00
    0.33198E+07        -0.63600E+08         0.00000E+00
    0.00000E+00         0.00000E+00        -0.48374E+08
 
   -0.47627E+08         0.48791E+07         0.00000E+00
    0.48791E+07        -0.63559E+08         0.00000E+00
    0.00000E+00         0.00000E+00        -0.48411E+08
 
   -0.48165E+08         0.65983E+07         0.00000E+00
    0.65983E+07        -0.63358E+08         0.00000E+00
    0.00000E+00         0.00000E+00        -0.48479E+08
 
   -0.50876E+08        -0.74691E+06         0.00000E+00
   -0.74691E+06        -0.60054E+08         0.00000E+00
    0.00000E+00         0.00000E+00        -0.46806E+08
 
   -0.51184E+08        -0.19322E+07         0.00000E+00
   -0.19322E+07        -0.60251E+08         0.00000E+00
    0.00000E+00         0.00000E+00        -0.46907E+08
 
   -0.51064E+08        -0.27234E+07         0.00000E+00
   -0.27234E+07        -0.60567E+08         0.00000E+00
    0.00000E+00         0.00000E+00        -0.46946E+08
 
   -0.50665E+08        -0.31585E+07         0.00000E+00
   -0.31585E+07        -0.60935E+08         0.00000E+00
    0.00000E+00         0.00000E+00        -0.46940E+08
 
   -0.50102E+08        -0.32837E+07         0.00000E+00
   -0.32837E+07        -0.61311E+08         0.00000E+00
    0.00000E+00         0.00000E+00        -0.46902E+08
 
   -0.49456E+08        -0.31451E+07         0.00000E+00
   -0.31451E+07        -0.61668E+08         0.00000E+00
    0.00000E+00         0.00000E+00        -0.46844E+08
 
   -0.48782E+08        -0.27817E+07         0.00000E+00
   -0.27817E+07        -0.61998E+08         0.00000E+00
    0.00000E+00         0.00000E+00        -0.46774E+08
 
   -0.48117E+08        -0.22223E+07         0.00000E+00
   -0.22223E+07        -0.62297E+08         0.00000E+00
    0.00000E+00         0.00000E+00        -0.46701E+08
 
   -0.47487E+08        -0.14838E+07         0.00000E+00
   -0.14838E+07        -0.62569E+08         0.00000E+00
    0.00000E+00         0.00000E+00        -0.46628E+08
 
   -0.46915E+08        -0.57216E+06         0.00000E+00
   -0.57216E+06        -0.62814E+08         0.00000E+00
    0.00000E+00         0.00000E+00        -0.46563E+08
 
   -0.46429E+08         0.51673E+06         0.00000E+00
    0.51673E+06        -0.63031E+08         0.00000E+00
    0.00000E+00         0.00000E+00        -0.46508E+08
 
   -0.46063E+08         0.17935E+07         0.00000E+00
    0.17935E+07        -0.63207E+08         0.00000E+00
    0.00000E+00         0.00000E+00        -0.46470E+08
 
   -0.45868E+08         0.32715E+07         0.00000E+00
    0.32715E+07        -0.63320E+08         0.00000E+00
    0.00000E+00         0.00000E+00        -0.46453E+08
 
   -0.45908E+08         0.49607E+07         0.00000E+00
    0.49607E+07        -0.63334E+08         0.00000E+00
    0.00000E+00         0.00000E+00        -0.46464E+08
 
   -0.46269E+08         0.68610E+07         0.00000E+00
    0.68610E+07        -0.63199E+08         0.00000E+00
    0.00000E+00         0.00000E+00        -0.46509E+08
 
   -0.52369E+08        -0.86135E+06         0.00000E+00
   -0.86135E+06        -0.60052E+08         0.00000E+00
    0.00000E+00         0.00000E+00        -0.45389E+08
 
   -0.52223E+08        -0.21989E+07         0.00000E+00
   -0.21989E+07        -0.60240E+08         0.00000E+00
    0.00000E+00         0.00000E+00        -0.45397E+08
 
   -0.51692E+08        -0.30603E+07         0.00000E+00
   -0.30603E+07        -0.60527E+08         0.00000E+00
    0.00000E+00         0.00000E+00        -0.45348E+08
 
   -0.50938E+08        -0.35097E+07         0.00000E+00
   -0.35097E+07        -0.60843E+08         0.00000E+00
    0.00000E+00         0.00000E+00        -0.45260E+08
 
   -0.50078E+08        -0.36176E+07         0.00000E+00
   -0.36176E+07        -0.61145E+08         0.00000E+00
    0.00000E+00         0.00000E+00        -0.45148E+08
 
   -0.49185E+08        -0.34489E+07         0.00000E+00
   -0.34489E+07        -0.61417E+08         0.00000E+00
    0.00000E+00         0.00000E+00        -0.45023E+08
 
   -0.48303E+08        -0.30550E+07         0.00000E+00
   -0.30550E+07        -0.61656E+08         0.00000E+00
    0.00000E+00         0.00000E+00        -0.44894E+08
 
   -0.47455E+08        -0.24708E+07         0.00000E+00
   -0.24708E+07        -0.61870E+08         0.00000E+00
    0.00000E+00         0.00000E+00        -0.44766E+08
 
   -0.46653E+08        -0.17145E+07         0.00000E+00
   -0.17145E+07        -0.62070E+08         0.00000E+00
    0.00000E+00         0.00000E+00        -0.44645E+08
 
   -0.45907E+08        -0.78824E+06         0.00000E+00
   -0.78824E+06        -0.62266E+08         0.00000E+00
    0.00000E+00         0.00000E+00        -0.44535E+08
 
   -0.45234E+08         0.31914E+06         0.00000E+00
    0.31914E+06        -0.62461E+08         0.00000E+00
    0.00000E+00         0.00000E+00        -0.44439E+08
 
   -0.44663E+08         0.16296E+07         0.00000E+00
    0.16296E+07        -0.62646E+08         0.00000E+00
    0.00000E+00         0.00000E+00        -0.44361E+08
 
   -0.44242E+08         0.31708E+07         0.00000E+00
    0.31708E+07        -0.62802E+08         0.00000E+00
    0.00000E+00         0.00000E+00        -0.44308E+08
 
   -0.44043E+08         0.49693E+07         0.00000E+00
    0.49693E+07        -0.62888E+08         0.00000E+00
    0.00000E+00         0.00000E+00        -0.44285E+08
 
   -0.44164E+08         0.70415E+07         0.00000E+00
    0.70415E+07        -0.62844E+08         0.00000E+00
    0.00000E+00         0.00000E+00        -0.44300E+08
 
   -0.54059E+08        -0.97097E+06         0.00000E+00
   -0.97097E+06        -0.60049E+08         0.00000E+00
    0.00000E+00         0.00000E+00        -0.43854E+08
 
   -0.53358E+08        -0.24406E+07         0.00000E+00
   -0.24406E+07        -0.60217E+08         0.00000E+00
    0.00000E+00         0.00000E+00        -0.43747E+08
 
   -0.52344E+08        -0.33438E+07         0.00000E+00
   -0.33438E+07        -0.60454E+08         0.00000E+00
    0.00000E+00         0.00000E+00        -0.43591E+08
 
   -0.51194E+08        -0.37800E+07         0.00000E+00
   -0.37800E+07        -0.60685E+08         0.00000E+00
    0.00000E+00         0.00000E+00        -0.43407E+08
 
   -0.50020E+08        -0.38507E+07         0.00000E+00
   -0.38507E+07        -0.60876E+08         0.00000E+00
    0.00000E+00         0.00000E+00        -0.43210E+08
 
   -0.48881E+08        -0.36429E+07         0.00000E+00
   -0.36429E+07        -0.61021E+08         0.00000E+00
    0.00000E+00         0.00000E+00        -0.43011E+08
 
   -0.47800E+08        -0.32208E+07         0.00000E+00
   -0.32208E+07        -0.61132E+08         0.00000E+00
    0.00000E+00         0.00000E+00        -0.42816E+08
 
   -0.46781E+08        -0.26242E+07         0.00000E+00
   -0.26242E+07        -0.61227E+08         0.00000E+00
    0.00000E+00         0.00000E+00        -0.42631E+08
 
   -0.45816E+08        -0.18708E+07         0.00000E+00
   -0.18708E+07        -0.61329E+08         0.00000E+00
    0.00000E+00         0.00000E+00        -0.42457E+08
 
   -0.44900E+08        -0.95831E+06         0.00000E+00
   -0.95831E+06        -0.61453E+08         0.00000E+00
    0.00000E+00         0.00000E+00        -0.42298E+08
 
   -0.44034E+08         0.13318E+06         0.00000E+00
    0.13318E+06        -0.61611E+08         0.00000E+00
    0.00000E+00         0.00000E+00        -0.42156E+08
 
   -0.43236E+08         0.14390E+07         0.00000E+00
    0.14390E+07        -0.61802E+08         0.00000E+00
    0.00000E+00         0.00000E+00        -0.42035E+08
 
   -0.42549E+08         0.30054E+07         0.00000E+00
    0.30054E+07        -0.62007E+08         0.00000E+00
    0.00000E+00         0.00000E+00        -0.41938E+08
 
   -0.42051E+08         0.48816E+07         0.00000E+00
    0.48816E+07        -0.62184E+08         0.00000E+00
    0.00000E+00         0.00000E+00        -0.41873E+08
 
   -0.41855E+08         0.71069E+07         0.00000E+00
    0.71069E+07        -0.62263E+08         0.00000E+00
    0.00000E+00         0.00000E+00        -0.41850E+08
 
   -0.55926E+08        -0.10712E+07         0.00000E+00
   -0.10712E+07        -0.60044E+08         0.00000E+00
    0.00000E+00         0.00000E+00        -0.42206E+08
 
   -0.54556E+08        -0.26394E+07         0.00000E+00
   -0.26394E+07        -0.60179E+08         0.00000E+00
    0.00000E+00         0.00000E+00        -0.41959E+08
 
   -0.52987E+08        -0.35422E+07         0.00000E+00
   -0.35422E+07        -0.60336E+08         0.00000E+00
    0.00000E+00         0.00000E+00        -0.41676E+08
 
   -0.51407E+08        -0.39281E+07         0.00000E+00
   -0.39281E+07        -0.60441E+08         0.00000E+00
    0.00000E+00         0.00000E+00        -0.41380E+08
 
   -0.49914E+08        -0.39387E+07         0.00000E+00
   -0.39387E+07        -0.60473E+08         0.00000E+00
    0.00000E+00         0.00000E+00        -0.41088E+08
 
   -0.48542E+08        -0.36854E+07         0.00000E+00
   -0.36854E+07        -0.60445E+08         0.00000E+00
    0.00000E+00         0.00000E+00        -0.40807E+08
 
   -0.47283E+08        -0.32424E+07         0.00000E+00
   -0.32424E+07        -0.60387E+08         0.00000E+00
    0.00000E+00         0.00000E+00        -0.40543E+08
 
   -0.46113E+08        -0.26515E+07         0.00000E+00
   -0.26515E+07        -0.60331E+08         0.00000E+00
    0.00000E+00         0.00000E+00        -0.40297E+08
 
   -0.45003E+08        -0.19277E+07         0.00000E+00
   -0.19277E+07        -0.60306E+08         0.00000E+00
    0.00000E+00         0.00000E+00        -0.40070E+08
 
   -0.43927E+08        -0.10635E+07         0.00000E+00
   -0.10635E+07        -0.60338E+08         0.00000E+00
    0.00000E+00         0.00000E+00        -0.39860E+08
 
   -0.42868E+08        -0.30290E+05         0.00000E+00
   -0.30290E+05        -0.60444E+08         0.00000E+00
    0.00000E+00         0.00000E+00        -0.39669E+08
 
   -0.41826E+08         0.12216E+07         0.00000E+00
    0.12216E+07        -0.60633E+08         0.00000E+00
    0.00000E+00         0.00000E+00        -0.39498E+08
 
   -0.40833E+08         0.27611E+07         0.00000E+00
    0.27611E+07        -0.60894E+08         0.00000E+00
    0.00000E+00         0.00000E+00        -0.39351E+08
 
   -0.39966E+08         0.46681E+07         0.00000E+00
    0.46681E+07        -0.61186E+08         0.00000E+00
    0.00000E+00         0.00000E+00        -0.39236E+08
 
   -0.39358E+08         0.70155E+07         0.00000E+00
    0.70155E+07        -0.61429E+08         0.00000E+00
    0.00000E+00         0.00000E+00        -0.39163E+08
 
   -0.57939E+08        -0.11566E+07         0.00000E+00
   -0.11566E+07        -0.60036E+08         0.00000E+00
    0.00000E+00         0.00000E+00        -0.40450E+08
 
   -0.55767E+08        -0.27704E+07         0.00000E+00
   -0.27704E+07        -0.60121E+08         0.00000E+00
    0.00000E+00         0.00000E+00        -0.40032E+08
 
   -0.53570E+08        -0.36108E+07         0.00000E+00
   -0.36108E+07        -0.60155E+08         0.00000E+00
    0.00000E+00         0.00000E+00        -0.39599E+08
 
   -0.51543E+08        -0.39001E+07         0.00000E+00
   -0.39001E+07        -0.60075E+08         0.00000E+00
    0.00000E+00         0.00000E+00        -0.39177E+08
 
   -0.49749E+08        -0.38300E+07         0.00000E+00
   -0.38300E+07        -0.59889E+08         0.00000E+00
    0.00000E+00         0.00000E+00        -0.38781E+08
 
   -0.48174E+08        -0.35324E+07         0.00000E+00
   -0.35324E+07        -0.59640E+08         0.00000E+00
    0.00000E+00         0.00000E+00        -0.38415E+08
 
   -0.46769E+08        -0.30847E+07         0.00000E+00
   -0.30847E+07        -0.59377E+08         0.00000E+00
    0.00000E+00         0.00000E+00        -0.38081E+08
 
   -0.45478E+08        -0.25247E+07         0.00000E+00
   -0.25247E+07        -0.59141E+08         0.00000E+00
    0.00000E+00         0.00000E+00        -0.37775E+08
 
   -0.44248E+08        -0.18624E+07         0.00000E+00
   -0.18624E+07        -0.58967E+08         0.00000E+00
    0.00000E+00         0.00000E+00        -0.37494E+08
 
   -0.43031E+08        -0.10853E+07         0.00000E+00
   -0.10853E+07        -0.58887E+08         0.00000E+00
    0.00000E+00         0.00000E+00        -0.37234E+08
 
   -0.41787E+08        -0.15855E+06         0.00000E+00
   -0.15855E+06        -0.58926E+08         0.00000E+00
    0.00000E+00         0.00000E+00        -0.36992E+08
 
   -0.40492E+08         0.97982E+06         0.00000E+00
    0.97982E+06        -0.59104E+08         0.00000E+00
    0.00000E+00         0.00000E+00        -0.36769E+08
 
   -0.39154E+08         0.24233E+07         0.00000E+00
    0.24233E+07        -0.59425E+08         0.00000E+00
    0.00000E+00         0.00000E+00        -0.36565E+08
 
   -0.37838E+08         0.42931E+07         0.00000E+00
    0.42931E+07        -0.59858E+08         0.00000E+00
    0.00000E+00         0.00000E+00        -0.36388E+08
 
   -0.36697E+08         0.67141E+07         0.00000E+00
    0.67141E+07        -0.60314E+08         0.00000E+00
    0.00000E+00         0.00000E+00        -0.36251E+08
 
   -0.60050E+08        -0.12195E+07         0.00000E+00
   -0.12195E+07        -0.60025E+08         0.00000E+00
    0.00000E+00         0.00000E+00        -0.38593E+08
 
   -0.56914E+08        -0.27931E+07         0.00000E+00
   -0.27931E+07        -0.60026E+08         0.00000E+00
    0.00000E+00         0.00000E+00        -0.37966E+08
 
   -0.54030E+08        -0.34824E+07         0.00000E+00
   -0.34824E+07        -0.59867E+08         0.00000E+00
    0.00000E+00         0.00000E+00        -0.37357E+08
 
   -0.51573E+08        -0.36263E+07         0.00000E+00
   -0.36263E+07        -0.59520E+08         0.00000E+00
    0.00000E+00         0.00000E+00        -0.36795E+08
 
   -0.49524E+08        -0.34686E+07         0.00000E+00
   -0.34686E+07        -0.59050E+08         0.00000E+00
    0.00000E+00         0.00000E+00        -0.36291E+08
 
   -0.47793E+08        -0.31451E+07         0.00000E+00
   -0.31451E+07        -0.58538E+08         0.00000E+00
    0.00000E+00         0.00000E+00        -0.35842E+08
 
   -0.46283E+08        -0.27214E+07         0.00000E+00
   -0.27214E+07        -0.58044E+08         0.00000E+00
    0.00000E+00         0.00000E+00        -0.35441E+08
 
   -0.44906E+08        -0.22249E+07         0.00000E+00
   -0.22249E+07        -0.57614E+08         0.00000E+00
    0.00000E+00         0.00000E+00        -0.35079E+08
 
   -0.43586E+08        -0.16591E+07         0.00000E+00
   -0.16591E+07        -0.57281E+08         0.00000E+00
    0.00000E+00         0.00000E+00        -0.34748E+08
 
   -0.42255E+08        -0.10084E+07         0.00000E+00
   -0.10084E+07        -0.57078E+08         0.00000E+00
    0.00000E+00         0.00000E+00        -0.34440E+08
 
   -0.40847E+08        -0.23660E+06         0.00000E+00
   -0.23660E+06        -0.57035E+08         0.00000E+00
    0.00000E+00         0.00000E+00        -0.34150E+08
 
   -0.39306E+08         0.72204E+06         0.00000E+00
    0.72204E+06        -0.57187E+08         0.00000E+00
    0.00000E+00         0.00000E+00        -0.33872E+08
 
   -0.37595E+08         0.19811E+07         0.00000E+00
    0.19811E+07        -0.57564E+08         0.00000E+00
    0.00000E+00         0.00000E+00        -0.33604E+08
 
   -0.35744E+08         0.37145E+07         0.00000E+00
    0.37145E+07        -0.58162E+08         0.00000E+00
    0.00000E+00         0.00000E+00        -0.33354E+08
 
   -0.33914E+08         0.61321E+07         0.00000E+00
    0.61321E+07        -0.58896E+08         0.00000E+00
    0.00000E+00         0.00000E+00        -0.33134E+08
 
   -0.62174E+08        -0.12453E+07         0.00000E+00
   -0.12453E+07        -0.60002E+08         0.00000E+00
    0.00000E+00         0.00000E+00        -0.36638E+08
 
   -0.57877E+08        -0.26282E+07         0.00000E+00
   -0.26282E+07        -0.59851E+08         0.00000E+00
    0.00000E+00         0.00000E+00        -0.35748E+08
 
   -0.54296E+08        -0.30507E+07         0.00000E+00
   -0.30507E+07        -0.59371E+08         0.00000E+00
    0.00000E+00         0.00000E+00        -0.34935E+08
 
   -0.51485E+08        -0.30255E+07         0.00000E+00
   -0.30255E+07        -0.58650E+08         0.00000E+00
    0.00000E+00         0.00000E+00        -0.34228E+08
 
   -0.49261E+08        -0.28094E+07         0.00000E+00
   -0.28094E+07        -0.57844E+08         0.00000E+00
    0.00000E+00         0.00000E+00        -0.33622E+08
 
   -0.47435E+08        -0.25025E+07         0.00000E+00
   -0.25025E+07        -0.57052E+08         0.00000E+00
    0.00000E+00         0.00000E+00        -0.33097E+08
 
   -0.45863E+08        -0.21449E+07         0.00000E+00
   -0.21449E+07        -0.56328E+08         0.00000E+00
    0.00000E+00         0.00000E+00        -0.32638E+08
 
   -0.44433E+08        -0.17499E+07         0.00000E+00
   -0.17499E+07        -0.55711E+08         0.00000E+00
    0.00000E+00         0.00000E+00        -0.32228E+08
 
   -0.43053E+08        -0.13151E+07         0.00000E+00
   -0.13151E+07        -0.55227E+08         0.00000E+00
    0.00000E+00         0.00000E+00        -0.31855E+08
 
   -0.41637E+08        -0.82526E+06         0.00000E+00
   -0.82526E+06        -0.54904E+08         0.00000E+00
    0.00000E+00         0.00000E+00        -0.31507E+08
 
   -0.40100E+08        -0.24951E+06         0.00000E+00
   -0.24951E+06        -0.54773E+08         0.00000E+00
    0.00000E+00         0.00000E+00        -0.31173E+08
 
   -0.38347E+08         0.46925E+06         0.00000E+00
    0.46925E+06        -0.54880E+08         0.00000E+00
    0.00000E+00         0.00000E+00        -0.30843E+08
 
   -0.36269E+08         0.14399E+07         0.00000E+00
    0.14399E+07        -0.55283E+08         0.00000E+00
    0.00000E+00         0.00000E+00        -0.30508E+08
 
   -0.33804E+08         0.28886E+07         0.00000E+00
    0.28886E+07        -0.56056E+08         0.00000E+00
    0.00000E+00         0.00000E+00        -0.30169E+08
 
   -0.31078E+08         0.51710E+07         0.00000E+00
    0.51710E+07        -0.57145E+08         0.00000E+00
    0.00000E+00         0.00000E+00        -0.29842E+08
 
   -0.64148E+08        -0.11857E+07         0.00000E+00
   -0.11857E+07        -0.59941E+08         0.00000E+00
    0.00000E+00         0.00000E+00        -0.34570E+08
 
   -0.58476E+08        -0.20902E+07         0.00000E+00
   -0.20902E+07        -0.59429E+08         0.00000E+00
    0.00000E+00         0.00000E+00        -0.33333E+08
 
   -0.54333E+08        -0.21698E+07         0.00000E+00
   -0.21698E+07        -0.58411E+08         0.00000E+00
    0.00000E+00         0.00000E+00        -0.32301E+08
 
   -0.51326E+08        -0.20430E+07         0.00000E+00
   -0.20430E+07        -0.57255E+08         0.00000E+00
    0.00000E+00         0.00000E+00        -0.31468E+08
 
   -0.49016E+08        -0.18461E+07         0.00000E+00
   -0.18461E+07        -0.56122E+08         0.00000E+00
    0.00000E+00         0.00000E+00        -0.30779E+08
 
   -0.47148E+08        -0.16196E+07         0.00000E+00
   -0.16196E+07        -0.55082E+08         0.00000E+00
    0.00000E+00         0.00000E+00        -0.30197E+08
 
   -0.45548E+08        -0.13773E+07         0.00000E+00
   -0.13773E+07        -0.54169E+08         0.00000E+00
    0.00000E+00         0.00000E+00        -0.29694E+08
 
   -0.44093E+08        -0.11213E+07         0.00000E+00
   -0.11213E+07        -0.53401E+08         0.00000E+00
    0.00000E+00         0.00000E+00        -0.29249E+08
 
   -0.42679E+08        -0.84700E+06         0.00000E+00
   -0.84700E+06        -0.52797E+08         0.00000E+00
    0.00000E+00         0.00000E+00        -0.28845E+08
 
   -0.41211E+08        -0.54338E+06         0.00000E+00
   -0.54338E+06        -0.52377E+08         0.00000E+00
    0.00000E+00         0.00000E+00        -0.28467E+08
 
   -0.39586E+08        -0.19023E+06         0.00000E+00
   -0.19023E+06        -0.52168E+08         0.00000E+00
    0.00000E+00         0.00000E+00        -0.28100E+08
 
   -0.37680E+08         0.24960E+06         0.00000E+00
    0.24960E+06        -0.52217E+08         0.00000E+00
    0.00000E+00         0.00000E+00        -0.27729E+08
 
   -0.35318E+08         0.85056E+06         0.00000E+00
    0.85056E+06        -0.52605E+08         0.00000E+00
    0.00000E+00         0.00000E+00        -0.27334E+08
 
   -0.32225E+08         0.17956E+07         0.00000E+00
    0.17956E+07        -0.53473E+08         0.00000E+00
    0.00000E+00         0.00000E+00        -0.26889E+08
 
   -0.28319E+08         0.36732E+07         0.00000E+00
    0.36732E+07        -0.55028E+08         0.00000E+00
    0.00000E+00         0.00000E+00        -0.26418E+08
 
   -0.65555E+08        -0.72873E+06         0.00000E+00
   -0.72873E+06        -0.59469E+08         0.00000E+00
    0.00000E+00         0.00000E+00        -0.32261E+08
 
   -0.58587E+08        -0.85577E+06         0.00000E+00
   -0.85577E+06        -0.58106E+08         0.00000E+00
    0.00000E+00         0.00000E+00        -0.30594E+08
 
   -0.54268E+08        -0.79884E+06         0.00000E+00
   -0.79884E+06        -0.56554E+08         0.00000E+00
    0.00000E+00         0.00000E+00        -0.29420E+08
 
   -0.51199E+08        -0.72663E+06         0.00000E+00
   -0.72663E+06        -0.55076E+08         0.00000E+00
    0.00000E+00         0.00000E+00        -0.28511E+08
 
   -0.48866E+08        -0.64563E+06         0.00000E+00
   -0.64563E+06        -0.53733E+08         0.00000E+00
    0.00000E+00         0.00000E+00        -0.27775E+08
 
   -0.46986E+08        -0.56145E+06         0.00000E+00
   -0.56145E+06        -0.52546E+08         0.00000E+00
    0.00000E+00         0.00000E+00        -0.27162E+08
 
   -0.45379E+08        -0.47527E+06         0.00000E+00
   -0.47527E+06        -0.51523E+08         0.00000E+00
    0.00000E+00         0.00000E+00        -0.26636E+08
 
   -0.43915E+08        -0.38642E+06         0.00000E+00
   -0.38642E+06        -0.50672E+08         0.00000E+00
    0.00000E+00         0.00000E+00        -0.26173E+08
 
   -0.42486E+08        -0.29264E+06         0.00000E+00
   -0.29264E+06        -0.50001E+08         0.00000E+00
    0.00000E+00         0.00000E+00        -0.25753E+08
 
   -0.40993E+08        -0.18989E+06         0.00000E+00
   -0.18989E+06        -0.49525E+08         0.00000E+00
    0.00000E+00         0.00000E+00        -0.25359E+08
 
   -0.39326E+08        -0.71234E+05         0.00000E+00
   -0.71234E+05        -0.49269E+08         0.00000E+00
    0.00000E+00         0.00000E+00        -0.24974E+08
 
   -0.37342E+08         0.75745E+05         0.00000E+00
    0.75745E+05        -0.49278E+08         0.00000E+00
    0.00000E+00         0.00000E+00        -0.24579E+08
 
   -0.34826E+08         0.27721E+06         0.00000E+00
    0.27721E+06        -0.49632E+08         0.00000E+00
    0.00000E+00         0.00000E+00        -0.24147E+08
 
   -0.31389E+08         0.59131E+06         0.00000E+00
    0.59131E+06        -0.50500E+08         0.00000E+00
    0.00000E+00         0.00000E+00        -0.23633E+08
 
   -0.25924E+08         0.13825E+07         0.00000E+00
    0.13825E+07        -0.52351E+08         0.00000E+00
    0.00000E+00         0.00000E+00        -0.22910E+08
 
SCALARS stressS double 
LOOKUP_TABLE default
  -54955659.9330017     
  -55312781.9801608     
  -55653740.0280463     
  -55984867.0412849     
  -56306097.6610556     
  -56616271.2553559     
  -56914005.1787561     
  -57198012.5424076     
  -57467201.5594760     
  -57720705.6966199     
  -57957901.8035323     
  -58178460.4710889     
  -58382522.8732710     
  -58571157.5825100     
  -58749958.8293895     
  -54919826.5128751     
  -55260791.4155229     
  -55600089.8674878     
  -55931931.8186891     
  -56254569.9331681     
  -56566207.1440405     
  -56865255.1743430     
  -57150361.1206118     
  -57420420.1266172     
  -57674561.0570728     
  -57912129.3985035     
  -58132688.2204630     
  -58336015.0546613     
  -58522316.8612389     
  -58688727.7133157     
  -54872873.8087708     
  -55209808.6643553     
  -55548994.3619616     
  -55883526.9108769     
  -56209384.2731214     
  -56524094.5605354     
  -56825808.6562507     
  -57113109.8753294     
  -57384901.2827045     
  -57640329.5920747     
  -57878718.9474904     
  -58099493.9903596     
  -58302085.0619369     
  -58485300.8867148     
  -58647205.1060202     
  -54806461.3523530     
  -55150386.8088269     
  -55495620.9378571     
  -55836072.3912845     
  -56167503.2332549     
  -56487071.4953046     
  -56792833.3782040     
  -57083398.7183650     
  -57357751.0028916     
  -57615118.8243169     
  -57854866.2132071     
  -58076378.5501095     
  -58278864.7490697     
  -58461188.9835158     
  -58621674.6900995     
  -54719712.0145965     
  -55078883.8905566     
  -55436182.7425657     
  -55786523.4403770     
  -56126145.4553628     
  -56452417.7758197     
  -56763554.6902085     
  -57058355.1258306     
  -57336000.5285355     
  -57595902.4217984     
  -57837571.6320181     
  -58060485.6620389     
  -58263960.2153082     
  -58447024.9705555     
  -58608378.0247887     
  -54613316.9279178     
  -54994251.9757872     
  -55368694.3472344     
  -55732579.7829359     
  -56082896.1580909     
  -56417553.7406900     
  -56735194.8859076     
  -57034993.0380632     
  -57316471.7640536     
  -57579349.8769672     
  -57823406.1859968     
  -58048358.0000997     
  -58253752.1445886     
  -58438884.4944630     
  -58602761.7911857     
  -54488752.4511300     
  -54896632.4925921     
  -55292270.0621526     
  -55672651.8242692     
  -56035668.8885742     
  -56379987.2387647     
  -56704888.6701219     
  -57010102.4899532     
  -57295644.6867722     
  -57561672.4658139     
  -57808355.2657034     
  -58035761.3920609     
  -58243762.7852923     
  -58431963.2007704     
  -58599658.2968327     
  -54348030.9253761     
  -54786844.4361515     
  -55206656.1271666     
  -55605589.2278886     
  -55982574.7016960     
  -56337203.4587359     
  -56669572.1290383     
  -56980128.9945778     
  -57269527.3333521     
  -57538490.8831058     
  -57787693.2879713     
  -58017652.2984533     
  -58228639.9279941     
  -58420611.1182602     
  -58593153.2692300     
  -54193621.1769299     
  -54666139.2987516     
  -55111947.1394806     
  -55530441.5298738     
  -55921742.2117291     
  -56286522.7576802     
  -56625851.9779985     
  -56941045.5070585     
  -57233528.8005327     
  -57504712.5740542     
  -57755880.9295616     
  -57988091.9234238     
  -58202090.4489091     
  -58398233.5431141     
  -58576428.1915445     
  -54028408.7601564     
  -54536060.5780520     
  -55008395.8128298     
  -55446264.8256040     
  -55851143.8969307     
  -56224948.1216126     
  -56569867.6366044     
  -56888222.8681561     
  -57182335.9800015     
  -57454416.3154308     
  -57706457.7444823     
  -57940145.8832382     
  -58156773.3191315     
  -58357161.2147824     
  -58541585.7820260     
  -53855665.1137272     
  -54398342.4319102     
  -54896269.1205137     
  -55351962.3882091     
  -55768439.5837942     
  -56149019.5558981     
  -56497157.5481487     
  -56816306.5149671     
  -57109799.0476528     
  -57380744.9268461     
  -57631939.8244746     
  -57865781.0679757     
  -58084186.7855099     
  -58288515.1936555     
  -58479481.2489795     
  -53679011.0918765     
  -54254821.5376607     
  -54775726.9592244     
  -55246148.1424696     
  -55670838.6756722     
  -56054683.5381917     
  -56402539.5532879     
  -56719108.3620105     
  -57008833.6805736     
  -57275815.4120105     
  -57523733.8136342     
  -57755777.5121272     
  -57974569.8007287     
  -58182088.3810951     
  -58379574.5183517     
  -53502367.1288992     
  -54107349.9082578     
  -54646711.9900346     
  -55127026.8651703     
  -55554981.5515400     
  -55937183.0747081     
  -56280013.6670328     
  -56589523.5037894     
  -56871350.6489563     
  -57130658.5157568     
  -57372081.7381760     
  -57599672.0397097     
  -57816836.5476362     
  -58026262.0398376     
  -58229819.7852423     
  -53329884.7817973     
  -53957702.6766938     
  -54508845.6341038     
  -54992288.9731471     
  -55416841.8176692     
  -55790973.6814242     
  -56122695.4291948     
  -56419482.0131476     
  -56688224.7906409     
  -56935201.4850001     
  -57166052.2503655     
  -57385751.0195066     
  -57598562.4002013     
  -57807975.7917613     
  -58016610.0038114     
  -53165855.8263789     
  -53807477.9502560     
  -54361328.5646061     
  -54839020.2125690     
  -55251652.2981199     
  -55609670.9418683     
  -55922788.0998423     
  -56199946.4481341     
  -56449316.0846678     
  -56678308.6689762     
  -56893594.6568602     
  -57101109.9923793     
  -57306039.9954955     
  -57512770.0871936     
  -57724795.1964675     
  -53014596.2406912     
  -53657987.4824605     
  -54202845.5403946     
  -54663627.4850181     
  -55053857.8804190     
  -55386035.0406675     
  -55671601.5761404     
  -55920965.4208408     
  -56143555.5139135     
  -56347894.7478639     
  -56541672.2867713     
  -56731798.0771279     
  -56924424.2035330     
  -57124920.3885996     
  -57337794.0126699     
  -52880303.6649335     
  -53510137.5702383     
  -54031474.3312878     
  -54461781.2302442     
  -54817096.9992089     
  -55111996.1137181     
  -55359624.4105676     
  -55571792.3393355     
  -55759107.4805114     
  -55931124.7111794     
  -56096491.2304099     
  -56263064.5599488     
  -56437984.2393105     
  -56627681.7234457     
  -56837817.3908863     
  -52766888.3726607     
  -53364299.1568969     
  -53844596.4763064     
  -54228371.7304839     
  -54534210.0311771     
  -54778720.7953702     
  -54976652.2324252     
  -55141075.8869688     
  -55283618.5155600     
  -55414713.0964481     
  -55543839.1035844     
  -55679723.7331583     
  -55830479.6743498     
  -56003660.4987957     
  -56206221.1024749     
  -52677779.2996666     
  -53220164.0343795     
  -53638802.8780783     
  -53957470.5493768     
  -54197266.4501887     
  -54376714.4397906     
  -54511970.8777647     
  -54617124.7732431     
  -54704558.8326256     
  -54785332.4263660     
  -54869546.2716786     
  -54966651.8630025     
  -55085674.6125071     
  -55235327.3712306     
  -55424000.0986249     
  -52615707.8050872     
  -53076579.0942287     
  -53409778.2851085     
  -53642277.7522479     
  -53797592.3721750     
  -53895944.7430174     
  -53954585.5524534     
  -53988243.8786811     
  -54009659.0664306     
  -54030137.4390497     
  -54060079.1485353     
  -54109427.4376520     
  -54188001.0742817     
  -54305680.6568920     
  -54472431.8002086     
  -52582471.5557778     
  -52931340.4748791     
  -53152132.9481526     
  -53275018.5771580     
  -53325765.1704101     
  -53325960.9057454     
  -53293478.9070737     
  -53243132.7018787     
  -53187439.7777426     
  -53137407.9985390     
  -53103272.3293417     
  -53095123.3473036     
  -53123379.5649027     
  -53199064.8911074     
  -53333867.8920530     
  -52578677.0385485     
  -52780909.6796714     
  -52859122.3827621     
  -52846726.7777372     
  -52771521.4942124     
  -52655969.2006507     
  -52517872.7093152     
  -52371331.3510862     
  -52227826.6573391     
  -52097309.9706040     
  -51989204.1841453     
  -51913258.9278459     
  -51880203.7966008     
  -51902145.4201846     
  -51992665.3972072     
  -52603447.2073263     
  -52619974.6691036     
  -52522147.9988886     
  -52346811.1363370     
  -52123499.9948947     
  -51874814.8191237     
  -51617464.0625173     
  -51363696.4968946     
  -51122840.3239989     
  -50902769.3488605     
  -50711219.9992528     
  -50556923.1677090     
  -50450501.9334635     
  -50405040.9496065     
  -50436239.5759035     
  -52654049.5891965     
  -52440699.2607279     
  -52129842.6252547     
  -51762239.9164098     
  -51368715.8782831     
  -50970822.0799609     
  -50582616.6193144     
  -50212893.2321520     
  -49867344.0319189     
  -49550448.2649325     
  -49267105.6567704     
  -49024093.4538652     
  -48831305.4617044     
  -48702631.8673384     
  -48656216.6081148     
  -52725326.6819561     
  -52231325.6469437     
  -51666375.2529485     
  -51076088.1195205     
  -50491662.5034121     
  -49931487.9565279     
  -49404525.8785360     
  -48913900.2952012     
  -48459820.9155162     
  -48041786.6293181     
  -47660414.0230029     
  -47319193.9435139     
  -47026316.1464701     
  -46796106.0072741     
  -46649677.9790128     
  -52808589.8867445     
  -51973381.0136418     
  -51108253.9191457     
  -50265093.6190079     
  -49473032.2767182     
  -48743159.3593160     
  -48075469.6979772     
  -47464543.3013719     
  -46903106.1996428     
  -46384027.9971723     
  -45901883.3282659     
  -45455017.0090741     
  -45048047.4635250     
  -44694978.4785502     
  -44420515.7090339     
  -52889109.0500509     
  -51635487.1339727     
  -50418236.3167605     
  -49295930.1523334     
  -48288434.5514974     
  -47391183.0673199     
  -46589350.4103082     
  -45866078.9053029     
  -45204952.6573782     
  -44590914.7506344     
  -44010881.4665671     
  -43454956.5821349     
  -42921152.7646974     
  -42419980.5787599     
  -41981241.1602528     
  -52938009.2808232     
  -51158685.5295042     
  -49533665.4246907     
  -48120925.4411063     
  -46909057.4144350     
  -45861180.9614078     
  -44942802.2456950     
  -44123834.1713259     
  -43378222.5489272     
  -42682698.6031927     
  -42015599.2776856     
  -41356476.1127612     
  -40686787.8391013     
  -40009878.0404823     
  -39355154.8411325     
  -52886706.2821025     
  -50412833.1301349     
  -48348362.3491373     
  -46682804.9375473     
  -45305731.2138767     
  -44142196.8315535     
  -43136949.0079089     
  -42247844.1474303     
  -41440563.3457058     
  -40684880.9193996     
  -39951502.3159600     
  -39208630.2046841     
  -38418907.2574573     
  -37528830.5189910     
  -36588384.9933299     
  -52428502.1282814     
  -49095665.5057981     
  -46747430.3881305     
  -44928460.5720455     
  -43458111.5147572     
  -42231328.5235622     
  -41179573.7701353     
  -40253343.5433332     
  -39413507.8645434     
  -38625821.9986755     
  -37856368.9649078     
  -37066190.9057744     
  -36201555.8635288     
  -35173956.6128758     
  -33728167.1309822     
SCALARS 2waySource double 
LOOKUP_TABLE default
  0.000000000000000E+000
  0.000000000000000E+000
  0.000000000000000E+000
  0.000000000000000E+000
  0.000000000000000E+000
  0.000000000000000E+000
  0.000000000000000E+000
  0.000000000000000E+000
  0.000000000000000E+000
  0.000000000000000E+000
  0.000000000000000E+000
  0.000000000000000E+000
  0.000000000000000E+000
  0.000000000000000E+000
  0.000000000000000E+000
  0.000000000000000E+000
  0.000000000000000E+000
  0.000000000000000E+000
  0.000000000000000E+000
  0.000000000000000E+000
  0.000000000000000E+000
  0.000000000000000E+000
  0.000000000000000E+000
  0.000000000000000E+000
  0.000000000000000E+000
  0.000000000000000E+000
  0.000000000000000E+000
  0.000000000000000E+000
  0.000000000000000E+000
  0.000000000000000E+000
  0.000000000000000E+000
  0.000000000000000E+000
  0.000000000000000E+000
  0.000000000000000E+000
  0.000000000000000E+000
  0.000000000000000E+000
  0.000000000000000E+000
  0.000000000000000E+000
  0.000000000000000E+000
  0.000000000000000E+000
  0.000000000000000E+000
  0.000000000000000E+000
  0.000000000000000E+000
  0.000000000000000E+000
  0.000000000000000E+000
  0.000000000000000E+000
  0.000000000000000E+000
  0.000000000000000E+000
  0.000000000000000E+000
  0.000000000000000E+000
  0.000000000000000E+000
  0.000000000000000E+000
  0.000000000000000E+000
  0.000000000000000E+000
  0.000000000000000E+000
  0.000000000000000E+000
  0.000000000000000E+000
  0.000000000000000E+000
  0.000000000000000E+000
  0.000000000000000E+000
  0.000000000000000E+000
  0.000000000000000E+000
  0.000000000000000E+000
  0.000000000000000E+000
  0.000000000000000E+000
  0.000000000000000E+000
  0.000000000000000E+000
  0.000000000000000E+000
  0.000000000000000E+000
  0.000000000000000E+000
  0.000000000000000E+000
  0.000000000000000E+000
  0.000000000000000E+000
  0.000000000000000E+000
  0.000000000000000E+000
  0.000000000000000E+000
  0.000000000000000E+000
  0.000000000000000E+000
  0.000000000000000E+000
  0.000000000000000E+000
  0.000000000000000E+000
  0.000000000000000E+000
  0.000000000000000E+000
  0.000000000000000E+000
  0.000000000000000E+000
  0.000000000000000E+000
  0.000000000000000E+000
  0.000000000000000E+000
  0.000000000000000E+000
  0.000000000000000E+000
  0.000000000000000E+000
  0.000000000000000E+000
  0.000000000000000E+000
  0.000000000000000E+000
  0.000000000000000E+000
  0.000000000000000E+000
  0.000000000000000E+000
  0.000000000000000E+000
  0.000000000000000E+000
  0.000000000000000E+000
  0.000000000000000E+000
  0.000000000000000E+000
  0.000000000000000E+000
  0.000000000000000E+000
  0.000000000000000E+000
  0.000000000000000E+000
  0.000000000000000E+000
  0.000000000000000E+000
  0.000000000000000E+000
  0.000000000000000E+000
  0.000000000000000E+000
  0.000000000000000E+000
  0.000000000000000E+000
  0.000000000000000E+000
  0.000000000000000E+000
  0.000000000000000E+000
  0.000000000000000E+000
  0.000000000000000E+000
  0.000000000000000E+000
  0.000000000000000E+000
  0.000000000000000E+000
  0.000000000000000E+000
  0.000000000000000E+000
  0.000000000000000E+000
  0.000000000000000E+000
  0.000000000000000E+000
  0.000000000000000E+000
  0.000000000000000E+000
  0.000000000000000E+000
  0.000000000000000E+000
  0.000000000000000E+000
  0.000000000000000E+000
  0.000000000000000E+000
  0.000000000000000E+000
  0.000000000000000E+000
  0.000000000000000E+000
  0.000000000000000E+000
  0.000000000000000E+000
  0.000000000000000E+000
  0.000000000000000E+000
  0.000000000000000E+000
  0.000000000000000E+000
  0.000000000000000E+000
  0.000000000000000E+000
  0.000000000000000E+000
  0.000000000000000E+000
  0.000000000000000E+000
  0.000000000000000E+000
  0.000000000000000E+000
  0.000000000000000E+000
  0.000000000000000E+000
  0.000000000000000E+000
  0.000000000000000E+000
  0.000000000000000E+000
  0.000000000000000E+000
  0.000000000000000E+000
  0.000000000000000E+000
  0.000000000000000E+000
  0.000000000000000E+000
  0.000000000000000E+000
  0.000000000000000E+000
  0.000000000000000E+000
  0.000000000000000E+000
  0.000000000000000E+000
  0.000000000000000E+000
  0.000000000000000E+000
  0.000000000000000E+000
  0.000000000000000E+000
  0.000000000000000E+000
  0.000000000000000E+000
  0.000000000000000E+000
  0.000000000000000E+000
  0.000000000000000E+000
  0.000000000000000E+000
  0.000000000000000E+000
  0.000000000000000E+000
  0.000000000000000E+000
  0.000000000000000E+000
  0.000000000000000E+000
  0.000000000000000E+000
  0.000000000000000E+000
  0.000000000000000E+000
  0.000000000000000E+000
  0.000000000000000E+000
  0.000000000000000E+000
  0.000000000000000E+000
  0.000000000000000E+000
  0.000000000000000E+000
  0.000000000000000E+000
  0.000000000000000E+000
  0.000000000000000E+000
  0.000000000000000E+000
  0.000000000000000E+000
  0.000000000000000E+000
  0.000000000000000E+000
  0.000000000000000E+000
  0.000000000000000E+000
  0.000000000000000E+000
  0.000000000000000E+000
  0.000000000000000E+000
  0.000000000000000E+000
  0.000000000000000E+000
  0.000000000000000E+000
  0.000000000000000E+000
  0.000000000000000E+000
  0.000000000000000E+000
  0.000000000000000E+000
  0.000000000000000E+000
  0.000000000000000E+000
  0.000000000000000E+000
  0.000000000000000E+000
  0.000000000000000E+000
  0.000000000000000E+000
  0.000000000000000E+000
  0.000000000000000E+000
  0.000000000000000E+000
  0.000000000000000E+000
  0.000000000000000E+000
  0.000000000000000E+000
  0.000000000000000E+000
  0.000000000000000E+000
  0.000000000000000E+000
  0.000000000000000E+000
  0.000000000000000E+000
  0.000000000000000E+000
  0.000000000000000E+000
  0.000000000000000E+000
  0.000000000000000E+000
  0.000000000000000E+000
  0.000000000000000E+000
  0.000000000000000E+000
  0.000000000000000E+000
  0.000000000000000E+000
  0.000000000000000E+000
  0.000000000000000E+000
  0.000000000000000E+000
  0.000000000000000E+000
  0.000000000000000E+000
  0.000000000000000E+000
  0.000000000000000E+000
  0.000000000000000E+000
  0.000000000000000E+000
  0.000000000000000E+000
  0.000000000000000E+000
  0.000000000000000E+000
  0.000000000000000E+000
  0.000000000000000E+000
  0.000000000000000E+000
  0.000000000000000E+000
  0.000000000000000E+000
  0.000000000000000E+000
  0.000000000000000E+000
  0.000000000000000E+000
  0.000000000000000E+000
  0.000000000000000E+000
  0.000000000000000E+000
  0.000000000000000E+000
  0.000000000000000E+000
  0.000000000000000E+000
  0.000000000000000E+000
  0.000000000000000E+000
  0.000000000000000E+000
  0.000000000000000E+000
  0.000000000000000E+000
  0.000000000000000E+000
  0.000000000000000E+000
  0.000000000000000E+000
  0.000000000000000E+000
  0.000000000000000E+000
  0.000000000000000E+000
  0.000000000000000E+000
  0.000000000000000E+000
  0.000000000000000E+000
  0.000000000000000E+000
  0.000000000000000E+000
  0.000000000000000E+000
  0.000000000000000E+000
  0.000000000000000E+000
  0.000000000000000E+000
  0.000000000000000E+000
  0.000000000000000E+000
  0.000000000000000E+000
  0.000000000000000E+000
  0.000000000000000E+000
  0.000000000000000E+000
  0.000000000000000E+000
  0.000000000000000E+000
  0.000000000000000E+000
  0.000000000000000E+000
  0.000000000000000E+000
  0.000000000000000E+000
  0.000000000000000E+000
  0.000000000000000E+000
  0.000000000000000E+000
  0.000000000000000E+000
  0.000000000000000E+000
  0.000000000000000E+000
  0.000000000000000E+000
  0.000000000000000E+000
  0.000000000000000E+000
  0.000000000000000E+000
  0.000000000000000E+000
  0.000000000000000E+000
  0.000000000000000E+000
  0.000000000000000E+000
  0.000000000000000E+000
  0.000000000000000E+000
  0.000000000000000E+000
  0.000000000000000E+000
  0.000000000000000E+000
  0.000000000000000E+000
  0.000000000000000E+000
  0.000000000000000E+000
  0.000000000000000E+000
  0.000000000000000E+000
  0.000000000000000E+000
  0.000000000000000E+000
  0.000000000000000E+000
  0.000000000000000E+000
  0.000000000000000E+000
  0.000000000000000E+000
  0.000000000000000E+000
  0.000000000000000E+000
  0.000000000000000E+000
  0.000000000000000E+000
  0.000000000000000E+000
  0.000000000000000E+000
  0.000000000000000E+000
  0.000000000000000E+000
  0.000000000000000E+000
  0.000000000000000E+000
  0.000000000000000E+000
  0.000000000000000E+000
  0.000000000000000E+000
  0.000000000000000E+000
  0.000000000000000E+000
  0.000000000000000E+000
  0.000000000000000E+000
  0.000000000000000E+000
  0.000000000000000E+000
  0.000000000000000E+000
  0.000000000000000E+000
  0.000000000000000E+000
  0.000000000000000E+000
  0.000000000000000E+000
  0.000000000000000E+000
  0.000000000000000E+000
  0.000000000000000E+000
  0.000000000000000E+000
  0.000000000000000E+000
  0.000000000000000E+000
  0.000000000000000E+000
  0.000000000000000E+000
  0.000000000000000E+000
  0.000000000000000E+000
  0.000000000000000E+000
  0.000000000000000E+000
  0.000000000000000E+000
  0.000000000000000E+000
  0.000000000000000E+000
  0.000000000000000E+000
  0.000000000000000E+000
  0.000000000000000E+000
  0.000000000000000E+000
  0.000000000000000E+000
  0.000000000000000E+000
  0.000000000000000E+000
  0.000000000000000E+000
  0.000000000000000E+000
  0.000000000000000E+000
  0.000000000000000E+000
  0.000000000000000E+000
  0.000000000000000E+000
  0.000000000000000E+000
  0.000000000000000E+000
  0.000000000000000E+000
  0.000000000000000E+000
  0.000000000000000E+000
  0.000000000000000E+000
  0.000000000000000E+000
  0.000000000000000E+000
  0.000000000000000E+000
  0.000000000000000E+000
  0.000000000000000E+000
  0.000000000000000E+000
  0.000000000000000E+000
  0.000000000000000E+000
  0.000000000000000E+000
  0.000000000000000E+000
  0.000000000000000E+000
  0.000000000000000E+000
  0.000000000000000E+000
  0.000000000000000E+000
  0.000000000000000E+000
  0.000000000000000E+000
  0.000000000000000E+000
  0.000000000000000E+000
  0.000000000000000E+000
  0.000000000000000E+000
  0.000000000000000E+000
  0.000000000000000E+000
  0.000000000000000E+000
  0.000000000000000E+000
  0.000000000000000E+000
  0.000000000000000E+000
  0.000000000000000E+000
  0.000000000000000E+000
  0.000000000000000E+000
  0.000000000000000E+000
  0.000000000000000E+000
  0.000000000000000E+000
  0.000000000000000E+000
  0.000000000000000E+000
  0.000000000000000E+000
  0.000000000000000E+000
  0.000000000000000E+000
  0.000000000000000E+000
  0.000000000000000E+000
  0.000000000000000E+000
  0.000000000000000E+000
  0.000000000000000E+000
  0.000000000000000E+000
  0.000000000000000E+000
  0.000000000000000E+000
  0.000000000000000E+000
  0.000000000000000E+000
  0.000000000000000E+000
  0.000000000000000E+000
  0.000000000000000E+000
  0.000000000000000E+000
  0.000000000000000E+000
  0.000000000000000E+000
  0.000000000000000E+000
  0.000000000000000E+000
  0.000000000000000E+000
  0.000000000000000E+000
  0.000000000000000E+000
  0.000000000000000E+000
  0.000000000000000E+000
  0.000000000000000E+000
  0.000000000000000E+000
  0.000000000000000E+000
  0.000000000000000E+000
  0.000000000000000E+000
  0.000000000000000E+000
  0.000000000000000E+000
  0.000000000000000E+000
  0.000000000000000E+000
  0.000000000000000E+000
  0.000000000000000E+000
SCALARS poroP double 
LOOKUP_TABLE default
  0.000000000000000E+000
  0.000000000000000E+000
  0.000000000000000E+000
  0.000000000000000E+000
  0.000000000000000E+000
  0.000000000000000E+000
  0.000000000000000E+000
  0.000000000000000E+000
  0.000000000000000E+000
  0.000000000000000E+000
  0.000000000000000E+000
  0.000000000000000E+000
  0.000000000000000E+000
  0.000000000000000E+000
  0.000000000000000E+000
  0.000000000000000E+000
  0.000000000000000E+000
  0.000000000000000E+000
  0.000000000000000E+000
  0.000000000000000E+000
  0.000000000000000E+000
  0.000000000000000E+000
  0.000000000000000E+000
  0.000000000000000E+000
  0.000000000000000E+000
  0.000000000000000E+000
  0.000000000000000E+000
  0.000000000000000E+000
  0.000000000000000E+000
  0.000000000000000E+000
  0.000000000000000E+000
  0.000000000000000E+000
  0.000000000000000E+000
  0.000000000000000E+000
  0.000000000000000E+000
  0.000000000000000E+000
  0.000000000000000E+000
  0.000000000000000E+000
  0.000000000000000E+000
  0.000000000000000E+000
  0.000000000000000E+000
  0.000000000000000E+000
  0.000000000000000E+000
  0.000000000000000E+000
  0.000000000000000E+000
  0.000000000000000E+000
  0.000000000000000E+000
  0.000000000000000E+000
  0.000000000000000E+000
  0.000000000000000E+000
  0.000000000000000E+000
  0.000000000000000E+000
  0.000000000000000E+000
  0.000000000000000E+000
  0.000000000000000E+000
  0.000000000000000E+000
  0.000000000000000E+000
  0.000000000000000E+000
  0.000000000000000E+000
  0.000000000000000E+000
  0.000000000000000E+000
  0.000000000000000E+000
  0.000000000000000E+000
  0.000000000000000E+000
  0.000000000000000E+000
  0.000000000000000E+000
  0.000000000000000E+000
  0.000000000000000E+000
  0.000000000000000E+000
  0.000000000000000E+000
  0.000000000000000E+000
  0.000000000000000E+000
  0.000000000000000E+000
  0.000000000000000E+000
  0.000000000000000E+000
  0.000000000000000E+000
  0.000000000000000E+000
  0.000000000000000E+000
  0.000000000000000E+000
  0.000000000000000E+000
  0.000000000000000E+000
  0.000000000000000E+000
  0.000000000000000E+000
  0.000000000000000E+000
  0.000000000000000E+000
  0.000000000000000E+000
  0.000000000000000E+000
  0.000000000000000E+000
  0.000000000000000E+000
  0.000000000000000E+000
  0.000000000000000E+000
  0.000000000000000E+000
  0.000000000000000E+000
  0.000000000000000E+000
  0.000000000000000E+000
  0.000000000000000E+000
  0.000000000000000E+000
  0.000000000000000E+000
  0.000000000000000E+000
  0.000000000000000E+000
  0.000000000000000E+000
  0.000000000000000E+000
  0.000000000000000E+000
  0.000000000000000E+000
  0.000000000000000E+000
  0.000000000000000E+000
  0.000000000000000E+000
  0.000000000000000E+000
  0.000000000000000E+000
  0.000000000000000E+000
  0.000000000000000E+000
  0.000000000000000E+000
  0.000000000000000E+000
  0.000000000000000E+000
  0.000000000000000E+000
  0.000000000000000E+000
  0.000000000000000E+000
  0.000000000000000E+000
  0.000000000000000E+000
  0.000000000000000E+000
  0.000000000000000E+000
  0.000000000000000E+000
  0.000000000000000E+000
  0.000000000000000E+000
  0.000000000000000E+000
  0.000000000000000E+000
  0.000000000000000E+000
  0.000000000000000E+000
  0.000000000000000E+000
  0.000000000000000E+000
  0.000000000000000E+000
  0.000000000000000E+000
  0.000000000000000E+000
  0.000000000000000E+000
  0.000000000000000E+000
  0.000000000000000E+000
  0.000000000000000E+000
  0.000000000000000E+000
  0.000000000000000E+000
  0.000000000000000E+000
  0.000000000000000E+000
  0.000000000000000E+000
  0.000000000000000E+000
  0.000000000000000E+000
  0.000000000000000E+000
  0.000000000000000E+000
  0.000000000000000E+000
  0.000000000000000E+000
  0.000000000000000E+000
  0.000000000000000E+000
  0.000000000000000E+000
  0.000000000000000E+000
  0.000000000000000E+000
  0.000000000000000E+000
  0.000000000000000E+000
  0.000000000000000E+000
  0.000000000000000E+000
  0.000000000000000E+000
  0.000000000000000E+000
  0.000000000000000E+000
  0.000000000000000E+000
  0.000000000000000E+000
  0.000000000000000E+000
  0.000000000000000E+000
  0.000000000000000E+000
  0.000000000000000E+000
  0.000000000000000E+000
  0.000000000000000E+000
  0.000000000000000E+000
  0.000000000000000E+000
  0.000000000000000E+000
  0.000000000000000E+000
  0.000000000000000E+000
  0.000000000000000E+000
  0.000000000000000E+000
  0.000000000000000E+000
  0.000000000000000E+000
  0.000000000000000E+000
  0.000000000000000E+000
  0.000000000000000E+000
  0.000000000000000E+000
  0.000000000000000E+000
  0.000000000000000E+000
  0.000000000000000E+000
  0.000000000000000E+000
  0.000000000000000E+000
  0.000000000000000E+000
  0.000000000000000E+000
  0.000000000000000E+000
  0.000000000000000E+000
  0.000000000000000E+000
  0.000000000000000E+000
  0.000000000000000E+000
  0.000000000000000E+000
  0.000000000000000E+000
  0.000000000000000E+000
  0.000000000000000E+000
  0.000000000000000E+000
  0.000000000000000E+000
  0.000000000000000E+000
  0.000000000000000E+000
  0.000000000000000E+000
  0.000000000000000E+000
  0.000000000000000E+000
  0.000000000000000E+000
  0.000000000000000E+000
  0.000000000000000E+000
  0.000000000000000E+000
  0.000000000000000E+000
  0.000000000000000E+000
  0.000000000000000E+000
  0.000000000000000E+000
  0.000000000000000E+000
  0.000000000000000E+000
  0.000000000000000E+000
  0.000000000000000E+000
  0.000000000000000E+000
  0.000000000000000E+000
  0.000000000000000E+000
  0.000000000000000E+000
  0.000000000000000E+000
  0.000000000000000E+000
  0.000000000000000E+000
  0.000000000000000E+000
  0.000000000000000E+000
  0.000000000000000E+000
  0.000000000000000E+000
  0.000000000000000E+000
  0.000000000000000E+000
  0.000000000000000E+000
  0.000000000000000E+000
  0.000000000000000E+000
  0.000000000000000E+000
  0.000000000000000E+000
  0.000000000000000E+000
  0.000000000000000E+000
  0.000000000000000E+000
  0.000000000000000E+000
  0.000000000000000E+000
  0.000000000000000E+000
  0.000000000000000E+000
  0.000000000000000E+000
  0.000000000000000E+000
  0.000000000000000E+000
  0.000000000000000E+000
  0.000000000000000E+000
  0.000000000000000E+000
  0.000000000000000E+000
  0.000000000000000E+000
  0.000000000000000E+000
  0.000000000000000E+000
  0.000000000000000E+000
  0.000000000000000E+000
  0.000000000000000E+000
  0.000000000000000E+000
  0.000000000000000E+000
  0.000000000000000E+000
  0.000000000000000E+000
  0.000000000000000E+000
  0.000000000000000E+000
  0.000000000000000E+000
  0.000000000000000E+000
  0.000000000000000E+000
  0.000000000000000E+000
  0.000000000000000E+000
  0.000000000000000E+000
  0.000000000000000E+000
  0.000000000000000E+000
  0.000000000000000E+000
  0.000000000000000E+000
  0.000000000000000E+000
  0.000000000000000E+000
  0.000000000000000E+000
  0.000000000000000E+000
  0.000000000000000E+000
  0.000000000000000E+000
  0.000000000000000E+000
  0.000000000000000E+000
  0.000000000000000E+000
  0.000000000000000E+000
  0.000000000000000E+000
  0.000000000000000E+000
  0.000000000000000E+000
  0.000000000000000E+000
  0.000000000000000E+000
  0.000000000000000E+000
  0.000000000000000E+000
  0.000000000000000E+000
  0.000000000000000E+000
  0.000000000000000E+000
  0.000000000000000E+000
  0.000000000000000E+000
  0.000000000000000E+000
  0.000000000000000E+000
  0.000000000000000E+000
  0.000000000000000E+000
  0.000000000000000E+000
  0.000000000000000E+000
  0.000000000000000E+000
  0.000000000000000E+000
  0.000000000000000E+000
  0.000000000000000E+000
  0.000000000000000E+000
  0.000000000000000E+000
  0.000000000000000E+000
  0.000000000000000E+000
  0.000000000000000E+000
  0.000000000000000E+000
  0.000000000000000E+000
  0.000000000000000E+000
  0.000000000000000E+000
  0.000000000000000E+000
  0.000000000000000E+000
  0.000000000000000E+000
  0.000000000000000E+000
  0.000000000000000E+000
  0.000000000000000E+000
  0.000000000000000E+000
  0.000000000000000E+000
  0.000000000000000E+000
  0.000000000000000E+000
  0.000000000000000E+000
  0.000000000000000E+000
  0.000000000000000E+000
  0.000000000000000E+000
  0.000000000000000E+000
  0.000000000000000E+000
  0.000000000000000E+000
  0.000000000000000E+000
  0.000000000000000E+000
  0.000000000000000E+000
  0.000000000000000E+000
  0.000000000000000E+000
  0.000000000000000E+000
  0.000000000000000E+000
  0.000000000000000E+000
  0.000000000000000E+000
  0.000000000000000E+000
  0.000000000000000E+000
  0.000000000000000E+000
  0.000000000000000E+000
  0.000000000000000E+000
  0.000000000000000E+000
  0.000000000000000E+000
  0.000000000000000E+000
  0.000000000000000E+000
  0.000000000000000E+000
  0.000000000000000E+000
  0.000000000000000E+000
  0.000000000000000E+000
  0.000000000000000E+000
  0.000000000000000E+000
  0.000000000000000E+000
  0.000000000000000E+000
  0.000000000000000E+000
  0.000000000000000E+000
  0.000000000000000E+000
  0.000000000000000E+000
  0.000000000000000E+000
  0.000000000000000E+000
  0.000000000000000E+000
  0.000000000000000E+000
  0.000000000000000E+000
  0.000000000000000E+000
  0.000000000000000E+000
  0.000000000000000E+000
  0.000000000000000E+000
  0.000000000000000E+000
  0.000000000000000E+000
  0.000000000000000E+000
  0.000000000000000E+000
  0.000000000000000E+000
  0.000000000000000E+000
  0.000000000000000E+000
  0.000000000000000E+000
  0.000000000000000E+000
  0.000000000000000E+000
  0.000000000000000E+000
  0.000000000000000E+000
  0.000000000000000E+000
  0.000000000000000E+000
  0.000000000000000E+000
  0.000000000000000E+000
  0.000000000000000E+000
  0.000000000000000E+000
  0.000000000000000E+000
  0.000000000000000E+000
  0.000000000000000E+000
  0.000000000000000E+000
  0.000000000000000E+000
  0.000000000000000E+000
  0.000000000000000E+000
  0.000000000000000E+000
  0.000000000000000E+000
  0.000000000000000E+000
  0.000000000000000E+000
  0.000000000000000E+000
  0.000000000000000E+000
  0.000000000000000E+000
  0.000000000000000E+000
  0.000000000000000E+000
  0.000000000000000E+000
  0.000000000000000E+000
  0.000000000000000E+000
  0.000000000000000E+000
  0.000000000000000E+000
  0.000000000000000E+000
  0.000000000000000E+000
  0.000000000000000E+000
  0.000000000000000E+000
  0.000000000000000E+000
  0.000000000000000E+000
  0.000000000000000E+000
  0.000000000000000E+000
  0.000000000000000E+000
  0.000000000000000E+000
  0.000000000000000E+000
  0.000000000000000E+000
  0.000000000000000E+000
  0.000000000000000E+000
  0.000000000000000E+000
  0.000000000000000E+000
  0.000000000000000E+000
  0.000000000000000E+000
  0.000000000000000E+000
  0.000000000000000E+000
  0.000000000000000E+000
  0.000000000000000E+000
  0.000000000000000E+000
  0.000000000000000E+000
  0.000000000000000E+000
  0.000000000000000E+000
  0.000000000000000E+000
  0.000000000000000E+000
  0.000000000000000E+000
  0.000000000000000E+000
  0.000000000000000E+000
  0.000000000000000E+000
  0.000000000000000E+000
  0.000000000000000E+000
  0.000000000000000E+000
  0.000000000000000E+000
  0.000000000000000E+000
  0.000000000000000E+000
  0.000000000000000E+000
  0.000000000000000E+000
  0.000000000000000E+000
  0.000000000000000E+000
  0.000000000000000E+000
  0.000000000000000E+000
SCALARS elementIsPlast double 
LOOKUP_TABLE default
  0.000000000000000E+000
  0.000000000000000E+000
  0.000000000000000E+000
  0.000000000000000E+000
  0.000000000000000E+000
  0.000000000000000E+000
  0.000000000000000E+000
  0.000000000000000E+000
  0.000000000000000E+000
  0.000000000000000E+000
  0.000000000000000E+000
  0.000000000000000E+000
  0.000000000000000E+000
  0.000000000000000E+000
  0.000000000000000E+000
  0.000000000000000E+000
  0.000000000000000E+000
  0.000000000000000E+000
  0.000000000000000E+000
  0.000000000000000E+000
  0.000000000000000E+000
  0.000000000000000E+000
  0.000000000000000E+000
  0.000000000000000E+000
  0.000000000000000E+000
  0.000000000000000E+000
  0.000000000000000E+000
  0.000000000000000E+000
  0.000000000000000E+000
  0.000000000000000E+000
  0.000000000000000E+000
  0.000000000000000E+000
  0.000000000000000E+000
  0.000000000000000E+000
  0.000000000000000E+000
  0.000000000000000E+000
  0.000000000000000E+000
  0.000000000000000E+000
  0.000000000000000E+000
  0.000000000000000E+000
  0.000000000000000E+000
  0.000000000000000E+000
  0.000000000000000E+000
  0.000000000000000E+000
  0.000000000000000E+000
  0.000000000000000E+000
  0.000000000000000E+000
  0.000000000000000E+000
  0.000000000000000E+000
  0.000000000000000E+000
  0.000000000000000E+000
  0.000000000000000E+000
  0.000000000000000E+000
  0.000000000000000E+000
  0.000000000000000E+000
  0.000000000000000E+000
  0.000000000000000E+000
  0.000000000000000E+000
  0.000000000000000E+000
  0.000000000000000E+000
  0.000000000000000E+000
  0.000000000000000E+000
  0.000000000000000E+000
  0.000000000000000E+000
  0.000000000000000E+000
  0.000000000000000E+000
  0.000000000000000E+000
  0.000000000000000E+000
  0.000000000000000E+000
  0.000000000000000E+000
  0.000000000000000E+000
  0.000000000000000E+000
  0.000000000000000E+000
  0.000000000000000E+000
  0.000000000000000E+000
  0.000000000000000E+000
  0.000000000000000E+000
  0.000000000000000E+000
  0.000000000000000E+000
  0.000000000000000E+000
  0.000000000000000E+000
  0.000000000000000E+000
  0.000000000000000E+000
  0.000000000000000E+000
  0.000000000000000E+000
  0.000000000000000E+000
  0.000000000000000E+000
  0.000000000000000E+000
  0.000000000000000E+000
  0.000000000000000E+000
  0.000000000000000E+000
  0.000000000000000E+000
  0.000000000000000E+000
  0.000000000000000E+000
  0.000000000000000E+000
  0.000000000000000E+000
  0.000000000000000E+000
  0.000000000000000E+000
  0.000000000000000E+000
  0.000000000000000E+000
  0.000000000000000E+000
  0.000000000000000E+000
  0.000000000000000E+000
  0.000000000000000E+000
  0.000000000000000E+000
  0.000000000000000E+000
  0.000000000000000E+000
  0.000000000000000E+000
  0.000000000000000E+000
  0.000000000000000E+000
  0.000000000000000E+000
  0.000000000000000E+000
  0.000000000000000E+000
  0.000000000000000E+000
  0.000000000000000E+000
  0.000000000000000E+000
  0.000000000000000E+000
  0.000000000000000E+000
  0.000000000000000E+000
  0.000000000000000E+000
  0.000000000000000E+000
  0.000000000000000E+000
  0.000000000000000E+000
  0.000000000000000E+000
  0.000000000000000E+000
  0.000000000000000E+000
  0.000000000000000E+000
  0.000000000000000E+000
  0.000000000000000E+000
  0.000000000000000E+000
  0.000000000000000E+000
  0.000000000000000E+000
  0.000000000000000E+000
  0.000000000000000E+000
  0.000000000000000E+000
  0.000000000000000E+000
  0.000000000000000E+000
  0.000000000000000E+000
  0.000000000000000E+000
  0.000000000000000E+000
  0.000000000000000E+000
  0.000000000000000E+000
  0.000000000000000E+000
  0.000000000000000E+000
  0.000000000000000E+000
  0.000000000000000E+000
  0.000000000000000E+000
  0.000000000000000E+000
  0.000000000000000E+000
  0.000000000000000E+000
  0.000000000000000E+000
  0.000000000000000E+000
  0.000000000000000E+000
  0.000000000000000E+000
  0.000000000000000E+000
  0.000000000000000E+000
  0.000000000000000E+000
  0.000000000000000E+000
  0.000000000000000E+000
  0.000000000000000E+000
  0.000000000000000E+000
  0.000000000000000E+000
  0.000000000000000E+000
  0.000000000000000E+000
  0.000000000000000E+000
  0.000000000000000E+000
  0.000000000000000E+000
  0.000000000000000E+000
  0.000000000000000E+000
  0.000000000000000E+000
  0.000000000000000E+000
  0.000000000000000E+000
  0.000000000000000E+000
  0.000000000000000E+000
  0.000000000000000E+000
  0.000000000000000E+000
  0.000000000000000E+000
  0.000000000000000E+000
  0.000000000000000E+000
  0.000000000000000E+000
  0.000000000000000E+000
  0.000000000000000E+000
  0.000000000000000E+000
  0.000000000000000E+000
  0.000000000000000E+000
  0.000000000000000E+000
  0.000000000000000E+000
  0.000000000000000E+000
  0.000000000000000E+000
  0.000000000000000E+000
  0.000000000000000E+000
  0.000000000000000E+000
  0.000000000000000E+000
  0.000000000000000E+000
  0.000000000000000E+000
  0.000000000000000E+000
  0.000000000000000E+000
  0.000000000000000E+000
  0.000000000000000E+000
  0.000000000000000E+000
  0.000000000000000E+000
  0.000000000000000E+000
  0.000000000000000E+000
  0.000000000000000E+000
  0.000000000000000E+000
  0.000000000000000E+000
  0.000000000000000E+000
  0.000000000000000E+000
  0.000000000000000E+000
  0.000000000000000E+000
  0.000000000000000E+000
  0.000000000000000E+000
  0.000000000000000E+000
  0.000000000000000E+000
  0.000000000000000E+000
  0.000000000000000E+000
  0.000000000000000E+000
  0.000000000000000E+000
  0.000000000000000E+000
  0.000000000000000E+000
  0.000000000000000E+000
  0.000000000000000E+000
  0.000000000000000E+000
  0.000000000000000E+000
  0.000000000000000E+000
  0.000000000000000E+000
  0.000000000000000E+000
  0.000000000000000E+000
  0.000000000000000E+000
  0.000000000000000E+000
  0.000000000000000E+000
  0.000000000000000E+000
  0.000000000000000E+000
  0.000000000000000E+000
  0.000000000000000E+000
  0.000000000000000E+000
  0.000000000000000E+000
  0.000000000000000E+000
  0.000000000000000E+000
  0.000000000000000E+000
  0.000000000000000E+000
  0.000000000000000E+000
  0.000000000000000E+000
  0.000000000000000E+000
  0.000000000000000E+000
  0.000000000000000E+000
  0.000000000000000E+000
  0.000000000000000E+000
  0.000000000000000E+000
  0.000000000000000E+000
  0.000000000000000E+000
  0.000000000000000E+000
  0.000000000000000E+000
  0.000000000000000E+000
  0.000000000000000E+000
  0.000000000000000E+000
  0.000000000000000E+000
  0.000000000000000E+000
  0.000000000000000E+000
  0.000000000000000E+000
  0.000000000000000E+000
  0.000000000000000E+000
  0.000000000000000E+000
  0.000000000000000E+000
  0.000000000000000E+000
  0.000000000000000E+000
  0.000000000000000E+000
  0.000000000000000E+000
  0.000000000000000E+000
  0.000000000000000E+000
  0.000000000000000E+000
  0.000000000000000E+000
  0.000000000000000E+000
  0.000000000000000E+000
  0.000000000000000E+000
  0.000000000000000E+000
  0.000000000000000E+000
  0.000000000000000E+000
  0.000000000000000E+000
  0.000000000000000E+000
  0.000000000000000E+000
  0.000000000000000E+000
  0.000000000000000E+000
  0.000000000000000E+000
  0.000000000000000E+000
  0.000000000000000E+000
  0.000000000000000E+000
  0.000000000000000E+000
  0.000000000000000E+000
  0.000000000000000E+000
  0.000000000000000E+000
  0.000000000000000E+000
  0.000000000000000E+000
  0.000000000000000E+000
  0.000000000000000E+000
  0.000000000000000E+000
  0.000000000000000E+000
  0.000000000000000E+000
  0.000000000000000E+000
  0.000000000000000E+000
  0.000000000000000E+000
  0.000000000000000E+000
  0.000000000000000E+000
  0.000000000000000E+000
  0.000000000000000E+000
  0.000000000000000E+000
  0.000000000000000E+000
  0.000000000000000E+000
  0.000000000000000E+000
  0.000000000000000E+000
  0.000000000000000E+000
  0.000000000000000E+000
  0.000000000000000E+000
  0.000000000000000E+000
  0.000000000000000E+000
  0.000000000000000E+000
  0.000000000000000E+000
  0.000000000000000E+000
  0.000000000000000E+000
  0.000000000000000E+000
  0.000000000000000E+000
  0.000000000000000E+000
  0.000000000000000E+000
  0.000000000000000E+000
  0.000000000000000E+000
  0.000000000000000E+000
  0.000000000000000E+000
  0.000000000000000E+000
  0.000000000000000E+000
  0.000000000000000E+000
  0.000000000000000E+000
  0.000000000000000E+000
  0.000000000000000E+000
  0.000000000000000E+000
  0.000000000000000E+000
  0.000000000000000E+000
  0.000000000000000E+000
  0.000000000000000E+000
  0.000000000000000E+000
  0.000000000000000E+000
  0.000000000000000E+000
  0.000000000000000E+000
  0.000000000000000E+000
  0.000000000000000E+000
  0.000000000000000E+000
  0.000000000000000E+000
  0.000000000000000E+000
  0.000000000000000E+000
  0.000000000000000E+000
  0.000000000000000E+000
  0.000000000000000E+000
  0.000000000000000E+000
  0.000000000000000E+000
  0.000000000000000E+000
  0.000000000000000E+000
  0.000000000000000E+000
  0.000000000000000E+000
  0.000000000000000E+000
  0.000000000000000E+000
  0.000000000000000E+000
  0.000000000000000E+000
  0.000000000000000E+000
  0.000000000000000E+000
  0.000000000000000E+000
  0.000000000000000E+000
  0.000000000000000E+000
  0.000000000000000E+000
  0.000000000000000E+000
  0.000000000000000E+000
  0.000000000000000E+000
  0.000000000000000E+000
  0.000000000000000E+000
  0.000000000000000E+000
  0.000000000000000E+000
  0.000000000000000E+000
  0.000000000000000E+000
  0.000000000000000E+000
  0.000000000000000E+000
  0.000000000000000E+000
  0.000000000000000E+000
  0.000000000000000E+000
  0.000000000000000E+000
  0.000000000000000E+000
  0.000000000000000E+000
  0.000000000000000E+000
  0.000000000000000E+000
  0.000000000000000E+000
  0.000000000000000E+000
  0.000000000000000E+000
  0.000000000000000E+000
  0.000000000000000E+000
  0.000000000000000E+000
  0.000000000000000E+000
  0.000000000000000E+000
  0.000000000000000E+000
  0.000000000000000E+000
  0.000000000000000E+000
  0.000000000000000E+000
  0.000000000000000E+000
  0.000000000000000E+000
  0.000000000000000E+000
  0.000000000000000E+000
  0.000000000000000E+000
  0.000000000000000E+000
  0.000000000000000E+000
  0.000000000000000E+000
  0.000000000000000E+000
  0.000000000000000E+000
  0.000000000000000E+000
  0.000000000000000E+000
  0.000000000000000E+000
  0.000000000000000E+000
  0.000000000000000E+000
  0.000000000000000E+000
  0.000000000000000E+000
  0.000000000000000E+000
  0.000000000000000E+000
  0.000000000000000E+000
  0.000000000000000E+000
  0.000000000000000E+000
  0.000000000000000E+000
  0.000000000000000E+000
  0.000000000000000E+000
  0.000000000000000E+000
  0.000000000000000E+000
  0.000000000000000E+000
  0.000000000000000E+000
  0.000000000000000E+000
  0.000000000000000E+000
  0.000000000000000E+000
  0.000000000000000E+000
  0.000000000000000E+000
  0.000000000000000E+000
  0.000000000000000E+000
  0.000000000000000E+000
  0.000000000000000E+000
  0.000000000000000E+000
  0.000000000000000E+000
  0.000000000000000E+000
  0.000000000000000E+000
  0.000000000000000E+000
  0.000000000000000E+000
  0.000000000000000E+000
  0.000000000000000E+000
  0.000000000000000E+000
  0.000000000000000E+000
  0.000000000000000E+000
  0.000000000000000E+000
  0.000000000000000E+000
  0.000000000000000E+000
SCALARS poroL double 
LOOKUP_TABLE default
  0.156038333341779     
  0.156035586253394     
  0.156032963507204     
  0.156030416387171     
  0.156027945395100     
  0.156025559458111     
  0.156023269211258     
  0.156021084553135     
  0.156019013881655     
  0.156017063862090     
  0.156015239287586     
  0.156013542691763     
  0.156011972988370     
  0.156010521957290     
  0.156009146565706     
  0.156037646398726     
  0.156035023605064     
  0.156032413641508     
  0.156029861043997     
  0.156027379250735     
  0.156024982082852     
  0.156022681755823     
  0.156020488674951     
  0.156018411337805     
  0.156016456444342     
  0.156014629028348     
  0.156012932449959     
  0.156011368419594     
  0.156009935344332     
  0.156008655268901     
  0.156036972108048     
  0.156034380324577     
  0.156031771245977     
  0.156029197974607     
  0.156026691444401     
  0.156024270665738     
  0.156021949859192     
  0.156019739919625     
  0.156017649282851     
  0.156015684510878     
  0.156013850801115     
  0.156012152578022     
  0.156010594222192     
  0.156009184895811     
  0.156007939492398     
  0.156036323469492     
  0.156033677922873     
  0.156031022336848     
  0.156028403559841     
  0.156025854184269     
  0.156023396065492     
  0.156021044151042     
  0.156018809130763     
  0.156016698821116     
  0.156014719153742     
  0.156012875018804     
  0.156011171142360     
  0.156009613607834     
  0.156008211150310     
  0.156006976664112     
  0.156035652231684     
  0.156032889416586     
  0.156030141045399     
  0.156027446223012     
  0.156024833866842     
  0.156022324207557     
  0.156019930975267     
  0.156017663404377     
  0.156015527788037     
  0.156013528650396     
  0.156011669752181     
  0.156009955110563     
  0.156008389987144     
  0.156006981843323     
  0.156005740690606     
  0.156034892751257     
  0.156031962539764     
  0.156029082316987     
  0.156026283330883     
  0.156023588738887     
  0.156021014605890     
  0.156018571367877     
  0.156016265377659     
  0.156014100296411     
  0.156012078284487     
  0.156010201041261     
  0.156008470739219     
  0.156006890861883     
  0.156005466822470     
  0.156004206257418     
  0.156033966592436     
  0.156030829125074     
  0.156027785884518     
  0.156024860029833     
  0.156022067767081     
  0.156019419345804     
  0.156016920282090     
  0.156014572652521     
  0.156012376330573     
  0.156010330104778     
  0.156008432670138     
  0.156006683499487     
  0.156005083575469     
  0.156003635942562     
  0.156002346013819     
  0.156032783124313     
  0.156029407720556     
  0.156026178546621     
  0.156023110013066     
  0.156020210323347     
  0.156017482610115     
  0.156014926120738     
  0.156012537401415     
  0.156010311424191     
  0.156008242620731     
  0.156006325808605     
  0.156004557004189     
  0.156002934112983     
  0.156001457477750     
  0.156000130266360     
  0.156031238971692     
  0.156027604313972     
  0.156024175187901     
  0.156020956200625     
  0.156017946407276     
  0.156015140610586     
  0.156012530579500     
  0.156010106189302     
  0.156007856473922     
  0.156005770582562     
  0.156003838638855     
  0.156002052504461     
  0.156000406448161     
  0.155998897719617     
  0.155997527027277     
  0.156029217393084     
  0.156025312485493     
  0.156021679314013     
  0.156018311297728     
  0.156015197053158     
  0.156012321831822     
  0.156009668777995     
  0.156007220040033     
  0.156004957757087     
  0.156002864938272     
  0.156000926250448     
  0.155999128730275     
  0.155997462434967     
  0.155995921044268     
  0.155994502425336     
  0.156026587915603     
  0.156022413584730     
  0.156018583555381     
  0.156015078417531     
  0.156011874930321     
  0.156008947547357     
  0.156006269683791     
  0.156003814780144     
  0.156001557207703     
  0.155999473053920     
  0.155997540822331     
  0.155995742078440     
  0.155994062069927     
  0.155992490346127     
  0.155991021398198     
  0.156023206450161     
  0.156018777243218     
  0.156014770434738     
  0.156011151965191     
  0.156007885236476     
  0.156004932657190     
  0.156002256865764     
  0.155999821703587     
  0.155997593001626     
  0.155995539237756     
  0.155993632117127     
  0.155991847123317     
  0.155990164083089     
  0.155988567781973     
  0.155987048661751     
  0.156018916074488     
  0.156014262444568     
  0.156010113613796     
  0.156006418958510     
  0.156003127009047     
  0.156000186932527     
  0.155997549641079     
  0.155995168611745     
  0.155993000497617     
  0.155991005604824     
  0.155989148305332     
  0.155987397450250     
  0.155985726841663     
  0.155984115813091     
  0.155982549959691     
  0.156013548663445     
  0.156008719337476     
  0.156004479796888     
  0.156000760940947     
  0.155997494980995     
  0.155994616766370     
  0.155992064692685     
  0.155989781289608     
  0.155987713581996     
  0.155985813316132     
  0.155984037139722     
  0.155982346818707     
  0.155980709565669     
  0.155979098543830     
  0.155977493598346     
  0.156006927537388     
  0.156001991955241     
  0.155997731445824     
  0.155994056626192     
  0.155990882100730     
  0.155988127528469     
  0.155985718235828     
  0.155983585478755     
  0.155981666461495     
  0.155979904222379     
  0.155978247496703     
  0.155976650661285     
  0.155975073854792     
  0.155973483353387     
  0.155971852264418     
  0.155998871279654     
  0.155993921982103     
  0.155989730437938     
  0.155986185395771     
  0.155983182823252     
  0.155980626614375     
  0.155978428804470     
  0.155976509399116     
  0.155974795938470     
  0.155973222930351     
  0.155971731289255     
  0.155970267912913     
  0.155968785514080     
  0.155967242804982     
  0.155965605108432     
  0.155989198836612     
  0.155984353673597     
  0.155980342772036     
  0.155977031749376     
  0.155974297261915     
  0.155972027262310     
  0.155970120711893     
  0.155968486852923     
  0.155967044181543     
  0.155965719287042     
  0.155964445731895     
  0.155963163140173     
  0.155961816642003     
  0.155960356792841     
  0.155958740052770     
  0.155977735953183     
  0.155973139992021     
  0.155969444392962     
  0.155966490781646     
  0.155964136267640     
  0.155962253188537     
  0.155960728213755     
  0.155959460914022     
  0.155958361970435     
  0.155957351238913     
  0.155956355898592     
  0.155955308900833     
  0.155954147905681     
  0.155952814850750     
  0.155951256248971     
  0.155964322911183     
  0.155960149960188     
  0.155956928167931     
  0.155954474732328     
  0.155952627477583     
  0.155951244062966     
  0.155950200365796     
  0.155949388162083     
  0.155948712343462     
  0.155948087968599     
  0.155947437456615     
  0.155946688205360     
  0.155945770872006     
  0.155944618494557     
  0.155943166563364     
  0.155948823429708     
  0.155945277175145     
  0.155942712016977     
  0.155940920638259     
  0.155939722353976     
  0.155938961813931     
  0.155938506521722     
  0.155938243362281     
  0.155938074507795     
  0.155937913136068     
  0.155937679379805     
  0.155937296871891     
  0.155936690186851     
  0.155935783402680     
  0.155934499913108     
  0.155931134466046     
  0.155928449378288     
  0.155926748198081     
  0.155925799122918     
  0.155925404225312     
  0.155925397716449     
  0.155925642357794     
  0.155926024414565     
  0.155926447784588     
  0.155926827954970     
  0.155927086341745     
  0.155927145460202     
  0.155926925292852     
  0.155926341150886     
  0.155925303207679     
  0.155911196546008     
  0.155909638990764     
  0.155909033818139     
  0.155909124422843     
  0.155909697358497     
  0.155910580180025     
  0.155911636232942     
  0.155912757299141     
  0.155913855255521     
  0.155914853720992     
  0.155915680363873     
  0.155916260333798     
  0.155916511241917     
  0.155916340104112     
  0.155915642576184     
  0.155889004201020     
  0.155888874679763     
  0.155889622867611     
  0.155890965919402     
  0.155892677138893     
  0.155894583092160     
  0.155896555577209     
  0.155898500621435     
  0.155900346662867     
  0.155902033294076     
  0.155903501151832     
  0.155904683227348     
  0.155905497971122     
  0.155905844914058     
  0.155905603478233     
  0.155864616199693     
  0.155866254504644     
  0.155868640629857     
  0.155871461790093     
  0.155874481492002     
  0.155877534427239     
  0.155880512798417     
  0.155883349202416     
  0.155886000027653     
  0.155888430956888     
  0.155890604431114     
  0.155892468465469     
  0.155893947135911     
  0.155894933818521     
  0.155895289200802     
  0.155838165735923     
  0.155841962474448     
  0.155846302531430     
  0.155850835995262     
  0.155855323605390     
  0.155859624410629     
  0.155863669809243     
  0.155867435980933     
  0.155870921449582     
  0.155874130172531     
  0.155877057508563     
  0.155879676736637     
  0.155881925047680     
  0.155883692511124     
  0.155884817046306     
  0.155809872407475     
  0.155816293507476     
  0.155822942210642     
  0.155829420554146     
  0.155835505240693     
  0.155841111462379     
  0.155846239545142     
  0.155850931338955     
  0.155855242884605     
  0.155859229088890     
  0.155862931747250     
  0.155866363692980     
  0.155869489579805     
  0.155872201982783     
  0.155874311286539     
  0.155780061957148     
  0.155789701485492     
  0.155799058803538     
  0.155807684661099     
  0.155815427031238     
  0.155822321455980     
  0.155828482179174     
  0.155834038966826     
  0.155839118130226     
  0.155843835505192     
  0.155848291755010     
  0.155852563061227     
  0.155856664855899     
  0.155860516591161     
  0.155863889541848     
  0.155749225472443     
  0.155762909023879     
  0.155775403580543     
  0.155786264532595     
  0.155795580267374     
  0.155803634742107     
  0.155810693399687     
  0.155816987710658     
  0.155822718087800     
  0.155828063504433     
  0.155833190586133     
  0.155838256640197     
  0.155843404367000     
  0.155848608295485     
  0.155853642781045     
  0.155718209124289     
  0.155737236054324     
  0.155753112440511     
  0.155765920067181     
  0.155776508702552     
  0.155785454948620     
  0.155793183858502     
  0.155800019610867     
  0.155806226178313     
  0.155812036040932     
  0.155817674517366     
  0.155823386188175     
  0.155829458428974     
  0.155836302895773     
  0.155843535577457     
  0.155689730085938     
  0.155715366117805     
  0.155733427879837     
  0.155747418386190     
  0.155758727265675     
  0.155768162653941     
  0.155776251767656     
  0.155783375398985     
  0.155789834538051     
  0.155795892594513     
  0.155801810456848     
  0.155807887790874     
  0.155814537915292     
  0.155822441649176     
  0.155833562464000     
