# vtk DataFile Version 3.0
vtk output
ASCII
DATASET UNSTRUCTURED_GRID
POINTS       496 double 
  0.00000000E+00  3.00000000E+02  0.00000000E+00
  0.00000000E+00  2.80000000E+02  0.00000000E+00
  0.00000000E+00  2.60000000E+02  0.00000000E+00
  0.00000000E+00  2.40000000E+02  0.00000000E+00
  0.00000000E+00  2.20000000E+02  0.00000000E+00
  0.00000000E+00  2.00000000E+02  0.00000000E+00
  0.00000000E+00  1.80000000E+02  0.00000000E+00
  0.00000000E+00  1.60000000E+02  0.00000000E+00
  0.00000000E+00  1.40000000E+02  0.00000000E+00
  0.00000000E+00  1.20000000E+02  0.00000000E+00
  0.00000000E+00  1.00000000E+02  0.00000000E+00
  0.00000000E+00  8.00000000E+01  0.00000000E+00
  0.00000000E+00  6.00000000E+01  0.00000000E+00
  0.00000000E+00  4.00000000E+01  0.00000000E+00
  0.00000000E+00  2.00000000E+01  0.00000000E+00
  0.00000000E+00  4.99600361E-14  0.00000000E+00
  2.00000000E+01  3.00000000E+02  0.00000000E+00
  2.00000000E+01  2.80000000E+02  0.00000000E+00
  2.00000000E+01  2.60000000E+02  0.00000000E+00
  2.00000000E+01  2.40000000E+02  0.00000000E+00
  2.00000000E+01  2.20000000E+02  0.00000000E+00
  2.00000000E+01  2.00000000E+02  0.00000000E+00
  2.00000000E+01  1.80000000E+02  0.00000000E+00
  2.00000000E+01  1.60000000E+02  0.00000000E+00
  2.00000000E+01  1.40000000E+02  0.00000000E+00
  2.00000000E+01  1.20000000E+02  0.00000000E+00
  2.00000000E+01  1.00000000E+02  0.00000000E+00
  2.00000000E+01  8.00000000E+01  0.00000000E+00
  2.00000000E+01  6.00000000E+01  0.00000000E+00
  2.00000000E+01  4.00000000E+01  0.00000000E+00
  2.00000000E+01  2.00000000E+01  0.00000000E+00
  2.00000000E+01  4.99600361E-14  0.00000000E+00
  4.00000000E+01  3.00000000E+02  0.00000000E+00
  4.00000000E+01  2.80000000E+02  0.00000000E+00
  4.00000000E+01  2.60000000E+02  0.00000000E+00
  4.00000000E+01  2.40000000E+02  0.00000000E+00
  4.00000000E+01  2.20000000E+02  0.00000000E+00
  4.00000000E+01  2.00000000E+02  0.00000000E+00
  4.00000000E+01  1.80000000E+02  0.00000000E+00
  4.00000000E+01  1.60000000E+02  0.00000000E+00
  4.00000000E+01  1.40000000E+02  0.00000000E+00
  4.00000000E+01  1.20000000E+02  0.00000000E+00
  4.00000000E+01  1.00000000E+02  0.00000000E+00
  4.00000000E+01  8.00000000E+01  0.00000000E+00
  4.00000000E+01  6.00000000E+01  0.00000000E+00
  4.00000000E+01  4.00000000E+01  0.00000000E+00
  4.00000000E+01  2.00000000E+01  0.00000000E+00
  4.00000000E+01  4.99600361E-14  0.00000000E+00
  6.00000000E+01  3.00000000E+02  0.00000000E+00
  6.00000000E+01  2.80000000E+02  0.00000000E+00
  6.00000000E+01  2.60000000E+02  0.00000000E+00
  6.00000000E+01  2.40000000E+02  0.00000000E+00
  6.00000000E+01  2.20000000E+02  0.00000000E+00
  6.00000000E+01  2.00000000E+02  0.00000000E+00
  6.00000000E+01  1.80000000E+02  0.00000000E+00
  6.00000000E+01  1.60000000E+02  0.00000000E+00
  6.00000000E+01  1.40000000E+02  0.00000000E+00
  6.00000000E+01  1.20000000E+02  0.00000000E+00
  6.00000000E+01  1.00000000E+02  0.00000000E+00
  6.00000000E+01  8.00000000E+01  0.00000000E+00
  6.00000000E+01  6.00000000E+01  0.00000000E+00
  6.00000000E+01  4.00000000E+01  0.00000000E+00
  6.00000000E+01  2.00000000E+01  0.00000000E+00
  6.00000000E+01  4.99600361E-14  0.00000000E+00
  8.00000000E+01  3.00000000E+02  0.00000000E+00
  8.00000000E+01  2.80000000E+02  0.00000000E+00
  8.00000000E+01  2.60000000E+02  0.00000000E+00
  8.00000000E+01  2.40000000E+02  0.00000000E+00
  8.00000000E+01  2.20000000E+02  0.00000000E+00
  8.00000000E+01  2.00000000E+02  0.00000000E+00
  8.00000000E+01  1.80000000E+02  0.00000000E+00
  8.00000000E+01  1.60000000E+02  0.00000000E+00
  8.00000000E+01  1.40000000E+02  0.00000000E+00
  8.00000000E+01  1.20000000E+02  0.00000000E+00
  8.00000000E+01  1.00000000E+02  0.00000000E+00
  8.00000000E+01  8.00000000E+01  0.00000000E+00
  8.00000000E+01  6.00000000E+01  0.00000000E+00
  8.00000000E+01  4.00000000E+01  0.00000000E+00
  8.00000000E+01  2.00000000E+01  0.00000000E+00
  8.00000000E+01  4.99600361E-14  0.00000000E+00
  1.00000000E+02  3.00000000E+02  0.00000000E+00
  1.00000000E+02  2.80000000E+02  0.00000000E+00
  1.00000000E+02  2.60000000E+02  0.00000000E+00
  1.00000000E+02  2.40000000E+02  0.00000000E+00
  1.00000000E+02  2.20000000E+02  0.00000000E+00
  1.00000000E+02  2.00000000E+02  0.00000000E+00
  1.00000000E+02  1.80000000E+02  0.00000000E+00
  1.00000000E+02  1.60000000E+02  0.00000000E+00
  1.00000000E+02  1.40000000E+02  0.00000000E+00
  1.00000000E+02  1.20000000E+02  0.00000000E+00
  1.00000000E+02  1.00000000E+02  0.00000000E+00
  1.00000000E+02  8.00000000E+01  0.00000000E+00
  1.00000000E+02  6.00000000E+01  0.00000000E+00
  1.00000000E+02  4.00000000E+01  0.00000000E+00
  1.00000000E+02  2.00000000E+01  0.00000000E+00
  1.00000000E+02  4.99600361E-14  0.00000000E+00
  1.20000000E+02  3.00000000E+02  0.00000000E+00
  1.20000000E+02  2.80000000E+02  0.00000000E+00
  1.20000000E+02  2.60000000E+02  0.00000000E+00
  1.20000000E+02  2.40000000E+02  0.00000000E+00
  1.20000000E+02  2.20000000E+02  0.00000000E+00
  1.20000000E+02  2.00000000E+02  0.00000000E+00
  1.20000000E+02  1.80000000E+02  0.00000000E+00
  1.20000000E+02  1.60000000E+02  0.00000000E+00
  1.20000000E+02  1.40000000E+02  0.00000000E+00
  1.20000000E+02  1.20000000E+02  0.00000000E+00
  1.20000000E+02  1.00000000E+02  0.00000000E+00
  1.20000000E+02  8.00000000E+01  0.00000000E+00
  1.20000000E+02  6.00000000E+01  0.00000000E+00
  1.20000000E+02  4.00000000E+01  0.00000000E+00
  1.20000000E+02  2.00000000E+01  0.00000000E+00
  1.20000000E+02  4.99600361E-14  0.00000000E+00
  1.40000000E+02  3.00000000E+02  0.00000000E+00
  1.40000000E+02  2.80000000E+02  0.00000000E+00
  1.40000000E+02  2.60000000E+02  0.00000000E+00
  1.40000000E+02  2.40000000E+02  0.00000000E+00
  1.40000000E+02  2.20000000E+02  0.00000000E+00
  1.40000000E+02  2.00000000E+02  0.00000000E+00
  1.40000000E+02  1.80000000E+02  0.00000000E+00
  1.40000000E+02  1.60000000E+02  0.00000000E+00
  1.40000000E+02  1.40000000E+02  0.00000000E+00
  1.40000000E+02  1.20000000E+02  0.00000000E+00
  1.40000000E+02  1.00000000E+02  0.00000000E+00
  1.40000000E+02  8.00000000E+01  0.00000000E+00
  1.40000000E+02  6.00000000E+01  0.00000000E+00
  1.40000000E+02  4.00000000E+01  0.00000000E+00
  1.40000000E+02  2.00000000E+01  0.00000000E+00
  1.40000000E+02  4.99600361E-14  0.00000000E+00
  1.60000000E+02  3.00000000E+02  0.00000000E+00
  1.60000000E+02  2.80000000E+02  0.00000000E+00
  1.60000000E+02  2.60000000E+02  0.00000000E+00
  1.60000000E+02  2.40000000E+02  0.00000000E+00
  1.60000000E+02  2.20000000E+02  0.00000000E+00
  1.60000000E+02  2.00000000E+02  0.00000000E+00
  1.60000000E+02  1.80000000E+02  0.00000000E+00
  1.60000000E+02  1.60000000E+02  0.00000000E+00
  1.60000000E+02  1.40000000E+02  0.00000000E+00
  1.60000000E+02  1.20000000E+02  0.00000000E+00
  1.60000000E+02  1.00000000E+02  0.00000000E+00
  1.60000000E+02  8.00000000E+01  0.00000000E+00
  1.60000000E+02  6.00000000E+01  0.00000000E+00
  1.60000000E+02  4.00000000E+01  0.00000000E+00
  1.60000000E+02  2.00000000E+01  0.00000000E+00
  1.60000000E+02  4.99600361E-14  0.00000000E+00
  1.80000000E+02  3.00000000E+02  0.00000000E+00
  1.80000000E+02  2.80000000E+02  0.00000000E+00
  1.80000000E+02  2.60000000E+02  0.00000000E+00
  1.80000000E+02  2.40000000E+02  0.00000000E+00
  1.80000000E+02  2.20000000E+02  0.00000000E+00
  1.80000000E+02  2.00000000E+02  0.00000000E+00
  1.80000000E+02  1.80000000E+02  0.00000000E+00
  1.80000000E+02  1.60000000E+02  0.00000000E+00
  1.80000000E+02  1.40000000E+02  0.00000000E+00
  1.80000000E+02  1.20000000E+02  0.00000000E+00
  1.80000000E+02  1.00000000E+02  0.00000000E+00
  1.80000000E+02  8.00000000E+01  0.00000000E+00
  1.80000000E+02  6.00000000E+01  0.00000000E+00
  1.80000000E+02  4.00000000E+01  0.00000000E+00
  1.80000000E+02  2.00000000E+01  0.00000000E+00
  1.80000000E+02  4.99600361E-14  0.00000000E+00
  2.00000000E+02  3.00000000E+02  0.00000000E+00
  2.00000000E+02  2.80000000E+02  0.00000000E+00
  2.00000000E+02  2.60000000E+02  0.00000000E+00
  2.00000000E+02  2.40000000E+02  0.00000000E+00
  2.00000000E+02  2.20000000E+02  0.00000000E+00
  2.00000000E+02  2.00000000E+02  0.00000000E+00
  2.00000000E+02  1.80000000E+02  0.00000000E+00
  2.00000000E+02  1.60000000E+02  0.00000000E+00
  2.00000000E+02  1.40000000E+02  0.00000000E+00
  2.00000000E+02  1.20000000E+02  0.00000000E+00
  2.00000000E+02  1.00000000E+02  0.00000000E+00
  2.00000000E+02  8.00000000E+01  0.00000000E+00
  2.00000000E+02  6.00000000E+01  0.00000000E+00
  2.00000000E+02  4.00000000E+01  0.00000000E+00
  2.00000000E+02  2.00000000E+01  0.00000000E+00
  2.00000000E+02  4.99600361E-14  0.00000000E+00
  2.20000000E+02  3.00000000E+02  0.00000000E+00
  2.20000000E+02  2.80000000E+02  0.00000000E+00
  2.20000000E+02  2.60000000E+02  0.00000000E+00
  2.20000000E+02  2.40000000E+02  0.00000000E+00
  2.20000000E+02  2.20000000E+02  0.00000000E+00
  2.20000000E+02  2.00000000E+02  0.00000000E+00
  2.20000000E+02  1.80000000E+02  0.00000000E+00
  2.20000000E+02  1.60000000E+02  0.00000000E+00
  2.20000000E+02  1.40000000E+02  0.00000000E+00
  2.20000000E+02  1.20000000E+02  0.00000000E+00
  2.20000000E+02  1.00000000E+02  0.00000000E+00
  2.20000000E+02  8.00000000E+01  0.00000000E+00
  2.20000000E+02  6.00000000E+01  0.00000000E+00
  2.20000000E+02  4.00000000E+01  0.00000000E+00
  2.20000000E+02  2.00000000E+01  0.00000000E+00
  2.20000000E+02  4.99600361E-14  0.00000000E+00
  2.40000000E+02  3.00000000E+02  0.00000000E+00
  2.40000000E+02  2.80000000E+02  0.00000000E+00
  2.40000000E+02  2.60000000E+02  0.00000000E+00
  2.40000000E+02  2.40000000E+02  0.00000000E+00
  2.40000000E+02  2.20000000E+02  0.00000000E+00
  2.40000000E+02  2.00000000E+02  0.00000000E+00
  2.40000000E+02  1.80000000E+02  0.00000000E+00
  2.40000000E+02  1.60000000E+02  0.00000000E+00
  2.40000000E+02  1.40000000E+02  0.00000000E+00
  2.40000000E+02  1.20000000E+02  0.00000000E+00
  2.40000000E+02  1.00000000E+02  0.00000000E+00
  2.40000000E+02  8.00000000E+01  0.00000000E+00
  2.40000000E+02  6.00000000E+01  0.00000000E+00
  2.40000000E+02  4.00000000E+01  0.00000000E+00
  2.40000000E+02  2.00000000E+01  0.00000000E+00
  2.40000000E+02  4.99600361E-14  0.00000000E+00
  2.60000000E+02  3.00000000E+02  0.00000000E+00
  2.60000000E+02  2.80000000E+02  0.00000000E+00
  2.60000000E+02  2.60000000E+02  0.00000000E+00
  2.60000000E+02  2.40000000E+02  0.00000000E+00
  2.60000000E+02  2.20000000E+02  0.00000000E+00
  2.60000000E+02  2.00000000E+02  0.00000000E+00
  2.60000000E+02  1.80000000E+02  0.00000000E+00
  2.60000000E+02  1.60000000E+02  0.00000000E+00
  2.60000000E+02  1.40000000E+02  0.00000000E+00
  2.60000000E+02  1.20000000E+02  0.00000000E+00
  2.60000000E+02  1.00000000E+02  0.00000000E+00
  2.60000000E+02  8.00000000E+01  0.00000000E+00
  2.60000000E+02  6.00000000E+01  0.00000000E+00
  2.60000000E+02  4.00000000E+01  0.00000000E+00
  2.60000000E+02  2.00000000E+01  0.00000000E+00
  2.60000000E+02  4.99600361E-14  0.00000000E+00
  2.80000000E+02  3.00000000E+02  0.00000000E+00
  2.80000000E+02  2.80000000E+02  0.00000000E+00
  2.80000000E+02  2.60000000E+02  0.00000000E+00
  2.80000000E+02  2.40000000E+02  0.00000000E+00
  2.80000000E+02  2.20000000E+02  0.00000000E+00
  2.80000000E+02  2.00000000E+02  0.00000000E+00
  2.80000000E+02  1.80000000E+02  0.00000000E+00
  2.80000000E+02  1.60000000E+02  0.00000000E+00
  2.80000000E+02  1.40000000E+02  0.00000000E+00
  2.80000000E+02  1.20000000E+02  0.00000000E+00
  2.80000000E+02  1.00000000E+02  0.00000000E+00
  2.80000000E+02  8.00000000E+01  0.00000000E+00
  2.80000000E+02  6.00000000E+01  0.00000000E+00
  2.80000000E+02  4.00000000E+01  0.00000000E+00
  2.80000000E+02  2.00000000E+01  0.00000000E+00
  2.80000000E+02  4.99600361E-14  0.00000000E+00
  3.00000000E+02  3.00000000E+02  0.00000000E+00
  3.00000000E+02  2.80000000E+02  0.00000000E+00
  3.00000000E+02  2.60000000E+02  0.00000000E+00
  3.00000000E+02  2.40000000E+02  0.00000000E+00
  3.00000000E+02  2.20000000E+02  0.00000000E+00
  3.00000000E+02  2.00000000E+02  0.00000000E+00
  3.00000000E+02  1.80000000E+02  0.00000000E+00
  3.00000000E+02  1.60000000E+02  0.00000000E+00
  3.00000000E+02  1.40000000E+02  0.00000000E+00
  3.00000000E+02  1.20000000E+02  0.00000000E+00
  3.00000000E+02  1.00000000E+02  0.00000000E+00
  3.00000000E+02  8.00000000E+01  0.00000000E+00
  3.00000000E+02  6.00000000E+01  0.00000000E+00
  3.00000000E+02  4.00000000E+01  0.00000000E+00
  3.00000000E+02  2.00000000E+01  0.00000000E+00
  3.00000000E+02  4.99600361E-14  0.00000000E+00
  3.20000000E+02  3.00000000E+02  0.00000000E+00
  3.20000000E+02  2.80000000E+02  0.00000000E+00
  3.20000000E+02  2.60000000E+02  0.00000000E+00
  3.20000000E+02  2.40000000E+02  0.00000000E+00
  3.20000000E+02  2.20000000E+02  0.00000000E+00
  3.20000000E+02  2.00000000E+02  0.00000000E+00
  3.20000000E+02  1.80000000E+02  0.00000000E+00
  3.20000000E+02  1.60000000E+02  0.00000000E+00
  3.20000000E+02  1.40000000E+02  0.00000000E+00
  3.20000000E+02  1.20000000E+02  0.00000000E+00
  3.20000000E+02  1.00000000E+02  0.00000000E+00
  3.20000000E+02  8.00000000E+01  0.00000000E+00
  3.20000000E+02  6.00000000E+01  0.00000000E+00
  3.20000000E+02  4.00000000E+01  0.00000000E+00
  3.20000000E+02  2.00000000E+01  0.00000000E+00
  3.20000000E+02  4.99600361E-14  0.00000000E+00
  3.40000000E+02  3.00000000E+02  0.00000000E+00
  3.40000000E+02  2.80000000E+02  0.00000000E+00
  3.40000000E+02  2.60000000E+02  0.00000000E+00
  3.40000000E+02  2.40000000E+02  0.00000000E+00
  3.40000000E+02  2.20000000E+02  0.00000000E+00
  3.40000000E+02  2.00000000E+02  0.00000000E+00
  3.40000000E+02  1.80000000E+02  0.00000000E+00
  3.40000000E+02  1.60000000E+02  0.00000000E+00
  3.40000000E+02  1.40000000E+02  0.00000000E+00
  3.40000000E+02  1.20000000E+02  0.00000000E+00
  3.40000000E+02  1.00000000E+02  0.00000000E+00
  3.40000000E+02  8.00000000E+01  0.00000000E+00
  3.40000000E+02  6.00000000E+01  0.00000000E+00
  3.40000000E+02  4.00000000E+01  0.00000000E+00
  3.40000000E+02  2.00000000E+01  0.00000000E+00
  3.40000000E+02  4.99600361E-14  0.00000000E+00
  3.60000000E+02  3.00000000E+02  0.00000000E+00
  3.60000000E+02  2.80000000E+02  0.00000000E+00
  3.60000000E+02  2.60000000E+02  0.00000000E+00
  3.60000000E+02  2.40000000E+02  0.00000000E+00
  3.60000000E+02  2.20000000E+02  0.00000000E+00
  3.60000000E+02  2.00000000E+02  0.00000000E+00
  3.60000000E+02  1.80000000E+02  0.00000000E+00
  3.60000000E+02  1.60000000E+02  0.00000000E+00
  3.60000000E+02  1.40000000E+02  0.00000000E+00
  3.60000000E+02  1.20000000E+02  0.00000000E+00
  3.60000000E+02  1.00000000E+02  0.00000000E+00
  3.60000000E+02  8.00000000E+01  0.00000000E+00
  3.60000000E+02  6.00000000E+01  0.00000000E+00
  3.60000000E+02  4.00000000E+01  0.00000000E+00
  3.60000000E+02  2.00000000E+01  0.00000000E+00
  3.60000000E+02  4.99600361E-14  0.00000000E+00
  3.80000000E+02  3.00000000E+02  0.00000000E+00
  3.80000000E+02  2.80000000E+02  0.00000000E+00
  3.80000000E+02  2.60000000E+02  0.00000000E+00
  3.80000000E+02  2.40000000E+02  0.00000000E+00
  3.80000000E+02  2.20000000E+02  0.00000000E+00
  3.80000000E+02  2.00000000E+02  0.00000000E+00
  3.80000000E+02  1.80000000E+02  0.00000000E+00
  3.80000000E+02  1.60000000E+02  0.00000000E+00
  3.80000000E+02  1.40000000E+02  0.00000000E+00
  3.80000000E+02  1.20000000E+02  0.00000000E+00
  3.80000000E+02  1.00000000E+02  0.00000000E+00
  3.80000000E+02  8.00000000E+01  0.00000000E+00
  3.80000000E+02  6.00000000E+01  0.00000000E+00
  3.80000000E+02  4.00000000E+01  0.00000000E+00
  3.80000000E+02  2.00000000E+01  0.00000000E+00
  3.80000000E+02  4.99600361E-14  0.00000000E+00
  4.00000000E+02  3.00000000E+02  0.00000000E+00
  4.00000000E+02  2.80000000E+02  0.00000000E+00
  4.00000000E+02  2.60000000E+02  0.00000000E+00
  4.00000000E+02  2.40000000E+02  0.00000000E+00
  4.00000000E+02  2.20000000E+02  0.00000000E+00
  4.00000000E+02  2.00000000E+02  0.00000000E+00
  4.00000000E+02  1.80000000E+02  0.00000000E+00
  4.00000000E+02  1.60000000E+02  0.00000000E+00
  4.00000000E+02  1.40000000E+02  0.00000000E+00
  4.00000000E+02  1.20000000E+02  0.00000000E+00
  4.00000000E+02  1.00000000E+02  0.00000000E+00
  4.00000000E+02  8.00000000E+01  0.00000000E+00
  4.00000000E+02  6.00000000E+01  0.00000000E+00
  4.00000000E+02  4.00000000E+01  0.00000000E+00
  4.00000000E+02  2.00000000E+01  0.00000000E+00
  4.00000000E+02  4.99600361E-14  0.00000000E+00
  4.20000000E+02  3.00000000E+02  0.00000000E+00
  4.20000000E+02  2.80000000E+02  0.00000000E+00
  4.20000000E+02  2.60000000E+02  0.00000000E+00
  4.20000000E+02  2.40000000E+02  0.00000000E+00
  4.20000000E+02  2.20000000E+02  0.00000000E+00
  4.20000000E+02  2.00000000E+02  0.00000000E+00
  4.20000000E+02  1.80000000E+02  0.00000000E+00
  4.20000000E+02  1.60000000E+02  0.00000000E+00
  4.20000000E+02  1.40000000E+02  0.00000000E+00
  4.20000000E+02  1.20000000E+02  0.00000000E+00
  4.20000000E+02  1.00000000E+02  0.00000000E+00
  4.20000000E+02  8.00000000E+01  0.00000000E+00
  4.20000000E+02  6.00000000E+01  0.00000000E+00
  4.20000000E+02  4.00000000E+01  0.00000000E+00
  4.20000000E+02  2.00000000E+01  0.00000000E+00
  4.20000000E+02  4.99600361E-14  0.00000000E+00
  4.40000000E+02  3.00000000E+02  0.00000000E+00
  4.40000000E+02  2.80000000E+02  0.00000000E+00
  4.40000000E+02  2.60000000E+02  0.00000000E+00
  4.40000000E+02  2.40000000E+02  0.00000000E+00
  4.40000000E+02  2.20000000E+02  0.00000000E+00
  4.40000000E+02  2.00000000E+02  0.00000000E+00
  4.40000000E+02  1.80000000E+02  0.00000000E+00
  4.40000000E+02  1.60000000E+02  0.00000000E+00
  4.40000000E+02  1.40000000E+02  0.00000000E+00
  4.40000000E+02  1.20000000E+02  0.00000000E+00
  4.40000000E+02  1.00000000E+02  0.00000000E+00
  4.40000000E+02  8.00000000E+01  0.00000000E+00
  4.40000000E+02  6.00000000E+01  0.00000000E+00
  4.40000000E+02  4.00000000E+01  0.00000000E+00
  4.40000000E+02  2.00000000E+01  0.00000000E+00
  4.40000000E+02  4.99600361E-14  0.00000000E+00
  4.60000000E+02  3.00000000E+02  0.00000000E+00
  4.60000000E+02  2.80000000E+02  0.00000000E+00
  4.60000000E+02  2.60000000E+02  0.00000000E+00
  4.60000000E+02  2.40000000E+02  0.00000000E+00
  4.60000000E+02  2.20000000E+02  0.00000000E+00
  4.60000000E+02  2.00000000E+02  0.00000000E+00
  4.60000000E+02  1.80000000E+02  0.00000000E+00
  4.60000000E+02  1.60000000E+02  0.00000000E+00
  4.60000000E+02  1.40000000E+02  0.00000000E+00
  4.60000000E+02  1.20000000E+02  0.00000000E+00
  4.60000000E+02  1.00000000E+02  0.00000000E+00
  4.60000000E+02  8.00000000E+01  0.00000000E+00
  4.60000000E+02  6.00000000E+01  0.00000000E+00
  4.60000000E+02  4.00000000E+01  0.00000000E+00
  4.60000000E+02  2.00000000E+01  0.00000000E+00
  4.60000000E+02  4.99600361E-14  0.00000000E+00
  4.80000000E+02  3.00000000E+02  0.00000000E+00
  4.80000000E+02  2.80000000E+02  0.00000000E+00
  4.80000000E+02  2.60000000E+02  0.00000000E+00
  4.80000000E+02  2.40000000E+02  0.00000000E+00
  4.80000000E+02  2.20000000E+02  0.00000000E+00
  4.80000000E+02  2.00000000E+02  0.00000000E+00
  4.80000000E+02  1.80000000E+02  0.00000000E+00
  4.80000000E+02  1.60000000E+02  0.00000000E+00
  4.80000000E+02  1.40000000E+02  0.00000000E+00
  4.80000000E+02  1.20000000E+02  0.00000000E+00
  4.80000000E+02  1.00000000E+02  0.00000000E+00
  4.80000000E+02  8.00000000E+01  0.00000000E+00
  4.80000000E+02  6.00000000E+01  0.00000000E+00
  4.80000000E+02  4.00000000E+01  0.00000000E+00
  4.80000000E+02  2.00000000E+01  0.00000000E+00
  4.80000000E+02  4.99600361E-14  0.00000000E+00
  5.00000000E+02  3.00000000E+02  0.00000000E+00
  5.00000000E+02  2.80000000E+02  0.00000000E+00
  5.00000000E+02  2.60000000E+02  0.00000000E+00
  5.00000000E+02  2.40000000E+02  0.00000000E+00
  5.00000000E+02  2.20000000E+02  0.00000000E+00
  5.00000000E+02  2.00000000E+02  0.00000000E+00
  5.00000000E+02  1.80000000E+02  0.00000000E+00
  5.00000000E+02  1.60000000E+02  0.00000000E+00
  5.00000000E+02  1.40000000E+02  0.00000000E+00
  5.00000000E+02  1.20000000E+02  0.00000000E+00
  5.00000000E+02  1.00000000E+02  0.00000000E+00
  5.00000000E+02  8.00000000E+01  0.00000000E+00
  5.00000000E+02  6.00000000E+01  0.00000000E+00
  5.00000000E+02  4.00000000E+01  0.00000000E+00
  5.00000000E+02  2.00000000E+01  0.00000000E+00
  5.00000000E+02  4.99600361E-14  0.00000000E+00
  5.20000000E+02  3.00000000E+02  0.00000000E+00
  5.20000000E+02  2.80000000E+02  0.00000000E+00
  5.20000000E+02  2.60000000E+02  0.00000000E+00
  5.20000000E+02  2.40000000E+02  0.00000000E+00
  5.20000000E+02  2.20000000E+02  0.00000000E+00
  5.20000000E+02  2.00000000E+02  0.00000000E+00
  5.20000000E+02  1.80000000E+02  0.00000000E+00
  5.20000000E+02  1.60000000E+02  0.00000000E+00
  5.20000000E+02  1.40000000E+02  0.00000000E+00
  5.20000000E+02  1.20000000E+02  0.00000000E+00
  5.20000000E+02  1.00000000E+02  0.00000000E+00
  5.20000000E+02  8.00000000E+01  0.00000000E+00
  5.20000000E+02  6.00000000E+01  0.00000000E+00
  5.20000000E+02  4.00000000E+01  0.00000000E+00
  5.20000000E+02  2.00000000E+01  0.00000000E+00
  5.20000000E+02  4.99600361E-14  0.00000000E+00
  5.40000000E+02  3.00000000E+02  0.00000000E+00
  5.40000000E+02  2.80000000E+02  0.00000000E+00
  5.40000000E+02  2.60000000E+02  0.00000000E+00
  5.40000000E+02  2.40000000E+02  0.00000000E+00
  5.40000000E+02  2.20000000E+02  0.00000000E+00
  5.40000000E+02  2.00000000E+02  0.00000000E+00
  5.40000000E+02  1.80000000E+02  0.00000000E+00
  5.40000000E+02  1.60000000E+02  0.00000000E+00
  5.40000000E+02  1.40000000E+02  0.00000000E+00
  5.40000000E+02  1.20000000E+02  0.00000000E+00
  5.40000000E+02  1.00000000E+02  0.00000000E+00
  5.40000000E+02  8.00000000E+01  0.00000000E+00
  5.40000000E+02  6.00000000E+01  0.00000000E+00
  5.40000000E+02  4.00000000E+01  0.00000000E+00
  5.40000000E+02  2.00000000E+01  0.00000000E+00
  5.40000000E+02  4.99600361E-14  0.00000000E+00
  5.60000000E+02  3.00000000E+02  0.00000000E+00
  5.60000000E+02  2.80000000E+02  0.00000000E+00
  5.60000000E+02  2.60000000E+02  0.00000000E+00
  5.60000000E+02  2.40000000E+02  0.00000000E+00
  5.60000000E+02  2.20000000E+02  0.00000000E+00
  5.60000000E+02  2.00000000E+02  0.00000000E+00
  5.60000000E+02  1.80000000E+02  0.00000000E+00
  5.60000000E+02  1.60000000E+02  0.00000000E+00
  5.60000000E+02  1.40000000E+02  0.00000000E+00
  5.60000000E+02  1.20000000E+02  0.00000000E+00
  5.60000000E+02  1.00000000E+02  0.00000000E+00
  5.60000000E+02  8.00000000E+01  0.00000000E+00
  5.60000000E+02  6.00000000E+01  0.00000000E+00
  5.60000000E+02  4.00000000E+01  0.00000000E+00
  5.60000000E+02  2.00000000E+01  0.00000000E+00
  5.60000000E+02  4.99600361E-14  0.00000000E+00
  5.80000000E+02  3.00000000E+02  0.00000000E+00
  5.80000000E+02  2.80000000E+02  0.00000000E+00
  5.80000000E+02  2.60000000E+02  0.00000000E+00
  5.80000000E+02  2.40000000E+02  0.00000000E+00
  5.80000000E+02  2.20000000E+02  0.00000000E+00
  5.80000000E+02  2.00000000E+02  0.00000000E+00
  5.80000000E+02  1.80000000E+02  0.00000000E+00
  5.80000000E+02  1.60000000E+02  0.00000000E+00
  5.80000000E+02  1.40000000E+02  0.00000000E+00
  5.80000000E+02  1.20000000E+02  0.00000000E+00
  5.80000000E+02  1.00000000E+02  0.00000000E+00
  5.80000000E+02  8.00000000E+01  0.00000000E+00
  5.80000000E+02  6.00000000E+01  0.00000000E+00
  5.80000000E+02  4.00000000E+01  0.00000000E+00
  5.80000000E+02  2.00000000E+01  0.00000000E+00
  5.80000000E+02  4.99600361E-14  0.00000000E+00
  6.00000000E+02  3.00000000E+02  0.00000000E+00
  6.00000000E+02  2.80000000E+02  0.00000000E+00
  6.00000000E+02  2.60000000E+02  0.00000000E+00
  6.00000000E+02  2.40000000E+02  0.00000000E+00
  6.00000000E+02  2.20000000E+02  0.00000000E+00
  6.00000000E+02  2.00000000E+02  0.00000000E+00
  6.00000000E+02  1.80000000E+02  0.00000000E+00
  6.00000000E+02  1.60000000E+02  0.00000000E+00
  6.00000000E+02  1.40000000E+02  0.00000000E+00
  6.00000000E+02  1.20000000E+02  0.00000000E+00
  6.00000000E+02  1.00000000E+02  0.00000000E+00
  6.00000000E+02  8.00000000E+01  0.00000000E+00
  6.00000000E+02  6.00000000E+01  0.00000000E+00
  6.00000000E+02  4.00000000E+01  0.00000000E+00
  6.00000000E+02  2.00000000E+01  0.00000000E+00
  6.00000000E+02  4.99600361E-14  0.00000000E+00
CELLS       450      2250
         4           0           1          17          16
         4           1           2          18          17
         4           2           3          19          18
         4           3           4          20          19
         4           4           5          21          20
         4           5           6          22          21
         4           6           7          23          22
         4           7           8          24          23
         4           8           9          25          24
         4           9          10          26          25
         4          10          11          27          26
         4          11          12          28          27
         4          12          13          29          28
         4          13          14          30          29
         4          14          15          31          30
         4          16          17          33          32
         4          17          18          34          33
         4          18          19          35          34
         4          19          20          36          35
         4          20          21          37          36
         4          21          22          38          37
         4          22          23          39          38
         4          23          24          40          39
         4          24          25          41          40
         4          25          26          42          41
         4          26          27          43          42
         4          27          28          44          43
         4          28          29          45          44
         4          29          30          46          45
         4          30          31          47          46
         4          32          33          49          48
         4          33          34          50          49
         4          34          35          51          50
         4          35          36          52          51
         4          36          37          53          52
         4          37          38          54          53
         4          38          39          55          54
         4          39          40          56          55
         4          40          41          57          56
         4          41          42          58          57
         4          42          43          59          58
         4          43          44          60          59
         4          44          45          61          60
         4          45          46          62          61
         4          46          47          63          62
         4          48          49          65          64
         4          49          50          66          65
         4          50          51          67          66
         4          51          52          68          67
         4          52          53          69          68
         4          53          54          70          69
         4          54          55          71          70
         4          55          56          72          71
         4          56          57          73          72
         4          57          58          74          73
         4          58          59          75          74
         4          59          60          76          75
         4          60          61          77          76
         4          61          62          78          77
         4          62          63          79          78
         4          64          65          81          80
         4          65          66          82          81
         4          66          67          83          82
         4          67          68          84          83
         4          68          69          85          84
         4          69          70          86          85
         4          70          71          87          86
         4          71          72          88          87
         4          72          73          89          88
         4          73          74          90          89
         4          74          75          91          90
         4          75          76          92          91
         4          76          77          93          92
         4          77          78          94          93
         4          78          79          95          94
         4          80          81          97          96
         4          81          82          98          97
         4          82          83          99          98
         4          83          84         100          99
         4          84          85         101         100
         4          85          86         102         101
         4          86          87         103         102
         4          87          88         104         103
         4          88          89         105         104
         4          89          90         106         105
         4          90          91         107         106
         4          91          92         108         107
         4          92          93         109         108
         4          93          94         110         109
         4          94          95         111         110
         4          96          97         113         112
         4          97          98         114         113
         4          98          99         115         114
         4          99         100         116         115
         4         100         101         117         116
         4         101         102         118         117
         4         102         103         119         118
         4         103         104         120         119
         4         104         105         121         120
         4         105         106         122         121
         4         106         107         123         122
         4         107         108         124         123
         4         108         109         125         124
         4         109         110         126         125
         4         110         111         127         126
         4         112         113         129         128
         4         113         114         130         129
         4         114         115         131         130
         4         115         116         132         131
         4         116         117         133         132
         4         117         118         134         133
         4         118         119         135         134
         4         119         120         136         135
         4         120         121         137         136
         4         121         122         138         137
         4         122         123         139         138
         4         123         124         140         139
         4         124         125         141         140
         4         125         126         142         141
         4         126         127         143         142
         4         128         129         145         144
         4         129         130         146         145
         4         130         131         147         146
         4         131         132         148         147
         4         132         133         149         148
         4         133         134         150         149
         4         134         135         151         150
         4         135         136         152         151
         4         136         137         153         152
         4         137         138         154         153
         4         138         139         155         154
         4         139         140         156         155
         4         140         141         157         156
         4         141         142         158         157
         4         142         143         159         158
         4         144         145         161         160
         4         145         146         162         161
         4         146         147         163         162
         4         147         148         164         163
         4         148         149         165         164
         4         149         150         166         165
         4         150         151         167         166
         4         151         152         168         167
         4         152         153         169         168
         4         153         154         170         169
         4         154         155         171         170
         4         155         156         172         171
         4         156         157         173         172
         4         157         158         174         173
         4         158         159         175         174
         4         160         161         177         176
         4         161         162         178         177
         4         162         163         179         178
         4         163         164         180         179
         4         164         165         181         180
         4         165         166         182         181
         4         166         167         183         182
         4         167         168         184         183
         4         168         169         185         184
         4         169         170         186         185
         4         170         171         187         186
         4         171         172         188         187
         4         172         173         189         188
         4         173         174         190         189
         4         174         175         191         190
         4         176         177         193         192
         4         177         178         194         193
         4         178         179         195         194
         4         179         180         196         195
         4         180         181         197         196
         4         181         182         198         197
         4         182         183         199         198
         4         183         184         200         199
         4         184         185         201         200
         4         185         186         202         201
         4         186         187         203         202
         4         187         188         204         203
         4         188         189         205         204
         4         189         190         206         205
         4         190         191         207         206
         4         192         193         209         208
         4         193         194         210         209
         4         194         195         211         210
         4         195         196         212         211
         4         196         197         213         212
         4         197         198         214         213
         4         198         199         215         214
         4         199         200         216         215
         4         200         201         217         216
         4         201         202         218         217
         4         202         203         219         218
         4         203         204         220         219
         4         204         205         221         220
         4         205         206         222         221
         4         206         207         223         222
         4         208         209         225         224
         4         209         210         226         225
         4         210         211         227         226
         4         211         212         228         227
         4         212         213         229         228
         4         213         214         230         229
         4         214         215         231         230
         4         215         216         232         231
         4         216         217         233         232
         4         217         218         234         233
         4         218         219         235         234
         4         219         220         236         235
         4         220         221         237         236
         4         221         222         238         237
         4         222         223         239         238
         4         224         225         241         240
         4         225         226         242         241
         4         226         227         243         242
         4         227         228         244         243
         4         228         229         245         244
         4         229         230         246         245
         4         230         231         247         246
         4         231         232         248         247
         4         232         233         249         248
         4         233         234         250         249
         4         234         235         251         250
         4         235         236         252         251
         4         236         237         253         252
         4         237         238         254         253
         4         238         239         255         254
         4         240         241         257         256
         4         241         242         258         257
         4         242         243         259         258
         4         243         244         260         259
         4         244         245         261         260
         4         245         246         262         261
         4         246         247         263         262
         4         247         248         264         263
         4         248         249         265         264
         4         249         250         266         265
         4         250         251         267         266
         4         251         252         268         267
         4         252         253         269         268
         4         253         254         270         269
         4         254         255         271         270
         4         256         257         273         272
         4         257         258         274         273
         4         258         259         275         274
         4         259         260         276         275
         4         260         261         277         276
         4         261         262         278         277
         4         262         263         279         278
         4         263         264         280         279
         4         264         265         281         280
         4         265         266         282         281
         4         266         267         283         282
         4         267         268         284         283
         4         268         269         285         284
         4         269         270         286         285
         4         270         271         287         286
         4         272         273         289         288
         4         273         274         290         289
         4         274         275         291         290
         4         275         276         292         291
         4         276         277         293         292
         4         277         278         294         293
         4         278         279         295         294
         4         279         280         296         295
         4         280         281         297         296
         4         281         282         298         297
         4         282         283         299         298
         4         283         284         300         299
         4         284         285         301         300
         4         285         286         302         301
         4         286         287         303         302
         4         288         289         305         304
         4         289         290         306         305
         4         290         291         307         306
         4         291         292         308         307
         4         292         293         309         308
         4         293         294         310         309
         4         294         295         311         310
         4         295         296         312         311
         4         296         297         313         312
         4         297         298         314         313
         4         298         299         315         314
         4         299         300         316         315
         4         300         301         317         316
         4         301         302         318         317
         4         302         303         319         318
         4         304         305         321         320
         4         305         306         322         321
         4         306         307         323         322
         4         307         308         324         323
         4         308         309         325         324
         4         309         310         326         325
         4         310         311         327         326
         4         311         312         328         327
         4         312         313         329         328
         4         313         314         330         329
         4         314         315         331         330
         4         315         316         332         331
         4         316         317         333         332
         4         317         318         334         333
         4         318         319         335         334
         4         320         321         337         336
         4         321         322         338         337
         4         322         323         339         338
         4         323         324         340         339
         4         324         325         341         340
         4         325         326         342         341
         4         326         327         343         342
         4         327         328         344         343
         4         328         329         345         344
         4         329         330         346         345
         4         330         331         347         346
         4         331         332         348         347
         4         332         333         349         348
         4         333         334         350         349
         4         334         335         351         350
         4         336         337         353         352
         4         337         338         354         353
         4         338         339         355         354
         4         339         340         356         355
         4         340         341         357         356
         4         341         342         358         357
         4         342         343         359         358
         4         343         344         360         359
         4         344         345         361         360
         4         345         346         362         361
         4         346         347         363         362
         4         347         348         364         363
         4         348         349         365         364
         4         349         350         366         365
         4         350         351         367         366
         4         352         353         369         368
         4         353         354         370         369
         4         354         355         371         370
         4         355         356         372         371
         4         356         357         373         372
         4         357         358         374         373
         4         358         359         375         374
         4         359         360         376         375
         4         360         361         377         376
         4         361         362         378         377
         4         362         363         379         378
         4         363         364         380         379
         4         364         365         381         380
         4         365         366         382         381
         4         366         367         383         382
         4         368         369         385         384
         4         369         370         386         385
         4         370         371         387         386
         4         371         372         388         387
         4         372         373         389         388
         4         373         374         390         389
         4         374         375         391         390
         4         375         376         392         391
         4         376         377         393         392
         4         377         378         394         393
         4         378         379         395         394
         4         379         380         396         395
         4         380         381         397         396
         4         381         382         398         397
         4         382         383         399         398
         4         384         385         401         400
         4         385         386         402         401
         4         386         387         403         402
         4         387         388         404         403
         4         388         389         405         404
         4         389         390         406         405
         4         390         391         407         406
         4         391         392         408         407
         4         392         393         409         408
         4         393         394         410         409
         4         394         395         411         410
         4         395         396         412         411
         4         396         397         413         412
         4         397         398         414         413
         4         398         399         415         414
         4         400         401         417         416
         4         401         402         418         417
         4         402         403         419         418
         4         403         404         420         419
         4         404         405         421         420
         4         405         406         422         421
         4         406         407         423         422
         4         407         408         424         423
         4         408         409         425         424
         4         409         410         426         425
         4         410         411         427         426
         4         411         412         428         427
         4         412         413         429         428
         4         413         414         430         429
         4         414         415         431         430
         4         416         417         433         432
         4         417         418         434         433
         4         418         419         435         434
         4         419         420         436         435
         4         420         421         437         436
         4         421         422         438         437
         4         422         423         439         438
         4         423         424         440         439
         4         424         425         441         440
         4         425         426         442         441
         4         426         427         443         442
         4         427         428         444         443
         4         428         429         445         444
         4         429         430         446         445
         4         430         431         447         446
         4         432         433         449         448
         4         433         434         450         449
         4         434         435         451         450
         4         435         436         452         451
         4         436         437         453         452
         4         437         438         454         453
         4         438         439         455         454
         4         439         440         456         455
         4         440         441         457         456
         4         441         442         458         457
         4         442         443         459         458
         4         443         444         460         459
         4         444         445         461         460
         4         445         446         462         461
         4         446         447         463         462
         4         448         449         465         464
         4         449         450         466         465
         4         450         451         467         466
         4         451         452         468         467
         4         452         453         469         468
         4         453         454         470         469
         4         454         455         471         470
         4         455         456         472         471
         4         456         457         473         472
         4         457         458         474         473
         4         458         459         475         474
         4         459         460         476         475
         4         460         461         477         476
         4         461         462         478         477
         4         462         463         479         478
         4         464         465         481         480
         4         465         466         482         481
         4         466         467         483         482
         4         467         468         484         483
         4         468         469         485         484
         4         469         470         486         485
         4         470         471         487         486
         4         471         472         488         487
         4         472         473         489         488
         4         473         474         490         489
         4         474         475         491         490
         4         475         476         492         491
         4         476         477         493         492
         4         477         478         494         493
         4         478         479         495         494
CELL_TYPES        450
9
9
9
9
9
9
9
9
9
9
9
9
9
9
9
9
9
9
9
9
9
9
9
9
9
9
9
9
9
9
9
9
9
9
9
9
9
9
9
9
9
9
9
9
9
9
9
9
9
9
9
9
9
9
9
9
9
9
9
9
9
9
9
9
9
9
9
9
9
9
9
9
9
9
9
9
9
9
9
9
9
9
9
9
9
9
9
9
9
9
9
9
9
9
9
9
9
9
9
9
9
9
9
9
9
9
9
9
9
9
9
9
9
9
9
9
9
9
9
9
9
9
9
9
9
9
9
9
9
9
9
9
9
9
9
9
9
9
9
9
9
9
9
9
9
9
9
9
9
9
9
9
9
9
9
9
9
9
9
9
9
9
9
9
9
9
9
9
9
9
9
9
9
9
9
9
9
9
9
9
9
9
9
9
9
9
9
9
9
9
9
9
9
9
9
9
9
9
9
9
9
9
9
9
9
9
9
9
9
9
9
9
9
9
9
9
9
9
9
9
9
9
9
9
9
9
9
9
9
9
9
9
9
9
9
9
9
9
9
9
9
9
9
9
9
9
9
9
9
9
9
9
9
9
9
9
9
9
9
9
9
9
9
9
9
9
9
9
9
9
9
9
9
9
9
9
9
9
9
9
9
9
9
9
9
9
9
9
9
9
9
9
9
9
9
9
9
9
9
9
9
9
9
9
9
9
9
9
9
9
9
9
9
9
9
9
9
9
9
9
9
9
9
9
9
9
9
9
9
9
9
9
9
9
9
9
9
9
9
9
9
9
9
9
9
9
9
9
9
9
9
9
9
9
9
9
9
9
9
9
9
9
9
9
9
9
9
9
9
9
9
9
9
9
9
9
9
9
9
9
9
9
9
9
9
9
9
9
9
9
9
9
9
9
9
9
9
9
9
9
9
9
9
9
9
9
9
9
9
9
9
9
9
9
9
9
9
9
9
9
9
9
9
9
9
9
9
9
9
9
9
9
9
9
9
9
9
9
9
9
9
9
9
9
9
9
9
9
9
9
POINT_DATA       496
SCALARS p double 
LOOKUP_TABLE default
   90000000.0000000     
   90000000.0000000     
   90000000.0000000     
   90000000.0000000     
   90000000.0000000     
   90000000.0000000     
   90000000.0000000     
   90000000.0000000     
   90000000.0000000     
   90000000.0000000     
   90000000.0000000     
   90000000.0000000     
   90000000.0000000     
   90000000.0000000     
   90000000.0000000     
   90000000.0000000     
   87020735.1394726     
   87019924.1151439     
   87018713.0298894     
   87017706.5348638     
   87017102.1066375     
   87017011.2953960     
   87017386.4989433     
   87018043.4125194     
   87018825.7873561     
   87019623.2525813     
   87020344.2402067     
   87020909.4599890     
   87021250.5039427     
   87021317.0284577     
   87021098.6623095     
   87020765.9819990     
   84041138.6553519     
   84040614.3779432     
   84039740.8085419     
   84039222.4795648     
   84039379.3032731     
   84040176.1190922     
   84041460.4530832     
   84043074.9454385     
   84044846.1229467     
   84046608.9162807     
   84048220.8295428     
   84049558.8653816     
   84050522.7623369     
   84051049.4065080     
   84051162.2921711     
   84051086.4024977     
   81071168.8027024     
   81071163.2326943     
   81071458.1078638     
   81072351.8718272     
   81073879.2086772     
   81075987.5602965     
   81078546.9097134     
   81081386.5437303     
   81084328.8898542     
   81087200.6199925     
   81089842.1372939     
   81092114.2472857     
   81093904.0677889     
   81095140.2256436     
   81095821.0326579     
   81096024.6885582     
   78119460.5706941     
   78120052.0343084     
   78121621.0000786     
   78124016.2122334     
   78127109.2161429     
   78130740.9684414     
   78134741.0525434     
   78138931.4755031     
   78143134.1085329     
   78147179.0155843     
   78150909.0640779     
   78154183.5372728     
   78156882.1504329     
   78158909.8891507     
   78160196.5343667     
   78160673.0262084     
   75192768.6426756     
   75193848.7259181     
   75196561.0787433     
   75200401.5056099     
   75205023.8436105     
   75210159.9931981     
   75215583.5246340     
   75221096.1724745     
   75226519.7143990     
   75231691.9349322     
   75236464.4018140     
   75240700.1814538     
   75244270.6293931     
   75247048.6058795     
   75248891.7681804     
   75249606.2332110     
   72296558.9109695     
   72298035.9400281     
   72301696.7670817     
   72306767.4738422     
   72312716.6912761     
   72319165.5025859     
   72325830.9770284     
   72332492.0675197     
   72338968.5079966     
   72345106.4173710     
   72350767.5838914     
   72355819.9215006     
   72360126.5286445     
   72363530.0051374     
   72365827.3182084     
   72366730.2103522     
   69435180.1919194     
   69436946.9161226     
   69441309.8395961     
   69447301.9037671     
   69454251.7085513     
   69461690.8344682     
   69469287.6315618     
   69476801.4790300     
   69484050.9382216     
   69490890.6223551     
   69497192.9336605     
   69502831.6763991     
   69507664.6606056     
   69511512.1719128     
   69514128.0289174     
   69515160.5731781     
   66611733.3414792     
   66613673.1558334     
   66618458.4496919     
   66625004.4432730     
   66632550.2036245     
   66640567.8990550     
   66648693.4180897     
   66656674.5791482     
   66664332.5073751     
   66671532.0049969     
   66678157.3943941     
   66684090.8198470     
   66689190.2679351     
   66693264.7092601     
   66696044.0774774     
   66697142.6007056     
   63828025.9029467     
   63830019.1956593     
   63834933.5344279     
   63841638.6926917     
   63849335.6084533     
   63857470.9541536     
   63865668.8916673     
   63873677.5238596     
   63881326.9569572     
   63888495.8075478     
   63895083.2078093     
   63900983.6686039     
   63906062.4390592     
   63910129.3037495     
   63912909.2137355     
   63914008.8774014     
   61084583.4507799     
   61086514.1908907     
   61091268.8953004     
   61097738.7153049     
   61105135.7129455     
   61112915.3785176     
   61120712.6820155     
   61128290.0076349     
   61135494.8479069     
   61142224.9364082     
   61148398.5294726     
   61153927.7110435     
   61158692.8347853     
   61162516.5382064     
   61165136.2102772     
   61166174.3955249     
   58380713.9543501     
   58382475.5186124     
   58386802.5317527     
   58392666.6789861     
   58399335.8626308     
   58406306.6844419     
   58413247.1371580     
   58419948.4980562     
   58426285.0403491     
   58432179.9581894     
   58437575.8447328     
   58442408.1396446     
   58446580.1436872     
   58449938.4760730     
   58452248.2293201     
   58453167.5480262     
   55714618.1075272     
   55716118.1261284     
   55719783.2370086     
   55724715.3555091     
   55730276.5878023     
   55736033.1146424     
   55741706.2087990     
   55747129.9237406     
   55752214.6750582     
   55756915.7189628     
   55761205.4356950     
   55765048.3451197     
   55768377.9043201     
   55771074.3517914     
   55772943.1592245     
   55773694.0093400     
   53083537.3767696     
   53084701.4321503     
   53087514.4532396     
   53091247.5477015     
   53095387.7395228     
   53099594.1224494     
   53103658.3074378     
   53107469.1809912     
   53110981.7075365     
   53114189.2984876     
   53117099.1531202     
   53119709.9554157     
   53121991.3808643     
   53123865.0177730     
   53125186.5247432     
   53125729.1082430     
   50483930.3025915     
   50484704.4152561     
   50486526.1764296     
   50488863.3972238     
   50491350.2796491     
   50493756.1611796     
   50495955.9679761     
   50497902.8127977     
   50499602.9050820     
   50501092.7348894     
   50502418.3620557     
   50503616.5908805     
   50504697.8357880     
   50505630.5762910     
   50506327.4473104     
   50506633.1953508     
   47911667.0529447     
   47912018.9599436     
   47912765.1431499     
   47913586.0092761     
   47914276.4050227     
   47914726.7684750     
   47914903.6875507     
   47914830.6557761     
   47914569.5555223     
   47914203.1971079     
   47913819.1037758     
   47913494.6588652     
   47913283.7198578     
   47913204.8478340     
   47913231.3900638     
   47913283.7744388     
   45362232.2660410     
   45362151.5619304     
   45361793.5514781     
   45361055.8500102     
   45359898.7069146     
   45358337.9349530     
   45356435.2562420     
   45354287.1380658     
   45352012.9414787     
   45349743.0105282     
   45347607.1880195     
   45345724.1535359     
   45344191.9382443     
   45343079.9741258     
   45342423.0756294     
   45342217.8203449     
   42830926.7675490     
   42830424.0287892     
   42828987.0795830     
   42826724.8585331     
   42823759.5239156     
   42820230.1642904     
   42816292.2643964     
   42812114.2067419     
   42807871.8567091     
   42803742.0961507     
   42799896.0301640     
   42796492.4904140     
   42793672.3937905     
   42791554.4845787     
   42790232.9877373     
   42789777.7252893     
   40313059.6889068     
   40312164.7400862     
   40309723.8631249     
   40306042.0746077     
   40301392.4614137     
   40296029.3953058     
   40290196.1741542     
   40284128.5012824     
   40278055.0116988     
   40272195.8913430     
   40266760.5021102     
   40261944.8174447     
   40257929.3900773     
   40254878.5147178     
   40252941.2130820     
   40252254.6547835     
   37804123.7304414     
   37802883.2345988     
   37799557.2639986     
   37794623.7117857     
   37788489.1297054     
   37781509.9801906     
   37774007.3063625     
   37766276.2904397     
   37758592.0140098     
   37751212.5999635     
   37744380.7937032     
   37738324.9292988     
   37733260.1275141     
   37729390.4898788     
   37726912.9874533     
   37726023.6951677     
   35299947.6897024     
   35298422.2571143     
   35294366.5984687     
   35288401.9004771     
   35281045.3994687     
   35272738.1067345     
   35263865.2316865     
   35254770.7702069     
   35245767.6328844     
   35237144.5905422     
   35229171.2045762     
   35222101.7934590     
   35216179.3736365     
   35211640.4093930     
   35208721.1148105     
   35207665.9728365     
   32796821.8095923     
   32795082.8224772     
   32790481.3941130     
   32783747.6924041     
   32775482.7986441     
   32766191.3316175     
   32756306.2853734     
   32746207.5017512     
   32736235.1900826     
   32726699.8474594     
   32717889.8303734     
   32710077.7037944     
   32703526.3652060     
   32698495.8191492     
   32695251.3650196     
   32694073.8563687     
   30291592.9077873     
   30289719.2560853     
   30284776.1303661     
   30277565.2779786     
   30268742.0030640     
   30258851.1842085     
   30248355.1789692     
   30237654.9819980     
   30227106.0925165     
   30217030.5148687     
   30207726.2064890     
   30199475.1453102     
   30192551.0418507     
   30187227.5828343     
   30183787.9655983     
   30182536.3577610     
   27781727.5623925     
   27779802.4827679     
   27774733.7233655     
   27767355.6600657     
   27758346.6458740     
   27748267.0500136     
   27737588.9052876     
   27726718.5322289     
   27716013.6823182     
   27705796.7008783     
   27696365.0705652     
   27688000.5267578     
   27680977.7641086     
   27675573.6009209     
   27672077.3329311     
   27670802.8761534     
   25265342.7985084     
   25263451.0113476     
   25258477.1958802     
   25251249.2079273     
   25242436.8483645     
   25232590.7139406     
   25222172.2898537     
   25211576.8244499     
   25201150.6863715     
   25191204.7860915     
   25182025.4554459     
   25173883.9680200     
   25167045.6861579     
   25161779.6369778     
   25158369.1959927     
   25157124.4355788     
   22741204.7030399     
   22739430.0624574     
   22734769.9940955     
   22728007.5562843     
   22719772.9400612     
   22710582.0228704     
   22700865.6180054     
   22690991.4224204     
   22681280.5739728     
   22672020.4744105     
   22663475.2860469     
   22655895.2742844     
   22649525.8936697     
   22644617.3557558     
   22641435.2199445     
   22640272.5255872     
   20208696.1464908     
   20207120.0745175     
   20202986.2413459     
   20196996.2109422     
   20189710.7999861     
   20181587.1300843     
   20173005.7658378     
   20164290.6885763     
   20155724.0757659     
   20147557.7089894     
   20140022.4948503     
   20133337.0349622     
   20127716.2397089     
   20123380.5275365     
   20120566.1094690     
   20119536.5619970     
   17667755.1914452     
   17666456.3326506     
   17663052.8350662     
   17658129.9839264     
   17652151.1982381     
   17645491.7435222     
   17638463.1824693     
   17631330.3313278     
   17624322.9810755     
   17617645.3804785     
   17611484.3104923     
   17606016.4229247     
   17601415.4210687     
   17597861.0686991     
   17595549.0050917     
   17594701.7783102     
   15118785.8688477     
   15117841.6418391     
   15115365.4540617     
   15111794.3839572     
   15107466.5347221     
   15102652.5587316     
   15097578.0735018     
   15092433.7875156     
   15087384.1267586     
   15082574.4094773     
   15078137.0754870     
   15074197.2753723     
   15070878.3321625     
   15068307.0528010     
   15066627.5441404     
   15066010.6420368     
   12562541.8503898     
   12562032.6268894     
   12560681.9606966     
   12558747.6545741     
   12556407.9662534     
   12553811.5135783     
   12551080.3969997     
   12548316.6172588     
   12545607.1495972     
   12543028.2638090     
   12540649.2123211     
   12538535.5151516     
   12536751.9670216     
   12535366.0602542     
   12534448.2109010     
   12534110.0399725     
   10000000.0000000     
   10000000.0000000     
   10000000.0000000     
   10000000.0000000     
   10000000.0000000     
   10000000.0000000     
   10000000.0000000     
   10000000.0000000     
   10000000.0000000     
   10000000.0000000     
   10000000.0000000     
   10000000.0000000     
   10000000.0000000     
  10000000.00000000     
   10000000.0000000     
   10000000.0000000     
VECTORS u double 
    0.00000E+00         0.21146E-01         0.00000E+00
    0.00000E+00         0.20426E-01         0.00000E+00
    0.00000E+00         0.19299E-01         0.00000E+00
    0.00000E+00         0.17927E-01         0.00000E+00
    0.00000E+00         0.16442E-01         0.00000E+00
    0.00000E+00         0.14960E-01         0.00000E+00
    0.00000E+00         0.13525E-01         0.00000E+00
    0.00000E+00         0.12136E-01         0.00000E+00
    0.00000E+00         0.10773E-01         0.00000E+00
    0.00000E+00         0.94170E-02         0.00000E+00
    0.00000E+00         0.80476E-02         0.00000E+00
    0.00000E+00         0.66441E-02         0.00000E+00
    0.00000E+00         0.51814E-02         0.00000E+00
    0.00000E+00         0.36270E-02         0.00000E+00
    0.00000E+00         0.19341E-02         0.00000E+00
    0.00000E+00         0.00000E+00         0.00000E+00
    0.58711E-02         0.20533E-01         0.00000E+00
    0.50393E-02         0.19749E-01         0.00000E+00
    0.41554E-02         0.18667E-01         0.00000E+00
    0.34012E-02         0.17394E-01         0.00000E+00
    0.27655E-02         0.16043E-01         0.00000E+00
    0.23703E-02         0.14675E-01         0.00000E+00
    0.21464E-02         0.13312E-01         0.00000E+00
    0.19662E-02         0.11966E-01         0.00000E+00
    0.18014E-02         0.10633E-01         0.00000E+00
    0.16394E-02         0.92992E-02         0.00000E+00
    0.14714E-02         0.79486E-02         0.00000E+00
    0.12888E-02         0.65613E-02         0.00000E+00
    0.10807E-02         0.51130E-02         0.00000E+00
    0.83012E-03         0.35722E-02         0.00000E+00
    0.50543E-03         0.18925E-02         0.00000E+00
    0.00000E+00         0.00000E+00         0.00000E+00
    0.10059E-01         0.19548E-01         0.00000E+00
    0.86504E-02         0.18527E-01         0.00000E+00
    0.72298E-02         0.17437E-01         0.00000E+00
    0.60365E-02         0.16300E-01         0.00000E+00
    0.51707E-02         0.15131E-01         0.00000E+00
    0.45560E-02         0.13938E-01         0.00000E+00
    0.41048E-02         0.12718E-01         0.00000E+00
    0.37370E-02         0.11477E-01         0.00000E+00
    0.34027E-02         0.10223E-01         0.00000E+00
    0.30767E-02         0.89541E-02         0.00000E+00
    0.27405E-02         0.76580E-02         0.00000E+00
    0.23770E-02         0.63189E-02         0.00000E+00
    0.19652E-02         0.49153E-02         0.00000E+00
    0.14749E-02         0.34187E-02         0.00000E+00
    0.85206E-03         0.17915E-02         0.00000E+00
    0.00000E+00         0.00000E+00         0.00000E+00
    0.13138E-01         0.17877E-01         0.00000E+00
    0.11307E-01         0.16912E-01         0.00000E+00
    0.97325E-02         0.15925E-01         0.00000E+00
    0.84153E-02         0.14940E-01         0.00000E+00
    0.73661E-02         0.13939E-01         0.00000E+00
    0.65471E-02         0.12902E-01         0.00000E+00
    0.58908E-02         0.11828E-01         0.00000E+00
    0.53342E-02         0.10718E-01         0.00000E+00
    0.48276E-02         0.95763E-02         0.00000E+00
    0.43361E-02         0.84037E-02         0.00000E+00
    0.38329E-02         0.71935E-02         0.00000E+00
    0.32928E-02         0.59334E-02         0.00000E+00
    0.26870E-02         0.46059E-02         0.00000E+00
    0.19772E-02         0.31890E-02         0.00000E+00
    0.11075E-02         0.16592E-02         0.00000E+00
    0.00000E+00         0.00000E+00         0.00000E+00
    0.15712E-01         0.15831E-01         0.00000E+00
    0.13721E-01         0.15037E-01         0.00000E+00
    0.12007E-01         0.14219E-01         0.00000E+00
    0.10554E-01         0.13384E-01         0.00000E+00
    0.93444E-02         0.12528E-01         0.00000E+00
    0.83437E-02         0.11639E-01         0.00000E+00
    0.75023E-02         0.10711E-01         0.00000E+00
    0.67672E-02         0.97406E-02         0.00000E+00
    0.60918E-02         0.87297E-02         0.00000E+00
    0.54374E-02         0.76773E-02         0.00000E+00
    0.47713E-02         0.65790E-02         0.00000E+00
    0.40625E-02         0.54258E-02         0.00000E+00
    0.32772E-02         0.42051E-02         0.00000E+00
    0.23744E-02         0.29018E-02         0.00000E+00
    0.13028E-02         0.15024E-02         0.00000E+00
    0.00000E+00         0.00000E+00         0.00000E+00
    0.18056E-01         0.13608E-01         0.00000E+00
    0.15909E-01         0.12978E-01         0.00000E+00
    0.14057E-01         0.12321E-01         0.00000E+00
    0.12466E-01         0.11640E-01         0.00000E+00
    0.11109E-01         0.10933E-01         0.00000E+00
    0.99477E-02         0.10192E-01         0.00000E+00
    0.89404E-02         0.94121E-02         0.00000E+00
    0.80411E-02         0.85886E-02         0.00000E+00
    0.72062E-02         0.77202E-02         0.00000E+00
    0.63962E-02         0.68053E-02         0.00000E+00
    0.55754E-02         0.58400E-02         0.00000E+00
    0.47093E-02         0.48180E-02         0.00000E+00
    0.37617E-02         0.37308E-02         0.00000E+00
    0.26923E-02         0.25691E-02         0.00000E+00
    0.14553E-02         0.13260E-02         0.00000E+00
    0.00000E+00         0.00000E+00         0.00000E+00
    0.20153E-01         0.11226E-01         0.00000E+00
    0.17867E-01         0.10757E-01         0.00000E+00
    0.15883E-01         0.10260E-01         0.00000E+00
    0.14162E-01         0.97351E-02         0.00000E+00
    0.12668E-01         0.91810E-02         0.00000E+00
    0.11364E-01         0.85927E-02         0.00000E+00
    0.10209E-01         0.79653E-02         0.00000E+00
    0.91611E-02         0.72950E-02         0.00000E+00
    0.81795E-02         0.65791E-02         0.00000E+00
    0.72252E-02         0.58153E-02         0.00000E+00
    0.62613E-02         0.50002E-02         0.00000E+00
    0.52519E-02         0.41295E-02         0.00000E+00
    0.41606E-02         0.31978E-02         0.00000E+00
    0.29488E-02         0.22001E-02         0.00000E+00
    0.15758E-02         0.11336E-02         0.00000E+00
    0.00000E+00         0.00000E+00         0.00000E+00
    0.21997E-01         0.87090E-02         0.00000E+00
    0.19591E-01         0.83986E-02         0.00000E+00
    0.17489E-01         0.80607E-02         0.00000E+00
    0.15649E-01         0.76945E-02         0.00000E+00
    0.14032E-01         0.72977E-02         0.00000E+00
    0.12600E-01         0.68666E-02         0.00000E+00
    0.11314E-01         0.63976E-02         0.00000E+00
    0.10134E-01         0.58871E-02         0.00000E+00
    0.90200E-02         0.53323E-02         0.00000E+00
    0.79351E-02         0.47309E-02         0.00000E+00
    0.68421E-02         0.40801E-02         0.00000E+00
    0.57051E-02         0.33770E-02         0.00000E+00
    0.44885E-02         0.26184E-02         0.00000E+00
    0.31561E-02         0.18022E-02         0.00000E+00
    0.16717E-02         0.92824E-03         0.00000E+00
    0.00000E+00         0.00000E+00         0.00000E+00
    0.23587E-01         0.60833E-02         0.00000E+00
    0.21082E-01         0.59290E-02         0.00000E+00
    0.18878E-01         0.57499E-02         0.00000E+00
    0.16933E-01         0.55434E-02         0.00000E+00
    0.15208E-01         0.53069E-02         0.00000E+00
    0.13663E-01         0.50374E-02         0.00000E+00
    0.12262E-01         0.47319E-02         0.00000E+00
    0.10965E-01         0.43874E-02         0.00000E+00
    0.97353E-02         0.40016E-02         0.00000E+00
    0.85350E-02         0.35721E-02         0.00000E+00
    0.73284E-02         0.30970E-02         0.00000E+00
    0.60803E-02         0.25744E-02         0.00000E+00
    0.47565E-02         0.20027E-02         0.00000E+00
    0.33231E-02         0.13817E-02         0.00000E+00
    0.17478E-02         0.71268E-03         0.00000E+00
    0.00000E+00         0.00000E+00         0.00000E+00
    0.24927E-01         0.33721E-02         0.00000E+00
    0.22343E-01         0.33722E-02         0.00000E+00
    0.20054E-01         0.33509E-02         0.00000E+00
    0.18019E-01         0.33047E-02         0.00000E+00
    0.16201E-01         0.32306E-02         0.00000E+00
    0.14560E-01         0.31260E-02         0.00000E+00
    0.13060E-01         0.29884E-02         0.00000E+00
    0.11663E-01         0.28154E-02         0.00000E+00
    0.10333E-01         0.26050E-02         0.00000E+00
    0.90332E-02         0.23553E-02         0.00000E+00
    0.77290E-02         0.20651E-02         0.00000E+00
    0.63865E-02         0.17332E-02         0.00000E+00
    0.49726E-02         0.13591E-02         0.00000E+00
    0.34562E-02         0.94370E-03         0.00000E+00
    0.18075E-02         0.48916E-03         0.00000E+00
    0.00000E+00         0.00000E+00         0.00000E+00
    0.26022E-01         0.59656E-03         0.00000E+00
    0.23378E-01         0.74948E-03         0.00000E+00
    0.21021E-01         0.88505E-03         0.00000E+00
    0.18913E-01         0.99910E-03         0.00000E+00
    0.17017E-01         0.10887E-02         0.00000E+00
    0.15296E-01         0.11513E-02         0.00000E+00
    0.13714E-01         0.11850E-02         0.00000E+00
    0.12233E-01         0.11878E-02         0.00000E+00
    0.10819E-01         0.11580E-02         0.00000E+00
    0.94364E-02         0.10946E-02         0.00000E+00
    0.80511E-02         0.99633E-03         0.00000E+00
    0.66304E-02         0.86293E-03         0.00000E+00
    0.51431E-02         0.69461E-03         0.00000E+00
    0.35598E-02         0.49264E-03         0.00000E+00
    0.18534E-02         0.25966E-03         0.00000E+00
    0.00000E+00         0.00000E+00         0.00000E+00
    0.26880E-01        -0.22247E-02         0.00000E+00
    0.24193E-01        -0.19203E-02         0.00000E+00
    0.21784E-01        -0.16292E-02         0.00000E+00
    0.19619E-01        -0.13553E-02         0.00000E+00
    0.17662E-01        -0.11016E-02         0.00000E+00
    0.15877E-01        -0.87019E-03         0.00000E+00
    0.14229E-01        -0.66284E-03         0.00000E+00
    0.12681E-01        -0.48101E-03         0.00000E+00
    0.11200E-01        -0.32593E-03         0.00000E+00
    0.97505E-02        -0.19851E-03         0.00000E+00
    0.83004E-02        -0.99292E-04         0.00000E+00
    0.68177E-02        -0.28336E-04         0.00000E+00
    0.52726E-02         0.14983E-04         0.00000E+00
    0.36375E-02         0.32171E-04         0.00000E+00
    0.18872E-02         0.25861E-04         0.00000E+00
    0.00000E+00         0.00000E+00         0.00000E+00
    0.27506E-01        -0.50756E-02         0.00000E+00
    0.24792E-01        -0.46211E-02         0.00000E+00
    0.22348E-01        -0.41756E-02         0.00000E+00
    0.20142E-01        -0.37427E-02         0.00000E+00
    0.18140E-01        -0.33249E-02         0.00000E+00
    0.16308E-01        -0.29239E-02         0.00000E+00
    0.14610E-01        -0.25413E-02         0.00000E+00
    0.13012E-01        -0.21782E-02         0.00000E+00
    0.11480E-01        -0.18355E-02         0.00000E+00
    0.99804E-02        -0.15137E-02         0.00000E+00
    0.84815E-02        -0.12132E-02         0.00000E+00
    0.69525E-02        -0.93385E-03         0.00000E+00
    0.53647E-02        -0.67479E-03         0.00000E+00
    0.36918E-02        -0.43455E-03         0.00000E+00
    0.19103E-02        -0.21076E-03         0.00000E+00
    0.00000E+00         0.00000E+00         0.00000E+00
    0.27908E-01        -0.79419E-02         0.00000E+00
    0.25180E-01        -0.73387E-02         0.00000E+00
    0.22716E-01        -0.67402E-02         0.00000E+00
    0.20485E-01        -0.61492E-02         0.00000E+00
    0.18455E-01        -0.55677E-02         0.00000E+00
    0.16591E-01        -0.49971E-02         0.00000E+00
    0.14861E-01        -0.44385E-02         0.00000E+00
    0.13229E-01        -0.38928E-02         0.00000E+00
    0.11663E-01        -0.33606E-02         0.00000E+00
    0.10130E-01        -0.28423E-02         0.00000E+00
    0.85983E-02        -0.23381E-02         0.00000E+00
    0.70382E-02        -0.18477E-02         0.00000E+00
    0.54221E-02        -0.13704E-02         0.00000E+00
    0.37246E-02        -0.90479E-03         0.00000E+00
    0.19236E-02        -0.44890E-03         0.00000E+00
    0.00000E+00         0.00000E+00         0.00000E+00
    0.28090E-01        -0.10812E-01         0.00000E+00
    0.25361E-01        -0.10061E-01         0.00000E+00
    0.22892E-01        -0.93106E-02         0.00000E+00
    0.20651E-01        -0.85626E-02         0.00000E+00
    0.18609E-01        -0.78181E-02         0.00000E+00
    0.16731E-01        -0.70781E-02         0.00000E+00
    0.14985E-01        -0.63434E-02         0.00000E+00
    0.13337E-01        -0.56146E-02         0.00000E+00
    0.11753E-01        -0.48922E-02         0.00000E+00
    0.10203E-01        -0.41764E-02         0.00000E+00
    0.86535E-02        -0.34674E-02         0.00000E+00
    0.70773E-02        -0.27648E-02         0.00000E+00
    0.54467E-02        -0.20680E-02         0.00000E+00
    0.37374E-02        -0.13761E-02         0.00000E+00
    0.19279E-02        -0.68741E-03         0.00000E+00
    0.00000E+00         0.00000E+00         0.00000E+00
    0.28057E-01        -0.13673E-01         0.00000E+00
    0.25339E-01        -0.12776E-01         0.00000E+00
    0.22878E-01        -0.11876E-01         0.00000E+00
    0.20644E-01        -0.10972E-01         0.00000E+00
    0.18606E-01        -0.10065E-01         0.00000E+00
    0.16731E-01        -0.91567E-02         0.00000E+00
    0.14986E-01        -0.82464E-02         0.00000E+00
    0.13337E-01        -0.73347E-02         0.00000E+00
    0.11753E-01        -0.64221E-02         0.00000E+00
    0.10200E-01        -0.55089E-02         0.00000E+00
    0.86494E-02        -0.45950E-02         0.00000E+00
    0.70715E-02        -0.36802E-02         0.00000E+00
    0.54401E-02        -0.27642E-02         0.00000E+00
    0.37311E-02        -0.18462E-02         0.00000E+00
    0.19236E-02        -0.92521E-03         0.00000E+00
    0.00000E+00         0.00000E+00         0.00000E+00
    0.27811E-01        -0.16517E-01         0.00000E+00
    0.25116E-01        -0.15475E-01         0.00000E+00
    0.22677E-01        -0.14425E-01         0.00000E+00
    0.20464E-01        -0.13367E-01         0.00000E+00
    0.18447E-01        -0.12299E-01         0.00000E+00
    0.16591E-01        -0.11223E-01         0.00000E+00
    0.14864E-01        -0.10138E-01         0.00000E+00
    0.13232E-01        -0.90443E-02         0.00000E+00
    0.11663E-01        -0.79425E-02         0.00000E+00
    0.10125E-01        -0.68328E-02         0.00000E+00
    0.85873E-02        -0.57151E-02         0.00000E+00
    0.70222E-02        -0.45895E-02         0.00000E+00
    0.54031E-02        -0.34555E-02         0.00000E+00
    0.37064E-02        -0.23130E-02         0.00000E+00
    0.19111E-02        -0.11613E-02         0.00000E+00
    0.00000E+00         0.00000E+00         0.00000E+00
    0.27353E-01        -0.19332E-01         0.00000E+00
    0.24693E-01        -0.18147E-01         0.00000E+00
    0.22290E-01        -0.16949E-01         0.00000E+00
    0.20114E-01        -0.15737E-01         0.00000E+00
    0.18133E-01        -0.14510E-01         0.00000E+00
    0.16314E-01        -0.13267E-01         0.00000E+00
    0.14621E-01        -0.12009E-01         0.00000E+00
    0.13023E-01        -0.10735E-01         0.00000E+00
    0.11485E-01        -0.94455E-02         0.00000E+00
    0.99769E-02        -0.81413E-02         0.00000E+00
    0.84679E-02        -0.68222E-02         0.00000E+00
    0.69297E-02        -0.54880E-02         0.00000E+00
    0.53362E-02        -0.41388E-02         0.00000E+00
    0.36634E-02        -0.27743E-02         0.00000E+00
    0.18905E-02        -0.13946E-02         0.00000E+00
    0.00000E+00         0.00000E+00         0.00000E+00
    0.26682E-01        -0.22108E-01         0.00000E+00
    0.24069E-01        -0.20781E-01         0.00000E+00
    0.21717E-01        -0.19437E-01         0.00000E+00
    0.19594E-01        -0.18073E-01         0.00000E+00
    0.17666E-01        -0.16687E-01         0.00000E+00
    0.15900E-01        -0.15279E-01         0.00000E+00
    0.14259E-01        -0.13849E-01         0.00000E+00
    0.12710E-01        -0.12397E-01         0.00000E+00
    0.11220E-01        -0.10923E-01         0.00000E+00
    0.97569E-02        -0.94274E-02         0.00000E+00
    0.82912E-02        -0.79102E-02         0.00000E+00
    0.67940E-02        -0.63712E-02         0.00000E+00
    0.52390E-02        -0.48104E-02         0.00000E+00
    0.36020E-02        -0.32280E-02         0.00000E+00
    0.18617E-02        -0.16242E-02         0.00000E+00
    0.00000E+00         0.00000E+00         0.00000E+00
    0.25797E-01        -0.24835E-01         0.00000E+00
    0.23243E-01        -0.23367E-01         0.00000E+00
    0.20957E-01        -0.21877E-01         0.00000E+00
    0.18903E-01        -0.20362E-01         0.00000E+00
    0.17046E-01        -0.18820E-01         0.00000E+00
    0.15349E-01        -0.17249E-01         0.00000E+00
    0.13776E-01        -0.15649E-01         0.00000E+00
    0.12293E-01        -0.14022E-01         0.00000E+00
    0.10866E-01        -0.12366E-01         0.00000E+00
    0.94643E-02        -0.10683E-01         0.00000E+00
    0.80564E-02        -0.89727E-02         0.00000E+00
    0.66141E-02        -0.72339E-02         0.00000E+00
    0.51108E-02        -0.54669E-02         0.00000E+00
    0.35216E-02        -0.36717E-02         0.00000E+00
    0.18244E-02        -0.18489E-02         0.00000E+00
    0.00000E+00         0.00000E+00         0.00000E+00
    0.24692E-01        -0.27500E-01         0.00000E+00
    0.22213E-01        -0.25892E-01         0.00000E+00
    0.20009E-01        -0.24258E-01         0.00000E+00
    0.18042E-01        -0.22593E-01         0.00000E+00
    0.16272E-01        -0.20895E-01         0.00000E+00
    0.14662E-01        -0.19163E-01         0.00000E+00
    0.13174E-01        -0.17397E-01         0.00000E+00
    0.11772E-01        -0.15598E-01         0.00000E+00
    0.10424E-01        -0.13766E-01         0.00000E+00
    0.90974E-02        -0.11901E-01         0.00000E+00
    0.77617E-02        -0.10003E-01         0.00000E+00
    0.63883E-02        -0.80706E-02         0.00000E+00
    0.49499E-02        -0.61041E-02         0.00000E+00
    0.34209E-02        -0.41029E-02         0.00000E+00
    0.17778E-02        -0.20675E-02         0.00000E+00
    0.00000E+00         0.00000E+00         0.00000E+00
    0.23364E-01        -0.30089E-01         0.00000E+00
    0.20976E-01        -0.28343E-01         0.00000E+00
    0.18872E-01        -0.26565E-01         0.00000E+00
    0.17009E-01        -0.24752E-01         0.00000E+00
    0.15345E-01        -0.22899E-01         0.00000E+00
    0.13838E-01        -0.21008E-01         0.00000E+00
    0.12450E-01        -0.19079E-01         0.00000E+00
    0.11146E-01        -0.17113E-01         0.00000E+00
    0.98910E-02        -0.15110E-01         0.00000E+00
    0.86538E-02        -0.13070E-01         0.00000E+00
    0.74043E-02        -0.10992E-01         0.00000E+00
    0.61136E-02        -0.88750E-02         0.00000E+00
    0.47537E-02        -0.67176E-02         0.00000E+00
    0.32979E-02        -0.45188E-02         0.00000E+00
    0.17210E-02        -0.22789E-02         0.00000E+00
    0.00000E+00         0.00000E+00         0.00000E+00
    0.21804E-01        -0.32584E-01         0.00000E+00
    0.19526E-01        -0.30701E-01         0.00000E+00
    0.17542E-01        -0.28782E-01         0.00000E+00
    0.15803E-01        -0.26820E-01         0.00000E+00
    0.14262E-01        -0.24815E-01         0.00000E+00
    0.12876E-01        -0.22768E-01         0.00000E+00
    0.11605E-01        -0.20680E-01         0.00000E+00
    0.10412E-01        -0.18552E-01         0.00000E+00
    0.92638E-02        -0.16386E-01         0.00000E+00
    0.81297E-02        -0.14179E-01         0.00000E+00
    0.69799E-02        -0.11931E-01         0.00000E+00
    0.57857E-02        -0.96400E-02         0.00000E+00
    0.45184E-02        -0.73023E-02         0.00000E+00
    0.31498E-02        -0.49163E-02         0.00000E+00
    0.16523E-02        -0.24816E-02         0.00000E+00
    0.00000E+00         0.00000E+00         0.00000E+00
    0.20007E-01        -0.34967E-01         0.00000E+00
    0.17860E-01        -0.32948E-01         0.00000E+00
    0.16018E-01        -0.30887E-01         0.00000E+00
    0.14424E-01        -0.28779E-01         0.00000E+00
    0.13025E-01        -0.26624E-01         0.00000E+00
    0.11776E-01        -0.24424E-01         0.00000E+00
    0.10635E-01        -0.22182E-01         0.00000E+00
    0.95670E-02        -0.19900E-01         0.00000E+00
    0.85384E-02        -0.17579E-01         0.00000E+00
    0.75199E-02        -0.15216E-01         0.00000E+00
    0.64828E-02        -0.12811E-01         0.00000E+00
    0.53987E-02        -0.10357E-01         0.00000E+00
    0.42385E-02        -0.78523E-02         0.00000E+00
    0.29724E-02        -0.52918E-02         0.00000E+00
    0.15697E-02        -0.26740E-02         0.00000E+00
    0.00000E+00         0.00000E+00         0.00000E+00
    0.17962E-01        -0.37213E-01         0.00000E+00
    0.15974E-01        -0.35060E-01         0.00000E+00
    0.14298E-01        -0.32858E-01         0.00000E+00
    0.12871E-01        -0.30604E-01         0.00000E+00
    0.11633E-01        -0.28301E-01         0.00000E+00
    0.10537E-01        -0.25953E-01         0.00000E+00
    0.95396E-02        -0.23564E-01         0.00000E+00
    0.86073E-02        -0.21137E-01         0.00000E+00
    0.77092E-02        -0.18672E-01         0.00000E+00
    0.68174E-02        -0.16167E-01         0.00000E+00
    0.59050E-02        -0.13618E-01         0.00000E+00
    0.49445E-02        -0.11018E-01         0.00000E+00
    0.39067E-02        -0.83612E-02         0.00000E+00
    0.27600E-02        -0.56415E-02         0.00000E+00
    0.14697E-02        -0.28545E-02         0.00000E+00
    0.00000E+00         0.00000E+00         0.00000E+00
    0.15661E-01        -0.39294E-01         0.00000E+00
    0.13862E-01        -0.37009E-01         0.00000E+00
    0.12382E-01        -0.34666E-01         0.00000E+00
    0.11145E-01        -0.32268E-01         0.00000E+00
    0.10087E-01        -0.29820E-01         0.00000E+00
    0.91566E-02        -0.27330E-01         0.00000E+00
    0.83143E-02        -0.24803E-01         0.00000E+00
    0.75276E-02        -0.22243E-01         0.00000E+00
    0.67689E-02        -0.19648E-01         0.00000E+00
    0.60133E-02        -0.17015E-01         0.00000E+00
    0.52363E-02        -0.14339E-01         0.00000E+00
    0.44124E-02        -0.11611E-01         0.00000E+00
    0.35129E-02        -0.88216E-02         0.00000E+00
    0.25045E-02        -0.59609E-02         0.00000E+00
    0.13481E-02        -0.30213E-02         0.00000E+00
    0.00000E+00         0.00000E+00         0.00000E+00
    0.13094E-01        -0.41176E-01         0.00000E+00
    0.11523E-01        -0.38758E-01         0.00000E+00
    0.10271E-01        -0.36275E-01         0.00000E+00
    0.92488E-02        -0.33735E-01         0.00000E+00
    0.83865E-02        -0.31148E-01         0.00000E+00
    0.76340E-02        -0.28525E-01         0.00000E+00
    0.69548E-02        -0.25873E-01         0.00000E+00
    0.63206E-02        -0.23193E-01         0.00000E+00
    0.57081E-02        -0.20485E-01         0.00000E+00
    0.50961E-02        -0.17743E-01         0.00000E+00
    0.44639E-02        -0.14960E-01         0.00000E+00
    0.37888E-02        -0.12125E-01         0.00000E+00
    0.30438E-02        -0.92248E-02         0.00000E+00
    0.21949E-02        -0.62449E-02         0.00000E+00
    0.11983E-02        -0.31723E-02         0.00000E+00
    0.00000E+00         0.00000E+00         0.00000E+00
    0.10252E-01        -0.42813E-01         0.00000E+00
    0.89559E-02        -0.40264E-01         0.00000E+00
    0.79696E-02        -0.37641E-01         0.00000E+00
    0.71855E-02        -0.34963E-01         0.00000E+00
    0.65325E-02        -0.32246E-01         0.00000E+00
    0.59656E-02        -0.29505E-01         0.00000E+00
    0.54546E-02        -0.26744E-01         0.00000E+00
    0.49772E-02        -0.23965E-01         0.00000E+00
    0.45153E-02        -0.21164E-01         0.00000E+00
    0.40525E-02        -0.18334E-01         0.00000E+00
    0.35724E-02        -0.15466E-01         0.00000E+00
    0.30565E-02        -0.12547E-01         0.00000E+00
    0.24818E-02        -0.95610E-02         0.00000E+00
    0.18158E-02        -0.64871E-02         0.00000E+00
    0.10109E-02        -0.33052E-02         0.00000E+00
    0.00000E+00         0.00000E+00         0.00000E+00
    0.71234E-02        -0.44148E-01         0.00000E+00
    0.61670E-02        -0.41467E-01         0.00000E+00
    0.54863E-02        -0.38708E-01         0.00000E+00
    0.49589E-02        -0.35902E-01         0.00000E+00
    0.45228E-02        -0.33075E-01         0.00000E+00
    0.41450E-02        -0.30237E-01         0.00000E+00
    0.38044E-02        -0.27392E-01         0.00000E+00
    0.34859E-02        -0.24536E-01         0.00000E+00
    0.31770E-02        -0.21665E-01         0.00000E+00
    0.28669E-02        -0.18771E-01         0.00000E+00
    0.25441E-02        -0.15842E-01         0.00000E+00
    0.21957E-02        -0.12864E-01         0.00000E+00
    0.18046E-02        -0.98176E-02         0.00000E+00
    0.13453E-02        -0.66793E-02         0.00000E+00
    0.77137E-03        -0.34166E-02         0.00000E+00
    0.00000E+00         0.00000E+00         0.00000E+00
    0.37018E-02        -0.45096E-01         0.00000E+00
    0.31731E-02        -0.42284E-01         0.00000E+00
    0.28311E-02        -0.39400E-01         0.00000E+00
    0.25675E-02        -0.36497E-01         0.00000E+00
    0.23501E-02        -0.33593E-01         0.00000E+00
    0.21616E-02        -0.30691E-01         0.00000E+00
    0.19915E-02        -0.27791E-01         0.00000E+00
    0.18322E-02        -0.24887E-01         0.00000E+00
    0.16776E-02        -0.21973E-01         0.00000E+00
    0.15221E-02        -0.19039E-01         0.00000E+00
    0.13599E-02        -0.16074E-01         0.00000E+00
    0.11844E-02        -0.13060E-01         0.00000E+00
    0.98649E-03        -0.99804E-02         0.00000E+00
    0.75191E-03        -0.68071E-02         0.00000E+00
    0.45341E-03        -0.35013E-02         0.00000E+00
    0.00000E+00         0.00000E+00         0.00000E+00
    0.00000E+00        -0.45500E-01         0.00000E+00
    0.00000E+00        -0.42584E-01         0.00000E+00
    0.00000E+00        -0.39642E-01         0.00000E+00
    0.00000E+00        -0.36702E-01         0.00000E+00
    0.00000E+00        -0.33770E-01         0.00000E+00
    0.00000E+00        -0.30845E-01         0.00000E+00
    0.00000E+00        -0.27926E-01         0.00000E+00
    0.00000E+00        -0.25006E-01         0.00000E+00
    0.00000E+00        -0.22077E-01         0.00000E+00
    0.00000E+00        -0.19130E-01         0.00000E+00
    0.00000E+00        -0.16152E-01         0.00000E+00
    0.00000E+00        -0.13127E-01         0.00000E+00
    0.00000E+00        -0.10037E-01         0.00000E+00
    0.00000E+00        -0.68526E-02         0.00000E+00
    0.00000E+00        -0.35363E-02         0.00000E+00
    0.00000E+00         0.00000E+00         0.00000E+00
CELL_DATA        450
VECTORS vDarcy double 
    0.21393E-07        -0.29114E-11         0.00000E+00
    0.21391E-07        -0.43457E-11         0.00000E+00
    0.21388E-07        -0.36098E-11         0.00000E+00
    0.21383E-07        -0.21667E-11         0.00000E+00
    0.21377E-07        -0.32540E-12         0.00000E+00
    0.21370E-07         0.13441E-11         0.00000E+00
    0.21362E-07         0.23528E-11         0.00000E+00
    0.21354E-07         0.28017E-11         0.00000E+00
    0.21345E-07         0.28553E-11         0.00000E+00
    0.21337E-07         0.25812E-11         0.00000E+00
    0.21330E-07         0.20233E-11         0.00000E+00
    0.21324E-07         0.12207E-11         0.00000E+00
    0.21321E-07         0.23808E-12         0.00000E+00
    0.21318E-07        -0.78139E-12         0.00000E+00
    0.21317E-07        -0.11903E-11         0.00000E+00
    0.21366E-07        -0.47878E-11         0.00000E+00
    0.21357E-07        -0.74724E-11         0.00000E+00
    0.21348E-07        -0.54641E-11         0.00000E+00
    0.21339E-07        -0.16036E-11         0.00000E+00
    0.21329E-07         0.25289E-11         0.00000E+00
    0.21319E-07         0.59434E-11         0.00000E+00
    0.21309E-07         0.81333E-11         0.00000E+00
    0.21299E-07         0.91423E-11         0.00000E+00
    0.21289E-07         0.91651E-11         0.00000E+00
    0.21280E-07         0.83502E-11         0.00000E+00
    0.21271E-07         0.68116E-11         0.00000E+00
    0.21264E-07         0.46698E-11         0.00000E+00
    0.21258E-07         0.21225E-11         0.00000E+00
    0.21253E-07        -0.37738E-12         0.00000E+00
    0.21248E-07        -0.14616E-11         0.00000E+00
    0.21280E-07        -0.18983E-11         0.00000E+00
    0.21270E-07        -0.20729E-11         0.00000E+00
    0.21258E-07         0.13447E-11         0.00000E+00
    0.21246E-07         0.60316E-11         0.00000E+00
    0.21234E-07         0.10403E-10         0.00000E+00
    0.21221E-07         0.13762E-10         0.00000E+00
    0.21209E-07         0.15945E-10         0.00000E+00
    0.21198E-07         0.16872E-10         0.00000E+00
    0.21187E-07         0.16587E-10         0.00000E+00
    0.21177E-07         0.15221E-10         0.00000E+00
    0.21168E-07         0.12918E-10         0.00000E+00
    0.21160E-07         0.98524E-11         0.00000E+00
    0.21152E-07         0.63065E-11         0.00000E+00
    0.21146E-07         0.28392E-11         0.00000E+00
    0.21141E-07         0.45701E-12         0.00000E+00
    0.21140E-07         0.20983E-11         0.00000E+00
    0.21131E-07         0.66744E-11         0.00000E+00
    0.21119E-07         0.11777E-10         0.00000E+00
    0.21106E-07         0.16542E-10         0.00000E+00
    0.21092E-07         0.20549E-10         0.00000E+00
    0.21079E-07         0.23479E-10         0.00000E+00
    0.21067E-07         0.25160E-10         0.00000E+00
    0.21055E-07         0.25569E-10         0.00000E+00
    0.21044E-07         0.24749E-10         0.00000E+00
    0.21034E-07         0.22796E-10         0.00000E+00
    0.21025E-07         0.19843E-10         0.00000E+00
    0.21016E-07         0.16056E-10         0.00000E+00
    0.21008E-07         0.11675E-10         0.00000E+00
    0.21001E-07         0.70368E-11         0.00000E+00
    0.20997E-07         0.24325E-11         0.00000E+00
    0.20955E-07         0.59845E-11         0.00000E+00
    0.20947E-07         0.15326E-10         0.00000E+00
    0.20935E-07         0.22320E-10         0.00000E+00
    0.20923E-07         0.27614E-10         0.00000E+00
    0.20910E-07         0.31379E-10         0.00000E+00
    0.20897E-07         0.33722E-10         0.00000E+00
    0.20885E-07         0.34718E-10         0.00000E+00
    0.20874E-07         0.34440E-10         0.00000E+00
    0.20864E-07         0.32973E-10         0.00000E+00
    0.20854E-07         0.30414E-10         0.00000E+00
    0.20845E-07         0.26862E-10         0.00000E+00
    0.20837E-07         0.22421E-10         0.00000E+00
    0.20830E-07         0.17186E-10         0.00000E+00
    0.20824E-07         0.11192E-10         0.00000E+00
    0.20820E-07         0.42586E-11         0.00000E+00
    0.20730E-07         0.91520E-11         0.00000E+00
    0.20723E-07         0.22808E-10         0.00000E+00
    0.20714E-07         0.31888E-10         0.00000E+00
    0.20703E-07         0.37826E-10         0.00000E+00
    0.20691E-07         0.41448E-10         0.00000E+00
    0.20680E-07         0.43248E-10         0.00000E+00
    0.20670E-07         0.43547E-10         0.00000E+00
    0.20660E-07         0.42564E-10         0.00000E+00
    0.20652E-07         0.40451E-10         0.00000E+00
    0.20643E-07         0.37314E-10         0.00000E+00
    0.20636E-07         0.33215E-10         0.00000E+00
    0.20629E-07         0.28167E-10         0.00000E+00
    0.20623E-07         0.22102E-10         0.00000E+00
    0.20618E-07         0.14804E-10         0.00000E+00
    0.20615E-07         0.57824E-11         0.00000E+00
    0.20474E-07         0.11606E-10         0.00000E+00
    0.20469E-07         0.28706E-10         0.00000E+00
    0.20462E-07         0.39575E-10         0.00000E+00
    0.20453E-07         0.46140E-10         0.00000E+00
    0.20445E-07         0.49674E-10         0.00000E+00
    0.20436E-07         0.51009E-10         0.00000E+00
    0.20428E-07         0.50693E-10         0.00000E+00
    0.20421E-07         0.49083E-10         0.00000E+00
    0.20414E-07         0.46404E-10         0.00000E+00
    0.20408E-07         0.42775E-10         0.00000E+00
    0.20403E-07         0.38224E-10         0.00000E+00
    0.20397E-07         0.32675E-10         0.00000E+00
    0.20393E-07         0.25921E-10         0.00000E+00
    0.20389E-07         0.17563E-10         0.00000E+00
    0.20387E-07         0.69184E-11         0.00000E+00
    0.20196E-07         0.13257E-10         0.00000E+00
    0.20193E-07         0.32718E-10         0.00000E+00
    0.20188E-07         0.44839E-10         0.00000E+00
    0.20183E-07         0.51836E-10         0.00000E+00
    0.20177E-07         0.55270E-10         0.00000E+00
    0.20172E-07         0.56216E-10         0.00000E+00
    0.20167E-07         0.55399E-10         0.00000E+00
    0.20163E-07         0.53295E-10         0.00000E+00
    0.20159E-07         0.50188E-10         0.00000E+00
    0.20156E-07         0.46213E-10         0.00000E+00
    0.20152E-07         0.41365E-10         0.00000E+00
    0.20149E-07         0.35502E-10         0.00000E+00
    0.20147E-07         0.28315E-10         0.00000E+00
    0.20145E-07         0.19283E-10         0.00000E+00
    0.20143E-07         0.76163E-11         0.00000E+00
    0.19906E-07         0.14063E-10         0.00000E+00
    0.19904E-07         0.34679E-10         0.00000E+00
    0.19902E-07         0.47375E-10         0.00000E+00
    0.19900E-07         0.54492E-10         0.00000E+00
    0.19898E-07         0.57743E-10         0.00000E+00
    0.19897E-07         0.58349E-10         0.00000E+00
    0.19895E-07         0.57154E-10         0.00000E+00
    0.19894E-07         0.54712E-10         0.00000E+00
    0.19893E-07         0.51353E-10         0.00000E+00
    0.19893E-07         0.47221E-10         0.00000E+00
    0.19892E-07         0.42291E-10         0.00000E+00
    0.19891E-07         0.36373E-10         0.00000E+00
    0.19891E-07         0.29093E-10         0.00000E+00
    0.19890E-07         0.19865E-10         0.00000E+00
    0.19890E-07         0.78548E-11         0.00000E+00
    0.19612E-07         0.14026E-10         0.00000E+00
    0.19612E-07         0.34559E-10         0.00000E+00
    0.19613E-07         0.47088E-10         0.00000E+00
    0.19614E-07         0.53945E-10         0.00000E+00
    0.19616E-07         0.56877E-10         0.00000E+00
    0.19617E-07         0.57161E-10         0.00000E+00
    0.19620E-07         0.55696E-10         0.00000E+00
    0.19622E-07         0.53079E-10         0.00000E+00
    0.19624E-07         0.49664E-10         0.00000E+00
    0.19627E-07         0.45596E-10         0.00000E+00
    0.19629E-07         0.40838E-10         0.00000E+00
    0.19631E-07         0.35171E-10         0.00000E+00
    0.19632E-07         0.28191E-10         0.00000E+00
    0.19633E-07         0.19291E-10         0.00000E+00
    0.19634E-07         0.76377E-11         0.00000E+00
    0.19324E-07         0.13193E-10         0.00000E+00
    0.19325E-07         0.32450E-10         0.00000E+00
    0.19328E-07         0.44070E-10         0.00000E+00
    0.19333E-07         0.50257E-10         0.00000E+00
    0.19337E-07         0.52701E-10         0.00000E+00
    0.19343E-07         0.52653E-10         0.00000E+00
    0.19348E-07         0.51012E-10         0.00000E+00
    0.19354E-07         0.48376E-10         0.00000E+00
    0.19360E-07         0.45101E-10         0.00000E+00
    0.19365E-07         0.41329E-10         0.00000E+00
    0.19369E-07         0.37013E-10         0.00000E+00
    0.19374E-07         0.31924E-10         0.00000E+00
    0.19377E-07         0.25654E-10         0.00000E+00
    0.19379E-07         0.17608E-10         0.00000E+00
    0.19381E-07         0.69920E-11         0.00000E+00
    0.19048E-07         0.11651E-10         0.00000E+00
    0.19051E-07         0.28548E-10         0.00000E+00
    0.19056E-07         0.38564E-10         0.00000E+00
    0.19063E-07         0.43686E-10         0.00000E+00
    0.19071E-07         0.45460E-10         0.00000E+00
    0.19080E-07         0.45052E-10         0.00000E+00
    0.19088E-07         0.43307E-10         0.00000E+00
    0.19097E-07         0.40792E-10         0.00000E+00
    0.19105E-07         0.37844E-10         0.00000E+00
    0.19113E-07         0.34592E-10         0.00000E+00
    0.19120E-07         0.30982E-10         0.00000E+00
    0.19126E-07         0.26790E-10         0.00000E+00
    0.19132E-07         0.21623E-10         0.00000E+00
    0.19135E-07         0.14923E-10         0.00000E+00
    0.19137E-07         0.59645E-11         0.00000E+00
    0.18793E-07         0.95135E-11         0.00000E+00
    0.18797E-07         0.23133E-10         0.00000E+00
    0.18804E-07         0.30943E-10         0.00000E+00
    0.18813E-07         0.34643E-10         0.00000E+00
    0.18823E-07         0.35576E-10         0.00000E+00
    0.18834E-07         0.34770E-10         0.00000E+00
    0.18846E-07         0.32975E-10         0.00000E+00
    0.18857E-07         0.30699E-10         0.00000E+00
    0.18867E-07         0.28239E-10         0.00000E+00
    0.18877E-07         0.25707E-10         0.00000E+00
    0.18886E-07         0.23044E-10         0.00000E+00
    0.18894E-07         0.20034E-10         0.00000E+00
    0.18901E-07         0.16318E-10         0.00000E+00
    0.18906E-07         0.11391E-10         0.00000E+00
    0.18908E-07         0.46182E-11         0.00000E+00
    0.18562E-07         0.69192E-11         0.00000E+00
    0.18567E-07         0.16546E-10         0.00000E+00
    0.18576E-07         0.21671E-10         0.00000E+00
    0.18587E-07         0.23658E-10         0.00000E+00
    0.18599E-07         0.23605E-10         0.00000E+00
    0.18612E-07         0.22362E-10         0.00000E+00
    0.18625E-07         0.20554E-10         0.00000E+00
    0.18638E-07         0.18608E-10         0.00000E+00
    0.18651E-07         0.16769E-10         0.00000E+00
    0.18662E-07         0.15120E-10         0.00000E+00
    0.18673E-07         0.13598E-10         0.00000E+00
    0.18682E-07         0.12004E-10         0.00000E+00
    0.18690E-07         0.10018E-10         0.00000E+00
    0.18695E-07         0.72051E-11         0.00000E+00
    0.18698E-07         0.30283E-11         0.00000E+00
    0.18362E-07         0.40187E-11         0.00000E+00
    0.18367E-07         0.91649E-11         0.00000E+00
    0.18377E-07         0.11271E-10         0.00000E+00
    0.18389E-07         0.11340E-10         0.00000E+00
    0.18402E-07         0.10194E-10         0.00000E+00
    0.18416E-07         0.84825E-11         0.00000E+00
    0.18431E-07         0.66877E-11         0.00000E+00
    0.18445E-07         0.51358E-11         0.00000E+00
    0.18459E-07         0.40097E-11         0.00000E+00
    0.18471E-07         0.33604E-11         0.00000E+00
    0.18483E-07         0.31186E-11         0.00000E+00
    0.18493E-07         0.31062E-11         0.00000E+00
    0.18501E-07         0.30475E-11         0.00000E+00
    0.18507E-07         0.25819E-11         0.00000E+00
    0.18511E-07         0.12782E-11         0.00000E+00
    0.18194E-07         0.96762E-12         0.00000E+00
    0.18199E-07         0.13850E-11         0.00000E+00
    0.18209E-07         0.29673E-12         0.00000E+00
    0.18222E-07        -0.16654E-11         0.00000E+00
    0.18236E-07        -0.39620E-11         0.00000E+00
    0.18250E-07        -0.61577E-11         0.00000E+00
    0.18265E-07        -0.79254E-11         0.00000E+00
    0.18280E-07        -0.90464E-11         0.00000E+00
    0.18294E-07        -0.94068E-11         0.00000E+00
    0.18307E-07        -0.89916E-11         0.00000E+00
    0.18319E-07        -0.78769E-11         0.00000E+00
    0.18330E-07        -0.62201E-11         0.00000E+00
    0.18338E-07        -0.42493E-11         0.00000E+00
    0.18344E-07        -0.22493E-11         0.00000E+00
    0.18348E-07        -0.54549E-12         0.00000E+00
    0.18059E-07        -0.20811E-11         0.00000E+00
    0.18065E-07        -0.64025E-11         0.00000E+00
    0.18074E-07        -0.10701E-10         0.00000E+00
    0.18087E-07        -0.14705E-10         0.00000E+00
    0.18101E-07        -0.18157E-10         0.00000E+00
    0.18115E-07        -0.20835E-10         0.00000E+00
    0.18130E-07        -0.22567E-10         0.00000E+00
    0.18145E-07        -0.23247E-10         0.00000E+00
    0.18159E-07        -0.22830E-10         0.00000E+00
    0.18172E-07        -0.21340E-10         0.00000E+00
    0.18183E-07        -0.18860E-10         0.00000E+00
    0.18194E-07        -0.15527E-10         0.00000E+00
    0.18202E-07        -0.11523E-10         0.00000E+00
    0.18208E-07        -0.70581E-11         0.00000E+00
    0.18211E-07        -0.23565E-11         0.00000E+00
    0.17958E-07        -0.49839E-11         0.00000E+00
    0.17963E-07        -0.13828E-10         0.00000E+00
    0.17973E-07        -0.21196E-10         0.00000E+00
    0.17984E-07        -0.27156E-10         0.00000E+00
    0.17997E-07        -0.31712E-10         0.00000E+00
    0.18011E-07        -0.34847E-10         0.00000E+00
    0.18025E-07        -0.36541E-10         0.00000E+00
    0.18039E-07        -0.36792E-10         0.00000E+00
    0.18052E-07        -0.35626E-10         0.00000E+00
    0.18064E-07        -0.33104E-10         0.00000E+00
    0.18075E-07        -0.29316E-10         0.00000E+00
    0.18085E-07        -0.24381E-10         0.00000E+00
    0.18093E-07        -0.18436E-10         0.00000E+00
    0.18098E-07        -0.11624E-10         0.00000E+00
    0.18102E-07        -0.40728E-11         0.00000E+00
    0.17889E-07        -0.76124E-11         0.00000E+00
    0.17894E-07        -0.20558E-10         0.00000E+00
    0.17902E-07        -0.30714E-10         0.00000E+00
    0.17913E-07        -0.38448E-10         0.00000E+00
    0.17924E-07        -0.44004E-10         0.00000E+00
    0.17937E-07        -0.47548E-10         0.00000E+00
    0.17949E-07        -0.49200E-10         0.00000E+00
    0.17961E-07        -0.49056E-10         0.00000E+00
    0.17973E-07        -0.47206E-10         0.00000E+00
    0.17984E-07        -0.43744E-10         0.00000E+00
    0.17994E-07        -0.38768E-10         0.00000E+00
    0.18003E-07        -0.32381E-10         0.00000E+00
    0.18010E-07        -0.24680E-10         0.00000E+00
    0.18015E-07        -0.15744E-10         0.00000E+00
    0.18018E-07        -0.56199E-11         0.00000E+00
    0.17850E-07        -0.98571E-11         0.00000E+00
    0.17854E-07        -0.26308E-10         0.00000E+00
    0.17861E-07        -0.38842E-10         0.00000E+00
    0.17870E-07        -0.48086E-10         0.00000E+00
    0.17880E-07        -0.54487E-10         0.00000E+00
    0.17890E-07        -0.58372E-10         0.00000E+00
    0.17901E-07        -0.59978E-10         0.00000E+00
    0.17911E-07        -0.59489E-10         0.00000E+00
    0.17921E-07        -0.57049E-10         0.00000E+00
    0.17930E-07        -0.52783E-10         0.00000E+00
    0.17938E-07        -0.46795E-10         0.00000E+00
    0.17946E-07        -0.39173E-10         0.00000E+00
    0.17951E-07        -0.29980E-10         0.00000E+00
    0.17956E-07        -0.19242E-10         0.00000E+00
    0.17958E-07        -0.69331E-11         0.00000E+00
    0.17837E-07        -0.11630E-10         0.00000E+00
    0.17840E-07        -0.30844E-10         0.00000E+00
    0.17846E-07        -0.45246E-10         0.00000E+00
    0.17853E-07        -0.55664E-10         0.00000E+00
    0.17861E-07        -0.62713E-10         0.00000E+00
    0.17869E-07        -0.66848E-10         0.00000E+00
    0.17877E-07        -0.68403E-10         0.00000E+00
    0.17885E-07        -0.67630E-10         0.00000E+00
    0.17892E-07        -0.64721E-10         0.00000E+00
    0.17899E-07        -0.59823E-10         0.00000E+00
    0.17906E-07        -0.53046E-10         0.00000E+00
    0.17911E-07        -0.44465E-10         0.00000E+00
    0.17916E-07        -0.34113E-10         0.00000E+00
    0.17919E-07        -0.21973E-10         0.00000E+00
    0.17921E-07        -0.79593E-11         0.00000E+00
    0.17846E-07        -0.12867E-10         0.00000E+00
    0.17849E-07        -0.33997E-10         0.00000E+00
    0.17853E-07        -0.49672E-10         0.00000E+00
    0.17858E-07        -0.60875E-10         0.00000E+00
    0.17863E-07        -0.68339E-10         0.00000E+00
    0.17869E-07        -0.72615E-10         0.00000E+00
    0.17874E-07        -0.74108E-10         0.00000E+00
    0.17879E-07        -0.73123E-10         0.00000E+00
    0.17884E-07        -0.69883E-10         0.00000E+00
    0.17889E-07        -0.64553E-10         0.00000E+00
    0.17893E-07        -0.57246E-10         0.00000E+00
    0.17897E-07        -0.48026E-10         0.00000E+00
    0.17900E-07        -0.36903E-10         0.00000E+00
    0.17902E-07        -0.23824E-10         0.00000E+00
    0.17904E-07        -0.86581E-11         0.00000E+00
    0.17873E-07        -0.13526E-10         0.00000E+00
    0.17875E-07        -0.35651E-10         0.00000E+00
    0.17878E-07        -0.51954E-10         0.00000E+00
    0.17881E-07        -0.63509E-10         0.00000E+00
    0.17883E-07        -0.71129E-10         0.00000E+00
    0.17886E-07        -0.75422E-10         0.00000E+00
    0.17889E-07        -0.76840E-10         0.00000E+00
    0.17891E-07        -0.75717E-10         0.00000E+00
    0.17893E-07        -0.72297E-10         0.00000E+00
    0.17895E-07        -0.66755E-10         0.00000E+00
    0.17897E-07        -0.59204E-10         0.00000E+00
    0.17899E-07        -0.49697E-10         0.00000E+00
    0.17900E-07        -0.38228E-10         0.00000E+00
    0.17901E-07        -0.24717E-10         0.00000E+00
    0.17902E-07        -0.90022E-11         0.00000E+00
    0.17914E-07        -0.13586E-10         0.00000E+00
    0.17915E-07        -0.35750E-10         0.00000E+00
    0.17916E-07        -0.52000E-10         0.00000E+00
    0.17917E-07        -0.63454E-10         0.00000E+00
    0.17917E-07        -0.70953E-10         0.00000E+00
    0.17917E-07        -0.75129E-10         0.00000E+00
    0.17916E-07        -0.76450E-10         0.00000E+00
    0.17916E-07        -0.75263E-10         0.00000E+00
    0.17915E-07        -0.71820E-10         0.00000E+00
    0.17914E-07        -0.66297E-10         0.00000E+00
    0.17914E-07        -0.58802E-10         0.00000E+00
    0.17913E-07        -0.49382E-10         0.00000E+00
    0.17913E-07        -0.38016E-10         0.00000E+00
    0.17913E-07        -0.24609E-10         0.00000E+00
    0.17913E-07        -0.89763E-11         0.00000E+00
    0.17963E-07        -0.13047E-10         0.00000E+00
    0.17964E-07        -0.34285E-10         0.00000E+00
    0.17963E-07        -0.49795E-10         0.00000E+00
    0.17962E-07        -0.60681E-10         0.00000E+00
    0.17959E-07        -0.67772E-10         0.00000E+00
    0.17956E-07        -0.71687E-10         0.00000E+00
    0.17953E-07        -0.72886E-10         0.00000E+00
    0.17949E-07        -0.71708E-10         0.00000E+00
    0.17946E-07        -0.68398E-10         0.00000E+00
    0.17942E-07        -0.63127E-10         0.00000E+00
    0.17939E-07        -0.55997E-10         0.00000E+00
    0.17937E-07        -0.47046E-10         0.00000E+00
    0.17935E-07        -0.36244E-10         0.00000E+00
    0.17934E-07        -0.23486E-10         0.00000E+00
    0.17933E-07        -0.85768E-11         0.00000E+00
    0.18017E-07        -0.11919E-10         0.00000E+00
    0.18017E-07        -0.31287E-10         0.00000E+00
    0.18015E-07        -0.45377E-10         0.00000E+00
    0.18011E-07        -0.55232E-10         0.00000E+00
    0.18006E-07        -0.61625E-10         0.00000E+00
    0.18000E-07        -0.65132E-10         0.00000E+00
    0.17994E-07        -0.66177E-10         0.00000E+00
    0.17987E-07        -0.65073E-10         0.00000E+00
    0.17981E-07        -0.62049E-10         0.00000E+00
    0.17975E-07        -0.57261E-10         0.00000E+00
    0.17970E-07        -0.50802E-10         0.00000E+00
    0.17965E-07        -0.42702E-10         0.00000E+00
    0.17962E-07        -0.32925E-10         0.00000E+00
    0.17959E-07        -0.21359E-10         0.00000E+00
    0.17959E-07        -0.78090E-11         0.00000E+00
    0.18071E-07        -0.10224E-10         0.00000E+00
    0.18070E-07        -0.26808E-10         0.00000E+00
    0.18067E-07        -0.38821E-10         0.00000E+00
    0.18061E-07        -0.47192E-10         0.00000E+00
    0.18054E-07        -0.52604E-10         0.00000E+00
    0.18045E-07        -0.55553E-10         0.00000E+00
    0.18036E-07        -0.56406E-10         0.00000E+00
    0.18027E-07        -0.55437E-10         0.00000E+00
    0.18018E-07        -0.52844E-10         0.00000E+00
    0.18009E-07        -0.48762E-10         0.00000E+00
    0.18002E-07        -0.43273E-10         0.00000E+00
    0.17995E-07        -0.36398E-10         0.00000E+00
    0.17990E-07        -0.28098E-10         0.00000E+00
    0.17987E-07        -0.18257E-10         0.00000E+00
    0.17986E-07        -0.66844E-11         0.00000E+00
    0.18122E-07        -0.79742E-11         0.00000E+00
    0.18121E-07        -0.20907E-10         0.00000E+00
    0.18117E-07        -0.30208E-10         0.00000E+00
    0.18109E-07        -0.36661E-10         0.00000E+00
    0.18099E-07        -0.40818E-10         0.00000E+00
    0.18088E-07        -0.43063E-10         0.00000E+00
    0.18076E-07        -0.43688E-10         0.00000E+00
    0.18064E-07        -0.42910E-10         0.00000E+00
    0.18053E-07        -0.40887E-10         0.00000E+00
    0.18042E-07        -0.37726E-10         0.00000E+00
    0.18032E-07        -0.33491E-10         0.00000E+00
    0.18023E-07        -0.28197E-10         0.00000E+00
    0.18017E-07        -0.21811E-10         0.00000E+00
    0.18013E-07        -0.14214E-10         0.00000E+00
    0.18011E-07        -0.52140E-11         0.00000E+00
    0.18168E-07        -0.51654E-11         0.00000E+00
    0.18167E-07        -0.13604E-10         0.00000E+00
    0.18161E-07        -0.19575E-10         0.00000E+00
    0.18152E-07        -0.23712E-10         0.00000E+00
    0.18140E-07        -0.26358E-10         0.00000E+00
    0.18126E-07        -0.27768E-10         0.00000E+00
    0.18112E-07        -0.28136E-10         0.00000E+00
    0.18097E-07        -0.27609E-10         0.00000E+00
    0.18083E-07        -0.26294E-10         0.00000E+00
    0.18069E-07        -0.24260E-10         0.00000E+00
    0.18057E-07        -0.21547E-10         0.00000E+00
    0.18047E-07        -0.18163E-10         0.00000E+00
    0.18039E-07        -0.14088E-10         0.00000E+00
    0.18034E-07        -0.92477E-11         0.00000E+00
    0.18032E-07        -0.34008E-11         0.00000E+00
    0.18207E-07        -0.18092E-11         0.00000E+00
    0.18206E-07        -0.48003E-11         0.00000E+00
    0.18199E-07        -0.68762E-11         0.00000E+00
    0.18187E-07        -0.83190E-11         0.00000E+00
    0.18173E-07        -0.92335E-11         0.00000E+00
    0.18157E-07        -0.97139E-11         0.00000E+00
    0.18140E-07        -0.98314E-11         0.00000E+00
    0.18122E-07        -0.96394E-11         0.00000E+00
    0.18106E-07        -0.91758E-11         0.00000E+00
    0.18090E-07        -0.84657E-11         0.00000E+00
    0.18076E-07        -0.75222E-11         0.00000E+00
    0.18064E-07        -0.63479E-11         0.00000E+00
    0.18054E-07        -0.49332E-11         0.00000E+00
    0.18048E-07        -0.32675E-11         0.00000E+00
    0.18046E-07        -0.12040E-11         0.00000E+00
POINT_DATA        496
VECTORS vDarcyNodal double 
    0.21390E-07         0.00000E+00         0.00000E+00
    0.21391E-07         0.00000E+00         0.00000E+00
    0.21390E-07         0.00000E+00         0.00000E+00
    0.21387E-07         0.00000E+00         0.00000E+00
    0.21381E-07         0.00000E+00         0.00000E+00
    0.21374E-07         0.00000E+00         0.00000E+00
    0.21367E-07         0.00000E+00         0.00000E+00
    0.21358E-07         0.00000E+00         0.00000E+00
    0.21349E-07         0.00000E+00         0.00000E+00
    0.21341E-07         0.00000E+00         0.00000E+00
    0.21333E-07         0.00000E+00         0.00000E+00
    0.21327E-07         0.00000E+00         0.00000E+00
    0.21322E-07        -0.66660E-22         0.00000E+00
    0.21319E-07        -0.81825E-26         0.00000E+00
    0.21318E-07         0.66652E-22         0.00000E+00
    0.21318E-07         0.00000E+00         0.00000E+00
    0.21378E-07        -0.58194E-11         0.00000E+00
    0.21376E-07        -0.72531E-11         0.00000E+00
    0.21371E-07        -0.79516E-11         0.00000E+00
    0.21365E-07        -0.57743E-11         0.00000E+00
    0.21358E-07        -0.24914E-11         0.00000E+00
    0.21349E-07         0.10186E-11         0.00000E+00
    0.21340E-07         0.36964E-11         0.00000E+00
    0.21331E-07         0.51539E-11         0.00000E+00
    0.21322E-07         0.56564E-11         0.00000E+00
    0.21312E-07         0.54359E-11         0.00000E+00
    0.21304E-07         0.46040E-11         0.00000E+00
    0.21297E-07         0.32436E-11         0.00000E+00
    0.21291E-07         0.14586E-11         0.00000E+00
    0.21287E-07        -0.54327E-12         0.00000E+00
    0.21284E-07        -0.19715E-11         0.00000E+00
    0.21283E-07        -0.23804E-11         0.00000E+00
    0.21324E-07        -0.37582E-11         0.00000E+00
    0.21319E-07        -0.50094E-11         0.00000E+00
    0.21309E-07        -0.49872E-11         0.00000E+00
    0.21298E-07        -0.12952E-11         0.00000E+00
    0.21287E-07         0.34155E-11         0.00000E+00
    0.21276E-07         0.74528E-11         0.00000E+00
    0.21265E-07         0.10379E-10         0.00000E+00
    0.21254E-07         0.12121E-10         0.00000E+00
    0.21243E-07         0.12650E-10         0.00000E+00
    0.21233E-07         0.12079E-10         0.00000E+00
    0.21224E-07         0.10557E-10         0.00000E+00
    0.21216E-07         0.82373E-11         0.00000E+00
    0.21208E-07         0.53333E-11         0.00000E+00
    0.21202E-07         0.22881E-11         0.00000E+00
    0.21197E-07         0.13238E-12         0.00000E+00
    0.21194E-07        -0.54293E-12         0.00000E+00
    0.21212E-07        -0.39905E-13         0.00000E+00
    0.21206E-07         0.10362E-11         0.00000E+00
    0.21195E-07         0.42568E-11         0.00000E+00
    0.21182E-07         0.86698E-11         0.00000E+00
    0.21169E-07         0.13018E-10         0.00000E+00
    0.21157E-07         0.16711E-10         0.00000E+00
    0.21144E-07         0.19326E-10         0.00000E+00
    0.21132E-07         0.20695E-10         0.00000E+00
    0.21121E-07         0.20807E-10         0.00000E+00
    0.21111E-07         0.19729E-10         0.00000E+00
    0.21101E-07         0.17581E-10         0.00000E+00
    0.21092E-07         0.14532E-10         0.00000E+00
    0.21084E-07         0.10825E-10         0.00000E+00
    0.21077E-07         0.68572E-11         0.00000E+00
    0.21071E-07         0.31636E-11         0.00000E+00
    0.21068E-07         0.14568E-11         0.00000E+00
    0.21049E-07         0.42358E-11         0.00000E+00
    0.21044E-07         0.77355E-11         0.00000E+00
    0.21034E-07         0.14193E-10         0.00000E+00
    0.21021E-07         0.19647E-10         0.00000E+00
    0.21008E-07         0.24071E-10         0.00000E+00
    0.20994E-07         0.27315E-10         0.00000E+00
    0.20982E-07         0.29312E-10         0.00000E+00
    0.20970E-07         0.30033E-10         0.00000E+00
    0.20959E-07         0.29509E-10         0.00000E+00
    0.20949E-07         0.27816E-10         0.00000E+00
    0.20939E-07         0.25057E-10         0.00000E+00
    0.20930E-07         0.21366E-10         0.00000E+00
    0.20922E-07         0.16905E-10         0.00000E+00
    0.20915E-07         0.11854E-10         0.00000E+00
    0.20910E-07         0.63054E-11         0.00000E+00
    0.20907E-07         0.34080E-11         0.00000E+00
    0.20844E-07         0.77326E-11         0.00000E+00
    0.20840E-07         0.13575E-10         0.00000E+00
    0.20830E-07         0.23453E-10         0.00000E+00
    0.20819E-07         0.30286E-10         0.00000E+00
    0.20807E-07         0.34920E-10         0.00000E+00
    0.20795E-07         0.37784E-10         0.00000E+00
    0.20783E-07         0.39127E-10         0.00000E+00
    0.20772E-07         0.39124E-10         0.00000E+00
    0.20762E-07         0.37902E-10         0.00000E+00
    0.20753E-07         0.35570E-10         0.00000E+00
    0.20744E-07         0.32218E-10         0.00000E+00
    0.20737E-07         0.27917E-10         0.00000E+00
    0.20729E-07         0.22702E-10         0.00000E+00
    0.20723E-07         0.16524E-10         0.00000E+00
    0.20718E-07         0.91452E-11         0.00000E+00
    0.20716E-07         0.51092E-11         0.00000E+00
    0.20603E-07         0.10571E-10         0.00000E+00
    0.20600E-07         0.18384E-10         0.00000E+00
    0.20592E-07         0.31241E-10         0.00000E+00
    0.20583E-07         0.39426E-10         0.00000E+00
    0.20573E-07         0.44353E-10         0.00000E+00
    0.20563E-07         0.46911E-10         0.00000E+00
    0.20554E-07         0.47667E-10         0.00000E+00
    0.20545E-07         0.46987E-10         0.00000E+00
    0.20537E-07         0.45112E-10         0.00000E+00
    0.20529E-07         0.42194E-10         0.00000E+00
    0.20522E-07         0.38309E-10         0.00000E+00
    0.20516E-07         0.33463E-10         0.00000E+00
    0.20510E-07         0.27566E-10         0.00000E+00
    0.20505E-07         0.20381E-10         0.00000E+00
    0.20502E-07         0.11441E-10         0.00000E+00
    0.20500E-07         0.64555E-11         0.00000E+00
    0.20336E-07         0.12640E-10         0.00000E+00
    0.20334E-07         0.21926E-10         0.00000E+00
    0.20328E-07         0.37038E-10         0.00000E+00
    0.20322E-07         0.46288E-10         0.00000E+00
    0.20314E-07         0.51460E-10         0.00000E+00
    0.20307E-07         0.53771E-10         0.00000E+00
    0.20301E-07         0.54034E-10         0.00000E+00
    0.20295E-07         0.52788E-10         0.00000E+00
    0.20289E-07         0.50375E-10         0.00000E+00
    0.20284E-07         0.46985E-10         0.00000E+00
    0.20280E-07         0.42689E-10         0.00000E+00
    0.20275E-07         0.37434E-10         0.00000E+00
    0.20271E-07         0.31030E-10         0.00000E+00
    0.20268E-07         0.23103E-10         0.00000E+00
    0.20266E-07         0.13041E-10         0.00000E+00
    0.20265E-07         0.73812E-11         0.00000E+00
    0.20052E-07         0.13874E-10         0.00000E+00
    0.20050E-07         0.24049E-10         0.00000E+00
    0.20047E-07         0.40518E-10         0.00000E+00
    0.20043E-07         0.50386E-10         0.00000E+00
    0.20040E-07         0.55645E-10         0.00000E+00
    0.20036E-07         0.57715E-10         0.00000E+00
    0.20033E-07         0.57581E-10         0.00000E+00
    0.20030E-07         0.55906E-10         0.00000E+00
    0.20027E-07         0.53109E-10         0.00000E+00
    0.20025E-07         0.49415E-10         0.00000E+00
    0.20023E-07         0.44888E-10         0.00000E+00
    0.20021E-07         0.39432E-10         0.00000E+00
    0.20020E-07         0.32787E-10         0.00000E+00
    0.20018E-07         0.24494E-10         0.00000E+00
    0.20017E-07         0.13858E-10         0.00000E+00
    0.20016E-07         0.78514E-11         0.00000E+00
    0.19759E-07         0.14252E-10         0.00000E+00
    0.19759E-07         0.24693E-10         0.00000E+00
    0.19758E-07         0.41536E-10         0.00000E+00
    0.19757E-07         0.51480E-10         0.00000E+00
    0.19757E-07         0.56590E-10         0.00000E+00
    0.19757E-07         0.58378E-10         0.00000E+00
    0.19757E-07         0.57923E-10         0.00000E+00
    0.19758E-07         0.55960E-10         0.00000E+00
    0.19758E-07         0.52956E-10         0.00000E+00
    0.19759E-07         0.49159E-10         0.00000E+00
    0.19760E-07         0.44624E-10         0.00000E+00
    0.19761E-07         0.39232E-10         0.00000E+00
    0.19761E-07         0.32679E-10         0.00000E+00
    0.19762E-07         0.24464E-10         0.00000E+00
    0.19762E-07         0.13862E-10         0.00000E+00
    0.19762E-07         0.78581E-11         0.00000E+00
    0.19468E-07         0.13800E-10         0.00000E+00
    0.19468E-07         0.23892E-10         0.00000E+00
    0.19470E-07         0.40112E-10         0.00000E+00
    0.19472E-07         0.49553E-10         0.00000E+00
    0.19475E-07         0.54232E-10         0.00000E+00
    0.19478E-07         0.55660E-10         0.00000E+00
    0.19482E-07         0.54935E-10         0.00000E+00
    0.19486E-07         0.52816E-10         0.00000E+00
    0.19490E-07         0.49787E-10         0.00000E+00
    0.19494E-07         0.46101E-10         0.00000E+00
    0.19498E-07         0.41809E-10         0.00000E+00
    0.19501E-07         0.36777E-10         0.00000E+00
    0.19504E-07         0.30683E-10         0.00000E+00
    0.19506E-07         0.23018E-10         0.00000E+00
    0.19507E-07         0.13067E-10         0.00000E+00
    0.19507E-07         0.74173E-11         0.00000E+00
    0.19185E-07         0.12587E-10         0.00000E+00
    0.19186E-07         0.21752E-10         0.00000E+00
    0.19190E-07         0.36408E-10         0.00000E+00
    0.19195E-07         0.44775E-10         0.00000E+00
    0.19201E-07         0.48727E-10         0.00000E+00
    0.19208E-07         0.49695E-10         0.00000E+00
    0.19215E-07         0.48731E-10         0.00000E+00
    0.19222E-07         0.46572E-10         0.00000E+00
    0.19229E-07         0.43691E-10         0.00000E+00
    0.19236E-07         0.40330E-10         0.00000E+00
    0.19242E-07         0.36533E-10         0.00000E+00
    0.19248E-07         0.32161E-10         0.00000E+00
    0.19252E-07         0.26896E-10         0.00000E+00
    0.19256E-07         0.20244E-10         0.00000E+00
    0.19259E-07         0.11533E-10         0.00000E+00
    0.19259E-07         0.65668E-11         0.00000E+00
    0.18919E-07         0.10715E-10         0.00000E+00
    0.18921E-07         0.18447E-10         0.00000E+00
    0.18926E-07         0.30705E-10         0.00000E+00
    0.18934E-07         0.37476E-10         0.00000E+00
    0.18942E-07         0.40420E-10         0.00000E+00
    0.18952E-07         0.40819E-10         0.00000E+00
    0.18962E-07         0.39630E-10         0.00000E+00
    0.18972E-07         0.37528E-10         0.00000E+00
    0.18982E-07         0.34946E-10         0.00000E+00
    0.18991E-07         0.32107E-10         0.00000E+00
    0.19000E-07         0.29042E-10         0.00000E+00
    0.19007E-07         0.25613E-10         0.00000E+00
    0.19014E-07         0.21518E-10         0.00000E+00
    0.19019E-07         0.16302E-10         0.00000E+00
    0.19022E-07         0.93544E-11         0.00000E+00
    0.19023E-07         0.53623E-11         0.00000E+00
    0.18676E-07         0.83125E-11         0.00000E+00
    0.18679E-07         0.14200E-10         0.00000E+00
    0.18685E-07         0.23373E-10         0.00000E+00
    0.18694E-07         0.28111E-10         0.00000E+00
    0.18705E-07         0.29801E-10         0.00000E+00
    0.18717E-07         0.29529E-10         0.00000E+00
    0.18729E-07         0.28117E-10         0.00000E+00
    0.18741E-07         0.26147E-10         0.00000E+00
    0.18753E-07         0.23993E-10         0.00000E+00
    0.18765E-07         0.21841E-10         0.00000E+00
    0.18775E-07         0.19710E-10         0.00000E+00
    0.18784E-07         0.17466E-10         0.00000E+00
    0.18792E-07         0.14834E-10         0.00000E+00
    0.18798E-07         0.11407E-10         0.00000E+00
    0.18802E-07         0.66550E-11         0.00000E+00
    0.18804E-07         0.38742E-11         0.00000E+00
    0.18461E-07         0.55263E-11         0.00000E+00
    0.18464E-07         0.92658E-11         0.00000E+00
    0.18471E-07         0.14845E-10         0.00000E+00
    0.18481E-07         0.17219E-10         0.00000E+00
    0.18494E-07         0.17465E-10         0.00000E+00
    0.18507E-07         0.16440E-10         0.00000E+00
    0.18521E-07         0.14801E-10         0.00000E+00
    0.18535E-07         0.13018E-10         0.00000E+00
    0.18548E-07         0.11386E-10         0.00000E+00
    0.18561E-07         0.10050E-10         0.00000E+00
    0.18573E-07         0.90087E-11         0.00000E+00
    0.18583E-07         0.81364E-11         0.00000E+00
    0.18592E-07         0.71887E-11         0.00000E+00
    0.18599E-07         0.58167E-11         0.00000E+00
    0.18604E-07         0.35788E-11         0.00000E+00
    0.18605E-07         0.21827E-11         0.00000E+00
    0.18276E-07         0.25115E-11         0.00000E+00
    0.18279E-07         0.39185E-11         0.00000E+00
    0.18287E-07         0.55919E-11         0.00000E+00
    0.18299E-07         0.53929E-11         0.00000E+00
    0.18312E-07         0.40708E-11         0.00000E+00
    0.18326E-07         0.22385E-11         0.00000E+00
    0.18341E-07         0.37073E-12         0.00000E+00
    0.18355E-07        -0.11924E-11         0.00000E+00
    0.18370E-07        -0.22392E-11         0.00000E+00
    0.18383E-07        -0.26781E-11         0.00000E+00
    0.18396E-07        -0.25285E-11         0.00000E+00
    0.18407E-07        -0.19106E-11         0.00000E+00
    0.18416E-07        -0.10342E-11         0.00000E+00
    0.18423E-07        -0.18675E-12         0.00000E+00
    0.18428E-07         0.28166E-12         0.00000E+00
    0.18430E-07         0.37389E-12         0.00000E+00
    0.18125E-07        -0.57580E-12         0.00000E+00
    0.18128E-07        -0.15651E-11         0.00000E+00
    0.18136E-07        -0.39089E-11         0.00000E+00
    0.18147E-07        -0.67599E-11         0.00000E+00
    0.18161E-07        -0.96964E-11         0.00000E+00
    0.18175E-07        -0.12356E-10         0.00000E+00
    0.18190E-07        -0.14452E-10         0.00000E+00
    0.18205E-07        -0.15778E-10         0.00000E+00
    0.18220E-07        -0.16212E-10         0.00000E+00
    0.18233E-07        -0.15719E-10         0.00000E+00
    0.18246E-07        -0.14339E-10         0.00000E+00
    0.18257E-07        -0.12185E-10         0.00000E+00
    0.18266E-07        -0.94342E-11         0.00000E+00
    0.18274E-07        -0.63112E-11         0.00000E+00
    0.18279E-07        -0.30761E-11         0.00000E+00
    0.18281E-07        -0.14647E-11         0.00000E+00
    0.18007E-07        -0.35859E-11         0.00000E+00
    0.18010E-07        -0.69177E-11         0.00000E+00
    0.18018E-07        -0.13193E-10         0.00000E+00
    0.18029E-07        -0.18644E-10         0.00000E+00
    0.18042E-07        -0.23164E-10         0.00000E+00
    0.18056E-07        -0.26634E-10         0.00000E+00
    0.18070E-07        -0.28948E-10         0.00000E+00
    0.18085E-07        -0.30035E-10         0.00000E+00
    0.18099E-07        -0.29863E-10         0.00000E+00
    0.18112E-07        -0.28450E-10         0.00000E+00
    0.18124E-07        -0.25860E-10         0.00000E+00
    0.18135E-07        -0.22201E-10         0.00000E+00
    0.18144E-07        -0.17615E-10         0.00000E+00
    0.18151E-07        -0.12269E-10         0.00000E+00
    0.18156E-07        -0.63382E-11         0.00000E+00
    0.18157E-07        -0.32481E-11         0.00000E+00
    0.17922E-07        -0.63815E-11         0.00000E+00
    0.17925E-07        -0.11894E-10         0.00000E+00
    0.17932E-07        -0.21830E-10         0.00000E+00
    0.17942E-07        -0.29706E-10         0.00000E+00
    0.17954E-07        -0.35702E-10         0.00000E+00
    0.17967E-07        -0.39924E-10         0.00000E+00
    0.17980E-07        -0.42438E-10         0.00000E+00
    0.17994E-07        -0.43296E-10         0.00000E+00
    0.18006E-07        -0.42553E-10         0.00000E+00
    0.18019E-07        -0.40279E-10         0.00000E+00
    0.18030E-07        -0.36559E-10         0.00000E+00
    0.18039E-07        -0.31495E-10         0.00000E+00
    0.18048E-07        -0.25202E-10         0.00000E+00
    0.18054E-07        -0.17790E-10         0.00000E+00
    0.18059E-07        -0.93582E-11         0.00000E+00
    0.18060E-07        -0.48974E-11         0.00000E+00
    0.17868E-07        -0.88429E-11         0.00000E+00
    0.17871E-07        -0.16277E-10         0.00000E+00
    0.17877E-07        -0.29441E-10         0.00000E+00
    0.17886E-07        -0.39454E-10         0.00000E+00
    0.17896E-07        -0.46748E-10         0.00000E+00
    0.17908E-07        -0.51627E-10         0.00000E+00
    0.17919E-07        -0.54309E-10         0.00000E+00
    0.17931E-07        -0.54959E-10         0.00000E+00
    0.17942E-07        -0.53707E-10         0.00000E+00
    0.17952E-07        -0.50670E-10         0.00000E+00
    0.17962E-07        -0.45952E-10         0.00000E+00
    0.17970E-07        -0.39653E-10         0.00000E+00
    0.17978E-07        -0.31858E-10         0.00000E+00
    0.17983E-07        -0.22633E-10         0.00000E+00
    0.17987E-07        -0.12006E-10         0.00000E+00
    0.17989E-07        -0.63423E-11         0.00000E+00
    0.17842E-07        -0.10871E-10         0.00000E+00
    0.17844E-07        -0.19887E-10         0.00000E+00
    0.17850E-07        -0.35708E-10         0.00000E+00
    0.17857E-07        -0.47473E-10         0.00000E+00
    0.17866E-07        -0.55824E-10         0.00000E+00
    0.17875E-07        -0.61231E-10         0.00000E+00
    0.17884E-07        -0.64040E-10         0.00000E+00
    0.17894E-07        -0.64507E-10         0.00000E+00
    0.17902E-07        -0.62829E-10         0.00000E+00
    0.17911E-07        -0.59161E-10         0.00000E+00
    0.17919E-07        -0.53625E-10         0.00000E+00
    0.17925E-07        -0.46315E-10         0.00000E+00
    0.17931E-07        -0.37295E-10         0.00000E+00
    0.17936E-07        -0.26590E-10         0.00000E+00
    0.17939E-07        -0.14170E-10         0.00000E+00
    0.17940E-07        -0.75237E-11         0.00000E+00
    0.17841E-07        -0.12389E-10         0.00000E+00
    0.17842E-07        -0.22587E-10         0.00000E+00
    0.17847E-07        -0.40382E-10         0.00000E+00
    0.17852E-07        -0.53436E-10         0.00000E+00
    0.17859E-07        -0.62553E-10         0.00000E+00
    0.17865E-07        -0.68329E-10         0.00000E+00
    0.17872E-07        -0.71210E-10         0.00000E+00
    0.17879E-07        -0.71525E-10         0.00000E+00
    0.17885E-07        -0.69521E-10         0.00000E+00
    0.17891E-07        -0.65382E-10         0.00000E+00
    0.17897E-07        -0.59243E-10         0.00000E+00
    0.17902E-07        -0.51195E-10         0.00000E+00
    0.17906E-07        -0.41282E-10         0.00000E+00
    0.17909E-07        -0.29496E-10         0.00000E+00
    0.17912E-07        -0.15762E-10         0.00000E+00
    0.17913E-07        -0.83948E-11         0.00000E+00
    0.17859E-07        -0.13345E-10         0.00000E+00
    0.17861E-07        -0.24277E-10         0.00000E+00
    0.17864E-07        -0.43287E-10         0.00000E+00
    0.17867E-07        -0.57110E-10         0.00000E+00
    0.17871E-07        -0.66661E-10         0.00000E+00
    0.17875E-07        -0.72624E-10         0.00000E+00
    0.17879E-07        -0.75513E-10         0.00000E+00
    0.17883E-07        -0.75706E-10         0.00000E+00
    0.17887E-07        -0.73485E-10         0.00000E+00
    0.17891E-07        -0.69054E-10         0.00000E+00
    0.17894E-07        -0.62557E-10         0.00000E+00
    0.17897E-07        -0.54078E-10         0.00000E+00
    0.17899E-07        -0.43647E-10         0.00000E+00
    0.17901E-07        -0.31230E-10         0.00000E+00
    0.17902E-07        -0.16719E-10         0.00000E+00
    0.17903E-07        -0.89215E-11         0.00000E+00
    0.17894E-07        -0.13707E-10         0.00000E+00
    0.17895E-07        -0.24900E-10         0.00000E+00
    0.17896E-07        -0.44318E-10         0.00000E+00
    0.17898E-07        -0.58352E-10         0.00000E+00
    0.17899E-07        -0.67977E-10         0.00000E+00
    0.17901E-07        -0.73928E-10         0.00000E+00
    0.17902E-07        -0.76750E-10         0.00000E+00
    0.17903E-07        -0.76851E-10         0.00000E+00
    0.17904E-07        -0.74529E-10         0.00000E+00
    0.17904E-07        -0.69998E-10         0.00000E+00
    0.17905E-07        -0.63402E-10         0.00000E+00
    0.17906E-07        -0.54823E-10         0.00000E+00
    0.17906E-07        -0.44278E-10         0.00000E+00
    0.17907E-07        -0.31714E-10         0.00000E+00
    0.17907E-07        -0.17000E-10         0.00000E+00
    0.17908E-07        -0.90829E-11         0.00000E+00
    0.17939E-07        -0.13466E-10         0.00000E+00
    0.17939E-07        -0.24436E-10         0.00000E+00
    0.17940E-07        -0.43433E-10         0.00000E+00
    0.17940E-07        -0.57102E-10         0.00000E+00
    0.17939E-07        -0.66429E-10         0.00000E+00
    0.17937E-07        -0.72154E-10         0.00000E+00
    0.17935E-07        -0.74829E-10         0.00000E+00
    0.17933E-07        -0.74863E-10         0.00000E+00
    0.17931E-07        -0.72555E-10         0.00000E+00
    0.17929E-07        -0.68120E-10         0.00000E+00
    0.17927E-07        -0.61697E-10         0.00000E+00
    0.17926E-07        -0.53362E-10         0.00000E+00
    0.17924E-07        -0.43121E-10         0.00000E+00
    0.17923E-07        -0.30911E-10         0.00000E+00
    0.17923E-07        -0.16585E-10         0.00000E+00
    0.17923E-07        -0.88698E-11         0.00000E+00
    0.17991E-07        -0.12628E-10         0.00000E+00
    0.17991E-07        -0.22896E-10         0.00000E+00
    0.17990E-07        -0.40648E-10         0.00000E+00
    0.17988E-07        -0.53374E-10         0.00000E+00
    0.17985E-07        -0.62024E-10         0.00000E+00
    0.17980E-07        -0.67306E-10         0.00000E+00
    0.17976E-07        -0.69745E-10         0.00000E+00
    0.17971E-07        -0.69732E-10         0.00000E+00
    0.17966E-07        -0.67552E-10         0.00000E+00
    0.17961E-07        -0.63406E-10         0.00000E+00
    0.17956E-07        -0.57428E-10         0.00000E+00
    0.17953E-07        -0.49682E-10         0.00000E+00
    0.17949E-07        -0.40170E-10         0.00000E+00
    0.17947E-07        -0.28819E-10         0.00000E+00
    0.17946E-07        -0.15477E-10         0.00000E+00
    0.17946E-07        -0.82838E-11         0.00000E+00
    0.18045E-07        -0.11211E-10         0.00000E+00
    0.18045E-07        -0.20311E-10         0.00000E+00
    0.18043E-07        -0.36016E-10         0.00000E+00
    0.18039E-07        -0.47235E-10         0.00000E+00
    0.18033E-07        -0.54834E-10         0.00000E+00
    0.18026E-07        -0.59453E-10         0.00000E+00
    0.18019E-07        -0.61565E-10         0.00000E+00
    0.18011E-07        -0.61519E-10         0.00000E+00
    0.18003E-07        -0.59571E-10         0.00000E+00
    0.17996E-07        -0.55904E-10         0.00000E+00
    0.17989E-07        -0.50636E-10         0.00000E+00
    0.17983E-07        -0.43823E-10         0.00000E+00
    0.17978E-07        -0.35458E-10         0.00000E+00
    0.17974E-07        -0.25465E-10         0.00000E+00
    0.17972E-07        -0.13691E-10         0.00000E+00
    0.17972E-07        -0.73342E-11         0.00000E+00
    0.18098E-07        -0.92364E-11         0.00000E+00
    0.18097E-07        -0.16722E-10         0.00000E+00
    0.18094E-07        -0.29614E-10         0.00000E+00
    0.18089E-07        -0.38779E-10         0.00000E+00
    0.18081E-07        -0.44963E-10         0.00000E+00
    0.18072E-07        -0.48705E-10         0.00000E+00
    0.18062E-07        -0.50395E-10         0.00000E+00
    0.18051E-07        -0.50326E-10         0.00000E+00
    0.18040E-07        -0.48711E-10         0.00000E+00
    0.18030E-07        -0.45703E-10         0.00000E+00
    0.18021E-07        -0.41400E-10         0.00000E+00
    0.18013E-07        -0.35849E-10         0.00000E+00
    0.18006E-07        -0.29039E-10         0.00000E+00
    0.18001E-07        -0.20890E-10         0.00000E+00
    0.17998E-07        -0.11251E-10         0.00000E+00
    0.17998E-07        -0.60346E-11         0.00000E+00
    0.18146E-07        -0.67124E-11         0.00000E+00
    0.18146E-07        -0.12160E-10         0.00000E+00
    0.18142E-07        -0.21502E-10         0.00000E+00
    0.18135E-07        -0.28091E-10         0.00000E+00
    0.18125E-07        -0.32517E-10         0.00000E+00
    0.18114E-07        -0.35178E-10         0.00000E+00
    0.18101E-07        -0.36358E-10         0.00000E+00
    0.18087E-07        -0.36274E-10         0.00000E+00
    0.18074E-07        -0.35087E-10         0.00000E+00
    0.18061E-07        -0.32912E-10         0.00000E+00
    0.18050E-07        -0.29818E-10         0.00000E+00
    0.18039E-07        -0.25840E-10         0.00000E+00
    0.18031E-07        -0.20970E-10         0.00000E+00
    0.18025E-07        -0.15135E-10         0.00000E+00
    0.18022E-07        -0.81769E-11         0.00000E+00
    0.18021E-07        -0.43936E-11         0.00000E+00
    0.18189E-07        -0.36189E-11         0.00000E+00
    0.18188E-07        -0.66103E-11         0.00000E+00
    0.18184E-07        -0.11678E-10         0.00000E+00
    0.18175E-07        -0.15197E-10         0.00000E+00
    0.18163E-07        -0.17554E-10         0.00000E+00
    0.18149E-07        -0.18949E-10         0.00000E+00
    0.18134E-07        -0.19547E-10         0.00000E+00
    0.18118E-07        -0.19472E-10         0.00000E+00
    0.18102E-07        -0.18817E-10         0.00000E+00
    0.18087E-07        -0.17643E-10         0.00000E+00
    0.18073E-07        -0.15989E-10         0.00000E+00
    0.18060E-07        -0.13871E-10         0.00000E+00
    0.18050E-07        -0.11282E-10         0.00000E+00
    0.18043E-07        -0.82012E-11         0.00000E+00
    0.18039E-07        -0.44718E-11         0.00000E+00
    0.18038E-07        -0.24082E-11         0.00000E+00
    0.18209E-07         0.00000E+00         0.00000E+00
    0.18208E-07         0.00000E+00         0.00000E+00
    0.18204E-07        -0.49661E-22         0.00000E+00
    0.18194E-07         0.99894E-26         0.00000E+00
    0.18181E-07         0.53810E-22         0.00000E+00
    0.18165E-07         0.00000E+00         0.00000E+00
    0.18148E-07         0.00000E+00         0.00000E+00
    0.18131E-07        -0.49700E-22         0.00000E+00
    0.18114E-07        -0.49700E-22         0.00000E+00
    0.18097E-07         0.49711E-22         0.00000E+00
    0.18082E-07         0.53853E-22         0.00000E+00
    0.18069E-07        -0.53864E-22         0.00000E+00
    0.18058E-07        -0.41388E-23         0.00000E+00
    0.18050E-07         0.53871E-22         0.00000E+00
    0.18046E-07         0.82886E-23         0.00000E+00
    0.18045E-07         0.00000E+00         0.00000E+00
CELL_DATA        450
TENSORS stressef double 
    0.44024E+08         0.24137E+06         0.00000E+00
    0.24137E+06         0.29698E+08         0.00000E+00
    0.00000E+00         0.00000E+00         0.26991E+08
 
    0.43910E+08        -0.20652E+05         0.00000E+00
   -0.20652E+05         0.29598E+08         0.00000E+00
    0.00000E+00         0.00000E+00         0.24093E+08
 
    0.42211E+08        -0.39210E+06         0.00000E+00
   -0.39210E+06         0.28975E+08         0.00000E+00
    0.00000E+00         0.00000E+00         0.20340E+08
 
    0.39935E+08        -0.46216E+06         0.00000E+00
   -0.46216E+06         0.27927E+08         0.00000E+00
    0.00000E+00         0.00000E+00         0.16468E+08
 
    0.37401E+08        -0.66514E+06         0.00000E+00
   -0.66514E+06         0.26765E+08         0.00000E+00
    0.00000E+00         0.00000E+00         0.13245E+08
 
    0.33906E+08        -0.66613E+06         0.00000E+00
   -0.66613E+06         0.25527E+08         0.00000E+00
    0.00000E+00         0.00000E+00         0.11887E+08
 
    0.31175E+08        -0.49340E+06         0.00000E+00
   -0.49340E+06         0.24456E+08         0.00000E+00
    0.00000E+00         0.00000E+00         0.11126E+08
 
    0.28870E+08        -0.35532E+06         0.00000E+00
   -0.35532E+06         0.23646E+08         0.00000E+00
    0.00000E+00         0.00000E+00         0.10503E+08
 
    0.26736E+08        -0.23477E+06         0.00000E+00
   -0.23477E+06         0.23077E+08         0.00000E+00
    0.00000E+00         0.00000E+00         0.99626E+07
 
    0.24640E+08        -0.11905E+06         0.00000E+00
   -0.11905E+06         0.22735E+08         0.00000E+00
    0.00000E+00         0.00000E+00         0.94751E+07
 
    0.22477E+08         0.18648E+04         0.00000E+00
    0.18648E+04         0.22626E+08         0.00000E+00
    0.00000E+00         0.00000E+00         0.90205E+07
 
    0.20132E+08         0.13885E+06         0.00000E+00
    0.13885E+06         0.22772E+08         0.00000E+00
    0.00000E+00         0.00000E+00         0.85807E+07
 
    0.17450E+08         0.31056E+06         0.00000E+00
    0.31056E+06         0.23224E+08         0.00000E+00
    0.00000E+00         0.00000E+00         0.81347E+07
 
    0.14162E+08         0.55645E+06         0.00000E+00
    0.55645E+06         0.24092E+08         0.00000E+00
    0.00000E+00         0.00000E+00         0.76507E+07
 
    0.95035E+07         0.11305E+07         0.00000E+00
    0.11305E+07         0.25694E+08         0.00000E+00
    0.00000E+00         0.00000E+00         0.70395E+07
 
    0.41309E+08         0.35524E+06         0.00000E+00
    0.35524E+06         0.24714E+08         0.00000E+00
    0.00000E+00         0.00000E+00         0.19037E+08
 
    0.40366E+08        -0.45985E+05         0.00000E+00
   -0.45985E+05         0.24629E+08         0.00000E+00
    0.00000E+00         0.00000E+00         0.16670E+08
 
    0.38842E+08        -0.74623E+06         0.00000E+00
   -0.74623E+06         0.24654E+08         0.00000E+00
    0.00000E+00         0.00000E+00         0.14076E+08
 
    0.36818E+08        -0.12245E+07         0.00000E+00
   -0.12245E+07         0.24557E+08         0.00000E+00
    0.00000E+00         0.00000E+00         0.12304E+08
 
    0.34003E+08        -0.15580E+07         0.00000E+00
   -0.15580E+07         0.24110E+08         0.00000E+00
    0.00000E+00         0.00000E+00         0.11623E+08
 
    0.31134E+08        -0.15996E+07         0.00000E+00
   -0.15996E+07         0.23523E+08         0.00000E+00
    0.00000E+00         0.00000E+00         0.10931E+08
 
    0.28444E+08        -0.13050E+07         0.00000E+00
   -0.13050E+07         0.22875E+08         0.00000E+00
    0.00000E+00         0.00000E+00         0.10264E+08
 
    0.26123E+08        -0.97358E+06         0.00000E+00
   -0.97358E+06         0.22293E+08         0.00000E+00
    0.00000E+00         0.00000E+00         0.96832E+07
 
    0.23981E+08        -0.64936E+06         0.00000E+00
   -0.64936E+06         0.21857E+08         0.00000E+00
    0.00000E+00         0.00000E+00         0.91677E+07
 
    0.21892E+08        -0.32069E+06         0.00000E+00
   -0.32069E+06         0.21602E+08         0.00000E+00
    0.00000E+00         0.00000E+00         0.86988E+07
 
    0.19753E+08         0.32294E+05         0.00000E+00
    0.32294E+05         0.21552E+08         0.00000E+00
    0.00000E+00         0.00000E+00         0.82610E+07
 
    0.17457E+08         0.43846E+06         0.00000E+00
    0.43846E+06         0.21743E+08         0.00000E+00
    0.00000E+00         0.00000E+00         0.78400E+07
 
    0.14877E+08         0.94947E+06         0.00000E+00
    0.94947E+06         0.22229E+08         0.00000E+00
    0.00000E+00         0.00000E+00         0.74210E+07
 
    0.11818E+08         0.16894E+07         0.00000E+00
    0.16894E+07         0.23106E+08         0.00000E+00
    0.00000E+00         0.00000E+00         0.69848E+07
 
    0.82397E+07         0.30628E+07         0.00000E+00
    0.30628E+07         0.24509E+08         0.00000E+00
    0.00000E+00         0.00000E+00         0.65498E+07
 
    0.38469E+08        -0.79869E+05         0.00000E+00
   -0.79869E+05         0.22087E+08         0.00000E+00
    0.00000E+00         0.00000E+00         0.13275E+08
 
    0.36910E+08        -0.32270E+06         0.00000E+00
   -0.32270E+06         0.21886E+08         0.00000E+00
    0.00000E+00         0.00000E+00         0.11759E+08
 
    0.35178E+08        -0.88156E+06         0.00000E+00
   -0.88156E+06         0.21728E+08         0.00000E+00
    0.00000E+00         0.00000E+00         0.11381E+08
 
    0.33258E+08        -0.15538E+07         0.00000E+00
   -0.15538E+07         0.21537E+08         0.00000E+00
    0.00000E+00         0.00000E+00         0.10959E+08
 
    0.30836E+08        -0.19355E+07         0.00000E+00
   -0.19355E+07         0.21297E+08         0.00000E+00
    0.00000E+00         0.00000E+00         0.10426E+08
 
    0.28280E+08        -0.19941E+07         0.00000E+00
   -0.19941E+07         0.21053E+08         0.00000E+00
    0.00000E+00         0.00000E+00         0.98667E+07
 
    0.25811E+08        -0.17669E+07         0.00000E+00
   -0.17669E+07         0.20779E+08         0.00000E+00
    0.00000E+00         0.00000E+00         0.93178E+07
 
    0.23534E+08        -0.13785E+07         0.00000E+00
   -0.13785E+07         0.20477E+08         0.00000E+00
    0.00000E+00         0.00000E+00         0.88023E+07
 
    0.21416E+08        -0.92618E+06         0.00000E+00
   -0.92618E+06         0.20235E+08         0.00000E+00
    0.00000E+00         0.00000E+00         0.83301E+07
 
    0.19359E+08        -0.42798E+06         0.00000E+00
   -0.42798E+06         0.20113E+08         0.00000E+00
    0.00000E+00         0.00000E+00         0.78944E+07
 
    0.17276E+08         0.13052E+06         0.00000E+00
    0.13052E+06         0.20158E+08         0.00000E+00
    0.00000E+00         0.00000E+00         0.74869E+07
 
    0.15082E+08         0.78623E+06         0.00000E+00
    0.78623E+06         0.20413E+08         0.00000E+00
    0.00000E+00         0.00000E+00         0.70991E+07
 
    0.12691E+08         0.16112E+07         0.00000E+00
    0.16112E+07         0.20927E+08         0.00000E+00
    0.00000E+00         0.00000E+00         0.67236E+07
 
    0.10055E+08         0.27558E+07         0.00000E+00
    0.27558E+07         0.21751E+08         0.00000E+00
    0.00000E+00         0.00000E+00         0.63612E+07
 
    0.72678E+07         0.44539E+07         0.00000E+00
    0.44539E+07         0.22845E+08         0.00000E+00
    0.00000E+00         0.00000E+00         0.60225E+07
 
    0.35283E+08        -0.24040E+06         0.00000E+00
   -0.24040E+06         0.19537E+08         0.00000E+00
    0.00000E+00         0.00000E+00         0.10964E+08
 
    0.33405E+08        -0.71519E+06         0.00000E+00
   -0.71519E+06         0.19350E+08         0.00000E+00
    0.00000E+00         0.00000E+00         0.10551E+08
 
    0.31644E+08        -0.12017E+07         0.00000E+00
   -0.12017E+07         0.19004E+08         0.00000E+00
    0.00000E+00         0.00000E+00         0.10130E+08
 
    0.29780E+08        -0.17274E+07         0.00000E+00
   -0.17274E+07         0.18762E+08         0.00000E+00
    0.00000E+00         0.00000E+00         0.97085E+07
 
    0.27664E+08        -0.20833E+07         0.00000E+00
   -0.20833E+07         0.18645E+08         0.00000E+00
    0.00000E+00         0.00000E+00         0.92617E+07
 
    0.25408E+08        -0.21512E+07         0.00000E+00
   -0.21512E+07         0.18559E+08         0.00000E+00
    0.00000E+00         0.00000E+00         0.87934E+07
 
    0.23170E+08        -0.19558E+07         0.00000E+00
   -0.19558E+07         0.18468E+08         0.00000E+00
    0.00000E+00         0.00000E+00         0.83277E+07
 
    0.21030E+08        -0.15641E+07         0.00000E+00
   -0.15641E+07         0.18373E+08         0.00000E+00
    0.00000E+00         0.00000E+00         0.78806E+07
 
    0.18991E+08        -0.10411E+07         0.00000E+00
   -0.10411E+07         0.18306E+08         0.00000E+00
    0.00000E+00         0.00000E+00         0.74595E+07
 
    0.17010E+08        -0.41834E+06         0.00000E+00
   -0.41834E+06         0.18320E+08         0.00000E+00
    0.00000E+00         0.00000E+00         0.70661E+07
 
    0.15025E+08         0.30930E+06         0.00000E+00
    0.30930E+06         0.18463E+08         0.00000E+00
    0.00000E+00         0.00000E+00         0.66976E+07
 
    0.12980E+08         0.11767E+07         0.00000E+00
    0.11767E+07         0.18773E+08         0.00000E+00
    0.00000E+00         0.00000E+00         0.63507E+07
 
    0.10838E+08         0.22537E+07         0.00000E+00
    0.22537E+07         0.19285E+08         0.00000E+00
    0.00000E+00         0.00000E+00         0.60247E+07
 
    0.86111E+07         0.36498E+07         0.00000E+00
    0.36498E+07         0.20002E+08         0.00000E+00
    0.00000E+00         0.00000E+00         0.57227E+07
 
    0.64070E+07         0.54928E+07         0.00000E+00
    0.54928E+07         0.20868E+08         0.00000E+00
    0.00000E+00         0.00000E+00         0.54550E+07
 
    0.31772E+08        -0.34952E+06         0.00000E+00
   -0.34952E+06         0.16617E+08         0.00000E+00
    0.00000E+00         0.00000E+00         0.96779E+07
 
    0.29949E+08        -0.94871E+06         0.00000E+00
   -0.94871E+06         0.16475E+08         0.00000E+00
    0.00000E+00         0.00000E+00         0.92849E+07
 
    0.28217E+08        -0.14589E+07         0.00000E+00
   -0.14589E+07         0.16293E+08         0.00000E+00
    0.00000E+00         0.00000E+00         0.89021E+07
 
    0.26437E+08        -0.18778E+07         0.00000E+00
   -0.18778E+07         0.16136E+08         0.00000E+00
    0.00000E+00         0.00000E+00         0.85147E+07
 
    0.24541E+08        -0.21446E+07         0.00000E+00
   -0.21446E+07         0.16061E+08         0.00000E+00
    0.00000E+00         0.00000E+00         0.81203E+07
 
    0.22550E+08        -0.21865E+07         0.00000E+00
   -0.21865E+07         0.16050E+08         0.00000E+00
    0.00000E+00         0.00000E+00         0.77200E+07
 
    0.20542E+08        -0.19901E+07         0.00000E+00
   -0.19901E+07         0.16065E+08         0.00000E+00
    0.00000E+00         0.00000E+00         0.73215E+07
 
    0.18578E+08        -0.15873E+07         0.00000E+00
   -0.15873E+07         0.16096E+08         0.00000E+00
    0.00000E+00         0.00000E+00         0.69347E+07
 
    0.16673E+08        -0.10169E+07         0.00000E+00
   -0.10169E+07         0.16157E+08         0.00000E+00
    0.00000E+00         0.00000E+00         0.65659E+07
 
    0.14812E+08        -0.30273E+06         0.00000E+00
   -0.30273E+06         0.16278E+08         0.00000E+00
    0.00000E+00         0.00000E+00         0.62182E+07
 
    0.12965E+08         0.55609E+06         0.00000E+00
    0.55609E+06         0.16496E+08         0.00000E+00
    0.00000E+00         0.00000E+00         0.58924E+07
 
    0.11104E+08         0.15865E+07         0.00000E+00
    0.15865E+07         0.16841E+08         0.00000E+00
    0.00000E+00         0.00000E+00         0.55889E+07
 
    0.92216E+07         0.28400E+07         0.00000E+00
    0.28400E+07         0.17326E+08         0.00000E+00
    0.00000E+00         0.00000E+00         0.53095E+07
 
    0.73519E+07         0.43863E+07         0.00000E+00
    0.43863E+07         0.17941E+08         0.00000E+00
    0.00000E+00         0.00000E+00         0.50586E+07
 
    0.55873E+07         0.62927E+07         0.00000E+00
    0.62927E+07         0.18632E+08         0.00000E+00
    0.00000E+00         0.00000E+00         0.48439E+07
 
    0.28138E+08        -0.41675E+06         0.00000E+00
   -0.41675E+06         0.13725E+08         0.00000E+00
    0.00000E+00         0.00000E+00         0.83726E+07
 
    0.26471E+08        -0.10874E+07         0.00000E+00
   -0.10874E+07         0.13654E+08         0.00000E+00
    0.00000E+00         0.00000E+00         0.80248E+07
 
    0.24854E+08        -0.15978E+07         0.00000E+00
   -0.15978E+07         0.13558E+08         0.00000E+00
    0.00000E+00         0.00000E+00         0.76824E+07
 
    0.23212E+08        -0.19635E+07         0.00000E+00
   -0.19635E+07         0.13490E+08         0.00000E+00
    0.00000E+00         0.00000E+00         0.73403E+07
 
    0.21505E+08        -0.21597E+07         0.00000E+00
   -0.21597E+07         0.13474E+08         0.00000E+00
    0.00000E+00         0.00000E+00         0.69958E+07
 
    0.19740E+08        -0.21544E+07         0.00000E+00
   -0.21544E+07         0.13513E+08         0.00000E+00
    0.00000E+00         0.00000E+00         0.66506E+07
 
    0.17953E+08        -0.19334E+07         0.00000E+00
   -0.19334E+07         0.13591E+08         0.00000E+00
    0.00000E+00         0.00000E+00         0.63089E+07
 
    0.16181E+08        -0.15068E+07         0.00000E+00
   -0.15068E+07         0.13699E+08         0.00000E+00
    0.00000E+00         0.00000E+00         0.59760E+07
 
    0.14443E+08        -0.89424E+06         0.00000E+00
   -0.89424E+06         0.13841E+08         0.00000E+00
    0.00000E+00         0.00000E+00         0.56568E+07
 
    0.12740E+08        -0.11004E+06         0.00000E+00
   -0.11004E+06         0.14034E+08         0.00000E+00
    0.00000E+00         0.00000E+00         0.53547E+07
 
    0.11061E+08         0.84632E+06         0.00000E+00
    0.84632E+06         0.14299E+08         0.00000E+00
    0.00000E+00         0.00000E+00         0.50719E+07
 
    0.94003E+07         0.19926E+07         0.00000E+00
    0.19926E+07         0.14653E+08         0.00000E+00
    0.00000E+00         0.00000E+00         0.48107E+07
 
    0.77684E+07         0.33617E+07         0.00000E+00
    0.33617E+07         0.15101E+08         0.00000E+00
    0.00000E+00         0.00000E+00         0.45739E+07
 
    0.62037E+07         0.49933E+07         0.00000E+00
    0.49933E+07         0.15625E+08         0.00000E+00
    0.00000E+00         0.00000E+00         0.43658E+07
 
    0.47805E+07         0.69193E+07         0.00000E+00
    0.69193E+07         0.16183E+08         0.00000E+00
    0.00000E+00         0.00000E+00         0.41927E+07
 
    0.24456E+08        -0.44519E+06         0.00000E+00
   -0.44519E+06         0.10861E+08         0.00000E+00
    0.00000E+00         0.00000E+00         0.70634E+07
 
    0.23000E+08        -0.11501E+07         0.00000E+00
   -0.11501E+07         0.10840E+08         0.00000E+00
    0.00000E+00         0.00000E+00         0.67680E+07
 
    0.21550E+08        -0.16549E+07         0.00000E+00
   -0.16549E+07         0.10816E+08         0.00000E+00
    0.00000E+00         0.00000E+00         0.64730E+07
 
    0.20074E+08        -0.19826E+07         0.00000E+00
   -0.19826E+07         0.10813E+08         0.00000E+00
    0.00000E+00         0.00000E+00         0.61775E+07
 
    0.18556E+08        -0.21282E+07         0.00000E+00
   -0.21282E+07         0.10851E+08         0.00000E+00
    0.00000E+00         0.00000E+00         0.58814E+07
 
    0.16999E+08        -0.20776E+07         0.00000E+00
   -0.20776E+07         0.10932E+08         0.00000E+00
    0.00000E+00         0.00000E+00         0.55862E+07
 
    0.15422E+08        -0.18220E+07         0.00000E+00
   -0.18220E+07         0.11051E+08         0.00000E+00
    0.00000E+00         0.00000E+00         0.52947E+07
 
    0.13849E+08        -0.13638E+07         0.00000E+00
   -0.13638E+07         0.11205E+08         0.00000E+00
    0.00000E+00         0.00000E+00         0.50107E+07
 
    0.12295E+08        -0.71142E+06         0.00000E+00
   -0.71142E+06         0.11393E+08         0.00000E+00
    0.00000E+00         0.00000E+00         0.47378E+07
 
    0.10771E+08         0.12794E+06         0.00000E+00
    0.12794E+06         0.11625E+08         0.00000E+00
    0.00000E+00         0.00000E+00         0.44792E+07
 
    0.92782E+07         0.11547E+07         0.00000E+00
    0.11547E+07         0.11910E+08         0.00000E+00
    0.00000E+00         0.00000E+00         0.42377E+07
 
    0.78241E+07         0.23792E+07         0.00000E+00
    0.23792E+07         0.12256E+08         0.00000E+00
    0.00000E+00         0.00000E+00         0.40161E+07
 
    0.64269E+07         0.38193E+07         0.00000E+00
    0.38193E+07         0.12661E+08         0.00000E+00
    0.00000E+00         0.00000E+00         0.38175E+07
 
    0.51240E+07         0.54944E+07         0.00000E+00
    0.54944E+07         0.13106E+08         0.00000E+00
    0.00000E+00         0.00000E+00         0.36459E+07
 
    0.39735E+07         0.74155E+07         0.00000E+00
    0.74155E+07         0.13557E+08         0.00000E+00
    0.00000E+00         0.00000E+00         0.35062E+07
 
    0.20783E+08        -0.44788E+06         0.00000E+00
   -0.44788E+06         0.80275E+07         0.00000E+00
    0.00000E+00         0.00000E+00         0.57621E+07
 
    0.19560E+08        -0.11573E+07         0.00000E+00
   -0.11573E+07         0.80405E+07         0.00000E+00
    0.00000E+00         0.00000E+00         0.55200E+07
 
    0.18303E+08        -0.16508E+07         0.00000E+00
   -0.16508E+07         0.80659E+07         0.00000E+00
    0.00000E+00         0.00000E+00         0.52738E+07
 
    0.17013E+08        -0.19496E+07         0.00000E+00
   -0.19496E+07         0.81129E+07         0.00000E+00
    0.00000E+00         0.00000E+00         0.50253E+07
 
    0.15688E+08        -0.20569E+07         0.00000E+00
   -0.20569E+07         0.81906E+07         0.00000E+00
    0.00000E+00         0.00000E+00         0.47757E+07
 
    0.14331E+08        -0.19677E+07         0.00000E+00
   -0.19677E+07         0.83032E+07         0.00000E+00
    0.00000E+00         0.00000E+00         0.45269E+07
 
    0.12958E+08        -0.16777E+07         0.00000E+00
   -0.16777E+07         0.84495E+07         0.00000E+00
    0.00000E+00         0.00000E+00         0.42816E+07
 
    0.11584E+08        -0.11867E+07         0.00000E+00
   -0.11867E+07         0.86277E+07         0.00000E+00
    0.00000E+00         0.00000E+00         0.40424E+07
 
    0.10225E+08        -0.49819E+06         0.00000E+00
   -0.49819E+06         0.88380E+07         0.00000E+00
    0.00000E+00         0.00000E+00         0.38125E+07
 
    0.88906E+07         0.38430E+06         0.00000E+00
    0.38430E+06         0.90834E+07         0.00000E+00
    0.00000E+00         0.00000E+00         0.35948E+07
 
    0.75920E+07         0.14607E+07         0.00000E+00
    0.14607E+07         0.93677E+07         0.00000E+00
    0.00000E+00         0.00000E+00         0.33920E+07
 
    0.63424E+07         0.27354E+07         0.00000E+00
    0.27354E+07         0.96917E+07         0.00000E+00
    0.00000E+00         0.00000E+00         0.32068E+07
 
    0.51631E+07         0.42157E+07         0.00000E+00
    0.42157E+07         0.10049E+08         0.00000E+00
    0.00000E+00         0.00000E+00         0.30424E+07
 
    0.40873E+07         0.59077E+07         0.00000E+00
    0.59077E+07         0.10424E+08         0.00000E+00
    0.00000E+00         0.00000E+00         0.29023E+07
 
    0.31609E+07         0.78096E+07         0.00000E+00
    0.78096E+07         0.10790E+08         0.00000E+00
    0.00000E+00         0.00000E+00         0.27901E+07
 
    0.17157E+08        -0.43496E+06         0.00000E+00
   -0.43496E+06         0.52292E+07         0.00000E+00
    0.00000E+00         0.00000E+00         0.44773E+07
 
    0.16166E+08        -0.11282E+07         0.00000E+00
   -0.11282E+07         0.52624E+07         0.00000E+00
    0.00000E+00         0.00000E+00         0.42857E+07
 
    0.15116E+08        -0.16046E+07         0.00000E+00
   -0.16046E+07         0.53190E+07         0.00000E+00
    0.00000E+00         0.00000E+00         0.40870E+07
 
    0.14021E+08        -0.18792E+07         0.00000E+00
   -0.18792E+07         0.53980E+07         0.00000E+00
    0.00000E+00         0.00000E+00         0.38839E+07
 
    0.12891E+08        -0.19568E+07         0.00000E+00
   -0.19568E+07         0.55023E+07         0.00000E+00
    0.00000E+00         0.00000E+00         0.36787E+07
 
    0.11734E+08        -0.18363E+07         0.00000E+00
   -0.18363E+07         0.56342E+07         0.00000E+00
    0.00000E+00         0.00000E+00         0.34737E+07
 
    0.10562E+08        -0.15159E+07         0.00000E+00
   -0.15159E+07         0.57939E+07         0.00000E+00
    0.00000E+00         0.00000E+00         0.32713E+07
 
    0.93883E+07        -0.99537E+06         0.00000E+00
   -0.99537E+06         0.59808E+07         0.00000E+00
    0.00000E+00         0.00000E+00         0.30738E+07
 
    0.82252E+07        -0.27636E+06         0.00000E+00
   -0.27636E+06         0.61944E+07         0.00000E+00
    0.00000E+00         0.00000E+00         0.28839E+07
 
    0.70857E+07         0.63887E+06         0.00000E+00
    0.63887E+06         0.64352E+07         0.00000E+00
    0.00000E+00         0.00000E+00         0.27042E+07
 
    0.59826E+07         0.17490E+07         0.00000E+00
    0.17490E+07         0.67032E+07         0.00000E+00
    0.00000E+00         0.00000E+00         0.25372E+07
 
    0.49316E+07         0.30540E+07         0.00000E+00
    0.30540E+07         0.69956E+07         0.00000E+00
    0.00000E+00         0.00000E+00         0.23855E+07
 
    0.39541E+07         0.45539E+07         0.00000E+00
    0.45539E+07         0.73047E+07         0.00000E+00
    0.00000E+00         0.00000E+00         0.22518E+07
 
    0.30787E+07         0.62461E+07         0.00000E+00
    0.62461E+07         0.76161E+07         0.00000E+00
    0.00000E+00         0.00000E+00         0.21390E+07
 
    0.23413E+07         0.81212E+07         0.00000E+00
    0.81212E+07         0.79090E+07         0.00000E+00
    0.00000E+00         0.00000E+00         0.20501E+07
 
    0.13601E+08        -0.41370E+06         0.00000E+00
   -0.41370E+06         0.24680E+07         0.00000E+00
    0.00000E+00         0.00000E+00         0.32139E+07
 
    0.12832E+08        -0.10785E+07         0.00000E+00
   -0.10785E+07         0.25113E+07         0.00000E+00
    0.00000E+00         0.00000E+00         0.30686E+07
 
    0.11988E+08        -0.15337E+07         0.00000E+00
   -0.15337E+07         0.25837E+07         0.00000E+00
    0.00000E+00         0.00000E+00         0.29144E+07
 
    0.11093E+08        -0.17867E+07         0.00000E+00
   -0.17867E+07         0.26789E+07         0.00000E+00
    0.00000E+00         0.00000E+00         0.27544E+07
 
    0.10161E+08        -0.18405E+07         0.00000E+00
   -0.18405E+07         0.27958E+07         0.00000E+00
    0.00000E+00         0.00000E+00         0.25914E+07
 
    0.92035E+07        -0.16951E+07         0.00000E+00
   -0.16951E+07         0.29345E+07         0.00000E+00
    0.00000E+00         0.00000E+00         0.24276E+07
 
    0.82314E+07        -0.13499E+07         0.00000E+00
   -0.13499E+07         0.30952E+07         0.00000E+00
    0.00000E+00         0.00000E+00         0.22653E+07
 
    0.72563E+07        -0.80495E+06         0.00000E+00
   -0.80495E+06         0.32775E+07         0.00000E+00
    0.00000E+00         0.00000E+00         0.21068E+07
 
    0.62903E+07        -0.61790E+05         0.00000E+00
   -0.61790E+05         0.34806E+07         0.00000E+00
    0.00000E+00         0.00000E+00         0.19542E+07
 
    0.53455E+07         0.87717E+06         0.00000E+00
    0.87717E+06         0.37036E+07         0.00000E+00
    0.00000E+00         0.00000E+00         0.18098E+07
 
    0.44353E+07         0.20091E+07         0.00000E+00
    0.20091E+07         0.39445E+07         0.00000E+00
    0.00000E+00         0.00000E+00         0.16760E+07
 
    0.35754E+07         0.33305E+07         0.00000E+00
    0.33305E+07         0.41988E+07         0.00000E+00
    0.00000E+00         0.00000E+00         0.15548E+07
 
    0.27853E+07         0.48366E+07         0.00000E+00
    0.48366E+07         0.44587E+07         0.00000E+00
    0.00000E+00         0.00000E+00         0.14488E+07
 
    0.20891E+07         0.65191E+07         0.00000E+00
    0.65191E+07         0.47118E+07         0.00000E+00
    0.00000E+00         0.00000E+00         0.13602E+07
 
    0.15150E+07         0.83640E+07         0.00000E+00
    0.83640E+07         0.49419E+07         0.00000E+00
    0.00000E+00         0.00000E+00         0.12914E+07
 
    0.10126E+08        -0.38929E+06         0.00000E+00
   -0.38929E+06        -0.25518E+06         0.00000E+00
    0.00000E+00         0.00000E+00         0.19741E+07
 
    0.95628E+07        -0.10202E+07         0.00000E+00
   -0.10202E+07        -0.20973E+06         0.00000E+00
    0.00000E+00         0.00000E+00         0.18706E+07
 
    0.89209E+07        -0.14523E+07         0.00000E+00
   -0.14523E+07        -0.13361E+06         0.00000E+00
    0.00000E+00         0.00000E+00         0.17575E+07
 
    0.82249E+07        -0.16857E+07         0.00000E+00
   -0.16857E+07        -0.35588E+05         0.00000E+00
    0.00000E+00         0.00000E+00         0.16379E+07
 
    0.74914E+07        -0.17203E+07         0.00000E+00
   -0.17203E+07         0.80831E+05         0.00000E+00
    0.00000E+00         0.00000E+00         0.15144E+07
 
    0.67327E+07        -0.15555E+07         0.00000E+00
   -0.15555E+07         0.21452E+06         0.00000E+00
    0.00000E+00         0.00000E+00         0.13895E+07
 
    0.59597E+07        -0.11909E+07         0.00000E+00
   -0.11909E+07         0.36501E+06         0.00000E+00
    0.00000E+00         0.00000E+00         0.12649E+07
 
    0.51828E+07        -0.62718E+06         0.00000E+00
   -0.62718E+06         0.53171E+06         0.00000E+00
    0.00000E+00         0.00000E+00         0.11429E+07
 
    0.44127E+07         0.13388E+06         0.00000E+00
    0.13388E+06         0.71363E+06         0.00000E+00
    0.00000E+00         0.00000E+00         0.10253E+07
 
    0.36605E+07         0.10890E+07         0.00000E+00
    0.10890E+07         0.90909E+06         0.00000E+00
    0.00000E+00         0.00000E+00         0.91392E+06
 
    0.29389E+07         0.22338E+07         0.00000E+00
    0.22338E+07         0.11152E+07         0.00000E+00
    0.00000E+00         0.00000E+00         0.81082E+06
 
    0.22621E+07         0.35622E+07         0.00000E+00
    0.35622E+07         0.13272E+07         0.00000E+00
    0.00000E+00         0.00000E+00         0.71787E+06
 
    0.16471E+07         0.50661E+07         0.00000E+00
    0.50661E+07         0.15378E+07         0.00000E+00
    0.00000E+00         0.00000E+00         0.63698E+06
 
    0.11137E+07         0.67335E+07         0.00000E+00
    0.67335E+07         0.17366E+07         0.00000E+00
    0.00000E+00         0.00000E+00         0.57005E+06
 
    0.68375E+06         0.85478E+07         0.00000E+00
    0.85478E+07         0.19108E+07         0.00000E+00
    0.00000E+00         0.00000E+00         0.51891E+06
 
    0.67319E+07        -0.36543E+06         0.00000E+00
   -0.36543E+06        -0.29412E+07         0.00000E+00
    0.00000E+00         0.00000E+00         0.75815E+06
 
    0.63595E+07        -0.96252E+06         0.00000E+00
   -0.96252E+06        -0.28993E+07         0.00000E+00
    0.00000E+00         0.00000E+00         0.69204E+06
 
    0.59118E+07        -0.13721E+07         0.00000E+00
   -0.13721E+07        -0.28289E+07         0.00000E+00
    0.00000E+00         0.00000E+00         0.61657E+06
 
    0.54120E+07        -0.15883E+07         0.00000E+00
   -0.15883E+07        -0.27391E+07         0.00000E+00
    0.00000E+00         0.00000E+00         0.53457E+06
 
    0.48761E+07        -0.16075E+07         0.00000E+00
   -0.16075E+07        -0.26342E+07         0.00000E+00
    0.00000E+00         0.00000E+00         0.44838E+06
 
    0.43159E+07        -0.14279E+07         0.00000E+00
   -0.14279E+07        -0.25160E+07         0.00000E+00
    0.00000E+00         0.00000E+00         0.35998E+06
 
    0.37412E+07        -0.10489E+07         0.00000E+00
   -0.10489E+07        -0.23855E+07         0.00000E+00
    0.00000E+00         0.00000E+00         0.27115E+06
 
    0.31612E+07        -0.47144E+06         0.00000E+00
   -0.47144E+06        -0.22434E+07         0.00000E+00
    0.00000E+00         0.00000E+00         0.18356E+06
 
    0.25850E+07         0.30201E+06         0.00000E+00
    0.30201E+06        -0.20909E+07         0.00000E+00
    0.00000E+00         0.00000E+00         0.98810E+05
 
    0.20224E+07         0.12673E+07         0.00000E+00
    0.12673E+07        -0.19300E+07         0.00000E+00
    0.00000E+00         0.00000E+00         0.18480E+05
 
    0.14845E+07         0.24185E+07         0.00000E+00
    0.24185E+07        -0.17638E+07         0.00000E+00
    0.00000E+00         0.00000E+00        -0.55869E+05
 
    0.98336E+06         0.37477E+07         0.00000E+00
    0.37477E+07        -0.15968E+07         0.00000E+00
    0.00000E+00         0.00000E+00        -0.12269E+06
 
    0.53314E+06         0.52444E+07         0.00000E+00
    0.52444E+07        -0.14354E+07         0.00000E+00
    0.00000E+00         0.00000E+00        -0.18045E+06
 
    0.14956E+06         0.68945E+07         0.00000E+00
    0.68945E+07        -0.12879E+07         0.00000E+00
    0.00000E+00         0.00000E+00        -0.22767E+06
 
   -0.15048E+06         0.86796E+07         0.00000E+00
    0.86796E+07        -0.11643E+07         0.00000E+00
    0.00000E+00         0.00000E+00        -0.26296E+06
 
    0.34147E+07        -0.34477E+06         0.00000E+00
   -0.34477E+06        -0.55918E+07         0.00000E+00
    0.00000E+00         0.00000E+00        -0.43543E+06
 
    0.32179E+07        -0.91218E+06         0.00000E+00
   -0.91218E+06        -0.55577E+07         0.00000E+00
    0.00000E+00         0.00000E+00        -0.46795E+06
 
    0.29565E+07        -0.13023E+07         0.00000E+00
   -0.13023E+07        -0.55003E+07         0.00000E+00
    0.00000E+00         0.00000E+00        -0.50877E+06
 
    0.26491E+07        -0.15042E+07         0.00000E+00
   -0.15042E+07        -0.54273E+07         0.00000E+00
    0.00000E+00         0.00000E+00        -0.55564E+06
 
    0.23092E+07        -0.15115E+07         0.00000E+00
   -0.15115E+07        -0.53428E+07         0.00000E+00
    0.00000E+00         0.00000E+00        -0.60672E+06
 
    0.19465E+07        -0.13211E+07         0.00000E+00
   -0.13211E+07        -0.52487E+07         0.00000E+00
    0.00000E+00         0.00000E+00        -0.66043E+06
 
    0.15692E+07        -0.93182E+06         0.00000E+00
   -0.93182E+06        -0.51459E+07         0.00000E+00
    0.00000E+00         0.00000E+00        -0.71535E+06
 
    0.11846E+07        -0.34501E+06         0.00000E+00
   -0.34501E+06        -0.50355E+07         0.00000E+00
    0.00000E+00         0.00000E+00        -0.77019E+06
 
    0.80016E+06         0.43629E+06         0.00000E+00
    0.43629E+06        -0.49187E+07         0.00000E+00
    0.00000E+00         0.00000E+00        -0.82371E+06
 
    0.42401E+06         0.14070E+07         0.00000E+00
    0.14070E+07        -0.47975E+07         0.00000E+00
    0.00000E+00         0.00000E+00        -0.87469E+06
 
    0.65001E+05         0.25602E+07         0.00000E+00
    0.25602E+07        -0.46746E+07         0.00000E+00
    0.00000E+00         0.00000E+00        -0.92192E+06
 
   -0.26696E+06         0.38863E+07         0.00000E+00
    0.38863E+07        -0.45542E+07         0.00000E+00
    0.00000E+00         0.00000E+00        -0.96423E+06
 
   -0.56081E+06         0.53734E+07         0.00000E+00
    0.53734E+07        -0.44415E+07         0.00000E+00
    0.00000E+00         0.00000E+00        -0.10005E+07
 
   -0.80450E+06         0.70059E+07         0.00000E+00
    0.70059E+07        -0.43429E+07         0.00000E+00
    0.00000E+00         0.00000E+00        -0.10295E+07
 
   -0.98539E+06         0.87646E+07         0.00000E+00
    0.87646E+07        -0.42662E+07         0.00000E+00
    0.00000E+00         0.00000E+00        -0.10503E+07
 
    0.16336E+06        -0.32921E+06         0.00000E+00
   -0.32921E+06        -0.82100E+07         0.00000E+00
    0.00000E+00         0.00000E+00        -0.16093E+07
 
    0.13049E+06        -0.87414E+06         0.00000E+00
   -0.87414E+06        -0.81866E+07         0.00000E+00
    0.00000E+00         0.00000E+00        -0.16112E+07
 
    0.48383E+05        -0.12495E+07         0.00000E+00
   -0.12495E+07        -0.81473E+07         0.00000E+00
    0.00000E+00         0.00000E+00        -0.16198E+07
 
   -0.70067E+05        -0.14409E+07         0.00000E+00
   -0.14409E+07        -0.80976E+07         0.00000E+00
    0.00000E+00         0.00000E+00        -0.16335E+07
 
   -0.21576E+06        -0.14398E+07         0.00000E+00
   -0.14398E+07        -0.80401E+07         0.00000E+00
    0.00000E+00         0.00000E+00        -0.16512E+07
 
   -0.38193E+06        -0.12419E+07         0.00000E+00
   -0.12419E+07        -0.79765E+07         0.00000E+00
    0.00000E+00         0.00000E+00        -0.16717E+07
 
   -0.56300E+06        -0.84588E+06         0.00000E+00
   -0.84588E+06        -0.79074E+07         0.00000E+00
    0.00000E+00         0.00000E+00        -0.16941E+07
 
   -0.75367E+06        -0.25326E+06         0.00000E+00
   -0.25326E+06        -0.78338E+07         0.00000E+00
    0.00000E+00         0.00000E+00        -0.17175E+07
 
   -0.94844E+06         0.53231E+06         0.00000E+00
    0.53231E+06        -0.77569E+07         0.00000E+00
    0.00000E+00         0.00000E+00        -0.17411E+07
 
   -0.11413E+07         0.15051E+07         0.00000E+00
    0.15051E+07        -0.76785E+07         0.00000E+00
    0.00000E+00         0.00000E+00        -0.17640E+07
 
   -0.13255E+07         0.26570E+07         0.00000E+00
    0.26570E+07        -0.76011E+07         0.00000E+00
    0.00000E+00         0.00000E+00        -0.17853E+07
 
   -0.14937E+07         0.39779E+07         0.00000E+00
    0.39779E+07        -0.75280E+07         0.00000E+00
    0.00000E+00         0.00000E+00        -0.18043E+07
 
   -0.16378E+07         0.54546E+07         0.00000E+00
    0.54546E+07        -0.74634E+07         0.00000E+00
    0.00000E+00         0.00000E+00        -0.18202E+07
 
   -0.17491E+07         0.70707E+07         0.00000E+00
    0.70707E+07        -0.74119E+07         0.00000E+00
    0.00000E+00         0.00000E+00        -0.18322E+07
 
   -0.18187E+07         0.88066E+07         0.00000E+00
    0.88066E+07        -0.73791E+07         0.00000E+00
    0.00000E+00         0.00000E+00        -0.18396E+07
 
   -0.30362E+07        -0.32002E+06         0.00000E+00
   -0.32002E+06        -0.10799E+08         0.00000E+00
    0.00000E+00         0.00000E+00        -0.27671E+07
 
   -0.29133E+07        -0.85180E+06         0.00000E+00
   -0.85180E+06        -0.10789E+08         0.00000E+00
    0.00000E+00         0.00000E+00        -0.27404E+07
 
   -0.28208E+07        -0.12186E+07         0.00000E+00
   -0.12186E+07        -0.10771E+08         0.00000E+00
    0.00000E+00         0.00000E+00        -0.27183E+07
 
   -0.27529E+07        -0.14039E+07         0.00000E+00
   -0.14039E+07        -0.10749E+08         0.00000E+00
    0.00000E+00         0.00000E+00        -0.27003E+07
 
   -0.27056E+07        -0.13977E+07         0.00000E+00
   -0.13977E+07        -0.10723E+08         0.00000E+00
    0.00000E+00         0.00000E+00        -0.26857E+07
 
   -0.26761E+07        -0.11952E+07         0.00000E+00
   -0.11952E+07        -0.10694E+08         0.00000E+00
    0.00000E+00         0.00000E+00        -0.26740E+07
 
   -0.26619E+07        -0.79529E+06         0.00000E+00
   -0.79529E+06        -0.10662E+08         0.00000E+00
    0.00000E+00         0.00000E+00        -0.26648E+07
 
   -0.26600E+07        -0.19967E+06         0.00000E+00
   -0.19967E+06        -0.10628E+08         0.00000E+00
    0.00000E+00         0.00000E+00        -0.26577E+07
 
   -0.26672E+07         0.58741E+06         0.00000E+00
    0.58741E+06        -0.10594E+08         0.00000E+00
    0.00000E+00         0.00000E+00        -0.26522E+07
 
   -0.26794E+07         0.15596E+07         0.00000E+00
    0.15596E+07        -0.10560E+08         0.00000E+00
    0.00000E+00         0.00000E+00        -0.26478E+07
 
   -0.26923E+07         0.27083E+07         0.00000E+00
    0.27083E+07        -0.10529E+08         0.00000E+00
    0.00000E+00         0.00000E+00        -0.26442E+07
 
   -0.27009E+07         0.40228E+07         0.00000E+00
    0.40228E+07        -0.10503E+08         0.00000E+00
    0.00000E+00         0.00000E+00        -0.26408E+07
 
   -0.27000E+07         0.54892E+07         0.00000E+00
    0.54892E+07        -0.10486E+08         0.00000E+00
    0.00000E+00         0.00000E+00        -0.26372E+07
 
   -0.26843E+07         0.70911E+07         0.00000E+00
    0.70911E+07        -0.10480E+08         0.00000E+00
    0.00000E+00         0.00000E+00        -0.26328E+07
 
   -0.26482E+07         0.88083E+07         0.00000E+00
    0.88083E+07        -0.10489E+08         0.00000E+00
    0.00000E+00         0.00000E+00        -0.26274E+07
 
   -0.62007E+07        -0.31802E+06         0.00000E+00
   -0.31802E+06        -0.13364E+08         0.00000E+00
    0.00000E+00         0.00000E+00        -0.39129E+07
 
   -0.59259E+07        -0.84732E+06         0.00000E+00
   -0.84732E+06        -0.13367E+08         0.00000E+00
    0.00000E+00         0.00000E+00        -0.38585E+07
 
   -0.56607E+07        -0.12126E+07         0.00000E+00
   -0.12126E+07        -0.13373E+08         0.00000E+00
    0.00000E+00         0.00000E+00        -0.38067E+07
 
   -0.54072E+07        -0.13963E+07         0.00000E+00
   -0.13963E+07        -0.13380E+08         0.00000E+00
    0.00000E+00         0.00000E+00        -0.37575E+07
 
   -0.51673E+07        -0.13883E+07         0.00000E+00
   -0.13883E+07        -0.13388E+08         0.00000E+00
    0.00000E+00         0.00000E+00        -0.37111E+07
 
   -0.49426E+07        -0.11838E+07         0.00000E+00
   -0.11838E+07        -0.13396E+08         0.00000E+00
    0.00000E+00         0.00000E+00        -0.36677E+07
 
   -0.47338E+07        -0.78221E+06         0.00000E+00
   -0.78221E+06        -0.13403E+08         0.00000E+00
    0.00000E+00         0.00000E+00        -0.36273E+07
 
   -0.45406E+07        -0.18582E+06         0.00000E+00
   -0.18582E+06        -0.13410E+08         0.00000E+00
    0.00000E+00         0.00000E+00        -0.35901E+07
 
   -0.43620E+07         0.60059E+06         0.00000E+00
    0.60059E+06        -0.13418E+08         0.00000E+00
    0.00000E+00         0.00000E+00        -0.35560E+07
 
   -0.41960E+07         0.15702E+07         0.00000E+00
    0.15702E+07        -0.13429E+08         0.00000E+00
    0.00000E+00         0.00000E+00        -0.35250E+07
 
   -0.40403E+07         0.27142E+07         0.00000E+00
    0.27142E+07        -0.13444E+08         0.00000E+00
    0.00000E+00         0.00000E+00        -0.34968E+07
 
   -0.38923E+07         0.40215E+07         0.00000E+00
    0.40215E+07        -0.13465E+08         0.00000E+00
    0.00000E+00         0.00000E+00        -0.34714E+07
 
   -0.37496E+07         0.54785E+07         0.00000E+00
    0.54785E+07        -0.13494E+08         0.00000E+00
    0.00000E+00         0.00000E+00        -0.34488E+07
 
   -0.36101E+07         0.70686E+07         0.00000E+00
    0.70686E+07        -0.13533E+08         0.00000E+00
    0.00000E+00         0.00000E+00        -0.34286E+07
 
   -0.34717E+07         0.87717E+07         0.00000E+00
    0.87717E+07        -0.13582E+08         0.00000E+00
    0.00000E+00         0.00000E+00        -0.34108E+07
 
   -0.93481E+07        -0.32361E+06         0.00000E+00
   -0.32361E+06        -0.15908E+08         0.00000E+00
    0.00000E+00         0.00000E+00        -0.50511E+07
 
   -0.89206E+07        -0.86173E+06         0.00000E+00
   -0.86173E+06        -0.15925E+08         0.00000E+00
    0.00000E+00         0.00000E+00        -0.49691E+07
 
   -0.84816E+07        -0.12327E+07         0.00000E+00
   -0.12327E+07        -0.15955E+08         0.00000E+00
    0.00000E+00         0.00000E+00        -0.48873E+07
 
   -0.80412E+07        -0.14194E+07         0.00000E+00
   -0.14194E+07        -0.15993E+08         0.00000E+00
    0.00000E+00         0.00000E+00        -0.48068E+07
 
   -0.76078E+07        -0.14125E+07         0.00000E+00
   -0.14125E+07        -0.16035E+08         0.00000E+00
    0.00000E+00         0.00000E+00        -0.47285E+07
 
   -0.71876E+07        -0.12081E+07         0.00000E+00
   -0.12081E+07        -0.16079E+08         0.00000E+00
    0.00000E+00         0.00000E+00        -0.46532E+07
 
   -0.67848E+07        -0.80665E+06         0.00000E+00
   -0.80665E+06        -0.16124E+08         0.00000E+00
    0.00000E+00         0.00000E+00        -0.45817E+07
 
   -0.64017E+07        -0.21131E+06         0.00000E+00
   -0.21131E+06        -0.16170E+08         0.00000E+00
    0.00000E+00         0.00000E+00        -0.45144E+07
 
   -0.60390E+07         0.57250E+06         0.00000E+00
    0.57250E+06        -0.16220E+08         0.00000E+00
    0.00000E+00         0.00000E+00        -0.44517E+07
 
   -0.56967E+07         0.15377E+07         0.00000E+00
    0.15377E+07        -0.16273E+08         0.00000E+00
    0.00000E+00         0.00000E+00        -0.43940E+07
 
   -0.53742E+07         0.26754E+07         0.00000E+00
    0.26754E+07        -0.16333E+08         0.00000E+00
    0.00000E+00         0.00000E+00        -0.43414E+07
 
   -0.50715E+07         0.39751E+07         0.00000E+00
    0.39751E+07        -0.16400E+08         0.00000E+00
    0.00000E+00         0.00000E+00        -0.42943E+07
 
   -0.47886E+07         0.54234E+07         0.00000E+00
    0.54234E+07        -0.16475E+08         0.00000E+00
    0.00000E+00         0.00000E+00        -0.42526E+07
 
   -0.45267E+07         0.70042E+07         0.00000E+00
    0.70042E+07        -0.16557E+08         0.00000E+00
    0.00000E+00         0.00000E+00        -0.42168E+07
 
   -0.42872E+07         0.86978E+07         0.00000E+00
    0.86978E+07        -0.16647E+08         0.00000E+00
    0.00000E+00         0.00000E+00        -0.41868E+07
 
   -0.12497E+08        -0.33684E+06         0.00000E+00
   -0.33684E+06        -0.18436E+08         0.00000E+00
    0.00000E+00         0.00000E+00        -0.61866E+07
 
   -0.11911E+08        -0.89507E+06         0.00000E+00
   -0.89507E+06        -0.18467E+08         0.00000E+00
    0.00000E+00         0.00000E+00        -0.60757E+07
 
   -0.11294E+08        -0.12788E+07         0.00000E+00
   -0.12788E+07        -0.18520E+08         0.00000E+00
    0.00000E+00         0.00000E+00        -0.59628E+07
 
   -0.10663E+08        -0.14726E+07         0.00000E+00
   -0.14726E+07        -0.18587E+08         0.00000E+00
    0.00000E+00         0.00000E+00        -0.58499E+07
 
   -0.10034E+08        -0.14691E+07         0.00000E+00
   -0.14691E+07        -0.18661E+08         0.00000E+00
    0.00000E+00         0.00000E+00        -0.57389E+07
 
   -0.94172E+07        -0.12664E+07         0.00000E+00
   -0.12664E+07        -0.18738E+08         0.00000E+00
    0.00000E+00         0.00000E+00        -0.56311E+07
 
   -0.88209E+07        -0.86637E+06         0.00000E+00
   -0.86637E+06        -0.18818E+08         0.00000E+00
    0.00000E+00         0.00000E+00        -0.55277E+07
 
   -0.82491E+07        -0.27370E+06         0.00000E+00
   -0.27370E+06        -0.18900E+08         0.00000E+00
    0.00000E+00         0.00000E+00        -0.54299E+07
 
   -0.77041E+07         0.50556E+06         0.00000E+00
    0.50556E+06        -0.18988E+08         0.00000E+00
    0.00000E+00         0.00000E+00        -0.53383E+07
 
   -0.71872E+07         0.14642E+07         0.00000E+00
    0.14642E+07        -0.19081E+08         0.00000E+00
    0.00000E+00         0.00000E+00        -0.52537E+07
 
   -0.66994E+07         0.25939E+07         0.00000E+00
    0.25939E+07        -0.19183E+08         0.00000E+00
    0.00000E+00         0.00000E+00        -0.51765E+07
 
   -0.62425E+07         0.38847E+07         0.00000E+00
    0.38847E+07        -0.19294E+08         0.00000E+00
    0.00000E+00         0.00000E+00        -0.51072E+07
 
   -0.58194E+07         0.53244E+07         0.00000E+00
    0.53244E+07        -0.19413E+08         0.00000E+00
    0.00000E+00         0.00000E+00        -0.50465E+07
 
   -0.54344E+07         0.68981E+07         0.00000E+00
    0.68981E+07        -0.19539E+08         0.00000E+00
    0.00000E+00         0.00000E+00        -0.49947E+07
 
   -0.50928E+07         0.85865E+07         0.00000E+00
    0.85865E+07        -0.19669E+08         0.00000E+00
    0.00000E+00         0.00000E+00        -0.49523E+07
 
   -0.15666E+08        -0.35748E+06         0.00000E+00
   -0.35748E+06        -0.20953E+08         0.00000E+00
    0.00000E+00         0.00000E+00        -0.73237E+07
 
   -0.14911E+08        -0.94645E+06         0.00000E+00
   -0.94645E+06        -0.20997E+08         0.00000E+00
    0.00000E+00         0.00000E+00        -0.71816E+07
 
   -0.14106E+08        -0.13491E+07         0.00000E+00
   -0.13491E+07        -0.21072E+08         0.00000E+00
    0.00000E+00         0.00000E+00        -0.70356E+07
 
   -0.13279E+08        -0.15533E+07         0.00000E+00
   -0.15533E+07        -0.21164E+08         0.00000E+00
    0.00000E+00         0.00000E+00        -0.68885E+07
 
   -0.12451E+08        -0.15546E+07         0.00000E+00
   -0.15546E+07        -0.21265E+08         0.00000E+00
    0.00000E+00         0.00000E+00        -0.67431E+07
 
   -0.11637E+08        -0.13542E+07         0.00000E+00
   -0.13542E+07        -0.21370E+08         0.00000E+00
    0.00000E+00         0.00000E+00        -0.66014E+07
 
   -0.10847E+08        -0.95671E+06         0.00000E+00
   -0.95671E+06        -0.21479E+08         0.00000E+00
    0.00000E+00         0.00000E+00        -0.64653E+07
 
   -0.10089E+08        -0.36833E+06         0.00000E+00
   -0.36833E+06        -0.21591E+08         0.00000E+00
    0.00000E+00         0.00000E+00        -0.63360E+07
 
   -0.93636E+07         0.40404E+06         0.00000E+00
    0.40404E+06        -0.21710E+08         0.00000E+00
    0.00000E+00         0.00000E+00        -0.62148E+07
 
   -0.86740E+07         0.13533E+07         0.00000E+00
    0.13533E+07        -0.21839E+08         0.00000E+00
    0.00000E+00         0.00000E+00        -0.61026E+07
 
   -0.80217E+07         0.24720E+07         0.00000E+00
    0.24720E+07        -0.21979E+08         0.00000E+00
    0.00000E+00         0.00000E+00        -0.60002E+07
 
   -0.74103E+07         0.37517E+07         0.00000E+00
    0.37517E+07        -0.22131E+08         0.00000E+00
    0.00000E+00         0.00000E+00        -0.59083E+07
 
   -0.68451E+07         0.51821E+07         0.00000E+00
    0.51821E+07        -0.22294E+08         0.00000E+00
    0.00000E+00         0.00000E+00        -0.58279E+07
 
   -0.63339E+07         0.67498E+07         0.00000E+00
    0.67498E+07        -0.22464E+08         0.00000E+00
    0.00000E+00         0.00000E+00        -0.57596E+07
 
   -0.58865E+07         0.84371E+07         0.00000E+00
    0.84371E+07        -0.22635E+08         0.00000E+00
    0.00000E+00         0.00000E+00        -0.57044E+07
 
   -0.18872E+08        -0.38498E+06         0.00000E+00
   -0.38498E+06        -0.23462E+08         0.00000E+00
    0.00000E+00         0.00000E+00        -0.84668E+07
 
   -0.17932E+08        -0.10141E+07         0.00000E+00
   -0.10141E+07        -0.23518E+08         0.00000E+00
    0.00000E+00         0.00000E+00        -0.82900E+07
 
   -0.16927E+08        -0.14405E+07         0.00000E+00
   -0.14405E+07        -0.23611E+08         0.00000E+00
    0.00000E+00         0.00000E+00        -0.81076E+07
 
   -0.15895E+08        -0.16566E+07         0.00000E+00
   -0.16566E+07        -0.23723E+08         0.00000E+00
    0.00000E+00         0.00000E+00        -0.79237E+07
 
   -0.14863E+08        -0.16628E+07         0.00000E+00
   -0.16628E+07        -0.23845E+08         0.00000E+00
    0.00000E+00         0.00000E+00        -0.77417E+07
 
   -0.13851E+08        -0.14648E+07         0.00000E+00
   -0.14648E+07        -0.23971E+08         0.00000E+00
    0.00000E+00         0.00000E+00        -0.75643E+07
 
   -0.12870E+08        -0.10704E+07         0.00000E+00
   -0.10704E+07        -0.24099E+08         0.00000E+00
    0.00000E+00         0.00000E+00        -0.73938E+07
 
   -0.11927E+08        -0.48814E+06         0.00000E+00
   -0.48814E+06        -0.24233E+08         0.00000E+00
    0.00000E+00         0.00000E+00        -0.72319E+07
 
   -0.11025E+08         0.27422E+06         0.00000E+00
    0.27422E+06        -0.24376E+08         0.00000E+00
    0.00000E+00         0.00000E+00        -0.70800E+07
 
   -0.10164E+08         0.12100E+07         0.00000E+00
    0.12100E+07        -0.24532E+08         0.00000E+00
    0.00000E+00         0.00000E+00        -0.69393E+07
 
   -0.93484E+07         0.23132E+07         0.00000E+00
    0.23132E+07        -0.24706E+08         0.00000E+00
    0.00000E+00         0.00000E+00        -0.68108E+07
 
   -0.85809E+07         0.35778E+07         0.00000E+00
    0.35778E+07        -0.24897E+08         0.00000E+00
    0.00000E+00         0.00000E+00        -0.66955E+07
 
   -0.78698E+07         0.49963E+07         0.00000E+00
    0.49963E+07        -0.25102E+08         0.00000E+00
    0.00000E+00         0.00000E+00        -0.65944E+07
 
   -0.72268E+07         0.65580E+07         0.00000E+00
    0.65580E+07        -0.25317E+08         0.00000E+00
    0.00000E+00         0.00000E+00        -0.65088E+07
 
   -0.66668E+07         0.82472E+07         0.00000E+00
    0.82472E+07        -0.25532E+08         0.00000E+00
    0.00000E+00         0.00000E+00        -0.64398E+07
 
   -0.22130E+08        -0.41856E+06         0.00000E+00
   -0.41856E+06        -0.25969E+08         0.00000E+00
    0.00000E+00         0.00000E+00        -0.96197E+07
 
   -0.20983E+08        -0.10954E+07         0.00000E+00
   -0.10954E+07        -0.26034E+08         0.00000E+00
    0.00000E+00         0.00000E+00        -0.94035E+07
 
   -0.19763E+08        -0.15480E+07         0.00000E+00
   -0.15480E+07        -0.26140E+08         0.00000E+00
    0.00000E+00         0.00000E+00        -0.91806E+07
 
   -0.18515E+08        -0.17756E+07         0.00000E+00
   -0.17756E+07        -0.26266E+08         0.00000E+00
    0.00000E+00         0.00000E+00        -0.89562E+07
 
   -0.17274E+08        -0.17852E+07         0.00000E+00
   -0.17852E+07        -0.26399E+08         0.00000E+00
    0.00000E+00         0.00000E+00        -0.87346E+07
 
   -0.16063E+08        -0.15883E+07         0.00000E+00
   -0.15883E+07        -0.26533E+08         0.00000E+00
    0.00000E+00         0.00000E+00        -0.85191E+07
 
   -0.14893E+08        -0.11973E+07         0.00000E+00
   -0.11973E+07        -0.26669E+08         0.00000E+00
    0.00000E+00         0.00000E+00        -0.83124E+07
 
   -0.13770E+08        -0.62346E+06         0.00000E+00
   -0.62346E+06        -0.26812E+08         0.00000E+00
    0.00000E+00         0.00000E+00        -0.81164E+07
 
   -0.12695E+08         0.12453E+06         0.00000E+00
    0.12453E+06        -0.26968E+08         0.00000E+00
    0.00000E+00         0.00000E+00        -0.79326E+07
 
   -0.11667E+08         0.10408E+07         0.00000E+00
    0.10408E+07        -0.27145E+08         0.00000E+00
    0.00000E+00         0.00000E+00        -0.77624E+07
 
   -0.10688E+08         0.21217E+07         0.00000E+00
    0.21217E+07        -0.27345E+08         0.00000E+00
    0.00000E+00         0.00000E+00        -0.76066E+07
 
   -0.97624E+07         0.33647E+07         0.00000E+00
    0.33647E+07        -0.27571E+08         0.00000E+00
    0.00000E+00         0.00000E+00        -0.74667E+07
 
   -0.88996E+07         0.47662E+07         0.00000E+00
    0.47662E+07        -0.27819E+08         0.00000E+00
    0.00000E+00         0.00000E+00        -0.73437E+07
 
   -0.81158E+07         0.63198E+07         0.00000E+00
    0.63198E+07        -0.28081E+08         0.00000E+00
    0.00000E+00         0.00000E+00        -0.72394E+07
 
   -0.74323E+07         0.80130E+07         0.00000E+00
    0.80130E+07        -0.28344E+08         0.00000E+00
    0.00000E+00         0.00000E+00        -0.71553E+07
 
   -0.25454E+08        -0.45722E+06         0.00000E+00
   -0.45722E+06        -0.28475E+08         0.00000E+00
    0.00000E+00         0.00000E+00        -0.10786E+08
 
   -0.24073E+08        -0.11866E+07         0.00000E+00
   -0.11866E+07        -0.28547E+08         0.00000E+00
    0.00000E+00         0.00000E+00        -0.10524E+08
 
   -0.22616E+08        -0.16651E+07         0.00000E+00
   -0.16651E+07        -0.28660E+08         0.00000E+00
    0.00000E+00         0.00000E+00        -0.10255E+08
 
   -0.21140E+08        -0.19007E+07         0.00000E+00
   -0.19007E+07        -0.28789E+08         0.00000E+00
    0.00000E+00         0.00000E+00        -0.99859E+07
 
   -0.19685E+08        -0.19097E+07         0.00000E+00
   -0.19097E+07        -0.28921E+08         0.00000E+00
    0.00000E+00         0.00000E+00        -0.97211E+07
 
   -0.18275E+08        -0.17115E+07         0.00000E+00
   -0.17115E+07        -0.29049E+08         0.00000E+00
    0.00000E+00         0.00000E+00        -0.94647E+07
 
   -0.16921E+08        -0.13241E+07         0.00000E+00
   -0.13241E+07        -0.29178E+08         0.00000E+00
    0.00000E+00         0.00000E+00        -0.92197E+07
 
   -0.15625E+08        -0.76190E+06         0.00000E+00
   -0.76190E+06        -0.29316E+08         0.00000E+00
    0.00000E+00         0.00000E+00        -0.89881E+07
 
   -0.14384E+08        -0.34390E+05         0.00000E+00
   -0.34390E+05        -0.29472E+08         0.00000E+00
    0.00000E+00         0.00000E+00        -0.87711E+07
 
   -0.13194E+08         0.85394E+06         0.00000E+00
    0.85394E+06        -0.29657E+08         0.00000E+00
    0.00000E+00         0.00000E+00        -0.85701E+07
 
   -0.12053E+08         0.19027E+07         0.00000E+00
    0.19027E+07        -0.29876E+08         0.00000E+00
    0.00000E+00         0.00000E+00        -0.83859E+07
 
   -0.10965E+08         0.31141E+07         0.00000E+00
    0.31141E+07        -0.30134E+08         0.00000E+00
    0.00000E+00         0.00000E+00        -0.82198E+07
 
   -0.99425E+07         0.44904E+07         0.00000E+00
    0.44904E+07        -0.30424E+08         0.00000E+00
    0.00000E+00         0.00000E+00        -0.80733E+07
 
   -0.90049E+07         0.60310E+07         0.00000E+00
    0.60310E+07        -0.30737E+08         0.00000E+00
    0.00000E+00         0.00000E+00        -0.79484E+07
 
   -0.81818E+07         0.77285E+07         0.00000E+00
    0.77285E+07        -0.31055E+08         0.00000E+00
    0.00000E+00         0.00000E+00        -0.78473E+07
 
   -0.28852E+08        -0.49974E+06         0.00000E+00
   -0.49974E+06        -0.30984E+08         0.00000E+00
    0.00000E+00         0.00000E+00        -0.11967E+08
 
   -0.27202E+08        -0.12832E+07         0.00000E+00
   -0.12832E+07        -0.31059E+08         0.00000E+00
    0.00000E+00         0.00000E+00        -0.11652E+08
 
   -0.25484E+08        -0.17827E+07         0.00000E+00
   -0.17827E+07        -0.31172E+08         0.00000E+00
    0.00000E+00         0.00000E+00        -0.11331E+08
 
   -0.23766E+08        -0.20190E+07         0.00000E+00
   -0.20190E+07        -0.31291E+08         0.00000E+00
    0.00000E+00         0.00000E+00        -0.11012E+08
 
   -0.22093E+08        -0.20209E+07         0.00000E+00
   -0.20209E+07        -0.31404E+08         0.00000E+00
    0.00000E+00         0.00000E+00        -0.10699E+08
 
   -0.20488E+08        -0.18177E+07         0.00000E+00
   -0.18177E+07        -0.31508E+08         0.00000E+00
    0.00000E+00         0.00000E+00        -0.10399E+08
 
   -0.18959E+08        -0.14343E+07         0.00000E+00
   -0.14343E+07        -0.31611E+08         0.00000E+00
    0.00000E+00         0.00000E+00        -0.10114E+08
 
   -0.17500E+08        -0.88830E+06         0.00000E+00
   -0.88830E+06        -0.31725E+08         0.00000E+00
    0.00000E+00         0.00000E+00        -0.98450E+07
 
   -0.16103E+08        -0.18966E+06         0.00000E+00
   -0.18966E+06        -0.31866E+08         0.00000E+00
    0.00000E+00         0.00000E+00        -0.95938E+07
 
   -0.14757E+08         0.65920E+06         0.00000E+00
    0.65920E+06        -0.32047E+08         0.00000E+00
    0.00000E+00         0.00000E+00        -0.93608E+07
 
   -0.13457E+08         0.16621E+07         0.00000E+00
    0.16621E+07        -0.32277E+08         0.00000E+00
    0.00000E+00         0.00000E+00        -0.91468E+07
 
   -0.12204E+08         0.28276E+07         0.00000E+00
    0.28276E+07        -0.32561E+08         0.00000E+00
    0.00000E+00         0.00000E+00        -0.89530E+07
 
   -0.11010E+08         0.41659E+07         0.00000E+00
    0.41659E+07        -0.32895E+08         0.00000E+00
    0.00000E+00         0.00000E+00        -0.87810E+07
 
   -0.99009E+07         0.56848E+07         0.00000E+00
    0.56848E+07        -0.33264E+08         0.00000E+00
    0.00000E+00         0.00000E+00        -0.86330E+07
 
   -0.89153E+07         0.73846E+07         0.00000E+00
    0.73846E+07        -0.33646E+08         0.00000E+00
    0.00000E+00         0.00000E+00        -0.85122E+07
 
   -0.32332E+08        -0.54466E+06         0.00000E+00
   -0.54466E+06        -0.33498E+08         0.00000E+00
    0.00000E+00         0.00000E+00        -0.13166E+08
 
   -0.30370E+08        -0.13788E+07         0.00000E+00
   -0.13788E+07        -0.33572E+08         0.00000E+00
    0.00000E+00         0.00000E+00        -0.12788E+08
 
   -0.28361E+08        -0.18888E+07         0.00000E+00
   -0.18888E+07        -0.33672E+08         0.00000E+00
    0.00000E+00         0.00000E+00        -0.12407E+08
 
   -0.26387E+08        -0.21135E+07         0.00000E+00
   -0.21135E+07        -0.33765E+08         0.00000E+00
    0.00000E+00         0.00000E+00        -0.12030E+08
 
   -0.24495E+08        -0.20986E+07         0.00000E+00
   -0.20986E+07        -0.33838E+08         0.00000E+00
    0.00000E+00         0.00000E+00        -0.11667E+08
 
   -0.22704E+08        -0.18861E+07         0.00000E+00
   -0.18861E+07        -0.33894E+08         0.00000E+00
    0.00000E+00         0.00000E+00        -0.11320E+08
 
   -0.21012E+08        -0.15082E+07         0.00000E+00
   -0.15082E+07        -0.33948E+08         0.00000E+00
    0.00000E+00         0.00000E+00        -0.10992E+08
 
   -0.19405E+08        -0.98513E+06         0.00000E+00
   -0.98513E+06        -0.34019E+08         0.00000E+00
    0.00000E+00         0.00000E+00        -0.10685E+08
 
   -0.17865E+08        -0.32655E+06         0.00000E+00
   -0.32655E+06        -0.34128E+08         0.00000E+00
    0.00000E+00         0.00000E+00        -0.10399E+08
 
   -0.16374E+08         0.46783E+06         0.00000E+00
    0.46783E+06        -0.34290E+08         0.00000E+00
    0.00000E+00         0.00000E+00        -0.10133E+08
 
   -0.14919E+08         0.14069E+07         0.00000E+00
    0.14069E+07        -0.34521E+08         0.00000E+00
    0.00000E+00         0.00000E+00        -0.98881E+07
 
   -0.13497E+08         0.25069E+07         0.00000E+00
    0.25069E+07        -0.34827E+08         0.00000E+00
    0.00000E+00         0.00000E+00        -0.96648E+07
 
   -0.12118E+08         0.37885E+07         0.00000E+00
    0.37885E+07        -0.35205E+08         0.00000E+00
    0.00000E+00         0.00000E+00        -0.94647E+07
 
   -0.10813E+08         0.52718E+07         0.00000E+00
    0.52718E+07        -0.35639E+08         0.00000E+00
    0.00000E+00         0.00000E+00        -0.92905E+07
 
   -0.96334E+07         0.69685E+07         0.00000E+00
    0.69685E+07        -0.36098E+08         0.00000E+00
    0.00000E+00         0.00000E+00        -0.91462E+07
 
   -0.35894E+08        -0.59026E+06         0.00000E+00
   -0.59026E+06        -0.36018E+08         0.00000E+00
    0.00000E+00         0.00000E+00        -0.14382E+08
 
   -0.33565E+08        -0.14649E+07         0.00000E+00
   -0.14649E+07        -0.36085E+08         0.00000E+00
    0.00000E+00         0.00000E+00        -0.13930E+08
 
   -0.31232E+08        -0.19664E+07         0.00000E+00
   -0.19664E+07        -0.36157E+08         0.00000E+00
    0.00000E+00         0.00000E+00        -0.13478E+08
 
   -0.28990E+08        -0.21610E+07         0.00000E+00
   -0.21610E+07        -0.36199E+08         0.00000E+00
    0.00000E+00         0.00000E+00        -0.13038E+08
 
   -0.26885E+08        -0.21176E+07         0.00000E+00
   -0.21176E+07        -0.36203E+08         0.00000E+00
    0.00000E+00         0.00000E+00        -0.12618E+08
 
   -0.24923E+08        -0.18925E+07         0.00000E+00
   -0.18925E+07        -0.36184E+08         0.00000E+00
    0.00000E+00         0.00000E+00        -0.12222E+08
 
   -0.23088E+08        -0.15239E+07         0.00000E+00
   -0.15239E+07        -0.36166E+08         0.00000E+00
    0.00000E+00         0.00000E+00        -0.11851E+08
 
   -0.21353E+08        -0.10336E+07         0.00000E+00
   -0.10336E+07        -0.36173E+08         0.00000E+00
    0.00000E+00         0.00000E+00        -0.11505E+08
 
   -0.19688E+08        -0.42932E+06         0.00000E+00
   -0.42932E+06        -0.36231E+08         0.00000E+00
    0.00000E+00         0.00000E+00        -0.11184E+08
 
   -0.18065E+08         0.29217E+06         0.00000E+00
    0.29217E+06        -0.36361E+08         0.00000E+00
    0.00000E+00         0.00000E+00        -0.10885E+08
 
   -0.16462E+08         0.11451E+07         0.00000E+00
    0.11451E+07        -0.36581E+08         0.00000E+00
    0.00000E+00         0.00000E+00        -0.10609E+08
 
   -0.14868E+08         0.21540E+07         0.00000E+00
    0.21540E+07        -0.36903E+08         0.00000E+00
    0.00000E+00         0.00000E+00        -0.10354E+08
 
   -0.13289E+08         0.33527E+07         0.00000E+00
    0.33527E+07        -0.37327E+08         0.00000E+00
    0.00000E+00         0.00000E+00        -0.10123E+08
 
   -0.11757E+08         0.47788E+07         0.00000E+00
    0.47788E+07        -0.37836E+08         0.00000E+00
    0.00000E+00         0.00000E+00        -0.99187E+07
 
   -0.10339E+08         0.64618E+07         0.00000E+00
    0.64618E+07        -0.38390E+08         0.00000E+00
    0.00000E+00         0.00000E+00        -0.97459E+07
 
   -0.39533E+08        -0.63425E+06         0.00000E+00
   -0.63425E+06        -0.38545E+08         0.00000E+00
    0.00000E+00         0.00000E+00        -0.15616E+08
 
   -0.36768E+08        -0.15282E+07         0.00000E+00
   -0.15282E+07        -0.38594E+08         0.00000E+00
    0.00000E+00         0.00000E+00        -0.15072E+08
 
   -0.34074E+08        -0.19903E+07         0.00000E+00
   -0.19903E+07        -0.38615E+08         0.00000E+00
    0.00000E+00         0.00000E+00        -0.14538E+08
 
   -0.31560E+08        -0.21301E+07         0.00000E+00
   -0.21301E+07        -0.38571E+08         0.00000E+00
    0.00000E+00         0.00000E+00        -0.14026E+08
 
   -0.29257E+08        -0.20469E+07         0.00000E+00
   -0.20469E+07        -0.38471E+08         0.00000E+00
    0.00000E+00         0.00000E+00        -0.13546E+08
 
   -0.27149E+08        -0.18099E+07         0.00000E+00
   -0.18099E+07        -0.38346E+08         0.00000E+00
    0.00000E+00         0.00000E+00        -0.13099E+08
 
   -0.25197E+08        -0.14597E+07         0.00000E+00
   -0.14597E+07        -0.38231E+08         0.00000E+00
    0.00000E+00         0.00000E+00        -0.12685E+08
 
   -0.23358E+08        -0.10156E+07         0.00000E+00
   -0.10156E+07        -0.38155E+08         0.00000E+00
    0.00000E+00         0.00000E+00        -0.12303E+08
 
   -0.21590E+08        -0.48287E+06         0.00000E+00
   -0.48287E+06        -0.38147E+08         0.00000E+00
    0.00000E+00         0.00000E+00        -0.11947E+08
 
   -0.19853E+08         0.14491E+06         0.00000E+00
    0.14491E+06        -0.38231E+08         0.00000E+00
    0.00000E+00         0.00000E+00        -0.11617E+08
 
   -0.18114E+08         0.88585E+06         0.00000E+00
    0.88585E+06        -0.38429E+08         0.00000E+00
    0.00000E+00         0.00000E+00        -0.11309E+08
 
   -0.16349E+08         0.17721E+07         0.00000E+00
    0.17721E+07        -0.38759E+08         0.00000E+00
    0.00000E+00         0.00000E+00        -0.11022E+08
 
   -0.14553E+08         0.28522E+07         0.00000E+00
    0.28522E+07        -0.39229E+08         0.00000E+00
    0.00000E+00         0.00000E+00        -0.10756E+08
 
   -0.12756E+08         0.41879E+07         0.00000E+00
    0.41879E+07        -0.39826E+08         0.00000E+00
    0.00000E+00         0.00000E+00        -0.10516E+08
 
   -0.11038E+08         0.58385E+07         0.00000E+00
    0.58385E+07        -0.40502E+08         0.00000E+00
    0.00000E+00         0.00000E+00        -0.10308E+08
 
   -0.43233E+08        -0.67300E+06         0.00000E+00
   -0.67300E+06        -0.41079E+08         0.00000E+00
    0.00000E+00         0.00000E+00        -0.16862E+08
 
   -0.39939E+08        -0.15455E+07         0.00000E+00
   -0.15455E+07        -0.41092E+08         0.00000E+00
    0.00000E+00         0.00000E+00        -0.16206E+08
 
   -0.36852E+08        -0.19205E+07         0.00000E+00
   -0.19205E+07        -0.41017E+08         0.00000E+00
    0.00000E+00         0.00000E+00        -0.15574E+08
 
   -0.34080E+08        -0.19785E+07         0.00000E+00
   -0.19785E+07        -0.40837E+08         0.00000E+00
    0.00000E+00         0.00000E+00        -0.14983E+08
 
   -0.31612E+08        -0.18518E+07         0.00000E+00
   -0.18518E+07        -0.40592E+08         0.00000E+00
    0.00000E+00         0.00000E+00        -0.14441E+08
 
   -0.29392E+08        -0.16134E+07         0.00000E+00
   -0.16134E+07        -0.40333E+08         0.00000E+00
    0.00000E+00         0.00000E+00        -0.13945E+08
 
   -0.27353E+08        -0.12974E+07         0.00000E+00
   -0.12974E+07        -0.40102E+08         0.00000E+00
    0.00000E+00         0.00000E+00        -0.13491E+08
 
   -0.25437E+08        -0.91766E+06         0.00000E+00
   -0.91766E+06        -0.39931E+08         0.00000E+00
    0.00000E+00         0.00000E+00        -0.13074E+08
 
   -0.23590E+08        -0.47548E+06         0.00000E+00
   -0.47548E+06        -0.39848E+08         0.00000E+00
    0.00000E+00         0.00000E+00        -0.12687E+08
 
   -0.21761E+08         0.37499E+05         0.00000E+00
    0.37499E+05        -0.39876E+08         0.00000E+00
    0.00000E+00         0.00000E+00        -0.12327E+08
 
   -0.19905E+08         0.64045E+06         0.00000E+00
    0.64045E+06        -0.40041E+08         0.00000E+00
    0.00000E+00         0.00000E+00        -0.11989E+08
 
   -0.17979E+08         0.13684E+07         0.00000E+00
    0.13684E+07        -0.40367E+08         0.00000E+00
    0.00000E+00         0.00000E+00        -0.11669E+08
 
   -0.15954E+08         0.22826E+07         0.00000E+00
    0.22826E+07        -0.40879E+08         0.00000E+00
    0.00000E+00         0.00000E+00        -0.11367E+08
 
   -0.13845E+08         0.34769E+07         0.00000E+00
    0.34769E+07        -0.41575E+08         0.00000E+00
    0.00000E+00         0.00000E+00        -0.11084E+08
 
   -0.11743E+08         0.50610E+07         0.00000E+00
    0.50610E+07        -0.42408E+08         0.00000E+00
    0.00000E+00         0.00000E+00        -0.10830E+08
 
   -0.46960E+08        -0.69825E+06         0.00000E+00
   -0.69825E+06        -0.43614E+08         0.00000E+00
    0.00000E+00         0.00000E+00        -0.18115E+08
 
   -0.43014E+08        -0.14691E+07         0.00000E+00
   -0.14691E+07        -0.43549E+08         0.00000E+00
    0.00000E+00         0.00000E+00        -0.17313E+08
 
   -0.39526E+08        -0.16914E+07         0.00000E+00
   -0.16914E+07        -0.43300E+08         0.00000E+00
    0.00000E+00         0.00000E+00        -0.16565E+08
 
   -0.36544E+08        -0.16546E+07         0.00000E+00
   -0.16546E+07        -0.42915E+08         0.00000E+00
    0.00000E+00         0.00000E+00        -0.15892E+08
 
   -0.33963E+08        -0.15020E+07         0.00000E+00
   -0.15020E+07        -0.42489E+08         0.00000E+00
    0.00000E+00         0.00000E+00        -0.15290E+08
 
   -0.31670E+08        -0.12868E+07         0.00000E+00
   -0.12868E+07        -0.42081E+08         0.00000E+00
    0.00000E+00         0.00000E+00        -0.14750E+08
 
   -0.29577E+08        -0.10293E+07         0.00000E+00
   -0.10293E+07        -0.41731E+08         0.00000E+00
    0.00000E+00         0.00000E+00        -0.14262E+08
 
   -0.27610E+08        -0.73513E+06         0.00000E+00
   -0.73513E+06        -0.41466E+08         0.00000E+00
    0.00000E+00         0.00000E+00        -0.13815E+08
 
   -0.25707E+08        -0.40241E+06         0.00000E+00
   -0.40241E+06        -0.41307E+08         0.00000E+00
    0.00000E+00         0.00000E+00        -0.13403E+08
 
   -0.23811E+08        -0.22753E+05         0.00000E+00
   -0.22753E+05        -0.41278E+08         0.00000E+00
    0.00000E+00         0.00000E+00        -0.13018E+08
 
   -0.21862E+08         0.42037E+06         0.00000E+00
    0.42037E+06        -0.41402E+08         0.00000E+00
    0.00000E+00         0.00000E+00        -0.12653E+08
 
   -0.19800E+08         0.95768E+06         0.00000E+00
    0.95768E+06        -0.41711E+08         0.00000E+00
    0.00000E+00         0.00000E+00        -0.12302E+08
 
   -0.17554E+08         0.16489E+07         0.00000E+00
    0.16489E+07        -0.42244E+08         0.00000E+00
    0.00000E+00         0.00000E+00        -0.11960E+08
 
   -0.15088E+08         0.26210E+07         0.00000E+00
    0.26210E+07        -0.43045E+08         0.00000E+00
    0.00000E+00         0.00000E+00        -0.11627E+08
 
   -0.12480E+08         0.40728E+07         0.00000E+00
    0.40728E+07        -0.44080E+08         0.00000E+00
    0.00000E+00         0.00000E+00        -0.11312E+08
 
   -0.50628E+08        -0.68081E+06         0.00000E+00
   -0.68081E+06        -0.46134E+08         0.00000E+00
    0.00000E+00         0.00000E+00        -0.19352E+08
 
   -0.45890E+08        -0.11846E+07         0.00000E+00
   -0.11846E+07        -0.45861E+08         0.00000E+00
    0.00000E+00         0.00000E+00        -0.18350E+08
 
   -0.42078E+08        -0.12109E+07         0.00000E+00
   -0.12109E+07        -0.45302E+08         0.00000E+00
    0.00000E+00         0.00000E+00        -0.17476E+08
 
   -0.38980E+08        -0.11209E+07         0.00000E+00
   -0.11209E+07        -0.44670E+08         0.00000E+00
    0.00000E+00         0.00000E+00        -0.16730E+08
 
   -0.36342E+08        -0.98883E+06         0.00000E+00
   -0.98883E+06        -0.44061E+08         0.00000E+00
    0.00000E+00         0.00000E+00        -0.16081E+08
 
   -0.34014E+08        -0.83462E+06         0.00000E+00
   -0.83462E+06        -0.43519E+08         0.00000E+00
    0.00000E+00         0.00000E+00        -0.15507E+08
 
   -0.31891E+08        -0.66382E+06         0.00000E+00
   -0.66382E+06        -0.43068E+08         0.00000E+00
    0.00000E+00         0.00000E+00        -0.14992E+08
 
   -0.29895E+08        -0.47648E+06         0.00000E+00
   -0.47648E+06        -0.42724E+08         0.00000E+00
    0.00000E+00         0.00000E+00        -0.14524E+08
 
   -0.27958E+08        -0.26948E+06         0.00000E+00
   -0.26948E+06        -0.42505E+08         0.00000E+00
    0.00000E+00         0.00000E+00        -0.14093E+08
 
   -0.26018E+08        -0.36640E+05         0.00000E+00
   -0.36640E+05        -0.42426E+08         0.00000E+00
    0.00000E+00         0.00000E+00        -0.13689E+08
 
   -0.24007E+08         0.23287E+06         0.00000E+00
    0.23287E+06        -0.42512E+08         0.00000E+00
    0.00000E+00         0.00000E+00        -0.13304E+08
 
   -0.21847E+08         0.55905E+06         0.00000E+00
    0.55905E+06        -0.42793E+08         0.00000E+00
    0.00000E+00         0.00000E+00        -0.12928E+08
 
   -0.19431E+08         0.98291E+06         0.00000E+00
    0.98291E+06        -0.43319E+08         0.00000E+00
    0.00000E+00         0.00000E+00        -0.12550E+08
 
   -0.16598E+08         0.16083E+07         0.00000E+00
    0.16083E+07        -0.44177E+08         0.00000E+00
    0.00000E+00         0.00000E+00        -0.12155E+08
 
   -0.13308E+08         0.27787E+07         0.00000E+00
    0.27787E+07        -0.45483E+08         0.00000E+00
    0.00000E+00         0.00000E+00        -0.11758E+08
 
   -0.53996E+08        -0.42930E+06         0.00000E+00
   -0.42930E+06        -0.48408E+08         0.00000E+00
    0.00000E+00         0.00000E+00        -0.20481E+08
 
   -0.48494E+08        -0.48993E+06         0.00000E+00
   -0.48993E+06        -0.47624E+08         0.00000E+00
    0.00000E+00         0.00000E+00        -0.19224E+08
 
   -0.44585E+08        -0.44764E+06         0.00000E+00
   -0.44764E+06        -0.46749E+08         0.00000E+00
    0.00000E+00         0.00000E+00        -0.18267E+08
 
   -0.41449E+08        -0.39938E+06         0.00000E+00
   -0.39938E+06        -0.45930E+08         0.00000E+00
    0.00000E+00         0.00000E+00        -0.17476E+08
 
   -0.38794E+08        -0.34608E+06         0.00000E+00
   -0.34608E+06        -0.45202E+08         0.00000E+00
    0.00000E+00         0.00000E+00        -0.16799E+08
 
   -0.36453E+08        -0.28949E+06         0.00000E+00
   -0.28949E+06        -0.44578E+08         0.00000E+00
    0.00000E+00         0.00000E+00        -0.16206E+08
 
   -0.34318E+08        -0.22939E+06         0.00000E+00
   -0.22939E+06        -0.44068E+08         0.00000E+00
    0.00000E+00         0.00000E+00        -0.15677E+08
 
   -0.32308E+08        -0.16494E+06         0.00000E+00
   -0.16494E+06        -0.43680E+08         0.00000E+00
    0.00000E+00         0.00000E+00        -0.15198E+08
 
   -0.30354E+08        -0.94650E+05         0.00000E+00
   -0.94650E+05        -0.43425E+08         0.00000E+00
    0.00000E+00         0.00000E+00        -0.14756E+08
 
   -0.28392E+08        -0.16264E+05         0.00000E+00
   -0.16264E+05        -0.43318E+08         0.00000E+00
    0.00000E+00         0.00000E+00        -0.14342E+08
 
   -0.26349E+08         0.73946E+05         0.00000E+00
    0.73946E+05        -0.43379E+08         0.00000E+00
    0.00000E+00         0.00000E+00        -0.13946E+08
 
   -0.24138E+08         0.18263E+06         0.00000E+00
    0.18263E+06        -0.43638E+08         0.00000E+00
    0.00000E+00         0.00000E+00        -0.13555E+08
 
   -0.21630E+08         0.32421E+06         0.00000E+00
    0.32421E+06        -0.44146E+08         0.00000E+00
    0.00000E+00         0.00000E+00        -0.13155E+08
 
   -0.18596E+08         0.53146E+06         0.00000E+00
    0.53146E+06        -0.45003E+08         0.00000E+00
    0.00000E+00         0.00000E+00        -0.12720E+08
 
   -0.14383E+08         0.10200E+07         0.00000E+00
    0.10200E+07        -0.46481E+08         0.00000E+00
    0.00000E+00         0.00000E+00        -0.12173E+08
 
TENSORS stresstot double 
   -0.44487E+08         0.24137E+06         0.00000E+00
    0.24137E+06        -0.58812E+08         0.00000E+00
    0.00000E+00         0.00000E+00        -0.61519E+08
 
   -0.44600E+08        -0.20652E+05         0.00000E+00
   -0.20652E+05        -0.58912E+08         0.00000E+00
    0.00000E+00         0.00000E+00        -0.64416E+08
 
   -0.46298E+08        -0.39210E+06         0.00000E+00
   -0.39210E+06        -0.59534E+08         0.00000E+00
    0.00000E+00         0.00000E+00        -0.68169E+08
 
   -0.48574E+08        -0.46216E+06         0.00000E+00
   -0.46216E+06        -0.60582E+08         0.00000E+00
    0.00000E+00         0.00000E+00        -0.72041E+08
 
   -0.51108E+08        -0.66514E+06         0.00000E+00
   -0.66514E+06        -0.61743E+08         0.00000E+00
    0.00000E+00         0.00000E+00        -0.75263E+08
 
   -0.54603E+08        -0.66613E+06         0.00000E+00
   -0.66613E+06        -0.62981E+08         0.00000E+00
    0.00000E+00         0.00000E+00        -0.76622E+08
 
   -0.57334E+08        -0.49340E+06         0.00000E+00
   -0.49340E+06        -0.64052E+08         0.00000E+00
    0.00000E+00         0.00000E+00        -0.77383E+08
 
   -0.59639E+08        -0.35532E+06         0.00000E+00
   -0.35532E+06        -0.64863E+08         0.00000E+00
    0.00000E+00         0.00000E+00        -0.78006E+08
 
   -0.61773E+08        -0.23477E+06         0.00000E+00
   -0.23477E+06        -0.65433E+08         0.00000E+00
    0.00000E+00         0.00000E+00        -0.78547E+08
 
   -0.63870E+08        -0.11905E+06         0.00000E+00
   -0.11905E+06        -0.65775E+08         0.00000E+00
    0.00000E+00         0.00000E+00        -0.79035E+08
 
   -0.66034E+08         0.18648E+04         0.00000E+00
    0.18648E+04        -0.65885E+08         0.00000E+00
    0.00000E+00         0.00000E+00        -0.79490E+08
 
   -0.68379E+08         0.13885E+06         0.00000E+00
    0.13885E+06        -0.65739E+08         0.00000E+00
    0.00000E+00         0.00000E+00        -0.79930E+08
 
   -0.71061E+08         0.31056E+06         0.00000E+00
    0.31056E+06        -0.65287E+08         0.00000E+00
    0.00000E+00         0.00000E+00        -0.80376E+08
 
   -0.74349E+08         0.55645E+06         0.00000E+00
    0.55645E+06        -0.64418E+08         0.00000E+00
    0.00000E+00         0.00000E+00        -0.80860E+08
 
   -0.79007E+08         0.11305E+07         0.00000E+00
    0.11305E+07        -0.62816E+08         0.00000E+00
    0.00000E+00         0.00000E+00        -0.81471E+08
 
   -0.44222E+08         0.35524E+06         0.00000E+00
    0.35524E+06        -0.60816E+08         0.00000E+00
    0.00000E+00         0.00000E+00        -0.66494E+08
 
   -0.45164E+08        -0.45985E+05         0.00000E+00
   -0.45985E+05        -0.60901E+08         0.00000E+00
    0.00000E+00         0.00000E+00        -0.68860E+08
 
   -0.46687E+08        -0.74623E+06         0.00000E+00
   -0.74623E+06        -0.60875E+08         0.00000E+00
    0.00000E+00         0.00000E+00        -0.71453E+08
 
   -0.48711E+08        -0.12245E+07         0.00000E+00
   -0.12245E+07        -0.60972E+08         0.00000E+00
    0.00000E+00         0.00000E+00        -0.73225E+08
 
   -0.51525E+08        -0.15580E+07         0.00000E+00
   -0.15580E+07        -0.61419E+08         0.00000E+00
    0.00000E+00         0.00000E+00        -0.73906E+08
 
   -0.54395E+08        -0.15996E+07         0.00000E+00
   -0.15996E+07        -0.62006E+08         0.00000E+00
    0.00000E+00         0.00000E+00        -0.74598E+08
 
   -0.57086E+08        -0.13050E+07         0.00000E+00
   -0.13050E+07        -0.62655E+08         0.00000E+00
    0.00000E+00         0.00000E+00        -0.75266E+08
 
   -0.59409E+08        -0.97358E+06         0.00000E+00
   -0.97358E+06        -0.63238E+08         0.00000E+00
    0.00000E+00         0.00000E+00        -0.75848E+08
 
   -0.61551E+08        -0.64936E+06         0.00000E+00
   -0.64936E+06        -0.63675E+08         0.00000E+00
    0.00000E+00         0.00000E+00        -0.76365E+08
 
   -0.63641E+08        -0.32069E+06         0.00000E+00
   -0.32069E+06        -0.63932E+08         0.00000E+00
    0.00000E+00         0.00000E+00        -0.76835E+08
 
   -0.65782E+08         0.32294E+05         0.00000E+00
    0.32294E+05        -0.63983E+08         0.00000E+00
    0.00000E+00         0.00000E+00        -0.77274E+08
 
   -0.68079E+08         0.43846E+06         0.00000E+00
    0.43846E+06        -0.63793E+08         0.00000E+00
    0.00000E+00         0.00000E+00        -0.77696E+08
 
   -0.70659E+08         0.94947E+06         0.00000E+00
    0.94947E+06        -0.63308E+08         0.00000E+00
    0.00000E+00         0.00000E+00        -0.78115E+08
 
   -0.73718E+08         0.16894E+07         0.00000E+00
    0.16894E+07        -0.62430E+08         0.00000E+00
    0.00000E+00         0.00000E+00        -0.78551E+08
 
   -0.77296E+08         0.30628E+07         0.00000E+00
    0.30628E+07        -0.61027E+08         0.00000E+00
    0.00000E+00         0.00000E+00        -0.78986E+08
 
   -0.44087E+08        -0.79869E+05         0.00000E+00
   -0.79869E+05        -0.60469E+08         0.00000E+00
    0.00000E+00         0.00000E+00        -0.69281E+08
 
   -0.45646E+08        -0.32270E+06         0.00000E+00
   -0.32270E+06        -0.60670E+08         0.00000E+00
    0.00000E+00         0.00000E+00        -0.70797E+08
 
   -0.47378E+08        -0.88156E+06         0.00000E+00
   -0.88156E+06        -0.60828E+08         0.00000E+00
    0.00000E+00         0.00000E+00        -0.71175E+08
 
   -0.49298E+08        -0.15538E+07         0.00000E+00
   -0.15538E+07        -0.61019E+08         0.00000E+00
    0.00000E+00         0.00000E+00        -0.71597E+08
 
   -0.51721E+08        -0.19355E+07         0.00000E+00
   -0.19355E+07        -0.61261E+08         0.00000E+00
    0.00000E+00         0.00000E+00        -0.72131E+08
 
   -0.54279E+08        -0.19941E+07         0.00000E+00
   -0.19941E+07        -0.61506E+08         0.00000E+00
    0.00000E+00         0.00000E+00        -0.72692E+08
 
   -0.56751E+08        -0.17669E+07         0.00000E+00
   -0.17669E+07        -0.61782E+08         0.00000E+00
    0.00000E+00         0.00000E+00        -0.73243E+08
 
   -0.59029E+08        -0.13785E+07         0.00000E+00
   -0.13785E+07        -0.62086E+08         0.00000E+00
    0.00000E+00         0.00000E+00        -0.73761E+08
 
   -0.61150E+08        -0.92618E+06         0.00000E+00
   -0.92618E+06        -0.62331E+08         0.00000E+00
    0.00000E+00         0.00000E+00        -0.74236E+08
 
   -0.63209E+08        -0.42798E+06         0.00000E+00
   -0.42798E+06        -0.62455E+08         0.00000E+00
    0.00000E+00         0.00000E+00        -0.74674E+08
 
   -0.65294E+08         0.13052E+06         0.00000E+00
    0.13052E+06        -0.62412E+08         0.00000E+00
    0.00000E+00         0.00000E+00        -0.75083E+08
 
   -0.67489E+08         0.78623E+06         0.00000E+00
    0.78623E+06        -0.62158E+08         0.00000E+00
    0.00000E+00         0.00000E+00        -0.75472E+08
 
   -0.69882E+08         0.16112E+07         0.00000E+00
    0.16112E+07        -0.61646E+08         0.00000E+00
    0.00000E+00         0.00000E+00        -0.75849E+08
 
   -0.72518E+08         0.27558E+07         0.00000E+00
    0.27558E+07        -0.60822E+08         0.00000E+00
    0.00000E+00         0.00000E+00        -0.76212E+08
 
   -0.75306E+08         0.44539E+07         0.00000E+00
    0.44539E+07        -0.59729E+08         0.00000E+00
    0.00000E+00         0.00000E+00        -0.76551E+08
 
   -0.44313E+08        -0.24040E+06         0.00000E+00
   -0.24040E+06        -0.60059E+08         0.00000E+00
    0.00000E+00         0.00000E+00        -0.68632E+08
 
   -0.46191E+08        -0.71519E+06         0.00000E+00
   -0.71519E+06        -0.60246E+08         0.00000E+00
    0.00000E+00         0.00000E+00        -0.69045E+08
 
   -0.47954E+08        -0.12017E+07         0.00000E+00
   -0.12017E+07        -0.60594E+08         0.00000E+00
    0.00000E+00         0.00000E+00        -0.69468E+08
 
   -0.49819E+08        -0.17274E+07         0.00000E+00
   -0.17274E+07        -0.60837E+08         0.00000E+00
    0.00000E+00         0.00000E+00        -0.69891E+08
 
   -0.51938E+08        -0.20833E+07         0.00000E+00
   -0.20833E+07        -0.60957E+08         0.00000E+00
    0.00000E+00         0.00000E+00        -0.70340E+08
 
   -0.54197E+08        -0.21512E+07         0.00000E+00
   -0.21512E+07        -0.61046E+08         0.00000E+00
    0.00000E+00         0.00000E+00        -0.70812E+08
 
   -0.56438E+08        -0.19558E+07         0.00000E+00
   -0.19558E+07        -0.61140E+08         0.00000E+00
    0.00000E+00         0.00000E+00        -0.71281E+08
 
   -0.58582E+08        -0.15641E+07         0.00000E+00
   -0.15641E+07        -0.61239E+08         0.00000E+00
    0.00000E+00         0.00000E+00        -0.71731E+08
 
   -0.60624E+08        -0.10411E+07         0.00000E+00
   -0.10411E+07        -0.61309E+08         0.00000E+00
    0.00000E+00         0.00000E+00        -0.72156E+08
 
   -0.62609E+08        -0.41834E+06         0.00000E+00
   -0.41834E+06        -0.61298E+08         0.00000E+00
    0.00000E+00         0.00000E+00        -0.72553E+08
 
   -0.64597E+08         0.30930E+06         0.00000E+00
    0.30930E+06        -0.61159E+08         0.00000E+00
    0.00000E+00         0.00000E+00        -0.72924E+08
 
   -0.66644E+08         0.11767E+07         0.00000E+00
    0.11767E+07        -0.60851E+08         0.00000E+00
    0.00000E+00         0.00000E+00        -0.73274E+08
 
   -0.68788E+08         0.22537E+07         0.00000E+00
    0.22537E+07        -0.60341E+08         0.00000E+00
    0.00000E+00         0.00000E+00        -0.73602E+08
 
   -0.71016E+08         0.36498E+07         0.00000E+00
    0.36498E+07        -0.59625E+08         0.00000E+00
    0.00000E+00         0.00000E+00        -0.73905E+08
 
   -0.73221E+08         0.54928E+07         0.00000E+00
    0.54928E+07        -0.58760E+08         0.00000E+00
    0.00000E+00         0.00000E+00        -0.74173E+08
 
   -0.44885E+08        -0.34952E+06         0.00000E+00
   -0.34952E+06        -0.60039E+08         0.00000E+00
    0.00000E+00         0.00000E+00        -0.66979E+08
 
   -0.46709E+08        -0.94871E+06         0.00000E+00
   -0.94871E+06        -0.60183E+08         0.00000E+00
    0.00000E+00         0.00000E+00        -0.67373E+08
 
   -0.48443E+08        -0.14589E+07         0.00000E+00
   -0.14589E+07        -0.60368E+08         0.00000E+00
    0.00000E+00         0.00000E+00        -0.67759E+08
 
   -0.50227E+08        -0.18778E+07         0.00000E+00
   -0.18778E+07        -0.60528E+08         0.00000E+00
    0.00000E+00         0.00000E+00        -0.68149E+08
 
   -0.52128E+08        -0.21446E+07         0.00000E+00
   -0.21446E+07        -0.60607E+08         0.00000E+00
    0.00000E+00         0.00000E+00        -0.68548E+08
 
   -0.54123E+08        -0.21865E+07         0.00000E+00
   -0.21865E+07        -0.60623E+08         0.00000E+00
    0.00000E+00         0.00000E+00        -0.68953E+08
 
   -0.56135E+08        -0.19901E+07         0.00000E+00
   -0.19901E+07        -0.60612E+08         0.00000E+00
    0.00000E+00         0.00000E+00        -0.69356E+08
 
   -0.58105E+08        -0.15873E+07         0.00000E+00
   -0.15873E+07        -0.60587E+08         0.00000E+00
    0.00000E+00         0.00000E+00        -0.69748E+08
 
   -0.60014E+08        -0.10169E+07         0.00000E+00
   -0.10169E+07        -0.60531E+08         0.00000E+00
    0.00000E+00         0.00000E+00        -0.70121E+08
 
   -0.61879E+08        -0.30273E+06         0.00000E+00
   -0.30273E+06        -0.60413E+08         0.00000E+00
    0.00000E+00         0.00000E+00        -0.70473E+08
 
   -0.63730E+08         0.55609E+06         0.00000E+00
    0.55609E+06        -0.60199E+08         0.00000E+00
    0.00000E+00         0.00000E+00        -0.70803E+08
 
   -0.65595E+08         0.15865E+07         0.00000E+00
    0.15865E+07        -0.59859E+08         0.00000E+00
    0.00000E+00         0.00000E+00        -0.71110E+08
 
   -0.67480E+08         0.28400E+07         0.00000E+00
    0.28400E+07        -0.59376E+08         0.00000E+00
    0.00000E+00         0.00000E+00        -0.71392E+08
 
   -0.69352E+08         0.43863E+07         0.00000E+00
    0.43863E+07        -0.58763E+08         0.00000E+00
    0.00000E+00         0.00000E+00        -0.71645E+08
 
   -0.71117E+08         0.62927E+07         0.00000E+00
    0.62927E+07        -0.58073E+08         0.00000E+00
    0.00000E+00         0.00000E+00        -0.71861E+08
 
   -0.45607E+08        -0.41675E+06         0.00000E+00
   -0.41675E+06        -0.60021E+08         0.00000E+00
    0.00000E+00         0.00000E+00        -0.65373E+08
 
   -0.47277E+08        -0.10874E+07         0.00000E+00
   -0.10874E+07        -0.60094E+08         0.00000E+00
    0.00000E+00         0.00000E+00        -0.65723E+08
 
   -0.48898E+08        -0.15978E+07         0.00000E+00
   -0.15978E+07        -0.60193E+08         0.00000E+00
    0.00000E+00         0.00000E+00        -0.66069E+08
 
   -0.50545E+08        -0.19635E+07         0.00000E+00
   -0.19635E+07        -0.60266E+08         0.00000E+00
    0.00000E+00         0.00000E+00        -0.66416E+08
 
   -0.52257E+08        -0.21597E+07         0.00000E+00
   -0.21597E+07        -0.60288E+08         0.00000E+00
    0.00000E+00         0.00000E+00        -0.66766E+08
 
   -0.54028E+08        -0.21544E+07         0.00000E+00
   -0.21544E+07        -0.60255E+08         0.00000E+00
    0.00000E+00         0.00000E+00        -0.67117E+08
 
   -0.55821E+08        -0.19334E+07         0.00000E+00
   -0.19334E+07        -0.60182E+08         0.00000E+00
    0.00000E+00         0.00000E+00        -0.67465E+08
 
   -0.57599E+08        -0.15068E+07         0.00000E+00
   -0.15068E+07        -0.60081E+08         0.00000E+00
    0.00000E+00         0.00000E+00        -0.67804E+08
 
   -0.59342E+08        -0.89424E+06         0.00000E+00
   -0.89424E+06        -0.59945E+08         0.00000E+00
    0.00000E+00         0.00000E+00        -0.68129E+08
 
   -0.61051E+08        -0.11004E+06         0.00000E+00
   -0.11004E+06        -0.59757E+08         0.00000E+00
    0.00000E+00         0.00000E+00        -0.68436E+08
 
   -0.62735E+08         0.84632E+06         0.00000E+00
    0.84632E+06        -0.59497E+08         0.00000E+00
    0.00000E+00         0.00000E+00        -0.68724E+08
 
   -0.64400E+08         0.19926E+07         0.00000E+00
    0.19926E+07        -0.59147E+08         0.00000E+00
    0.00000E+00         0.00000E+00        -0.68990E+08
 
   -0.66035E+08         0.33617E+07         0.00000E+00
    0.33617E+07        -0.58703E+08         0.00000E+00
    0.00000E+00         0.00000E+00        -0.69230E+08
 
   -0.67603E+08         0.49933E+07         0.00000E+00
    0.49933E+07        -0.58181E+08         0.00000E+00
    0.00000E+00         0.00000E+00        -0.69441E+08
 
   -0.69027E+08         0.69193E+07         0.00000E+00
    0.69193E+07        -0.57625E+08         0.00000E+00
    0.00000E+00         0.00000E+00        -0.69615E+08
 
   -0.46410E+08        -0.44519E+06         0.00000E+00
   -0.44519E+06        -0.60006E+08         0.00000E+00
    0.00000E+00         0.00000E+00        -0.63803E+08
 
   -0.47869E+08        -0.11501E+07         0.00000E+00
   -0.11501E+07        -0.60030E+08         0.00000E+00
    0.00000E+00         0.00000E+00        -0.64102E+08
 
   -0.49325E+08        -0.16549E+07         0.00000E+00
   -0.16549E+07        -0.60059E+08         0.00000E+00
    0.00000E+00         0.00000E+00        -0.64401E+08
 
   -0.50806E+08        -0.19826E+07         0.00000E+00
   -0.19826E+07        -0.60067E+08         0.00000E+00
    0.00000E+00         0.00000E+00        -0.64703E+08
 
   -0.52330E+08        -0.21282E+07         0.00000E+00
   -0.21282E+07        -0.60036E+08         0.00000E+00
    0.00000E+00         0.00000E+00        -0.65006E+08
 
   -0.53895E+08        -0.20776E+07         0.00000E+00
   -0.20776E+07        -0.59962E+08         0.00000E+00
    0.00000E+00         0.00000E+00        -0.65308E+08
 
   -0.55479E+08        -0.18220E+07         0.00000E+00
   -0.18220E+07        -0.59850E+08         0.00000E+00
    0.00000E+00         0.00000E+00        -0.65606E+08
 
   -0.57059E+08        -0.13638E+07         0.00000E+00
   -0.13638E+07        -0.59703E+08         0.00000E+00
    0.00000E+00         0.00000E+00        -0.65897E+08
 
   -0.58619E+08        -0.71142E+06         0.00000E+00
   -0.71142E+06        -0.59521E+08         0.00000E+00
    0.00000E+00         0.00000E+00        -0.66177E+08
 
   -0.60150E+08         0.12794E+06         0.00000E+00
    0.12794E+06        -0.59296E+08         0.00000E+00
    0.00000E+00         0.00000E+00        -0.66442E+08
 
   -0.61648E+08         0.11547E+07         0.00000E+00
    0.11547E+07        -0.59016E+08         0.00000E+00
    0.00000E+00         0.00000E+00        -0.66689E+08
 
   -0.63108E+08         0.23792E+07         0.00000E+00
    0.23792E+07        -0.58675E+08         0.00000E+00
    0.00000E+00         0.00000E+00        -0.66916E+08
 
   -0.64509E+08         0.38193E+07         0.00000E+00
    0.38193E+07        -0.58275E+08         0.00000E+00
    0.00000E+00         0.00000E+00        -0.67118E+08
 
   -0.65815E+08         0.54944E+07         0.00000E+00
    0.54944E+07        -0.57833E+08         0.00000E+00
    0.00000E+00         0.00000E+00        -0.67293E+08
 
   -0.66967E+08         0.74155E+07         0.00000E+00
    0.74155E+07        -0.57383E+08         0.00000E+00
    0.00000E+00         0.00000E+00        -0.67434E+08
 
   -0.47241E+08        -0.44788E+06         0.00000E+00
   -0.44788E+06        -0.59997E+08         0.00000E+00
    0.00000E+00         0.00000E+00        -0.62262E+08
 
   -0.48468E+08        -0.11573E+07         0.00000E+00
   -0.11573E+07        -0.59987E+08         0.00000E+00
    0.00000E+00         0.00000E+00        -0.62508E+08
 
   -0.49730E+08        -0.16508E+07         0.00000E+00
   -0.16508E+07        -0.59967E+08         0.00000E+00
    0.00000E+00         0.00000E+00        -0.62759E+08
 
   -0.51026E+08        -0.19496E+07         0.00000E+00
   -0.19496E+07        -0.59927E+08         0.00000E+00
    0.00000E+00         0.00000E+00        -0.63015E+08
 
   -0.52360E+08        -0.20569E+07         0.00000E+00
   -0.20569E+07        -0.59857E+08         0.00000E+00
    0.00000E+00         0.00000E+00        -0.63272E+08
 
   -0.53724E+08        -0.19677E+07         0.00000E+00
   -0.19677E+07        -0.59752E+08         0.00000E+00
    0.00000E+00         0.00000E+00        -0.63528E+08
 
   -0.55105E+08        -0.16777E+07         0.00000E+00
   -0.16777E+07        -0.59613E+08         0.00000E+00
    0.00000E+00         0.00000E+00        -0.63781E+08
 
   -0.56486E+08        -0.11867E+07         0.00000E+00
   -0.11867E+07        -0.59443E+08         0.00000E+00
    0.00000E+00         0.00000E+00        -0.64028E+08
 
   -0.57853E+08        -0.49819E+06         0.00000E+00
   -0.49819E+06        -0.59240E+08         0.00000E+00
    0.00000E+00         0.00000E+00        -0.64265E+08
 
   -0.59194E+08         0.38430E+06         0.00000E+00
    0.38430E+06        -0.59001E+08         0.00000E+00
    0.00000E+00         0.00000E+00        -0.64490E+08
 
   -0.60499E+08         0.14607E+07         0.00000E+00
    0.14607E+07        -0.58723E+08         0.00000E+00
    0.00000E+00         0.00000E+00        -0.64699E+08
 
   -0.61754E+08         0.27354E+07         0.00000E+00
    0.27354E+07        -0.58404E+08         0.00000E+00
    0.00000E+00         0.00000E+00        -0.64889E+08
 
   -0.62937E+08         0.42157E+07         0.00000E+00
    0.42157E+07        -0.58051E+08         0.00000E+00
    0.00000E+00         0.00000E+00        -0.65058E+08
 
   -0.64016E+08         0.59077E+07         0.00000E+00
    0.59077E+07        -0.57680E+08         0.00000E+00
    0.00000E+00         0.00000E+00        -0.65201E+08
 
   -0.64945E+08         0.78096E+07         0.00000E+00
    0.78096E+07        -0.57316E+08         0.00000E+00
    0.00000E+00         0.00000E+00        -0.65316E+08
 
   -0.48064E+08        -0.43496E+06         0.00000E+00
   -0.43496E+06        -0.59992E+08         0.00000E+00
    0.00000E+00         0.00000E+00        -0.60744E+08
 
   -0.49058E+08        -0.11282E+07         0.00000E+00
   -0.11282E+07        -0.59962E+08         0.00000E+00
    0.00000E+00         0.00000E+00        -0.60939E+08
 
   -0.50114E+08        -0.16046E+07         0.00000E+00
   -0.16046E+07        -0.59911E+08         0.00000E+00
    0.00000E+00         0.00000E+00        -0.61143E+08
 
   -0.51216E+08        -0.18792E+07         0.00000E+00
   -0.18792E+07        -0.59839E+08         0.00000E+00
    0.00000E+00         0.00000E+00        -0.61353E+08
 
   -0.52354E+08        -0.19568E+07         0.00000E+00
   -0.19568E+07        -0.59743E+08         0.00000E+00
    0.00000E+00         0.00000E+00        -0.61566E+08
 
   -0.53519E+08        -0.18363E+07         0.00000E+00
   -0.18363E+07        -0.59619E+08         0.00000E+00
    0.00000E+00         0.00000E+00        -0.61779E+08
 
   -0.54699E+08        -0.15159E+07         0.00000E+00
   -0.15159E+07        -0.59467E+08         0.00000E+00
    0.00000E+00         0.00000E+00        -0.61990E+08
 
   -0.55881E+08        -0.99537E+06         0.00000E+00
   -0.99537E+06        -0.59288E+08         0.00000E+00
    0.00000E+00         0.00000E+00        -0.62195E+08
 
   -0.57051E+08        -0.27636E+06         0.00000E+00
   -0.27636E+06        -0.59082E+08         0.00000E+00
    0.00000E+00         0.00000E+00        -0.62392E+08
 
   -0.58198E+08         0.63887E+06         0.00000E+00
    0.63887E+06        -0.58848E+08         0.00000E+00
    0.00000E+00         0.00000E+00        -0.62579E+08
 
   -0.59307E+08         0.17490E+07         0.00000E+00
    0.17490E+07        -0.58586E+08         0.00000E+00
    0.00000E+00         0.00000E+00        -0.62752E+08
 
   -0.60363E+08         0.30540E+07         0.00000E+00
    0.30540E+07        -0.58299E+08         0.00000E+00
    0.00000E+00         0.00000E+00        -0.62910E+08
 
   -0.61346E+08         0.45539E+07         0.00000E+00
    0.45539E+07        -0.57995E+08         0.00000E+00
    0.00000E+00         0.00000E+00        -0.63048E+08
 
   -0.62224E+08         0.62461E+07         0.00000E+00
    0.62461E+07        -0.57687E+08         0.00000E+00
    0.00000E+00         0.00000E+00        -0.63164E+08
 
   -0.62964E+08         0.81212E+07         0.00000E+00
    0.81212E+07        -0.57396E+08         0.00000E+00
    0.00000E+00         0.00000E+00        -0.63255E+08
 
   -0.48856E+08        -0.41370E+06         0.00000E+00
   -0.41370E+06        -0.59989E+08         0.00000E+00
    0.00000E+00         0.00000E+00        -0.59243E+08
 
   -0.49629E+08        -0.10785E+07         0.00000E+00
   -0.10785E+07        -0.59949E+08         0.00000E+00
    0.00000E+00         0.00000E+00        -0.59392E+08
 
   -0.50478E+08        -0.15337E+07         0.00000E+00
   -0.15337E+07        -0.59883E+08         0.00000E+00
    0.00000E+00         0.00000E+00        -0.59552E+08
 
   -0.51380E+08        -0.17867E+07         0.00000E+00
   -0.17867E+07        -0.59795E+08         0.00000E+00
    0.00000E+00         0.00000E+00        -0.59719E+08
 
   -0.52320E+08        -0.18405E+07         0.00000E+00
   -0.18405E+07        -0.59685E+08         0.00000E+00
    0.00000E+00         0.00000E+00        -0.59890E+08
 
   -0.53286E+08        -0.16951E+07         0.00000E+00
   -0.16951E+07        -0.59555E+08         0.00000E+00
    0.00000E+00         0.00000E+00        -0.60062E+08
 
   -0.54266E+08        -0.13499E+07         0.00000E+00
   -0.13499E+07        -0.59402E+08         0.00000E+00
    0.00000E+00         0.00000E+00        -0.60232E+08
 
   -0.55248E+08        -0.80495E+06         0.00000E+00
   -0.80495E+06        -0.59227E+08         0.00000E+00
    0.00000E+00         0.00000E+00        -0.60398E+08
 
   -0.56222E+08        -0.61790E+05         0.00000E+00
   -0.61790E+05        -0.59031E+08         0.00000E+00
    0.00000E+00         0.00000E+00        -0.60558E+08
 
   -0.57173E+08         0.87717E+06         0.00000E+00
    0.87717E+06        -0.58815E+08         0.00000E+00
    0.00000E+00         0.00000E+00        -0.60709E+08
 
   -0.58089E+08         0.20091E+07         0.00000E+00
    0.20091E+07        -0.58580E+08         0.00000E+00
    0.00000E+00         0.00000E+00        -0.60849E+08
 
   -0.58955E+08         0.33305E+07         0.00000E+00
    0.33305E+07        -0.58331E+08         0.00000E+00
    0.00000E+00         0.00000E+00        -0.60975E+08
 
   -0.59749E+08         0.48366E+07         0.00000E+00
    0.48366E+07        -0.58076E+08         0.00000E+00
    0.00000E+00         0.00000E+00        -0.61086E+08
 
   -0.60449E+08         0.65191E+07         0.00000E+00
    0.65191E+07        -0.57826E+08         0.00000E+00
    0.00000E+00         0.00000E+00        -0.61177E+08
 
   -0.61025E+08         0.83640E+07         0.00000E+00
    0.83640E+07        -0.57598E+08         0.00000E+00
    0.00000E+00         0.00000E+00        -0.61248E+08
 
   -0.49608E+08        -0.38929E+06         0.00000E+00
   -0.38929E+06        -0.59989E+08         0.00000E+00
    0.00000E+00         0.00000E+00        -0.57759E+08
 
   -0.50174E+08        -0.10202E+07         0.00000E+00
   -0.10202E+07        -0.59946E+08         0.00000E+00
    0.00000E+00         0.00000E+00        -0.57866E+08
 
   -0.50821E+08        -0.14523E+07         0.00000E+00
   -0.14523E+07        -0.59876E+08         0.00000E+00
    0.00000E+00         0.00000E+00        -0.57985E+08
 
   -0.51524E+08        -0.16857E+07         0.00000E+00
   -0.16857E+07        -0.59784E+08         0.00000E+00
    0.00000E+00         0.00000E+00        -0.58111E+08
 
   -0.52265E+08        -0.17203E+07         0.00000E+00
   -0.17203E+07        -0.59675E+08         0.00000E+00
    0.00000E+00         0.00000E+00        -0.58241E+08
 
   -0.53031E+08        -0.15555E+07         0.00000E+00
   -0.15555E+07        -0.59549E+08         0.00000E+00
    0.00000E+00         0.00000E+00        -0.58374E+08
 
   -0.53811E+08        -0.11909E+07         0.00000E+00
   -0.11909E+07        -0.59406E+08         0.00000E+00
    0.00000E+00         0.00000E+00        -0.58506E+08
 
   -0.54595E+08        -0.62718E+06         0.00000E+00
   -0.62718E+06        -0.59246E+08         0.00000E+00
    0.00000E+00         0.00000E+00        -0.58635E+08
 
   -0.55371E+08         0.13388E+06         0.00000E+00
    0.13388E+06        -0.59070E+08         0.00000E+00
    0.00000E+00         0.00000E+00        -0.58759E+08
 
   -0.56130E+08         0.10890E+07         0.00000E+00
    0.10890E+07        -0.58881E+08         0.00000E+00
    0.00000E+00         0.00000E+00        -0.58876E+08
 
   -0.56857E+08         0.22338E+07         0.00000E+00
    0.22338E+07        -0.58680E+08         0.00000E+00
    0.00000E+00         0.00000E+00        -0.58985E+08
 
   -0.57538E+08         0.35622E+07         0.00000E+00
    0.35622E+07        -0.58473E+08         0.00000E+00
    0.00000E+00         0.00000E+00        -0.59083E+08
 
   -0.58157E+08         0.50661E+07         0.00000E+00
    0.50661E+07        -0.58267E+08         0.00000E+00
    0.00000E+00         0.00000E+00        -0.59167E+08
 
   -0.58694E+08         0.67335E+07         0.00000E+00
    0.67335E+07        -0.58071E+08         0.00000E+00
    0.00000E+00         0.00000E+00        -0.59237E+08
 
   -0.59125E+08         0.85478E+07         0.00000E+00
    0.85478E+07        -0.57898E+08         0.00000E+00
    0.00000E+00         0.00000E+00        -0.59290E+08
 
   -0.50317E+08        -0.36543E+06         0.00000E+00
   -0.36543E+06        -0.59990E+08         0.00000E+00
    0.00000E+00         0.00000E+00        -0.56290E+08
 
   -0.50692E+08        -0.96252E+06         0.00000E+00
   -0.96252E+06        -0.59951E+08         0.00000E+00
    0.00000E+00         0.00000E+00        -0.56359E+08
 
   -0.51144E+08        -0.13721E+07         0.00000E+00
   -0.13721E+07        -0.59885E+08         0.00000E+00
    0.00000E+00         0.00000E+00        -0.56439E+08
 
   -0.51650E+08        -0.15883E+07         0.00000E+00
   -0.15883E+07        -0.59801E+08         0.00000E+00
    0.00000E+00         0.00000E+00        -0.56527E+08
 
   -0.52192E+08        -0.16075E+07         0.00000E+00
   -0.16075E+07        -0.59702E+08         0.00000E+00
    0.00000E+00         0.00000E+00        -0.56620E+08
 
   -0.52758E+08        -0.14279E+07         0.00000E+00
   -0.14279E+07        -0.59590E+08         0.00000E+00
    0.00000E+00         0.00000E+00        -0.56714E+08
 
   -0.53339E+08        -0.10489E+07         0.00000E+00
   -0.10489E+07        -0.59466E+08         0.00000E+00
    0.00000E+00         0.00000E+00        -0.56809E+08
 
   -0.53925E+08        -0.47144E+06         0.00000E+00
   -0.47144E+06        -0.59330E+08         0.00000E+00
    0.00000E+00         0.00000E+00        -0.56903E+08
 
   -0.54507E+08         0.30201E+06         0.00000E+00
    0.30201E+06        -0.59183E+08         0.00000E+00
    0.00000E+00         0.00000E+00        -0.56993E+08
 
   -0.55075E+08         0.12673E+07         0.00000E+00
    0.12673E+07        -0.59027E+08         0.00000E+00
    0.00000E+00         0.00000E+00        -0.57078E+08
 
   -0.55617E+08         0.24185E+07         0.00000E+00
    0.24185E+07        -0.58865E+08         0.00000E+00
    0.00000E+00         0.00000E+00        -0.57157E+08
 
   -0.56122E+08         0.37477E+07         0.00000E+00
    0.37477E+07        -0.58702E+08         0.00000E+00
    0.00000E+00         0.00000E+00        -0.57228E+08
 
   -0.56576E+08         0.52444E+07         0.00000E+00
    0.52444E+07        -0.58544E+08         0.00000E+00
    0.00000E+00         0.00000E+00        -0.57289E+08
 
   -0.56962E+08         0.68945E+07         0.00000E+00
    0.68945E+07        -0.58399E+08         0.00000E+00
    0.00000E+00         0.00000E+00        -0.57339E+08
 
   -0.57263E+08         0.86796E+07         0.00000E+00
    0.86796E+07        -0.58277E+08         0.00000E+00
    0.00000E+00         0.00000E+00        -0.57376E+08
 
   -0.50985E+08        -0.34477E+06         0.00000E+00
   -0.34477E+06        -0.59992E+08         0.00000E+00
    0.00000E+00         0.00000E+00        -0.54835E+08
 
   -0.51184E+08        -0.91218E+06         0.00000E+00
   -0.91218E+06        -0.59960E+08         0.00000E+00
    0.00000E+00         0.00000E+00        -0.54870E+08
 
   -0.51449E+08        -0.13023E+07         0.00000E+00
   -0.13023E+07        -0.59906E+08         0.00000E+00
    0.00000E+00         0.00000E+00        -0.54915E+08
 
   -0.51761E+08        -0.15042E+07         0.00000E+00
   -0.15042E+07        -0.59838E+08         0.00000E+00
    0.00000E+00         0.00000E+00        -0.54966E+08
 
   -0.52106E+08        -0.15115E+07         0.00000E+00
   -0.15115E+07        -0.59758E+08         0.00000E+00
    0.00000E+00         0.00000E+00        -0.55022E+08
 
   -0.52474E+08        -0.13211E+07         0.00000E+00
   -0.13211E+07        -0.59669E+08         0.00000E+00
    0.00000E+00         0.00000E+00        -0.55081E+08
 
   -0.52856E+08        -0.93182E+06         0.00000E+00
   -0.93182E+06        -0.59571E+08         0.00000E+00
    0.00000E+00         0.00000E+00        -0.55140E+08
 
   -0.53245E+08        -0.34501E+06         0.00000E+00
   -0.34501E+06        -0.59465E+08         0.00000E+00
    0.00000E+00         0.00000E+00        -0.55200E+08
 
   -0.53633E+08         0.43629E+06         0.00000E+00
    0.43629E+06        -0.59352E+08         0.00000E+00
    0.00000E+00         0.00000E+00        -0.55257E+08
 
   -0.54013E+08         0.14070E+07         0.00000E+00
    0.14070E+07        -0.59235E+08         0.00000E+00
    0.00000E+00         0.00000E+00        -0.55312E+08
 
   -0.54376E+08         0.25602E+07         0.00000E+00
    0.25602E+07        -0.59115E+08         0.00000E+00
    0.00000E+00         0.00000E+00        -0.55363E+08
 
   -0.54711E+08         0.38863E+07         0.00000E+00
    0.38863E+07        -0.58998E+08         0.00000E+00
    0.00000E+00         0.00000E+00        -0.55408E+08
 
   -0.55007E+08         0.53734E+07         0.00000E+00
    0.53734E+07        -0.58888E+08         0.00000E+00
    0.00000E+00         0.00000E+00        -0.55447E+08
 
   -0.55253E+08         0.70059E+07         0.00000E+00
    0.70059E+07        -0.58791E+08         0.00000E+00
    0.00000E+00         0.00000E+00        -0.55478E+08
 
   -0.55435E+08         0.87646E+07         0.00000E+00
    0.87646E+07        -0.58716E+08         0.00000E+00
    0.00000E+00         0.00000E+00        -0.55500E+08
 
   -0.51621E+08        -0.32921E+06         0.00000E+00
   -0.32921E+06        -0.59994E+08         0.00000E+00
    0.00000E+00         0.00000E+00        -0.53394E+08
 
   -0.51655E+08        -0.87414E+06         0.00000E+00
   -0.87414E+06        -0.59972E+08         0.00000E+00
    0.00000E+00         0.00000E+00        -0.53397E+08
 
   -0.51740E+08        -0.12495E+07         0.00000E+00
   -0.12495E+07        -0.59936E+08         0.00000E+00
    0.00000E+00         0.00000E+00        -0.53408E+08
 
   -0.51862E+08        -0.14409E+07         0.00000E+00
   -0.14409E+07        -0.59889E+08         0.00000E+00
    0.00000E+00         0.00000E+00        -0.53425E+08
 
   -0.52011E+08        -0.14398E+07         0.00000E+00
   -0.14398E+07        -0.59835E+08         0.00000E+00
    0.00000E+00         0.00000E+00        -0.53446E+08
 
   -0.52180E+08        -0.12419E+07         0.00000E+00
   -0.12419E+07        -0.59775E+08         0.00000E+00
    0.00000E+00         0.00000E+00        -0.53470E+08
 
   -0.52364E+08        -0.84588E+06         0.00000E+00
   -0.84588E+06        -0.59709E+08         0.00000E+00
    0.00000E+00         0.00000E+00        -0.53495E+08
 
   -0.52558E+08        -0.25326E+06         0.00000E+00
   -0.25326E+06        -0.59638E+08         0.00000E+00
    0.00000E+00         0.00000E+00        -0.53521E+08
 
   -0.52755E+08         0.53231E+06         0.00000E+00
    0.53231E+06        -0.59563E+08         0.00000E+00
    0.00000E+00         0.00000E+00        -0.53548E+08
 
   -0.52950E+08         0.15051E+07         0.00000E+00
    0.15051E+07        -0.59487E+08         0.00000E+00
    0.00000E+00         0.00000E+00        -0.53573E+08
 
   -0.53136E+08         0.26570E+07         0.00000E+00
    0.26570E+07        -0.59412E+08         0.00000E+00
    0.00000E+00         0.00000E+00        -0.53596E+08
 
   -0.53306E+08         0.39779E+07         0.00000E+00
    0.39779E+07        -0.59341E+08         0.00000E+00
    0.00000E+00         0.00000E+00        -0.53617E+08
 
   -0.53452E+08         0.54546E+07         0.00000E+00
    0.54546E+07        -0.59277E+08         0.00000E+00
    0.00000E+00         0.00000E+00        -0.53634E+08
 
   -0.53564E+08         0.70707E+07         0.00000E+00
    0.70707E+07        -0.59227E+08         0.00000E+00
    0.00000E+00         0.00000E+00        -0.53647E+08
 
   -0.53635E+08         0.88066E+07         0.00000E+00
    0.88066E+07        -0.59195E+08         0.00000E+00
    0.00000E+00         0.00000E+00        -0.53656E+08
 
   -0.52234E+08        -0.32002E+06         0.00000E+00
   -0.32002E+06        -0.59997E+08         0.00000E+00
    0.00000E+00         0.00000E+00        -0.51965E+08
 
   -0.52112E+08        -0.85180E+06         0.00000E+00
   -0.85180E+06        -0.59988E+08         0.00000E+00
    0.00000E+00         0.00000E+00        -0.51939E+08
 
   -0.52021E+08        -0.12186E+07         0.00000E+00
   -0.12186E+07        -0.59971E+08         0.00000E+00
    0.00000E+00         0.00000E+00        -0.51919E+08
 
   -0.51955E+08        -0.14039E+07         0.00000E+00
   -0.14039E+07        -0.59951E+08         0.00000E+00
    0.00000E+00         0.00000E+00        -0.51902E+08
 
   -0.51909E+08        -0.13977E+07         0.00000E+00
   -0.13977E+07        -0.59926E+08         0.00000E+00
    0.00000E+00         0.00000E+00        -0.51889E+08
 
   -0.51881E+08        -0.11952E+07         0.00000E+00
   -0.11952E+07        -0.59899E+08         0.00000E+00
    0.00000E+00         0.00000E+00        -0.51879E+08
 
   -0.51868E+08        -0.79529E+06         0.00000E+00
   -0.79529E+06        -0.59868E+08         0.00000E+00
    0.00000E+00         0.00000E+00        -0.51871E+08
 
   -0.51867E+08        -0.19967E+06         0.00000E+00
   -0.19967E+06        -0.59835E+08         0.00000E+00
    0.00000E+00         0.00000E+00        -0.51864E+08
 
   -0.51875E+08         0.58741E+06         0.00000E+00
    0.58741E+06        -0.59801E+08         0.00000E+00
    0.00000E+00         0.00000E+00        -0.51860E+08
 
   -0.51887E+08         0.15596E+07         0.00000E+00
    0.15596E+07        -0.59768E+08         0.00000E+00
    0.00000E+00         0.00000E+00        -0.51856E+08
 
   -0.51901E+08         0.27083E+07         0.00000E+00
    0.27083E+07        -0.59737E+08         0.00000E+00
    0.00000E+00         0.00000E+00        -0.51853E+08
 
   -0.51910E+08         0.40228E+07         0.00000E+00
    0.40228E+07        -0.59712E+08         0.00000E+00
    0.00000E+00         0.00000E+00        -0.51850E+08
 
   -0.51909E+08         0.54892E+07         0.00000E+00
    0.54892E+07        -0.59695E+08         0.00000E+00
    0.00000E+00         0.00000E+00        -0.51846E+08
 
   -0.51894E+08         0.70911E+07         0.00000E+00
    0.70911E+07        -0.59690E+08         0.00000E+00
    0.00000E+00         0.00000E+00        -0.51842E+08
 
   -0.51858E+08         0.88083E+07         0.00000E+00
    0.88083E+07        -0.59699E+08         0.00000E+00
    0.00000E+00         0.00000E+00        -0.51837E+08
 
   -0.52838E+08        -0.31802E+06         0.00000E+00
   -0.31802E+06        -0.60001E+08         0.00000E+00
    0.00000E+00         0.00000E+00        -0.50550E+08
 
   -0.52563E+08        -0.84732E+06         0.00000E+00
   -0.84732E+06        -0.60004E+08         0.00000E+00
    0.00000E+00         0.00000E+00        -0.50496E+08
 
   -0.52298E+08        -0.12126E+07         0.00000E+00
   -0.12126E+07        -0.60010E+08         0.00000E+00
    0.00000E+00         0.00000E+00        -0.50444E+08
 
   -0.52044E+08        -0.13963E+07         0.00000E+00
   -0.13963E+07        -0.60017E+08         0.00000E+00
    0.00000E+00         0.00000E+00        -0.50395E+08
 
   -0.51804E+08        -0.13883E+07         0.00000E+00
   -0.13883E+07        -0.60025E+08         0.00000E+00
    0.00000E+00         0.00000E+00        -0.50348E+08
 
   -0.51579E+08        -0.11838E+07         0.00000E+00
   -0.11838E+07        -0.60032E+08         0.00000E+00
    0.00000E+00         0.00000E+00        -0.50304E+08
 
   -0.51369E+08        -0.78221E+06         0.00000E+00
   -0.78221E+06        -0.60038E+08         0.00000E+00
    0.00000E+00         0.00000E+00        -0.50262E+08
 
   -0.51175E+08        -0.18582E+06         0.00000E+00
   -0.18582E+06        -0.60044E+08         0.00000E+00
    0.00000E+00         0.00000E+00        -0.50224E+08
 
   -0.50995E+08         0.60059E+06         0.00000E+00
    0.60059E+06        -0.60051E+08         0.00000E+00
    0.00000E+00         0.00000E+00        -0.50189E+08
 
   -0.50827E+08         0.15702E+07         0.00000E+00
    0.15702E+07        -0.60060E+08         0.00000E+00
    0.00000E+00         0.00000E+00        -0.50156E+08
 
   -0.50670E+08         0.27142E+07         0.00000E+00
    0.27142E+07        -0.60074E+08         0.00000E+00
    0.00000E+00         0.00000E+00        -0.50127E+08
 
   -0.50521E+08         0.40215E+07         0.00000E+00
    0.40215E+07        -0.60094E+08         0.00000E+00
    0.00000E+00         0.00000E+00        -0.50101E+08
 
   -0.50378E+08         0.54785E+07         0.00000E+00
    0.54785E+07        -0.60123E+08         0.00000E+00
    0.00000E+00         0.00000E+00        -0.50077E+08
 
   -0.50238E+08         0.70686E+07         0.00000E+00
    0.70686E+07        -0.60161E+08         0.00000E+00
    0.00000E+00         0.00000E+00        -0.50057E+08
 
   -0.50099E+08         0.87717E+07         0.00000E+00
    0.87717E+07        -0.60210E+08         0.00000E+00
    0.00000E+00         0.00000E+00        -0.50039E+08
 
   -0.53445E+08        -0.32361E+06         0.00000E+00
   -0.32361E+06        -0.60004E+08         0.00000E+00
    0.00000E+00         0.00000E+00        -0.49148E+08
 
   -0.53016E+08        -0.86173E+06         0.00000E+00
   -0.86173E+06        -0.60021E+08         0.00000E+00
    0.00000E+00         0.00000E+00        -0.49065E+08
 
   -0.52576E+08        -0.12327E+07         0.00000E+00
   -0.12327E+07        -0.60050E+08         0.00000E+00
    0.00000E+00         0.00000E+00        -0.48982E+08
 
   -0.52134E+08        -0.14194E+07         0.00000E+00
   -0.14194E+07        -0.60086E+08         0.00000E+00
    0.00000E+00         0.00000E+00        -0.48900E+08
 
   -0.51698E+08        -0.14125E+07         0.00000E+00
   -0.14125E+07        -0.60125E+08         0.00000E+00
    0.00000E+00         0.00000E+00        -0.48819E+08
 
   -0.51275E+08        -0.12081E+07         0.00000E+00
   -0.12081E+07        -0.60166E+08         0.00000E+00
    0.00000E+00         0.00000E+00        -0.48741E+08
 
   -0.50870E+08        -0.80665E+06         0.00000E+00
   -0.80665E+06        -0.60208E+08         0.00000E+00
    0.00000E+00         0.00000E+00        -0.48666E+08
 
   -0.50483E+08        -0.21131E+06         0.00000E+00
   -0.21131E+06        -0.60252E+08         0.00000E+00
    0.00000E+00         0.00000E+00        -0.48596E+08
 
   -0.50117E+08         0.57250E+06         0.00000E+00
    0.57250E+06        -0.60298E+08         0.00000E+00
    0.00000E+00         0.00000E+00        -0.48530E+08
 
   -0.49772E+08         0.15377E+07         0.00000E+00
    0.15377E+07        -0.60349E+08         0.00000E+00
    0.00000E+00         0.00000E+00        -0.48469E+08
 
   -0.49447E+08         0.26754E+07         0.00000E+00
    0.26754E+07        -0.60405E+08         0.00000E+00
    0.00000E+00         0.00000E+00        -0.48414E+08
 
   -0.49141E+08         0.39751E+07         0.00000E+00
    0.39751E+07        -0.60470E+08         0.00000E+00
    0.00000E+00         0.00000E+00        -0.48364E+08
 
   -0.48857E+08         0.54234E+07         0.00000E+00
    0.54234E+07        -0.60543E+08         0.00000E+00
    0.00000E+00         0.00000E+00        -0.48321E+08
 
   -0.48594E+08         0.70042E+07         0.00000E+00
    0.70042E+07        -0.60624E+08         0.00000E+00
    0.00000E+00         0.00000E+00        -0.48284E+08
 
   -0.48353E+08         0.86978E+07         0.00000E+00
    0.86978E+07        -0.60713E+08         0.00000E+00
    0.00000E+00         0.00000E+00        -0.48253E+08
 
   -0.54069E+08        -0.33684E+06         0.00000E+00
   -0.33684E+06        -0.60007E+08         0.00000E+00
    0.00000E+00         0.00000E+00        -0.47758E+08
 
   -0.53482E+08        -0.89507E+06         0.00000E+00
   -0.89507E+06        -0.60038E+08         0.00000E+00
    0.00000E+00         0.00000E+00        -0.47646E+08
 
   -0.52861E+08        -0.12788E+07         0.00000E+00
   -0.12788E+07        -0.60088E+08         0.00000E+00
    0.00000E+00         0.00000E+00        -0.47531E+08
 
   -0.52227E+08        -0.14726E+07         0.00000E+00
   -0.14726E+07        -0.60151E+08         0.00000E+00
    0.00000E+00         0.00000E+00        -0.47414E+08
 
   -0.51594E+08        -0.14691E+07         0.00000E+00
   -0.14691E+07        -0.60221E+08         0.00000E+00
    0.00000E+00         0.00000E+00        -0.47299E+08
 
   -0.50973E+08        -0.12664E+07         0.00000E+00
   -0.12664E+07        -0.60294E+08         0.00000E+00
    0.00000E+00         0.00000E+00        -0.47187E+08
 
   -0.50372E+08        -0.86637E+06         0.00000E+00
   -0.86637E+06        -0.60369E+08         0.00000E+00
    0.00000E+00         0.00000E+00        -0.47078E+08
 
   -0.49795E+08        -0.27370E+06         0.00000E+00
   -0.27370E+06        -0.60446E+08         0.00000E+00
    0.00000E+00         0.00000E+00        -0.46975E+08
 
   -0.49245E+08         0.50556E+06         0.00000E+00
    0.50556E+06        -0.60528E+08         0.00000E+00
    0.00000E+00         0.00000E+00        -0.46879E+08
 
   -0.48723E+08         0.14642E+07         0.00000E+00
    0.14642E+07        -0.60617E+08         0.00000E+00
    0.00000E+00         0.00000E+00        -0.46789E+08
 
   -0.48231E+08         0.25939E+07         0.00000E+00
    0.25939E+07        -0.60714E+08         0.00000E+00
    0.00000E+00         0.00000E+00        -0.46708E+08
 
   -0.47770E+08         0.38847E+07         0.00000E+00
    0.38847E+07        -0.60821E+08         0.00000E+00
    0.00000E+00         0.00000E+00        -0.46635E+08
 
   -0.47344E+08         0.53244E+07         0.00000E+00
    0.53244E+07        -0.60937E+08         0.00000E+00
    0.00000E+00         0.00000E+00        -0.46571E+08
 
   -0.46957E+08         0.68981E+07         0.00000E+00
    0.68981E+07        -0.61061E+08         0.00000E+00
    0.00000E+00         0.00000E+00        -0.46517E+08
 
   -0.46614E+08         0.85865E+07         0.00000E+00
    0.85865E+07        -0.61190E+08         0.00000E+00
    0.00000E+00         0.00000E+00        -0.46474E+08
 
   -0.54724E+08        -0.35748E+06         0.00000E+00
   -0.35748E+06        -0.60011E+08         0.00000E+00
    0.00000E+00         0.00000E+00        -0.46382E+08
 
   -0.53967E+08        -0.94645E+06         0.00000E+00
   -0.94645E+06        -0.60053E+08         0.00000E+00
    0.00000E+00         0.00000E+00        -0.46238E+08
 
   -0.53159E+08        -0.13491E+07         0.00000E+00
   -0.13491E+07        -0.60124E+08         0.00000E+00
    0.00000E+00         0.00000E+00        -0.46088E+08
 
   -0.52327E+08        -0.15533E+07         0.00000E+00
   -0.15533E+07        -0.60211E+08         0.00000E+00
    0.00000E+00         0.00000E+00        -0.45936E+08
 
   -0.51492E+08        -0.15546E+07         0.00000E+00
   -0.15546E+07        -0.60307E+08         0.00000E+00
    0.00000E+00         0.00000E+00        -0.45785E+08
 
   -0.50672E+08        -0.13542E+07         0.00000E+00
   -0.13542E+07        -0.60406E+08         0.00000E+00
    0.00000E+00         0.00000E+00        -0.45637E+08
 
   -0.49876E+08        -0.95671E+06         0.00000E+00
   -0.95671E+06        -0.60507E+08         0.00000E+00
    0.00000E+00         0.00000E+00        -0.45494E+08
 
   -0.49111E+08        -0.36833E+06         0.00000E+00
   -0.36833E+06        -0.60613E+08         0.00000E+00
    0.00000E+00         0.00000E+00        -0.45358E+08
 
   -0.48379E+08         0.40404E+06         0.00000E+00
    0.40404E+06        -0.60725E+08         0.00000E+00
    0.00000E+00         0.00000E+00        -0.45230E+08
 
   -0.47683E+08         0.13533E+07         0.00000E+00
    0.13533E+07        -0.60848E+08         0.00000E+00
    0.00000E+00         0.00000E+00        -0.45111E+08
 
   -0.47025E+08         0.24720E+07         0.00000E+00
    0.24720E+07        -0.60982E+08         0.00000E+00
    0.00000E+00         0.00000E+00        -0.45003E+08
 
   -0.46408E+08         0.37517E+07         0.00000E+00
    0.37517E+07        -0.61129E+08         0.00000E+00
    0.00000E+00         0.00000E+00        -0.44906E+08
 
   -0.45839E+08         0.51821E+07         0.00000E+00
    0.51821E+07        -0.61288E+08         0.00000E+00
    0.00000E+00         0.00000E+00        -0.44822E+08
 
   -0.45325E+08         0.67498E+07         0.00000E+00
    0.67498E+07        -0.61455E+08         0.00000E+00
    0.00000E+00         0.00000E+00        -0.44751E+08
 
   -0.44876E+08         0.84371E+07         0.00000E+00
    0.84371E+07        -0.61625E+08         0.00000E+00
    0.00000E+00         0.00000E+00        -0.44694E+08
 
   -0.55423E+08        -0.38498E+06         0.00000E+00
   -0.38498E+06        -0.60014E+08         0.00000E+00
    0.00000E+00         0.00000E+00        -0.45018E+08
 
   -0.54481E+08        -0.10141E+07         0.00000E+00
   -0.10141E+07        -0.60067E+08         0.00000E+00
    0.00000E+00         0.00000E+00        -0.44839E+08
 
   -0.53472E+08        -0.14405E+07         0.00000E+00
   -0.14405E+07        -0.60155E+08         0.00000E+00
    0.00000E+00         0.00000E+00        -0.44652E+08
 
   -0.52433E+08        -0.16566E+07         0.00000E+00
   -0.16566E+07        -0.60262E+08         0.00000E+00
    0.00000E+00         0.00000E+00        -0.44462E+08
 
   -0.51394E+08        -0.16628E+07         0.00000E+00
   -0.16628E+07        -0.60376E+08         0.00000E+00
    0.00000E+00         0.00000E+00        -0.44273E+08
 
   -0.50374E+08        -0.14648E+07         0.00000E+00
   -0.14648E+07        -0.60494E+08         0.00000E+00
    0.00000E+00         0.00000E+00        -0.44087E+08
 
   -0.49385E+08        -0.10704E+07         0.00000E+00
   -0.10704E+07        -0.60614E+08         0.00000E+00
    0.00000E+00         0.00000E+00        -0.43908E+08
 
   -0.48433E+08        -0.48814E+06         0.00000E+00
   -0.48814E+06        -0.60739E+08         0.00000E+00
    0.00000E+00         0.00000E+00        -0.43738E+08
 
   -0.47523E+08         0.27422E+06         0.00000E+00
    0.27422E+06        -0.60874E+08         0.00000E+00
    0.00000E+00         0.00000E+00        -0.43578E+08
 
   -0.46655E+08         0.12100E+07         0.00000E+00
    0.12100E+07        -0.61023E+08         0.00000E+00
    0.00000E+00         0.00000E+00        -0.43430E+08
 
   -0.45832E+08         0.23132E+07         0.00000E+00
    0.23132E+07        -0.61189E+08         0.00000E+00
    0.00000E+00         0.00000E+00        -0.43294E+08
 
   -0.45058E+08         0.35778E+07         0.00000E+00
    0.35778E+07        -0.61374E+08         0.00000E+00
    0.00000E+00         0.00000E+00        -0.43173E+08
 
   -0.44342E+08         0.49963E+07         0.00000E+00
    0.49963E+07        -0.61575E+08         0.00000E+00
    0.00000E+00         0.00000E+00        -0.43067E+08
 
   -0.43696E+08         0.65580E+07         0.00000E+00
    0.65580E+07        -0.61786E+08         0.00000E+00
    0.00000E+00         0.00000E+00        -0.42978E+08
 
   -0.43134E+08         0.82472E+07         0.00000E+00
    0.82472E+07        -0.62000E+08         0.00000E+00
    0.00000E+00         0.00000E+00        -0.42907E+08
 
   -0.56178E+08        -0.41856E+06         0.00000E+00
   -0.41856E+06        -0.60016E+08         0.00000E+00
    0.00000E+00         0.00000E+00        -0.43667E+08
 
   -0.55028E+08        -0.10954E+07         0.00000E+00
   -0.10954E+07        -0.60079E+08         0.00000E+00
    0.00000E+00         0.00000E+00        -0.43448E+08
 
   -0.53802E+08        -0.15480E+07         0.00000E+00
   -0.15480E+07        -0.60179E+08         0.00000E+00
    0.00000E+00         0.00000E+00        -0.43220E+08
 
   -0.52547E+08        -0.17756E+07         0.00000E+00
   -0.17756E+07        -0.60298E+08         0.00000E+00
    0.00000E+00         0.00000E+00        -0.42988E+08
 
   -0.51298E+08        -0.17852E+07         0.00000E+00
   -0.17852E+07        -0.60422E+08         0.00000E+00
    0.00000E+00         0.00000E+00        -0.42758E+08
 
   -0.50077E+08        -0.15883E+07         0.00000E+00
   -0.15883E+07        -0.60548E+08         0.00000E+00
    0.00000E+00         0.00000E+00        -0.42534E+08
 
   -0.48898E+08        -0.11973E+07         0.00000E+00
   -0.11973E+07        -0.60674E+08         0.00000E+00
    0.00000E+00         0.00000E+00        -0.42318E+08
 
   -0.47765E+08        -0.62346E+06         0.00000E+00
   -0.62346E+06        -0.60808E+08         0.00000E+00
    0.00000E+00         0.00000E+00        -0.42112E+08
 
   -0.46681E+08         0.12453E+06         0.00000E+00
    0.12453E+06        -0.60955E+08         0.00000E+00
    0.00000E+00         0.00000E+00        -0.41919E+08
 
   -0.45645E+08         0.10408E+07         0.00000E+00
    0.10408E+07        -0.61122E+08         0.00000E+00
    0.00000E+00         0.00000E+00        -0.41740E+08
 
   -0.44658E+08         0.21217E+07         0.00000E+00
    0.21217E+07        -0.61315E+08         0.00000E+00
    0.00000E+00         0.00000E+00        -0.41576E+08
 
   -0.43725E+08         0.33647E+07         0.00000E+00
    0.33647E+07        -0.61534E+08         0.00000E+00
    0.00000E+00         0.00000E+00        -0.41430E+08
 
   -0.42857E+08         0.47662E+07         0.00000E+00
    0.47662E+07        -0.61776E+08         0.00000E+00
    0.00000E+00         0.00000E+00        -0.41301E+08
 
   -0.42069E+08         0.63198E+07         0.00000E+00
    0.63198E+07        -0.62035E+08         0.00000E+00
    0.00000E+00         0.00000E+00        -0.41193E+08
 
   -0.41384E+08         0.80130E+07         0.00000E+00
    0.80130E+07        -0.62296E+08         0.00000E+00
    0.00000E+00         0.00000E+00        -0.41107E+08
 
   -0.56997E+08        -0.45722E+06         0.00000E+00
   -0.45722E+06        -0.60018E+08         0.00000E+00
    0.00000E+00         0.00000E+00        -0.42329E+08
 
   -0.55613E+08        -0.11866E+07         0.00000E+00
   -0.11866E+07        -0.60087E+08         0.00000E+00
    0.00000E+00         0.00000E+00        -0.42064E+08
 
   -0.54150E+08        -0.16651E+07         0.00000E+00
   -0.16651E+07        -0.60194E+08         0.00000E+00
    0.00000E+00         0.00000E+00        -0.41789E+08
 
   -0.52666E+08        -0.19007E+07         0.00000E+00
   -0.19007E+07        -0.60316E+08         0.00000E+00
    0.00000E+00         0.00000E+00        -0.41512E+08
 
   -0.51202E+08        -0.19097E+07         0.00000E+00
   -0.19097E+07        -0.60438E+08         0.00000E+00
    0.00000E+00         0.00000E+00        -0.41238E+08
 
   -0.49782E+08        -0.17115E+07         0.00000E+00
   -0.17115E+07        -0.60556E+08         0.00000E+00
    0.00000E+00         0.00000E+00        -0.40972E+08
 
   -0.48418E+08        -0.13241E+07         0.00000E+00
   -0.13241E+07        -0.60675E+08         0.00000E+00
    0.00000E+00         0.00000E+00        -0.40717E+08
 
   -0.47112E+08        -0.76190E+06         0.00000E+00
   -0.76190E+06        -0.60802E+08         0.00000E+00
    0.00000E+00         0.00000E+00        -0.40475E+08
 
   -0.45861E+08        -0.34390E+05         0.00000E+00
   -0.34390E+05        -0.60949E+08         0.00000E+00
    0.00000E+00         0.00000E+00        -0.40248E+08
 
   -0.44661E+08         0.85394E+06         0.00000E+00
    0.85394E+06        -0.61124E+08         0.00000E+00
    0.00000E+00         0.00000E+00        -0.40037E+08
 
   -0.43512E+08         0.19027E+07         0.00000E+00
    0.19027E+07        -0.61335E+08         0.00000E+00
    0.00000E+00         0.00000E+00        -0.39845E+08
 
   -0.42417E+08         0.31141E+07         0.00000E+00
    0.31141E+07        -0.61585E+08         0.00000E+00
    0.00000E+00         0.00000E+00        -0.39671E+08
 
   -0.41388E+08         0.44904E+07         0.00000E+00
    0.44904E+07        -0.61870E+08         0.00000E+00
    0.00000E+00         0.00000E+00        -0.39519E+08
 
   -0.40446E+08         0.60310E+07         0.00000E+00
    0.60310E+07        -0.62178E+08         0.00000E+00
    0.00000E+00         0.00000E+00        -0.39390E+08
 
   -0.39621E+08         0.77285E+07         0.00000E+00
    0.77285E+07        -0.62494E+08         0.00000E+00
    0.00000E+00         0.00000E+00        -0.39286E+08
 
   -0.57888E+08        -0.49974E+06         0.00000E+00
   -0.49974E+06        -0.60020E+08         0.00000E+00
    0.00000E+00         0.00000E+00        -0.41003E+08
 
   -0.56235E+08        -0.12832E+07         0.00000E+00
   -0.12832E+07        -0.60091E+08         0.00000E+00
    0.00000E+00         0.00000E+00        -0.40685E+08
 
   -0.54510E+08        -0.17827E+07         0.00000E+00
   -0.17827E+07        -0.60198E+08         0.00000E+00
    0.00000E+00         0.00000E+00        -0.40357E+08
 
   -0.52784E+08        -0.20190E+07         0.00000E+00
   -0.20190E+07        -0.60309E+08         0.00000E+00
    0.00000E+00         0.00000E+00        -0.40030E+08
 
   -0.51102E+08        -0.20209E+07         0.00000E+00
   -0.20209E+07        -0.60413E+08         0.00000E+00
    0.00000E+00         0.00000E+00        -0.39708E+08
 
   -0.49487E+08        -0.18177E+07         0.00000E+00
   -0.18177E+07        -0.60506E+08         0.00000E+00
    0.00000E+00         0.00000E+00        -0.39398E+08
 
   -0.47946E+08        -0.14343E+07         0.00000E+00
   -0.14343E+07        -0.60598E+08         0.00000E+00
    0.00000E+00         0.00000E+00        -0.39101E+08
 
   -0.46477E+08        -0.88830E+06         0.00000E+00
   -0.88830E+06        -0.60702E+08         0.00000E+00
    0.00000E+00         0.00000E+00        -0.38822E+08
 
   -0.45069E+08        -0.18966E+06         0.00000E+00
   -0.18966E+06        -0.60833E+08         0.00000E+00
    0.00000E+00         0.00000E+00        -0.38560E+08
 
   -0.43714E+08         0.65920E+06         0.00000E+00
    0.65920E+06        -0.61004E+08         0.00000E+00
    0.00000E+00         0.00000E+00        -0.38318E+08
 
   -0.42405E+08         0.16621E+07         0.00000E+00
    0.16621E+07        -0.61225E+08         0.00000E+00
    0.00000E+00         0.00000E+00        -0.38095E+08
 
   -0.41144E+08         0.28276E+07         0.00000E+00
    0.28276E+07        -0.61502E+08         0.00000E+00
    0.00000E+00         0.00000E+00        -0.37893E+08
 
   -0.39944E+08         0.41659E+07         0.00000E+00
    0.41659E+07        -0.61829E+08         0.00000E+00
    0.00000E+00         0.00000E+00        -0.37715E+08
 
   -0.38831E+08         0.56848E+07         0.00000E+00
    0.56848E+07        -0.62194E+08         0.00000E+00
    0.00000E+00         0.00000E+00        -0.37563E+08
 
   -0.37843E+08         0.73846E+07         0.00000E+00
    0.73846E+07        -0.62573E+08         0.00000E+00
    0.00000E+00         0.00000E+00        -0.37439E+08
 
   -0.58854E+08        -0.54466E+06         0.00000E+00
   -0.54466E+06        -0.60020E+08         0.00000E+00
    0.00000E+00         0.00000E+00        -0.39689E+08
 
   -0.56889E+08        -0.13788E+07         0.00000E+00
   -0.13788E+07        -0.60091E+08         0.00000E+00
    0.00000E+00         0.00000E+00        -0.39307E+08
 
   -0.54874E+08        -0.18888E+07         0.00000E+00
   -0.18888E+07        -0.60185E+08         0.00000E+00
    0.00000E+00         0.00000E+00        -0.38920E+08
 
   -0.52892E+08        -0.21135E+07         0.00000E+00
   -0.21135E+07        -0.60270E+08         0.00000E+00
    0.00000E+00         0.00000E+00        -0.38535E+08
 
   -0.50991E+08        -0.20986E+07         0.00000E+00
   -0.20986E+07        -0.60333E+08         0.00000E+00
    0.00000E+00         0.00000E+00        -0.38162E+08
 
   -0.49189E+08        -0.18861E+07         0.00000E+00
   -0.18861E+07        -0.60379E+08         0.00000E+00
    0.00000E+00         0.00000E+00        -0.37805E+08
 
   -0.47487E+08        -0.15082E+07         0.00000E+00
   -0.15082E+07        -0.60423E+08         0.00000E+00
    0.00000E+00         0.00000E+00        -0.37467E+08
 
   -0.45869E+08        -0.98513E+06         0.00000E+00
   -0.98513E+06        -0.60483E+08         0.00000E+00
    0.00000E+00         0.00000E+00        -0.37149E+08
 
   -0.44319E+08        -0.32655E+06         0.00000E+00
   -0.32655E+06        -0.60581E+08         0.00000E+00
    0.00000E+00         0.00000E+00        -0.36852E+08
 
   -0.42818E+08         0.46783E+06         0.00000E+00
    0.46783E+06        -0.60734E+08         0.00000E+00
    0.00000E+00         0.00000E+00        -0.36577E+08
 
   -0.41354E+08         0.14069E+07         0.00000E+00
    0.14069E+07        -0.60956E+08         0.00000E+00
    0.00000E+00         0.00000E+00        -0.36323E+08
 
   -0.39924E+08         0.25069E+07         0.00000E+00
    0.25069E+07        -0.61255E+08         0.00000E+00
    0.00000E+00         0.00000E+00        -0.36092E+08
 
   -0.38539E+08         0.37885E+07         0.00000E+00
    0.37885E+07        -0.61627E+08         0.00000E+00
    0.00000E+00         0.00000E+00        -0.35886E+08
 
   -0.37230E+08         0.52718E+07         0.00000E+00
    0.52718E+07        -0.62056E+08         0.00000E+00
    0.00000E+00         0.00000E+00        -0.35707E+08
 
   -0.36048E+08         0.69685E+07         0.00000E+00
    0.69685E+07        -0.62512E+08         0.00000E+00
    0.00000E+00         0.00000E+00        -0.35561E+08
 
   -0.59896E+08        -0.59026E+06         0.00000E+00
   -0.59026E+06        -0.60021E+08         0.00000E+00
    0.00000E+00         0.00000E+00        -0.38385E+08
 
   -0.57564E+08        -0.14649E+07         0.00000E+00
   -0.14649E+07        -0.60084E+08         0.00000E+00
    0.00000E+00         0.00000E+00        -0.37929E+08
 
   -0.55225E+08        -0.19664E+07         0.00000E+00
   -0.19664E+07        -0.60151E+08         0.00000E+00
    0.00000E+00         0.00000E+00        -0.37471E+08
 
   -0.52976E+08        -0.21610E+07         0.00000E+00
   -0.21610E+07        -0.60185E+08         0.00000E+00
    0.00000E+00         0.00000E+00        -0.37023E+08
 
   -0.50861E+08        -0.21176E+07         0.00000E+00
   -0.21176E+07        -0.60180E+08         0.00000E+00
    0.00000E+00         0.00000E+00        -0.36594E+08
 
   -0.48890E+08        -0.18925E+07         0.00000E+00
   -0.18925E+07        -0.60151E+08         0.00000E+00
    0.00000E+00         0.00000E+00        -0.36188E+08
 
   -0.47045E+08        -0.15239E+07         0.00000E+00
   -0.15239E+07        -0.60122E+08         0.00000E+00
    0.00000E+00         0.00000E+00        -0.35807E+08
 
   -0.45299E+08        -0.10336E+07         0.00000E+00
   -0.10336E+07        -0.60119E+08         0.00000E+00
    0.00000E+00         0.00000E+00        -0.35451E+08
 
   -0.43625E+08        -0.42932E+06         0.00000E+00
   -0.42932E+06        -0.60167E+08         0.00000E+00
    0.00000E+00         0.00000E+00        -0.35120E+08
 
   -0.41993E+08         0.29217E+06         0.00000E+00
    0.29217E+06        -0.60288E+08         0.00000E+00
    0.00000E+00         0.00000E+00        -0.34812E+08
 
   -0.40381E+08         0.11451E+07         0.00000E+00
    0.11451E+07        -0.60500E+08         0.00000E+00
    0.00000E+00         0.00000E+00        -0.34528E+08
 
   -0.38779E+08         0.21540E+07         0.00000E+00
    0.21540E+07        -0.60815E+08         0.00000E+00
    0.00000E+00         0.00000E+00        -0.34266E+08
 
   -0.37194E+08         0.33527E+07         0.00000E+00
    0.33527E+07        -0.61233E+08         0.00000E+00
    0.00000E+00         0.00000E+00        -0.34029E+08
 
   -0.35659E+08         0.47788E+07         0.00000E+00
    0.47788E+07        -0.61738E+08         0.00000E+00
    0.00000E+00         0.00000E+00        -0.33820E+08
 
   -0.34238E+08         0.64618E+07         0.00000E+00
    0.64618E+07        -0.62290E+08         0.00000E+00
    0.00000E+00         0.00000E+00        -0.33645E+08
 
   -0.61007E+08        -0.63425E+06         0.00000E+00
   -0.63425E+06        -0.60019E+08         0.00000E+00
    0.00000E+00         0.00000E+00        -0.37090E+08
 
   -0.58239E+08        -0.15282E+07         0.00000E+00
   -0.15282E+07        -0.60065E+08         0.00000E+00
    0.00000E+00         0.00000E+00        -0.36543E+08
 
   -0.55539E+08        -0.19903E+07         0.00000E+00
   -0.19903E+07        -0.60080E+08         0.00000E+00
    0.00000E+00         0.00000E+00        -0.36003E+08
 
   -0.53018E+08        -0.21301E+07         0.00000E+00
   -0.21301E+07        -0.60029E+08         0.00000E+00
    0.00000E+00         0.00000E+00        -0.35485E+08
 
   -0.50708E+08        -0.20469E+07         0.00000E+00
   -0.20469E+07        -0.59922E+08         0.00000E+00
    0.00000E+00         0.00000E+00        -0.34996E+08
 
   -0.48591E+08        -0.18099E+07         0.00000E+00
   -0.18099E+07        -0.59788E+08         0.00000E+00
    0.00000E+00         0.00000E+00        -0.34541E+08
 
   -0.46629E+08        -0.14597E+07         0.00000E+00
   -0.14597E+07        -0.59663E+08         0.00000E+00
    0.00000E+00         0.00000E+00        -0.34118E+08
 
   -0.44781E+08        -0.10156E+07         0.00000E+00
   -0.10156E+07        -0.59578E+08         0.00000E+00
    0.00000E+00         0.00000E+00        -0.33726E+08
 
   -0.43004E+08        -0.48287E+06         0.00000E+00
   -0.48287E+06        -0.59561E+08         0.00000E+00
    0.00000E+00         0.00000E+00        -0.33361E+08
 
   -0.41259E+08         0.14491E+06         0.00000E+00
    0.14491E+06        -0.59637E+08         0.00000E+00
    0.00000E+00         0.00000E+00        -0.33023E+08
 
   -0.39513E+08         0.88585E+06         0.00000E+00
    0.88585E+06        -0.59827E+08         0.00000E+00
    0.00000E+00         0.00000E+00        -0.32707E+08
 
   -0.37741E+08         0.17721E+07         0.00000E+00
    0.17721E+07        -0.60151E+08         0.00000E+00
    0.00000E+00         0.00000E+00        -0.32413E+08
 
   -0.35939E+08         0.28522E+07         0.00000E+00
    0.28522E+07        -0.60616E+08         0.00000E+00
    0.00000E+00         0.00000E+00        -0.32143E+08
 
   -0.34138E+08         0.41879E+07         0.00000E+00
    0.41879E+07        -0.61209E+08         0.00000E+00
    0.00000E+00         0.00000E+00        -0.31899E+08
 
   -0.32419E+08         0.58385E+07         0.00000E+00
    0.58385E+07        -0.61882E+08         0.00000E+00
    0.00000E+00         0.00000E+00        -0.31688E+08
 
   -0.62171E+08        -0.67300E+06         0.00000E+00
   -0.67300E+06        -0.60016E+08         0.00000E+00
    0.00000E+00         0.00000E+00        -0.35800E+08
 
   -0.58874E+08        -0.15455E+07         0.00000E+00
   -0.15455E+07        -0.60027E+08         0.00000E+00
    0.00000E+00         0.00000E+00        -0.35141E+08
 
   -0.55782E+08        -0.19205E+07         0.00000E+00
   -0.19205E+07        -0.59948E+08         0.00000E+00
    0.00000E+00         0.00000E+00        -0.34504E+08
 
   -0.53004E+08        -0.19785E+07         0.00000E+00
   -0.19785E+07        -0.59761E+08         0.00000E+00
    0.00000E+00         0.00000E+00        -0.33908E+08
 
   -0.50529E+08        -0.18518E+07         0.00000E+00
   -0.18518E+07        -0.59509E+08         0.00000E+00
    0.00000E+00         0.00000E+00        -0.33358E+08
 
   -0.48301E+08        -0.16134E+07         0.00000E+00
   -0.16134E+07        -0.59242E+08         0.00000E+00
    0.00000E+00         0.00000E+00        -0.32855E+08
 
   -0.46255E+08        -0.12974E+07         0.00000E+00
   -0.12974E+07        -0.59004E+08         0.00000E+00
    0.00000E+00         0.00000E+00        -0.32393E+08
 
   -0.44331E+08        -0.91766E+06         0.00000E+00
   -0.91766E+06        -0.58825E+08         0.00000E+00
    0.00000E+00         0.00000E+00        -0.31968E+08
 
   -0.42476E+08        -0.47548E+06         0.00000E+00
   -0.47548E+06        -0.58734E+08         0.00000E+00
    0.00000E+00         0.00000E+00        -0.31574E+08
 
   -0.40640E+08         0.37499E+05         0.00000E+00
    0.37499E+05        -0.58755E+08         0.00000E+00
    0.00000E+00         0.00000E+00        -0.31207E+08
 
   -0.38778E+08         0.64045E+06         0.00000E+00
    0.64045E+06        -0.58914E+08         0.00000E+00
    0.00000E+00         0.00000E+00        -0.30862E+08
 
   -0.36846E+08         0.13684E+07         0.00000E+00
    0.13684E+07        -0.59235E+08         0.00000E+00
    0.00000E+00         0.00000E+00        -0.30536E+08
 
   -0.34817E+08         0.22826E+07         0.00000E+00
    0.22826E+07        -0.59741E+08         0.00000E+00
    0.00000E+00         0.00000E+00        -0.30229E+08
 
   -0.32705E+08         0.34769E+07         0.00000E+00
    0.34769E+07        -0.60435E+08         0.00000E+00
    0.00000E+00         0.00000E+00        -0.29943E+08
 
   -0.30601E+08         0.50610E+07         0.00000E+00
    0.50610E+07        -0.61265E+08         0.00000E+00
    0.00000E+00         0.00000E+00        -0.29688E+08
 
   -0.63353E+08        -0.69825E+06         0.00000E+00
   -0.69825E+06        -0.60007E+08         0.00000E+00
    0.00000E+00         0.00000E+00        -0.34508E+08
 
   -0.59405E+08        -0.14691E+07         0.00000E+00
   -0.14691E+07        -0.59939E+08         0.00000E+00
    0.00000E+00         0.00000E+00        -0.33703E+08
 
   -0.55913E+08        -0.16914E+07         0.00000E+00
   -0.16914E+07        -0.59687E+08         0.00000E+00
    0.00000E+00         0.00000E+00        -0.32952E+08
 
   -0.52926E+08        -0.16546E+07         0.00000E+00
   -0.16546E+07        -0.59298E+08         0.00000E+00
    0.00000E+00         0.00000E+00        -0.32274E+08
 
   -0.50340E+08        -0.15020E+07         0.00000E+00
   -0.15020E+07        -0.58866E+08         0.00000E+00
    0.00000E+00         0.00000E+00        -0.31667E+08
 
   -0.48041E+08        -0.12868E+07         0.00000E+00
   -0.12868E+07        -0.58452E+08         0.00000E+00
    0.00000E+00         0.00000E+00        -0.31121E+08
 
   -0.45942E+08        -0.10293E+07         0.00000E+00
   -0.10293E+07        -0.58096E+08         0.00000E+00
    0.00000E+00         0.00000E+00        -0.30627E+08
 
   -0.43969E+08        -0.73513E+06         0.00000E+00
   -0.73513E+06        -0.57825E+08         0.00000E+00
    0.00000E+00         0.00000E+00        -0.30174E+08
 
   -0.42060E+08        -0.40241E+06         0.00000E+00
   -0.40241E+06        -0.57660E+08         0.00000E+00
    0.00000E+00         0.00000E+00        -0.29756E+08
 
   -0.40158E+08        -0.22753E+05         0.00000E+00
   -0.22753E+05        -0.57625E+08         0.00000E+00
    0.00000E+00         0.00000E+00        -0.29365E+08
 
   -0.38205E+08         0.42037E+06         0.00000E+00
    0.42037E+06        -0.57745E+08         0.00000E+00
    0.00000E+00         0.00000E+00        -0.28995E+08
 
   -0.36138E+08         0.95768E+06         0.00000E+00
    0.95768E+06        -0.58049E+08         0.00000E+00
    0.00000E+00         0.00000E+00        -0.28640E+08
 
   -0.33889E+08         0.16489E+07         0.00000E+00
    0.16489E+07        -0.58578E+08         0.00000E+00
    0.00000E+00         0.00000E+00        -0.28294E+08
 
   -0.31420E+08         0.26210E+07         0.00000E+00
    0.26210E+07        -0.59377E+08         0.00000E+00
    0.00000E+00         0.00000E+00        -0.27959E+08
 
   -0.28811E+08         0.40728E+07         0.00000E+00
    0.40728E+07        -0.60411E+08         0.00000E+00
    0.00000E+00         0.00000E+00        -0.27643E+08
 
   -0.64468E+08        -0.68081E+06         0.00000E+00
   -0.68081E+06        -0.59974E+08         0.00000E+00
    0.00000E+00         0.00000E+00        -0.33193E+08
 
   -0.59729E+08        -0.11846E+07         0.00000E+00
   -0.11846E+07        -0.59700E+08         0.00000E+00
    0.00000E+00         0.00000E+00        -0.32189E+08
 
   -0.55915E+08        -0.12109E+07         0.00000E+00
   -0.12109E+07        -0.59138E+08         0.00000E+00
    0.00000E+00         0.00000E+00        -0.31313E+08
 
   -0.52814E+08        -0.11209E+07         0.00000E+00
   -0.11209E+07        -0.58503E+08         0.00000E+00
    0.00000E+00         0.00000E+00        -0.30564E+08
 
   -0.50172E+08        -0.98883E+06         0.00000E+00
   -0.98883E+06        -0.57891E+08         0.00000E+00
    0.00000E+00         0.00000E+00        -0.29911E+08
 
   -0.47840E+08        -0.83462E+06         0.00000E+00
   -0.83462E+06        -0.57345E+08         0.00000E+00
    0.00000E+00         0.00000E+00        -0.29333E+08
 
   -0.45714E+08        -0.66382E+06         0.00000E+00
   -0.66382E+06        -0.56890E+08         0.00000E+00
    0.00000E+00         0.00000E+00        -0.28814E+08
 
   -0.43714E+08        -0.47648E+06         0.00000E+00
   -0.47648E+06        -0.56543E+08         0.00000E+00
    0.00000E+00         0.00000E+00        -0.28342E+08
 
   -0.41773E+08        -0.26948E+06         0.00000E+00
   -0.26948E+06        -0.56319E+08         0.00000E+00
    0.00000E+00         0.00000E+00        -0.27907E+08
 
   -0.39829E+08        -0.36640E+05         0.00000E+00
   -0.36640E+05        -0.56238E+08         0.00000E+00
    0.00000E+00         0.00000E+00        -0.27500E+08
 
   -0.37815E+08         0.23287E+06         0.00000E+00
    0.23287E+06        -0.56320E+08         0.00000E+00
    0.00000E+00         0.00000E+00        -0.27112E+08
 
   -0.35652E+08         0.55905E+06         0.00000E+00
    0.55905E+06        -0.56598E+08         0.00000E+00
    0.00000E+00         0.00000E+00        -0.26733E+08
 
   -0.33234E+08         0.98291E+06         0.00000E+00
    0.98291E+06        -0.57122E+08         0.00000E+00
    0.00000E+00         0.00000E+00        -0.26353E+08
 
   -0.30399E+08         0.16083E+07         0.00000E+00
    0.16083E+07        -0.57978E+08         0.00000E+00
    0.00000E+00         0.00000E+00        -0.25956E+08
 
   -0.27109E+08         0.27787E+07         0.00000E+00
    0.27787E+07        -0.59283E+08         0.00000E+00
    0.00000E+00         0.00000E+00        -0.25559E+08
 
   -0.65278E+08        -0.42930E+06         0.00000E+00
   -0.42930E+06        -0.59689E+08         0.00000E+00
    0.00000E+00         0.00000E+00        -0.31762E+08
 
   -0.59775E+08        -0.48993E+06         0.00000E+00
   -0.48993E+06        -0.58905E+08         0.00000E+00
    0.00000E+00         0.00000E+00        -0.30504E+08
 
   -0.55865E+08        -0.44764E+06         0.00000E+00
   -0.44764E+06        -0.58028E+08         0.00000E+00
    0.00000E+00         0.00000E+00        -0.29547E+08
 
   -0.52728E+08        -0.39938E+06         0.00000E+00
   -0.39938E+06        -0.57209E+08         0.00000E+00
    0.00000E+00         0.00000E+00        -0.28755E+08
 
   -0.50071E+08        -0.34608E+06         0.00000E+00
   -0.34608E+06        -0.56480E+08         0.00000E+00
    0.00000E+00         0.00000E+00        -0.28077E+08
 
   -0.47729E+08        -0.28949E+06         0.00000E+00
   -0.28949E+06        -0.55855E+08         0.00000E+00
    0.00000E+00         0.00000E+00        -0.27482E+08
 
   -0.45593E+08        -0.22939E+06         0.00000E+00
   -0.22939E+06        -0.55343E+08         0.00000E+00
    0.00000E+00         0.00000E+00        -0.26952E+08
 
   -0.43581E+08        -0.16494E+06         0.00000E+00
   -0.16494E+06        -0.54954E+08         0.00000E+00
    0.00000E+00         0.00000E+00        -0.26471E+08
 
   -0.41626E+08        -0.94650E+05         0.00000E+00
   -0.94650E+05        -0.54698E+08         0.00000E+00
    0.00000E+00         0.00000E+00        -0.26028E+08
 
   -0.39662E+08        -0.16264E+05         0.00000E+00
   -0.16264E+05        -0.54589E+08         0.00000E+00
    0.00000E+00         0.00000E+00        -0.25613E+08
 
   -0.37619E+08         0.73946E+05         0.00000E+00
    0.73946E+05        -0.54649E+08         0.00000E+00
    0.00000E+00         0.00000E+00        -0.25215E+08
 
   -0.35407E+08         0.18263E+06         0.00000E+00
    0.18263E+06        -0.54907E+08         0.00000E+00
    0.00000E+00         0.00000E+00        -0.24824E+08
 
   -0.32898E+08         0.32421E+06         0.00000E+00
    0.32421E+06        -0.55414E+08         0.00000E+00
    0.00000E+00         0.00000E+00        -0.24423E+08
 
   -0.29863E+08         0.53146E+06         0.00000E+00
    0.53146E+06        -0.56270E+08         0.00000E+00
    0.00000E+00         0.00000E+00        -0.23987E+08
 
   -0.25650E+08         0.10200E+07         0.00000E+00
    0.10200E+07        -0.57749E+08         0.00000E+00
    0.00000E+00         0.00000E+00        -0.23440E+08
 
SCALARS stressS double 
LOOKUP_TABLE default
  -54939349.2821987     
  -55976042.9467707     
  -58000202.5329150     
  -60398977.6693106     
  -62704919.6337163     
  -64735447.2614711     
  -66256201.0442691     
  -67502574.4969293     
  -68584359.8119810     
  -69559777.8113455     
  -70469299.5356727     
  -71349069.2291435     
  -72241190.0997284     
  -73209130.7437566     
  -74431398.9229651     
  -57177234.4261682     
  -58308189.7902329     
  -59671477.9481642     
  -60968946.0288298     
  -62283260.2548567     
  -63666197.2900243     
  -65002634.5185655     
  -66164820.1987787     
  -67197076.9806648     
  -68136109.7387348     
  -69012789.9353333     
  -69855569.7638917     
  -70693970.2572503     
  -71566625.4408889     
  -72436409.5738039     
  -57945916.9832300     
  -59037330.2345880     
  -59793459.1405020     
  -60638092.3674806     
  -61704369.5200219     
  -62825730.8322564     
  -63925423.5208599     
  -64958714.5512113     
  -65905604.1394679     
  -66779120.6621154     
  -67596099.3026571     
  -68373285.4588306     
  -69125437.4336105     
  -69850849.5118766     
  -70528446.6841729     
  -57667837.6997490     
  -58493929.4313412     
  -59338339.7343062     
  -60182338.6052110     
  -61078434.5623933     
  -62018286.6317488     
  -62952973.4360987     
  -63850789.2034270     
  -64696379.6514681     
  -65486593.7972809     
  -66226659.9448803     
  -66922818.4098987     
  -67576874.3406990     
  -68182095.0673777     
  -68718207.8972830     
  -57300753.9470517     
  -58088287.6651979     
  -58856503.6016019     
  -59634746.1568171     
  -60427579.3166065     
  -61232820.0851733     
  -62034516.5271433     
  -62813037.2144836     
  -63555354.2514986     
  -64255249.2198474     
  -64910807.0746691     
  -65521130.0054989     
  -66082752.1366330     
  -66586631.9299880     
  -67016974.8426947     
  -57000177.2858209     
  -57697841.9505569     
  -58386480.4950263     
  -59075614.8254990     
  -59770149.8395539     
  -60466427.3189492     
  -61155919.3414458     
  -61827703.2124125     
  -62471940.2327414     
  -63081664.4908047     
  -63652081.8956132     
  -64178831.0851614     
  -64656029.1717584     
  -65074752.1387118     
  -65422424.1709350     
  -56739830.5383126     
  -57333548.1482316     
  -57928204.6415739     
  -58525189.7413751     
  -59124091.1768941     
  -59721644.1824235     
  -60311679.3802885     
  -60886683.7514589     
  -61439183.6799990     
  -61962603.7826486     
  -62451229.7024199     
  -62899438.9153586     
  -63300724.4434901     
  -63646939.9983724     
  -63928105.4860016     
  -56500086.1419864     
  -56987577.5160301     
  -57485348.9621059     
  -57989274.7796632     
  -58495955.9768360     
  -59001197.1792848     
  -59499742.8575722     
  -59985593.9647039     
  -60452602.6179027     
  -60894850.7862429     
  -61306665.0695728     
  -61682303.9713178     
  -62015512.9752687     
  -62299199.7904431     
  -62525420.7465796     
  -56266248.3501457     
  -56652803.8304759     
  -57056088.3545515     
  -57469415.5175920     
  -57887547.4842313     
  -58305625.8424911     
  -58718646.4152476     
  -59121395.3344138     
  -59508574.8370649     
  -59874928.6608272     
  -60215236.9904409     
  -60524180.3545442     
  -60796156.3243909     
  -61025169.2764471     
  -61204899.4896072     
  -56029547.0094583     
  -56323386.9257507     
  -56637597.7473112     
  -56964600.7225011     
  -57298439.5644837     
  -57633987.2012911     
  -57966458.0635423     
  -58291178.5166949     
  -58603521.1404172     
  -58898889.5662004     
  -59172685.8196786     
  -59420243.4917840     
  -59636759.3831738     
  -59817279.8066826     
  -59956793.3635296     
  -55785372.5444632     
  -55995522.6805172     
  -56227187.9817865     
  -56472984.8528866     
  -56727032.2526388     
  -56984390.9894313     
  -57240654.9448667     
  -57491697.9604751     
  -57733535.3026240     
  -57962248.9327932     
  -58173936.5642561     
  -58364670.4288980     
  -58530475.4790974     
  -58667350.6324600     
  -58771355.9345041     
  -55532177.9740133     
  -55667210.3385515     
  -55822852.5052409     
  -55992602.7885195     
  -56171227.0022970     
  -56354363.3663511     
  -56538205.4495110     
  -56719275.7673288     
  -56894278.6435373     
  -57060009.2600328     
  -57213298.1970762     
  -57350980.6689645     
  -57469891.2091421     
  -57566891.6759284     
  -57638940.5484210     
  -55270607.5146428     
  -55337928.5503531     
  -55423346.9241438     
  -55521688.3585822     
  -55628764.6604140     
  -55741099.1017614     
  -55855691.4557822     
  -55969837.1079266     
  -56080999.7581162     
  -56186728.6670425     
  -56284609.5691235     
  -56372241.5971212     
  -56447237.3825129     
  -56507246.9659255     
  -56550006.4054536     
  -55002864.9680471     
  -55008289.7577243     
  -55028106.9148782     
  -55058759.7815195     
  -55097381.6598421     
  -55141609.0171755     
  -55189415.9048315     
  -55238982.0560800     
  -55288597.8544304     
  -55336602.7778823     
  -55381351.0483386     
  -55421198.3830568     
  -55454505.4840921     
  -55479655.5654613     
  -55495083.7176210     
  -54732237.1292728     
  -54679729.8825912     
  -54637099.1426766     
  -54602594.1908027     
  -54574855.4779629     
  -54552792.6921101     
  -54535476.5554911     
  -54522054.3141944     
  -54511692.1952593     
  -54503542.8030474     
  -54496732.3280689     
  -54490361.4914036     
  -54483514.6538842     
  -54475272.6101685     
  -54464725.5697982     
  -54462722.8858955     
  -54354235.6722017     
  -54250651.3168963     
  -54152145.0663176     
  -54058984.7562201     
  -53971456.6774215     
  -53889804.9857079     
  -53814192.1976974     
  -53744682.3620602     
  -53681243.6201724     
  -53623763.7879332     
  -53572071.3880414     
  -53525954.8809361     
  -53485174.1321450     
  -53449459.9085189     
  -54198732.0408623     
  -54034102.6078986     
  -53869275.4971258     
  -53706427.4027932     
  -53547526.4069082     
  -53394291.8482097     
  -53248173.9779456     
  -53110358.5933135     
  -52981795.1893108     
  -52863242.0197683     
  -52755318.3918531     
  -52658553.5462606     
  -52573422.2534118     
  -52500359.3060484     
  -52439747.9448253     
  -53944830.1195591     
  -53721712.2374611     
  -53493485.2268228     
  -53264377.9060479     
  -53038098.5690380     
  -52817816.3739695     
  -52606176.4224999     
  -52405350.8629665     
  -52217119.7077910     
  -52042969.1007316     
  -51884191.8200103     
  -51741974.5070707     
  -51617457.8784161     
  -51511759.4701238     
  -51425952.8145818     
  -53705512.9851545     
  -53419316.7868786     
  -53123599.1818547     
  -52824687.0193146     
  -52528048.7648222     
  -52238284.9222121     
  -51959177.0550614     
  -51693793.0463402     
  -51444634.2787559     
  -51213803.5321394     
  -51003170.1376980     
  -50814510.0083434     
  -50649601.4619918     
  -50510262.6707061     
  -50398322.8581117     
  -53484999.8613025     
  -53128817.2489555     
  -52759517.5747455     
  -52385591.0747417     
  -52014278.8539107     
  -51651559.4643944     
  -51302236.1707481     
  -50970113.1142036     
  -50658232.1161576     
  -50369135.0540200     
  -50105116.9237250     
  -49868438.4703616     
  -49661472.4755744     
  -49486764.3537798     
  -49346996.1840983     
  -53287035.6724333     
  -52851516.8390873     
  -52400448.9887910     
  -51944603.2327367     
  -51493010.3623563     
  -51052932.0535260     
  -50630002.5810340     
  -50228508.6076249     
  -49851753.6142834     
  -49502450.8239581     
  -49183095.6589820     
  -48896277.3299256     
  -48644896.0252175     
  -48432258.6483258     
  -48262036.5500335     
  -53114692.8685837     
  -52587821.7128321     
  -52044550.7726204     
  -51498148.0349727     
  -50959464.0994040     
  -50436885.3259969     
  -49936572.4302874     
  -49462905.7065688     
  -49019036.8752712     
  -48607461.2878716     
  -48230548.4819190     
  -47890986.2329351     
  -47592097.3949675     
  -47337990.6730307     
  -47133514.6319230     
  -52970156.7725525     
  -52336839.0557655     
  -51688419.2473963     
  -51041042.4989575     
  -50407416.2290070     
  -49796774.0057184     
  -49215313.1745166     
  -48666920.6849057     
  -48154001.5618254     
  -47678286.4608260     
  -47241559.1346036     
  -46846270.6263577     
  -46496000.5566570     
  -46195699.7414619     
  -45951653.6355867     
  -52854460.3871136     
  -52095775.6354343     
  -51326313.8631552     
  -50565731.6248809     
  -49828581.5790170     
  -49124416.2176716     
  -48458662.7207742     
  -47833840.3290495     
  -47250783.7162011     
  -46709725.7453121     
  -46211233.9351004     
  -45757034.3442673     
  -45350684.9471581     
  -44998001.2739437     
  -44707064.6223460     
  -52767090.3023557     
  -51858931.1523484     
  -50948896.1371432     
  -50061132.3611347     
  -49211776.0250962     
  -48409612.8756629     
  -47657941.3213075     
  -46956649.3569848     
  -46303936.7391256     
  -45697624.2085424     
  -45136239.3584490     
  -44620047.4492583     
  -44152096.9508604     
  -43738988.3815001     
  -43391112.4736254     
  -52705250.1980771     
  -51615824.9919485     
  -50541043.6367550     
  -49510877.7520016     
  -48541869.2226963     
  -47639697.8807210     
  -46803272.3901439     
  -46028145.7291996     
  -45308687.8768343     
  -44639323.0102817     
  -44015499.2979158     
  -43434946.8664096     
  -42899168.3424346     
  -42415243.8363911     
  -41996473.4037561     
  -52662241.9292242     
  -51347219.3996653     
  -50077879.4895178     
  -48890784.4056399     
  -47798772.6112002     
  -46799441.1968387     
  -45883766.8002546     
  -45041189.0979925     
  -44261209.1442891     
  -43534038.0958515     
  -42851050.1737821     
  -42205581.5438151     
  -41595819.3158282     
  -41027549.8437896     
  -40518139.5725369     
  -52622381.6200446     
  -51015886.8210358     
  -49517343.8483688     
  -48165979.9647035     
  -46957666.0894098     
  -45871727.1441758     
  -44888164.2302894     
  -43989111.4666557     
  -43158802.9965506     
  -42382978.7829627     
  -41648311.5473446     
  -40942298.7308688     
  -40253800.2566845     
  -39585195.8852990     
  -38954857.3248003     
  -52545123.8339736     
  -50539496.7080449     
  -48788700.2246617     
  -47293541.0564961     
  -45991376.0442747     
  -44839488.7532242     
  -43806005.1576748     
  -42866272.4330742     
  -41999928.7306000     
  -41188861.6481265     
  -40415485.7621299     
  -39660853.7404367     
  -38903017.0498661     
  -38110890.7889651     
  -37316791.2560521     
  -52243027.0821128     
  -49727899.8457293     
  -47813205.8411531     
  -46230686.1940032     
  -44875993.8255034     
  -43688688.6342583     
  -42629201.7036956     
  -41668674.4111091     
  -40784028.2415242     
  -39954890.5508057     
  -39161056.0386580     
  -38379463.1090477     
  -37578580.3090018     
  -36706714.5770155     
  -35613054.6618303     
SCALARS 2waySource double 
LOOKUP_TABLE default
  1.698925485447283E-005
  1.051943537696980E-005
  6.981278034140263E-006
  4.788275865106114E-006
  3.394058813493231E-006
  2.492260096730959E-006
  1.897302384945082E-006
  1.485526672994735E-006
  1.167108635726956E-006
  8.691883363061625E-007
  5.234358680630273E-007
  5.372372692182807E-008
 -6.429214685434171E-007
 -1.724992482501302E-006
 -3.658964561976550E-006
  1.752948237521440E-005
  1.372869355664346E-005
  1.102709869657982E-005
  9.291695579969054E-006
  8.156136341539202E-006
  7.409837301126636E-006
  6.911399019070991E-006
  6.562910137461911E-006
  6.291480520852814E-006
  6.037511625591742E-006
  5.745717841550669E-006
  5.356427776459952E-006
  4.796466035239841E-006
  3.950356175129557E-006
  2.698275056453964E-006
  1.707710365852273E-005
  1.547066033376193E-005
  1.402680328985290E-005
  1.296729352436779E-005
  1.224743212920033E-005
  1.176742315002396E-005
  1.144839379285763E-005
  1.122906906562132E-005
  1.106137537951310E-005
  1.090526815046025E-005
  1.072435795177633E-005
  1.048238281574218E-005
  1.013896556528347E-005
  9.656307363694209E-006
  9.021070273278869E-006
  1.637413528713675E-005
  1.640592134745019E-005
  1.614761910638305E-005
  1.585697098617080E-005
  1.563267384372165E-005
  1.548662279604538E-005
  1.540214892335263E-005
  1.535814855130709E-005
  1.533442097742161E-005
  1.531295297528850E-005
  1.527794057686069E-005
  1.521590867230715E-005
  1.511846466172233E-005
  1.499007722307918E-005
  1.487312989977163E-005
  1.557452248592886E-005
  1.686309179979163E-005
  1.759569142122333E-005
  1.802623379727239E-005
  1.830794020061570E-005
  1.851898078384888E-005
  1.869487384654549E-005
  1.885084188561889E-005
  1.899339670760469E-005
  1.912583373014436E-005
  1.925153558319788E-005
  1.937709380700274E-005
  1.951686577341080E-005
  1.970186755784903E-005
  1.999261771967967E-005
  1.474149072186584E-005
  1.698546954388941E-005
  1.850481796900805E-005
  1.954805825899331E-005
  2.028967779155662E-005
  2.084278300726434E-005
  2.127749351111818E-005
  2.163748038318572E-005
  2.195161043132699E-005
  2.224147395879059E-005
  2.252663404651080E-005
  2.282923587739266E-005
  2.317937402946673E-005
  2.362195006191695E-005
  2.422460998936058E-005
  1.391518013255469E-005
  1.684938750086627E-005
  1.895815927673224E-005
  2.048379823676206E-005
  2.160763043317627E-005
  2.245931016223911E-005
  2.312896756126230E-005
  2.367929162024797E-005
  2.415556913698309E-005
  2.459334979865211E-005
  2.502440463901897E-005
  2.548191329353603E-005
  2.600564481706868E-005
  2.664746961241479E-005
  2.747667979654539E-005
  1.312615845549271E-005
  1.650604982249124E-005
  1.901576622081603E-005
  2.088756037995878E-005
  2.230075520248190E-005
  2.339002868315469E-005
  2.425468964984742E-005
  2.496795820643709E-005
  2.558529338257882E-005
  2.615138641638136E-005
  2.670599181278529E-005
  2.728902180405252E-005
  2.794529712541889E-005
  2.872907767206431E-005
  2.970813018490134E-005
  1.239820241901389E-005
  1.599687823813432E-005
  1.872969874079025E-005
  2.081321472668982E-005
  2.241767504343344E-005
  2.367460180732107E-005
  2.468440684136293E-005
  2.552382532254478E-005
  2.625277704069950E-005
  2.692042481073930E-005
  2.757044260551964E-005
  2.824566123868871E-005
  2.899226493274459E-005
  2.986359718331484E-005
  3.092347441090959E-005
  1.174915024671636E-005
  1.535943705113980E-005
  1.815106894099878E-005
  2.031873416410503E-005
  2.201748753149716E-005
  2.336936689689317E-005
  2.446969423461294E-005
  2.539308848049899E-005
  2.619906374697842E-005
  2.693709989066470E-005
  2.765116215435637E-005
  2.838372177016335E-005
  2.917934430211590E-005
  3.008786989329563E-005
  3.116715272429473E-005
  1.119114956881470E-005
  1.462950352997690E-005
  1.733263822956925E-005
  1.946772083378864E-005
  2.116944063089879E-005
  2.254535591008874E-005
  2.368090750256979E-005
  2.464416654773782E-005
  2.549028249898991E-005
  2.626557521198950E-005
  2.701124082136912E-005
  2.776667364702543E-005
  2.857241855844139E-005
  2.947275769376529E-005
  3.051791992079356E-005
  1.073086965788970E-005
  1.384140469186869E-005
  1.632903984111909E-005
  1.832892114014825E-005
  1.995133381052115E-005
  2.128555563252681E-005
  2.240353595653030E-005
  2.336342625107623E-005
  2.421293657799900E-005
  2.499247368161792E-005
  2.573802268998341E-005
  2.648374894290872E-005
  2.726430596399801E-005
  2.811683706212923E-005
  2.908265819626208E-005
  1.036985870567182E-005
  1.302759825747413E-005
  1.519576468115924E-005
  1.697450948668683E-005
  1.844696523488325E-005
  1.968150360962655E-005
  2.073405481126137E-005
  2.165044767051762E-005
  2.246871704397482E-005
  2.322132085314916E-005
  2.393721457865337E-005
  2.464374088073299E-005
  2.536830080265402E-005
  2.613977889918842E-005
  2.698969976660835E-005
  1.010508554018956E-005
  1.221798528308976E-005
  1.398758446645697E-005
  1.547773807266967E-005
  1.674303728771013E-005
  1.782948675275377E-005
  1.877549388120569E-005
  1.961306402102990E-005
  2.036910937332216E-005
  2.106679014233355E-005
  2.172681731513274E-005
  2.236865753215334E-005
  2.301159023529467E-005
  2.367557501998445E-005
  2.438189353984108E-005
  9.929644896706284E-006
  1.143921412959136E-005
  1.275682683538682E-005
  1.391038766286320E-005
  1.492589443545899E-005
  1.582664455463753E-005
  1.663298219296944E-005
  1.736242652289755E-005
  1.803005234415564E-005
  1.864901643276567E-005
  1.923114010129190E-005
  1.978747251991728E-005
  2.032877070453857E-005
  2.086584092842871E-005
  2.140969300519041E-005
  9.833579756789919E-006
  1.071411377280306E-005
  1.155176014020707E-005
  1.234032397117927E-005
  1.307839192180076E-005
  1.376724788656103E-005
  1.440951550537856E-005
  1.500833020101298E-005
  1.556688372968914E-005
  1.608821350324048E-005
  1.657513093328424E-005
  1.703019987530978E-005
  1.745568911185087E-005
  1.785343245277752E-005
  1.822453687735627E-005
  9.804765622155338E-006
  1.006132196233042E-005
  1.041524129713395E-005
  1.082936133274727E-005
  1.127711208897511E-005
  1.173936633133602E-005
  1.220215058587298E-005
  1.265499794981526E-005
  1.308976772206613E-005
  1.349978992759078E-005
  1.387921759384728E-005
  1.422248806884364E-005
  1.452380830411144E-005
  1.477658904742074E-005
  1.497275996934592E-005
  9.829801935076010E-006
  9.495127547794153E-006
  9.383706710824819E-006
  9.431554091750880E-006
  9.590069454832857E-006
  9.822071934680060E-006
  1.009877404844389E-005
  1.039746909117966E-005
  1.069974969997222E-005
  1.099010974818497E-005
  1.125480729486423E-005
  1.148088466934430E-005
  1.165525491414290E-005
  1.176377353233496E-005
  1.179022183621218E-005
  9.894861022430014E-006
  9.025516879452636E-006
  8.486534548372837E-006
  8.191973771118163E-006
  8.074981496241731E-006
  8.083265913559354E-006
  8.175536070263214E-006
  8.318684108294353E-006
  8.485531186799564E-006
  8.652992710245208E-006
  8.800542812885075E-006
  8.908873996453972E-006
  8.958658520690659E-006
  8.929326519720711E-006
  8.797783438088397E-006
  9.986452652753154E-006
  8.658397424735154E-006
  7.745772704412141E-006
  7.145985642477707E-006
  6.778132306056819E-006
  6.578163081529116E-006
  6.494987260655136E-006
  6.487305611329250E-006
  6.521006847528896E-006
  6.566998547599678E-006
  6.599363306814394E-006
  6.593740676694611E-006
  6.525840738478739E-006
  6.370000693567386E-006
  6.097703956473069E-006
  1.009207137265572E-005
  8.395966141762249E-006
  7.176209670289125E-006
  6.319011973896283E-006
  5.733822516365740E-006
  5.348429313146753E-006
  5.104913755907247E-006
  4.956270422424308E-006
  4.863559576480691E-006
  4.793494115210265E-006
  4.716372512443874E-006
  4.604266267506259E-006
  4.429365855027979E-006
  4.162390466319442E-006
  3.770975939297584E-006
  1.020070394537895E-005
  8.237196375984931E-006
  6.785766653189372E-006
  5.726762368450667E-006
  4.964381826646298E-006
  4.421940434702506E-006
  4.037831506559376E-006
  3.762029809788270E-006
  3.553070717103801E-006
  3.375463179102321E-006
  3.197478195810556E-006
  2.989226883219626E-006
  2.720924146990054E-006
  2.361229660474413E-006
  1.875570659808144E-006
  1.030318617086796E-005
  8.178439509325995E-006
  6.576214302708404E-006
  5.375927669417844E-006
  4.480719486058289E-006
  3.813113126688994E-006
  3.311072298556510E-006
  2.924402716591139E-006
  2.611570424891145E-006
  2.336987775626078E-006
  2.068736110260875E-006
  1.776628772868443E-006
  1.430486514800798E-006
  9.984955509344421E-007
  4.455288263754652E-007
  1.039241571852815E-005
  8.214189135669872E-006
  6.544282199850231E-006
  5.265379530763089E-006
  4.283398342509252E-006
  3.523739261050945E-006
  2.927362681506996E-006
  2.446936936269004E-006
  2.043428903612940E-006
  1.683308613391751E-006
  1.336310988627005E-006
  9.735956375800058E-007
  5.661451650982122E-007
  8.323081914882037E-008
 -5.091950319266496E-007
  1.046345620027558E-005
  8.338178837077350E-006
  6.683371897949608E-006
  5.388003159810802E-006
  4.364218920050922E-006
  3.544206998628400E-006
  2.875748288558190E-006
  2.317643982751550E-006
  1.835976770717880E-006
  1.401366598248682E-006
  9.869544986389870E-007
  5.668086744155223E-007
  1.145322329859633E-007
 -3.980237845402275E-007
 -1.002248721344828E-006
  1.051366142148322E-005
  8.545288736274362E-006
  6.986417205768604E-006
  5.733401706035082E-006
  4.708211970452922E-006
  3.854861377622391E-006
  3.132631335627166E-006
  2.509958044836953E-006
  1.960460171312164E-006
  1.460739343246507E-006
  9.889160245824263E-007
  5.233692608796443E-007
  4.170445422013642E-008
 -4.803394901564167E-007
 -1.069887857185960E-006
  1.054312165934368E-005
  8.835791263920037E-006
  7.451117749179977E-006
  6.291676458828942E-006
  5.295541006183250E-006
  4.426924739664098E-006
  3.662643772644262E-006
  2.983790177796181E-006
  2.373289576008509E-006
  1.814986427556638E-006
  1.293177084002736E-006
  7.920234681580775E-007
  2.942102806435350E-007
 -2.191476781548176E-007
 -7.697357038653852E-007
  1.055787476062558E-005
  9.226344476103170E-006
  8.090238817684614E-006
  7.057279693327589E-006
  6.101231600065167E-006
  5.222382530590364E-006
  4.419126592164272E-006
  3.686643465637518E-006
  3.017633689404565E-006
  2.403515638297292E-006
  1.835327051319710E-006
  1.304127593541933E-006
  8.006068807898531E-007
  3.103519202623697E-007
 -1.793244156990519E-007
  1.058281851568895E-005
  9.788676490777692E-006
  8.946611672171615E-006
  8.022637040317445E-006
  7.091709425922804E-006
  6.192491355913268E-006
  5.344330246737790E-006
  4.554890165738668E-006
  3.825456250200859E-006
  3.154206304029739E-006
  2.538465223433433E-006
  1.976438470318224E-006
  1.468416070759838E-006
  1.016981749677376E-006
  6.011939770228542E-007
  1.083450954318268E-005
  1.073712122904494E-005
  1.004909199745919E-005
  9.164065475454301E-006
  8.218162084831422E-006
  7.276005197807709E-006
  6.369812887160405E-006
  5.515421725025807E-006
  4.720046911541499E-006
  3.986790041033821E-006
  3.317725759589015E-006
  2.716585438914617E-006
  2.191901797307495E-006
  1.762475849972492E-006
  1.461750722459858E-006
SCALARS poroP double 
LOOKUP_TABLE default
  5.211636167642823E-005
  3.483880345299723E-005
  2.036208087177232E-005
  8.825101505860613E-006
  1.167465726257099E-006
  0.000000000000000E+000
  0.000000000000000E+000
  0.000000000000000E+000
  0.000000000000000E+000
  0.000000000000000E+000
  0.000000000000000E+000
  0.000000000000000E+000
  0.000000000000000E+000
  0.000000000000000E+000
  0.000000000000000E+000
  2.198093810015423E-005
  1.204647125459818E-005
  4.095729749210651E-006
  7.784296127978306E-008
  0.000000000000000E+000
  0.000000000000000E+000
  0.000000000000000E+000
  0.000000000000000E+000
  0.000000000000000E+000
  0.000000000000000E+000
  0.000000000000000E+000
  0.000000000000000E+000
  0.000000000000000E+000
  0.000000000000000E+000
  0.000000000000000E+000
  3.722181601925244E-006
  0.000000000000000E+000
  0.000000000000000E+000
  0.000000000000000E+000
  0.000000000000000E+000
  0.000000000000000E+000
  0.000000000000000E+000
  0.000000000000000E+000
  0.000000000000000E+000
  0.000000000000000E+000
  0.000000000000000E+000
  0.000000000000000E+000
  0.000000000000000E+000
  0.000000000000000E+000
  0.000000000000000E+000
  0.000000000000000E+000
  0.000000000000000E+000
  0.000000000000000E+000
  0.000000000000000E+000
  0.000000000000000E+000
  0.000000000000000E+000
  0.000000000000000E+000
  0.000000000000000E+000
  0.000000000000000E+000
  0.000000000000000E+000
  0.000000000000000E+000
  0.000000000000000E+000
  0.000000000000000E+000
  0.000000000000000E+000
  0.000000000000000E+000
  0.000000000000000E+000
  0.000000000000000E+000
  0.000000000000000E+000
  0.000000000000000E+000
  0.000000000000000E+000
  0.000000000000000E+000
  0.000000000000000E+000
  0.000000000000000E+000
  0.000000000000000E+000
  0.000000000000000E+000
  0.000000000000000E+000
  0.000000000000000E+000
  0.000000000000000E+000
  0.000000000000000E+000
  0.000000000000000E+000
  0.000000000000000E+000
  0.000000000000000E+000
  0.000000000000000E+000
  0.000000000000000E+000
  0.000000000000000E+000
  0.000000000000000E+000
  0.000000000000000E+000
  0.000000000000000E+000
  0.000000000000000E+000
  0.000000000000000E+000
  0.000000000000000E+000
  0.000000000000000E+000
  0.000000000000000E+000
  0.000000000000000E+000
  0.000000000000000E+000
  0.000000000000000E+000
  0.000000000000000E+000
  0.000000000000000E+000
  0.000000000000000E+000
  0.000000000000000E+000
  0.000000000000000E+000
  0.000000000000000E+000
  0.000000000000000E+000
  0.000000000000000E+000
  0.000000000000000E+000
  0.000000000000000E+000
  0.000000000000000E+000
  0.000000000000000E+000
  0.000000000000000E+000
  0.000000000000000E+000
  0.000000000000000E+000
  0.000000000000000E+000
  0.000000000000000E+000
  0.000000000000000E+000
  0.000000000000000E+000
  0.000000000000000E+000
  0.000000000000000E+000
  0.000000000000000E+000
  0.000000000000000E+000
  0.000000000000000E+000
  0.000000000000000E+000
  0.000000000000000E+000
  0.000000000000000E+000
  0.000000000000000E+000
  0.000000000000000E+000
  0.000000000000000E+000
  0.000000000000000E+000
  0.000000000000000E+000
  0.000000000000000E+000
  0.000000000000000E+000
  0.000000000000000E+000
  0.000000000000000E+000
  0.000000000000000E+000
  0.000000000000000E+000
  0.000000000000000E+000
  0.000000000000000E+000
  0.000000000000000E+000
  0.000000000000000E+000
  0.000000000000000E+000
  0.000000000000000E+000
  0.000000000000000E+000
  0.000000000000000E+000
  0.000000000000000E+000
  0.000000000000000E+000
  0.000000000000000E+000
  0.000000000000000E+000
  0.000000000000000E+000
  0.000000000000000E+000
  0.000000000000000E+000
  0.000000000000000E+000
  0.000000000000000E+000
  0.000000000000000E+000
  0.000000000000000E+000
  0.000000000000000E+000
  0.000000000000000E+000
  0.000000000000000E+000
  0.000000000000000E+000
  0.000000000000000E+000
  0.000000000000000E+000
  0.000000000000000E+000
  0.000000000000000E+000
  0.000000000000000E+000
  0.000000000000000E+000
  0.000000000000000E+000
  0.000000000000000E+000
  0.000000000000000E+000
  0.000000000000000E+000
  0.000000000000000E+000
  0.000000000000000E+000
  0.000000000000000E+000
  0.000000000000000E+000
  0.000000000000000E+000
  0.000000000000000E+000
  0.000000000000000E+000
  0.000000000000000E+000
  0.000000000000000E+000
  0.000000000000000E+000
  0.000000000000000E+000
  0.000000000000000E+000
  0.000000000000000E+000
  0.000000000000000E+000
  0.000000000000000E+000
  0.000000000000000E+000
  0.000000000000000E+000
  0.000000000000000E+000
  0.000000000000000E+000
  0.000000000000000E+000
  0.000000000000000E+000
  0.000000000000000E+000
  0.000000000000000E+000
  0.000000000000000E+000
  0.000000000000000E+000
  0.000000000000000E+000
  0.000000000000000E+000
  0.000000000000000E+000
  0.000000000000000E+000
  0.000000000000000E+000
  0.000000000000000E+000
  0.000000000000000E+000
  0.000000000000000E+000
  0.000000000000000E+000
  0.000000000000000E+000
  0.000000000000000E+000
  0.000000000000000E+000
  0.000000000000000E+000
  0.000000000000000E+000
  0.000000000000000E+000
  0.000000000000000E+000
  0.000000000000000E+000
  0.000000000000000E+000
  0.000000000000000E+000
  0.000000000000000E+000
  0.000000000000000E+000
  0.000000000000000E+000
  0.000000000000000E+000
  0.000000000000000E+000
  0.000000000000000E+000
  0.000000000000000E+000
  0.000000000000000E+000
  0.000000000000000E+000
  0.000000000000000E+000
  0.000000000000000E+000
  0.000000000000000E+000
  0.000000000000000E+000
  0.000000000000000E+000
  0.000000000000000E+000
  0.000000000000000E+000
  0.000000000000000E+000
  0.000000000000000E+000
  0.000000000000000E+000
  0.000000000000000E+000
  0.000000000000000E+000
  0.000000000000000E+000
  0.000000000000000E+000
  0.000000000000000E+000
  0.000000000000000E+000
  0.000000000000000E+000
  0.000000000000000E+000
  0.000000000000000E+000
  0.000000000000000E+000
  0.000000000000000E+000
  0.000000000000000E+000
  0.000000000000000E+000
  0.000000000000000E+000
  0.000000000000000E+000
  0.000000000000000E+000
  0.000000000000000E+000
  0.000000000000000E+000
  0.000000000000000E+000
  0.000000000000000E+000
  0.000000000000000E+000
  0.000000000000000E+000
  0.000000000000000E+000
  0.000000000000000E+000
  0.000000000000000E+000
  0.000000000000000E+000
  0.000000000000000E+000
  0.000000000000000E+000
  0.000000000000000E+000
  0.000000000000000E+000
  0.000000000000000E+000
  0.000000000000000E+000
  0.000000000000000E+000
  0.000000000000000E+000
  0.000000000000000E+000
  0.000000000000000E+000
  0.000000000000000E+000
  0.000000000000000E+000
  0.000000000000000E+000
  0.000000000000000E+000
  0.000000000000000E+000
  0.000000000000000E+000
  0.000000000000000E+000
  0.000000000000000E+000
  0.000000000000000E+000
  0.000000000000000E+000
  0.000000000000000E+000
  0.000000000000000E+000
  0.000000000000000E+000
  0.000000000000000E+000
  0.000000000000000E+000
  0.000000000000000E+000
  0.000000000000000E+000
  0.000000000000000E+000
  0.000000000000000E+000
  0.000000000000000E+000
  0.000000000000000E+000
  0.000000000000000E+000
  0.000000000000000E+000
  0.000000000000000E+000
  0.000000000000000E+000
  0.000000000000000E+000
  0.000000000000000E+000
  0.000000000000000E+000
  0.000000000000000E+000
  0.000000000000000E+000
  0.000000000000000E+000
  0.000000000000000E+000
  0.000000000000000E+000
  0.000000000000000E+000
  0.000000000000000E+000
  0.000000000000000E+000
  0.000000000000000E+000
  0.000000000000000E+000
  0.000000000000000E+000
  0.000000000000000E+000
  0.000000000000000E+000
  0.000000000000000E+000
  0.000000000000000E+000
  0.000000000000000E+000
  0.000000000000000E+000
  0.000000000000000E+000
  0.000000000000000E+000
  0.000000000000000E+000
  0.000000000000000E+000
  0.000000000000000E+000
  0.000000000000000E+000
  0.000000000000000E+000
  0.000000000000000E+000
  0.000000000000000E+000
  0.000000000000000E+000
  0.000000000000000E+000
  0.000000000000000E+000
  0.000000000000000E+000
  0.000000000000000E+000
  0.000000000000000E+000
  0.000000000000000E+000
  0.000000000000000E+000
  0.000000000000000E+000
  0.000000000000000E+000
  0.000000000000000E+000
  0.000000000000000E+000
  0.000000000000000E+000
  0.000000000000000E+000
  0.000000000000000E+000
  0.000000000000000E+000
  0.000000000000000E+000
  0.000000000000000E+000
  0.000000000000000E+000
  0.000000000000000E+000
  0.000000000000000E+000
  0.000000000000000E+000
  0.000000000000000E+000
  0.000000000000000E+000
  0.000000000000000E+000
  0.000000000000000E+000
  0.000000000000000E+000
  0.000000000000000E+000
  0.000000000000000E+000
  0.000000000000000E+000
  0.000000000000000E+000
  0.000000000000000E+000
  0.000000000000000E+000
  0.000000000000000E+000
  0.000000000000000E+000
  0.000000000000000E+000
  0.000000000000000E+000
  0.000000000000000E+000
  0.000000000000000E+000
  0.000000000000000E+000
  0.000000000000000E+000
  0.000000000000000E+000
  0.000000000000000E+000
  0.000000000000000E+000
  0.000000000000000E+000
  0.000000000000000E+000
  0.000000000000000E+000
  0.000000000000000E+000
  0.000000000000000E+000
  0.000000000000000E+000
  0.000000000000000E+000
  0.000000000000000E+000
  0.000000000000000E+000
  0.000000000000000E+000
  0.000000000000000E+000
  0.000000000000000E+000
  0.000000000000000E+000
  0.000000000000000E+000
  0.000000000000000E+000
  0.000000000000000E+000
  0.000000000000000E+000
  0.000000000000000E+000
  0.000000000000000E+000
  0.000000000000000E+000
  0.000000000000000E+000
  0.000000000000000E+000
  0.000000000000000E+000
  0.000000000000000E+000
  0.000000000000000E+000
  0.000000000000000E+000
  0.000000000000000E+000
  0.000000000000000E+000
  0.000000000000000E+000
  0.000000000000000E+000
  0.000000000000000E+000
  0.000000000000000E+000
  0.000000000000000E+000
  0.000000000000000E+000
  0.000000000000000E+000
  0.000000000000000E+000
  0.000000000000000E+000
  0.000000000000000E+000
  0.000000000000000E+000
  0.000000000000000E+000
  0.000000000000000E+000
  0.000000000000000E+000
  0.000000000000000E+000
  0.000000000000000E+000
  0.000000000000000E+000
  0.000000000000000E+000
  0.000000000000000E+000
  0.000000000000000E+000
  0.000000000000000E+000
  0.000000000000000E+000
  0.000000000000000E+000
  0.000000000000000E+000
  0.000000000000000E+000
  0.000000000000000E+000
  0.000000000000000E+000
  0.000000000000000E+000
  0.000000000000000E+000
  0.000000000000000E+000
  0.000000000000000E+000
  0.000000000000000E+000
  0.000000000000000E+000
  0.000000000000000E+000
  0.000000000000000E+000
  0.000000000000000E+000
  0.000000000000000E+000
  0.000000000000000E+000
  0.000000000000000E+000
  0.000000000000000E+000
  0.000000000000000E+000
  0.000000000000000E+000
  0.000000000000000E+000
  0.000000000000000E+000
  0.000000000000000E+000
  0.000000000000000E+000
  0.000000000000000E+000
  0.000000000000000E+000
  0.000000000000000E+000
  0.000000000000000E+000
  0.000000000000000E+000
  0.000000000000000E+000
  0.000000000000000E+000
  0.000000000000000E+000
  0.000000000000000E+000
  0.000000000000000E+000
  0.000000000000000E+000
  0.000000000000000E+000
  0.000000000000000E+000
  0.000000000000000E+000
  0.000000000000000E+000
  0.000000000000000E+000
  0.000000000000000E+000
SCALARS elementIsPlast double 
LOOKUP_TABLE default
  0.000000000000000E+000
  0.000000000000000E+000
  0.000000000000000E+000
  0.000000000000000E+000
  0.000000000000000E+000
  0.000000000000000E+000
  0.000000000000000E+000
  0.000000000000000E+000
  0.000000000000000E+000
  0.000000000000000E+000
  0.000000000000000E+000
  0.000000000000000E+000
  0.000000000000000E+000
  0.000000000000000E+000
  0.000000000000000E+000
  0.000000000000000E+000
  0.000000000000000E+000
  0.000000000000000E+000
  0.000000000000000E+000
  0.000000000000000E+000
  0.000000000000000E+000
  0.000000000000000E+000
  0.000000000000000E+000
  0.000000000000000E+000
  0.000000000000000E+000
  0.000000000000000E+000
  0.000000000000000E+000
  0.000000000000000E+000
  0.000000000000000E+000
  0.000000000000000E+000
  0.000000000000000E+000
  0.000000000000000E+000
  0.000000000000000E+000
  0.000000000000000E+000
  0.000000000000000E+000
  0.000000000000000E+000
  0.000000000000000E+000
  0.000000000000000E+000
  0.000000000000000E+000
  0.000000000000000E+000
  0.000000000000000E+000
  0.000000000000000E+000
  0.000000000000000E+000
  0.000000000000000E+000
  0.000000000000000E+000
  0.000000000000000E+000
  0.000000000000000E+000
  0.000000000000000E+000
  0.000000000000000E+000
  0.000000000000000E+000
  0.000000000000000E+000
  0.000000000000000E+000
  0.000000000000000E+000
  0.000000000000000E+000
  0.000000000000000E+000
  0.000000000000000E+000
  0.000000000000000E+000
  0.000000000000000E+000
  0.000000000000000E+000
  0.000000000000000E+000
  0.000000000000000E+000
  0.000000000000000E+000
  0.000000000000000E+000
  0.000000000000000E+000
  0.000000000000000E+000
  0.000000000000000E+000
  0.000000000000000E+000
  0.000000000000000E+000
  0.000000000000000E+000
  0.000000000000000E+000
  0.000000000000000E+000
  0.000000000000000E+000
  0.000000000000000E+000
  0.000000000000000E+000
  0.000000000000000E+000
  0.000000000000000E+000
  0.000000000000000E+000
  0.000000000000000E+000
  0.000000000000000E+000
  0.000000000000000E+000
  0.000000000000000E+000
  0.000000000000000E+000
  0.000000000000000E+000
  0.000000000000000E+000
  0.000000000000000E+000
  0.000000000000000E+000
  0.000000000000000E+000
  0.000000000000000E+000
  0.000000000000000E+000
  0.000000000000000E+000
  0.000000000000000E+000
  0.000000000000000E+000
  0.000000000000000E+000
  0.000000000000000E+000
  0.000000000000000E+000
  0.000000000000000E+000
  0.000000000000000E+000
  0.000000000000000E+000
  0.000000000000000E+000
  0.000000000000000E+000
  0.000000000000000E+000
  0.000000000000000E+000
  0.000000000000000E+000
  0.000000000000000E+000
  0.000000000000000E+000
  0.000000000000000E+000
  0.000000000000000E+000
  0.000000000000000E+000
  0.000000000000000E+000
  0.000000000000000E+000
  0.000000000000000E+000
  0.000000000000000E+000
  0.000000000000000E+000
  0.000000000000000E+000
  0.000000000000000E+000
  0.000000000000000E+000
  0.000000000000000E+000
  0.000000000000000E+000
  0.000000000000000E+000
  0.000000000000000E+000
  0.000000000000000E+000
  0.000000000000000E+000
  0.000000000000000E+000
  0.000000000000000E+000
  0.000000000000000E+000
  0.000000000000000E+000
  0.000000000000000E+000
  0.000000000000000E+000
  0.000000000000000E+000
  0.000000000000000E+000
  0.000000000000000E+000
  0.000000000000000E+000
  0.000000000000000E+000
  0.000000000000000E+000
  0.000000000000000E+000
  0.000000000000000E+000
  0.000000000000000E+000
  0.000000000000000E+000
  0.000000000000000E+000
  0.000000000000000E+000
  0.000000000000000E+000
  0.000000000000000E+000
  0.000000000000000E+000
  0.000000000000000E+000
  0.000000000000000E+000
  0.000000000000000E+000
  0.000000000000000E+000
  0.000000000000000E+000
  0.000000000000000E+000
  0.000000000000000E+000
  0.000000000000000E+000
  0.000000000000000E+000
  0.000000000000000E+000
  0.000000000000000E+000
  0.000000000000000E+000
  0.000000000000000E+000
  0.000000000000000E+000
  0.000000000000000E+000
  0.000000000000000E+000
  0.000000000000000E+000
  0.000000000000000E+000
  0.000000000000000E+000
  0.000000000000000E+000
  0.000000000000000E+000
  0.000000000000000E+000
  0.000000000000000E+000
  0.000000000000000E+000
  0.000000000000000E+000
  0.000000000000000E+000
  0.000000000000000E+000
  0.000000000000000E+000
  0.000000000000000E+000
  0.000000000000000E+000
  0.000000000000000E+000
  0.000000000000000E+000
  0.000000000000000E+000
  0.000000000000000E+000
  0.000000000000000E+000
  0.000000000000000E+000
  0.000000000000000E+000
  0.000000000000000E+000
  0.000000000000000E+000
  0.000000000000000E+000
  0.000000000000000E+000
  0.000000000000000E+000
  0.000000000000000E+000
  0.000000000000000E+000
  0.000000000000000E+000
  0.000000000000000E+000
  0.000000000000000E+000
  0.000000000000000E+000
  0.000000000000000E+000
  0.000000000000000E+000
  0.000000000000000E+000
  0.000000000000000E+000
  0.000000000000000E+000
  0.000000000000000E+000
  0.000000000000000E+000
  0.000000000000000E+000
  0.000000000000000E+000
  0.000000000000000E+000
  0.000000000000000E+000
  0.000000000000000E+000
  0.000000000000000E+000
  0.000000000000000E+000
  0.000000000000000E+000
  0.000000000000000E+000
  0.000000000000000E+000
  0.000000000000000E+000
  0.000000000000000E+000
  0.000000000000000E+000
  0.000000000000000E+000
  0.000000000000000E+000
  0.000000000000000E+000
  0.000000000000000E+000
  0.000000000000000E+000
  0.000000000000000E+000
  0.000000000000000E+000
  0.000000000000000E+000
  0.000000000000000E+000
  0.000000000000000E+000
  0.000000000000000E+000
  0.000000000000000E+000
  0.000000000000000E+000
  0.000000000000000E+000
  0.000000000000000E+000
  0.000000000000000E+000
  0.000000000000000E+000
  0.000000000000000E+000
  0.000000000000000E+000
  0.000000000000000E+000
  0.000000000000000E+000
  0.000000000000000E+000
  0.000000000000000E+000
  0.000000000000000E+000
  0.000000000000000E+000
  0.000000000000000E+000
  0.000000000000000E+000
  0.000000000000000E+000
  0.000000000000000E+000
  0.000000000000000E+000
  0.000000000000000E+000
  0.000000000000000E+000
  0.000000000000000E+000
  0.000000000000000E+000
  0.000000000000000E+000
  0.000000000000000E+000
  0.000000000000000E+000
  0.000000000000000E+000
  0.000000000000000E+000
  0.000000000000000E+000
  0.000000000000000E+000
  0.000000000000000E+000
  0.000000000000000E+000
  0.000000000000000E+000
  0.000000000000000E+000
  0.000000000000000E+000
  0.000000000000000E+000
  0.000000000000000E+000
  0.000000000000000E+000
  0.000000000000000E+000
  0.000000000000000E+000
  0.000000000000000E+000
  0.000000000000000E+000
  0.000000000000000E+000
  0.000000000000000E+000
  0.000000000000000E+000
  0.000000000000000E+000
  0.000000000000000E+000
  0.000000000000000E+000
  0.000000000000000E+000
  0.000000000000000E+000
  0.000000000000000E+000
  0.000000000000000E+000
  0.000000000000000E+000
  0.000000000000000E+000
  0.000000000000000E+000
  0.000000000000000E+000
  0.000000000000000E+000
  0.000000000000000E+000
  0.000000000000000E+000
  0.000000000000000E+000
  0.000000000000000E+000
  0.000000000000000E+000
  0.000000000000000E+000
  0.000000000000000E+000
  0.000000000000000E+000
  0.000000000000000E+000
  0.000000000000000E+000
  0.000000000000000E+000
  0.000000000000000E+000
  0.000000000000000E+000
  0.000000000000000E+000
  0.000000000000000E+000
  0.000000000000000E+000
  0.000000000000000E+000
  0.000000000000000E+000
  0.000000000000000E+000
  0.000000000000000E+000
  0.000000000000000E+000
  0.000000000000000E+000
  0.000000000000000E+000
  0.000000000000000E+000
  0.000000000000000E+000
  0.000000000000000E+000
  0.000000000000000E+000
  0.000000000000000E+000
  0.000000000000000E+000
  0.000000000000000E+000
  0.000000000000000E+000
  0.000000000000000E+000
  0.000000000000000E+000
  0.000000000000000E+000
  0.000000000000000E+000
  0.000000000000000E+000
  0.000000000000000E+000
  0.000000000000000E+000
  0.000000000000000E+000
  0.000000000000000E+000
  0.000000000000000E+000
  0.000000000000000E+000
  0.000000000000000E+000
  0.000000000000000E+000
  0.000000000000000E+000
  0.000000000000000E+000
  0.000000000000000E+000
  0.000000000000000E+000
  0.000000000000000E+000
  0.000000000000000E+000
  0.000000000000000E+000
  0.000000000000000E+000
  0.000000000000000E+000
  0.000000000000000E+000
  0.000000000000000E+000
  0.000000000000000E+000
  0.000000000000000E+000
  0.000000000000000E+000
  0.000000000000000E+000
  0.000000000000000E+000
  0.000000000000000E+000
  0.000000000000000E+000
  0.000000000000000E+000
  0.000000000000000E+000
  0.000000000000000E+000
  0.000000000000000E+000
  0.000000000000000E+000
  0.000000000000000E+000
  0.000000000000000E+000
  0.000000000000000E+000
  0.000000000000000E+000
  0.000000000000000E+000
  0.000000000000000E+000
  0.000000000000000E+000
  0.000000000000000E+000
  0.000000000000000E+000
  0.000000000000000E+000
  0.000000000000000E+000
  0.000000000000000E+000
  0.000000000000000E+000
  0.000000000000000E+000
  0.000000000000000E+000
  0.000000000000000E+000
  0.000000000000000E+000
  0.000000000000000E+000
  0.000000000000000E+000
  0.000000000000000E+000
  0.000000000000000E+000
  0.000000000000000E+000
  0.000000000000000E+000
  0.000000000000000E+000
  0.000000000000000E+000
  0.000000000000000E+000
  0.000000000000000E+000
  0.000000000000000E+000
  0.000000000000000E+000
  0.000000000000000E+000
  0.000000000000000E+000
  0.000000000000000E+000
  0.000000000000000E+000
  0.000000000000000E+000
  0.000000000000000E+000
  0.000000000000000E+000
  0.000000000000000E+000
  0.000000000000000E+000
  0.000000000000000E+000
  0.000000000000000E+000
  0.000000000000000E+000
  0.000000000000000E+000
  0.000000000000000E+000
  0.000000000000000E+000
  0.000000000000000E+000
  0.000000000000000E+000
  0.000000000000000E+000
  0.000000000000000E+000
  0.000000000000000E+000
  0.000000000000000E+000
  0.000000000000000E+000
  0.000000000000000E+000
  0.000000000000000E+000
  0.000000000000000E+000
  0.000000000000000E+000
  0.000000000000000E+000
  0.000000000000000E+000
  0.000000000000000E+000
  0.000000000000000E+000
  0.000000000000000E+000
  0.000000000000000E+000
  0.000000000000000E+000
  0.000000000000000E+000
  0.000000000000000E+000
  0.000000000000000E+000
  0.000000000000000E+000
  0.000000000000000E+000
  0.000000000000000E+000
  0.000000000000000E+000
  0.000000000000000E+000
  0.000000000000000E+000
  0.000000000000000E+000
  0.000000000000000E+000
  0.000000000000000E+000
  0.000000000000000E+000
  0.000000000000000E+000
  0.000000000000000E+000
  0.000000000000000E+000
  0.000000000000000E+000
  0.000000000000000E+000
  0.000000000000000E+000
  0.000000000000000E+000
  0.000000000000000E+000
  0.000000000000000E+000
  0.000000000000000E+000
  0.000000000000000E+000
  0.000000000000000E+000
  0.000000000000000E+000
  0.000000000000000E+000
  0.000000000000000E+000
  0.000000000000000E+000
  0.000000000000000E+000
  0.000000000000000E+000
  0.000000000000000E+000
  0.000000000000000E+000
  0.000000000000000E+000
  0.000000000000000E+000
  0.000000000000000E+000
  0.000000000000000E+000
  0.000000000000000E+000
  0.000000000000000E+000
  0.000000000000000E+000
  0.000000000000000E+000
  0.000000000000000E+000
SCALARS poroL double 
LOOKUP_TABLE default
  0.156310353404226     
  0.156285097390680     
  0.156255045945166     
  0.156225053751437     
  0.156199656763548     
  0.156182870401439     
  0.156171174280258     
  0.156161589560023     
  0.156153271172677     
  0.156145770877399     
  0.156138777029918     
  0.156132011313553     
  0.156125149629103     
  0.156117703639838     
  0.156108300517216     
  0.156240083773837     
  0.156221443073506     
  0.156202998558711     
  0.156188996355094     
  0.156178808899625     
  0.156168175471551     
  0.156157902744684     
  0.156148972133602     
  0.156141041531070     
  0.156133827612084     
  0.156127092064719     
  0.156120615312569     
  0.156114169728216     
  0.156107457933896     
  0.156100766298161     
  0.156193030676094     
  0.156180910876132     
  0.156175094109050     
  0.156168600891141     
  0.156160407584829     
  0.156151794707141     
  0.156143351489939     
  0.156135420727494     
  0.156128154938445     
  0.156121452672797     
  0.156115183343979     
  0.156109217227130     
  0.156103440128323     
  0.156097864951749     
  0.156092654437845     
  0.156168674026618     
  0.156162324185865     
  0.156155838631259     
  0.156149361542477     
  0.156142488420585     
  0.156135282442238     
  0.156128118677379     
  0.156121239661931     
  0.156114762161592     
  0.156108709145477     
  0.156103039248474     
  0.156097703481468     
  0.156092687190327     
  0.156088041706562     
  0.156083922853255     
  0.156148890604203     
  0.156142844100343     
  0.156136954971904     
  0.156130995319520     
  0.156124928301452     
  0.156118769125381     
  0.156112639011763     
  0.156106687562717     
  0.156101013668784     
  0.156095663937571     
  0.156090651978627     
  0.156085983685532     
  0.156081684812939     
  0.156077824075149     
  0.156074522054214     
  0.156128808659762     
  0.156123459182134     
  0.156118191355471     
  0.156112927788870     
  0.156107627820524     
  0.156102317366772     
  0.156097060241107     
  0.156091938968486     
  0.156087027933930     
  0.156082379562259     
  0.156078029662512     
  0.156074010755616     
  0.156070367036696     
  0.156067165940659     
  0.156064502613166     
  0.156108668076550     
  0.156104122686288     
  0.156099585110419     
  0.156095038997715     
  0.156090483576979     
  0.156085941150415     
  0.156081457105065     
  0.156077087649975     
  0.156072889003396     
  0.156068910658513     
  0.156065195564050     
  0.156061785936780     
  0.156058730645370     
  0.156056090841405     
  0.156053941200359     
  0.156088648440457     
  0.156084923227494     
  0.156081135920746     
  0.156077311556040     
  0.156073471609112     
  0.156069645098204     
  0.156065870164765     
  0.156062191314702     
  0.156058654606926     
  0.156055304557328     
  0.156052183870281     
  0.156049335695268     
  0.156046806884440     
  0.156044650288127     
  0.156042924600565     
  0.156068881650376     
  0.156065934363488     
  0.156062876310965     
  0.156059751667072     
  0.156056595643708     
  0.156053442111140     
  0.156050327170676     
  0.156047289288903     
  0.156044368053709     
  0.156041602988022     
  0.156039033398325     
  0.156036699241879     
  0.156034642348889     
  0.156032907058074     
  0.156031539436175     
  0.156049444143659     
  0.156047209977141     
  0.156044836901632     
  0.156042375857383     
  0.156039867498839     
  0.156037347729041     
  0.156034850993944     
  0.156032411683211     
  0.156030064342283     
  0.156027843546570     
  0.156025783941997     
  0.156023920562858     
  0.156022289160737     
  0.156020926100075     
  0.156019867413929     
  0.156030370763340     
  0.156028778789259     
  0.156027037932489     
  0.156025197956843     
  0.156023299162746     
  0.156021376188316     
  0.156019460727972     
  0.156017583127985     
  0.156015773160716     
  0.156014060352957     
  0.156012474161477     
  0.156011044090603     
  0.156009799665531     
  0.156008770071008     
  0.156007983274318     
  0.156011663872713     
  0.156010646803960     
  0.156009485688043     
  0.156008224198713     
  0.156006898162001     
  0.156005538153230     
  0.156004171557634     
  0.156002823990515     
  0.156001520155420     
  0.156000284307534     
  0.155999140471109     
  0.155998112484340     
  0.155997223857768     
  0.155996497379832     
  0.155995954405293     
  0.155993301048046     
  0.155992800775091     
  0.155992172832494     
  0.155991451680377     
  0.155990665832544     
  0.155989839606435     
  0.155988994611150     
  0.155988150859722     
  0.155987327504553     
  0.155986543259496     
  0.155985816585794     
  0.155985165694610     
  0.155984608382932     
  0.155984161694596     
  0.155983841398423     
  0.155975241180105     
  0.155975212091243     
  0.155975080238298     
  0.155974868865073     
  0.155974597233968     
  0.155974281785558     
  0.155973937158942     
  0.155973576977658     
  0.155973214375439     
  0.155972862285456     
  0.155972533538208     
  0.155972240811982     
  0.155971996467066     
  0.155971812283277     
  0.155971699118087     
  0.155957429561949     
  0.155957840567624     
  0.155958179507991     
  0.155958457114092     
  0.155958682091736     
  0.155958861868878     
  0.155959003244043     
  0.155959112862832     
  0.155959197499253     
  0.155959264158049     
  0.155959320037314     
  0.155959372397769     
  0.155959428381470     
  0.155959494815040     
  0.155959578026015     
  0.155939802265956     
  0.155940638051015     
  0.155941435760166     
  0.155942192762896     
  0.155942906347674     
  0.155943574186418     
  0.155944194686144     
  0.155944767175962     
  0.155945291921647     
  0.155945769996190     
  0.155946203057601     
  0.155946593094074     
  0.155946942194147     
  0.155947252389921     
  0.155947525608512     
  0.155922290012425     
  0.155923551818827     
  0.155924810498752     
  0.155926049479477     
  0.155927254078274     
  0.155928411785052     
  0.155929512371065     
  0.155930547791865     
  0.155931511902207     
  0.155932400038934     
  0.155933208550567     
  0.155933934359213     
  0.155934574634187     
  0.155935126640957     
  0.155935587807365     
  0.155904821643744     
  0.155906527789926     
  0.155908264494170     
  0.155910000783258     
  0.155911709648594     
  0.155913368235581     
  0.155914957741263     
  0.155916463011778     
  0.155917871896201     
  0.155919174457917     
  0.155920362166462     
  0.155921427194353     
  0.155922361929364     
  0.155923158787153     
  0.155923810375620     
  0.155887327268180     
  0.155889513580681     
  0.155891760673435     
  0.155894022690962     
  0.155896260049822     
  0.155898439621475     
  0.155900534423177     
  0.155902522845446     
  0.155904387535388     
  0.155906114107036     
  0.155907689866330     
  0.155909102729290     
  0.155910340485912     
  0.155911390524081     
  0.155912240079073     
  0.155869741110513     
  0.155872461462228     
  0.155875267075338     
  0.155878096530466     
  0.155880897436924     
  0.155883626697630     
  0.155886249951761     
  0.155888740296636     
  0.155891076516101     
  0.155893241094178     
  0.155895218290435     
  0.155896992523736     
  0.155898547270189     
  0.155899864629974     
  0.155900925651988     
  0.155852004099787     
  0.155855331318684     
  0.155858760003135     
  0.155862212047808     
  0.155865621954206     
  0.155868937255272     
  0.155872117575894     
  0.155875132589739     
  0.155877959293854     
  0.155880579042648     
  0.155882974726724     
  0.155885128415224     
  0.155887019726666     
  0.155888625142529     
  0.155889918396363     
  0.155834066241003     
  0.155838093793753     
  0.155842227629624     
  0.155846371049293     
  0.155850445021000     
  0.155854388774377     
  0.155858158142744     
  0.155861722271039     
  0.155865059469507     
  0.155868152887015     
  0.155870986490304     
  0.155873541702547     
  0.155875795021595     
  0.155877716923155     
  0.155879272290417     
  0.155815888875229     
  0.155820733991095     
  0.155825674526543     
  0.155830591999214     
  0.155835393349937     
  0.155840011473645     
  0.155844402047885     
  0.155848538097210     
  0.155852403732199     
  0.155855988024326     
  0.155859279481559     
  0.155862261388409     
  0.155864908322621     
  0.155867184360609     
  0.155869043442289     
  0.155797447081359     
  0.155803256465138     
  0.155809128000644     
  0.155814916272813     
  0.155820514067196     
  0.155825851834785     
  0.155830891164748     
  0.155835615573864     
  0.155840021213444     
  0.155844108632753     
  0.155847875652462     
  0.155851311097246     
  0.155854389686345     
  0.155857068835906     
  0.155859288683368     
  0.155778732821858     
  0.155785693083951     
  0.155792647921934     
  0.155799417186746     
  0.155805881304663     
  0.155811976459889     
  0.155817680463211     
  0.155822996927076     
  0.155827942133778     
  0.155832535056092     
  0.155836789081827     
  0.155840704155817     
  0.155844258809171     
  0.155847404322851     
  0.155850062983620     
  0.155759760481143     
  0.155768117320009     
  0.155776343433569     
  0.155784213416345     
  0.155791604184620     
  0.155798475478873     
  0.155804838584489     
  0.155810730199700     
  0.155816195829473     
  0.155821280353698     
  0.155826020640189     
  0.155830435936494     
  0.155834516474321     
  0.155838209661283     
  0.155841415224619     
  0.155740578961593     
  0.155750674495933     
  0.155760403167910     
  0.155769488174174     
  0.155777834327744     
  0.155785463044297     
  0.155792446197629     
  0.155798867137855     
  0.155804808487633     
  0.155810347225983     
  0.155815551268400     
  0.155820473382583     
  0.155825129030757     
  0.155829475302569     
  0.155833380375317     
  0.155721310216451     
  0.155733652248037     
  0.155745151860122     
  0.155755510812004     
  0.155764763649380     
  0.155773071686503     
  0.155780590670103     
  0.155787459664154     
  0.155793801374830     
  0.155799726780854     
  0.155805339594029     
  0.155810737139477     
  0.155816006270862     
  0.155821129925249     
  0.155825968191674     
  0.155702270589716     
  0.155717688336253     
  0.155731138054913     
  0.155742615869834     
  0.155752605450762     
  0.155761436860634     
  0.155769356515855     
  0.155776555099902     
  0.155783190151975     
  0.155789401812247     
  0.155795326107750     
  0.155801109515631     
  0.155806921606178     
  0.155813002280216     
  0.155819103906563     
  0.155684908588748     
  0.155704252144624     
  0.155718974242790     
  0.155731139251625     
  0.155741550469573     
  0.155750673341103     
  0.155758812673461     
  0.155766190819466     
  0.155772985620091     
  0.155779354067833     
  0.155785451847255     
  0.155791456605858     
  0.155797611147676     
  0.155804313376852     
  0.155812723730007     
