# vtk DataFile Version 3.0
vtk output
ASCII
DATASET UNSTRUCTURED_GRID
POINTS       496 double 
  0.00000000E+00  3.00000000E+02  0.00000000E+00
  0.00000000E+00  2.80000000E+02  0.00000000E+00
  0.00000000E+00  2.60000000E+02  0.00000000E+00
  0.00000000E+00  2.40000000E+02  0.00000000E+00
  0.00000000E+00  2.20000000E+02  0.00000000E+00
  0.00000000E+00  2.00000000E+02  0.00000000E+00
  0.00000000E+00  1.80000000E+02  0.00000000E+00
  0.00000000E+00  1.60000000E+02  0.00000000E+00
  0.00000000E+00  1.40000000E+02  0.00000000E+00
  0.00000000E+00  1.20000000E+02  0.00000000E+00
  0.00000000E+00  1.00000000E+02  0.00000000E+00
  0.00000000E+00  8.00000000E+01  0.00000000E+00
  0.00000000E+00  6.00000000E+01  0.00000000E+00
  0.00000000E+00  4.00000000E+01  0.00000000E+00
  0.00000000E+00  2.00000000E+01  0.00000000E+00
  0.00000000E+00  4.99600361E-14  0.00000000E+00
  2.00000000E+01  3.00000000E+02  0.00000000E+00
  2.00000000E+01  2.80000000E+02  0.00000000E+00
  2.00000000E+01  2.60000000E+02  0.00000000E+00
  2.00000000E+01  2.40000000E+02  0.00000000E+00
  2.00000000E+01  2.20000000E+02  0.00000000E+00
  2.00000000E+01  2.00000000E+02  0.00000000E+00
  2.00000000E+01  1.80000000E+02  0.00000000E+00
  2.00000000E+01  1.60000000E+02  0.00000000E+00
  2.00000000E+01  1.40000000E+02  0.00000000E+00
  2.00000000E+01  1.20000000E+02  0.00000000E+00
  2.00000000E+01  1.00000000E+02  0.00000000E+00
  2.00000000E+01  8.00000000E+01  0.00000000E+00
  2.00000000E+01  6.00000000E+01  0.00000000E+00
  2.00000000E+01  4.00000000E+01  0.00000000E+00
  2.00000000E+01  2.00000000E+01  0.00000000E+00
  2.00000000E+01  4.99600361E-14  0.00000000E+00
  4.00000000E+01  3.00000000E+02  0.00000000E+00
  4.00000000E+01  2.80000000E+02  0.00000000E+00
  4.00000000E+01  2.60000000E+02  0.00000000E+00
  4.00000000E+01  2.40000000E+02  0.00000000E+00
  4.00000000E+01  2.20000000E+02  0.00000000E+00
  4.00000000E+01  2.00000000E+02  0.00000000E+00
  4.00000000E+01  1.80000000E+02  0.00000000E+00
  4.00000000E+01  1.60000000E+02  0.00000000E+00
  4.00000000E+01  1.40000000E+02  0.00000000E+00
  4.00000000E+01  1.20000000E+02  0.00000000E+00
  4.00000000E+01  1.00000000E+02  0.00000000E+00
  4.00000000E+01  8.00000000E+01  0.00000000E+00
  4.00000000E+01  6.00000000E+01  0.00000000E+00
  4.00000000E+01  4.00000000E+01  0.00000000E+00
  4.00000000E+01  2.00000000E+01  0.00000000E+00
  4.00000000E+01  4.99600361E-14  0.00000000E+00
  6.00000000E+01  3.00000000E+02  0.00000000E+00
  6.00000000E+01  2.80000000E+02  0.00000000E+00
  6.00000000E+01  2.60000000E+02  0.00000000E+00
  6.00000000E+01  2.40000000E+02  0.00000000E+00
  6.00000000E+01  2.20000000E+02  0.00000000E+00
  6.00000000E+01  2.00000000E+02  0.00000000E+00
  6.00000000E+01  1.80000000E+02  0.00000000E+00
  6.00000000E+01  1.60000000E+02  0.00000000E+00
  6.00000000E+01  1.40000000E+02  0.00000000E+00
  6.00000000E+01  1.20000000E+02  0.00000000E+00
  6.00000000E+01  1.00000000E+02  0.00000000E+00
  6.00000000E+01  8.00000000E+01  0.00000000E+00
  6.00000000E+01  6.00000000E+01  0.00000000E+00
  6.00000000E+01  4.00000000E+01  0.00000000E+00
  6.00000000E+01  2.00000000E+01  0.00000000E+00
  6.00000000E+01  4.99600361E-14  0.00000000E+00
  8.00000000E+01  3.00000000E+02  0.00000000E+00
  8.00000000E+01  2.80000000E+02  0.00000000E+00
  8.00000000E+01  2.60000000E+02  0.00000000E+00
  8.00000000E+01  2.40000000E+02  0.00000000E+00
  8.00000000E+01  2.20000000E+02  0.00000000E+00
  8.00000000E+01  2.00000000E+02  0.00000000E+00
  8.00000000E+01  1.80000000E+02  0.00000000E+00
  8.00000000E+01  1.60000000E+02  0.00000000E+00
  8.00000000E+01  1.40000000E+02  0.00000000E+00
  8.00000000E+01  1.20000000E+02  0.00000000E+00
  8.00000000E+01  1.00000000E+02  0.00000000E+00
  8.00000000E+01  8.00000000E+01  0.00000000E+00
  8.00000000E+01  6.00000000E+01  0.00000000E+00
  8.00000000E+01  4.00000000E+01  0.00000000E+00
  8.00000000E+01  2.00000000E+01  0.00000000E+00
  8.00000000E+01  4.99600361E-14  0.00000000E+00
  1.00000000E+02  3.00000000E+02  0.00000000E+00
  1.00000000E+02  2.80000000E+02  0.00000000E+00
  1.00000000E+02  2.60000000E+02  0.00000000E+00
  1.00000000E+02  2.40000000E+02  0.00000000E+00
  1.00000000E+02  2.20000000E+02  0.00000000E+00
  1.00000000E+02  2.00000000E+02  0.00000000E+00
  1.00000000E+02  1.80000000E+02  0.00000000E+00
  1.00000000E+02  1.60000000E+02  0.00000000E+00
  1.00000000E+02  1.40000000E+02  0.00000000E+00
  1.00000000E+02  1.20000000E+02  0.00000000E+00
  1.00000000E+02  1.00000000E+02  0.00000000E+00
  1.00000000E+02  8.00000000E+01  0.00000000E+00
  1.00000000E+02  6.00000000E+01  0.00000000E+00
  1.00000000E+02  4.00000000E+01  0.00000000E+00
  1.00000000E+02  2.00000000E+01  0.00000000E+00
  1.00000000E+02  4.99600361E-14  0.00000000E+00
  1.20000000E+02  3.00000000E+02  0.00000000E+00
  1.20000000E+02  2.80000000E+02  0.00000000E+00
  1.20000000E+02  2.60000000E+02  0.00000000E+00
  1.20000000E+02  2.40000000E+02  0.00000000E+00
  1.20000000E+02  2.20000000E+02  0.00000000E+00
  1.20000000E+02  2.00000000E+02  0.00000000E+00
  1.20000000E+02  1.80000000E+02  0.00000000E+00
  1.20000000E+02  1.60000000E+02  0.00000000E+00
  1.20000000E+02  1.40000000E+02  0.00000000E+00
  1.20000000E+02  1.20000000E+02  0.00000000E+00
  1.20000000E+02  1.00000000E+02  0.00000000E+00
  1.20000000E+02  8.00000000E+01  0.00000000E+00
  1.20000000E+02  6.00000000E+01  0.00000000E+00
  1.20000000E+02  4.00000000E+01  0.00000000E+00
  1.20000000E+02  2.00000000E+01  0.00000000E+00
  1.20000000E+02  4.99600361E-14  0.00000000E+00
  1.40000000E+02  3.00000000E+02  0.00000000E+00
  1.40000000E+02  2.80000000E+02  0.00000000E+00
  1.40000000E+02  2.60000000E+02  0.00000000E+00
  1.40000000E+02  2.40000000E+02  0.00000000E+00
  1.40000000E+02  2.20000000E+02  0.00000000E+00
  1.40000000E+02  2.00000000E+02  0.00000000E+00
  1.40000000E+02  1.80000000E+02  0.00000000E+00
  1.40000000E+02  1.60000000E+02  0.00000000E+00
  1.40000000E+02  1.40000000E+02  0.00000000E+00
  1.40000000E+02  1.20000000E+02  0.00000000E+00
  1.40000000E+02  1.00000000E+02  0.00000000E+00
  1.40000000E+02  8.00000000E+01  0.00000000E+00
  1.40000000E+02  6.00000000E+01  0.00000000E+00
  1.40000000E+02  4.00000000E+01  0.00000000E+00
  1.40000000E+02  2.00000000E+01  0.00000000E+00
  1.40000000E+02  4.99600361E-14  0.00000000E+00
  1.60000000E+02  3.00000000E+02  0.00000000E+00
  1.60000000E+02  2.80000000E+02  0.00000000E+00
  1.60000000E+02  2.60000000E+02  0.00000000E+00
  1.60000000E+02  2.40000000E+02  0.00000000E+00
  1.60000000E+02  2.20000000E+02  0.00000000E+00
  1.60000000E+02  2.00000000E+02  0.00000000E+00
  1.60000000E+02  1.80000000E+02  0.00000000E+00
  1.60000000E+02  1.60000000E+02  0.00000000E+00
  1.60000000E+02  1.40000000E+02  0.00000000E+00
  1.60000000E+02  1.20000000E+02  0.00000000E+00
  1.60000000E+02  1.00000000E+02  0.00000000E+00
  1.60000000E+02  8.00000000E+01  0.00000000E+00
  1.60000000E+02  6.00000000E+01  0.00000000E+00
  1.60000000E+02  4.00000000E+01  0.00000000E+00
  1.60000000E+02  2.00000000E+01  0.00000000E+00
  1.60000000E+02  4.99600361E-14  0.00000000E+00
  1.80000000E+02  3.00000000E+02  0.00000000E+00
  1.80000000E+02  2.80000000E+02  0.00000000E+00
  1.80000000E+02  2.60000000E+02  0.00000000E+00
  1.80000000E+02  2.40000000E+02  0.00000000E+00
  1.80000000E+02  2.20000000E+02  0.00000000E+00
  1.80000000E+02  2.00000000E+02  0.00000000E+00
  1.80000000E+02  1.80000000E+02  0.00000000E+00
  1.80000000E+02  1.60000000E+02  0.00000000E+00
  1.80000000E+02  1.40000000E+02  0.00000000E+00
  1.80000000E+02  1.20000000E+02  0.00000000E+00
  1.80000000E+02  1.00000000E+02  0.00000000E+00
  1.80000000E+02  8.00000000E+01  0.00000000E+00
  1.80000000E+02  6.00000000E+01  0.00000000E+00
  1.80000000E+02  4.00000000E+01  0.00000000E+00
  1.80000000E+02  2.00000000E+01  0.00000000E+00
  1.80000000E+02  4.99600361E-14  0.00000000E+00
  2.00000000E+02  3.00000000E+02  0.00000000E+00
  2.00000000E+02  2.80000000E+02  0.00000000E+00
  2.00000000E+02  2.60000000E+02  0.00000000E+00
  2.00000000E+02  2.40000000E+02  0.00000000E+00
  2.00000000E+02  2.20000000E+02  0.00000000E+00
  2.00000000E+02  2.00000000E+02  0.00000000E+00
  2.00000000E+02  1.80000000E+02  0.00000000E+00
  2.00000000E+02  1.60000000E+02  0.00000000E+00
  2.00000000E+02  1.40000000E+02  0.00000000E+00
  2.00000000E+02  1.20000000E+02  0.00000000E+00
  2.00000000E+02  1.00000000E+02  0.00000000E+00
  2.00000000E+02  8.00000000E+01  0.00000000E+00
  2.00000000E+02  6.00000000E+01  0.00000000E+00
  2.00000000E+02  4.00000000E+01  0.00000000E+00
  2.00000000E+02  2.00000000E+01  0.00000000E+00
  2.00000000E+02  4.99600361E-14  0.00000000E+00
  2.20000000E+02  3.00000000E+02  0.00000000E+00
  2.20000000E+02  2.80000000E+02  0.00000000E+00
  2.20000000E+02  2.60000000E+02  0.00000000E+00
  2.20000000E+02  2.40000000E+02  0.00000000E+00
  2.20000000E+02  2.20000000E+02  0.00000000E+00
  2.20000000E+02  2.00000000E+02  0.00000000E+00
  2.20000000E+02  1.80000000E+02  0.00000000E+00
  2.20000000E+02  1.60000000E+02  0.00000000E+00
  2.20000000E+02  1.40000000E+02  0.00000000E+00
  2.20000000E+02  1.20000000E+02  0.00000000E+00
  2.20000000E+02  1.00000000E+02  0.00000000E+00
  2.20000000E+02  8.00000000E+01  0.00000000E+00
  2.20000000E+02  6.00000000E+01  0.00000000E+00
  2.20000000E+02  4.00000000E+01  0.00000000E+00
  2.20000000E+02  2.00000000E+01  0.00000000E+00
  2.20000000E+02  4.99600361E-14  0.00000000E+00
  2.40000000E+02  3.00000000E+02  0.00000000E+00
  2.40000000E+02  2.80000000E+02  0.00000000E+00
  2.40000000E+02  2.60000000E+02  0.00000000E+00
  2.40000000E+02  2.40000000E+02  0.00000000E+00
  2.40000000E+02  2.20000000E+02  0.00000000E+00
  2.40000000E+02  2.00000000E+02  0.00000000E+00
  2.40000000E+02  1.80000000E+02  0.00000000E+00
  2.40000000E+02  1.60000000E+02  0.00000000E+00
  2.40000000E+02  1.40000000E+02  0.00000000E+00
  2.40000000E+02  1.20000000E+02  0.00000000E+00
  2.40000000E+02  1.00000000E+02  0.00000000E+00
  2.40000000E+02  8.00000000E+01  0.00000000E+00
  2.40000000E+02  6.00000000E+01  0.00000000E+00
  2.40000000E+02  4.00000000E+01  0.00000000E+00
  2.40000000E+02  2.00000000E+01  0.00000000E+00
  2.40000000E+02  4.99600361E-14  0.00000000E+00
  2.60000000E+02  3.00000000E+02  0.00000000E+00
  2.60000000E+02  2.80000000E+02  0.00000000E+00
  2.60000000E+02  2.60000000E+02  0.00000000E+00
  2.60000000E+02  2.40000000E+02  0.00000000E+00
  2.60000000E+02  2.20000000E+02  0.00000000E+00
  2.60000000E+02  2.00000000E+02  0.00000000E+00
  2.60000000E+02  1.80000000E+02  0.00000000E+00
  2.60000000E+02  1.60000000E+02  0.00000000E+00
  2.60000000E+02  1.40000000E+02  0.00000000E+00
  2.60000000E+02  1.20000000E+02  0.00000000E+00
  2.60000000E+02  1.00000000E+02  0.00000000E+00
  2.60000000E+02  8.00000000E+01  0.00000000E+00
  2.60000000E+02  6.00000000E+01  0.00000000E+00
  2.60000000E+02  4.00000000E+01  0.00000000E+00
  2.60000000E+02  2.00000000E+01  0.00000000E+00
  2.60000000E+02  4.99600361E-14  0.00000000E+00
  2.80000000E+02  3.00000000E+02  0.00000000E+00
  2.80000000E+02  2.80000000E+02  0.00000000E+00
  2.80000000E+02  2.60000000E+02  0.00000000E+00
  2.80000000E+02  2.40000000E+02  0.00000000E+00
  2.80000000E+02  2.20000000E+02  0.00000000E+00
  2.80000000E+02  2.00000000E+02  0.00000000E+00
  2.80000000E+02  1.80000000E+02  0.00000000E+00
  2.80000000E+02  1.60000000E+02  0.00000000E+00
  2.80000000E+02  1.40000000E+02  0.00000000E+00
  2.80000000E+02  1.20000000E+02  0.00000000E+00
  2.80000000E+02  1.00000000E+02  0.00000000E+00
  2.80000000E+02  8.00000000E+01  0.00000000E+00
  2.80000000E+02  6.00000000E+01  0.00000000E+00
  2.80000000E+02  4.00000000E+01  0.00000000E+00
  2.80000000E+02  2.00000000E+01  0.00000000E+00
  2.80000000E+02  4.99600361E-14  0.00000000E+00
  3.00000000E+02  3.00000000E+02  0.00000000E+00
  3.00000000E+02  2.80000000E+02  0.00000000E+00
  3.00000000E+02  2.60000000E+02  0.00000000E+00
  3.00000000E+02  2.40000000E+02  0.00000000E+00
  3.00000000E+02  2.20000000E+02  0.00000000E+00
  3.00000000E+02  2.00000000E+02  0.00000000E+00
  3.00000000E+02  1.80000000E+02  0.00000000E+00
  3.00000000E+02  1.60000000E+02  0.00000000E+00
  3.00000000E+02  1.40000000E+02  0.00000000E+00
  3.00000000E+02  1.20000000E+02  0.00000000E+00
  3.00000000E+02  1.00000000E+02  0.00000000E+00
  3.00000000E+02  8.00000000E+01  0.00000000E+00
  3.00000000E+02  6.00000000E+01  0.00000000E+00
  3.00000000E+02  4.00000000E+01  0.00000000E+00
  3.00000000E+02  2.00000000E+01  0.00000000E+00
  3.00000000E+02  4.99600361E-14  0.00000000E+00
  3.20000000E+02  3.00000000E+02  0.00000000E+00
  3.20000000E+02  2.80000000E+02  0.00000000E+00
  3.20000000E+02  2.60000000E+02  0.00000000E+00
  3.20000000E+02  2.40000000E+02  0.00000000E+00
  3.20000000E+02  2.20000000E+02  0.00000000E+00
  3.20000000E+02  2.00000000E+02  0.00000000E+00
  3.20000000E+02  1.80000000E+02  0.00000000E+00
  3.20000000E+02  1.60000000E+02  0.00000000E+00
  3.20000000E+02  1.40000000E+02  0.00000000E+00
  3.20000000E+02  1.20000000E+02  0.00000000E+00
  3.20000000E+02  1.00000000E+02  0.00000000E+00
  3.20000000E+02  8.00000000E+01  0.00000000E+00
  3.20000000E+02  6.00000000E+01  0.00000000E+00
  3.20000000E+02  4.00000000E+01  0.00000000E+00
  3.20000000E+02  2.00000000E+01  0.00000000E+00
  3.20000000E+02  4.99600361E-14  0.00000000E+00
  3.40000000E+02  3.00000000E+02  0.00000000E+00
  3.40000000E+02  2.80000000E+02  0.00000000E+00
  3.40000000E+02  2.60000000E+02  0.00000000E+00
  3.40000000E+02  2.40000000E+02  0.00000000E+00
  3.40000000E+02  2.20000000E+02  0.00000000E+00
  3.40000000E+02  2.00000000E+02  0.00000000E+00
  3.40000000E+02  1.80000000E+02  0.00000000E+00
  3.40000000E+02  1.60000000E+02  0.00000000E+00
  3.40000000E+02  1.40000000E+02  0.00000000E+00
  3.40000000E+02  1.20000000E+02  0.00000000E+00
  3.40000000E+02  1.00000000E+02  0.00000000E+00
  3.40000000E+02  8.00000000E+01  0.00000000E+00
  3.40000000E+02  6.00000000E+01  0.00000000E+00
  3.40000000E+02  4.00000000E+01  0.00000000E+00
  3.40000000E+02  2.00000000E+01  0.00000000E+00
  3.40000000E+02  4.99600361E-14  0.00000000E+00
  3.60000000E+02  3.00000000E+02  0.00000000E+00
  3.60000000E+02  2.80000000E+02  0.00000000E+00
  3.60000000E+02  2.60000000E+02  0.00000000E+00
  3.60000000E+02  2.40000000E+02  0.00000000E+00
  3.60000000E+02  2.20000000E+02  0.00000000E+00
  3.60000000E+02  2.00000000E+02  0.00000000E+00
  3.60000000E+02  1.80000000E+02  0.00000000E+00
  3.60000000E+02  1.60000000E+02  0.00000000E+00
  3.60000000E+02  1.40000000E+02  0.00000000E+00
  3.60000000E+02  1.20000000E+02  0.00000000E+00
  3.60000000E+02  1.00000000E+02  0.00000000E+00
  3.60000000E+02  8.00000000E+01  0.00000000E+00
  3.60000000E+02  6.00000000E+01  0.00000000E+00
  3.60000000E+02  4.00000000E+01  0.00000000E+00
  3.60000000E+02  2.00000000E+01  0.00000000E+00
  3.60000000E+02  4.99600361E-14  0.00000000E+00
  3.80000000E+02  3.00000000E+02  0.00000000E+00
  3.80000000E+02  2.80000000E+02  0.00000000E+00
  3.80000000E+02  2.60000000E+02  0.00000000E+00
  3.80000000E+02  2.40000000E+02  0.00000000E+00
  3.80000000E+02  2.20000000E+02  0.00000000E+00
  3.80000000E+02  2.00000000E+02  0.00000000E+00
  3.80000000E+02  1.80000000E+02  0.00000000E+00
  3.80000000E+02  1.60000000E+02  0.00000000E+00
  3.80000000E+02  1.40000000E+02  0.00000000E+00
  3.80000000E+02  1.20000000E+02  0.00000000E+00
  3.80000000E+02  1.00000000E+02  0.00000000E+00
  3.80000000E+02  8.00000000E+01  0.00000000E+00
  3.80000000E+02  6.00000000E+01  0.00000000E+00
  3.80000000E+02  4.00000000E+01  0.00000000E+00
  3.80000000E+02  2.00000000E+01  0.00000000E+00
  3.80000000E+02  4.99600361E-14  0.00000000E+00
  4.00000000E+02  3.00000000E+02  0.00000000E+00
  4.00000000E+02  2.80000000E+02  0.00000000E+00
  4.00000000E+02  2.60000000E+02  0.00000000E+00
  4.00000000E+02  2.40000000E+02  0.00000000E+00
  4.00000000E+02  2.20000000E+02  0.00000000E+00
  4.00000000E+02  2.00000000E+02  0.00000000E+00
  4.00000000E+02  1.80000000E+02  0.00000000E+00
  4.00000000E+02  1.60000000E+02  0.00000000E+00
  4.00000000E+02  1.40000000E+02  0.00000000E+00
  4.00000000E+02  1.20000000E+02  0.00000000E+00
  4.00000000E+02  1.00000000E+02  0.00000000E+00
  4.00000000E+02  8.00000000E+01  0.00000000E+00
  4.00000000E+02  6.00000000E+01  0.00000000E+00
  4.00000000E+02  4.00000000E+01  0.00000000E+00
  4.00000000E+02  2.00000000E+01  0.00000000E+00
  4.00000000E+02  4.99600361E-14  0.00000000E+00
  4.20000000E+02  3.00000000E+02  0.00000000E+00
  4.20000000E+02  2.80000000E+02  0.00000000E+00
  4.20000000E+02  2.60000000E+02  0.00000000E+00
  4.20000000E+02  2.40000000E+02  0.00000000E+00
  4.20000000E+02  2.20000000E+02  0.00000000E+00
  4.20000000E+02  2.00000000E+02  0.00000000E+00
  4.20000000E+02  1.80000000E+02  0.00000000E+00
  4.20000000E+02  1.60000000E+02  0.00000000E+00
  4.20000000E+02  1.40000000E+02  0.00000000E+00
  4.20000000E+02  1.20000000E+02  0.00000000E+00
  4.20000000E+02  1.00000000E+02  0.00000000E+00
  4.20000000E+02  8.00000000E+01  0.00000000E+00
  4.20000000E+02  6.00000000E+01  0.00000000E+00
  4.20000000E+02  4.00000000E+01  0.00000000E+00
  4.20000000E+02  2.00000000E+01  0.00000000E+00
  4.20000000E+02  4.99600361E-14  0.00000000E+00
  4.40000000E+02  3.00000000E+02  0.00000000E+00
  4.40000000E+02  2.80000000E+02  0.00000000E+00
  4.40000000E+02  2.60000000E+02  0.00000000E+00
  4.40000000E+02  2.40000000E+02  0.00000000E+00
  4.40000000E+02  2.20000000E+02  0.00000000E+00
  4.40000000E+02  2.00000000E+02  0.00000000E+00
  4.40000000E+02  1.80000000E+02  0.00000000E+00
  4.40000000E+02  1.60000000E+02  0.00000000E+00
  4.40000000E+02  1.40000000E+02  0.00000000E+00
  4.40000000E+02  1.20000000E+02  0.00000000E+00
  4.40000000E+02  1.00000000E+02  0.00000000E+00
  4.40000000E+02  8.00000000E+01  0.00000000E+00
  4.40000000E+02  6.00000000E+01  0.00000000E+00
  4.40000000E+02  4.00000000E+01  0.00000000E+00
  4.40000000E+02  2.00000000E+01  0.00000000E+00
  4.40000000E+02  4.99600361E-14  0.00000000E+00
  4.60000000E+02  3.00000000E+02  0.00000000E+00
  4.60000000E+02  2.80000000E+02  0.00000000E+00
  4.60000000E+02  2.60000000E+02  0.00000000E+00
  4.60000000E+02  2.40000000E+02  0.00000000E+00
  4.60000000E+02  2.20000000E+02  0.00000000E+00
  4.60000000E+02  2.00000000E+02  0.00000000E+00
  4.60000000E+02  1.80000000E+02  0.00000000E+00
  4.60000000E+02  1.60000000E+02  0.00000000E+00
  4.60000000E+02  1.40000000E+02  0.00000000E+00
  4.60000000E+02  1.20000000E+02  0.00000000E+00
  4.60000000E+02  1.00000000E+02  0.00000000E+00
  4.60000000E+02  8.00000000E+01  0.00000000E+00
  4.60000000E+02  6.00000000E+01  0.00000000E+00
  4.60000000E+02  4.00000000E+01  0.00000000E+00
  4.60000000E+02  2.00000000E+01  0.00000000E+00
  4.60000000E+02  4.99600361E-14  0.00000000E+00
  4.80000000E+02  3.00000000E+02  0.00000000E+00
  4.80000000E+02  2.80000000E+02  0.00000000E+00
  4.80000000E+02  2.60000000E+02  0.00000000E+00
  4.80000000E+02  2.40000000E+02  0.00000000E+00
  4.80000000E+02  2.20000000E+02  0.00000000E+00
  4.80000000E+02  2.00000000E+02  0.00000000E+00
  4.80000000E+02  1.80000000E+02  0.00000000E+00
  4.80000000E+02  1.60000000E+02  0.00000000E+00
  4.80000000E+02  1.40000000E+02  0.00000000E+00
  4.80000000E+02  1.20000000E+02  0.00000000E+00
  4.80000000E+02  1.00000000E+02  0.00000000E+00
  4.80000000E+02  8.00000000E+01  0.00000000E+00
  4.80000000E+02  6.00000000E+01  0.00000000E+00
  4.80000000E+02  4.00000000E+01  0.00000000E+00
  4.80000000E+02  2.00000000E+01  0.00000000E+00
  4.80000000E+02  4.99600361E-14  0.00000000E+00
  5.00000000E+02  3.00000000E+02  0.00000000E+00
  5.00000000E+02  2.80000000E+02  0.00000000E+00
  5.00000000E+02  2.60000000E+02  0.00000000E+00
  5.00000000E+02  2.40000000E+02  0.00000000E+00
  5.00000000E+02  2.20000000E+02  0.00000000E+00
  5.00000000E+02  2.00000000E+02  0.00000000E+00
  5.00000000E+02  1.80000000E+02  0.00000000E+00
  5.00000000E+02  1.60000000E+02  0.00000000E+00
  5.00000000E+02  1.40000000E+02  0.00000000E+00
  5.00000000E+02  1.20000000E+02  0.00000000E+00
  5.00000000E+02  1.00000000E+02  0.00000000E+00
  5.00000000E+02  8.00000000E+01  0.00000000E+00
  5.00000000E+02  6.00000000E+01  0.00000000E+00
  5.00000000E+02  4.00000000E+01  0.00000000E+00
  5.00000000E+02  2.00000000E+01  0.00000000E+00
  5.00000000E+02  4.99600361E-14  0.00000000E+00
  5.20000000E+02  3.00000000E+02  0.00000000E+00
  5.20000000E+02  2.80000000E+02  0.00000000E+00
  5.20000000E+02  2.60000000E+02  0.00000000E+00
  5.20000000E+02  2.40000000E+02  0.00000000E+00
  5.20000000E+02  2.20000000E+02  0.00000000E+00
  5.20000000E+02  2.00000000E+02  0.00000000E+00
  5.20000000E+02  1.80000000E+02  0.00000000E+00
  5.20000000E+02  1.60000000E+02  0.00000000E+00
  5.20000000E+02  1.40000000E+02  0.00000000E+00
  5.20000000E+02  1.20000000E+02  0.00000000E+00
  5.20000000E+02  1.00000000E+02  0.00000000E+00
  5.20000000E+02  8.00000000E+01  0.00000000E+00
  5.20000000E+02  6.00000000E+01  0.00000000E+00
  5.20000000E+02  4.00000000E+01  0.00000000E+00
  5.20000000E+02  2.00000000E+01  0.00000000E+00
  5.20000000E+02  4.99600361E-14  0.00000000E+00
  5.40000000E+02  3.00000000E+02  0.00000000E+00
  5.40000000E+02  2.80000000E+02  0.00000000E+00
  5.40000000E+02  2.60000000E+02  0.00000000E+00
  5.40000000E+02  2.40000000E+02  0.00000000E+00
  5.40000000E+02  2.20000000E+02  0.00000000E+00
  5.40000000E+02  2.00000000E+02  0.00000000E+00
  5.40000000E+02  1.80000000E+02  0.00000000E+00
  5.40000000E+02  1.60000000E+02  0.00000000E+00
  5.40000000E+02  1.40000000E+02  0.00000000E+00
  5.40000000E+02  1.20000000E+02  0.00000000E+00
  5.40000000E+02  1.00000000E+02  0.00000000E+00
  5.40000000E+02  8.00000000E+01  0.00000000E+00
  5.40000000E+02  6.00000000E+01  0.00000000E+00
  5.40000000E+02  4.00000000E+01  0.00000000E+00
  5.40000000E+02  2.00000000E+01  0.00000000E+00
  5.40000000E+02  4.99600361E-14  0.00000000E+00
  5.60000000E+02  3.00000000E+02  0.00000000E+00
  5.60000000E+02  2.80000000E+02  0.00000000E+00
  5.60000000E+02  2.60000000E+02  0.00000000E+00
  5.60000000E+02  2.40000000E+02  0.00000000E+00
  5.60000000E+02  2.20000000E+02  0.00000000E+00
  5.60000000E+02  2.00000000E+02  0.00000000E+00
  5.60000000E+02  1.80000000E+02  0.00000000E+00
  5.60000000E+02  1.60000000E+02  0.00000000E+00
  5.60000000E+02  1.40000000E+02  0.00000000E+00
  5.60000000E+02  1.20000000E+02  0.00000000E+00
  5.60000000E+02  1.00000000E+02  0.00000000E+00
  5.60000000E+02  8.00000000E+01  0.00000000E+00
  5.60000000E+02  6.00000000E+01  0.00000000E+00
  5.60000000E+02  4.00000000E+01  0.00000000E+00
  5.60000000E+02  2.00000000E+01  0.00000000E+00
  5.60000000E+02  4.99600361E-14  0.00000000E+00
  5.80000000E+02  3.00000000E+02  0.00000000E+00
  5.80000000E+02  2.80000000E+02  0.00000000E+00
  5.80000000E+02  2.60000000E+02  0.00000000E+00
  5.80000000E+02  2.40000000E+02  0.00000000E+00
  5.80000000E+02  2.20000000E+02  0.00000000E+00
  5.80000000E+02  2.00000000E+02  0.00000000E+00
  5.80000000E+02  1.80000000E+02  0.00000000E+00
  5.80000000E+02  1.60000000E+02  0.00000000E+00
  5.80000000E+02  1.40000000E+02  0.00000000E+00
  5.80000000E+02  1.20000000E+02  0.00000000E+00
  5.80000000E+02  1.00000000E+02  0.00000000E+00
  5.80000000E+02  8.00000000E+01  0.00000000E+00
  5.80000000E+02  6.00000000E+01  0.00000000E+00
  5.80000000E+02  4.00000000E+01  0.00000000E+00
  5.80000000E+02  2.00000000E+01  0.00000000E+00
  5.80000000E+02  4.99600361E-14  0.00000000E+00
  6.00000000E+02  3.00000000E+02  0.00000000E+00
  6.00000000E+02  2.80000000E+02  0.00000000E+00
  6.00000000E+02  2.60000000E+02  0.00000000E+00
  6.00000000E+02  2.40000000E+02  0.00000000E+00
  6.00000000E+02  2.20000000E+02  0.00000000E+00
  6.00000000E+02  2.00000000E+02  0.00000000E+00
  6.00000000E+02  1.80000000E+02  0.00000000E+00
  6.00000000E+02  1.60000000E+02  0.00000000E+00
  6.00000000E+02  1.40000000E+02  0.00000000E+00
  6.00000000E+02  1.20000000E+02  0.00000000E+00
  6.00000000E+02  1.00000000E+02  0.00000000E+00
  6.00000000E+02  8.00000000E+01  0.00000000E+00
  6.00000000E+02  6.00000000E+01  0.00000000E+00
  6.00000000E+02  4.00000000E+01  0.00000000E+00
  6.00000000E+02  2.00000000E+01  0.00000000E+00
  6.00000000E+02  4.99600361E-14  0.00000000E+00
CELLS       450      2250
         4           0           1          17          16
         4           1           2          18          17
         4           2           3          19          18
         4           3           4          20          19
         4           4           5          21          20
         4           5           6          22          21
         4           6           7          23          22
         4           7           8          24          23
         4           8           9          25          24
         4           9          10          26          25
         4          10          11          27          26
         4          11          12          28          27
         4          12          13          29          28
         4          13          14          30          29
         4          14          15          31          30
         4          16          17          33          32
         4          17          18          34          33
         4          18          19          35          34
         4          19          20          36          35
         4          20          21          37          36
         4          21          22          38          37
         4          22          23          39          38
         4          23          24          40          39
         4          24          25          41          40
         4          25          26          42          41
         4          26          27          43          42
         4          27          28          44          43
         4          28          29          45          44
         4          29          30          46          45
         4          30          31          47          46
         4          32          33          49          48
         4          33          34          50          49
         4          34          35          51          50
         4          35          36          52          51
         4          36          37          53          52
         4          37          38          54          53
         4          38          39          55          54
         4          39          40          56          55
         4          40          41          57          56
         4          41          42          58          57
         4          42          43          59          58
         4          43          44          60          59
         4          44          45          61          60
         4          45          46          62          61
         4          46          47          63          62
         4          48          49          65          64
         4          49          50          66          65
         4          50          51          67          66
         4          51          52          68          67
         4          52          53          69          68
         4          53          54          70          69
         4          54          55          71          70
         4          55          56          72          71
         4          56          57          73          72
         4          57          58          74          73
         4          58          59          75          74
         4          59          60          76          75
         4          60          61          77          76
         4          61          62          78          77
         4          62          63          79          78
         4          64          65          81          80
         4          65          66          82          81
         4          66          67          83          82
         4          67          68          84          83
         4          68          69          85          84
         4          69          70          86          85
         4          70          71          87          86
         4          71          72          88          87
         4          72          73          89          88
         4          73          74          90          89
         4          74          75          91          90
         4          75          76          92          91
         4          76          77          93          92
         4          77          78          94          93
         4          78          79          95          94
         4          80          81          97          96
         4          81          82          98          97
         4          82          83          99          98
         4          83          84         100          99
         4          84          85         101         100
         4          85          86         102         101
         4          86          87         103         102
         4          87          88         104         103
         4          88          89         105         104
         4          89          90         106         105
         4          90          91         107         106
         4          91          92         108         107
         4          92          93         109         108
         4          93          94         110         109
         4          94          95         111         110
         4          96          97         113         112
         4          97          98         114         113
         4          98          99         115         114
         4          99         100         116         115
         4         100         101         117         116
         4         101         102         118         117
         4         102         103         119         118
         4         103         104         120         119
         4         104         105         121         120
         4         105         106         122         121
         4         106         107         123         122
         4         107         108         124         123
         4         108         109         125         124
         4         109         110         126         125
         4         110         111         127         126
         4         112         113         129         128
         4         113         114         130         129
         4         114         115         131         130
         4         115         116         132         131
         4         116         117         133         132
         4         117         118         134         133
         4         118         119         135         134
         4         119         120         136         135
         4         120         121         137         136
         4         121         122         138         137
         4         122         123         139         138
         4         123         124         140         139
         4         124         125         141         140
         4         125         126         142         141
         4         126         127         143         142
         4         128         129         145         144
         4         129         130         146         145
         4         130         131         147         146
         4         131         132         148         147
         4         132         133         149         148
         4         133         134         150         149
         4         134         135         151         150
         4         135         136         152         151
         4         136         137         153         152
         4         137         138         154         153
         4         138         139         155         154
         4         139         140         156         155
         4         140         141         157         156
         4         141         142         158         157
         4         142         143         159         158
         4         144         145         161         160
         4         145         146         162         161
         4         146         147         163         162
         4         147         148         164         163
         4         148         149         165         164
         4         149         150         166         165
         4         150         151         167         166
         4         151         152         168         167
         4         152         153         169         168
         4         153         154         170         169
         4         154         155         171         170
         4         155         156         172         171
         4         156         157         173         172
         4         157         158         174         173
         4         158         159         175         174
         4         160         161         177         176
         4         161         162         178         177
         4         162         163         179         178
         4         163         164         180         179
         4         164         165         181         180
         4         165         166         182         181
         4         166         167         183         182
         4         167         168         184         183
         4         168         169         185         184
         4         169         170         186         185
         4         170         171         187         186
         4         171         172         188         187
         4         172         173         189         188
         4         173         174         190         189
         4         174         175         191         190
         4         176         177         193         192
         4         177         178         194         193
         4         178         179         195         194
         4         179         180         196         195
         4         180         181         197         196
         4         181         182         198         197
         4         182         183         199         198
         4         183         184         200         199
         4         184         185         201         200
         4         185         186         202         201
         4         186         187         203         202
         4         187         188         204         203
         4         188         189         205         204
         4         189         190         206         205
         4         190         191         207         206
         4         192         193         209         208
         4         193         194         210         209
         4         194         195         211         210
         4         195         196         212         211
         4         196         197         213         212
         4         197         198         214         213
         4         198         199         215         214
         4         199         200         216         215
         4         200         201         217         216
         4         201         202         218         217
         4         202         203         219         218
         4         203         204         220         219
         4         204         205         221         220
         4         205         206         222         221
         4         206         207         223         222
         4         208         209         225         224
         4         209         210         226         225
         4         210         211         227         226
         4         211         212         228         227
         4         212         213         229         228
         4         213         214         230         229
         4         214         215         231         230
         4         215         216         232         231
         4         216         217         233         232
         4         217         218         234         233
         4         218         219         235         234
         4         219         220         236         235
         4         220         221         237         236
         4         221         222         238         237
         4         222         223         239         238
         4         224         225         241         240
         4         225         226         242         241
         4         226         227         243         242
         4         227         228         244         243
         4         228         229         245         244
         4         229         230         246         245
         4         230         231         247         246
         4         231         232         248         247
         4         232         233         249         248
         4         233         234         250         249
         4         234         235         251         250
         4         235         236         252         251
         4         236         237         253         252
         4         237         238         254         253
         4         238         239         255         254
         4         240         241         257         256
         4         241         242         258         257
         4         242         243         259         258
         4         243         244         260         259
         4         244         245         261         260
         4         245         246         262         261
         4         246         247         263         262
         4         247         248         264         263
         4         248         249         265         264
         4         249         250         266         265
         4         250         251         267         266
         4         251         252         268         267
         4         252         253         269         268
         4         253         254         270         269
         4         254         255         271         270
         4         256         257         273         272
         4         257         258         274         273
         4         258         259         275         274
         4         259         260         276         275
         4         260         261         277         276
         4         261         262         278         277
         4         262         263         279         278
         4         263         264         280         279
         4         264         265         281         280
         4         265         266         282         281
         4         266         267         283         282
         4         267         268         284         283
         4         268         269         285         284
         4         269         270         286         285
         4         270         271         287         286
         4         272         273         289         288
         4         273         274         290         289
         4         274         275         291         290
         4         275         276         292         291
         4         276         277         293         292
         4         277         278         294         293
         4         278         279         295         294
         4         279         280         296         295
         4         280         281         297         296
         4         281         282         298         297
         4         282         283         299         298
         4         283         284         300         299
         4         284         285         301         300
         4         285         286         302         301
         4         286         287         303         302
         4         288         289         305         304
         4         289         290         306         305
         4         290         291         307         306
         4         291         292         308         307
         4         292         293         309         308
         4         293         294         310         309
         4         294         295         311         310
         4         295         296         312         311
         4         296         297         313         312
         4         297         298         314         313
         4         298         299         315         314
         4         299         300         316         315
         4         300         301         317         316
         4         301         302         318         317
         4         302         303         319         318
         4         304         305         321         320
         4         305         306         322         321
         4         306         307         323         322
         4         307         308         324         323
         4         308         309         325         324
         4         309         310         326         325
         4         310         311         327         326
         4         311         312         328         327
         4         312         313         329         328
         4         313         314         330         329
         4         314         315         331         330
         4         315         316         332         331
         4         316         317         333         332
         4         317         318         334         333
         4         318         319         335         334
         4         320         321         337         336
         4         321         322         338         337
         4         322         323         339         338
         4         323         324         340         339
         4         324         325         341         340
         4         325         326         342         341
         4         326         327         343         342
         4         327         328         344         343
         4         328         329         345         344
         4         329         330         346         345
         4         330         331         347         346
         4         331         332         348         347
         4         332         333         349         348
         4         333         334         350         349
         4         334         335         351         350
         4         336         337         353         352
         4         337         338         354         353
         4         338         339         355         354
         4         339         340         356         355
         4         340         341         357         356
         4         341         342         358         357
         4         342         343         359         358
         4         343         344         360         359
         4         344         345         361         360
         4         345         346         362         361
         4         346         347         363         362
         4         347         348         364         363
         4         348         349         365         364
         4         349         350         366         365
         4         350         351         367         366
         4         352         353         369         368
         4         353         354         370         369
         4         354         355         371         370
         4         355         356         372         371
         4         356         357         373         372
         4         357         358         374         373
         4         358         359         375         374
         4         359         360         376         375
         4         360         361         377         376
         4         361         362         378         377
         4         362         363         379         378
         4         363         364         380         379
         4         364         365         381         380
         4         365         366         382         381
         4         366         367         383         382
         4         368         369         385         384
         4         369         370         386         385
         4         370         371         387         386
         4         371         372         388         387
         4         372         373         389         388
         4         373         374         390         389
         4         374         375         391         390
         4         375         376         392         391
         4         376         377         393         392
         4         377         378         394         393
         4         378         379         395         394
         4         379         380         396         395
         4         380         381         397         396
         4         381         382         398         397
         4         382         383         399         398
         4         384         385         401         400
         4         385         386         402         401
         4         386         387         403         402
         4         387         388         404         403
         4         388         389         405         404
         4         389         390         406         405
         4         390         391         407         406
         4         391         392         408         407
         4         392         393         409         408
         4         393         394         410         409
         4         394         395         411         410
         4         395         396         412         411
         4         396         397         413         412
         4         397         398         414         413
         4         398         399         415         414
         4         400         401         417         416
         4         401         402         418         417
         4         402         403         419         418
         4         403         404         420         419
         4         404         405         421         420
         4         405         406         422         421
         4         406         407         423         422
         4         407         408         424         423
         4         408         409         425         424
         4         409         410         426         425
         4         410         411         427         426
         4         411         412         428         427
         4         412         413         429         428
         4         413         414         430         429
         4         414         415         431         430
         4         416         417         433         432
         4         417         418         434         433
         4         418         419         435         434
         4         419         420         436         435
         4         420         421         437         436
         4         421         422         438         437
         4         422         423         439         438
         4         423         424         440         439
         4         424         425         441         440
         4         425         426         442         441
         4         426         427         443         442
         4         427         428         444         443
         4         428         429         445         444
         4         429         430         446         445
         4         430         431         447         446
         4         432         433         449         448
         4         433         434         450         449
         4         434         435         451         450
         4         435         436         452         451
         4         436         437         453         452
         4         437         438         454         453
         4         438         439         455         454
         4         439         440         456         455
         4         440         441         457         456
         4         441         442         458         457
         4         442         443         459         458
         4         443         444         460         459
         4         444         445         461         460
         4         445         446         462         461
         4         446         447         463         462
         4         448         449         465         464
         4         449         450         466         465
         4         450         451         467         466
         4         451         452         468         467
         4         452         453         469         468
         4         453         454         470         469
         4         454         455         471         470
         4         455         456         472         471
         4         456         457         473         472
         4         457         458         474         473
         4         458         459         475         474
         4         459         460         476         475
         4         460         461         477         476
         4         461         462         478         477
         4         462         463         479         478
         4         464         465         481         480
         4         465         466         482         481
         4         466         467         483         482
         4         467         468         484         483
         4         468         469         485         484
         4         469         470         486         485
         4         470         471         487         486
         4         471         472         488         487
         4         472         473         489         488
         4         473         474         490         489
         4         474         475         491         490
         4         475         476         492         491
         4         476         477         493         492
         4         477         478         494         493
         4         478         479         495         494
CELL_TYPES        450
9
9
9
9
9
9
9
9
9
9
9
9
9
9
9
9
9
9
9
9
9
9
9
9
9
9
9
9
9
9
9
9
9
9
9
9
9
9
9
9
9
9
9
9
9
9
9
9
9
9
9
9
9
9
9
9
9
9
9
9
9
9
9
9
9
9
9
9
9
9
9
9
9
9
9
9
9
9
9
9
9
9
9
9
9
9
9
9
9
9
9
9
9
9
9
9
9
9
9
9
9
9
9
9
9
9
9
9
9
9
9
9
9
9
9
9
9
9
9
9
9
9
9
9
9
9
9
9
9
9
9
9
9
9
9
9
9
9
9
9
9
9
9
9
9
9
9
9
9
9
9
9
9
9
9
9
9
9
9
9
9
9
9
9
9
9
9
9
9
9
9
9
9
9
9
9
9
9
9
9
9
9
9
9
9
9
9
9
9
9
9
9
9
9
9
9
9
9
9
9
9
9
9
9
9
9
9
9
9
9
9
9
9
9
9
9
9
9
9
9
9
9
9
9
9
9
9
9
9
9
9
9
9
9
9
9
9
9
9
9
9
9
9
9
9
9
9
9
9
9
9
9
9
9
9
9
9
9
9
9
9
9
9
9
9
9
9
9
9
9
9
9
9
9
9
9
9
9
9
9
9
9
9
9
9
9
9
9
9
9
9
9
9
9
9
9
9
9
9
9
9
9
9
9
9
9
9
9
9
9
9
9
9
9
9
9
9
9
9
9
9
9
9
9
9
9
9
9
9
9
9
9
9
9
9
9
9
9
9
9
9
9
9
9
9
9
9
9
9
9
9
9
9
9
9
9
9
9
9
9
9
9
9
9
9
9
9
9
9
9
9
9
9
9
9
9
9
9
9
9
9
9
9
9
9
9
9
9
9
9
9
9
9
9
9
9
9
9
9
9
9
9
9
9
9
9
9
9
9
9
9
9
9
9
9
9
9
9
9
9
9
9
9
9
9
9
9
9
9
9
9
9
9
9
9
9
9
9
9
9
9
9
9
9
9
9
9
9
9
9
POINT_DATA       496
SCALARS p double 
LOOKUP_TABLE default
   60000000.0000000     
   60000000.0000000     
   60000000.0000000     
   60000000.0000000     
   60000000.0000000     
   60000000.0000000     
   60000000.0000000     
   60000000.0000000     
   60000000.0000000     
   60000000.0000000     
   60000000.0000000     
   60000000.0000000     
   60000000.0000000     
   60000000.0000000     
   60000000.0000000     
   60000000.0000000     
   59947944.9694347     
   59947945.2694747     
   59947946.1179175     
   59947947.3995799     
   59947948.9920544     
   59947950.7837935     
   59947952.6769380     
   59947954.5883839     
   59947956.4488613     
   59947958.2007577     
   59947959.7952257     
   59947961.1890733     
   59947962.3418299     
   59947963.2134229     
   59947963.7617176     
   59947963.9495500     
   59892213.5845749     
   59892214.2166162     
   59892215.9864545     
   59892218.6382225     
   59892221.9195208     
   59892225.5988481     
   59892229.4750034     
   59892233.3787484     
   59892237.1704943     
   59892240.7352859     
   59892243.9763547     
   59892246.8083130     
   59892249.1509299     
   59892250.9240689     
   59892252.0462407     
   59892252.4343630     
   59828930.8164167     
   59828931.8297918     
   59828934.6507321     
   59828938.8458146     
   59828944.0038827     
   59828949.7561143     
   59828955.7867725     
   59828961.8348963     
   59828967.6891609     
   59828973.1785527     
   59828978.1609199     
   59828982.5112118     
   59828986.1108862     
   59828988.8399778     
   59828990.5721979     
   59828991.1727976     
   59753819.1271343     
   59753820.5943861     
   59753824.6546180     
   59753830.6428976     
   59753837.9469214     
   59753846.0319179     
   59753854.4513241     
   59753862.8454183     
   59753870.9308643     
   59753878.4844827     
   59753885.3243656     
   59753891.2909967     
   59753896.2306106     
   59753899.9823857     
   59753902.3703897     
   59753903.2003436     
   59661985.3293711     
   59661987.3469475     
   59661992.8919026     
   59662000.9900352     
   59662010.7704449     
   59662021.4947409     
   59662032.5654185     
   59662043.5177495     
   59662053.9998376     
   59662063.7454871     
   59662072.5441699     
   59662080.2118023     
   59662086.5653270     
   59662091.4033342     
   59662094.4940978     
   59662095.5715609     
   59547694.3559491     
   59547697.0419965     
   59547704.3648259     
   59547714.9346999     
   59547727.5476488     
   59547741.2162506     
   59547755.1712412     
   59547768.8410806     
   59547781.8165157     
   59547793.8067074     
   59547804.5927541     
   59547813.9835483     
   59547821.7779512     
   59547827.7362996     
   59547831.5632819     
   59547832.9031988     
   59404127.6908686     
   59404131.1792223     
   59404140.5994646     
   59404154.0071465     
   59404169.7732977     
   59404186.6109142     
   59404203.5621072     
   59404219.9567979     
   59404235.3531641     
   59404249.4689094     
   59404262.1110919     
   59404273.1108968     
   59404282.2684674     
   59404289.3117537     
   59404293.8722333     
   59404295.4792055     
   59223126.2881524     
   59223130.7160989     
   59223142.5398974     
   59223159.0851511     
   59223178.1904109     
   59223198.2186988     
   59223218.0178544     
   59223236.8456906     
   59223254.2742387     
   59223270.0852078     
   59223284.1665733     
   59223296.4182225     
   59223306.6729479     
   59223314.6377799     
   59223319.8595359     
   59223321.7173192     
   58994920.6961074     
   58994926.1825205     
   58994940.6352238     
   58994960.4386085     
   58994982.7816676     
   58995005.6366046     
   58995027.6735138     
   58995048.1338726     
   58995066.6821830     
   58995083.2513610     
   58995097.8940015     
   58995110.6488196     
   58995121.4295476     
   58995129.9422610     
   58995135.6362492     
   58995137.6927089     
   58707854.9791238     
   58707861.5885507     
   58707878.7081044     
   58707901.5399611     
   58707926.5092905     
   58707951.1814207     
   58707974.1031380     
   58707994.5995012     
   58708012.5514367     
   58708028.1732787     
   58708041.8041528     
   58708053.7232151     
   58708063.9963875     
   58708072.3612315     
   58708078.1564603     
   58708080.3026389     
   58348116.0334083     
   58348123.7207652     
   58348143.1983896     
   58348168.2324946     
   58348194.3951140     
   58348218.8765702     
   58348240.2142054     
   58348257.9792807     
   58348272.4537244     
   58348284.3188633     
   58348294.3705496     
   58348303.2698845     
   58348311.3362162     
   58348318.3888995     
   58348323.6456923     
   58348325.6875267     
   57899486.1159402     
   57899494.6459449     
   57899515.6000201     
   57899541.0756731     
   57899565.7633062     
   57899586.5912120     
   57899602.2884558     
   57899612.9195823     
   57899619.4288658     
   57899623.2174233     
   57899625.7655048     
   57899628.3055305     
   57899631.5491126     
   57899635.4727883     
   57899639.1713274     
   57899640.7926215     
   57343143.8199307     
   57343152.6557313     
   57343173.3269252     
   57343196.1087137     
   57343214.8962534     
   57343226.5949049     
   57343230.4478779     
   57343227.3677578     
   57343219.3137212     
   57343208.7352553     
   57343198.0879442     
   57343189.4184830     
   57343184.0145875     
   57343182.1199268     
   57343182.7228891     
   57343183.4385408     
   56657547.1126436     
   56657555.2700015     
   56657572.6323368     
   56657587.6693727     
   56657593.7588224     
   56657588.2059134     
   56657571.2498677     
   56657545.1349405     
   56657513.2874503     
   56657479.6105333     
   56657447.8878629     
   56657421.2775990     
   56657401.8782210     
   56657390.3571815     
   56657385.6490182     
   56657384.7484424     
   55818440.8860988     
   55818446.7538772     
   55818456.0499806     
   55818455.7590140     
   55818439.3123048     
   55818405.0901810     
   55818355.0073761     
   55818293.2656820     
   55818225.3066186     
   55818156.9561193     
   55818093.7266229     
   55818040.2309052     
   55817999.6658644     
   55817973.3410696     
   55817960.2527977     
   55817956.7352539     
   54799039.8329217     
   54799040.9685484     
   54799035.2002163     
   54799008.8324632     
   54798956.3411510     
   54798878.1842170     
   54798778.8595999     
   54798665.2916194     
   54798545.5561535     
   54798427.9007047     
   54798319.9823338     
   54798228.2355631     
   54798157.2920752     
   54798109.4010683     
   54798083.8390626     
   54798076.3455204     
   53570443.8977518     
   53570436.8186929     
   53570406.2580222     
   53570339.3592506     
   53570233.1982881     
   53570091.7109382     
   53569923.1252400     
   53569737.9609626     
   53569547.5628178     
   53569363.0641976     
   53569194.6395469     
   53569050.8954183     
   53568938.2691304     
   53568860.3449420     
   53568817.0556049     
   53568803.8061902     
   52102345.9990006     
   52102326.0084364     
   52102257.8401799     
   52102131.9759814     
   52101950.3586046     
   52101722.2479518     
   52101460.9628161     
   52101181.5259991     
   52100899.1036264     
   52100628.0437412     
   52100381.2788448     
   52100169.8570108     
   52100002.3985447     
   52099884.3332367     
   52099816.8523454     
   52099795.6044497     
   50364087.4495725     
   50364048.5554627     
   50363926.8145036     
   50363719.8008590     
   50363437.4216335     
   50363096.5518812     
   50362717.0917288     
   50362319.3791940     
   50361922.7263284     
   50361544.7484436     
   50361201.1244551     
   50360905.4442116     
   50360668.8495113     
   50360499.2513016     
   50360400.0056867     
   50360368.0552587     
   48326102.2714850     
   48326037.2799283     
   48325843.2997934     
   48325530.2387979     
   48325119.9430715     
   48324639.5502576     
   48324116.9938488     
   48323578.4448559     
   48323047.2631260     
   48322543.9357771     
   48322086.4817300     
   48321690.8550593     
   48321370.9532395     
   48321137.9229771     
   48320998.5692983     
   48320952.8256864     
   45961763.9327354     
   45961664.8128928     
   45961378.4361453     
   45960933.8858101     
   45960369.7088042     
   45959726.0834655     
   45959040.1080034     
   45958343.7378224     
   45957663.6338164     
   45957022.1354190     
   45956438.6607960     
   45955930.9576118     
   45955515.7212901     
   45955208.1699181     
   45955020.2643867     
   45954957.4352503     
   43249603.9315614     
   43249462.5513157     
   43249064.3487881     
   43248465.9271294     
   43247727.7730296     
   43246905.5866253     
   43246046.0164473     
   43245185.8557521     
   43244353.4599866     
   43243571.2556603     
   43242858.4972793     
   43242233.6653850     
   43241715.9910931     
   43241325.5849403     
   43241081.6704056     
   43240998.5943048     
   40175809.6945434     
   40175619.0034351     
   40175093.6859721     
   40174327.3020132     
   40173407.3572969     
   40172406.5415104     
   40171380.1013403     
   40170367.4803017     
   40169396.1599539     
   40168486.1777067     
   40167654.4819286     
   40166918.6942202     
   40166299.8683012     
   40165823.6169004     
   40165518.7818325     
   40165412.9376492     
   36736831.2531142     
   36736586.9363270     
   36735928.0189903     
   36734994.7450888     
   36733905.4367763     
   36732749.0981309     
   36731586.5264876     
   36730456.1528079     
   36729381.2272231     
   36728376.5498118     
   36727454.3217604     
   36726629.2454852     
   36725922.8372458     
   36725366.2378926     
   36725000.1436881     
   36724870.3468392     
   32941839.2534381     
   32941541.8174041     
   32940757.4728704     
   32939681.8987759     
   32938464.8420265     
   32937207.0719479     
   32935968.9910434     
   32934783.0360790     
   32933664.7654780     
   32932621.3211144     
   32931658.0315055     
   32930784.4071609     
   32930020.1529016     
   32929400.7168460     
   32928980.0339408     
   32928827.2911669     
   28814695.6995627     
   28814352.9311625     
   28813473.0663305     
   28812313.0160146     
   28811047.9041167     
   28809779.3857174     
   28808558.3267818     
   28807406.0261916     
   28806328.2105768     
   28805323.5324705     
   28804389.6804830     
   28803529.0392219     
   28802756.1654799     
   28802107.1742742     
   28801648.3527969     
   28801476.8928771     
   24395046.7414931     
   24394676.9452797     
   24393762.5592862     
   24392620.4517079     
   24391431.7974923     
   24390279.2338299     
   24389194.0597355     
   24388184.2701447     
   24387246.5366647     
   24386372.8393046     
   24385554.7815339     
   24384787.7816335     
   24384076.9040399     
   24383451.5741096     
   24382984.3720389     
   24382802.5512697     
   19738156.0658898     
   19737793.7355474     
   19736952.9042425     
   19735989.9500313     
   19735044.5140005     
   19734156.0561527     
   19733335.6686783     
   19732581.1395059     
   19731884.4921929     
   19731235.4729417     
   19730623.7497858     
   19730040.8796704     
   19729483.8482184     
   19728960.4245914     
   19728532.9014663     
   19728356.8705684     
   14913195.8403398     
   14912913.4027064     
   14912343.7705698     
   14911780.7472189     
   14911250.5143961     
   14910763.9608804     
   14910320.6348023     
   14909916.0795129     
   14909543.9614877     
   14909197.2619931     
   14908868.9458801     
   14908552.5336384     
   14908242.5873309     
   14907937.8597730     
   14907633.2802795     
   14907479.4845171     
   10000000.0000000     
   10000000.0000000     
   10000000.0000000     
   10000000.0000000     
   10000000.0000000     
   10000000.0000000     
   10000000.0000000     
   10000000.0000000     
   10000000.0000000     
   10000000.0000000     
   10000000.0000000     
   10000000.0000000     
   10000000.0000000     
  10000000.00000000     
   10000000.0000000     
   10000000.0000000     
VECTORS u double 
    0.00000E+00        -0.59706E-03         0.00000E+00
    0.00000E+00        -0.38159E-03         0.00000E+00
    0.00000E+00        -0.18209E-03         0.00000E+00
    0.00000E+00        -0.27940E-05         0.00000E+00
    0.00000E+00         0.15307E-03         0.00000E+00
    0.00000E+00         0.28327E-03         0.00000E+00
    0.00000E+00         0.38628E-03         0.00000E+00
    0.00000E+00         0.46110E-03         0.00000E+00
    0.00000E+00         0.50709E-03         0.00000E+00
    0.00000E+00         0.52383E-03         0.00000E+00
    0.00000E+00         0.51106E-03         0.00000E+00
    0.00000E+00         0.46859E-03         0.00000E+00
    0.00000E+00         0.39635E-03         0.00000E+00
    0.00000E+00         0.29429E-03         0.00000E+00
    0.00000E+00         0.16239E-03         0.00000E+00
    0.00000E+00         0.00000E+00         0.00000E+00
    0.88741E-03        -0.62325E-03         0.00000E+00
    0.83523E-03        -0.40508E-03         0.00000E+00
    0.77853E-03        -0.20385E-03         0.00000E+00
    0.71777E-03        -0.23229E-04         0.00000E+00
    0.65434E-03         0.13385E-03         0.00000E+00
    0.58948E-03         0.26526E-03         0.00000E+00
    0.52422E-03         0.36956E-03         0.00000E+00
    0.45932E-03         0.44579E-03         0.00000E+00
    0.39540E-03         0.49332E-03         0.00000E+00
    0.33289E-03         0.51175E-03         0.00000E+00
    0.27213E-03         0.50079E-03         0.00000E+00
    0.21339E-03         0.46023E-03         0.00000E+00
    0.15688E-03         0.38997E-03         0.00000E+00
    0.10271E-03         0.28992E-03         0.00000E+00
    0.50834E-04         0.16000E-03         0.00000E+00
    0.00000E+00         0.00000E+00         0.00000E+00
    0.17742E-02        -0.69741E-03         0.00000E+00
    0.16704E-02        -0.47462E-03         0.00000E+00
    0.15561E-02        -0.26916E-03         0.00000E+00
    0.14339E-02        -0.84826E-04         0.00000E+00
    0.13065E-02         0.75772E-04         0.00000E+00
    0.11765E-02         0.21079E-03         0.00000E+00
    0.10458E-02         0.31897E-03         0.00000E+00
    0.91598E-03         0.39946E-03         0.00000E+00
    0.78816E-03         0.45167E-03         0.00000E+00
    0.66318E-03         0.47521E-03         0.00000E+00
    0.54172E-03         0.46974E-03         0.00000E+00
    0.42426E-03         0.43499E-03         0.00000E+00
    0.31124E-03         0.37074E-03         0.00000E+00
    0.20295E-03         0.27683E-03         0.00000E+00
    0.99381E-04         0.15316E-03         0.00000E+00
    0.00000E+00         0.00000E+00         0.00000E+00
    0.26647E-02        -0.81889E-03         0.00000E+00
    0.25084E-02        -0.58993E-03         0.00000E+00
    0.23351E-02        -0.37862E-03         0.00000E+00
    0.21501E-02        -0.18865E-03         0.00000E+00
    0.19580E-02        -0.22395E-04         0.00000E+00
    0.17623E-02         0.11859E-03         0.00000E+00
    0.15659E-02         0.23327E-03         0.00000E+00
    0.13710E-02         0.32094E-03         0.00000E+00
    0.11794E-02         0.38109E-03         0.00000E+00
    0.99206E-03         0.41330E-03         0.00000E+00
    0.81000E-03         0.41717E-03         0.00000E+00
    0.63391E-03         0.39232E-03         0.00000E+00
    0.46441E-03         0.33837E-03         0.00000E+00
    0.30203E-03         0.25501E-03         0.00000E+00
    0.14714E-03         0.14213E-03         0.00000E+00
    0.00000E+00         0.00000E+00         0.00000E+00
    0.35630E-02        -0.98986E-03         0.00000E+00
    0.33515E-02        -0.75302E-03         0.00000E+00
    0.31172E-02        -0.53426E-03         0.00000E+00
    0.28678E-02        -0.33688E-03         0.00000E+00
    0.26096E-02        -0.16291E-03         0.00000E+00
    0.23475E-02        -0.13585E-04         0.00000E+00
    0.20852E-02         0.11031E-03         0.00000E+00
    0.18253E-02         0.20826E-03         0.00000E+00
    0.15699E-02         0.27981E-03         0.00000E+00
    0.13205E-02         0.32450E-03         0.00000E+00
    0.10781E-02         0.34185E-03         0.00000E+00
    0.84350E-03         0.33128E-03         0.00000E+00
    0.61757E-03         0.29221E-03         0.00000E+00
    0.40110E-03         0.22412E-03         0.00000E+00
    0.19493E-03         0.12670E-03         0.00000E+00
    0.00000E+00         0.00000E+00         0.00000E+00
    0.44727E-02        -0.12143E-02         0.00000E+00
    0.42018E-02        -0.96765E-03         0.00000E+00
    0.39034E-02        -0.73967E-03         0.00000E+00
    0.35875E-02        -0.53299E-03         0.00000E+00
    0.32620E-02        -0.34915E-03         0.00000E+00
    0.29327E-02        -0.18897E-03         0.00000E+00
    0.26041E-02        -0.52926E-04         0.00000E+00
    0.22793E-02         0.58634E-04         0.00000E+00
    0.19606E-02         0.14533E-03         0.00000E+00
    0.16494E-02         0.20667E-03         0.00000E+00
    0.13469E-02         0.24198E-03         0.00000E+00
    0.10541E-02         0.25047E-03         0.00000E+00
    0.77180E-03         0.23125E-03         0.00000E+00
    0.50111E-03         0.18349E-03         0.00000E+00
    0.24331E-03         0.10651E-03         0.00000E+00
    0.00000E+00         0.00000E+00         0.00000E+00
    0.53964E-02        -0.14977E-02         0.00000E+00
    0.50609E-02        -0.12391E-02         0.00000E+00
    0.46945E-02        -0.99987E-03         0.00000E+00
    0.43095E-02        -0.78177E-03         0.00000E+00
    0.39149E-02        -0.58565E-03         0.00000E+00
    0.35176E-02        -0.41183E-03         0.00000E+00
    0.31226E-02        -0.26041E-03         0.00000E+00
    0.27332E-02        -0.13154E-03         0.00000E+00
    0.23517E-02        -0.25532E-04         0.00000E+00
    0.19794E-02         0.57020E-04         0.00000E+00
    0.16175E-02         0.11525E-03         0.00000E+00
    0.12667E-02         0.14805E-03         0.00000E+00
    0.92811E-03         0.15414E-03         0.00000E+00
    0.60290E-03         0.13221E-03         0.00000E+00
    0.29280E-03         0.81103E-04         0.00000E+00
    0.00000E+00         0.00000E+00         0.00000E+00
    0.63359E-02        -0.18471E-02         0.00000E+00
    0.59291E-02        -0.15741E-02         0.00000E+00
    0.54902E-02        -0.13212E-02         0.00000E+00
    0.50329E-02        -0.10892E-02         0.00000E+00
    0.45677E-02        -0.87805E-03         0.00000E+00
    0.41018E-02        -0.68741E-03         0.00000E+00
    0.36405E-02        -0.51697E-03         0.00000E+00
    0.31871E-02        -0.36663E-03         0.00000E+00
    0.27436E-02        -0.23667E-03         0.00000E+00
    0.23111E-02        -0.12779E-03         0.00000E+00
    0.18905E-02        -0.41142E-04         0.00000E+00
    0.14823E-02         0.21772E-04         0.00000E+00
    0.10875E-02         0.59167E-04         0.00000E+00
    0.70729E-03         0.69152E-04         0.00000E+00
    0.34387E-03         0.49926E-04         0.00000E+00
    0.00000E+00         0.00000E+00         0.00000E+00
    0.72914E-02        -0.22705E-02         0.00000E+00
    0.68059E-02        -0.19803E-02         0.00000E+00
    0.62892E-02        -0.17112E-02         0.00000E+00
    0.57566E-02        -0.14624E-02         0.00000E+00
    0.52189E-02        -0.12330E-02         0.00000E+00
    0.46840E-02        -0.10219E-02         0.00000E+00
    0.41569E-02        -0.82823E-03         0.00000E+00
    0.36404E-02        -0.65172E-03         0.00000E+00
    0.31363E-02        -0.49257E-03         0.00000E+00
    0.26450E-02        -0.35166E-03         0.00000E+00
    0.21667E-02        -0.23046E-03         0.00000E+00
    0.17018E-02        -0.13098E-03         0.00000E+00
    0.12508E-02        -0.55611E-04         0.00000E+00
    0.81513E-03        -0.69743E-05         0.00000E+00
    0.39706E-03         0.12334E-04         0.00000E+00
    0.00000E+00         0.00000E+00         0.00000E+00
    0.82621E-02        -0.27773E-02         0.00000E+00
    0.76895E-02        -0.24669E-02         0.00000E+00
    0.70894E-02        -0.21783E-02         0.00000E+00
    0.64779E-02        -0.19094E-02         0.00000E+00
    0.58664E-02        -0.16580E-02         0.00000E+00
    0.52624E-02        -0.14221E-02         0.00000E+00
    0.46703E-02        -0.12005E-02         0.00000E+00
    0.40925E-02        -0.99248E-03         0.00000E+00
    0.35294E-02        -0.79825E-03         0.00000E+00
    0.29811E-02        -0.61890E-03         0.00000E+00
    0.24467E-02        -0.45633E-03         0.00000E+00
    0.19260E-02        -0.31311E-03         0.00000E+00
    0.14192E-02        -0.19238E-03         0.00000E+00
    0.92730E-03        -0.97625E-04         0.00000E+00
    0.45292E-03        -0.32391E-04         0.00000E+00
    0.00000E+00         0.00000E+00         0.00000E+00
    0.92451E-02        -0.33778E-02         0.00000E+00
    0.85763E-02        -0.30436E-02         0.00000E+00
    0.78870E-02        -0.27319E-02         0.00000E+00
    0.71935E-02        -0.24390E-02         0.00000E+00
    0.65070E-02        -0.21612E-02         0.00000E+00
    0.58343E-02        -0.18958E-02         0.00000E+00
    0.51789E-02        -0.16407E-02         0.00000E+00
    0.45418E-02        -0.13950E-02         0.00000E+00
    0.39225E-02        -0.11591E-02         0.00000E+00
    0.33194E-02        -0.93416E-03         0.00000E+00
    0.27310E-02        -0.72263E-03         0.00000E+00
    0.21559E-02        -0.52775E-03         0.00000E+00
    0.15935E-02        -0.35350E-03         0.00000E+00
    0.10447E-02        -0.20437E-03         0.00000E+00
    0.51205E-03        -0.85027E-04         0.00000E+00
    0.00000E+00         0.00000E+00         0.00000E+00
    0.10235E-01        -0.40834E-02         0.00000E+00
    0.94610E-02        -0.37212E-02         0.00000E+00
    0.86766E-02        -0.33823E-02         0.00000E+00
    0.78983E-02        -0.30606E-02         0.00000E+00
    0.71364E-02        -0.27514E-02         0.00000E+00
    0.63962E-02        -0.24506E-02         0.00000E+00
    0.56798E-02        -0.21558E-02         0.00000E+00
    0.49866E-02        -0.18657E-02         0.00000E+00
    0.43142E-02        -0.15806E-02         0.00000E+00
    0.36597E-02        -0.13022E-02         0.00000E+00
    0.30197E-02        -0.10334E-02         0.00000E+00
    0.23919E-02        -0.77814E-03         0.00000E+00
    0.17747E-02        -0.54143E-03         0.00000E+00
    0.11683E-02        -0.32885E-03         0.00000E+00
    0.57510E-03        -0.14640E-03         0.00000E+00
    0.00000E+00         0.00000E+00         0.00000E+00
    0.11226E-01        -0.49057E-02         0.00000E+00
    0.10336E-01        -0.45110E-02         0.00000E+00
    0.94512E-02        -0.41397E-02         0.00000E+00
    0.85859E-02        -0.37840E-02         0.00000E+00
    0.77488E-02        -0.34374E-02         0.00000E+00
    0.69434E-02        -0.30948E-02         0.00000E+00
    0.61695E-02        -0.27530E-02         0.00000E+00
    0.54241E-02        -0.24108E-02         0.00000E+00
    0.47029E-02        -0.20684E-02         0.00000E+00
    0.40008E-02        -0.17278E-02         0.00000E+00
    0.33128E-02        -0.13926E-02         0.00000E+00
    0.26345E-02        -0.10675E-02         0.00000E+00
    0.19635E-02        -0.75862E-03         0.00000E+00
    0.12989E-02        -0.47274E-03         0.00000E+00
    0.64267E-03        -0.21734E-03         0.00000E+00
    0.00000E+00         0.00000E+00         0.00000E+00
    0.12207E-01        -0.58570E-02         0.00000E+00
    0.11192E-01        -0.54241E-02         0.00000E+00
    0.10202E-01        -0.50148E-02         0.00000E+00
    0.92480E-02        -0.46188E-02         0.00000E+00
    0.83373E-02        -0.42278E-02         0.00000E+00
    0.74700E-02        -0.38359E-02         0.00000E+00
    0.66431E-02        -0.34393E-02         0.00000E+00
    0.58509E-02        -0.30364E-02         0.00000E+00
    0.50862E-02        -0.26276E-02         0.00000E+00
    0.43414E-02        -0.22155E-02         0.00000E+00
    0.36094E-02        -0.18040E-02         0.00000E+00
    0.28838E-02        -0.13989E-02         0.00000E+00
    0.21604E-02        -0.10074E-02         0.00000E+00
    0.14371E-02        -0.63766E-03         0.00000E+00
    0.71534E-03        -0.29871E-03         0.00000E+00
    0.00000E+00         0.00000E+00         0.00000E+00
    0.13164E-01        -0.69491E-02         0.00000E+00
    0.12016E-01        -0.64718E-02         0.00000E+00
    0.10916E-01        -0.60176E-02         0.00000E+00
    0.98745E-02        -0.55739E-02         0.00000E+00
    0.88930E-02        -0.51308E-02         0.00000E+00
    0.79688E-02        -0.46811E-02         0.00000E+00
    0.70949E-02        -0.42207E-02         0.00000E+00
    0.62622E-02        -0.37477E-02         0.00000E+00
    0.54605E-02        -0.32628E-02         0.00000E+00
    0.46791E-02        -0.27689E-02         0.00000E+00
    0.39082E-02        -0.22708E-02         0.00000E+00
    0.31391E-02        -0.17751E-02         0.00000E+00
    0.23654E-02        -0.12900E-02         0.00000E+00
    0.15835E-02        -0.82511E-03         0.00000E+00
    0.79354E-03        -0.39128E-03         0.00000E+00
    0.00000E+00         0.00000E+00         0.00000E+00
    0.14081E-01        -0.81934E-02         0.00000E+00
    0.12792E-01        -0.76643E-02         0.00000E+00
    0.11581E-01        -0.71574E-02         0.00000E+00
    0.10453E-01        -0.66575E-02         0.00000E+00
    0.94056E-02        -0.61531E-02         0.00000E+00
    0.84308E-02        -0.56362E-02         0.00000E+00
    0.75174E-02        -0.51020E-02         0.00000E+00
    0.66523E-02        -0.45487E-02         0.00000E+00
    0.58213E-02        -0.39774E-02         0.00000E+00
    0.50105E-02        -0.33912E-02         0.00000E+00
    0.42068E-02        -0.27956E-02         0.00000E+00
    0.33990E-02        -0.21980E-02         0.00000E+00
    0.25779E-02        -0.16079E-02         0.00000E+00
    0.17380E-02        -0.10363E-02         0.00000E+00
    0.87751E-03        -0.49577E-03         0.00000E+00
    0.00000E+00         0.00000E+00         0.00000E+00
    0.14936E-01        -0.95997E-02         0.00000E+00
    0.13501E-01        -0.90104E-02         0.00000E+00
    0.12179E-01        -0.84417E-02         0.00000E+00
    0.10969E-01        -0.78759E-02         0.00000E+00
    0.98625E-02        -0.73000E-02         0.00000E+00
    0.88455E-02        -0.67051E-02         0.00000E+00
    0.79018E-02        -0.60863E-02         0.00000E+00
    0.70136E-02        -0.54419E-02         0.00000E+00
    0.61624E-02        -0.47731E-02         0.00000E+00
    0.53306E-02        -0.40836E-02         0.00000E+00
    0.45016E-02        -0.33795E-02         0.00000E+00
    0.36609E-02        -0.26690E-02         0.00000E+00
    0.27964E-02        -0.19625E-02         0.00000E+00
    0.18998E-02        -0.12723E-02         0.00000E+00
    0.96712E-03        -0.61274E-03         0.00000E+00
    0.00000E+00         0.00000E+00         0.00000E+00
    0.15706E-01        -0.11176E-01         0.00000E+00
    0.14121E-01        -0.10516E-01         0.00000E+00
    0.12691E-01        -0.98754E-02         0.00000E+00
    0.11406E-01        -0.92326E-02         0.00000E+00
    0.10249E-01        -0.85737E-02         0.00000E+00
    0.92005E-02        -0.78892E-02         0.00000E+00
    0.82376E-02        -0.71743E-02         0.00000E+00
    0.73371E-02        -0.64273E-02         0.00000E+00
    0.64762E-02        -0.56498E-02         0.00000E+00
    0.56330E-02        -0.48460E-02         0.00000E+00
    0.47873E-02        -0.40225E-02         0.00000E+00
    0.39208E-02        -0.31881E-02         0.00000E+00
    0.30181E-02        -0.23539E-02         0.00000E+00
    0.20674E-02        -0.15333E-02         0.00000E+00
    0.10618E-02        -0.74256E-03         0.00000E+00
    0.00000E+00         0.00000E+00         0.00000E+00
    0.16359E-01        -0.12926E-01         0.00000E+00
    0.14627E-01        -0.12186E-01         0.00000E+00
    0.13095E-01        -0.11460E-01         0.00000E+00
    0.11745E-01        -0.10728E-01         0.00000E+00
    0.10549E-01        -0.99733E-02         0.00000E+00
    0.94817E-02        -0.91865E-02         0.00000E+00
    0.85121E-02        -0.83630E-02         0.00000E+00
    0.76117E-02        -0.75016E-02         0.00000E+00
    0.67528E-02        -0.66044E-02         0.00000E+00
    0.59092E-02        -0.56757E-02         0.00000E+00
    0.50565E-02        -0.47225E-02         0.00000E+00
    0.41728E-02        -0.37538E-02         0.00000E+00
    0.32385E-02        -0.27813E-02         0.00000E+00
    0.22381E-02        -0.18193E-02         0.00000E+00
    0.11602E-02        -0.88533E-03         0.00000E+00
    0.00000E+00         0.00000E+00         0.00000E+00
    0.16862E-01        -0.14850E-01         0.00000E+00
    0.14988E-01        -0.14016E-01         0.00000E+00
    0.13366E-01        -0.13194E-01         0.00000E+00
    0.11963E-01        -0.12358E-01         0.00000E+00
    0.10745E-01        -0.11493E-01         0.00000E+00
    0.96728E-02        -0.10591E-01         0.00000E+00
    0.87109E-02        -0.96458E-02         0.00000E+00
    0.78244E-02        -0.86582E-02         0.00000E+00
    0.69803E-02        -0.76304E-02         0.00000E+00
    0.61482E-02        -0.65669E-02         0.00000E+00
    0.52997E-02        -0.54747E-02         0.00000E+00
    0.44086E-02        -0.43628E-02         0.00000E+00
    0.34514E-02        -0.32428E-02         0.00000E+00
    0.24074E-02        -0.21293E-02         0.00000E+00
    0.12604E-02        -0.10408E-02         0.00000E+00
    0.00000E+00         0.00000E+00         0.00000E+00
    0.17177E-01        -0.16942E-01         0.00000E+00
    0.15173E-01        -0.16002E-01         0.00000E+00
    0.13476E-01        -0.15067E-01         0.00000E+00
    0.12039E-01        -0.14112E-01         0.00000E+00
    0.10815E-01        -0.13123E-01         0.00000E+00
    0.97560E-02        -0.12090E-01         0.00000E+00
    0.88177E-02        -0.11011E-01         0.00000E+00
    0.79596E-02        -0.98857E-02         0.00000E+00
    0.71439E-02        -0.87174E-02         0.00000E+00
    0.63362E-02        -0.75107E-02         0.00000E+00
    0.55041E-02        -0.62719E-02         0.00000E+00
    0.46174E-02        -0.50096E-02         0.00000E+00
    0.36477E-02        -0.37346E-02         0.00000E+00
    0.25691E-02        -0.24613E-02         0.00000E+00
    0.13590E-02        -0.12083E-02         0.00000E+00
    0.00000E+00         0.00000E+00         0.00000E+00
    0.17260E-01        -0.19190E-01         0.00000E+00
    0.15146E-01        -0.18128E-01         0.00000E+00
    0.13396E-01        -0.17064E-01         0.00000E+00
    0.11948E-01        -0.15974E-01         0.00000E+00
    0.10739E-01        -0.14844E-01         0.00000E+00
    0.97118E-02        -0.13666E-01         0.00000E+00
    0.88141E-02        -0.12440E-01         0.00000E+00
    0.79995E-02        -0.11167E-01         0.00000E+00
    0.72263E-02        -0.98502E-02         0.00000E+00
    0.64563E-02        -0.84937E-02         0.00000E+00
    0.56538E-02        -0.71033E-02         0.00000E+00
    0.47847E-02        -0.56861E-02         0.00000E+00
    0.38158E-02        -0.42513E-02         0.00000E+00
    0.27148E-02        -0.28121E-02         0.00000E+00
    0.14516E-02        -0.13867E-02         0.00000E+00
    0.00000E+00         0.00000E+00         0.00000E+00
    0.17066E-01        -0.21571E-01         0.00000E+00
    0.14870E-01        -0.20371E-01         0.00000E+00
    0.13097E-01        -0.19162E-01         0.00000E+00
    0.11664E-01        -0.17919E-01         0.00000E+00
    0.10495E-01        -0.16631E-01         0.00000E+00
    0.95196E-02        -0.15295E-01         0.00000E+00
    0.86798E-02        -0.13910E-01         0.00000E+00
    0.79240E-02        -0.12480E-01         0.00000E+00
    0.72070E-02        -0.11008E-01         0.00000E+00
    0.64882E-02        -0.94984E-02         0.00000E+00
    0.57293E-02        -0.79545E-02         0.00000E+00
    0.48927E-02        -0.63811E-02         0.00000E+00
    0.39403E-02        -0.47853E-02         0.00000E+00
    0.28331E-02        -0.31776E-02         0.00000E+00
    0.15322E-02        -0.15743E-02         0.00000E+00
    0.00000E+00         0.00000E+00         0.00000E+00
    0.16546E-01        -0.24053E-01         0.00000E+00
    0.14307E-01        -0.22699E-01         0.00000E+00
    0.12548E-01        -0.21325E-01         0.00000E+00
    0.11163E-01        -0.19911E-01         0.00000E+00
    0.10059E-01        -0.18450E-01         0.00000E+00
    0.91579E-02        -0.16941E-01         0.00000E+00
    0.83932E-02        -0.15388E-01         0.00000E+00
    0.77104E-02        -0.13795E-01         0.00000E+00
    0.70625E-02        -0.12166E-01         0.00000E+00
    0.64079E-02        -0.10502E-01         0.00000E+00
    0.57067E-02        -0.88069E-02         0.00000E+00
    0.49189E-02        -0.70807E-02         0.00000E+00
    0.40019E-02        -0.53268E-02         0.00000E+00
    0.29097E-02        -0.35518E-02         0.00000E+00
    0.15927E-02        -0.17686E-02         0.00000E+00
    0.00000E+00         0.00000E+00         0.00000E+00
    0.15652E-01        -0.26591E-01         0.00000E+00
    0.13420E-01        -0.25066E-01         0.00000E+00
    0.11720E-01        -0.23509E-01         0.00000E+00
    0.10420E-01        -0.21906E-01         0.00000E+00
    0.94114E-02        -0.20256E-01         0.00000E+00
    0.86051E-02        -0.18563E-01         0.00000E+00
    0.79313E-02        -0.16835E-01         0.00000E+00
    0.73337E-02        -0.15076E-01         0.00000E+00
    0.67661E-02        -0.13291E-01         0.00000E+00
    0.61874E-02        -0.11478E-01         0.00000E+00
    0.55580E-02        -0.96382E-02         0.00000E+00
    0.48366E-02        -0.77673E-02         0.00000E+00
    0.39772E-02        -0.58634E-02         0.00000E+00
    0.29264E-02        -0.39274E-02         0.00000E+00
    0.16231E-02        -0.19667E-02         0.00000E+00
    0.00000E+00         0.00000E+00         0.00000E+00
    0.14334E-01        -0.29126E-01         0.00000E+00
    0.12174E-01        -0.27412E-01         0.00000E+00
    0.10588E-01        -0.25653E-01         0.00000E+00
    0.94155E-02        -0.23845E-01         0.00000E+00
    0.85313E-02        -0.21993E-01         0.00000E+00
    0.78396E-02        -0.20109E-01         0.00000E+00
    0.72695E-02        -0.18203E-01         0.00000E+00
    0.67669E-02        -0.16282E-01         0.00000E+00
    0.62882E-02        -0.14346E-01         0.00000E+00
    0.57953E-02        -0.12395E-01         0.00000E+00
    0.52507E-02        -0.10422E-01         0.00000E+00
    0.46140E-02        -0.84201E-02         0.00000E+00
    0.38371E-02        -0.63803E-02         0.00000E+00
    0.28605E-02        -0.42954E-02         0.00000E+00
    0.16106E-02        -0.21647E-02         0.00000E+00
    0.00000E+00         0.00000E+00         0.00000E+00
    0.12545E-01        -0.31579E-01         0.00000E+00
    0.10540E-01        -0.29660E-01         0.00000E+00
    0.91330E-02        -0.27683E-01         0.00000E+00
    0.81332E-02        -0.25654E-01         0.00000E+00
    0.74010E-02        -0.23592E-01         0.00000E+00
    0.68397E-02        -0.21517E-01         0.00000E+00
    0.63824E-02        -0.19439E-01         0.00000E+00
    0.59807E-02        -0.17365E-01         0.00000E+00
    0.55965E-02        -0.15292E-01         0.00000E+00
    0.51967E-02        -0.13217E-01         0.00000E+00
    0.47484E-02        -0.11129E-01         0.00000E+00
    0.42143E-02        -0.90149E-02         0.00000E+00
    0.35473E-02        -0.68594E-02         0.00000E+00
    0.26842E-02        -0.46448E-02         0.00000E+00
    0.15387E-02        -0.23580E-02         0.00000E+00
    0.00000E+00         0.00000E+00         0.00000E+00
    0.10243E-01        -0.33852E-01         0.00000E+00
    0.84973E-02        -0.31713E-01         0.00000E+00
    0.73449E-02        -0.29501E-01         0.00000E+00
    0.65619E-02        -0.27244E-01         0.00000E+00
    0.60040E-02        -0.24975E-01         0.00000E+00
    0.55830E-02        -0.22719E-01         0.00000E+00
    0.52426E-02        -0.20485E-01         0.00000E+00
    0.49438E-02        -0.18275E-01         0.00000E+00
    0.46565E-02        -0.16086E-01         0.00000E+00
    0.43546E-02        -0.13907E-01         0.00000E+00
    0.40116E-02        -0.11726E-01         0.00000E+00
    0.35963E-02        -0.95246E-02         0.00000E+00
    0.30671E-02        -0.72794E-02         0.00000E+00
    0.23621E-02        -0.49615E-02         0.00000E+00
    0.13861E-02        -0.25410E-02         0.00000E+00
    0.00000E+00         0.00000E+00         0.00000E+00
    0.73924E-02        -0.35815E-01         0.00000E+00
    0.60407E-02        -0.33443E-01         0.00000E+00
    0.52248E-02        -0.30986E-01         0.00000E+00
    0.46939E-02        -0.28508E-01         0.00000E+00
    0.43223E-02        -0.26055E-01         0.00000E+00
    0.40443E-02        -0.23645E-01         0.00000E+00
    0.38203E-02        -0.21284E-01         0.00000E+00
    0.36234E-02        -0.18967E-01         0.00000E+00
    0.34331E-02        -0.16687E-01         0.00000E+00
    0.32315E-02        -0.14431E-01         0.00000E+00
    0.29999E-02        -0.12182E-01         0.00000E+00
    0.27162E-02        -0.99195E-02         0.00000E+00
    0.23489E-02        -0.76140E-02         0.00000E+00
    0.18486E-02        -0.52274E-02         0.00000E+00
    0.11221E-02        -0.27056E-02         0.00000E+00
    0.00000E+00         0.00000E+00         0.00000E+00
    0.39696E-02        -0.37286E-01         0.00000E+00
    0.31930E-02        -0.34670E-01         0.00000E+00
    0.27808E-02        -0.31985E-01         0.00000E+00
    0.25159E-02        -0.29333E-01         0.00000E+00
    0.23318E-02        -0.26746E-01         0.00000E+00
    0.21944E-02        -0.24231E-01         0.00000E+00
    0.20838E-02        -0.21786E-01         0.00000E+00
    0.19863E-02        -0.19400E-01         0.00000E+00
    0.18917E-02        -0.17063E-01         0.00000E+00
    0.17908E-02        -0.14759E-01         0.00000E+00
    0.16743E-02        -0.12470E-01         0.00000E+00
    0.15305E-02        -0.10171E-01         0.00000E+00
    0.13426E-02        -0.78331E-02         0.00000E+00
    0.10827E-02        -0.54124E-02         0.00000E+00
    0.69594E-03        -0.28404E-02         0.00000E+00
    0.00000E+00         0.00000E+00         0.00000E+00
    0.00000E+00        -0.37948E-01         0.00000E+00
    0.00000E+00        -0.35135E-01         0.00000E+00
    0.00000E+00        -0.32341E-01         0.00000E+00
    0.00000E+00        -0.29621E-01         0.00000E+00
    0.00000E+00        -0.26985E-01         0.00000E+00
    0.00000E+00        -0.24432E-01         0.00000E+00
    0.00000E+00        -0.21957E-01         0.00000E+00
    0.00000E+00        -0.19548E-01         0.00000E+00
    0.00000E+00        -0.17191E-01         0.00000E+00
    0.00000E+00        -0.14871E-01         0.00000E+00
    0.00000E+00        -0.12568E-01         0.00000E+00
    0.00000E+00        -0.10258E-01         0.00000E+00
    0.00000E+00        -0.79099E-02         0.00000E+00
    0.00000E+00        -0.54800E-02         0.00000E+00
    0.00000E+00        -0.28985E-02         0.00000E+00
    0.00000E+00         0.00000E+00         0.00000E+00
CELL_DATA        450
VECTORS vDarcy double 
    0.37200E-09         0.10721E-14         0.00000E+00
    0.37198E-09         0.30315E-14         0.00000E+00
    0.37197E-09         0.45793E-14         0.00000E+00
    0.37195E-09         0.56897E-14         0.00000E+00
    0.37192E-09         0.64014E-14         0.00000E+00
    0.37190E-09         0.67636E-14         0.00000E+00
    0.37188E-09         0.68288E-14         0.00000E+00
    0.37185E-09         0.66465E-14         0.00000E+00
    0.37183E-09         0.62584E-14         0.00000E+00
    0.37181E-09         0.56959E-14         0.00000E+00
    0.37179E-09         0.49791E-14         0.00000E+00
    0.37178E-09         0.41178E-14         0.00000E+00
    0.37176E-09         0.31134E-14         0.00000E+00
    0.37175E-09         0.19585E-14         0.00000E+00
    0.37174E-09         0.67093E-15         0.00000E+00
    0.39827E-09         0.33304E-14         0.00000E+00
    0.39825E-09         0.93552E-14         0.00000E+00
    0.39824E-09         0.14054E-13         0.00000E+00
    0.39821E-09         0.17413E-13         0.00000E+00
    0.39819E-09         0.19547E-13         0.00000E+00
    0.39817E-09         0.20612E-13         0.00000E+00
    0.39814E-09         0.20775E-13         0.00000E+00
    0.39812E-09         0.20192E-13         0.00000E+00
    0.39809E-09         0.18993E-13         0.00000E+00
    0.39807E-09         0.17274E-13         0.00000E+00
    0.39805E-09         0.15095E-13         0.00000E+00
    0.39803E-09         0.12486E-13         0.00000E+00
    0.39802E-09         0.94472E-14         0.00000E+00
    0.39801E-09         0.59669E-14         0.00000E+00
    0.39800E-09         0.20573E-14         0.00000E+00
    0.45223E-09         0.58793E-14         0.00000E+00
    0.45222E-09         0.16403E-13         0.00000E+00
    0.45220E-09         0.24463E-13         0.00000E+00
    0.45217E-09         0.30152E-13         0.00000E+00
    0.45214E-09         0.33696E-13         0.00000E+00
    0.45212E-09         0.35393E-13         0.00000E+00
    0.45209E-09         0.35553E-13         0.00000E+00
    0.45206E-09         0.34460E-13         0.00000E+00
    0.45203E-09         0.32345E-13         0.00000E+00
    0.45201E-09         0.29376E-13         0.00000E+00
    0.45199E-09         0.25656E-13         0.00000E+00
    0.45197E-09         0.21227E-13         0.00000E+00
    0.45195E-09         0.16082E-13         0.00000E+00
    0.45194E-09         0.10196E-13         0.00000E+00
    0.45193E-09         0.35316E-14         0.00000E+00
    0.53677E-09         0.88636E-14         0.00000E+00
    0.53675E-09         0.24587E-13         0.00000E+00
    0.53672E-09         0.36385E-13         0.00000E+00
    0.53669E-09         0.44525E-13         0.00000E+00
    0.53666E-09         0.49437E-13         0.00000E+00
    0.53663E-09         0.51625E-13         0.00000E+00
    0.53659E-09         0.51595E-13         0.00000E+00
    0.53656E-09         0.49799E-13         0.00000E+00
    0.53653E-09         0.46594E-13         0.00000E+00
    0.53651E-09         0.42232E-13         0.00000E+00
    0.53648E-09         0.36854E-13         0.00000E+00
    0.53646E-09         0.30503E-13         0.00000E+00
    0.53644E-09         0.23150E-13         0.00000E+00
    0.53643E-09         0.14717E-13         0.00000E+00
    0.53641E-09         0.51098E-14         0.00000E+00
    0.65627E-09         0.12452E-13         0.00000E+00
    0.65624E-09         0.34320E-13         0.00000E+00
    0.65621E-09         0.50330E-13         0.00000E+00
    0.65617E-09         0.61040E-13         0.00000E+00
    0.65613E-09         0.67200E-13         0.00000E+00
    0.65610E-09         0.69630E-13         0.00000E+00
    0.65606E-09         0.69115E-13         0.00000E+00
    0.65602E-09         0.66331E-13         0.00000E+00
    0.65599E-09         0.61798E-13         0.00000E+00
    0.65596E-09         0.55864E-13         0.00000E+00
    0.65593E-09         0.48703E-13         0.00000E+00
    0.65590E-09         0.40340E-13         0.00000E+00
    0.65588E-09         0.30682E-13         0.00000E+00
    0.65586E-09         0.19570E-13         0.00000E+00
    0.65585E-09         0.68130E-14         0.00000E+00
    0.81676E-09         0.16807E-13         0.00000E+00
    0.81672E-09         0.45977E-13         0.00000E+00
    0.81668E-09         0.66699E-13         0.00000E+00
    0.81663E-09         0.80007E-13         0.00000E+00
    0.81659E-09         0.87148E-13         0.00000E+00
    0.81654E-09         0.89406E-13         0.00000E+00
    0.81649E-09         0.87962E-13         0.00000E+00
    0.81645E-09         0.83799E-13         0.00000E+00
    0.81641E-09         0.77646E-13         0.00000E+00
    0.81637E-09         0.69960E-13         0.00000E+00
    0.81634E-09         0.60934E-13         0.00000E+00
    0.81631E-09         0.50536E-13         0.00000E+00
    0.81629E-09         0.38564E-13         0.00000E+00
    0.81627E-09         0.24709E-13         0.00000E+00
    0.81625E-09         0.86344E-14         0.00000E+00
    0.10260E-08         0.22062E-13         0.00000E+00
    0.10259E-08         0.59824E-13         0.00000E+00
    0.10259E-08         0.85670E-13         0.00000E+00
    0.10258E-08         0.10139E-12         0.00000E+00
    0.10258E-08         0.10899E-12         0.00000E+00
    0.10257E-08         0.11041E-12         0.00000E+00
    0.10256E-08         0.10740E-12         0.00000E+00
    0.10256E-08         0.10135E-12         0.00000E+00
    0.10255E-08         0.93256E-13         0.00000E+00
    0.10255E-08         0.83688E-13         0.00000E+00
    0.10255E-08         0.72836E-13         0.00000E+00
    0.10254E-08         0.60551E-13         0.00000E+00
    0.10254E-08         0.46440E-13         0.00000E+00
    0.10254E-08         0.29958E-13         0.00000E+00
    0.10254E-08         0.10526E-13         0.00000E+00
    0.12935E-08         0.28287E-13         0.00000E+00
    0.12934E-08         0.75906E-13         0.00000E+00
    0.12934E-08         0.10702E-12         0.00000E+00
    0.12933E-08         0.12459E-12         0.00000E+00
    0.12932E-08         0.13171E-12         0.00000E+00
    0.12931E-08         0.13129E-12         0.00000E+00
    0.12931E-08         0.12583E-12         0.00000E+00
    0.12930E-08         0.11726E-12         0.00000E+00
    0.12930E-08         0.10690E-12         0.00000E+00
    0.12929E-08         0.95458E-13         0.00000E+00
    0.12929E-08         0.83053E-13         0.00000E+00
    0.12928E-08         0.69338E-13         0.00000E+00
    0.12928E-08         0.53606E-13         0.00000E+00
    0.12928E-08         0.34939E-13         0.00000E+00
    0.12928E-08         0.12375E-13         0.00000E+00
    0.16308E-08         0.35426E-13         0.00000E+00
    0.16308E-08         0.93887E-13         0.00000E+00
    0.16307E-08         0.12987E-12         0.00000E+00
    0.16306E-08         0.14808E-12         0.00000E+00
    0.16305E-08         0.15320E-12         0.00000E+00
    0.16304E-08         0.14946E-12         0.00000E+00
    0.16303E-08         0.14035E-12         0.00000E+00
    0.16303E-08         0.12852E-12         0.00000E+00
    0.16302E-08         0.11566E-12         0.00000E+00
    0.16301E-08         0.10260E-12         0.00000E+00
    0.16301E-08         0.89320E-13         0.00000E+00
    0.16301E-08         0.75134E-13         0.00000E+00
    0.16300E-08         0.58853E-13         0.00000E+00
    0.16300E-08         0.38987E-13         0.00000E+00
    0.16299E-08         0.13980E-13         0.00000E+00
    0.20515E-08         0.43221E-13         0.00000E+00
    0.20514E-08         0.11281E-12         0.00000E+00
    0.20512E-08         0.15233E-12         0.00000E+00
    0.20511E-08         0.16903E-12         0.00000E+00
    0.20510E-08         0.16979E-12         0.00000E+00
    0.20509E-08         0.16061E-12         0.00000E+00
    0.20508E-08         0.14631E-12         0.00000E+00
    0.20508E-08         0.13038E-12         0.00000E+00
    0.20507E-08         0.11499E-12         0.00000E+00
    0.20506E-08         0.10099E-12         0.00000E+00
    0.20506E-08         0.88129E-13         0.00000E+00
    0.20505E-08         0.75198E-13         0.00000E+00
    0.20505E-08         0.60280E-13         0.00000E+00
    0.20505E-08         0.41034E-13         0.00000E+00
    0.20504E-08         0.15009E-13         0.00000E+00
    0.25708E-08         0.51085E-13         0.00000E+00
    0.25707E-08         0.13076E-12         0.00000E+00
    0.25705E-08         0.17101E-12         0.00000E+00
    0.25703E-08         0.18267E-12         0.00000E+00
    0.25702E-08         0.17560E-12         0.00000E+00
    0.25701E-08         0.15811E-12         0.00000E+00
    0.25700E-08         0.13667E-12         0.00000E+00
    0.25700E-08         0.11583E-12         0.00000E+00
    0.25699E-08         0.98179E-13         0.00000E+00
    0.25698E-08         0.84588E-13         0.00000E+00
    0.25698E-08         0.74356E-13         0.00000E+00
    0.25697E-08         0.65500E-13         0.00000E+00
    0.25697E-08         0.55063E-13         0.00000E+00
    0.25696E-08         0.39471E-13         0.00000E+00
    0.25696E-08         0.14957E-13         0.00000E+00
    0.32060E-08         0.57947E-13         0.00000E+00
    0.32058E-08         0.14446E-12         0.00000E+00
    0.32056E-08         0.18045E-12         0.00000E+00
    0.32054E-08         0.18166E-12         0.00000E+00
    0.32053E-08         0.16186E-12         0.00000E+00
    0.32052E-08         0.13229E-12         0.00000E+00
    0.32051E-08         0.10143E-12         0.00000E+00
    0.32050E-08         0.74950E-13         0.00000E+00
    0.32049E-08         0.55911E-13         0.00000E+00
    0.32049E-08         0.45001E-13         0.00000E+00
    0.32049E-08         0.40856E-13         0.00000E+00
    0.32048E-08         0.40392E-13         0.00000E+00
    0.32048E-08         0.39200E-13         0.00000E+00
    0.32047E-08         0.31981E-13         0.00000E+00
    0.32046E-08         0.13082E-13         0.00000E+00
    0.39757E-08         0.62049E-13         0.00000E+00
    0.39754E-08         0.14872E-12         0.00000E+00
    0.39751E-08         0.17240E-12         0.00000E+00
    0.39749E-08         0.15531E-12         0.00000E+00
    0.39748E-08         0.11619E-12         0.00000E+00
    0.39746E-08         0.69833E-13         0.00000E+00
    0.39746E-08         0.26971E-13         0.00000E+00
    0.39745E-08        -0.55173E-14         0.00000E+00
    0.39745E-08        -0.24250E-13         0.00000E+00
    0.39744E-08        -0.28926E-13         0.00000E+00
    0.39744E-08        -0.21890E-13         0.00000E+00
    0.39744E-08        -0.77150E-14         0.00000E+00
    0.39743E-08         0.72459E-14         0.00000E+00
    0.39742E-08         0.15361E-13         0.00000E+00
    0.39742E-08         0.83451E-14         0.00000E+00
    0.48991E-08         0.60715E-13         0.00000E+00
    0.48988E-08         0.13588E-12         0.00000E+00
    0.48985E-08         0.13510E-12         0.00000E+00
    0.48982E-08         0.88864E-13         0.00000E+00
    0.48981E-08         0.21952E-13         0.00000E+00
    0.48979E-08        -0.46801E-13         0.00000E+00
    0.48979E-08        -0.10427E-12         0.00000E+00
    0.48979E-08        -0.14251E-12         0.00000E+00
    0.48979E-08        -0.15805E-12         0.00000E+00
    0.48979E-08        -0.15131E-12         0.00000E+00
    0.48979E-08        -0.12599E-12         0.00000E+00
    0.48978E-08        -0.88573E-13         0.00000E+00
    0.48978E-08        -0.47906E-13         0.00000E+00
    0.48977E-08        -0.14659E-13         0.00000E+00
    0.48976E-08        -0.66032E-15         0.00000E+00
    0.59957E-08         0.50107E-13         0.00000E+00
    0.59953E-08         0.95234E-13         0.00000E+00
    0.59949E-08         0.52675E-13         0.00000E+00
    0.59947E-08        -0.36995E-13         0.00000E+00
    0.59945E-08        -0.14206E-12         0.00000E+00
    0.59944E-08        -0.23943E-12         0.00000E+00
    0.59944E-08        -0.31377E-12         0.00000E+00
    0.59944E-08        -0.35643E-12         0.00000E+00
    0.59945E-08        -0.36435E-12         0.00000E+00
    0.59945E-08        -0.33907E-12         0.00000E+00
    0.59946E-08        -0.28605E-12         0.00000E+00
    0.59946E-08        -0.21412E-12         0.00000E+00
    0.59945E-08        -0.13514E-12         0.00000E+00
    0.59944E-08        -0.63544E-13         0.00000E+00
    0.59943E-08        -0.15775E-13         0.00000E+00
    0.72835E-08         0.25019E-13         0.00000E+00
    0.72829E-08         0.12602E-13         0.00000E+00
    0.72825E-08        -0.95220E-13         0.00000E+00
    0.72822E-08        -0.24622E-12         0.00000E+00
    0.72821E-08        -0.40135E-12         0.00000E+00
    0.72821E-08        -0.53357E-12         0.00000E+00
    0.72821E-08        -0.62604E-12         0.00000E+00
    0.72822E-08        -0.67024E-12         0.00000E+00
    0.72823E-08        -0.66419E-12         0.00000E+00
    0.72825E-08        -0.61112E-12         0.00000E+00
    0.72825E-08        -0.51860E-12         0.00000E+00
    0.72826E-08        -0.39814E-12         0.00000E+00
    0.72826E-08        -0.26498E-12         0.00000E+00
    0.72825E-08        -0.13799E-12         0.00000E+00
    0.72823E-08        -0.39312E-13         0.00000E+00
    0.87772E-08        -0.21230E-13         0.00000E+00
    0.87765E-08        -0.12976E-12         0.00000E+00
    0.87761E-08        -0.33310E-12         0.00000E+00
    0.87758E-08        -0.56658E-12         0.00000E+00
    0.87758E-08        -0.78435E-12         0.00000E+00
    0.87759E-08        -0.95667E-12         0.00000E+00
    0.87760E-08        -0.10667E-11         0.00000E+00
    0.87762E-08        -0.11074E-11         0.00000E+00
    0.87764E-08        -0.10788E-11         0.00000E+00
    0.87767E-08        -0.98665E-12         0.00000E+00
    0.87768E-08        -0.84077E-12         0.00000E+00
    0.87769E-08        -0.65538E-12         0.00000E+00
    0.87770E-08        -0.44917E-12         0.00000E+00
    0.87769E-08        -0.24580E-12         0.00000E+00
    0.87767E-08        -0.74050E-13         0.00000E+00
    0.10487E-07        -0.96681E-13         0.00000E+00
    0.10486E-07        -0.35258E-12         0.00000E+00
    0.10486E-07        -0.68835E-12         0.00000E+00
    0.10485E-07        -0.10276E-11         0.00000E+00
    0.10485E-07        -0.13197E-11         0.00000E+00
    0.10486E-07        -0.15348E-11         0.00000E+00
    0.10486E-07        -0.16588E-11         0.00000E+00
    0.10486E-07        -0.16880E-11         0.00000E+00
    0.10487E-07        -0.16264E-11         0.00000E+00
    0.10487E-07        -0.14822E-11         0.00000E+00
    0.10487E-07        -0.12679E-11         0.00000E+00
    0.10487E-07        -0.99985E-12         0.00000E+00
    0.10488E-07        -0.69963E-12         0.00000E+00
    0.10487E-07        -0.39541E-12         0.00000E+00
    0.10487E-07        -0.12314E-12         0.00000E+00
    0.12415E-07        -0.21028E-12         0.00000E+00
    0.12414E-07        -0.67810E-12         0.00000E+00
    0.12413E-07        -0.11885E-11         0.00000E+00
    0.12413E-07        -0.16565E-11         0.00000E+00
    0.12413E-07        -0.20313E-11         0.00000E+00
    0.12414E-07        -0.22874E-11         0.00000E+00
    0.12414E-07        -0.24173E-11         0.00000E+00
    0.12415E-07        -0.24241E-11         0.00000E+00
    0.12415E-07        -0.23168E-11         0.00000E+00
    0.12416E-07        -0.21074E-11         0.00000E+00
    0.12416E-07        -0.18101E-11         0.00000E+00
    0.12417E-07        -0.14422E-11         0.00000E+00
    0.12417E-07        -0.10268E-11         0.00000E+00
    0.12417E-07        -0.59509E-12         0.00000E+00
    0.12416E-07        -0.18987E-12         0.00000E+00
    0.14552E-07        -0.37089E-12         0.00000E+00
    0.14551E-07        -0.11271E-11         0.00000E+00
    0.14551E-07        -0.18565E-11         0.00000E+00
    0.14551E-07        -0.24725E-11         0.00000E+00
    0.14551E-07        -0.29314E-11         0.00000E+00
    0.14552E-07        -0.32195E-11         0.00000E+00
    0.14553E-07        -0.33417E-11         0.00000E+00
    0.14554E-07        -0.33116E-11         0.00000E+00
    0.14554E-07        -0.31455E-11         0.00000E+00
    0.14555E-07        -0.28591E-11         0.00000E+00
    0.14556E-07        -0.24673E-11         0.00000E+00
    0.14556E-07        -0.19861E-11         0.00000E+00
    0.14556E-07        -0.14369E-11         0.00000E+00
    0.14556E-07        -0.85151E-12         0.00000E+00
    0.14556E-07        -0.27726E-12         0.00000E+00
    0.16878E-07        -0.58576E-12         0.00000E+00
    0.16877E-07        -0.17144E-11         0.00000E+00
    0.16877E-07        -0.27038E-11         0.00000E+00
    0.16877E-07        -0.34776E-11         0.00000E+00
    0.16878E-07        -0.40112E-11         0.00000E+00
    0.16879E-07        -0.43127E-11         0.00000E+00
    0.16880E-07        -0.44068E-11         0.00000E+00
    0.16881E-07        -0.43225E-11         0.00000E+00
    0.16882E-07        -0.40853E-11         0.00000E+00
    0.16883E-07        -0.37145E-11         0.00000E+00
    0.16884E-07        -0.32235E-11         0.00000E+00
    0.16884E-07        -0.26233E-11         0.00000E+00
    0.16885E-07        -0.19290E-11         0.00000E+00
    0.16885E-07        -0.11678E-11         0.00000E+00
    0.16885E-07        -0.38741E-12         0.00000E+00
    0.19355E-07        -0.85815E-12         0.00000E+00
    0.19354E-07        -0.24425E-11         0.00000E+00
    0.19355E-07        -0.37211E-11         0.00000E+00
    0.19355E-07        -0.46464E-11         0.00000E+00
    0.19356E-07        -0.52296E-11         0.00000E+00
    0.19358E-07        -0.55140E-11         0.00000E+00
    0.19359E-07        -0.55533E-11         0.00000E+00
    0.19360E-07        -0.53962E-11         0.00000E+00
    0.19361E-07        -0.50794E-11         0.00000E+00
    0.19363E-07        -0.46247E-11         0.00000E+00
    0.19364E-07        -0.40407E-11         0.00000E+00
    0.19364E-07        -0.33285E-11         0.00000E+00
    0.19365E-07        -0.24902E-11         0.00000E+00
    0.19365E-07        -0.15406E-11         0.00000E+00
    0.19365E-07        -0.52054E-12         0.00000E+00
    0.21928E-07        -0.11845E-11         0.00000E+00
    0.21928E-07        -0.32939E-11         0.00000E+00
    0.21928E-07        -0.48678E-11         0.00000E+00
    0.21929E-07        -0.59139E-11         0.00000E+00
    0.21931E-07        -0.65021E-11         0.00000E+00
    0.21933E-07        -0.67269E-11         0.00000E+00
    0.21934E-07        -0.66799E-11         0.00000E+00
    0.21936E-07        -0.64337E-11         0.00000E+00
    0.21937E-07        -0.60360E-11         0.00000E+00
    0.21938E-07        -0.55092E-11         0.00000E+00
    0.21940E-07        -0.48535E-11         0.00000E+00
    0.21941E-07        -0.40541E-11         0.00000E+00
    0.21941E-07        -0.30915E-11         0.00000E+00
    0.21942E-07        -0.19575E-11         0.00000E+00
    0.21942E-07        -0.67389E-12         0.00000E+00
    0.24522E-07        -0.15510E-11         0.00000E+00
    0.24523E-07        -0.42222E-11         0.00000E+00
    0.24524E-07        -0.60599E-11         0.00000E+00
    0.24526E-07        -0.71639E-11         0.00000E+00
    0.24528E-07        -0.76915E-11         0.00000E+00
    0.24530E-07        -0.78054E-11         0.00000E+00
    0.24532E-07        -0.76416E-11         0.00000E+00
    0.24534E-07        -0.72969E-11         0.00000E+00
    0.24535E-07        -0.68279E-11         0.00000E+00
    0.24537E-07        -0.62549E-11         0.00000E+00
    0.24538E-07        -0.55666E-11         0.00000E+00
    0.24539E-07        -0.47263E-11         0.00000E+00
    0.24540E-07        -0.36836E-11         0.00000E+00
    0.24541E-07        -0.23929E-11         0.00000E+00
    0.24541E-07        -0.84040E-12         0.00000E+00
    0.27048E-07        -0.19306E-11         0.00000E+00
    0.27049E-07        -0.51434E-11         0.00000E+00
    0.27052E-07        -0.71593E-11         0.00000E+00
    0.27054E-07        -0.82201E-11         0.00000E+00
    0.27057E-07        -0.86047E-11         0.00000E+00
    0.27059E-07        -0.85572E-11         0.00000E+00
    0.27061E-07        -0.82572E-11         0.00000E+00
    0.27063E-07        -0.78187E-11         0.00000E+00
    0.27065E-07        -0.73018E-11         0.00000E+00
    0.27066E-07        -0.67225E-11         0.00000E+00
    0.27068E-07        -0.60567E-11         0.00000E+00
    0.27069E-07        -0.52438E-11         0.00000E+00
    0.27070E-07        -0.41934E-11         0.00000E+00
    0.27071E-07        -0.28055E-11         0.00000E+00
    0.27072E-07        -0.10075E-11         0.00000E+00
    0.29399E-07        -0.22802E-11         0.00000E+00
    0.29402E-07        -0.59279E-11         0.00000E+00
    0.29406E-07        -0.79640E-11         0.00000E+00
    0.29409E-07        -0.88431E-11         0.00000E+00
    0.29412E-07        -0.90011E-11         0.00000E+00
    0.29414E-07        -0.87627E-11         0.00000E+00
    0.29417E-07        -0.83326E-11         0.00000E+00
    0.29419E-07        -0.78265E-11         0.00000E+00
    0.29420E-07        -0.72997E-11         0.00000E+00
    0.29422E-07        -0.67620E-11         0.00000E+00
    0.29423E-07        -0.61818E-11         0.00000E+00
    0.29425E-07        -0.54794E-11         0.00000E+00
    0.29426E-07        -0.45218E-11         0.00000E+00
    0.29428E-07        -0.31354E-11         0.00000E+00
    0.29429E-07        -0.11558E-11         0.00000E+00
    0.31464E-07        -0.25364E-11         0.00000E+00
    0.31469E-07        -0.63877E-11         0.00000E+00
    0.31474E-07        -0.81971E-11         0.00000E+00
    0.31478E-07        -0.87382E-11         0.00000E+00
    0.31481E-07        -0.86229E-11         0.00000E+00
    0.31484E-07        -0.82148E-11         0.00000E+00
    0.31486E-07        -0.77021E-11         0.00000E+00
    0.31488E-07        -0.71807E-11         0.00000E+00
    0.31490E-07        -0.66926E-11         0.00000E+00
    0.31491E-07        -0.62425E-11         0.00000E+00
    0.31493E-07        -0.58001E-11         0.00000E+00
    0.31494E-07        -0.52877E-11         0.00000E+00
    0.31496E-07        -0.45417E-11         0.00000E+00
    0.31498E-07        -0.33005E-11         0.00000E+00
    0.31500E-07        -0.12592E-11         0.00000E+00
    0.33132E-07        -0.26044E-11         0.00000E+00
    0.33139E-07        -0.62453E-11         0.00000E+00
    0.33146E-07        -0.74917E-11         0.00000E+00
    0.33150E-07        -0.75965E-11         0.00000E+00
    0.33154E-07        -0.72664E-11         0.00000E+00
    0.33157E-07        -0.67850E-11         0.00000E+00
    0.33159E-07        -0.62829E-11         0.00000E+00
    0.33160E-07        -0.58208E-11         0.00000E+00
    0.33162E-07        -0.54236E-11         0.00000E+00
    0.33163E-07        -0.50930E-11         0.00000E+00
    0.33165E-07        -0.48088E-11         0.00000E+00
    0.33167E-07        -0.45172E-11         0.00000E+00
    0.33169E-07        -0.40930E-11         0.00000E+00
    0.33171E-07        -0.31882E-11         0.00000E+00
    0.33174E-07        -0.12753E-11         0.00000E+00
    0.34305E-07        -0.22921E-11         0.00000E+00
    0.34316E-07        -0.50159E-11         0.00000E+00
    0.34323E-07        -0.54283E-11         0.00000E+00
    0.34328E-07        -0.52505E-11         0.00000E+00
    0.34332E-07        -0.48933E-11         0.00000E+00
    0.34334E-07        -0.44979E-11         0.00000E+00
    0.34336E-07        -0.41261E-11         0.00000E+00
    0.34338E-07        -0.38050E-11         0.00000E+00
    0.34339E-07        -0.35453E-11         0.00000E+00
    0.34341E-07        -0.33474E-11         0.00000E+00
    0.34342E-07        -0.32026E-11         0.00000E+00
    0.34344E-07        -0.30878E-11         0.00000E+00
    0.34346E-07        -0.29499E-11         0.00000E+00
    0.34349E-07        -0.26081E-11         0.00000E+00
    0.34353E-07        -0.11751E-11         0.00000E+00
    0.34910E-07        -0.10034E-11         0.00000E+00
    0.34925E-07        -0.20248E-11         0.00000E+00
    0.34932E-07        -0.20020E-11         0.00000E+00
    0.34937E-07        -0.18859E-11         0.00000E+00
    0.34941E-07        -0.17309E-11         0.00000E+00
    0.34943E-07        -0.15774E-11         0.00000E+00
    0.34945E-07        -0.14396E-11         0.00000E+00
    0.34947E-07        -0.13243E-11         0.00000E+00
    0.34948E-07        -0.12340E-11         0.00000E+00
    0.34949E-07        -0.11687E-11         0.00000E+00
    0.34951E-07        -0.11264E-11         0.00000E+00
    0.34952E-07        -0.11035E-11         0.00000E+00
    0.34954E-07        -0.10851E-11         0.00000E+00
    0.34957E-07        -0.10847E-11         0.00000E+00
    0.34963E-07        -0.54785E-12         0.00000E+00
POINT_DATA        496
VECTORS vDarcyNodal double 
    0.37200E-09         0.00000E+00         0.00000E+00
    0.37199E-09         0.00000E+00         0.00000E+00
    0.37198E-09         0.00000E+00         0.00000E+00
    0.37196E-09         0.00000E+00         0.00000E+00
    0.37194E-09         0.00000E+00         0.00000E+00
    0.37191E-09         0.00000E+00         0.00000E+00
    0.37189E-09         0.00000E+00         0.00000E+00
    0.37187E-09         0.00000E+00         0.00000E+00
    0.37184E-09         0.00000E+00         0.00000E+00
    0.37182E-09         0.00000E+00         0.00000E+00
    0.37180E-09         0.00000E+00         0.00000E+00
    0.37178E-09         0.00000E+00         0.00000E+00
    0.37177E-09        -0.33268E-22         0.00000E+00
    0.37176E-09        -0.55592E-27         0.00000E+00
    0.37175E-09         0.33267E-22         0.00000E+00
    0.37174E-09         0.00000E+00         0.00000E+00
    0.38513E-09         0.21442E-14         0.00000E+00
    0.38513E-09         0.41036E-14         0.00000E+00
    0.38511E-09         0.76108E-14         0.00000E+00
    0.38509E-09         0.10269E-13         0.00000E+00
    0.38507E-09         0.12091E-13         0.00000E+00
    0.38505E-09         0.13165E-13         0.00000E+00
    0.38502E-09         0.13592E-13         0.00000E+00
    0.38500E-09         0.13475E-13         0.00000E+00
    0.38497E-09         0.12905E-13         0.00000E+00
    0.38495E-09         0.11954E-13         0.00000E+00
    0.38493E-09         0.10675E-13         0.00000E+00
    0.38491E-09         0.90969E-14         0.00000E+00
    0.38490E-09         0.72312E-14         0.00000E+00
    0.38488E-09         0.50719E-14         0.00000E+00
    0.38487E-09         0.26294E-14         0.00000E+00
    0.38487E-09         0.13419E-14         0.00000E+00
    0.42525E-09         0.45167E-14         0.00000E+00
    0.42524E-09         0.85821E-14         0.00000E+00
    0.42523E-09         0.15798E-13         0.00000E+00
    0.42520E-09         0.21198E-13         0.00000E+00
    0.42518E-09         0.24869E-13         0.00000E+00
    0.42515E-09         0.26993E-13         0.00000E+00
    0.42513E-09         0.27794E-13         0.00000E+00
    0.42510E-09         0.27492E-13         0.00000E+00
    0.42508E-09         0.26281E-13         0.00000E+00
    0.42505E-09         0.24313E-13         0.00000E+00
    0.42503E-09         0.21694E-13         0.00000E+00
    0.42501E-09         0.18484E-13         0.00000E+00
    0.42499E-09         0.14702E-13         0.00000E+00
    0.42498E-09         0.10342E-13         0.00000E+00
    0.42497E-09         0.53947E-14         0.00000E+00
    0.42496E-09         0.27727E-14         0.00000E+00
    0.49450E-09         0.72418E-14         0.00000E+00
    0.49449E-09         0.13700E-13         0.00000E+00
    0.49447E-09         0.25068E-13         0.00000E+00
    0.49444E-09         0.33418E-13         0.00000E+00
    0.49442E-09         0.38980E-13         0.00000E+00
    0.49439E-09         0.42096E-13         0.00000E+00
    0.49436E-09         0.43152E-13         0.00000E+00
    0.49433E-09         0.42521E-13         0.00000E+00
    0.49430E-09         0.40524E-13         0.00000E+00
    0.49427E-09         0.37408E-13         0.00000E+00
    0.49425E-09         0.33338E-13         0.00000E+00
    0.49422E-09         0.28398E-13         0.00000E+00
    0.49421E-09         0.22607E-13         0.00000E+00
    0.49419E-09         0.15936E-13         0.00000E+00
    0.49418E-09         0.83327E-14         0.00000E+00
    0.49417E-09         0.42906E-14         0.00000E+00
    0.59652E-09         0.10485E-13         0.00000E+00
    0.59651E-09         0.19750E-13         0.00000E+00
    0.59648E-09         0.35903E-13         0.00000E+00
    0.59645E-09         0.47492E-13         0.00000E+00
    0.59641E-09         0.54981E-13         0.00000E+00
    0.59638E-09         0.58965E-13         0.00000E+00
    0.59634E-09         0.60067E-13         0.00000E+00
    0.59631E-09         0.58872E-13         0.00000E+00
    0.59628E-09         0.55868E-13         0.00000E+00
    0.59625E-09         0.51417E-13         0.00000E+00
    0.59622E-09         0.45747E-13         0.00000E+00
    0.59619E-09         0.38958E-13         0.00000E+00
    0.59617E-09         0.31046E-13         0.00000E+00
    0.59615E-09         0.21931E-13         0.00000E+00
    0.59614E-09         0.11494E-13         0.00000E+00
    0.59613E-09         0.59290E-14         0.00000E+00
    0.73652E-09         0.14418E-13         0.00000E+00
    0.73650E-09         0.27022E-13         0.00000E+00
    0.73647E-09         0.48746E-13         0.00000E+00
    0.73643E-09         0.63878E-13         0.00000E+00
    0.73638E-09         0.73258E-13         0.00000E+00
    0.73634E-09         0.77866E-13         0.00000E+00
    0.73630E-09         0.78678E-13         0.00000E+00
    0.73626E-09         0.76573E-13         0.00000E+00
    0.73622E-09         0.72260E-13         0.00000E+00
    0.73618E-09         0.66245E-13         0.00000E+00
    0.73615E-09         0.58820E-13         0.00000E+00
    0.73612E-09         0.50084E-13         0.00000E+00
    0.73609E-09         0.39976E-13         0.00000E+00
    0.73607E-09         0.28321E-13         0.00000E+00
    0.73606E-09         0.14888E-13         0.00000E+00
    0.73605E-09         0.76970E-14         0.00000E+00
    0.92137E-09         0.19195E-13         0.00000E+00
    0.92135E-09         0.35763E-13         0.00000E+00
    0.92130E-09         0.63930E-13         0.00000E+00
    0.92125E-09         0.82829E-13         0.00000E+00
    0.92120E-09         0.93897E-13         0.00000E+00
    0.92114E-09         0.98688E-13         0.00000E+00
    0.92109E-09         0.98690E-13         0.00000E+00
    0.92105E-09         0.95187E-13         0.00000E+00
    0.92100E-09         0.89184E-13         0.00000E+00
    0.92096E-09         0.81361E-13         0.00000E+00
    0.92092E-09         0.72074E-13         0.00000E+00
    0.92089E-09         0.61386E-13         0.00000E+00
    0.92086E-09         0.49124E-13         0.00000E+00
    0.92083E-09         0.34952E-13         0.00000E+00
    0.92081E-09         0.18455E-13         0.00000E+00
    0.92080E-09         0.95718E-14         0.00000E+00
    0.11597E-08         0.24929E-13         0.00000E+00
    0.11597E-08         0.46124E-13         0.00000E+00
    0.11597E-08         0.81564E-13         0.00000E+00
    0.11596E-08         0.10423E-12         0.00000E+00
    0.11595E-08         0.11648E-12         0.00000E+00
    0.11595E-08         0.12071E-12         0.00000E+00
    0.11594E-08         0.11913E-12         0.00000E+00
    0.11593E-08         0.11357E-12         0.00000E+00
    0.11593E-08         0.10542E-12         0.00000E+00
    0.11592E-08         0.95583E-13         0.00000E+00
    0.11592E-08         0.84450E-13         0.00000E+00
    0.11592E-08         0.72001E-13         0.00000E+00
    0.11591E-08         0.57867E-13         0.00000E+00
    0.11591E-08         0.41446E-13         0.00000E+00
    0.11591E-08         0.22029E-13         0.00000E+00
    0.11591E-08         0.11479E-13         0.00000E+00
    0.14622E-08         0.31644E-13         0.00000E+00
    0.14621E-08         0.58069E-13         0.00000E+00
    0.14621E-08         0.10136E-12         0.00000E+00
    0.14620E-08         0.12737E-12         0.00000E+00
    0.14619E-08         0.13981E-12         0.00000E+00
    0.14618E-08         0.14228E-12         0.00000E+00
    0.14617E-08         0.13799E-12         0.00000E+00
    0.14617E-08         0.12952E-12         0.00000E+00
    0.14616E-08         0.11874E-12         0.00000E+00
    0.14616E-08         0.10678E-12         0.00000E+00
    0.14615E-08         0.94060E-13         0.00000E+00
    0.14615E-08         0.80390E-13         0.00000E+00
    0.14614E-08         0.65076E-13         0.00000E+00
    0.14614E-08         0.47099E-13         0.00000E+00
    0.14614E-08         0.25286E-13         0.00000E+00
    0.14613E-08         0.13271E-13         0.00000E+00
    0.18412E-08         0.39208E-13         0.00000E+00
    0.18411E-08         0.71244E-13         0.00000E+00
    0.18410E-08         0.12239E-12         0.00000E+00
    0.18409E-08         0.15058E-12         0.00000E+00
    0.18408E-08         0.16147E-12         0.00000E+00
    0.18407E-08         0.16037E-12         0.00000E+00
    0.18406E-08         0.15181E-12         0.00000E+00
    0.18405E-08         0.13935E-12         0.00000E+00
    0.18405E-08         0.12544E-12         0.00000E+00
    0.18404E-08         0.11149E-12         0.00000E+00
    0.18404E-08         0.97860E-13         0.00000E+00
    0.18403E-08         0.84064E-13         0.00000E+00
    0.18403E-08         0.68910E-13         0.00000E+00
    0.18402E-08         0.50741E-13         0.00000E+00
    0.18402E-08         0.27681E-13         0.00000E+00
    0.18402E-08         0.14689E-13         0.00000E+00
    0.23112E-08         0.47233E-13         0.00000E+00
    0.23111E-08         0.84785E-13         0.00000E+00
    0.23109E-08         0.14274E-12         0.00000E+00
    0.23108E-08         0.17078E-12         0.00000E+00
    0.23107E-08         0.17735E-12         0.00000E+00
    0.23106E-08         0.17002E-12         0.00000E+00
    0.23105E-08         0.15510E-12         0.00000E+00
    0.23104E-08         0.13734E-12         0.00000E+00
    0.23103E-08         0.11992E-12         0.00000E+00
    0.23103E-08         0.10449E-12         0.00000E+00
    0.23102E-08         0.91258E-13         0.00000E+00
    0.23102E-08         0.79263E-13         0.00000E+00
    0.23101E-08         0.66567E-13         0.00000E+00
    0.23101E-08         0.50573E-13         0.00000E+00
    0.23100E-08         0.28362E-13         0.00000E+00
    0.23100E-08         0.15330E-13         0.00000E+00
    0.28884E-08         0.54936E-13         0.00000E+00
    0.28883E-08         0.97060E-13         0.00000E+00
    0.28881E-08         0.15903E-12         0.00000E+00
    0.28880E-08         0.18291E-12         0.00000E+00
    0.28878E-08         0.18092E-12         0.00000E+00
    0.28877E-08         0.16368E-12         0.00000E+00
    0.28876E-08         0.13968E-12         0.00000E+00
    0.28875E-08         0.11516E-12         0.00000E+00
    0.28874E-08         0.94081E-13         0.00000E+00
    0.28874E-08         0.78281E-13         0.00000E+00
    0.28873E-08         0.67686E-13         0.00000E+00
    0.28873E-08         0.60593E-13         0.00000E+00
    0.28872E-08         0.53996E-13         0.00000E+00
    0.28872E-08         0.43961E-13         0.00000E+00
    0.28871E-08         0.26065E-13         0.00000E+00
    0.28871E-08         0.14584E-13         0.00000E+00
    0.35908E-08         0.60957E-13         0.00000E+00
    0.35907E-08         0.10534E-12         0.00000E+00
    0.35905E-08         0.16588E-12         0.00000E+00
    0.35903E-08         0.17921E-12         0.00000E+00
    0.35901E-08         0.16260E-12         0.00000E+00
    0.35900E-08         0.13047E-12         0.00000E+00
    0.35899E-08         0.94044E-13         0.00000E+00
    0.35898E-08         0.61223E-13         0.00000E+00
    0.35897E-08         0.36781E-13         0.00000E+00
    0.35897E-08         0.22632E-13         0.00000E+00
    0.35897E-08         0.18172E-13         0.00000E+00
    0.35896E-08         0.20655E-13         0.00000E+00
    0.35896E-08         0.25596E-13         0.00000E+00
    0.35895E-08         0.27220E-13         0.00000E+00
    0.35894E-08         0.18998E-13         0.00000E+00
    0.35894E-08         0.11579E-13         0.00000E+00
    0.44374E-08         0.63140E-13         0.00000E+00
    0.44372E-08         0.10542E-12         0.00000E+00
    0.44369E-08         0.15524E-12         0.00000E+00
    0.44367E-08         0.14850E-12         0.00000E+00
    0.44365E-08         0.10890E-12         0.00000E+00
    0.44363E-08         0.55550E-13         0.00000E+00
    0.44363E-08         0.27610E-14         0.00000E+00
    0.44362E-08        -0.39767E-13         0.00000E+00
    0.44362E-08        -0.66546E-13         0.00000E+00
    0.44362E-08        -0.75805E-13         0.00000E+00
    0.44361E-08        -0.68986E-13         0.00000E+00
    0.44361E-08        -0.50258E-13         0.00000E+00
    0.44361E-08        -0.26064E-13         0.00000E+00
    0.44360E-08        -0.46127E-14         0.00000E+00
    0.44359E-08         0.47086E-14         0.00000E+00
    0.44359E-08         0.51110E-14         0.00000E+00
    0.54474E-08         0.58289E-13         0.00000E+00
    0.54472E-08         0.91171E-13         0.00000E+00
    0.54468E-08         0.11574E-12         0.00000E+00
    0.54465E-08         0.75468E-13         0.00000E+00
    0.54463E-08         0.19176E-14         0.00000E+00
    0.54462E-08        -0.80395E-13         0.00000E+00
    0.54462E-08        -0.15383E-12         0.00000E+00
    0.54462E-08        -0.20701E-12         0.00000E+00
    0.54462E-08        -0.23401E-12         0.00000E+00
    0.54462E-08        -0.23355E-12         0.00000E+00
    0.54462E-08        -0.20831E-12         0.00000E+00
    0.54462E-08        -0.16430E-12         0.00000E+00
    0.54462E-08        -0.11041E-12         0.00000E+00
    0.54461E-08        -0.57951E-13         0.00000E+00
    0.54460E-08        -0.20027E-13         0.00000E+00
    0.54460E-08        -0.64312E-14         0.00000E+00
    0.66396E-08         0.41926E-13         0.00000E+00
    0.66393E-08         0.54171E-13         0.00000E+00
    0.66389E-08         0.32169E-13         0.00000E+00
    0.66385E-08        -0.59783E-13         0.00000E+00
    0.66384E-08        -0.18097E-12         0.00000E+00
    0.66383E-08        -0.30109E-12         0.00000E+00
    0.66383E-08        -0.39936E-12         0.00000E+00
    0.66383E-08        -0.46318E-12         0.00000E+00
    0.66384E-08        -0.48676E-12         0.00000E+00
    0.66385E-08        -0.46986E-12         0.00000E+00
    0.66385E-08        -0.41680E-12         0.00000E+00
    0.66386E-08        -0.33586E-12         0.00000E+00
    0.66386E-08        -0.23884E-12         0.00000E+00
    0.66385E-08        -0.14072E-12         0.00000E+00
    0.66384E-08        -0.59290E-13         0.00000E+00
    0.66383E-08        -0.25118E-13         0.00000E+00
    0.80303E-08         0.81134E-14         0.00000E+00
    0.80300E-08        -0.16547E-13         0.00000E+00
    0.80295E-08        -0.11478E-12         0.00000E+00
    0.80291E-08        -0.28164E-12         0.00000E+00
    0.80290E-08        -0.46658E-12         0.00000E+00
    0.80289E-08        -0.63380E-12         0.00000E+00
    0.80290E-08        -0.76023E-12         0.00000E+00
    0.80291E-08        -0.83308E-12         0.00000E+00
    0.80293E-08        -0.84765E-12         0.00000E+00
    0.80295E-08        -0.80543E-12         0.00000E+00
    0.80296E-08        -0.71290E-12         0.00000E+00
    0.80297E-08        -0.58087E-12         0.00000E+00
    0.80298E-08        -0.42428E-12         0.00000E+00
    0.80297E-08        -0.26224E-12         0.00000E+00
    0.80296E-08        -0.11801E-12         0.00000E+00
    0.80295E-08        -0.53505E-13         0.00000E+00
    0.96320E-08        -0.50570E-13         0.00000E+00
    0.96316E-08        -0.13443E-12         0.00000E+00
    0.96310E-08        -0.34806E-12         0.00000E+00
    0.96307E-08        -0.61801E-12         0.00000E+00
    0.96306E-08        -0.88432E-12         0.00000E+00
    0.96307E-08        -0.11072E-11         0.00000E+00
    0.96309E-08        -0.12631E-11         0.00000E+00
    0.96311E-08        -0.13409E-11         0.00000E+00
    0.96314E-08        -0.13385E-11         0.00000E+00
    0.96317E-08        -0.12600E-11         0.00000E+00
    0.96320E-08        -0.11145E-11         0.00000E+00
    0.96322E-08        -0.91526E-12         0.00000E+00
    0.96323E-08        -0.68026E-12         0.00000E+00
    0.96323E-08        -0.43272E-12         0.00000E+00
    0.96321E-08        -0.20183E-12         0.00000E+00
    0.96320E-08        -0.94593E-13         0.00000E+00
    0.11451E-07        -0.14278E-12         0.00000E+00
    0.11450E-07        -0.31482E-12         0.00000E+00
    0.11450E-07        -0.69284E-12         0.00000E+00
    0.11449E-07        -0.10979E-11         0.00000E+00
    0.11449E-07        -0.14629E-11         0.00000E+00
    0.11450E-07        -0.17472E-11         0.00000E+00
    0.11450E-07        -0.19304E-11         0.00000E+00
    0.11450E-07        -0.20058E-11         0.00000E+00
    0.11451E-07        -0.19759E-11         0.00000E+00
    0.11451E-07        -0.18485E-11         0.00000E+00
    0.11452E-07        -0.16356E-11         0.00000E+00
    0.11452E-07        -0.13525E-11         0.00000E+00
    0.11452E-07        -0.10192E-11         0.00000E+00
    0.11452E-07        -0.66231E-12         0.00000E+00
    0.11452E-07        -0.31671E-12         0.00000E+00
    0.11452E-07        -0.15168E-12         0.00000E+00
    0.13483E-07        -0.27775E-12         0.00000E+00
    0.13483E-07        -0.57352E-12         0.00000E+00
    0.13482E-07        -0.11737E-11         0.00000E+00
    0.13482E-07        -0.17471E-11         0.00000E+00
    0.13482E-07        -0.22248E-11         0.00000E+00
    0.13483E-07        -0.25713E-11         0.00000E+00
    0.13483E-07        -0.27741E-11         0.00000E+00
    0.13484E-07        -0.28354E-11         0.00000E+00
    0.13485E-07        -0.27650E-11         0.00000E+00
    0.13485E-07        -0.25756E-11         0.00000E+00
    0.13486E-07        -0.22819E-11         0.00000E+00
    0.13486E-07        -0.18998E-11         0.00000E+00
    0.13486E-07        -0.14498E-11         0.00000E+00
    0.13486E-07        -0.95952E-12         0.00000E+00
    0.13486E-07        -0.46824E-12         0.00000E+00
    0.13486E-07        -0.22806E-12         0.00000E+00
    0.15715E-07        -0.46401E-12         0.00000E+00
    0.15715E-07        -0.92441E-12         0.00000E+00
    0.15714E-07        -0.18098E-11         0.00000E+00
    0.15714E-07        -0.25818E-11         0.00000E+00
    0.15715E-07        -0.31789E-11         0.00000E+00
    0.15715E-07        -0.35795E-11         0.00000E+00
    0.15716E-07        -0.37869E-11         0.00000E+00
    0.15717E-07        -0.38177E-11         0.00000E+00
    0.15718E-07        -0.36919E-11         0.00000E+00
    0.15719E-07        -0.34288E-11         0.00000E+00
    0.15719E-07        -0.30444E-11         0.00000E+00
    0.15720E-07        -0.25535E-11         0.00000E+00
    0.15720E-07        -0.19732E-11         0.00000E+00
    0.15721E-07        -0.13289E-11         0.00000E+00
    0.15720E-07        -0.66052E-12         0.00000E+00
    0.15720E-07        -0.32646E-12         0.00000E+00
    0.18116E-07        -0.70746E-12         0.00000E+00
    0.18116E-07        -0.13757E-11         0.00000E+00
    0.18116E-07        -0.26082E-11         0.00000E+00
    0.18116E-07        -0.35994E-11         0.00000E+00
    0.18117E-07        -0.43096E-11         0.00000E+00
    0.18118E-07        -0.47442E-11         0.00000E+00
    0.18119E-07        -0.49324E-11         0.00000E+00
    0.18120E-07        -0.49114E-11         0.00000E+00
    0.18121E-07        -0.47156E-11         0.00000E+00
    0.18122E-07        -0.43709E-11         0.00000E+00
    0.18123E-07        -0.38935E-11         0.00000E+00
    0.18124E-07        -0.32932E-11         0.00000E+00
    0.18125E-07        -0.25790E-11         0.00000E+00
    0.18125E-07        -0.17678E-11         0.00000E+00
    0.18125E-07        -0.89462E-12         0.00000E+00
    0.18125E-07        -0.44834E-12         0.00000E+00
    0.20641E-07        -0.10088E-11         0.00000E+00
    0.20641E-07        -0.19249E-11         0.00000E+00
    0.20641E-07        -0.35552E-11         0.00000E+00
    0.20642E-07        -0.47678E-11         0.00000E+00
    0.20643E-07        -0.55660E-11         0.00000E+00
    0.20644E-07        -0.59992E-11         0.00000E+00
    0.20646E-07        -0.61347E-11         0.00000E+00
    0.20647E-07        -0.60379E-11         0.00000E+00
    0.20649E-07        -0.57598E-11         0.00000E+00
    0.20650E-07        -0.53331E-11         0.00000E+00
    0.20651E-07        -0.47718E-11         0.00000E+00
    0.20652E-07        -0.40759E-11         0.00000E+00
    0.20653E-07        -0.32396E-11         0.00000E+00
    0.20653E-07        -0.22629E-11         0.00000E+00
    0.20653E-07        -0.11665E-11         0.00000E+00
    0.20653E-07        -0.59272E-12         0.00000E+00
    0.23225E-07        -0.13600E-11         0.00000E+00
    0.23225E-07        -0.25533E-11         0.00000E+00
    0.23226E-07        -0.46062E-11         0.00000E+00
    0.23227E-07        -0.60135E-11         0.00000E+00
    0.23229E-07        -0.68496E-11         0.00000E+00
    0.23230E-07        -0.72296E-11         0.00000E+00
    0.23232E-07        -0.72719E-11         0.00000E+00
    0.23234E-07        -0.70755E-11         0.00000E+00
    0.23235E-07        -0.67097E-11         0.00000E+00
    0.23237E-07        -0.62119E-11         0.00000E+00
    0.23238E-07        -0.55907E-11         0.00000E+00
    0.23239E-07        -0.48316E-11         0.00000E+00
    0.23240E-07        -0.39059E-11         0.00000E+00
    0.23241E-07        -0.27860E-11         0.00000E+00
    0.23241E-07        -0.14648E-11         0.00000E+00
    0.23241E-07        -0.75504E-12         0.00000E+00
    0.25785E-07        -0.17417E-11         0.00000E+00
    0.25786E-07        -0.32196E-11         0.00000E+00
    0.25787E-07        -0.56755E-11         0.00000E+00
    0.25789E-07        -0.72099E-11         0.00000E+00
    0.25791E-07        -0.80054E-11         0.00000E+00
    0.25794E-07        -0.82670E-11         0.00000E+00
    0.25796E-07        -0.81748E-11         0.00000E+00
    0.25797E-07        -0.78627E-11         0.00000E+00
    0.25799E-07        -0.74149E-11         0.00000E+00
    0.25801E-07        -0.68708E-11         0.00000E+00
    0.25802E-07        -0.62306E-11         0.00000E+00
    0.25804E-07        -0.54612E-11         0.00000E+00
    0.25805E-07        -0.45039E-11         0.00000E+00
    0.25806E-07        -0.32904E-11         0.00000E+00
    0.25806E-07        -0.17684E-11         0.00000E+00
    0.25806E-07        -0.92574E-12         0.00000E+00
    0.28223E-07        -0.21193E-11         0.00000E+00
    0.28225E-07        -0.38541E-11         0.00000E+00
    0.28227E-07        -0.66269E-11         0.00000E+00
    0.28230E-07        -0.81692E-11         0.00000E+00
    0.28233E-07        -0.88191E-11         0.00000E+00
    0.28236E-07        -0.88947E-11         0.00000E+00
    0.28238E-07        -0.86394E-11         0.00000E+00
    0.28240E-07        -0.82129E-11         0.00000E+00
    0.28242E-07        -0.77055E-11         0.00000E+00
    0.28243E-07        -0.71534E-11         0.00000E+00
    0.28245E-07        -0.65484E-11         0.00000E+00
    0.28246E-07        -0.58391E-11         0.00000E+00
    0.28248E-07        -0.49332E-11         0.00000E+00
    0.28249E-07        -0.37084E-11         0.00000E+00
    0.28250E-07        -0.20445E-11         0.00000E+00
    0.28250E-07        -0.10892E-11         0.00000E+00
    0.30431E-07        -0.24409E-11         0.00000E+00
    0.30433E-07        -0.43537E-11         0.00000E+00
    0.30438E-07        -0.72647E-11         0.00000E+00
    0.30442E-07        -0.86377E-11         0.00000E+00
    0.30445E-07        -0.90250E-11         0.00000E+00
    0.30448E-07        -0.88690E-11         0.00000E+00
    0.30450E-07        -0.84558E-11         0.00000E+00
    0.30452E-07        -0.79462E-11         0.00000E+00
    0.30454E-07        -0.74207E-11         0.00000E+00
    0.30456E-07        -0.69082E-11         0.00000E+00
    0.30457E-07        -0.63954E-11         0.00000E+00
    0.30459E-07        -0.58220E-11         0.00000E+00
    0.30460E-07        -0.50680E-11         0.00000E+00
    0.30462E-07        -0.39488E-11         0.00000E+00
    0.30464E-07        -0.22467E-11         0.00000E+00
    0.30464E-07        -0.12224E-11         0.00000E+00
    0.32298E-07        -0.26318E-11         0.00000E+00
    0.32301E-07        -0.45703E-11         0.00000E+00
    0.32307E-07        -0.73200E-11         0.00000E+00
    0.32312E-07        -0.82977E-11         0.00000E+00
    0.32316E-07        -0.83362E-11         0.00000E+00
    0.32319E-07        -0.79688E-11         0.00000E+00
    0.32321E-07        -0.74612E-11         0.00000E+00
    0.32323E-07        -0.69368E-11         0.00000E+00
    0.32325E-07        -0.64527E-11         0.00000E+00
    0.32327E-07        -0.60269E-11         0.00000E+00
    0.32328E-07        -0.56473E-11         0.00000E+00
    0.32330E-07        -0.52658E-11         0.00000E+00
    0.32331E-07        -0.47614E-11         0.00000E+00
    0.32333E-07        -0.38934E-11         0.00000E+00
    0.32336E-07        -0.23130E-11         0.00000E+00
    0.32337E-07        -0.12960E-11         0.00000E+00
    0.33718E-07        -0.25770E-11         0.00000E+00
    0.33723E-07        -0.42795E-11         0.00000E+00
    0.33731E-07        -0.64173E-11         0.00000E+00
    0.33737E-07        -0.67909E-11         0.00000E+00
    0.33741E-07        -0.65271E-11         0.00000E+00
    0.33744E-07        -0.60830E-11         0.00000E+00
    0.33747E-07        -0.56070E-11         0.00000E+00
    0.33748E-07        -0.51671E-11         0.00000E+00
    0.33750E-07        -0.47919E-11         0.00000E+00
    0.33751E-07        -0.44899E-11         0.00000E+00
    0.33753E-07        -0.42547E-11         0.00000E+00
    0.33754E-07        -0.40603E-11         0.00000E+00
    0.33756E-07        -0.38489E-11         0.00000E+00
    0.33758E-07        -0.33879E-11         0.00000E+00
    0.33762E-07        -0.21505E-11         0.00000E+00
    0.33763E-07        -0.12545E-11         0.00000E+00
    0.34608E-07        -0.20075E-11         0.00000E+00
    0.34614E-07        -0.30290E-11         0.00000E+00
    0.34624E-07        -0.40277E-11         0.00000E+00
    0.34630E-07        -0.38886E-11         0.00000E+00
    0.34635E-07        -0.36174E-11         0.00000E+00
    0.34638E-07        -0.33088E-11         0.00000E+00
    0.34640E-07        -0.30175E-11         0.00000E+00
    0.34642E-07        -0.27644E-11         0.00000E+00
    0.34643E-07        -0.25588E-11         0.00000E+00
    0.34644E-07        -0.24031E-11         0.00000E+00
    0.34646E-07        -0.22955E-11         0.00000E+00
    0.34647E-07        -0.22304E-11         0.00000E+00
    0.34649E-07        -0.21890E-11         0.00000E+00
    0.34651E-07        -0.21702E-11         0.00000E+00
    0.34655E-07        -0.16328E-11         0.00000E+00
    0.34658E-07        -0.10958E-11         0.00000E+00
    0.34911E-07         0.00000E+00         0.00000E+00
    0.34918E-07         0.00000E+00         0.00000E+00
    0.34928E-07        -0.99347E-22         0.00000E+00
    0.34935E-07         0.25466E-25         0.00000E+00
    0.34939E-07         0.10351E-21         0.00000E+00
    0.34942E-07         0.00000E+00         0.00000E+00
    0.34944E-07         0.00000E+00         0.00000E+00
    0.34946E-07        -0.99435E-22         0.00000E+00
    0.34947E-07        -0.99435E-22         0.00000E+00
    0.34949E-07         0.99456E-22         0.00000E+00
    0.34950E-07         0.10360E-21         0.00000E+00
    0.34951E-07        -0.10362E-21         0.00000E+00
    0.34953E-07        -0.41334E-23         0.00000E+00
    0.34956E-07         0.10364E-21         0.00000E+00
    0.34960E-07         0.82920E-23         0.00000E+00
    0.34963E-07         0.00000E+00         0.00000E+00
CELL_DATA        450
TENSORS stressef double 
    0.10493E+08         0.61085E+04         0.00000E+00
    0.61085E+04        -0.19303E+05         0.00000E+00
    0.00000E+00         0.00000E+00         0.20946E+07
 
    0.98383E+07         0.27916E+05         0.00000E+00
    0.27916E+05         0.17636E+05         0.00000E+00
    0.00000E+00         0.00000E+00         0.19712E+07
 
    0.91411E+07         0.45253E+05         0.00000E+00
    0.45253E+05         0.92005E+05         0.00000E+00
    0.00000E+00         0.00000E+00         0.18466E+07
 
    0.84102E+07         0.57938E+05         0.00000E+00
    0.57938E+05         0.19555E+06         0.00000E+00
    0.00000E+00         0.00000E+00         0.17212E+07
 
    0.76597E+07         0.67310E+05         0.00000E+00
    0.67310E+05         0.32078E+06         0.00000E+00
    0.00000E+00         0.00000E+00         0.15961E+07
 
    0.69022E+07         0.74412E+05         0.00000E+00
    0.74412E+05         0.46226E+06         0.00000E+00
    0.00000E+00         0.00000E+00         0.14729E+07
 
    0.61475E+07         0.80079E+05         0.00000E+00
    0.80079E+05         0.61640E+06         0.00000E+00
    0.00000E+00         0.00000E+00         0.13528E+07
 
    0.54037E+07         0.84926E+05         0.00000E+00
    0.84926E+05         0.78100E+06         0.00000E+00
    0.00000E+00         0.00000E+00         0.12369E+07
 
    0.46767E+07         0.89363E+05         0.00000E+00
    0.89363E+05         0.95487E+06         0.00000E+00
    0.00000E+00         0.00000E+00         0.11263E+07
 
    0.39712E+07         0.93618E+05         0.00000E+00
    0.93618E+05         0.11375E+07         0.00000E+00
    0.00000E+00         0.00000E+00         0.10217E+07
 
    0.32908E+07         0.97775E+05         0.00000E+00
    0.97775E+05         0.13286E+07         0.00000E+00
    0.00000E+00         0.00000E+00         0.92388E+06
 
    0.26383E+07         0.10183E+06         0.00000E+00
    0.10183E+06         0.15280E+07         0.00000E+00
    0.00000E+00         0.00000E+00         0.83326E+06
 
    0.20157E+07         0.10580E+06         0.00000E+00
    0.10580E+06         0.17355E+07         0.00000E+00
    0.00000E+00         0.00000E+00         0.75025E+06
 
    0.14235E+07         0.10996E+06         0.00000E+00
    0.10996E+06         0.19513E+07         0.00000E+00
    0.00000E+00         0.00000E+00         0.67497E+06
 
    0.85431E+06         0.11808E+06         0.00000E+00
    0.11808E+06         0.21782E+07         0.00000E+00
    0.00000E+00         0.00000E+00         0.60650E+06
 
    0.10476E+08         0.29840E+05         0.00000E+00
    0.29840E+05        -0.68032E+05         0.00000E+00
    0.00000E+00         0.00000E+00         0.20817E+07
 
    0.98222E+07         0.88193E+05         0.00000E+00
    0.88193E+05        -0.22700E+05         0.00000E+00
    0.00000E+00         0.00000E+00         0.19599E+07
 
    0.91159E+07         0.13672E+06         0.00000E+00
    0.13672E+06         0.55046E+05         0.00000E+00
    0.00000E+00         0.00000E+00         0.18342E+07
 
    0.83776E+07         0.17335E+06         0.00000E+00
    0.17335E+06         0.15858E+06         0.00000E+00
    0.00000E+00         0.00000E+00         0.17072E+07
 
    0.76218E+07         0.20069E+06         0.00000E+00
    0.20069E+06         0.28191E+06         0.00000E+00
    0.00000E+00         0.00000E+00         0.15807E+07
 
    0.68607E+07         0.22158E+06         0.00000E+00
    0.22158E+06         0.42041E+06         0.00000E+00
    0.00000E+00         0.00000E+00         0.14562E+07
 
    0.61040E+07         0.23840E+06         0.00000E+00
    0.23840E+06         0.57100E+06         0.00000E+00
    0.00000E+00         0.00000E+00         0.13350E+07
 
    0.53591E+07         0.25294E+06         0.00000E+00
    0.25294E+06         0.73188E+06         0.00000E+00
    0.00000E+00         0.00000E+00         0.12182E+07
 
    0.46316E+07         0.26639E+06         0.00000E+00
    0.26639E+06         0.90219E+06         0.00000E+00
    0.00000E+00         0.00000E+00         0.11068E+07
 
    0.39259E+07         0.27942E+06         0.00000E+00
    0.27942E+06         0.10816E+07         0.00000E+00
    0.00000E+00         0.00000E+00         0.10015E+07
 
    0.32453E+07         0.29225E+06         0.00000E+00
    0.29225E+06         0.12702E+07         0.00000E+00
    0.00000E+00         0.00000E+00         0.90310E+06
 
    0.25926E+07         0.30485E+06         0.00000E+00
    0.30485E+06         0.14678E+07         0.00000E+00
    0.00000E+00         0.00000E+00         0.81209E+06
 
    0.19701E+07         0.31722E+06         0.00000E+00
    0.31722E+06         0.16745E+07         0.00000E+00
    0.00000E+00         0.00000E+00         0.72891E+06
 
    0.13792E+07         0.33032E+06         0.00000E+00
    0.33032E+06         0.18901E+07         0.00000E+00
    0.00000E+00         0.00000E+00         0.65385E+06
 
    0.82445E+06         0.34948E+06         0.00000E+00
    0.34948E+06         0.21144E+07         0.00000E+00
    0.00000E+00         0.00000E+00         0.58778E+06
 
    0.10501E+08         0.56724E+05         0.00000E+00
    0.56724E+05        -0.12774E+06         0.00000E+00
    0.00000E+00         0.00000E+00         0.20746E+07
 
    0.98327E+07         0.15310E+06         0.00000E+00
    0.15310E+06        -0.81523E+05         0.00000E+00
    0.00000E+00         0.00000E+00         0.19502E+07
 
    0.91109E+07         0.22885E+06         0.00000E+00
    0.22885E+06        -0.31830E+04         0.00000E+00
    0.00000E+00         0.00000E+00         0.18215E+07
 
    0.83590E+07         0.28650E+06         0.00000E+00
    0.28650E+06         0.97977E+05         0.00000E+00
    0.00000E+00         0.00000E+00         0.16914E+07
 
    0.75933E+07         0.32996E+06         0.00000E+00
    0.32996E+06         0.21642E+06         0.00000E+00
    0.00000E+00         0.00000E+00         0.15619E+07
 
    0.68256E+07         0.36357E+06         0.00000E+00
    0.36357E+06         0.34838E+06         0.00000E+00
    0.00000E+00         0.00000E+00         0.14348E+07
 
    0.60651E+07         0.39108E+06         0.00000E+00
    0.39108E+06         0.49155E+06         0.00000E+00
    0.00000E+00         0.00000E+00         0.13113E+07
 
    0.53182E+07         0.41534E+06         0.00000E+00
    0.41534E+06         0.64479E+06         0.00000E+00
    0.00000E+00         0.00000E+00         0.11926E+07
 
    0.45900E+07         0.43825E+06         0.00000E+00
    0.43825E+06         0.80780E+06         0.00000E+00
    0.00000E+00         0.00000E+00         0.10796E+07
 
    0.38841E+07         0.46083E+06         0.00000E+00
    0.46083E+06         0.98078E+06         0.00000E+00
    0.00000E+00         0.00000E+00         0.97298E+06
 
    0.32034E+07         0.48337E+06         0.00000E+00
    0.48337E+06         0.11641E+07         0.00000E+00
    0.00000E+00         0.00000E+00         0.87349E+06
 
    0.25504E+07         0.50572E+06         0.00000E+00
    0.50572E+06         0.13579E+07         0.00000E+00
    0.00000E+00         0.00000E+00         0.78165E+06
 
    0.19277E+07         0.52768E+06         0.00000E+00
    0.52768E+06         0.15621E+07         0.00000E+00
    0.00000E+00         0.00000E+00         0.69797E+06
 
    0.13389E+07         0.54989E+06         0.00000E+00
    0.54989E+06         0.17762E+07         0.00000E+00
    0.00000E+00         0.00000E+00         0.62301E+06
 
    0.79029E+06         0.57402E+06         0.00000E+00
    0.57402E+06         0.19970E+07         0.00000E+00
    0.00000E+00         0.00000E+00         0.55746E+06
 
    0.10562E+08         0.82353E+05         0.00000E+00
    0.82353E+05        -0.19784E+06         0.00000E+00
    0.00000E+00         0.00000E+00         0.20729E+07
 
    0.98648E+07         0.21663E+06         0.00000E+00
    0.21663E+06        -0.15452E+06         0.00000E+00
    0.00000E+00         0.00000E+00         0.19420E+07
 
    0.91188E+07         0.31792E+06         0.00000E+00
    0.31792E+06        -0.80761E+05         0.00000E+00
    0.00000E+00         0.00000E+00         0.18076E+07
 
    0.83478E+07         0.39389E+06         0.00000E+00
    0.39389E+06         0.13677E+05         0.00000E+00
    0.00000E+00         0.00000E+00         0.16723E+07
 
    0.75684E+07         0.45131E+06         0.00000E+00
    0.45131E+06         0.12304E+06         0.00000E+00
    0.00000E+00         0.00000E+00         0.15383E+07
 
    0.67919E+07         0.49630E+06         0.00000E+00
    0.49630E+06         0.24415E+06         0.00000E+00
    0.00000E+00         0.00000E+00         0.14072E+07
 
    0.60264E+07         0.53395E+06         0.00000E+00
    0.53395E+06         0.37551E+06         0.00000E+00
    0.00000E+00         0.00000E+00         0.12804E+07
 
    0.52774E+07         0.56810E+06         0.00000E+00
    0.56810E+06         0.51681E+06         0.00000E+00
    0.00000E+00         0.00000E+00         0.11588E+07
 
    0.45487E+07         0.60125E+06         0.00000E+00
    0.60125E+06         0.66852E+06         0.00000E+00
    0.00000E+00         0.00000E+00         0.10434E+07
 
    0.38430E+07         0.63467E+06         0.00000E+00
    0.63467E+06         0.83145E+06         0.00000E+00
    0.00000E+00         0.00000E+00         0.93489E+06
 
    0.31624E+07         0.66860E+06         0.00000E+00
    0.66860E+06         0.10065E+07         0.00000E+00
    0.00000E+00         0.00000E+00         0.83377E+06
 
    0.25090E+07         0.70254E+06         0.00000E+00
    0.70254E+06         0.11941E+07         0.00000E+00
    0.00000E+00         0.00000E+00         0.74063E+06
 
    0.18856E+07         0.73566E+06         0.00000E+00
    0.73566E+06         0.13943E+07         0.00000E+00
    0.00000E+00         0.00000E+00         0.65598E+06
 
    0.12963E+07         0.76716E+06         0.00000E+00
    0.76716E+06         0.16056E+07         0.00000E+00
    0.00000E+00         0.00000E+00         0.58039E+06
 
    0.74745E+06         0.79617E+06         0.00000E+00
    0.79617E+06         0.18250E+07         0.00000E+00
    0.00000E+00         0.00000E+00         0.51449E+06
 
    0.10655E+08         0.10558E+06         0.00000E+00
    0.10558E+06        -0.28261E+06         0.00000E+00
    0.00000E+00         0.00000E+00         0.20744E+07
 
    0.99122E+07         0.27467E+06         0.00000E+00
    0.27467E+06        -0.24424E+06         0.00000E+00
    0.00000E+00         0.00000E+00         0.19336E+07
 
    0.91326E+07         0.39907E+06         0.00000E+00
    0.39907E+06        -0.17910E+06         0.00000E+00
    0.00000E+00         0.00000E+00         0.17907E+07
 
    0.83370E+07         0.49087E+06         0.00000E+00
    0.49087E+06        -0.96195E+05         0.00000E+00
    0.00000E+00         0.00000E+00         0.16482E+07
 
    0.75408E+07         0.56012E+06         0.00000E+00
    0.56012E+06        -0.83098E+03         0.00000E+00
    0.00000E+00         0.00000E+00         0.15080E+07
 
    0.67541E+07         0.61511E+06         0.00000E+00
    0.61511E+06         0.10449E+06         0.00000E+00
    0.00000E+00         0.00000E+00         0.13717E+07
 
    0.59834E+07         0.66243E+06         0.00000E+00
    0.66243E+06         0.21918E+06         0.00000E+00
    0.00000E+00         0.00000E+00         0.12405E+07
 
    0.52327E+07         0.70686E+06         0.00000E+00
    0.70686E+06         0.34388E+06         0.00000E+00
    0.00000E+00         0.00000E+00         0.11153E+07
 
    0.45044E+07         0.75143E+06         0.00000E+00
    0.75143E+06         0.47997E+06         0.00000E+00
    0.00000E+00         0.00000E+00         0.99688E+06
 
    0.37998E+07         0.79754E+06         0.00000E+00
    0.79754E+06         0.62907E+06         0.00000E+00
    0.00000E+00         0.00000E+00         0.88577E+06
 
    0.31199E+07         0.84517E+06         0.00000E+00
    0.84517E+06         0.79266E+06         0.00000E+00
    0.00000E+00         0.00000E+00         0.78251E+06
 
    0.24661E+07         0.89323E+06         0.00000E+00
    0.89323E+06         0.97170E+06         0.00000E+00
    0.00000E+00         0.00000E+00         0.68756E+06
 
    0.18408E+07         0.93985E+06         0.00000E+00
    0.93985E+06         0.11662E+07         0.00000E+00
    0.00000E+00         0.00000E+00         0.60140E+06
 
    0.12480E+07         0.98269E+06         0.00000E+00
    0.98269E+06         0.13748E+07         0.00000E+00
    0.00000E+00         0.00000E+00         0.52455E+06
 
    0.69345E+06         0.10190E+07         0.00000E+00
    0.10190E+07         0.15944E+07         0.00000E+00
    0.00000E+00         0.00000E+00         0.45758E+06
 
    0.10767E+08         0.12560E+06         0.00000E+00
    0.12560E+06        -0.38731E+06         0.00000E+00
    0.00000E+00         0.00000E+00         0.20759E+07
 
    0.99663E+07         0.32434E+06         0.00000E+00
    0.32434E+06        -0.35561E+06         0.00000E+00
    0.00000E+00         0.00000E+00         0.19221E+07
 
    0.91441E+07         0.46794E+06         0.00000E+00
    0.46794E+06        -0.30249E+06         0.00000E+00
    0.00000E+00         0.00000E+00         0.17683E+07
 
    0.83188E+07         0.57247E+06         0.00000E+00
    0.57247E+06        -0.23571E+06         0.00000E+00
    0.00000E+00         0.00000E+00         0.16166E+07
 
    0.75034E+07         0.65123E+06         0.00000E+00
    0.65123E+06        -0.15948E+06         0.00000E+00
    0.00000E+00         0.00000E+00         0.14688E+07
 
    0.67059E+07         0.71486E+06         0.00000E+00
    0.71486E+06        -0.75236E+05         0.00000E+00
    0.00000E+00         0.00000E+00         0.13261E+07
 
    0.59307E+07         0.77152E+06         0.00000E+00
    0.77152E+06         0.17557E+05         0.00000E+00
    0.00000E+00         0.00000E+00         0.11897E+07
 
    0.51799E+07         0.82694E+06         0.00000E+00
    0.82694E+06         0.12069E+06         0.00000E+00
    0.00000E+00         0.00000E+00         0.10601E+07
 
    0.44536E+07         0.88459E+06         0.00000E+00
    0.88459E+06         0.23660E+06         0.00000E+00
    0.00000E+00         0.00000E+00         0.93805E+06
 
    0.37516E+07         0.94584E+06         0.00000E+00
    0.94584E+06         0.36787E+06         0.00000E+00
    0.00000E+00         0.00000E+00         0.82390E+06
 
    0.30734E+07         0.10102E+07         0.00000E+00
    0.10102E+07         0.51677E+06         0.00000E+00
    0.00000E+00         0.00000E+00         0.71804E+06
 
    0.24193E+07         0.10758E+07         0.00000E+00
    0.10758E+07         0.68483E+06         0.00000E+00
    0.00000E+00         0.00000E+00         0.62083E+06
 
    0.17908E+07         0.11395E+07         0.00000E+00
    0.11395E+07         0.87240E+06         0.00000E+00
    0.00000E+00         0.00000E+00         0.53265E+06
 
    0.11914E+07         0.11973E+07         0.00000E+00
    0.11973E+07         0.10784E+07         0.00000E+00
    0.00000E+00         0.00000E+00         0.45396E+06
 
    0.62651E+06         0.12448E+07         0.00000E+00
    0.12448E+07         0.12999E+07         0.00000E+00
    0.00000E+00         0.00000E+00         0.38528E+06
 
    0.10886E+08         0.14162E+06         0.00000E+00
    0.14162E+06        -0.51826E+06         0.00000E+00
    0.00000E+00         0.00000E+00         0.20735E+07
 
    0.10015E+08         0.36309E+06         0.00000E+00
    0.36309E+06        -0.49492E+06         0.00000E+00
    0.00000E+00         0.00000E+00         0.19041E+07
 
    0.91429E+07         0.52049E+06         0.00000E+00
    0.52049E+06        -0.45709E+06         0.00000E+00
    0.00000E+00         0.00000E+00         0.17372E+07
 
    0.82838E+07         0.63375E+06         0.00000E+00
    0.63375E+06        -0.41089E+06         0.00000E+00
    0.00000E+00         0.00000E+00         0.15746E+07
 
    0.74479E+07         0.71930E+06         0.00000E+00
    0.71930E+06        -0.35897E+06         0.00000E+00
    0.00000E+00         0.00000E+00         0.14178E+07
 
    0.66403E+07         0.79014E+06         0.00000E+00
    0.79014E+06        -0.30126E+06         0.00000E+00
    0.00000E+00         0.00000E+00         0.12678E+07
 
    0.58625E+07         0.85597E+06         0.00000E+00
    0.85597E+06        -0.23580E+06         0.00000E+00
    0.00000E+00         0.00000E+00         0.11253E+07
 
    0.51140E+07         0.92345E+06         0.00000E+00
    0.92345E+06        -0.15941E+06         0.00000E+00
    0.00000E+00         0.00000E+00         0.99091E+06
 
    0.43924E+07         0.99635E+06         0.00000E+00
    0.99635E+06        -0.68400E+05         0.00000E+00
    0.00000E+00         0.00000E+00         0.86481E+06
 
    0.36954E+07         0.10759E+07         0.00000E+00
    0.10759E+07         0.40956E+05         0.00000E+00
    0.00000E+00         0.00000E+00         0.74726E+06
 
    0.30204E+07         0.11609E+07         0.00000E+00
    0.11609E+07         0.17188E+06         0.00000E+00
    0.00000E+00         0.00000E+00         0.63846E+06
 
    0.23664E+07         0.12485E+07         0.00000E+00
    0.12485E+07         0.32664E+06         0.00000E+00
    0.00000E+00         0.00000E+00         0.53861E+06
 
    0.17337E+07         0.13341E+07         0.00000E+00
    0.13341E+07         0.50620E+06         0.00000E+00
    0.00000E+00         0.00000E+00         0.44798E+06
 
    0.11248E+07         0.14120E+07         0.00000E+00
    0.14120E+07         0.70978E+06         0.00000E+00
    0.00000E+00         0.00000E+00         0.36692E+06
 
    0.54491E+06         0.14759E+07         0.00000E+00
    0.14759E+07         0.93468E+06         0.00000E+00
    0.00000E+00         0.00000E+00         0.29592E+06
 
    0.10995E+08         0.15275E+06         0.00000E+00
    0.15275E+06        -0.68299E+06         0.00000E+00
    0.00000E+00         0.00000E+00         0.20625E+07
 
    0.10045E+08         0.38837E+06         0.00000E+00
    0.38837E+06        -0.66980E+06         0.00000E+00
    0.00000E+00         0.00000E+00         0.18751E+07
 
    0.91163E+07         0.55277E+06         0.00000E+00
    0.55277E+06        -0.65058E+06         0.00000E+00
    0.00000E+00         0.00000E+00         0.16931E+07
 
    0.82209E+07         0.66978E+06         0.00000E+00
    0.66978E+06        -0.62944E+06         0.00000E+00
    0.00000E+00         0.00000E+00         0.15183E+07
 
    0.73646E+07         0.75891E+06         0.00000E+00
    0.75891E+06        -0.60703E+06         0.00000E+00
    0.00000E+00         0.00000E+00         0.13515E+07
 
    0.65489E+07         0.83537E+06         0.00000E+00
    0.83537E+06        -0.58139E+06         0.00000E+00
    0.00000E+00         0.00000E+00         0.11935E+07
 
    0.57719E+07         0.91038E+06         0.00000E+00
    0.91038E+06        -0.54878E+06         0.00000E+00
    0.00000E+00         0.00000E+00         0.10446E+07
 
    0.50294E+07         0.99134E+06         0.00000E+00
    0.99134E+06        -0.50439E+06         0.00000E+00
    0.00000E+00         0.00000E+00         0.90500E+06
 
    0.43163E+07         0.10822E+07         0.00000E+00
    0.10822E+07        -0.44305E+06         0.00000E+00
    0.00000E+00         0.00000E+00         0.77466E+06
 
    0.36275E+07         0.11839E+07         0.00000E+00
    0.11839E+07        -0.35972E+06         0.00000E+00
    0.00000E+00         0.00000E+00         0.65355E+06
 
    0.29582E+07         0.12944E+07         0.00000E+00
    0.12944E+07        -0.25006E+06         0.00000E+00
    0.00000E+00         0.00000E+00         0.54163E+06
 
    0.23053E+07         0.14096E+07         0.00000E+00
    0.14096E+07        -0.11083E+06         0.00000E+00
    0.00000E+00         0.00000E+00         0.43889E+06
 
    0.16675E+07         0.15233E+07         0.00000E+00
    0.15233E+07         0.59653E+05         0.00000E+00
    0.00000E+00         0.00000E+00         0.34544E+06
 
    0.10465E+07         0.16277E+07         0.00000E+00
    0.16277E+07         0.26113E+06         0.00000E+00
    0.00000E+00         0.00000E+00         0.26153E+06
 
    0.44688E+06         0.17144E+07         0.00000E+00
    0.17144E+07         0.49112E+06         0.00000E+00
    0.00000E+00         0.00000E+00         0.18760E+06
 
    0.11077E+08         0.15800E+06         0.00000E+00
    0.15800E+06        -0.89051E+06         0.00000E+00
    0.00000E+00         0.00000E+00         0.20372E+07
 
    0.10038E+08         0.39745E+06         0.00000E+00
    0.39745E+06        -0.88940E+06         0.00000E+00
    0.00000E+00         0.00000E+00         0.18297E+07
 
    0.90489E+07         0.56073E+06         0.00000E+00
    0.56073E+06        -0.89226E+06         0.00000E+00
    0.00000E+00         0.00000E+00         0.16313E+07
 
    0.81166E+07         0.67561E+06         0.00000E+00
    0.67561E+06        -0.90074E+06         0.00000E+00
    0.00000E+00         0.00000E+00         0.14432E+07
 
    0.72421E+07         0.76459E+06         0.00000E+00
    0.76459E+06        -0.91306E+06         0.00000E+00
    0.00000E+00         0.00000E+00         0.12658E+07
 
    0.64222E+07         0.84499E+06         0.00000E+00
    0.84499E+06        -0.92500E+06         0.00000E+00
    0.00000E+00         0.00000E+00         0.10994E+07
 
    0.56506E+07         0.92931E+06         0.00000E+00
    0.92931E+06        -0.93070E+06         0.00000E+00
    0.00000E+00         0.00000E+00         0.94399E+06
 
    0.49195E+07         0.10256E+07         0.00000E+00
    0.10256E+07        -0.92351E+06         0.00000E+00
    0.00000E+00         0.00000E+00         0.79920E+06
 
    0.42200E+07         0.11378E+07         0.00000E+00
    0.11378E+07        -0.89655E+06         0.00000E+00
    0.00000E+00         0.00000E+00         0.66470E+06
 
    0.35438E+07         0.12662E+07         0.00000E+00
    0.12662E+07        -0.84330E+06         0.00000E+00
    0.00000E+00         0.00000E+00         0.54010E+06
 
    0.28834E+07         0.14080E+07         0.00000E+00
    0.14080E+07        -0.75811E+06         0.00000E+00
    0.00000E+00         0.00000E+00         0.42507E+06
 
    0.22333E+07         0.15575E+07         0.00000E+00
    0.15575E+07        -0.63661E+06         0.00000E+00
    0.00000E+00         0.00000E+00         0.31934E+06
 
    0.15904E+07         0.17066E+07         0.00000E+00
    0.17066E+07        -0.47621E+06         0.00000E+00
    0.00000E+00         0.00000E+00         0.22284E+06
 
    0.95480E+06         0.18454E+07         0.00000E+00
    0.18454E+07        -0.27648E+06         0.00000E+00
    0.00000E+00         0.00000E+00         0.13566E+06
 
    0.33050E+06         0.19628E+07         0.00000E+00
    0.19628E+07        -0.39598E+05         0.00000E+00
    0.00000E+00         0.00000E+00         0.58180E+05
 
    0.11106E+08         0.15627E+06         0.00000E+00
    0.15627E+06        -0.11516E+07         0.00000E+00
    0.00000E+00         0.00000E+00         0.19909E+07
 
    0.99731E+07         0.38746E+06         0.00000E+00
    0.38746E+06        -0.11646E+07         0.00000E+00
    0.00000E+00         0.00000E+00         0.17617E+07
 
    0.89223E+07         0.54019E+06         0.00000E+00
    0.54019E+06        -0.11931E+07         0.00000E+00
    0.00000E+00         0.00000E+00         0.15458E+07
 
    0.79551E+07         0.64625E+06         0.00000E+00
    0.64625E+06        -0.12358E+07         0.00000E+00
    0.00000E+00         0.00000E+00         0.13438E+07
 
    0.70667E+07         0.73094E+06         0.00000E+00
    0.73094E+06        -0.12881E+07         0.00000E+00
    0.00000E+00         0.00000E+00         0.11557E+07
 
    0.62485E+07         0.81350E+06         0.00000E+00
    0.81350E+06        -0.13429E+07         0.00000E+00
    0.00000E+00         0.00000E+00         0.98112E+06
 
    0.54893E+07         0.90747E+06         0.00000E+00
    0.90747E+06        -0.13923E+07         0.00000E+00
    0.00000E+00         0.00000E+00         0.81941E+06
 
    0.47764E+07         0.10212E+07         0.00000E+00
    0.10212E+07        -0.14273E+07         0.00000E+00
    0.00000E+00         0.00000E+00         0.66983E+06
 
    0.40971E+07         0.11586E+07         0.00000E+00
    0.11586E+07        -0.14392E+07         0.00000E+00
    0.00000E+00         0.00000E+00         0.53159E+06
 
    0.34393E+07         0.13192E+07         0.00000E+00
    0.13192E+07        -0.14199E+07         0.00000E+00
    0.00000E+00         0.00000E+00         0.40388E+06
 
    0.27922E+07         0.14989E+07         0.00000E+00
    0.14989E+07        -0.13622E+07         0.00000E+00
    0.00000E+00         0.00000E+00         0.28600E+06
 
    0.21476E+07         0.16904E+07         0.00000E+00
    0.16904E+07        -0.12606E+07         0.00000E+00
    0.00000E+00         0.00000E+00         0.17740E+06
 
    0.14999E+07         0.18836E+07         0.00000E+00
    0.18836E+07        -0.11112E+07         0.00000E+00
    0.00000E+00         0.00000E+00         0.77739E+05
 
    0.84763E+06         0.20662E+07         0.00000E+00
    0.20662E+07        -0.91286E+06         0.00000E+00
    0.00000E+00         0.00000E+00        -0.13044E+05
 
    0.19359E+06         0.22238E+07         0.00000E+00
    0.22238E+07        -0.66711E+06         0.00000E+00
    0.00000E+00         0.00000E+00        -0.94705E+05
 
    0.11057E+08         0.14640E+06         0.00000E+00
    0.14640E+06        -0.14790E+07         0.00000E+00
    0.00000E+00         0.00000E+00         0.19156E+07
 
    0.98264E+07         0.35539E+06         0.00000E+00
    0.35539E+06        -0.15083E+07         0.00000E+00
    0.00000E+00         0.00000E+00         0.16636E+07
 
    0.87154E+07         0.48695E+06         0.00000E+00
    0.48695E+06        -0.15662E+07         0.00000E+00
    0.00000E+00         0.00000E+00         0.14298E+07
 
    0.77180E+07         0.57676E+06         0.00000E+00
    0.57676E+06        -0.16476E+07         0.00000E+00
    0.00000E+00         0.00000E+00         0.12141E+07
 
    0.68228E+07         0.65273E+06         0.00000E+00
    0.65273E+06        -0.17447E+07         0.00000E+00
    0.00000E+00         0.00000E+00         0.10156E+07
 
    0.60147E+07         0.73567E+06         0.00000E+00
    0.73567E+06        -0.18476E+07         0.00000E+00
    0.00000E+00         0.00000E+00         0.83341E+06
 
    0.52765E+07         0.83985E+06         0.00000E+00
    0.83985E+06        -0.19455E+07         0.00000E+00
    0.00000E+00         0.00000E+00         0.66622E+06
 
    0.45907E+07         0.97376E+06         0.00000E+00
    0.97376E+06        -0.20272E+07         0.00000E+00
    0.00000E+00         0.00000E+00         0.51271E+06
 
    0.39398E+07         0.11407E+07         0.00000E+00
    0.11407E+07        -0.20821E+07         0.00000E+00
    0.00000E+00         0.00000E+00         0.37154E+06
 
    0.33075E+07         0.13394E+07         0.00000E+00
    0.13394E+07        -0.21003E+07         0.00000E+00
    0.00000E+00         0.00000E+00         0.24144E+06
 
    0.26795E+07         0.15645E+07         0.00000E+00
    0.15645E+07        -0.20731E+07         0.00000E+00
    0.00000E+00         0.00000E+00         0.12128E+06
 
    0.20441E+07         0.18069E+07         0.00000E+00
    0.18069E+07        -0.19933E+07         0.00000E+00
    0.00000E+00         0.00000E+00         0.10165E+05
 
    0.13931E+07         0.20542E+07         0.00000E+00
    0.20542E+07        -0.18559E+07         0.00000E+00
    0.00000E+00         0.00000E+00        -0.92555E+05
 
    0.72255E+06         0.22912E+07         0.00000E+00
    0.22912E+07        -0.16585E+07         0.00000E+00
    0.00000E+00         0.00000E+00        -0.18718E+06
 
    0.33718E+05         0.25003E+07         0.00000E+00
    0.25003E+07        -0.14018E+07         0.00000E+00
    0.00000E+00         0.00000E+00        -0.27362E+06
 
    0.10898E+08         0.12713E+06         0.00000E+00
    0.12713E+06        -0.18878E+07         0.00000E+00
    0.00000E+00         0.00000E+00         0.18020E+07
 
    0.95699E+07         0.29817E+06         0.00000E+00
    0.29817E+06        -0.19356E+07         0.00000E+00
    0.00000E+00         0.00000E+00         0.15269E+07
 
    0.84037E+07         0.39683E+06         0.00000E+00
    0.39683E+06        -0.20263E+07         0.00000E+00
    0.00000E+00         0.00000E+00         0.12755E+07
 
    0.73843E+07         0.46242E+06         0.00000E+00
    0.46242E+06        -0.21509E+07         0.00000E+00
    0.00000E+00         0.00000E+00         0.10467E+07
 
    0.64923E+07         0.52509E+06         0.00000E+00
    0.52509E+06        -0.22974E+07         0.00000E+00
    0.00000E+00         0.00000E+00         0.83896E+06
 
    0.57050E+07         0.60675E+06         0.00000E+00
    0.60675E+06        -0.24528E+07         0.00000E+00
    0.00000E+00         0.00000E+00         0.65044E+06
 
    0.49992E+07         0.72200E+06         0.00000E+00
    0.72200E+06        -0.26034E+07         0.00000E+00
    0.00000E+00         0.00000E+00         0.47915E+06
 
    0.43512E+07         0.87904E+06         0.00000E+00
    0.87904E+06        -0.27358E+07         0.00000E+00
    0.00000E+00         0.00000E+00         0.32308E+06
 
    0.37386E+07         0.10805E+07         0.00000E+00
    0.10805E+07        -0.28372E+07         0.00000E+00
    0.00000E+00         0.00000E+00         0.18027E+06
 
    0.31406E+07         0.13239E+07         0.00000E+00
    0.13239E+07        -0.28959E+07         0.00000E+00
    0.00000E+00         0.00000E+00         0.48927E+05
 
    0.25388E+07         0.16026E+07         0.00000E+00
    0.16026E+07        -0.29016E+07         0.00000E+00
    0.00000E+00         0.00000E+00        -0.72565E+05
 
    0.19178E+07         0.19055E+07         0.00000E+00
    0.19055E+07        -0.28455E+07         0.00000E+00
    0.00000E+00         0.00000E+00        -0.18554E+06
 
    0.12659E+07         0.22179E+07         0.00000E+00
    0.22179E+07        -0.27209E+07         0.00000E+00
    0.00000E+00         0.00000E+00        -0.29099E+06
 
    0.57643E+06         0.25217E+07         0.00000E+00
    0.25217E+07        -0.25241E+07         0.00000E+00
    0.00000E+00         0.00000E+00        -0.38953E+06
 
   -0.15186E+06         0.27954E+07         0.00000E+00
    0.27954E+07        -0.22545E+07         0.00000E+00
    0.00000E+00         0.00000E+00        -0.48127E+06
 
    0.10591E+08         0.97202E+05         0.00000E+00
    0.97202E+05        -0.23954E+07         0.00000E+00
    0.00000E+00         0.00000E+00         0.16392E+07
 
    0.91716E+07         0.21280E+06         0.00000E+00
    0.21280E+06        -0.24638E+07         0.00000E+00
    0.00000E+00         0.00000E+00         0.13415E+07
 
    0.79595E+07         0.26591E+06         0.00000E+00
    0.26591E+06        -0.25908E+07         0.00000E+00
    0.00000E+00         0.00000E+00         0.10737E+07
 
    0.69302E+07         0.29899E+06         0.00000E+00
    0.29899E+06        -0.27623E+07         0.00000E+00
    0.00000E+00         0.00000E+00         0.83358E+06
 
    0.60545E+07         0.34380E+06         0.00000E+00
    0.34380E+06        -0.29622E+07         0.00000E+00
    0.00000E+00         0.00000E+00         0.61848E+06
 
    0.53020E+07         0.42277E+06         0.00000E+00
    0.42277E+06        -0.31737E+07         0.00000E+00
    0.00000E+00         0.00000E+00         0.42566E+06
 
    0.46418E+07         0.55029E+06         0.00000E+00
    0.55029E+06        -0.33803E+07         0.00000E+00
    0.00000E+00         0.00000E+00         0.25231E+06
 
    0.40444E+07         0.73385E+06         0.00000E+00
    0.73385E+06        -0.35662E+07         0.00000E+00
    0.00000E+00         0.00000E+00         0.95644E+05
 
    0.34819E+07         0.97505E+06         0.00000E+00
    0.97505E+06        -0.37166E+07         0.00000E+00
    0.00000E+00         0.00000E+00        -0.46956E+05
 
    0.29286E+07         0.12702E+07         0.00000E+00
    0.12702E+07        -0.38182E+07         0.00000E+00
    0.00000E+00         0.00000E+00        -0.17792E+06
 
    0.23617E+07         0.16111E+07         0.00000E+00
    0.16111E+07        -0.38587E+07         0.00000E+00
    0.00000E+00         0.00000E+00        -0.29939E+06
 
    0.17618E+07         0.19849E+07         0.00000E+00
    0.19849E+07        -0.38278E+07         0.00000E+00
    0.00000E+00         0.00000E+00        -0.41319E+06
 
    0.11132E+07         0.23744E+07         0.00000E+00
    0.23744E+07        -0.37170E+07         0.00000E+00
    0.00000E+00         0.00000E+00        -0.52076E+06
 
    0.40528E+06         0.27585E+07         0.00000E+00
    0.27585E+07        -0.35205E+07         0.00000E+00
    0.00000E+00         0.00000E+00        -0.62305E+06
 
   -0.36624E+06         0.31118E+07         0.00000E+00
    0.31118E+07        -0.32362E+07         0.00000E+00
    0.00000E+00         0.00000E+00        -0.72050E+06
 
    0.10097E+08         0.55386E+05         0.00000E+00
    0.55386E+05        -0.30221E+07         0.00000E+00
    0.00000E+00         0.00000E+00         0.14150E+07
 
    0.85957E+07         0.96475E+05         0.00000E+00
    0.96475E+05        -0.31130E+07         0.00000E+00
    0.00000E+00         0.00000E+00         0.10965E+07
 
    0.73523E+07         0.90745E+05         0.00000E+00
    0.90745E+05        -0.32792E+07         0.00000E+00
    0.00000E+00         0.00000E+00         0.81462E+06
 
    0.63292E+07         0.82969E+05         0.00000E+00
    0.82969E+05        -0.35006E+07         0.00000E+00
    0.00000E+00         0.00000E+00         0.56572E+06
 
    0.54868E+07         0.10566E+06         0.00000E+00
    0.10566E+06        -0.37565E+07         0.00000E+00
    0.00000E+00         0.00000E+00         0.34606E+06
 
    0.47854E+07         0.18097E+06         0.00000E+00
    0.18097E+06        -0.40264E+07         0.00000E+00
    0.00000E+00         0.00000E+00         0.15181E+06
 
    0.41868E+07         0.32235E+06         0.00000E+00
    0.32235E+06        -0.42908E+07         0.00000E+00
    0.00000E+00         0.00000E+00        -0.20803E+05
 
    0.36547E+07         0.53613E+06         0.00000E+00
    0.53613E+06        -0.45317E+07         0.00000E+00
    0.00000E+00         0.00000E+00        -0.17540E+06
 
    0.31557E+07         0.82255E+06         0.00000E+00
    0.82255E+06        -0.47325E+07         0.00000E+00
    0.00000E+00         0.00000E+00        -0.31535E+06
 
    0.26592E+07         0.11766E+07         0.00000E+00
    0.11766E+07        -0.48780E+07         0.00000E+00
    0.00000E+00         0.00000E+00        -0.44376E+06
 
    0.21378E+07         0.15885E+07         0.00000E+00
    0.15885E+07        -0.49547E+07         0.00000E+00
    0.00000E+00         0.00000E+00        -0.56336E+06
 
    0.15674E+07         0.20438E+07         0.00000E+00
    0.20438E+07        -0.49501E+07         0.00000E+00
    0.00000E+00         0.00000E+00        -0.67654E+06
 
    0.92787E+06         0.25231E+07         0.00000E+00
    0.25231E+07        -0.48540E+07         0.00000E+00
    0.00000E+00         0.00000E+00        -0.78522E+06
 
    0.20405E+06         0.30024E+07         0.00000E+00
    0.30024E+07        -0.46581E+07         0.00000E+00
    0.00000E+00         0.00000E+00        -0.89082E+06
 
   -0.61289E+06         0.34522E+07         0.00000E+00
    0.34522E+07        -0.43578E+07         0.00000E+00
    0.00000E+00         0.00000E+00        -0.99414E+06
 
    0.93685E+07         0.56410E+03         0.00000E+00
    0.56410E+03        -0.37906E+07         0.00000E+00
    0.00000E+00         0.00000E+00         0.11156E+07
 
    0.78031E+07        -0.53142E+05         0.00000E+00
   -0.53142E+05        -0.39057E+07         0.00000E+00
    0.00000E+00         0.00000E+00         0.77947E+06
 
    0.65482E+07        -0.13126E+06         0.00000E+00
   -0.13126E+06        -0.41130E+07         0.00000E+00
    0.00000E+00         0.00000E+00         0.48704E+06
 
    0.55523E+07        -0.18792E+06         0.00000E+00
   -0.18792E+06        -0.43862E+07         0.00000E+00
    0.00000E+00         0.00000E+00         0.23323E+06
 
    0.47638E+07        -0.19102E+06         0.00000E+00
   -0.19102E+06        -0.46993E+07         0.00000E+00
    0.00000E+00         0.00000E+00         0.12910E+05
 
    0.41331E+07        -0.11979E+06         0.00000E+00
   -0.11979E+06        -0.50280E+07         0.00000E+00
    0.00000E+00         0.00000E+00        -0.17896E+06
 
    0.36140E+07         0.37526E+05         0.00000E+00
    0.37526E+05        -0.53500E+07         0.00000E+00
    0.00000E+00         0.00000E+00        -0.34720E+06
 
    0.31638E+07         0.28542E+06         0.00000E+00
    0.28542E+06        -0.56454E+07         0.00000E+00
    0.00000E+00         0.00000E+00        -0.49633E+06
 
    0.27434E+07         0.62252E+06         0.00000E+00
    0.62252E+06        -0.58961E+07         0.00000E+00
    0.00000E+00         0.00000E+00        -0.63053E+06
 
    0.23174E+07         0.10424E+07         0.00000E+00
    0.10424E+07        -0.60855E+07         0.00000E+00
    0.00000E+00         0.00000E+00        -0.75361E+06
 
    0.18537E+07         0.15339E+07         0.00000E+00
    0.15339E+07        -0.61985E+07         0.00000E+00
    0.00000E+00         0.00000E+00        -0.86897E+06
 
    0.13234E+07         0.20812E+07         0.00000E+00
    0.20812E+07        -0.62212E+07         0.00000E+00
    0.00000E+00         0.00000E+00        -0.97957E+06
 
    0.70115E+06         0.26632E+07         0.00000E+00
    0.26632E+07        -0.61407E+07         0.00000E+00
    0.00000E+00         0.00000E+00        -0.10879E+07
 
   -0.33634E+05         0.32534E+07         0.00000E+00
    0.32534E+07        -0.59461E+07         0.00000E+00
    0.00000E+00         0.00000E+00        -0.11960E+07
 
   -0.89567E+06         0.38185E+07         0.00000E+00
    0.38185E+07        -0.56293E+07         0.00000E+00
    0.00000E+00         0.00000E+00        -0.13050E+07
 
    0.83553E+07        -0.68175E+05         0.00000E+00
   -0.68175E+05        -0.47265E+07         0.00000E+00
    0.00000E+00         0.00000E+00         0.72577E+06
 
    0.67511E+07        -0.23770E+06         0.00000E+00
   -0.23770E+06        -0.48667E+07         0.00000E+00
    0.00000E+00         0.00000E+00         0.37689E+06
 
    0.55115E+07        -0.40150E+06         0.00000E+00
   -0.40150E+06        -0.51161E+07         0.00000E+00
    0.00000E+00         0.00000E+00         0.79097E+05
 
    0.45689E+07        -0.51427E+06         0.00000E+00
   -0.51427E+06        -0.54411E+07         0.00000E+00
    0.00000E+00         0.00000E+00        -0.17443E+06
 
    0.38586E+07        -0.54593E+06         0.00000E+00
   -0.54593E+06        -0.58103E+07         0.00000E+00
    0.00000E+00         0.00000E+00        -0.39034E+06
 
    0.33208E+07        -0.47835E+06         0.00000E+00
   -0.47835E+06        -0.61958E+07         0.00000E+00
    0.00000E+00         0.00000E+00        -0.57499E+06
 
    0.29012E+07        -0.30258E+06         0.00000E+00
   -0.30258E+06        -0.65728E+07         0.00000E+00
    0.00000E+00         0.00000E+00        -0.73431E+06
 
    0.25507E+07        -0.16585E+05         0.00000E+00
   -0.16585E+05        -0.69197E+07         0.00000E+00
    0.00000E+00         0.00000E+00        -0.87379E+06
 
    0.22254E+07         0.37629E+06         0.00000E+00
    0.37629E+06        -0.72175E+07         0.00000E+00
    0.00000E+00         0.00000E+00        -0.99843E+06
 
    0.18850E+07         0.86819E+06         0.00000E+00
    0.86819E+06        -0.74489E+07         0.00000E+00
    0.00000E+00         0.00000E+00        -0.11128E+07
 
    0.14930E+07         0.14470E+07         0.00000E+00
    0.14470E+07        -0.75975E+07         0.00000E+00
    0.00000E+00         0.00000E+00        -0.12209E+07
 
    0.10155E+07         0.20962E+07         0.00000E+00
    0.20962E+07        -0.76475E+07         0.00000E+00
    0.00000E+00         0.00000E+00        -0.13264E+07
 
    0.42172E+06         0.27935E+07         0.00000E+00
    0.27935E+07        -0.75838E+07         0.00000E+00
    0.00000E+00         0.00000E+00        -0.14324E+07
 
   -0.31570E+06         0.35106E+07         0.00000E+00
    0.35106E+07        -0.73920E+07         0.00000E+00
    0.00000E+00         0.00000E+00        -0.15415E+07
 
   -0.12189E+07         0.42112E+07         0.00000E+00
    0.42112E+07        -0.70597E+07         0.00000E+00
    0.00000E+00         0.00000E+00        -0.16557E+07
 
    0.70039E+07        -0.15142E+06         0.00000E+00
   -0.15142E+06        -0.58572E+07         0.00000E+00
    0.00000E+00         0.00000E+00         0.22933E+06
 
    0.53954E+07        -0.45783E+06         0.00000E+00
   -0.45783E+06        -0.60228E+07         0.00000E+00
    0.00000E+00         0.00000E+00        -0.12548E+06
 
    0.42049E+07        -0.71967E+06         0.00000E+00
   -0.71967E+06        -0.63136E+07         0.00000E+00
    0.00000E+00         0.00000E+00        -0.42174E+06
 
    0.33470E+07        -0.89443E+06         0.00000E+00
   -0.89443E+06        -0.66883E+07         0.00000E+00
    0.00000E+00         0.00000E+00        -0.66827E+06
 
    0.27430E+07        -0.95604E+06         0.00000E+00
   -0.95604E+06        -0.71099E+07         0.00000E+00
    0.00000E+00         0.00000E+00        -0.87339E+06
 
    0.23226E+07        -0.89069E+06         0.00000E+00
   -0.89069E+06        -0.75470E+07         0.00000E+00
    0.00000E+00         0.00000E+00        -0.10449E+07
 
    0.20239E+07        -0.69344E+06         0.00000E+00
   -0.69344E+06        -0.79728E+07         0.00000E+00
    0.00000E+00         0.00000E+00        -0.11898E+07
 
    0.17921E+07        -0.36551E+06         0.00000E+00
   -0.36551E+06        -0.83652E+07         0.00000E+00
    0.00000E+00         0.00000E+00        -0.13146E+07
 
    0.15789E+07         0.87484E+05         0.00000E+00
    0.87484E+05        -0.87047E+07         0.00000E+00
    0.00000E+00         0.00000E+00        -0.14252E+07
 
    0.13403E+07         0.65646E+06         0.00000E+00
    0.65646E+06        -0.89738E+07         0.00000E+00
    0.00000E+00         0.00000E+00        -0.15267E+07
 
    0.10357E+07         0.13289E+07         0.00000E+00
    0.13289E+07        -0.91555E+07         0.00000E+00
    0.00000E+00         0.00000E+00        -0.16240E+07
 
    0.62644E+06         0.20882E+07         0.00000E+00
    0.20882E+07        -0.92326E+07         0.00000E+00
    0.00000E+00         0.00000E+00        -0.17212E+07
 
    0.75544E+05         0.29123E+07         0.00000E+00
    0.29123E+07        -0.91872E+07         0.00000E+00
    0.00000E+00         0.00000E+00        -0.18223E+07
 
   -0.65185E+06         0.37720E+07         0.00000E+00
    0.37720E+07        -0.90007E+07         0.00000E+00
    0.00000E+00         0.00000E+00        -0.19305E+07
 
   -0.15871E+07         0.46290E+07         0.00000E+00
    0.46290E+07        -0.86556E+07         0.00000E+00
    0.00000E+00         0.00000E+00        -0.20485E+07
 
    0.52582E+07        -0.24928E+06         0.00000E+00
   -0.24928E+06        -0.72123E+07         0.00000E+00
    0.00000E+00         0.00000E+00        -0.39081E+06
 
    0.36905E+07        -0.71280E+06         0.00000E+00
   -0.71280E+06        -0.74024E+07         0.00000E+00
    0.00000E+00         0.00000E+00        -0.74238E+06
 
    0.25908E+07        -0.10833E+07         0.00000E+00
   -0.10833E+07        -0.77320E+07         0.00000E+00
    0.00000E+00         0.00000E+00        -0.10282E+07
 
    0.18544E+07        -0.13238E+07         0.00000E+00
   -0.13238E+07        -0.81513E+07         0.00000E+00
    0.00000E+00         0.00000E+00        -0.12594E+07
 
    0.13882E+07        -0.14149E+07         0.00000E+00
   -0.14149E+07        -0.86179E+07         0.00000E+00
    0.00000E+00         0.00000E+00        -0.14460E+07
 
    0.11117E+07        -0.13491E+07         0.00000E+00
   -0.13491E+07        -0.90974E+07         0.00000E+00
    0.00000E+00         0.00000E+00        -0.15972E+07
 
    0.95590E+06        -0.11269E+07         0.00000E+00
   -0.11269E+07        -0.95621E+07         0.00000E+00
    0.00000E+00         0.00000E+00        -0.17212E+07
 
    0.86190E+06        -0.75363E+06         0.00000E+00
   -0.75363E+06        -0.99900E+07         0.00000E+00
    0.00000E+00         0.00000E+00        -0.18256E+07
 
    0.77816E+06        -0.23745E+06         0.00000E+00
   -0.23745E+06        -0.10362E+08         0.00000E+00
    0.00000E+00         0.00000E+00        -0.19168E+07
 
    0.65818E+06         0.41161E+06         0.00000E+00
    0.41161E+06        -0.10662E+08         0.00000E+00
    0.00000E+00         0.00000E+00        -0.20008E+07
 
    0.45815E+06         0.11814E+07         0.00000E+00
    0.11814E+07        -0.10873E+08         0.00000E+00
    0.00000E+00         0.00000E+00        -0.20830E+07
 
    0.13502E+06         0.20566E+07         0.00000E+00
    0.20566E+07        -0.10976E+08         0.00000E+00
    0.00000E+00         0.00000E+00        -0.21682E+07
 
   -0.35445E+06         0.30167E+07         0.00000E+00
    0.30167E+07        -0.10951E+08         0.00000E+00
    0.00000E+00         0.00000E+00        -0.22610E+07
 
   -0.10538E+07         0.40334E+07         0.00000E+00
    0.40334E+07        -0.10774E+08         0.00000E+00
    0.00000E+00         0.00000E+00        -0.23655E+07
 
   -0.20054E+07         0.50681E+07         0.00000E+00
    0.50681E+07        -0.10421E+08         0.00000E+00
    0.00000E+00         0.00000E+00        -0.24853E+07
 
    0.30624E+07        -0.36129E+06         0.00000E+00
   -0.36129E+06        -0.88218E+07         0.00000E+00
    0.00000E+00         0.00000E+00        -0.11519E+07
 
    0.15921E+07        -0.10001E+07         0.00000E+00
   -0.10001E+07        -0.90343E+07         0.00000E+00
    0.00000E+00         0.00000E+00        -0.14884E+07
 
    0.63342E+06        -0.14870E+07         0.00000E+00
   -0.14870E+07        -0.93975E+07         0.00000E+00
    0.00000E+00         0.00000E+00        -0.17528E+07
 
    0.60741E+05        -0.17943E+07         0.00000E+00
   -0.17943E+07        -0.98528E+07         0.00000E+00
    0.00000E+00         0.00000E+00        -0.19584E+07
 
   -0.23338E+06        -0.19120E+07         0.00000E+00
   -0.19120E+07        -0.10353E+08         0.00000E+00
    0.00000E+00         0.00000E+00        -0.21172E+07
 
   -0.33883E+06        -0.18414E+07         0.00000E+00
   -0.18414E+07        -0.10861E+08         0.00000E+00
    0.00000E+00         0.00000E+00        -0.22399E+07
 
   -0.32980E+06        -0.15904E+07         0.00000E+00
   -0.15904E+07        -0.11350E+08         0.00000E+00
    0.00000E+00         0.00000E+00        -0.23359E+07
 
   -0.26785E+06        -0.11692E+07         0.00000E+00
   -0.11692E+07        -0.11798E+08         0.00000E+00
    0.00000E+00         0.00000E+00        -0.24132E+07
 
   -0.20555E+06        -0.58873E+06         0.00000E+00
   -0.58873E+06        -0.12191E+08         0.00000E+00
    0.00000E+00         0.00000E+00        -0.24793E+07
 
   -0.19022E+06         0.14055E+06         0.00000E+00
    0.14055E+06        -0.12512E+08         0.00000E+00
    0.00000E+00         0.00000E+00        -0.25404E+07
 
   -0.26741E+06         0.10080E+07         0.00000E+00
    0.10080E+07        -0.12745E+08         0.00000E+00
    0.00000E+00         0.00000E+00        -0.26025E+07
 
   -0.48371E+06         0.20011E+07         0.00000E+00
    0.20011E+07        -0.12872E+08         0.00000E+00
    0.00000E+00         0.00000E+00        -0.26712E+07
 
   -0.88865E+06         0.31030E+07         0.00000E+00
    0.31030E+07        -0.12869E+08         0.00000E+00
    0.00000E+00         0.00000E+00        -0.27516E+07
 
   -0.15353E+07         0.42886E+07         0.00000E+00
    0.42886E+07        -0.12708E+08         0.00000E+00
    0.00000E+00         0.00000E+00        -0.28487E+07
 
   -0.24791E+07         0.55212E+07         0.00000E+00
    0.55212E+07        -0.12357E+08         0.00000E+00
    0.00000E+00         0.00000E+00        -0.29673E+07
 
    0.36282E+06        -0.48621E+06         0.00000E+00
   -0.48621E+06        -0.10716E+08         0.00000E+00
    0.00000E+00         0.00000E+00        -0.20705E+07
 
   -0.94039E+06        -0.13150E+07         0.00000E+00
   -0.13150E+07        -0.10947E+08         0.00000E+00
    0.00000E+00         0.00000E+00        -0.23774E+07
 
   -0.16994E+07        -0.19220E+07         0.00000E+00
   -0.19220E+07        -0.11335E+08         0.00000E+00
    0.00000E+00         0.00000E+00        -0.26069E+07
 
   -0.20611E+07        -0.22931E+07         0.00000E+00
   -0.22931E+07        -0.11814E+08         0.00000E+00
    0.00000E+00         0.00000E+00        -0.27750E+07
 
   -0.21469E+07        -0.24315E+07         0.00000E+00
   -0.24315E+07        -0.12330E+08         0.00000E+00
    0.00000E+00         0.00000E+00        -0.28954E+07
 
   -0.20542E+07        -0.23503E+07         0.00000E+00
   -0.23503E+07        -0.12847E+08         0.00000E+00
    0.00000E+00         0.00000E+00        -0.29803E+07
 
   -0.18603E+07        -0.20663E+07         0.00000E+00
   -0.20663E+07        -0.13340E+08         0.00000E+00
    0.00000E+00         0.00000E+00        -0.30400E+07
 
   -0.16264E+07        -0.15959E+07         0.00000E+00
   -0.15959E+07        -0.13790E+08         0.00000E+00
    0.00000E+00         0.00000E+00        -0.30832E+07
 
   -0.14035E+07        -0.95274E+06         0.00000E+00
   -0.95274E+06        -0.14185E+08         0.00000E+00
    0.00000E+00         0.00000E+00        -0.31176E+07
 
   -0.12372E+07        -0.14705E+06         0.00000E+00
   -0.14705E+06        -0.14513E+08         0.00000E+00
    0.00000E+00         0.00000E+00        -0.31501E+07
 
   -0.11727E+07         0.81350E+06         0.00000E+00
    0.81350E+06        -0.14761E+08         0.00000E+00
    0.00000E+00         0.00000E+00        -0.31868E+07
 
   -0.12588E+07         0.19214E+07         0.00000E+00
    0.19214E+07        -0.14910E+08         0.00000E+00
    0.00000E+00         0.00000E+00        -0.32337E+07
 
   -0.15509E+07         0.31659E+07         0.00000E+00
    0.31659E+07        -0.14933E+08         0.00000E+00
    0.00000E+00         0.00000E+00        -0.32967E+07
 
   -0.21124E+07         0.45281E+07         0.00000E+00
    0.45281E+07        -0.14796E+08         0.00000E+00
    0.00000E+00         0.00000E+00        -0.33817E+07
 
   -0.30138E+07         0.59763E+07         0.00000E+00
    0.59763E+07        -0.14459E+08         0.00000E+00
    0.00000E+00         0.00000E+00        -0.34946E+07
 
   -0.28883E+07        -0.62191E+06         0.00000E+00
   -0.62191E+06        -0.12921E+08         0.00000E+00
    0.00000E+00         0.00000E+00        -0.31619E+07
 
   -0.39412E+07        -0.16504E+07         0.00000E+00
   -0.16504E+07        -0.13165E+08         0.00000E+00
    0.00000E+00         0.00000E+00        -0.34213E+07
 
   -0.44330E+07        -0.23757E+07         0.00000E+00
   -0.23757E+07        -0.13567E+08         0.00000E+00
    0.00000E+00         0.00000E+00        -0.36001E+07
 
   -0.45322E+07        -0.28026E+07         0.00000E+00
   -0.28026E+07        -0.14051E+08         0.00000E+00
    0.00000E+00         0.00000E+00        -0.37166E+07
 
   -0.43726E+07        -0.29520E+07         0.00000E+00
   -0.29520E+07        -0.14561E+08         0.00000E+00
    0.00000E+00         0.00000E+00        -0.37867E+07
 
   -0.40569E+07        -0.28521E+07         0.00000E+00
   -0.28521E+07        -0.15061E+08         0.00000E+00
    0.00000E+00         0.00000E+00        -0.38237E+07
 
   -0.36614E+07        -0.25310E+07         0.00000E+00
   -0.25310E+07        -0.15530E+08         0.00000E+00
    0.00000E+00         0.00000E+00        -0.38383E+07
 
   -0.32435E+07        -0.20121E+07         0.00000E+00
   -0.20121E+07        -0.15956E+08         0.00000E+00
    0.00000E+00         0.00000E+00        -0.38399E+07
 
   -0.28489E+07        -0.13116E+07         0.00000E+00
   -0.13116E+07        -0.16332E+08         0.00000E+00
    0.00000E+00         0.00000E+00        -0.38361E+07
 
   -0.25180E+07        -0.43847E+06         0.00000E+00
   -0.43847E+06        -0.16650E+08         0.00000E+00
    0.00000E+00         0.00000E+00        -0.38337E+07
 
   -0.22931E+07         0.60441E+06         0.00000E+00
    0.60441E+06        -0.16902E+08         0.00000E+00
    0.00000E+00         0.00000E+00        -0.38390E+07
 
   -0.22233E+07         0.18170E+07         0.00000E+00
    0.18170E+07        -0.17068E+08         0.00000E+00
    0.00000E+00         0.00000E+00        -0.38583E+07
 
   -0.23687E+07         0.31980E+07         0.00000E+00
    0.31980E+07        -0.17122E+08         0.00000E+00
    0.00000E+00         0.00000E+00        -0.38981E+07
 
   -0.28033E+07         0.47387E+07         0.00000E+00
    0.47387E+07        -0.17022E+08         0.00000E+00
    0.00000E+00         0.00000E+00        -0.39651E+07
 
   -0.36149E+07         0.64160E+07         0.00000E+00
    0.64160E+07        -0.16717E+08         0.00000E+00
    0.00000E+00         0.00000E+00        -0.40665E+07
 
   -0.67293E+07        -0.76526E+06         0.00000E+00
   -0.76526E+06        -0.15462E+08         0.00000E+00
    0.00000E+00         0.00000E+00        -0.44383E+07
 
   -0.74339E+07        -0.19959E+07         0.00000E+00
   -0.19959E+07        -0.15712E+08         0.00000E+00
    0.00000E+00         0.00000E+00        -0.46291E+07
 
   -0.75823E+07        -0.28304E+07         0.00000E+00
   -0.28304E+07        -0.16111E+08         0.00000E+00
    0.00000E+00         0.00000E+00        -0.47386E+07
 
   -0.73644E+07        -0.32986E+07         0.00000E+00
   -0.32986E+07        -0.16576E+08         0.00000E+00
    0.00000E+00         0.00000E+00        -0.47880E+07
 
   -0.69240E+07        -0.34449E+07         0.00000E+00
   -0.34449E+07        -0.17049E+08         0.00000E+00
    0.00000E+00         0.00000E+00        -0.47947E+07
 
   -0.63643E+07        -0.33164E+07         0.00000E+00
   -0.33164E+07        -0.17500E+08         0.00000E+00
    0.00000E+00         0.00000E+00        -0.47728E+07
 
   -0.57562E+07        -0.29548E+07         0.00000E+00
   -0.29548E+07        -0.17912E+08         0.00000E+00
    0.00000E+00         0.00000E+00        -0.47336E+07
 
   -0.51482E+07        -0.23909E+07         0.00000E+00
   -0.23909E+07        -0.18282E+08         0.00000E+00
    0.00000E+00         0.00000E+00        -0.46860E+07
 
   -0.45757E+07        -0.16431E+07         0.00000E+00
   -0.16431E+07        -0.18611E+08         0.00000E+00
    0.00000E+00         0.00000E+00        -0.46373E+07
 
   -0.40703E+07        -0.71783E+06         0.00000E+00
   -0.71783E+06        -0.18899E+08         0.00000E+00
    0.00000E+00         0.00000E+00        -0.45938E+07
 
   -0.36676E+07         0.38883E+06         0.00000E+00
    0.38883E+06        -0.19141E+08         0.00000E+00
    0.00000E+00         0.00000E+00        -0.45617E+07
 
   -0.34140E+07         0.16874E+07         0.00000E+00
    0.16874E+07        -0.19321E+08         0.00000E+00
    0.00000E+00         0.00000E+00        -0.45470E+07
 
   -0.33730E+07         0.31899E+07         0.00000E+00
    0.31899E+07        -0.19411E+08         0.00000E+00
    0.00000E+00         0.00000E+00        -0.45567E+07
 
   -0.36288E+07         0.49023E+07         0.00000E+00
    0.49023E+07        -0.19363E+08         0.00000E+00
    0.00000E+00         0.00000E+00        -0.45984E+07
 
   -0.42880E+07         0.68158E+07         0.00000E+00
    0.68158E+07        -0.19116E+08         0.00000E+00
    0.00000E+00         0.00000E+00        -0.46807E+07
 
   -0.11184E+08        -0.91202E+06         0.00000E+00
   -0.91202E+06        -0.18356E+08         0.00000E+00
    0.00000E+00         0.00000E+00        -0.59080E+07
 
   -0.11427E+08        -0.23378E+07         0.00000E+00
   -0.23378E+07        -0.18600E+08         0.00000E+00
    0.00000E+00         0.00000E+00        -0.60055E+07
 
   -0.11148E+08        -0.32625E+07         0.00000E+00
   -0.32625E+07        -0.18976E+08         0.00000E+00
    0.00000E+00         0.00000E+00        -0.60247E+07
 
   -0.10557E+08        -0.37497E+07         0.00000E+00
   -0.37497E+07        -0.19390E+08         0.00000E+00
    0.00000E+00         0.00000E+00        -0.59895E+07
 
   -0.98045E+07        -0.38739E+07         0.00000E+00
   -0.38739E+07        -0.19789E+08         0.00000E+00
    0.00000E+00         0.00000E+00        -0.59188E+07
 
   -0.89872E+07        -0.37055E+07         0.00000E+00
   -0.37055E+07        -0.20148E+08         0.00000E+00
    0.00000E+00         0.00000E+00        -0.58271E+07
 
   -0.81637E+07        -0.33014E+07         0.00000E+00
   -0.33014E+07        -0.20463E+08         0.00000E+00
    0.00000E+00         0.00000E+00        -0.57253E+07
 
   -0.73672E+07        -0.26999E+07         0.00000E+00
   -0.26999E+07        -0.20740E+08         0.00000E+00
    0.00000E+00         0.00000E+00        -0.56215E+07
 
   -0.66178E+07        -0.19207E+07         0.00000E+00
   -0.19207E+07        -0.20991E+08         0.00000E+00
    0.00000E+00         0.00000E+00        -0.55217E+07
 
   -0.59332E+07        -0.96622E+06         0.00000E+00
   -0.96622E+06        -0.21224E+08         0.00000E+00
    0.00000E+00         0.00000E+00        -0.54314E+07
 
   -0.53378E+07         0.17649E+06         0.00000E+00
    0.17649E+06        -0.21441E+08         0.00000E+00
    0.00000E+00         0.00000E+00        -0.53557E+07
 
   -0.48717E+07         0.15316E+07         0.00000E+00
    0.15316E+07        -0.21630E+08         0.00000E+00
    0.00000E+00         0.00000E+00        -0.53004E+07
 
   -0.45983E+07         0.31290E+07         0.00000E+00
    0.31290E+07        -0.21764E+08         0.00000E+00
    0.00000E+00         0.00000E+00        -0.52724E+07
 
   -0.46117E+07         0.49955E+07         0.00000E+00
    0.49955E+07        -0.21789E+08         0.00000E+00
    0.00000E+00         0.00000E+00        -0.52801E+07
 
   -0.50386E+07         0.71432E+07         0.00000E+00
    0.71432E+07        -0.21630E+08         0.00000E+00
    0.00000E+00         0.00000E+00        -0.53338E+07
 
   -0.16258E+08        -0.10568E+07         0.00000E+00
   -0.10568E+07        -0.21610E+08         0.00000E+00
    0.00000E+00         0.00000E+00        -0.75736E+07
 
   -0.15909E+08        -0.26581E+07         0.00000E+00
   -0.26581E+07        -0.21836E+08         0.00000E+00
    0.00000E+00         0.00000E+00        -0.75491E+07
 
   -0.15111E+08        -0.36415E+07         0.00000E+00
   -0.36415E+07        -0.22160E+08         0.00000E+00
    0.00000E+00         0.00000E+00        -0.74542E+07
 
   -0.14094E+08        -0.41155E+07         0.00000E+00
   -0.41155E+07        -0.22484E+08         0.00000E+00
    0.00000E+00         0.00000E+00        -0.73156E+07
 
   -0.13006E+08        -0.41937E+07         0.00000E+00
   -0.41937E+07        -0.22760E+08         0.00000E+00
    0.00000E+00         0.00000E+00        -0.71532E+07
 
   -0.11928E+08        -0.39740E+07         0.00000E+00
   -0.39740E+07        -0.22978E+08         0.00000E+00
    0.00000E+00         0.00000E+00        -0.69813E+07
 
   -0.10898E+08        -0.35288E+07         0.00000E+00
   -0.35288E+07        -0.23149E+08         0.00000E+00
    0.00000E+00         0.00000E+00        -0.68093E+07
 
   -0.99242E+07        -0.29027E+07         0.00000E+00
   -0.29027E+07        -0.23292E+08         0.00000E+00
    0.00000E+00         0.00000E+00        -0.66433E+07
 
   -0.90071E+07        -0.21149E+07         0.00000E+00
   -0.21149E+07        -0.23431E+08         0.00000E+00
    0.00000E+00         0.00000E+00        -0.64876E+07
 
   -0.81452E+07        -0.11622E+07         0.00000E+00
   -0.11622E+07        -0.23582E+08         0.00000E+00
    0.00000E+00         0.00000E+00        -0.63455E+07
 
   -0.73468E+07        -0.21280E+05         0.00000E+00
   -0.21280E+05        -0.23757E+08         0.00000E+00
    0.00000E+00         0.00000E+00        -0.62207E+07
 
   -0.66400E+07         0.13485E+07         0.00000E+00
    0.13485E+07        -0.23950E+08         0.00000E+00
    0.00000E+00         0.00000E+00        -0.61179E+07
 
   -0.60835E+07         0.30000E+07         0.00000E+00
    0.30000E+07        -0.24135E+08         0.00000E+00
    0.00000E+00         0.00000E+00        -0.60438E+07
 
   -0.57779E+07         0.49884E+07         0.00000E+00
    0.49884E+07        -0.24259E+08         0.00000E+00
    0.00000E+00         0.00000E+00        -0.60073E+07
 
   -0.58722E+07         0.73558E+07         0.00000E+00
    0.73558E+07        -0.24230E+08         0.00000E+00
    0.00000E+00         0.00000E+00        -0.60204E+07
 
   -0.21931E+08        -0.11931E+07         0.00000E+00
   -0.11931E+07        -0.25222E+08         0.00000E+00
    0.00000E+00         0.00000E+00        -0.94306E+07
 
   -0.20841E+08        -0.29333E+07         0.00000E+00
   -0.29333E+07        -0.25413E+08         0.00000E+00
    0.00000E+00         0.00000E+00        -0.92508E+07
 
   -0.19429E+08        -0.39266E+07         0.00000E+00
   -0.39266E+07        -0.25646E+08         0.00000E+00
    0.00000E+00         0.00000E+00        -0.90151E+07
 
   -0.17940E+08        -0.43441E+07         0.00000E+00
   -0.43441E+07        -0.25826E+08         0.00000E+00
    0.00000E+00         0.00000E+00        -0.87532E+07
 
   -0.16508E+08        -0.43494E+07         0.00000E+00
   -0.43494E+07        -0.25920E+08         0.00000E+00
    0.00000E+00         0.00000E+00        -0.84855E+07
 
   -0.15182E+08        -0.40703E+07         0.00000E+00
   -0.40703E+07        -0.25940E+08         0.00000E+00
    0.00000E+00         0.00000E+00        -0.82244E+07
 
   -0.13966E+08        -0.35919E+07         0.00000E+00
   -0.35919E+07        -0.25917E+08         0.00000E+00
    0.00000E+00         0.00000E+00        -0.79765E+07
 
   -0.12838E+08        -0.29612E+07         0.00000E+00
   -0.29612E+07        -0.25886E+08         0.00000E+00
    0.00000E+00         0.00000E+00        -0.77447E+07
 
   -0.11771E+08        -0.21947E+07         0.00000E+00
   -0.21947E+07        -0.25878E+08         0.00000E+00
    0.00000E+00         0.00000E+00        -0.75299E+07
 
   -0.10743E+08        -0.12827E+07         0.00000E+00
   -0.12827E+07        -0.25922E+08         0.00000E+00
    0.00000E+00         0.00000E+00        -0.73328E+07
 
   -0.97379E+07        -0.19133E+06         0.00000E+00
   -0.19133E+06        -0.26035E+08         0.00000E+00
    0.00000E+00         0.00000E+00        -0.71545E+07
 
   -0.87659E+07         0.11377E+07         0.00000E+00
    0.11377E+07        -0.26223E+08         0.00000E+00
    0.00000E+00         0.00000E+00        -0.69979E+07
 
   -0.78722E+07         0.27849E+07         0.00000E+00
    0.27849E+07        -0.26470E+08         0.00000E+00
    0.00000E+00         0.00000E+00        -0.68685E+07
 
   -0.71582E+07         0.48437E+07         0.00000E+00
    0.48437E+07        -0.26722E+08         0.00000E+00
    0.00000E+00         0.00000E+00        -0.67760E+07
 
   -0.67952E+07         0.73994E+07         0.00000E+00
    0.73994E+07        -0.26874E+08         0.00000E+00
    0.00000E+00         0.00000E+00        -0.67339E+07
 
   -0.28153E+08        -0.13126E+07         0.00000E+00
   -0.13126E+07        -0.29174E+08         0.00000E+00
    0.00000E+00         0.00000E+00        -0.11465E+08
 
   -0.26149E+08        -0.31303E+07         0.00000E+00
   -0.31303E+07        -0.29305E+08         0.00000E+00
    0.00000E+00         0.00000E+00        -0.11091E+08
 
   -0.24028E+08        -0.40611E+07         0.00000E+00
   -0.40611E+07        -0.29394E+08         0.00000E+00
    0.00000E+00         0.00000E+00        -0.10684E+08
 
   -0.22041E+08        -0.43684E+07         0.00000E+00
   -0.43684E+07        -0.29356E+08         0.00000E+00
    0.00000E+00         0.00000E+00        -0.10279E+08
 
   -0.20279E+08        -0.42768E+07         0.00000E+00
   -0.42768E+07        -0.29195E+08         0.00000E+00
    0.00000E+00         0.00000E+00        -0.98949E+07
 
   -0.18738E+08        -0.39400E+07         0.00000E+00
   -0.39400E+07        -0.28957E+08         0.00000E+00
    0.00000E+00         0.00000E+00        -0.95390E+07
 
   -0.17371E+08        -0.34471E+07         0.00000E+00
   -0.34471E+07        -0.28694E+08         0.00000E+00
    0.00000E+00         0.00000E+00        -0.92130E+07
 
   -0.16120E+08        -0.28409E+07         0.00000E+00
   -0.28409E+07        -0.28453E+08         0.00000E+00
    0.00000E+00         0.00000E+00        -0.89147E+07
 
   -0.14931E+08        -0.21321E+07         0.00000E+00
   -0.21321E+07        -0.28273E+08         0.00000E+00
    0.00000E+00         0.00000E+00        -0.86408E+07
 
   -0.13755E+08        -0.13051E+07         0.00000E+00
   -0.13051E+07        -0.28185E+08         0.00000E+00
    0.00000E+00         0.00000E+00        -0.83879E+07
 
   -0.12551E+08        -0.31829E+06         0.00000E+00
   -0.31829E+06        -0.28217E+08         0.00000E+00
    0.00000E+00         0.00000E+00        -0.81536E+07
 
   -0.11299E+08         0.90152E+06         0.00000E+00
    0.90152E+06        -0.28390E+08         0.00000E+00
    0.00000E+00         0.00000E+00        -0.79379E+07
 
   -0.10016E+08         0.24649E+07         0.00000E+00
    0.24649E+07        -0.28704E+08         0.00000E+00
    0.00000E+00         0.00000E+00        -0.77441E+07
 
   -0.87916E+07         0.45161E+07         0.00000E+00
    0.45161E+07        -0.29117E+08         0.00000E+00
    0.00000E+00         0.00000E+00        -0.75816E+07
 
   -0.78165E+07         0.72050E+07         0.00000E+00
    0.72050E+07        -0.29514E+08         0.00000E+00
    0.00000E+00         0.00000E+00        -0.74662E+07
 
   -0.34834E+08        -0.14046E+07         0.00000E+00
   -0.14046E+07        -0.33432E+08         0.00000E+00
    0.00000E+00         0.00000E+00        -0.13653E+08
 
   -0.31711E+08        -0.31974E+07         0.00000E+00
   -0.31974E+07        -0.33462E+08         0.00000E+00
    0.00000E+00         0.00000E+00        -0.13035E+08
 
   -0.28801E+08        -0.39621E+07         0.00000E+00
   -0.39621E+07        -0.33320E+08         0.00000E+00
    0.00000E+00         0.00000E+00        -0.12424E+08
 
   -0.26329E+08        -0.41026E+07         0.00000E+00
   -0.41026E+07        -0.32965E+08         0.00000E+00
    0.00000E+00         0.00000E+00        -0.11859E+08
 
   -0.24288E+08        -0.39072E+07         0.00000E+00
   -0.39072E+07        -0.32469E+08         0.00000E+00
    0.00000E+00         0.00000E+00        -0.11351E+08
 
   -0.22584E+08        -0.35348E+07         0.00000E+00
   -0.35348E+07        -0.31920E+08         0.00000E+00
    0.00000E+00         0.00000E+00        -0.10901E+08
 
   -0.21111E+08        -0.30614E+07         0.00000E+00
   -0.30614E+07        -0.31386E+08         0.00000E+00
    0.00000E+00         0.00000E+00        -0.10499E+08
 
   -0.19775E+08        -0.25179E+07         0.00000E+00
   -0.25179E+07        -0.30916E+08         0.00000E+00
    0.00000E+00         0.00000E+00        -0.10138E+08
 
   -0.18496E+08        -0.19073E+07         0.00000E+00
   -0.19073E+07        -0.30548E+08         0.00000E+00
    0.00000E+00         0.00000E+00        -0.98088E+07
 
   -0.17200E+08        -0.12105E+07         0.00000E+00
   -0.12105E+07        -0.30315E+08         0.00000E+00
    0.00000E+00         0.00000E+00        -0.95028E+07
 
   -0.15818E+08        -0.38415E+06         0.00000E+00
   -0.38415E+06        -0.30250E+08         0.00000E+00
    0.00000E+00         0.00000E+00        -0.92135E+07
 
   -0.14290E+08         0.64980E+06         0.00000E+00
    0.64980E+06        -0.30389E+08         0.00000E+00
    0.00000E+00         0.00000E+00        -0.89358E+07
 
   -0.12581E+08         0.20264E+07         0.00000E+00
    0.20264E+07        -0.30765E+08         0.00000E+00
    0.00000E+00         0.00000E+00        -0.86692E+07
 
   -0.10735E+08         0.39531E+07         0.00000E+00
    0.39531E+07        -0.31369E+08         0.00000E+00
    0.00000E+00         0.00000E+00        -0.84207E+07
 
   -0.89531E+07         0.66831E+07         0.00000E+00
    0.66831E+07        -0.32092E+08         0.00000E+00
    0.00000E+00         0.00000E+00        -0.82089E+07
 
   -0.41825E+08        -0.14496E+07         0.00000E+00
   -0.14496E+07        -0.37942E+08         0.00000E+00
    0.00000E+00         0.00000E+00        -0.15953E+08
 
   -0.37336E+08        -0.30380E+07         0.00000E+00
   -0.30380E+07        -0.37786E+08         0.00000E+00
    0.00000E+00         0.00000E+00        -0.15025E+08
 
   -0.33618E+08        -0.35007E+07         0.00000E+00
   -0.35007E+07        -0.37259E+08         0.00000E+00
    0.00000E+00         0.00000E+00        -0.14175E+08
 
   -0.30746E+08        -0.34482E+07         0.00000E+00
   -0.34482E+07        -0.36459E+08         0.00000E+00
    0.00000E+00         0.00000E+00        -0.13441E+08
 
   -0.28515E+08        -0.31848E+07         0.00000E+00
   -0.31848E+07        -0.35563E+08         0.00000E+00
    0.00000E+00         0.00000E+00        -0.12816E+08
 
   -0.26714E+08        -0.28281E+07         0.00000E+00
   -0.28281E+07        -0.34682E+08         0.00000E+00
    0.00000E+00         0.00000E+00        -0.12279E+08
 
   -0.25182E+08        -0.24246E+07         0.00000E+00
   -0.24246E+07        -0.33876E+08         0.00000E+00
    0.00000E+00         0.00000E+00        -0.11812E+08
 
   -0.23797E+08        -0.19886E+07         0.00000E+00
   -0.19886E+07        -0.33186E+08         0.00000E+00
    0.00000E+00         0.00000E+00        -0.11397E+08
 
   -0.22459E+08        -0.15164E+07         0.00000E+00
   -0.15164E+07        -0.32639E+08         0.00000E+00
    0.00000E+00         0.00000E+00        -0.11020E+08
 
   -0.21075E+08        -0.98965E+06         0.00000E+00
   -0.98965E+06        -0.32263E+08         0.00000E+00
    0.00000E+00         0.00000E+00        -0.10668E+08
 
   -0.19552E+08        -0.37120E+06         0.00000E+00
   -0.37120E+06        -0.32093E+08         0.00000E+00
    0.00000E+00         0.00000E+00        -0.10329E+08
 
   -0.17783E+08         0.40690E+06         0.00000E+00
    0.40690E+06        -0.32176E+08         0.00000E+00
    0.00000E+00         0.00000E+00        -0.99919E+07
 
   -0.15651E+08         0.14744E+07         0.00000E+00
    0.14744E+07        -0.32581E+08         0.00000E+00
    0.00000E+00         0.00000E+00        -0.96463E+07
 
   -0.13085E+08         0.31007E+07         0.00000E+00
    0.31007E+07        -0.33388E+08         0.00000E+00
    0.00000E+00         0.00000E+00        -0.92946E+07
 
   -0.10242E+08         0.57122E+07         0.00000E+00
    0.57122E+07        -0.34532E+08         0.00000E+00
    0.00000E+00         0.00000E+00        -0.89547E+07
 
   -0.48863E+08        -0.13889E+07         0.00000E+00
   -0.13889E+07        -0.42609E+08         0.00000E+00
    0.00000E+00         0.00000E+00        -0.18294E+08
 
   -0.42751E+08        -0.24315E+07         0.00000E+00
   -0.24315E+07        -0.42021E+08         0.00000E+00
    0.00000E+00         0.00000E+00        -0.16955E+08
 
   -0.38379E+08        -0.25036E+07         0.00000E+00
   -0.25036E+07        -0.40854E+08         0.00000E+00
    0.00000E+00         0.00000E+00        -0.15846E+08
 
   -0.35286E+08        -0.23396E+07         0.00000E+00
   -0.23396E+07        -0.39535E+08         0.00000E+00
    0.00000E+00         0.00000E+00        -0.14964E+08
 
   -0.32965E+08        -0.21015E+07         0.00000E+00
   -0.21015E+07        -0.38250E+08         0.00000E+00
    0.00000E+00         0.00000E+00        -0.14243E+08
 
   -0.31124E+08        -0.18371E+07         0.00000E+00
   -0.18371E+07        -0.37075E+08         0.00000E+00
    0.00000E+00         0.00000E+00        -0.13640E+08
 
   -0.29570E+08        -0.15617E+07         0.00000E+00
   -0.15617E+07        -0.36044E+08         0.00000E+00
    0.00000E+00         0.00000E+00        -0.13123E+08
 
   -0.28164E+08        -0.12776E+07         0.00000E+00
   -0.12776E+07        -0.35176E+08         0.00000E+00
    0.00000E+00         0.00000E+00        -0.12668E+08
 
   -0.26794E+08        -0.97858E+06         0.00000E+00
   -0.97858E+06        -0.34486E+08         0.00000E+00
    0.00000E+00         0.00000E+00        -0.12256E+08
 
   -0.25355E+08        -0.65124E+06         0.00000E+00
   -0.65124E+06        -0.33994E+08         0.00000E+00
    0.00000E+00         0.00000E+00        -0.11870E+08
 
   -0.23736E+08        -0.27133E+06         0.00000E+00
   -0.27133E+06        -0.33730E+08         0.00000E+00
    0.00000E+00         0.00000E+00        -0.11493E+08
 
   -0.21794E+08         0.20544E+06         0.00000E+00
    0.20544E+06        -0.33745E+08         0.00000E+00
    0.00000E+00         0.00000E+00        -0.11108E+08
 
   -0.19331E+08         0.86793E+06         0.00000E+00
    0.86793E+06        -0.34128E+08         0.00000E+00
    0.00000E+00         0.00000E+00        -0.10692E+08
 
   -0.16025E+08         0.19341E+07         0.00000E+00
    0.19341E+07        -0.35047E+08         0.00000E+00
    0.00000E+00         0.00000E+00        -0.10214E+08
 
   -0.11782E+08         0.41030E+07         0.00000E+00
    0.41030E+07        -0.36741E+08         0.00000E+00
    0.00000E+00         0.00000E+00        -0.97047E+07
 
   -0.55377E+08        -0.85577E+06         0.00000E+00
   -0.85577E+06        -0.46921E+08         0.00000E+00
    0.00000E+00         0.00000E+00        -0.20460E+08
 
   -0.47735E+08        -0.99850E+06         0.00000E+00
   -0.99850E+06        -0.45327E+08         0.00000E+00
    0.00000E+00         0.00000E+00        -0.18612E+08
 
   -0.43158E+08        -0.92422E+06         0.00000E+00
   -0.92422E+06        -0.43526E+08         0.00000E+00
    0.00000E+00         0.00000E+00        -0.17337E+08
 
   -0.39996E+08        -0.83410E+06         0.00000E+00
   -0.83410E+06        -0.41825E+08         0.00000E+00
    0.00000E+00         0.00000E+00        -0.16364E+08
 
   -0.37654E+08        -0.73646E+06         0.00000E+00
   -0.73646E+06        -0.40290E+08         0.00000E+00
    0.00000E+00         0.00000E+00        -0.15589E+08
 
   -0.35805E+08        -0.63794E+06         0.00000E+00
   -0.63794E+06        -0.38939E+08         0.00000E+00
    0.00000E+00         0.00000E+00        -0.14949E+08
 
   -0.34246E+08        -0.53975E+06         0.00000E+00
   -0.53975E+06        -0.37778E+08         0.00000E+00
    0.00000E+00         0.00000E+00        -0.14405E+08
 
   -0.32834E+08        -0.44085E+06         0.00000E+00
   -0.44085E+06        -0.36811E+08         0.00000E+00
    0.00000E+00         0.00000E+00        -0.13929E+08
 
   -0.31451E+08        -0.33842E+06         0.00000E+00
   -0.33842E+06        -0.36042E+08         0.00000E+00
    0.00000E+00         0.00000E+00        -0.13498E+08
 
   -0.29987E+08        -0.22752E+06         0.00000E+00
   -0.22752E+06        -0.35484E+08         0.00000E+00
    0.00000E+00         0.00000E+00        -0.13094E+08
 
   -0.28320E+08        -0.99817E+05         0.00000E+00
   -0.99817E+05        -0.35163E+08         0.00000E+00
    0.00000E+00         0.00000E+00        -0.12697E+08
 
   -0.26290E+08         0.59515E+05         0.00000E+00
    0.59515E+05        -0.35127E+08         0.00000E+00
    0.00000E+00         0.00000E+00        -0.12283E+08
 
   -0.23647E+08         0.28172E+06         0.00000E+00
    0.28172E+06        -0.35470E+08         0.00000E+00
    0.00000E+00         0.00000E+00        -0.11824E+08
 
   -0.19936E+08         0.63630E+06         0.00000E+00
    0.63630E+06        -0.36388E+08         0.00000E+00
    0.00000E+00         0.00000E+00        -0.11265E+08
 
   -0.13849E+08         0.15546E+07         0.00000E+00
    0.15546E+07        -0.38434E+08         0.00000E+00
    0.00000E+00         0.00000E+00        -0.10457E+08
 
TENSORS stresstot double 
   -0.49481E+08         0.61085E+04         0.00000E+00
    0.61085E+04        -0.59993E+08         0.00000E+00
    0.00000E+00         0.00000E+00        -0.57879E+08
 
   -0.50136E+08         0.27916E+05         0.00000E+00
    0.27916E+05        -0.59956E+08         0.00000E+00
    0.00000E+00         0.00000E+00        -0.58003E+08
 
   -0.50833E+08         0.45253E+05         0.00000E+00
    0.45253E+05        -0.59882E+08         0.00000E+00
    0.00000E+00         0.00000E+00        -0.58127E+08
 
   -0.51564E+08         0.57938E+05         0.00000E+00
    0.57938E+05        -0.59778E+08         0.00000E+00
    0.00000E+00         0.00000E+00        -0.58253E+08
 
   -0.52314E+08         0.67310E+05         0.00000E+00
    0.67310E+05        -0.59653E+08         0.00000E+00
    0.00000E+00         0.00000E+00        -0.58378E+08
 
   -0.53072E+08         0.74412E+05         0.00000E+00
    0.74412E+05        -0.59512E+08         0.00000E+00
    0.00000E+00         0.00000E+00        -0.58501E+08
 
   -0.53826E+08         0.80079E+05         0.00000E+00
    0.80079E+05        -0.59358E+08         0.00000E+00
    0.00000E+00         0.00000E+00        -0.58621E+08
 
   -0.54570E+08         0.84926E+05         0.00000E+00
    0.84926E+05        -0.59193E+08         0.00000E+00
    0.00000E+00         0.00000E+00        -0.58737E+08
 
   -0.55297E+08         0.89363E+05         0.00000E+00
    0.89363E+05        -0.59019E+08         0.00000E+00
    0.00000E+00         0.00000E+00        -0.58848E+08
 
   -0.56003E+08         0.93618E+05         0.00000E+00
    0.93618E+05        -0.58836E+08         0.00000E+00
    0.00000E+00         0.00000E+00        -0.58952E+08
 
   -0.56683E+08         0.97775E+05         0.00000E+00
    0.97775E+05        -0.58645E+08         0.00000E+00
    0.00000E+00         0.00000E+00        -0.59050E+08
 
   -0.57336E+08         0.10183E+06         0.00000E+00
    0.10183E+06        -0.58446E+08         0.00000E+00
    0.00000E+00         0.00000E+00        -0.59141E+08
 
   -0.57958E+08         0.10580E+06         0.00000E+00
    0.10580E+06        -0.58238E+08         0.00000E+00
    0.00000E+00         0.00000E+00        -0.59224E+08
 
   -0.58550E+08         0.10996E+06         0.00000E+00
    0.10996E+06        -0.58023E+08         0.00000E+00
    0.00000E+00         0.00000E+00        -0.59299E+08
 
   -0.59120E+08         0.11808E+06         0.00000E+00
    0.11808E+06        -0.57796E+08         0.00000E+00
    0.00000E+00         0.00000E+00        -0.59367E+08
 
   -0.49444E+08         0.29840E+05         0.00000E+00
    0.29840E+05        -0.59988E+08         0.00000E+00
    0.00000E+00         0.00000E+00        -0.57838E+08
 
   -0.50098E+08         0.88193E+05         0.00000E+00
    0.88193E+05        -0.59943E+08         0.00000E+00
    0.00000E+00         0.00000E+00        -0.57960E+08
 
   -0.50804E+08         0.13672E+06         0.00000E+00
    0.13672E+06        -0.59865E+08         0.00000E+00
    0.00000E+00         0.00000E+00        -0.58086E+08
 
   -0.51542E+08         0.17335E+06         0.00000E+00
    0.17335E+06        -0.59762E+08         0.00000E+00
    0.00000E+00         0.00000E+00        -0.58213E+08
 
   -0.52298E+08         0.20069E+06         0.00000E+00
    0.20069E+06        -0.59638E+08         0.00000E+00
    0.00000E+00         0.00000E+00        -0.58339E+08
 
   -0.53059E+08         0.22158E+06         0.00000E+00
    0.22158E+06        -0.59500E+08         0.00000E+00
    0.00000E+00         0.00000E+00        -0.58464E+08
 
   -0.53816E+08         0.23840E+06         0.00000E+00
    0.23840E+06        -0.59349E+08         0.00000E+00
    0.00000E+00         0.00000E+00        -0.58585E+08
 
   -0.54561E+08         0.25294E+06         0.00000E+00
    0.25294E+06        -0.59188E+08         0.00000E+00
    0.00000E+00         0.00000E+00        -0.58702E+08
 
   -0.55288E+08         0.26639E+06         0.00000E+00
    0.26639E+06        -0.59018E+08         0.00000E+00
    0.00000E+00         0.00000E+00        -0.58813E+08
 
   -0.55994E+08         0.27942E+06         0.00000E+00
    0.27942E+06        -0.58838E+08         0.00000E+00
    0.00000E+00         0.00000E+00        -0.58919E+08
 
   -0.56675E+08         0.29225E+06         0.00000E+00
    0.29225E+06        -0.58650E+08         0.00000E+00
    0.00000E+00         0.00000E+00        -0.59017E+08
 
   -0.57327E+08         0.30485E+06         0.00000E+00
    0.30485E+06        -0.58452E+08         0.00000E+00
    0.00000E+00         0.00000E+00        -0.59108E+08
 
   -0.57950E+08         0.31722E+06         0.00000E+00
    0.31722E+06        -0.58246E+08         0.00000E+00
    0.00000E+00         0.00000E+00        -0.59191E+08
 
   -0.58541E+08         0.33032E+06         0.00000E+00
    0.33032E+06        -0.58030E+08         0.00000E+00
    0.00000E+00         0.00000E+00        -0.59266E+08
 
   -0.59096E+08         0.34948E+06         0.00000E+00
    0.34948E+06        -0.57806E+08         0.00000E+00
    0.00000E+00         0.00000E+00        -0.59332E+08
 
   -0.49360E+08         0.56724E+05         0.00000E+00
    0.56724E+05        -0.59988E+08         0.00000E+00
    0.00000E+00         0.00000E+00        -0.57786E+08
 
   -0.50028E+08         0.15310E+06         0.00000E+00
    0.15310E+06        -0.59942E+08         0.00000E+00
    0.00000E+00         0.00000E+00        -0.57910E+08
 
   -0.50750E+08         0.22885E+06         0.00000E+00
    0.22885E+06        -0.59864E+08         0.00000E+00
    0.00000E+00         0.00000E+00        -0.58039E+08
 
   -0.51502E+08         0.28650E+06         0.00000E+00
    0.28650E+06        -0.59763E+08         0.00000E+00
    0.00000E+00         0.00000E+00        -0.58169E+08
 
   -0.52267E+08         0.32996E+06         0.00000E+00
    0.32996E+06        -0.59644E+08         0.00000E+00
    0.00000E+00         0.00000E+00        -0.58299E+08
 
   -0.53035E+08         0.36357E+06         0.00000E+00
    0.36357E+06        -0.59512E+08         0.00000E+00
    0.00000E+00         0.00000E+00        -0.58426E+08
 
   -0.53796E+08         0.39108E+06         0.00000E+00
    0.39108E+06        -0.59369E+08         0.00000E+00
    0.00000E+00         0.00000E+00        -0.58549E+08
 
   -0.54542E+08         0.41534E+06         0.00000E+00
    0.41534E+06        -0.59216E+08         0.00000E+00
    0.00000E+00         0.00000E+00        -0.58668E+08
 
   -0.55271E+08         0.43825E+06         0.00000E+00
    0.43825E+06        -0.59053E+08         0.00000E+00
    0.00000E+00         0.00000E+00        -0.58781E+08
 
   -0.55976E+08         0.46083E+06         0.00000E+00
    0.46083E+06        -0.58880E+08         0.00000E+00
    0.00000E+00         0.00000E+00        -0.58888E+08
 
   -0.56657E+08         0.48337E+06         0.00000E+00
    0.48337E+06        -0.58697E+08         0.00000E+00
    0.00000E+00         0.00000E+00        -0.58987E+08
 
   -0.57310E+08         0.50572E+06         0.00000E+00
    0.50572E+06        -0.58503E+08         0.00000E+00
    0.00000E+00         0.00000E+00        -0.59079E+08
 
   -0.57933E+08         0.52768E+06         0.00000E+00
    0.52768E+06        -0.58298E+08         0.00000E+00
    0.00000E+00         0.00000E+00        -0.59163E+08
 
   -0.58522E+08         0.54989E+06         0.00000E+00
    0.54989E+06        -0.58084E+08         0.00000E+00
    0.00000E+00         0.00000E+00        -0.59238E+08
 
   -0.59070E+08         0.57402E+06         0.00000E+00
    0.57402E+06        -0.57864E+08         0.00000E+00
    0.00000E+00         0.00000E+00        -0.59303E+08
 
   -0.49229E+08         0.82353E+05         0.00000E+00
    0.82353E+05        -0.59989E+08         0.00000E+00
    0.00000E+00         0.00000E+00        -0.57718E+08
 
   -0.49927E+08         0.21663E+06         0.00000E+00
    0.21663E+06        -0.59946E+08         0.00000E+00
    0.00000E+00         0.00000E+00        -0.57849E+08
 
   -0.50673E+08         0.31792E+06         0.00000E+00
    0.31792E+06        -0.59872E+08         0.00000E+00
    0.00000E+00         0.00000E+00        -0.57984E+08
 
   -0.51444E+08         0.39389E+06         0.00000E+00
    0.39389E+06        -0.59778E+08         0.00000E+00
    0.00000E+00         0.00000E+00        -0.58119E+08
 
   -0.52223E+08         0.45131E+06         0.00000E+00
    0.45131E+06        -0.59668E+08         0.00000E+00
    0.00000E+00         0.00000E+00        -0.58253E+08
 
   -0.52999E+08         0.49630E+06         0.00000E+00
    0.49630E+06        -0.59547E+08         0.00000E+00
    0.00000E+00         0.00000E+00        -0.58384E+08
 
   -0.53765E+08         0.53395E+06         0.00000E+00
    0.53395E+06        -0.59416E+08         0.00000E+00
    0.00000E+00         0.00000E+00        -0.58511E+08
 
   -0.54514E+08         0.56810E+06         0.00000E+00
    0.56810E+06        -0.59275E+08         0.00000E+00
    0.00000E+00         0.00000E+00        -0.58633E+08
 
   -0.55243E+08         0.60125E+06         0.00000E+00
    0.60125E+06        -0.59123E+08         0.00000E+00
    0.00000E+00         0.00000E+00        -0.58748E+08
 
   -0.55948E+08         0.63467E+06         0.00000E+00
    0.63467E+06        -0.58960E+08         0.00000E+00
    0.00000E+00         0.00000E+00        -0.58857E+08
 
   -0.56629E+08         0.66860E+06         0.00000E+00
    0.66860E+06        -0.58785E+08         0.00000E+00
    0.00000E+00         0.00000E+00        -0.58958E+08
 
   -0.57282E+08         0.70254E+06         0.00000E+00
    0.70254E+06        -0.58597E+08         0.00000E+00
    0.00000E+00         0.00000E+00        -0.59051E+08
 
   -0.57906E+08         0.73566E+06         0.00000E+00
    0.73566E+06        -0.58397E+08         0.00000E+00
    0.00000E+00         0.00000E+00        -0.59135E+08
 
   -0.58495E+08         0.76716E+06         0.00000E+00
    0.76716E+06        -0.58186E+08         0.00000E+00
    0.00000E+00         0.00000E+00        -0.59211E+08
 
   -0.59044E+08         0.79617E+06         0.00000E+00
    0.79617E+06        -0.57966E+08         0.00000E+00
    0.00000E+00         0.00000E+00        -0.59277E+08
 
   -0.49053E+08         0.10558E+06         0.00000E+00
    0.10558E+06        -0.59991E+08         0.00000E+00
    0.00000E+00         0.00000E+00        -0.57633E+08
 
   -0.49796E+08         0.27467E+06         0.00000E+00
    0.27467E+06        -0.59952E+08         0.00000E+00
    0.00000E+00         0.00000E+00        -0.57774E+08
 
   -0.50575E+08         0.39907E+06         0.00000E+00
    0.39907E+06        -0.59887E+08         0.00000E+00
    0.00000E+00         0.00000E+00        -0.57917E+08
 
   -0.51371E+08         0.49087E+06         0.00000E+00
    0.49087E+06        -0.59804E+08         0.00000E+00
    0.00000E+00         0.00000E+00        -0.58060E+08
 
   -0.52167E+08         0.56012E+06         0.00000E+00
    0.56012E+06        -0.59709E+08         0.00000E+00
    0.00000E+00         0.00000E+00        -0.58200E+08
 
   -0.52954E+08         0.61511E+06         0.00000E+00
    0.61511E+06        -0.59603E+08         0.00000E+00
    0.00000E+00         0.00000E+00        -0.58336E+08
 
   -0.53725E+08         0.66243E+06         0.00000E+00
    0.66243E+06        -0.59489E+08         0.00000E+00
    0.00000E+00         0.00000E+00        -0.58467E+08
 
   -0.54475E+08         0.70686E+06         0.00000E+00
    0.70686E+06        -0.59364E+08         0.00000E+00
    0.00000E+00         0.00000E+00        -0.58593E+08
 
   -0.55204E+08         0.75143E+06         0.00000E+00
    0.75143E+06        -0.59228E+08         0.00000E+00
    0.00000E+00         0.00000E+00        -0.58711E+08
 
   -0.55908E+08         0.79754E+06         0.00000E+00
    0.79754E+06        -0.59079E+08         0.00000E+00
    0.00000E+00         0.00000E+00        -0.58822E+08
 
   -0.56588E+08         0.84517E+06         0.00000E+00
    0.84517E+06        -0.58915E+08         0.00000E+00
    0.00000E+00         0.00000E+00        -0.58925E+08
 
   -0.57242E+08         0.89323E+06         0.00000E+00
    0.89323E+06        -0.58736E+08         0.00000E+00
    0.00000E+00         0.00000E+00        -0.59020E+08
 
   -0.57867E+08         0.93985E+06         0.00000E+00
    0.93985E+06        -0.58542E+08         0.00000E+00
    0.00000E+00         0.00000E+00        -0.59107E+08
 
   -0.58460E+08         0.98269E+06         0.00000E+00
    0.98269E+06        -0.58333E+08         0.00000E+00
    0.00000E+00         0.00000E+00        -0.59183E+08
 
   -0.59015E+08         0.10190E+07         0.00000E+00
    0.10190E+07        -0.58114E+08         0.00000E+00
    0.00000E+00         0.00000E+00        -0.59250E+08
 
   -0.48838E+08         0.12560E+06         0.00000E+00
    0.12560E+06        -0.59992E+08         0.00000E+00
    0.00000E+00         0.00000E+00        -0.57529E+08
 
   -0.49639E+08         0.32434E+06         0.00000E+00
    0.32434E+06        -0.59960E+08         0.00000E+00
    0.00000E+00         0.00000E+00        -0.57683E+08
 
   -0.50461E+08         0.46794E+06         0.00000E+00
    0.46794E+06        -0.59907E+08         0.00000E+00
    0.00000E+00         0.00000E+00        -0.57837E+08
 
   -0.51286E+08         0.57247E+06         0.00000E+00
    0.57247E+06        -0.59841E+08         0.00000E+00
    0.00000E+00         0.00000E+00        -0.57988E+08
 
   -0.52101E+08         0.65123E+06         0.00000E+00
    0.65123E+06        -0.59764E+08         0.00000E+00
    0.00000E+00         0.00000E+00        -0.58136E+08
 
   -0.52899E+08         0.71486E+06         0.00000E+00
    0.71486E+06        -0.59680E+08         0.00000E+00
    0.00000E+00         0.00000E+00        -0.58279E+08
 
   -0.53674E+08         0.77152E+06         0.00000E+00
    0.77152E+06        -0.59587E+08         0.00000E+00
    0.00000E+00         0.00000E+00        -0.58415E+08
 
   -0.54425E+08         0.82694E+06         0.00000E+00
    0.82694E+06        -0.59484E+08         0.00000E+00
    0.00000E+00         0.00000E+00        -0.58545E+08
 
   -0.55151E+08         0.88459E+06         0.00000E+00
    0.88459E+06        -0.59368E+08         0.00000E+00
    0.00000E+00         0.00000E+00        -0.58667E+08
 
   -0.55853E+08         0.94584E+06         0.00000E+00
    0.94584E+06        -0.59237E+08         0.00000E+00
    0.00000E+00         0.00000E+00        -0.58781E+08
 
   -0.56532E+08         0.10102E+07         0.00000E+00
    0.10102E+07        -0.59088E+08         0.00000E+00
    0.00000E+00         0.00000E+00        -0.58887E+08
 
   -0.57186E+08         0.10758E+07         0.00000E+00
    0.10758E+07        -0.58920E+08         0.00000E+00
    0.00000E+00         0.00000E+00        -0.58984E+08
 
   -0.57814E+08         0.11395E+07         0.00000E+00
    0.11395E+07        -0.58733E+08         0.00000E+00
    0.00000E+00         0.00000E+00        -0.59072E+08
 
   -0.58414E+08         0.11973E+07         0.00000E+00
    0.11973E+07        -0.58527E+08         0.00000E+00
    0.00000E+00         0.00000E+00        -0.59151E+08
 
   -0.58978E+08         0.12448E+07         0.00000E+00
    0.12448E+07        -0.58305E+08         0.00000E+00
    0.00000E+00         0.00000E+00        -0.59220E+08
 
   -0.48590E+08         0.14162E+06         0.00000E+00
    0.14162E+06        -0.59994E+08         0.00000E+00
    0.00000E+00         0.00000E+00        -0.57402E+08
 
   -0.49461E+08         0.36309E+06         0.00000E+00
    0.36309E+06        -0.59971E+08         0.00000E+00
    0.00000E+00         0.00000E+00        -0.57572E+08
 
   -0.50333E+08         0.52049E+06         0.00000E+00
    0.52049E+06        -0.59933E+08         0.00000E+00
    0.00000E+00         0.00000E+00        -0.57739E+08
 
   -0.51192E+08         0.63375E+06         0.00000E+00
    0.63375E+06        -0.59887E+08         0.00000E+00
    0.00000E+00         0.00000E+00        -0.57901E+08
 
   -0.52028E+08         0.71930E+06         0.00000E+00
    0.71930E+06        -0.59835E+08         0.00000E+00
    0.00000E+00         0.00000E+00        -0.58058E+08
 
   -0.52836E+08         0.79014E+06         0.00000E+00
    0.79014E+06        -0.59777E+08         0.00000E+00
    0.00000E+00         0.00000E+00        -0.58208E+08
 
   -0.53613E+08         0.85597E+06         0.00000E+00
    0.85597E+06        -0.59712E+08         0.00000E+00
    0.00000E+00         0.00000E+00        -0.58351E+08
 
   -0.54362E+08         0.92345E+06         0.00000E+00
    0.92345E+06        -0.59635E+08         0.00000E+00
    0.00000E+00         0.00000E+00        -0.58485E+08
 
   -0.55084E+08         0.99635E+06         0.00000E+00
    0.99635E+06        -0.59544E+08         0.00000E+00
    0.00000E+00         0.00000E+00        -0.58611E+08
 
   -0.55781E+08         0.10759E+07         0.00000E+00
    0.10759E+07        -0.59435E+08         0.00000E+00
    0.00000E+00         0.00000E+00        -0.58729E+08
 
   -0.56456E+08         0.11609E+07         0.00000E+00
    0.11609E+07        -0.59304E+08         0.00000E+00
    0.00000E+00         0.00000E+00        -0.58838E+08
 
   -0.57110E+08         0.12485E+07         0.00000E+00
    0.12485E+07        -0.59149E+08         0.00000E+00
    0.00000E+00         0.00000E+00        -0.58937E+08
 
   -0.57742E+08         0.13341E+07         0.00000E+00
    0.13341E+07        -0.58970E+08         0.00000E+00
    0.00000E+00         0.00000E+00        -0.59028E+08
 
   -0.58351E+08         0.14120E+07         0.00000E+00
    0.14120E+07        -0.58766E+08         0.00000E+00
    0.00000E+00         0.00000E+00        -0.59109E+08
 
   -0.58931E+08         0.14759E+07         0.00000E+00
    0.14759E+07        -0.58541E+08         0.00000E+00
    0.00000E+00         0.00000E+00        -0.59180E+08
 
   -0.48318E+08         0.15275E+06         0.00000E+00
    0.15275E+06        -0.59997E+08         0.00000E+00
    0.00000E+00         0.00000E+00        -0.57251E+08
 
   -0.49269E+08         0.38837E+06         0.00000E+00
    0.38837E+06        -0.59983E+08         0.00000E+00
    0.00000E+00         0.00000E+00        -0.57439E+08
 
   -0.50197E+08         0.55277E+06         0.00000E+00
    0.55277E+06        -0.59964E+08         0.00000E+00
    0.00000E+00         0.00000E+00        -0.57621E+08
 
   -0.51093E+08         0.66978E+06         0.00000E+00
    0.66978E+06        -0.59943E+08         0.00000E+00
    0.00000E+00         0.00000E+00        -0.57795E+08
 
   -0.51949E+08         0.75891E+06         0.00000E+00
    0.75891E+06        -0.59921E+08         0.00000E+00
    0.00000E+00         0.00000E+00        -0.57962E+08
 
   -0.52765E+08         0.83537E+06         0.00000E+00
    0.83537E+06        -0.59895E+08         0.00000E+00
    0.00000E+00         0.00000E+00        -0.58120E+08
 
   -0.53542E+08         0.91038E+06         0.00000E+00
    0.91038E+06        -0.59862E+08         0.00000E+00
    0.00000E+00         0.00000E+00        -0.58269E+08
 
   -0.54284E+08         0.99134E+06         0.00000E+00
    0.99134E+06        -0.59818E+08         0.00000E+00
    0.00000E+00         0.00000E+00        -0.58409E+08
 
   -0.54997E+08         0.10822E+07         0.00000E+00
    0.10822E+07        -0.59757E+08         0.00000E+00
    0.00000E+00         0.00000E+00        -0.58539E+08
 
   -0.55686E+08         0.11839E+07         0.00000E+00
    0.11839E+07        -0.59673E+08         0.00000E+00
    0.00000E+00         0.00000E+00        -0.58660E+08
 
   -0.56356E+08         0.12944E+07         0.00000E+00
    0.12944E+07        -0.59564E+08         0.00000E+00
    0.00000E+00         0.00000E+00        -0.58772E+08
 
   -0.57009E+08         0.14096E+07         0.00000E+00
    0.14096E+07        -0.59425E+08         0.00000E+00
    0.00000E+00         0.00000E+00        -0.58875E+08
 
   -0.57646E+08         0.15233E+07         0.00000E+00
    0.15233E+07        -0.59254E+08         0.00000E+00
    0.00000E+00         0.00000E+00        -0.58968E+08
 
   -0.58267E+08         0.16277E+07         0.00000E+00
    0.16277E+07        -0.59053E+08         0.00000E+00
    0.00000E+00         0.00000E+00        -0.59052E+08
 
   -0.58867E+08         0.17144E+07         0.00000E+00
    0.17144E+07        -0.58823E+08         0.00000E+00
    0.00000E+00         0.00000E+00        -0.59126E+08
 
   -0.48032E+08         0.15800E+06         0.00000E+00
    0.15800E+06        -0.60000E+08         0.00000E+00
    0.00000E+00         0.00000E+00        -0.57072E+08
 
   -0.49071E+08         0.39745E+06         0.00000E+00
    0.39745E+06        -0.59998E+08         0.00000E+00
    0.00000E+00         0.00000E+00        -0.57279E+08
 
   -0.50060E+08         0.56073E+06         0.00000E+00
    0.56073E+06        -0.60001E+08         0.00000E+00
    0.00000E+00         0.00000E+00        -0.57478E+08
 
   -0.50993E+08         0.67561E+06         0.00000E+00
    0.67561E+06        -0.60010E+08         0.00000E+00
    0.00000E+00         0.00000E+00        -0.57666E+08
 
   -0.51867E+08         0.76459E+06         0.00000E+00
    0.76459E+06        -0.60022E+08         0.00000E+00
    0.00000E+00         0.00000E+00        -0.57843E+08
 
   -0.52687E+08         0.84499E+06         0.00000E+00
    0.84499E+06        -0.60034E+08         0.00000E+00
    0.00000E+00         0.00000E+00        -0.58010E+08
 
   -0.53458E+08         0.92931E+06         0.00000E+00
    0.92931E+06        -0.60040E+08         0.00000E+00
    0.00000E+00         0.00000E+00        -0.58165E+08
 
   -0.54190E+08         0.10256E+07         0.00000E+00
    0.10256E+07        -0.60033E+08         0.00000E+00
    0.00000E+00         0.00000E+00        -0.58310E+08
 
   -0.54889E+08         0.11378E+07         0.00000E+00
    0.11378E+07        -0.60006E+08         0.00000E+00
    0.00000E+00         0.00000E+00        -0.58444E+08
 
   -0.55565E+08         0.12662E+07         0.00000E+00
    0.12662E+07        -0.59952E+08         0.00000E+00
    0.00000E+00         0.00000E+00        -0.58569E+08
 
   -0.56226E+08         0.14080E+07         0.00000E+00
    0.14080E+07        -0.59867E+08         0.00000E+00
    0.00000E+00         0.00000E+00        -0.58684E+08
 
   -0.56876E+08         0.15575E+07         0.00000E+00
    0.15575E+07        -0.59746E+08         0.00000E+00
    0.00000E+00         0.00000E+00        -0.58790E+08
 
   -0.57519E+08         0.17066E+07         0.00000E+00
    0.17066E+07        -0.59585E+08         0.00000E+00
    0.00000E+00         0.00000E+00        -0.58886E+08
 
   -0.58154E+08         0.18454E+07         0.00000E+00
    0.18454E+07        -0.59386E+08         0.00000E+00
    0.00000E+00         0.00000E+00        -0.58974E+08
 
   -0.58779E+08         0.19628E+07         0.00000E+00
    0.19628E+07        -0.59149E+08         0.00000E+00
    0.00000E+00         0.00000E+00        -0.59051E+08
 
   -0.47745E+08         0.15627E+06         0.00000E+00
    0.15627E+06        -0.60003E+08         0.00000E+00
    0.00000E+00         0.00000E+00        -0.56860E+08
 
   -0.48878E+08         0.38746E+06         0.00000E+00
    0.38746E+06        -0.60016E+08         0.00000E+00
    0.00000E+00         0.00000E+00        -0.57090E+08
 
   -0.49929E+08         0.54019E+06         0.00000E+00
    0.54019E+06        -0.60045E+08         0.00000E+00
    0.00000E+00         0.00000E+00        -0.57306E+08
 
   -0.50896E+08         0.64625E+06         0.00000E+00
    0.64625E+06        -0.60087E+08         0.00000E+00
    0.00000E+00         0.00000E+00        -0.57508E+08
 
   -0.51785E+08         0.73094E+06         0.00000E+00
    0.73094E+06        -0.60140E+08         0.00000E+00
    0.00000E+00         0.00000E+00        -0.57696E+08
 
   -0.52603E+08         0.81350E+06         0.00000E+00
    0.81350E+06        -0.60194E+08         0.00000E+00
    0.00000E+00         0.00000E+00        -0.57870E+08
 
   -0.53362E+08         0.90747E+06         0.00000E+00
    0.90747E+06        -0.60244E+08         0.00000E+00
    0.00000E+00         0.00000E+00        -0.58032E+08
 
   -0.54075E+08         0.10212E+07         0.00000E+00
    0.10212E+07        -0.60279E+08         0.00000E+00
    0.00000E+00         0.00000E+00        -0.58182E+08
 
   -0.54754E+08         0.11586E+07         0.00000E+00
    0.11586E+07        -0.60291E+08         0.00000E+00
    0.00000E+00         0.00000E+00        -0.58320E+08
 
   -0.55412E+08         0.13192E+07         0.00000E+00
    0.13192E+07        -0.60271E+08         0.00000E+00
    0.00000E+00         0.00000E+00        -0.58448E+08
 
   -0.56059E+08         0.14989E+07         0.00000E+00
    0.14989E+07        -0.60214E+08         0.00000E+00
    0.00000E+00         0.00000E+00        -0.58566E+08
 
   -0.56704E+08         0.16904E+07         0.00000E+00
    0.16904E+07        -0.60112E+08         0.00000E+00
    0.00000E+00         0.00000E+00        -0.58674E+08
 
   -0.57352E+08         0.18836E+07         0.00000E+00
    0.18836E+07        -0.59963E+08         0.00000E+00
    0.00000E+00         0.00000E+00        -0.58774E+08
 
   -0.58004E+08         0.20662E+07         0.00000E+00
    0.20662E+07        -0.59764E+08         0.00000E+00
    0.00000E+00         0.00000E+00        -0.58865E+08
 
   -0.58658E+08         0.22238E+07         0.00000E+00
    0.22238E+07        -0.59519E+08         0.00000E+00
    0.00000E+00         0.00000E+00        -0.58946E+08
 
   -0.47471E+08         0.14640E+06         0.00000E+00
    0.14640E+06        -0.60007E+08         0.00000E+00
    0.00000E+00         0.00000E+00        -0.56612E+08
 
   -0.48702E+08         0.35539E+06         0.00000E+00
    0.35539E+06        -0.60036E+08         0.00000E+00
    0.00000E+00         0.00000E+00        -0.56864E+08
 
   -0.49813E+08         0.48695E+06         0.00000E+00
    0.48695E+06        -0.60094E+08         0.00000E+00
    0.00000E+00         0.00000E+00        -0.57098E+08
 
   -0.50810E+08         0.57676E+06         0.00000E+00
    0.57676E+06        -0.60176E+08         0.00000E+00
    0.00000E+00         0.00000E+00        -0.57314E+08
 
   -0.51705E+08         0.65273E+06         0.00000E+00
    0.65273E+06        -0.60273E+08         0.00000E+00
    0.00000E+00         0.00000E+00        -0.57512E+08
 
   -0.52513E+08         0.73567E+06         0.00000E+00
    0.73567E+06        -0.60376E+08         0.00000E+00
    0.00000E+00         0.00000E+00        -0.57695E+08
 
   -0.53252E+08         0.83985E+06         0.00000E+00
    0.83985E+06        -0.60474E+08         0.00000E+00
    0.00000E+00         0.00000E+00        -0.57862E+08
 
   -0.53937E+08         0.97376E+06         0.00000E+00
    0.97376E+06        -0.60555E+08         0.00000E+00
    0.00000E+00         0.00000E+00        -0.58015E+08
 
   -0.54588E+08         0.11407E+07         0.00000E+00
    0.11407E+07        -0.60610E+08         0.00000E+00
    0.00000E+00         0.00000E+00        -0.58157E+08
 
   -0.55221E+08         0.13394E+07         0.00000E+00
    0.13394E+07        -0.60628E+08         0.00000E+00
    0.00000E+00         0.00000E+00        -0.58287E+08
 
   -0.55849E+08         0.15645E+07         0.00000E+00
    0.15645E+07        -0.60601E+08         0.00000E+00
    0.00000E+00         0.00000E+00        -0.58407E+08
 
   -0.56484E+08         0.18069E+07         0.00000E+00
    0.18069E+07        -0.60521E+08         0.00000E+00
    0.00000E+00         0.00000E+00        -0.58518E+08
 
   -0.57135E+08         0.20542E+07         0.00000E+00
    0.20542E+07        -0.60384E+08         0.00000E+00
    0.00000E+00         0.00000E+00        -0.58621E+08
 
   -0.57806E+08         0.22912E+07         0.00000E+00
    0.22912E+07        -0.60187E+08         0.00000E+00
    0.00000E+00         0.00000E+00        -0.58715E+08
 
   -0.58494E+08         0.25003E+07         0.00000E+00
    0.25003E+07        -0.59930E+08         0.00000E+00
    0.00000E+00         0.00000E+00        -0.58802E+08
 
   -0.47226E+08         0.12713E+06         0.00000E+00
    0.12713E+06        -0.60012E+08         0.00000E+00
    0.00000E+00         0.00000E+00        -0.56322E+08
 
   -0.48554E+08         0.29817E+06         0.00000E+00
    0.29817E+06        -0.60059E+08         0.00000E+00
    0.00000E+00         0.00000E+00        -0.56597E+08
 
   -0.49720E+08         0.39683E+06         0.00000E+00
    0.39683E+06        -0.60150E+08         0.00000E+00
    0.00000E+00         0.00000E+00        -0.56848E+08
 
   -0.50740E+08         0.46242E+06         0.00000E+00
    0.46242E+06        -0.60275E+08         0.00000E+00
    0.00000E+00         0.00000E+00        -0.57077E+08
 
   -0.51632E+08         0.52509E+06         0.00000E+00
    0.52509E+06        -0.60421E+08         0.00000E+00
    0.00000E+00         0.00000E+00        -0.57285E+08
 
   -0.52419E+08         0.60675E+06         0.00000E+00
    0.60675E+06        -0.60577E+08         0.00000E+00
    0.00000E+00         0.00000E+00        -0.57473E+08
 
   -0.53125E+08         0.72200E+06         0.00000E+00
    0.72200E+06        -0.60727E+08         0.00000E+00
    0.00000E+00         0.00000E+00        -0.57645E+08
 
   -0.53773E+08         0.87904E+06         0.00000E+00
    0.87904E+06        -0.60860E+08         0.00000E+00
    0.00000E+00         0.00000E+00        -0.57801E+08
 
   -0.54385E+08         0.10805E+07         0.00000E+00
    0.10805E+07        -0.60961E+08         0.00000E+00
    0.00000E+00         0.00000E+00        -0.57944E+08
 
   -0.54983E+08         0.13239E+07         0.00000E+00
    0.13239E+07        -0.61020E+08         0.00000E+00
    0.00000E+00         0.00000E+00        -0.58075E+08
 
   -0.55585E+08         0.16026E+07         0.00000E+00
    0.16026E+07        -0.61026E+08         0.00000E+00
    0.00000E+00         0.00000E+00        -0.58197E+08
 
   -0.56206E+08         0.19055E+07         0.00000E+00
    0.19055E+07        -0.60969E+08         0.00000E+00
    0.00000E+00         0.00000E+00        -0.58310E+08
 
   -0.56858E+08         0.22179E+07         0.00000E+00
    0.22179E+07        -0.60845E+08         0.00000E+00
    0.00000E+00         0.00000E+00        -0.58415E+08
 
   -0.57548E+08         0.25217E+07         0.00000E+00
    0.25217E+07        -0.60648E+08         0.00000E+00
    0.00000E+00         0.00000E+00        -0.58514E+08
 
   -0.58276E+08         0.27954E+07         0.00000E+00
    0.27954E+07        -0.60378E+08         0.00000E+00
    0.00000E+00         0.00000E+00        -0.58605E+08
 
   -0.47030E+08         0.97202E+05         0.00000E+00
    0.97202E+05        -0.60017E+08         0.00000E+00
    0.00000E+00         0.00000E+00        -0.55982E+08
 
   -0.48450E+08         0.21280E+06         0.00000E+00
    0.21280E+06        -0.60085E+08         0.00000E+00
    0.00000E+00         0.00000E+00        -0.56280E+08
 
   -0.49662E+08         0.26591E+06         0.00000E+00
    0.26591E+06        -0.60212E+08         0.00000E+00
    0.00000E+00         0.00000E+00        -0.56548E+08
 
   -0.50691E+08         0.29899E+06         0.00000E+00
    0.29899E+06        -0.60384E+08         0.00000E+00
    0.00000E+00         0.00000E+00        -0.56788E+08
 
   -0.51567E+08         0.34380E+06         0.00000E+00
    0.34380E+06        -0.60584E+08         0.00000E+00
    0.00000E+00         0.00000E+00        -0.57003E+08
 
   -0.52319E+08         0.42277E+06         0.00000E+00
    0.42277E+06        -0.60795E+08         0.00000E+00
    0.00000E+00         0.00000E+00        -0.57196E+08
 
   -0.52980E+08         0.55029E+06         0.00000E+00
    0.55029E+06        -0.61002E+08         0.00000E+00
    0.00000E+00         0.00000E+00        -0.57369E+08
 
   -0.53577E+08         0.73385E+06         0.00000E+00
    0.73385E+06        -0.61188E+08         0.00000E+00
    0.00000E+00         0.00000E+00        -0.57526E+08
 
   -0.54140E+08         0.97505E+06         0.00000E+00
    0.97505E+06        -0.61338E+08         0.00000E+00
    0.00000E+00         0.00000E+00        -0.57668E+08
 
   -0.54693E+08         0.12702E+07         0.00000E+00
    0.12702E+07        -0.61440E+08         0.00000E+00
    0.00000E+00         0.00000E+00        -0.57799E+08
 
   -0.55260E+08         0.16111E+07         0.00000E+00
    0.16111E+07        -0.61480E+08         0.00000E+00
    0.00000E+00         0.00000E+00        -0.57921E+08
 
   -0.55860E+08         0.19849E+07         0.00000E+00
    0.19849E+07        -0.61449E+08         0.00000E+00
    0.00000E+00         0.00000E+00        -0.58035E+08
 
   -0.56508E+08         0.23744E+07         0.00000E+00
    0.23744E+07        -0.61338E+08         0.00000E+00
    0.00000E+00         0.00000E+00        -0.58142E+08
 
   -0.57216E+08         0.27585E+07         0.00000E+00
    0.27585E+07        -0.61142E+08         0.00000E+00
    0.00000E+00         0.00000E+00        -0.58244E+08
 
   -0.57988E+08         0.31118E+07         0.00000E+00
    0.31118E+07        -0.60858E+08         0.00000E+00
    0.00000E+00         0.00000E+00        -0.58342E+08
 
   -0.46903E+08         0.55386E+05         0.00000E+00
    0.55386E+05        -0.60022E+08         0.00000E+00
    0.00000E+00         0.00000E+00        -0.55585E+08
 
   -0.48405E+08         0.96475E+05         0.00000E+00
    0.96475E+05        -0.60113E+08         0.00000E+00
    0.00000E+00         0.00000E+00        -0.55904E+08
 
   -0.49648E+08         0.90745E+05         0.00000E+00
    0.90745E+05        -0.60280E+08         0.00000E+00
    0.00000E+00         0.00000E+00        -0.56186E+08
 
   -0.50671E+08         0.82969E+05         0.00000E+00
    0.82969E+05        -0.60501E+08         0.00000E+00
    0.00000E+00         0.00000E+00        -0.56435E+08
 
   -0.51514E+08         0.10566E+06         0.00000E+00
    0.10566E+06        -0.60757E+08         0.00000E+00
    0.00000E+00         0.00000E+00        -0.56654E+08
 
   -0.52215E+08         0.18097E+06         0.00000E+00
    0.18097E+06        -0.61027E+08         0.00000E+00
    0.00000E+00         0.00000E+00        -0.56849E+08
 
   -0.52814E+08         0.32235E+06         0.00000E+00
    0.32235E+06        -0.61291E+08         0.00000E+00
    0.00000E+00         0.00000E+00        -0.57021E+08
 
   -0.53346E+08         0.53613E+06         0.00000E+00
    0.53613E+06        -0.61532E+08         0.00000E+00
    0.00000E+00         0.00000E+00        -0.57176E+08
 
   -0.53845E+08         0.82255E+06         0.00000E+00
    0.82255E+06        -0.61733E+08         0.00000E+00
    0.00000E+00         0.00000E+00        -0.57316E+08
 
   -0.54341E+08         0.11766E+07         0.00000E+00
    0.11766E+07        -0.61878E+08         0.00000E+00
    0.00000E+00         0.00000E+00        -0.57444E+08
 
   -0.54862E+08         0.15885E+07         0.00000E+00
    0.15885E+07        -0.61955E+08         0.00000E+00
    0.00000E+00         0.00000E+00        -0.57564E+08
 
   -0.55433E+08         0.20438E+07         0.00000E+00
    0.20438E+07        -0.61950E+08         0.00000E+00
    0.00000E+00         0.00000E+00        -0.57677E+08
 
   -0.56072E+08         0.25231E+07         0.00000E+00
    0.25231E+07        -0.61854E+08         0.00000E+00
    0.00000E+00         0.00000E+00        -0.57786E+08
 
   -0.56796E+08         0.30024E+07         0.00000E+00
    0.30024E+07        -0.61658E+08         0.00000E+00
    0.00000E+00         0.00000E+00        -0.57891E+08
 
   -0.57613E+08         0.34522E+07         0.00000E+00
    0.34522E+07        -0.61358E+08         0.00000E+00
    0.00000E+00         0.00000E+00        -0.57994E+08
 
   -0.46870E+08         0.56410E+03         0.00000E+00
    0.56410E+03        -0.60029E+08         0.00000E+00
    0.00000E+00         0.00000E+00        -0.55122E+08
 
   -0.48435E+08        -0.53142E+05         0.00000E+00
   -0.53142E+05        -0.60144E+08         0.00000E+00
    0.00000E+00         0.00000E+00        -0.55459E+08
 
   -0.49690E+08        -0.13126E+06         0.00000E+00
   -0.13126E+06        -0.60351E+08         0.00000E+00
    0.00000E+00         0.00000E+00        -0.55751E+08
 
   -0.50686E+08        -0.18792E+06         0.00000E+00
   -0.18792E+06        -0.60624E+08         0.00000E+00
    0.00000E+00         0.00000E+00        -0.56005E+08
 
   -0.51474E+08        -0.19102E+06         0.00000E+00
   -0.19102E+06        -0.60937E+08         0.00000E+00
    0.00000E+00         0.00000E+00        -0.56225E+08
 
   -0.52105E+08        -0.11979E+06         0.00000E+00
   -0.11979E+06        -0.61266E+08         0.00000E+00
    0.00000E+00         0.00000E+00        -0.56417E+08
 
   -0.52624E+08         0.37526E+05         0.00000E+00
    0.37526E+05        -0.61588E+08         0.00000E+00
    0.00000E+00         0.00000E+00        -0.56585E+08
 
   -0.53074E+08         0.28542E+06         0.00000E+00
    0.28542E+06        -0.61883E+08         0.00000E+00
    0.00000E+00         0.00000E+00        -0.56734E+08
 
   -0.53494E+08         0.62252E+06         0.00000E+00
    0.62252E+06        -0.62134E+08         0.00000E+00
    0.00000E+00         0.00000E+00        -0.56868E+08
 
   -0.53920E+08         0.10424E+07         0.00000E+00
    0.10424E+07        -0.62323E+08         0.00000E+00
    0.00000E+00         0.00000E+00        -0.56991E+08
 
   -0.54384E+08         0.15339E+07         0.00000E+00
    0.15339E+07        -0.62436E+08         0.00000E+00
    0.00000E+00         0.00000E+00        -0.57107E+08
 
   -0.54914E+08         0.20812E+07         0.00000E+00
    0.20812E+07        -0.62459E+08         0.00000E+00
    0.00000E+00         0.00000E+00        -0.57217E+08
 
   -0.55537E+08         0.26632E+07         0.00000E+00
    0.26632E+07        -0.62378E+08         0.00000E+00
    0.00000E+00         0.00000E+00        -0.57326E+08
 
   -0.56271E+08         0.32534E+07         0.00000E+00
    0.32534E+07        -0.62184E+08         0.00000E+00
    0.00000E+00         0.00000E+00        -0.57434E+08
 
   -0.57133E+08         0.38185E+07         0.00000E+00
    0.38185E+07        -0.61867E+08         0.00000E+00
    0.00000E+00         0.00000E+00        -0.57543E+08
 
   -0.46953E+08        -0.68175E+05         0.00000E+00
   -0.68175E+05        -0.60035E+08         0.00000E+00
    0.00000E+00         0.00000E+00        -0.54583E+08
 
   -0.48558E+08        -0.23770E+06         0.00000E+00
   -0.23770E+06        -0.60175E+08         0.00000E+00
    0.00000E+00         0.00000E+00        -0.54932E+08
 
   -0.49797E+08        -0.40150E+06         0.00000E+00
   -0.40150E+06        -0.60425E+08         0.00000E+00
    0.00000E+00         0.00000E+00        -0.55230E+08
 
   -0.50740E+08        -0.51427E+06         0.00000E+00
   -0.51427E+06        -0.60750E+08         0.00000E+00
    0.00000E+00         0.00000E+00        -0.55483E+08
 
   -0.51450E+08        -0.54593E+06         0.00000E+00
   -0.54593E+06        -0.61119E+08         0.00000E+00
    0.00000E+00         0.00000E+00        -0.55699E+08
 
   -0.51988E+08        -0.47835E+06         0.00000E+00
   -0.47835E+06        -0.61504E+08         0.00000E+00
    0.00000E+00         0.00000E+00        -0.55884E+08
 
   -0.52407E+08        -0.30258E+06         0.00000E+00
   -0.30258E+06        -0.61881E+08         0.00000E+00
    0.00000E+00         0.00000E+00        -0.56043E+08
 
   -0.52758E+08        -0.16585E+05         0.00000E+00
   -0.16585E+05        -0.62228E+08         0.00000E+00
    0.00000E+00         0.00000E+00        -0.56182E+08
 
   -0.53083E+08         0.37629E+06         0.00000E+00
    0.37629E+06        -0.62526E+08         0.00000E+00
    0.00000E+00         0.00000E+00        -0.56307E+08
 
   -0.53423E+08         0.86819E+06         0.00000E+00
    0.86819E+06        -0.62757E+08         0.00000E+00
    0.00000E+00         0.00000E+00        -0.56421E+08
 
   -0.53815E+08         0.14470E+07         0.00000E+00
    0.14470E+07        -0.62906E+08         0.00000E+00
    0.00000E+00         0.00000E+00        -0.56529E+08
 
   -0.54293E+08         0.20962E+07         0.00000E+00
    0.20962E+07        -0.62956E+08         0.00000E+00
    0.00000E+00         0.00000E+00        -0.56635E+08
 
   -0.54886E+08         0.27935E+07         0.00000E+00
    0.27935E+07        -0.62892E+08         0.00000E+00
    0.00000E+00         0.00000E+00        -0.56740E+08
 
   -0.55624E+08         0.35106E+07         0.00000E+00
    0.35106E+07        -0.62700E+08         0.00000E+00
    0.00000E+00         0.00000E+00        -0.56850E+08
 
   -0.56527E+08         0.42112E+07         0.00000E+00
    0.42112E+07        -0.62368E+08         0.00000E+00
    0.00000E+00         0.00000E+00        -0.56964E+08
 
   -0.47181E+08        -0.15142E+06         0.00000E+00
   -0.15142E+06        -0.60042E+08         0.00000E+00
    0.00000E+00         0.00000E+00        -0.53955E+08
 
   -0.48789E+08        -0.45783E+06         0.00000E+00
   -0.45783E+06        -0.60207E+08         0.00000E+00
    0.00000E+00         0.00000E+00        -0.54310E+08
 
   -0.49980E+08        -0.71967E+06         0.00000E+00
   -0.71967E+06        -0.60498E+08         0.00000E+00
    0.00000E+00         0.00000E+00        -0.54606E+08
 
   -0.50838E+08        -0.89443E+06         0.00000E+00
   -0.89443E+06        -0.60873E+08         0.00000E+00
    0.00000E+00         0.00000E+00        -0.54853E+08
 
   -0.51442E+08        -0.95604E+06         0.00000E+00
   -0.95604E+06        -0.61294E+08         0.00000E+00
    0.00000E+00         0.00000E+00        -0.55058E+08
 
   -0.51862E+08        -0.89069E+06         0.00000E+00
   -0.89069E+06        -0.61731E+08         0.00000E+00
    0.00000E+00         0.00000E+00        -0.55229E+08
 
   -0.52160E+08        -0.69344E+06         0.00000E+00
   -0.69344E+06        -0.62157E+08         0.00000E+00
    0.00000E+00         0.00000E+00        -0.55374E+08
 
   -0.52392E+08        -0.36551E+06         0.00000E+00
   -0.36551E+06        -0.62549E+08         0.00000E+00
    0.00000E+00         0.00000E+00        -0.55499E+08
 
   -0.52605E+08         0.87484E+05         0.00000E+00
    0.87484E+05        -0.62889E+08         0.00000E+00
    0.00000E+00         0.00000E+00        -0.55609E+08
 
   -0.52844E+08         0.65646E+06         0.00000E+00
    0.65646E+06        -0.63158E+08         0.00000E+00
    0.00000E+00         0.00000E+00        -0.55711E+08
 
   -0.53148E+08         0.13289E+07         0.00000E+00
    0.13289E+07        -0.63339E+08         0.00000E+00
    0.00000E+00         0.00000E+00        -0.55808E+08
 
   -0.53557E+08         0.20882E+07         0.00000E+00
    0.20882E+07        -0.63416E+08         0.00000E+00
    0.00000E+00         0.00000E+00        -0.55905E+08
 
   -0.54108E+08         0.29123E+07         0.00000E+00
    0.29123E+07        -0.63371E+08         0.00000E+00
    0.00000E+00         0.00000E+00        -0.56006E+08
 
   -0.54835E+08         0.37720E+07         0.00000E+00
    0.37720E+07        -0.63184E+08         0.00000E+00
    0.00000E+00         0.00000E+00        -0.56114E+08
 
   -0.55771E+08         0.46290E+07         0.00000E+00
    0.46290E+07        -0.62839E+08         0.00000E+00
    0.00000E+00         0.00000E+00        -0.56232E+08
 
   -0.47578E+08        -0.24928E+06         0.00000E+00
   -0.24928E+06        -0.60049E+08         0.00000E+00
    0.00000E+00         0.00000E+00        -0.53227E+08
 
   -0.49146E+08        -0.71280E+06         0.00000E+00
   -0.71280E+06        -0.60239E+08         0.00000E+00
    0.00000E+00         0.00000E+00        -0.53579E+08
 
   -0.50245E+08        -0.10833E+07         0.00000E+00
   -0.10833E+07        -0.60568E+08         0.00000E+00
    0.00000E+00         0.00000E+00        -0.53865E+08
 
   -0.50982E+08        -0.13238E+07         0.00000E+00
   -0.13238E+07        -0.60987E+08         0.00000E+00
    0.00000E+00         0.00000E+00        -0.54096E+08
 
   -0.51448E+08        -0.14149E+07         0.00000E+00
   -0.14149E+07        -0.61454E+08         0.00000E+00
    0.00000E+00         0.00000E+00        -0.54282E+08
 
   -0.51724E+08        -0.13491E+07         0.00000E+00
   -0.13491E+07        -0.61933E+08         0.00000E+00
    0.00000E+00         0.00000E+00        -0.54433E+08
 
   -0.51880E+08        -0.11269E+07         0.00000E+00
   -0.11269E+07        -0.62398E+08         0.00000E+00
    0.00000E+00         0.00000E+00        -0.54557E+08
 
   -0.51973E+08        -0.75363E+06         0.00000E+00
   -0.75363E+06        -0.62825E+08         0.00000E+00
    0.00000E+00         0.00000E+00        -0.54661E+08
 
   -0.52057E+08        -0.23745E+06         0.00000E+00
   -0.23745E+06        -0.63197E+08         0.00000E+00
    0.00000E+00         0.00000E+00        -0.54752E+08
 
   -0.52177E+08         0.41161E+06         0.00000E+00
    0.41161E+06        -0.63497E+08         0.00000E+00
    0.00000E+00         0.00000E+00        -0.54836E+08
 
   -0.52377E+08         0.11814E+07         0.00000E+00
    0.11814E+07        -0.63708E+08         0.00000E+00
    0.00000E+00         0.00000E+00        -0.54918E+08
 
   -0.52700E+08         0.20566E+07         0.00000E+00
    0.20566E+07        -0.63811E+08         0.00000E+00
    0.00000E+00         0.00000E+00        -0.55003E+08
 
   -0.53189E+08         0.30167E+07         0.00000E+00
    0.30167E+07        -0.63785E+08         0.00000E+00
    0.00000E+00         0.00000E+00        -0.55095E+08
 
   -0.53888E+08         0.40334E+07         0.00000E+00
    0.40334E+07        -0.63608E+08         0.00000E+00
    0.00000E+00         0.00000E+00        -0.55200E+08
 
   -0.54840E+08         0.50681E+07         0.00000E+00
    0.50681E+07        -0.63256E+08         0.00000E+00
    0.00000E+00         0.00000E+00        -0.55320E+08
 
   -0.48171E+08        -0.36129E+06         0.00000E+00
   -0.36129E+06        -0.60055E+08         0.00000E+00
    0.00000E+00         0.00000E+00        -0.52385E+08
 
   -0.49641E+08        -0.10001E+07         0.00000E+00
   -0.10001E+07        -0.60267E+08         0.00000E+00
    0.00000E+00         0.00000E+00        -0.52722E+08
 
   -0.50600E+08        -0.14870E+07         0.00000E+00
   -0.14870E+07        -0.60631E+08         0.00000E+00
    0.00000E+00         0.00000E+00        -0.52986E+08
 
   -0.51172E+08        -0.17943E+07         0.00000E+00
   -0.17943E+07        -0.61086E+08         0.00000E+00
    0.00000E+00         0.00000E+00        -0.53191E+08
 
   -0.51466E+08        -0.19120E+07         0.00000E+00
   -0.19120E+07        -0.61585E+08         0.00000E+00
    0.00000E+00         0.00000E+00        -0.53350E+08
 
   -0.51571E+08        -0.18414E+07         0.00000E+00
   -0.18414E+07        -0.62093E+08         0.00000E+00
    0.00000E+00         0.00000E+00        -0.53472E+08
 
   -0.51562E+08        -0.15904E+07         0.00000E+00
   -0.15904E+07        -0.62582E+08         0.00000E+00
    0.00000E+00         0.00000E+00        -0.53568E+08
 
   -0.51499E+08        -0.11692E+07         0.00000E+00
   -0.11692E+07        -0.63030E+08         0.00000E+00
    0.00000E+00         0.00000E+00        -0.53645E+08
 
   -0.51437E+08        -0.58873E+06         0.00000E+00
   -0.58873E+06        -0.63422E+08         0.00000E+00
    0.00000E+00         0.00000E+00        -0.53711E+08
 
   -0.51421E+08         0.14055E+06         0.00000E+00
    0.14055E+06        -0.63743E+08         0.00000E+00
    0.00000E+00         0.00000E+00        -0.53771E+08
 
   -0.51498E+08         0.10080E+07         0.00000E+00
    0.10080E+07        -0.63976E+08         0.00000E+00
    0.00000E+00         0.00000E+00        -0.53833E+08
 
   -0.51714E+08         0.20011E+07         0.00000E+00
    0.20011E+07        -0.64103E+08         0.00000E+00
    0.00000E+00         0.00000E+00        -0.53902E+08
 
   -0.52119E+08         0.31030E+07         0.00000E+00
    0.31030E+07        -0.64100E+08         0.00000E+00
    0.00000E+00         0.00000E+00        -0.53982E+08
 
   -0.52765E+08         0.42886E+07         0.00000E+00
    0.42886E+07        -0.63939E+08         0.00000E+00
    0.00000E+00         0.00000E+00        -0.54079E+08
 
   -0.53709E+08         0.55212E+07         0.00000E+00
    0.55212E+07        -0.63587E+08         0.00000E+00
    0.00000E+00         0.00000E+00        -0.54197E+08
 
   -0.48982E+08        -0.48621E+06         0.00000E+00
   -0.48621E+06        -0.60061E+08         0.00000E+00
    0.00000E+00         0.00000E+00        -0.51416E+08
 
   -0.50285E+08        -0.13150E+07         0.00000E+00
   -0.13150E+07        -0.60292E+08         0.00000E+00
    0.00000E+00         0.00000E+00        -0.51722E+08
 
   -0.51044E+08        -0.19220E+07         0.00000E+00
   -0.19220E+07        -0.60680E+08         0.00000E+00
    0.00000E+00         0.00000E+00        -0.51952E+08
 
   -0.51406E+08        -0.22931E+07         0.00000E+00
   -0.22931E+07        -0.61158E+08         0.00000E+00
    0.00000E+00         0.00000E+00        -0.52119E+08
 
   -0.51491E+08        -0.24315E+07         0.00000E+00
   -0.24315E+07        -0.61674E+08         0.00000E+00
    0.00000E+00         0.00000E+00        -0.52239E+08
 
   -0.51398E+08        -0.23503E+07         0.00000E+00
   -0.23503E+07        -0.62191E+08         0.00000E+00
    0.00000E+00         0.00000E+00        -0.52324E+08
 
   -0.51203E+08        -0.20663E+07         0.00000E+00
   -0.20663E+07        -0.62683E+08         0.00000E+00
    0.00000E+00         0.00000E+00        -0.52383E+08
 
   -0.50969E+08        -0.15959E+07         0.00000E+00
   -0.15959E+07        -0.63132E+08         0.00000E+00
    0.00000E+00         0.00000E+00        -0.52426E+08
 
   -0.50746E+08        -0.95274E+06         0.00000E+00
   -0.95274E+06        -0.63527E+08         0.00000E+00
    0.00000E+00         0.00000E+00        -0.52460E+08
 
   -0.50579E+08        -0.14705E+06         0.00000E+00
   -0.14705E+06        -0.63855E+08         0.00000E+00
    0.00000E+00         0.00000E+00        -0.52492E+08
 
   -0.50514E+08         0.81350E+06         0.00000E+00
    0.81350E+06        -0.64103E+08         0.00000E+00
    0.00000E+00         0.00000E+00        -0.52528E+08
 
   -0.50600E+08         0.19214E+07         0.00000E+00
    0.19214E+07        -0.64251E+08         0.00000E+00
    0.00000E+00         0.00000E+00        -0.52575E+08
 
   -0.50892E+08         0.31659E+07         0.00000E+00
    0.31659E+07        -0.64273E+08         0.00000E+00
    0.00000E+00         0.00000E+00        -0.52638E+08
 
   -0.51453E+08         0.45281E+07         0.00000E+00
    0.45281E+07        -0.64137E+08         0.00000E+00
    0.00000E+00         0.00000E+00        -0.52722E+08
 
   -0.52354E+08         0.59763E+07         0.00000E+00
    0.59763E+07        -0.63800E+08         0.00000E+00
    0.00000E+00         0.00000E+00        -0.52835E+08
 
   -0.50032E+08        -0.62191E+06         0.00000E+00
   -0.62191E+06        -0.60065E+08         0.00000E+00
    0.00000E+00         0.00000E+00        -0.50306E+08
 
   -0.51085E+08        -0.16504E+07         0.00000E+00
   -0.16504E+07        -0.60309E+08         0.00000E+00
    0.00000E+00         0.00000E+00        -0.50565E+08
 
   -0.51576E+08        -0.23757E+07         0.00000E+00
   -0.23757E+07        -0.60711E+08         0.00000E+00
    0.00000E+00         0.00000E+00        -0.50743E+08
 
   -0.51675E+08        -0.28026E+07         0.00000E+00
   -0.28026E+07        -0.61194E+08         0.00000E+00
    0.00000E+00         0.00000E+00        -0.50860E+08
 
   -0.51515E+08        -0.29520E+07         0.00000E+00
   -0.29520E+07        -0.61703E+08         0.00000E+00
    0.00000E+00         0.00000E+00        -0.50929E+08
 
   -0.51199E+08        -0.28521E+07         0.00000E+00
   -0.28521E+07        -0.62203E+08         0.00000E+00
    0.00000E+00         0.00000E+00        -0.50966E+08
 
   -0.50803E+08        -0.25310E+07         0.00000E+00
   -0.25310E+07        -0.62672E+08         0.00000E+00
    0.00000E+00         0.00000E+00        -0.50980E+08
 
   -0.50384E+08        -0.20121E+07         0.00000E+00
   -0.20121E+07        -0.63097E+08         0.00000E+00
    0.00000E+00         0.00000E+00        -0.50981E+08
 
   -0.49989E+08        -0.13116E+07         0.00000E+00
   -0.13116E+07        -0.63472E+08         0.00000E+00
    0.00000E+00         0.00000E+00        -0.50976E+08
 
   -0.49658E+08        -0.43847E+06         0.00000E+00
   -0.43847E+06        -0.63790E+08         0.00000E+00
    0.00000E+00         0.00000E+00        -0.50973E+08
 
   -0.49432E+08         0.60441E+06         0.00000E+00
    0.60441E+06        -0.64041E+08         0.00000E+00
    0.00000E+00         0.00000E+00        -0.50978E+08
 
   -0.49362E+08         0.18170E+07         0.00000E+00
    0.18170E+07        -0.64207E+08         0.00000E+00
    0.00000E+00         0.00000E+00        -0.50997E+08
 
   -0.49507E+08         0.31980E+07         0.00000E+00
    0.31980E+07        -0.64260E+08         0.00000E+00
    0.00000E+00         0.00000E+00        -0.51036E+08
 
   -0.49941E+08         0.47387E+07         0.00000E+00
    0.47387E+07        -0.64160E+08         0.00000E+00
    0.00000E+00         0.00000E+00        -0.51103E+08
 
   -0.50753E+08         0.64160E+07         0.00000E+00
    0.64160E+07        -0.63855E+08         0.00000E+00
    0.00000E+00         0.00000E+00        -0.51204E+08
 
   -0.51335E+08        -0.76526E+06         0.00000E+00
   -0.76526E+06        -0.60068E+08         0.00000E+00
    0.00000E+00         0.00000E+00        -0.49044E+08
 
   -0.52039E+08        -0.19959E+07         0.00000E+00
   -0.19959E+07        -0.60317E+08         0.00000E+00
    0.00000E+00         0.00000E+00        -0.49234E+08
 
   -0.52187E+08        -0.28304E+07         0.00000E+00
   -0.28304E+07        -0.60716E+08         0.00000E+00
    0.00000E+00         0.00000E+00        -0.49344E+08
 
   -0.51969E+08        -0.32986E+07         0.00000E+00
   -0.32986E+07        -0.61180E+08         0.00000E+00
    0.00000E+00         0.00000E+00        -0.49392E+08
 
   -0.51528E+08        -0.34449E+07         0.00000E+00
   -0.34449E+07        -0.61653E+08         0.00000E+00
    0.00000E+00         0.00000E+00        -0.49398E+08
 
   -0.50967E+08        -0.33164E+07         0.00000E+00
   -0.33164E+07        -0.62103E+08         0.00000E+00
    0.00000E+00         0.00000E+00        -0.49376E+08
 
   -0.50358E+08        -0.29548E+07         0.00000E+00
   -0.29548E+07        -0.62514E+08         0.00000E+00
    0.00000E+00         0.00000E+00        -0.49336E+08
 
   -0.49750E+08        -0.23909E+07         0.00000E+00
   -0.23909E+07        -0.62883E+08         0.00000E+00
    0.00000E+00         0.00000E+00        -0.49287E+08
 
   -0.49176E+08        -0.16431E+07         0.00000E+00
   -0.16431E+07        -0.63211E+08         0.00000E+00
    0.00000E+00         0.00000E+00        -0.49238E+08
 
   -0.48670E+08        -0.71783E+06         0.00000E+00
   -0.71783E+06        -0.63499E+08         0.00000E+00
    0.00000E+00         0.00000E+00        -0.49194E+08
 
   -0.48267E+08         0.38883E+06         0.00000E+00
    0.38883E+06        -0.63740E+08         0.00000E+00
    0.00000E+00         0.00000E+00        -0.49161E+08
 
   -0.48013E+08         0.16874E+07         0.00000E+00
    0.16874E+07        -0.63920E+08         0.00000E+00
    0.00000E+00         0.00000E+00        -0.49146E+08
 
   -0.47971E+08         0.31899E+07         0.00000E+00
    0.31899E+07        -0.64009E+08         0.00000E+00
    0.00000E+00         0.00000E+00        -0.49155E+08
 
   -0.48227E+08         0.49023E+07         0.00000E+00
    0.49023E+07        -0.63961E+08         0.00000E+00
    0.00000E+00         0.00000E+00        -0.49197E+08
 
   -0.48886E+08         0.68158E+07         0.00000E+00
    0.68158E+07        -0.63714E+08         0.00000E+00
    0.00000E+00         0.00000E+00        -0.49279E+08
 
   -0.52897E+08        -0.91202E+06         0.00000E+00
   -0.91202E+06        -0.60068E+08         0.00000E+00
    0.00000E+00         0.00000E+00        -0.47621E+08
 
   -0.53139E+08        -0.23378E+07         0.00000E+00
   -0.23378E+07        -0.60313E+08         0.00000E+00
    0.00000E+00         0.00000E+00        -0.47718E+08
 
   -0.52860E+08        -0.32625E+07         0.00000E+00
   -0.32625E+07        -0.60687E+08         0.00000E+00
    0.00000E+00         0.00000E+00        -0.47736E+08
 
   -0.52268E+08        -0.37497E+07         0.00000E+00
   -0.37497E+07        -0.61101E+08         0.00000E+00
    0.00000E+00         0.00000E+00        -0.47700E+08
 
   -0.51515E+08        -0.38739E+07         0.00000E+00
   -0.38739E+07        -0.61499E+08         0.00000E+00
    0.00000E+00         0.00000E+00        -0.47629E+08
 
   -0.50696E+08        -0.37055E+07         0.00000E+00
   -0.37055E+07        -0.61857E+08         0.00000E+00
    0.00000E+00         0.00000E+00        -0.47536E+08
 
   -0.49872E+08        -0.33014E+07         0.00000E+00
   -0.33014E+07        -0.62171E+08         0.00000E+00
    0.00000E+00         0.00000E+00        -0.47434E+08
 
   -0.49075E+08        -0.26999E+07         0.00000E+00
   -0.26999E+07        -0.62447E+08         0.00000E+00
    0.00000E+00         0.00000E+00        -0.47329E+08
 
   -0.48324E+08        -0.19207E+07         0.00000E+00
   -0.19207E+07        -0.62697E+08         0.00000E+00
    0.00000E+00         0.00000E+00        -0.47228E+08
 
   -0.47639E+08        -0.96622E+06         0.00000E+00
   -0.96622E+06        -0.62930E+08         0.00000E+00
    0.00000E+00         0.00000E+00        -0.47137E+08
 
   -0.47043E+08         0.17649E+06         0.00000E+00
    0.17649E+06        -0.63146E+08         0.00000E+00
    0.00000E+00         0.00000E+00        -0.47061E+08
 
   -0.46576E+08         0.15316E+07         0.00000E+00
    0.15316E+07        -0.63335E+08         0.00000E+00
    0.00000E+00         0.00000E+00        -0.47005E+08
 
   -0.46302E+08         0.31290E+07         0.00000E+00
    0.31290E+07        -0.63467E+08         0.00000E+00
    0.00000E+00         0.00000E+00        -0.46976E+08
 
   -0.46315E+08         0.49955E+07         0.00000E+00
    0.49955E+07        -0.63492E+08         0.00000E+00
    0.00000E+00         0.00000E+00        -0.46984E+08
 
   -0.46742E+08         0.71432E+07         0.00000E+00
    0.71432E+07        -0.63334E+08         0.00000E+00
    0.00000E+00         0.00000E+00        -0.47037E+08
 
   -0.54714E+08        -0.10568E+07         0.00000E+00
   -0.10568E+07        -0.60066E+08         0.00000E+00
    0.00000E+00         0.00000E+00        -0.46030E+08
 
   -0.54365E+08        -0.26581E+07         0.00000E+00
   -0.26581E+07        -0.60292E+08         0.00000E+00
    0.00000E+00         0.00000E+00        -0.46005E+08
 
   -0.53566E+08        -0.36415E+07         0.00000E+00
   -0.36415E+07        -0.60615E+08         0.00000E+00
    0.00000E+00         0.00000E+00        -0.45909E+08
 
   -0.52548E+08        -0.41155E+07         0.00000E+00
   -0.41155E+07        -0.60938E+08         0.00000E+00
    0.00000E+00         0.00000E+00        -0.45770E+08
 
   -0.51459E+08        -0.41937E+07         0.00000E+00
   -0.41937E+07        -0.61213E+08         0.00000E+00
    0.00000E+00         0.00000E+00        -0.45606E+08
 
   -0.50380E+08        -0.39740E+07         0.00000E+00
   -0.39740E+07        -0.61430E+08         0.00000E+00
    0.00000E+00         0.00000E+00        -0.45433E+08
 
   -0.49349E+08        -0.35288E+07         0.00000E+00
   -0.35288E+07        -0.61600E+08         0.00000E+00
    0.00000E+00         0.00000E+00        -0.45260E+08
 
   -0.48374E+08        -0.29027E+07         0.00000E+00
   -0.29027E+07        -0.61742E+08         0.00000E+00
    0.00000E+00         0.00000E+00        -0.45093E+08
 
   -0.47456E+08        -0.21149E+07         0.00000E+00
   -0.21149E+07        -0.61880E+08         0.00000E+00
    0.00000E+00         0.00000E+00        -0.44936E+08
 
   -0.46593E+08        -0.11622E+07         0.00000E+00
   -0.11622E+07        -0.62030E+08         0.00000E+00
    0.00000E+00         0.00000E+00        -0.44794E+08
 
   -0.45794E+08        -0.21280E+05         0.00000E+00
   -0.21280E+05        -0.62204E+08         0.00000E+00
    0.00000E+00         0.00000E+00        -0.44668E+08
 
   -0.45086E+08         0.13485E+07         0.00000E+00
    0.13485E+07        -0.62396E+08         0.00000E+00
    0.00000E+00         0.00000E+00        -0.44564E+08
 
   -0.44529E+08         0.30000E+07         0.00000E+00
    0.30000E+07        -0.62581E+08         0.00000E+00
    0.00000E+00         0.00000E+00        -0.44490E+08
 
   -0.44223E+08         0.49884E+07         0.00000E+00
    0.49884E+07        -0.62704E+08         0.00000E+00
    0.00000E+00         0.00000E+00        -0.44453E+08
 
   -0.44317E+08         0.73558E+07         0.00000E+00
    0.73558E+07        -0.62675E+08         0.00000E+00
    0.00000E+00         0.00000E+00        -0.44466E+08
 
   -0.56770E+08        -0.11931E+07         0.00000E+00
   -0.11931E+07        -0.60061E+08         0.00000E+00
    0.00000E+00         0.00000E+00        -0.44270E+08
 
   -0.55680E+08        -0.29333E+07         0.00000E+00
   -0.29333E+07        -0.60251E+08         0.00000E+00
    0.00000E+00         0.00000E+00        -0.44090E+08
 
   -0.54267E+08        -0.39266E+07         0.00000E+00
   -0.39266E+07        -0.60484E+08         0.00000E+00
    0.00000E+00         0.00000E+00        -0.43853E+08
 
   -0.52777E+08        -0.43441E+07         0.00000E+00
   -0.43441E+07        -0.60662E+08         0.00000E+00
    0.00000E+00         0.00000E+00        -0.43590E+08
 
   -0.51343E+08        -0.43494E+07         0.00000E+00
   -0.43494E+07        -0.60755E+08         0.00000E+00
    0.00000E+00         0.00000E+00        -0.43321E+08
 
   -0.50017E+08        -0.40703E+07         0.00000E+00
   -0.40703E+07        -0.60774E+08         0.00000E+00
    0.00000E+00         0.00000E+00        -0.43059E+08
 
   -0.48799E+08        -0.35919E+07         0.00000E+00
   -0.35919E+07        -0.60750E+08         0.00000E+00
    0.00000E+00         0.00000E+00        -0.42810E+08
 
   -0.47670E+08        -0.29612E+07         0.00000E+00
   -0.29612E+07        -0.60718E+08         0.00000E+00
    0.00000E+00         0.00000E+00        -0.42577E+08
 
   -0.46602E+08        -0.21947E+07         0.00000E+00
   -0.21947E+07        -0.60709E+08         0.00000E+00
    0.00000E+00         0.00000E+00        -0.42361E+08
 
   -0.45573E+08        -0.12827E+07         0.00000E+00
   -0.12827E+07        -0.60752E+08         0.00000E+00
    0.00000E+00         0.00000E+00        -0.42163E+08
 
   -0.44567E+08        -0.19133E+06         0.00000E+00
   -0.19133E+06        -0.60864E+08         0.00000E+00
    0.00000E+00         0.00000E+00        -0.41984E+08
 
   -0.43594E+08         0.11377E+07         0.00000E+00
    0.11377E+07        -0.61052E+08         0.00000E+00
    0.00000E+00         0.00000E+00        -0.41826E+08
 
   -0.42700E+08         0.27849E+07         0.00000E+00
    0.27849E+07        -0.61298E+08         0.00000E+00
    0.00000E+00         0.00000E+00        -0.41696E+08
 
   -0.41985E+08         0.48437E+07         0.00000E+00
    0.48437E+07        -0.61549E+08         0.00000E+00
    0.00000E+00         0.00000E+00        -0.41603E+08
 
   -0.41622E+08         0.73994E+07         0.00000E+00
    0.73994E+07        -0.61701E+08         0.00000E+00
    0.00000E+00         0.00000E+00        -0.41561E+08
 
   -0.59031E+08        -0.13126E+07         0.00000E+00
   -0.13126E+07        -0.60052E+08         0.00000E+00
    0.00000E+00         0.00000E+00        -0.42343E+08
 
   -0.57027E+08        -0.31303E+07         0.00000E+00
   -0.31303E+07        -0.60182E+08         0.00000E+00
    0.00000E+00         0.00000E+00        -0.41968E+08
 
   -0.54904E+08        -0.40611E+07         0.00000E+00
   -0.40611E+07        -0.60271E+08         0.00000E+00
    0.00000E+00         0.00000E+00        -0.41561E+08
 
   -0.52916E+08        -0.43684E+07         0.00000E+00
   -0.43684E+07        -0.60232E+08         0.00000E+00
    0.00000E+00         0.00000E+00        -0.41155E+08
 
   -0.51154E+08        -0.42768E+07         0.00000E+00
   -0.42768E+07        -0.60069E+08         0.00000E+00
    0.00000E+00         0.00000E+00        -0.40769E+08
 
   -0.49611E+08        -0.39400E+07         0.00000E+00
   -0.39400E+07        -0.59830E+08         0.00000E+00
    0.00000E+00         0.00000E+00        -0.40412E+08
 
   -0.48242E+08        -0.34471E+07         0.00000E+00
   -0.34471E+07        -0.59566E+08         0.00000E+00
    0.00000E+00         0.00000E+00        -0.40085E+08
 
   -0.46991E+08        -0.28409E+07         0.00000E+00
   -0.28409E+07        -0.59324E+08         0.00000E+00
    0.00000E+00         0.00000E+00        -0.39785E+08
 
   -0.45801E+08        -0.21321E+07         0.00000E+00
   -0.21321E+07        -0.59142E+08         0.00000E+00
    0.00000E+00         0.00000E+00        -0.39510E+08
 
   -0.44623E+08        -0.13051E+07         0.00000E+00
   -0.13051E+07        -0.59053E+08         0.00000E+00
    0.00000E+00         0.00000E+00        -0.39256E+08
 
   -0.43419E+08        -0.31829E+06         0.00000E+00
   -0.31829E+06        -0.59085E+08         0.00000E+00
    0.00000E+00         0.00000E+00        -0.39021E+08
 
   -0.42166E+08         0.90152E+06         0.00000E+00
    0.90152E+06        -0.59257E+08         0.00000E+00
    0.00000E+00         0.00000E+00        -0.38805E+08
 
   -0.40882E+08         0.24649E+07         0.00000E+00
    0.24649E+07        -0.59570E+08         0.00000E+00
    0.00000E+00         0.00000E+00        -0.38610E+08
 
   -0.39657E+08         0.45161E+07         0.00000E+00
    0.45161E+07        -0.59982E+08         0.00000E+00
    0.00000E+00         0.00000E+00        -0.38447E+08
 
   -0.38682E+08         0.72050E+07         0.00000E+00
    0.72050E+07        -0.60380E+08         0.00000E+00
    0.00000E+00         0.00000E+00        -0.38331E+08
 
   -0.61438E+08        -0.14046E+07         0.00000E+00
   -0.14046E+07        -0.60037E+08         0.00000E+00
    0.00000E+00         0.00000E+00        -0.40258E+08
 
   -0.58315E+08        -0.31974E+07         0.00000E+00
   -0.31974E+07        -0.60066E+08         0.00000E+00
    0.00000E+00         0.00000E+00        -0.39639E+08
 
   -0.55404E+08        -0.39621E+07         0.00000E+00
   -0.39621E+07        -0.59923E+08         0.00000E+00
    0.00000E+00         0.00000E+00        -0.39027E+08
 
   -0.52931E+08        -0.41026E+07         0.00000E+00
   -0.41026E+07        -0.59567E+08         0.00000E+00
    0.00000E+00         0.00000E+00        -0.38461E+08
 
   -0.50889E+08        -0.39072E+07         0.00000E+00
   -0.39072E+07        -0.59069E+08         0.00000E+00
    0.00000E+00         0.00000E+00        -0.37952E+08
 
   -0.49184E+08        -0.35348E+07         0.00000E+00
   -0.35348E+07        -0.58519E+08         0.00000E+00
    0.00000E+00         0.00000E+00        -0.37500E+08
 
   -0.47709E+08        -0.30614E+07         0.00000E+00
   -0.30614E+07        -0.57984E+08         0.00000E+00
    0.00000E+00         0.00000E+00        -0.37098E+08
 
   -0.46373E+08        -0.25179E+07         0.00000E+00
   -0.25179E+07        -0.57513E+08         0.00000E+00
    0.00000E+00         0.00000E+00        -0.36736E+08
 
   -0.45092E+08        -0.19073E+07         0.00000E+00
   -0.19073E+07        -0.57144E+08         0.00000E+00
    0.00000E+00         0.00000E+00        -0.36405E+08
 
   -0.43795E+08        -0.12105E+07         0.00000E+00
   -0.12105E+07        -0.56910E+08         0.00000E+00
    0.00000E+00         0.00000E+00        -0.36098E+08
 
   -0.42413E+08        -0.38415E+06         0.00000E+00
   -0.38415E+06        -0.56844E+08         0.00000E+00
    0.00000E+00         0.00000E+00        -0.35808E+08
 
   -0.40884E+08         0.64980E+06         0.00000E+00
    0.64980E+06        -0.56983E+08         0.00000E+00
    0.00000E+00         0.00000E+00        -0.35530E+08
 
   -0.39174E+08         0.20264E+07         0.00000E+00
    0.20264E+07        -0.57358E+08         0.00000E+00
    0.00000E+00         0.00000E+00        -0.35262E+08
 
   -0.37328E+08         0.39531E+07         0.00000E+00
    0.39531E+07        -0.57961E+08         0.00000E+00
    0.00000E+00         0.00000E+00        -0.35013E+08
 
   -0.35545E+08         0.66831E+07         0.00000E+00
    0.66831E+07        -0.58684E+08         0.00000E+00
    0.00000E+00         0.00000E+00        -0.34801E+08
 
   -0.63891E+08        -0.14496E+07         0.00000E+00
   -0.14496E+07        -0.60008E+08         0.00000E+00
    0.00000E+00         0.00000E+00        -0.38020E+08
 
   -0.59402E+08        -0.30380E+07         0.00000E+00
   -0.30380E+07        -0.59852E+08         0.00000E+00
    0.00000E+00         0.00000E+00        -0.37090E+08
 
   -0.55683E+08        -0.35007E+07         0.00000E+00
   -0.35007E+07        -0.59324E+08         0.00000E+00
    0.00000E+00         0.00000E+00        -0.36240E+08
 
   -0.52810E+08        -0.34482E+07         0.00000E+00
   -0.34482E+07        -0.58523E+08         0.00000E+00
    0.00000E+00         0.00000E+00        -0.35505E+08
 
   -0.50578E+08        -0.31848E+07         0.00000E+00
   -0.31848E+07        -0.57626E+08         0.00000E+00
    0.00000E+00         0.00000E+00        -0.34878E+08
 
   -0.48775E+08        -0.28281E+07         0.00000E+00
   -0.28281E+07        -0.56743E+08         0.00000E+00
    0.00000E+00         0.00000E+00        -0.34341E+08
 
   -0.47242E+08        -0.24246E+07         0.00000E+00
   -0.24246E+07        -0.55937E+08         0.00000E+00
    0.00000E+00         0.00000E+00        -0.33872E+08
 
   -0.45857E+08        -0.19886E+07         0.00000E+00
   -0.19886E+07        -0.55246E+08         0.00000E+00
    0.00000E+00         0.00000E+00        -0.33457E+08
 
   -0.44518E+08        -0.15164E+07         0.00000E+00
   -0.15164E+07        -0.54698E+08         0.00000E+00
    0.00000E+00         0.00000E+00        -0.33079E+08
 
   -0.43134E+08        -0.98965E+06         0.00000E+00
   -0.98965E+06        -0.54322E+08         0.00000E+00
    0.00000E+00         0.00000E+00        -0.32726E+08
 
   -0.41609E+08        -0.37120E+06         0.00000E+00
   -0.37120E+06        -0.54151E+08         0.00000E+00
    0.00000E+00         0.00000E+00        -0.32387E+08
 
   -0.39840E+08         0.40690E+06         0.00000E+00
    0.40690E+06        -0.54233E+08         0.00000E+00
    0.00000E+00         0.00000E+00        -0.32049E+08
 
   -0.37707E+08         0.14744E+07         0.00000E+00
    0.14744E+07        -0.54637E+08         0.00000E+00
    0.00000E+00         0.00000E+00        -0.31703E+08
 
   -0.35141E+08         0.31007E+07         0.00000E+00
    0.31007E+07        -0.55444E+08         0.00000E+00
    0.00000E+00         0.00000E+00        -0.31351E+08
 
   -0.32297E+08         0.57122E+07         0.00000E+00
    0.57122E+07        -0.56588E+08         0.00000E+00
    0.00000E+00         0.00000E+00        -0.31010E+08
 
   -0.66189E+08        -0.13889E+07         0.00000E+00
   -0.13889E+07        -0.59934E+08         0.00000E+00
    0.00000E+00         0.00000E+00        -0.35620E+08
 
   -0.60076E+08        -0.24315E+07         0.00000E+00
   -0.24315E+07        -0.59346E+08         0.00000E+00
    0.00000E+00         0.00000E+00        -0.34280E+08
 
   -0.55703E+08        -0.25036E+07         0.00000E+00
   -0.25036E+07        -0.58178E+08         0.00000E+00
    0.00000E+00         0.00000E+00        -0.33171E+08
 
   -0.52610E+08        -0.23396E+07         0.00000E+00
   -0.23396E+07        -0.56858E+08         0.00000E+00
    0.00000E+00         0.00000E+00        -0.32288E+08
 
   -0.50288E+08        -0.21015E+07         0.00000E+00
   -0.21015E+07        -0.55573E+08         0.00000E+00
    0.00000E+00         0.00000E+00        -0.31566E+08
 
   -0.48446E+08        -0.18371E+07         0.00000E+00
   -0.18371E+07        -0.54397E+08         0.00000E+00
    0.00000E+00         0.00000E+00        -0.30962E+08
 
   -0.46891E+08        -0.15617E+07         0.00000E+00
   -0.15617E+07        -0.53365E+08         0.00000E+00
    0.00000E+00         0.00000E+00        -0.30444E+08
 
   -0.45485E+08        -0.12776E+07         0.00000E+00
   -0.12776E+07        -0.52497E+08         0.00000E+00
    0.00000E+00         0.00000E+00        -0.29989E+08
 
   -0.44114E+08        -0.97858E+06         0.00000E+00
   -0.97858E+06        -0.51807E+08         0.00000E+00
    0.00000E+00         0.00000E+00        -0.29576E+08
 
   -0.42675E+08        -0.65124E+06         0.00000E+00
   -0.65124E+06        -0.51314E+08         0.00000E+00
    0.00000E+00         0.00000E+00        -0.29190E+08
 
   -0.41055E+08        -0.27133E+06         0.00000E+00
   -0.27133E+06        -0.51050E+08         0.00000E+00
    0.00000E+00         0.00000E+00        -0.28813E+08
 
   -0.39113E+08         0.20544E+06         0.00000E+00
    0.20544E+06        -0.51064E+08         0.00000E+00
    0.00000E+00         0.00000E+00        -0.28427E+08
 
   -0.36650E+08         0.86793E+06         0.00000E+00
    0.86793E+06        -0.51446E+08         0.00000E+00
    0.00000E+00         0.00000E+00        -0.28010E+08
 
   -0.33344E+08         0.19341E+07         0.00000E+00
    0.19341E+07        -0.52365E+08         0.00000E+00
    0.00000E+00         0.00000E+00        -0.27533E+08
 
   -0.29100E+08         0.41030E+07         0.00000E+00
    0.41030E+07        -0.54059E+08         0.00000E+00
    0.00000E+00         0.00000E+00        -0.27023E+08
 
   -0.67834E+08        -0.85577E+06         0.00000E+00
   -0.85577E+06        -0.59377E+08         0.00000E+00
    0.00000E+00         0.00000E+00        -0.32916E+08
 
   -0.60191E+08        -0.99850E+06         0.00000E+00
   -0.99850E+06        -0.57783E+08         0.00000E+00
    0.00000E+00         0.00000E+00        -0.31069E+08
 
   -0.55614E+08        -0.92422E+06         0.00000E+00
   -0.92422E+06        -0.55982E+08         0.00000E+00
    0.00000E+00         0.00000E+00        -0.29793E+08
 
   -0.52452E+08        -0.83410E+06         0.00000E+00
   -0.83410E+06        -0.54281E+08         0.00000E+00
    0.00000E+00         0.00000E+00        -0.28820E+08
 
   -0.50109E+08        -0.73646E+06         0.00000E+00
   -0.73646E+06        -0.52745E+08         0.00000E+00
    0.00000E+00         0.00000E+00        -0.28044E+08
 
   -0.48260E+08        -0.63794E+06         0.00000E+00
   -0.63794E+06        -0.51394E+08         0.00000E+00
    0.00000E+00         0.00000E+00        -0.27404E+08
 
   -0.46701E+08        -0.53975E+06         0.00000E+00
   -0.53975E+06        -0.50233E+08         0.00000E+00
    0.00000E+00         0.00000E+00        -0.26860E+08
 
   -0.45289E+08        -0.44085E+06         0.00000E+00
   -0.44085E+06        -0.49266E+08         0.00000E+00
    0.00000E+00         0.00000E+00        -0.26384E+08
 
   -0.43905E+08        -0.33842E+06         0.00000E+00
   -0.33842E+06        -0.48496E+08         0.00000E+00
    0.00000E+00         0.00000E+00        -0.25953E+08
 
   -0.42441E+08        -0.22752E+06         0.00000E+00
   -0.22752E+06        -0.47938E+08         0.00000E+00
    0.00000E+00         0.00000E+00        -0.25549E+08
 
   -0.40774E+08        -0.99817E+05         0.00000E+00
   -0.99817E+05        -0.47617E+08         0.00000E+00
    0.00000E+00         0.00000E+00        -0.25151E+08
 
   -0.38744E+08         0.59515E+05         0.00000E+00
    0.59515E+05        -0.47581E+08         0.00000E+00
    0.00000E+00         0.00000E+00        -0.24738E+08
 
   -0.36101E+08         0.28172E+06         0.00000E+00
    0.28172E+06        -0.47925E+08         0.00000E+00
    0.00000E+00         0.00000E+00        -0.24278E+08
 
   -0.32390E+08         0.63630E+06         0.00000E+00
    0.63630E+06        -0.48842E+08         0.00000E+00
    0.00000E+00         0.00000E+00        -0.23719E+08
 
   -0.26303E+08         0.15546E+07         0.00000E+00
    0.15546E+07        -0.50888E+08         0.00000E+00
    0.00000E+00         0.00000E+00        -0.22910E+08
 
SCALARS stressS double 
LOOKUP_TABLE default
  -55784685.3394075     
  -56031611.3620300     
  -56280726.5120446     
  -56531672.6793837     
  -56781765.2942821     
  -57028201.8562402     
  -57268397.7866835     
  -57500086.8987257     
  -57721329.3837653     
  -57930491.9348963     
  -58126225.8700366     
  -58307463.5315693     
  -58473474.0444915     
  -58624043.5731719     
  -58760989.9161506     
  -55756743.0201352     
  -56000272.8910899     
  -56251708.6948553     
  -56505601.6009911     
  -56758588.5970785     
  -57007630.9176657     
  -57250091.3696968     
  -57483710.5170320     
  -57706576.3274096     
  -57917083.7133802     
  -58113896.1265054     
  -58295919.7536967     
  -58462282.4113975     
  -58612412.6930551     
  -58744552.5048441     
  -55711446.5374771     
  -55960102.7901545     
  -56217501.8506159     
  -56477790.4908236     
  -56736704.1004819     
  -56990984.5689723     
  -57237954.5461547     
  -57475398.8024800     
  -57701477.0998635     
  -57914653.9103150     
  -58113635.8629674     
  -58297310.1363608     
  -58464682.7020711     
  -58614600.5038164     
  -58745702.6932818     
  -55645527.1418950     
  -55907283.6462799     
  -56176185.8336143     
  -56446788.8934503     
  -56714824.0110227     
  -56976977.6710118     
  -57230642.0976256     
  -57473724.8887225     
  -57704527.1733630     
  -57921645.3356988     
  -58123884.8259640     
  -58310178.2161523     
  -58479475.9228274     
  -58630660.2492004     
  -58762460.9493897     
  -55559082.0706940     
  -55840705.4143160     
  -56126519.6393525     
  -56411581.1012664     
  -56691940.3997227     
  -56964516.0289655     
  -57226922.7527633     
  -57477306.5291295     
  -57714204.3071645     
  -57936427.6612245     
  -58142960.5068567     
  -58332862.7778960     
  -58505184.4748396     
  -58658892.0643471     
  -58792840.8123103     
  -55453060.7342551     
  -55760559.3160976     
  -56068213.6803409     
  -56371621.0134896     
  -56667311.5342195     
  -56952628.6030629     
  -57225579.9052628     
  -57484683.8659468     
  -57728826.8788034     
  -57957135.9441253     
  -58168865.5895353     
  -58363297.9917219     
  -58539657.1711152     
  -58697045.5696131     
  -58834410.4935867     
  -55328945.8723474     
  -55667722.4245237     
  -56001591.4359612     
  -56326763.3022765     
  -56640379.6809748     
  -56940369.0428755     
  -57225290.9617303     
  -57494180.0137791     
  -57746398.0389648     
  -57981499.2890458     
  -58199109.7885825     
  -58398821.2754527     
  -58580101.6031752     
  -58742224.9014054     
  -58884226.5204153     
  -55188667.8888818     
  -55563528.5279054     
  -55927352.7845993     
  -56277089.7610411     
  -56610641.1128871     
  -56926681.2891430     
  -57224481.4773169     
  -57503741.5296356     
  -57764433.6218367     
  -58006659.7860614     
  -58230523.9777658     
  -58436018.8476569     
  -58622927.7862925     
  -58790743.8140210     
  -58938607.4363702     
  -55034592.6788867     
  -55449650.9107674     
  -55846410.7688256     
  -56222740.5836737     
  -56577483.1704824     
  -56910237.0061123     
  -57221154.5644911     
  -57510758.0547842     
  -57779772.5114560     
  -58028975.5347842     
  -58259062.4183276     
  -58470525.2703079     
  -58663545.1555661     
  -58837897.0317495     
  -58992868.1528066     
  -54869524.1057070     
  -55328022.7776684     
  -55759757.6549641     
  -56163751.9523419     
  -56540008.4792020     
  -56889251.5729300     
  -57212699.2744803     
  -57511862.7473227     
  -57788369.5528285     
  -58043807.0946633     
  -58279582.4348863     
  -58496794.9088058     
  -58696118.5760931     
  -58877692.5162061     
  -59041018.2272708     
  -54696704.4895610     
  -55200763.1272105     
  -55668335.9955843     
  -56099891.1640914     
  -56496848.4261418     
  -56861284.5892462     
  -57195682.4986469     
  -57502717.5210822     
  -57785074.7645382     
  -58045290.1659612     
  -58285608.7385871     
  -58507853.7781318     
  -58713301.7182401     
  -58902558.6043023     
  -59075435.8236924     
  -54519803.0906516     
  -55070093.1763059     
  -55572901.2366921     
  -56030482.2805750     
  -56445965.5270774     
  -56823028.6910662     
  -57165630.2612841     
  -57477789.8663488     
  -57763406.4133398     
  -58026103.6627157     
  -58269093.2578635     
  -58495045.9813659     
  -58705963.1860233     
  -58903041.9598081     
  -59086529.6452770     
  -54342885.1341742     
  -54938234.7977854     
  -55473868.9559480     
  -55954219.1121866     
  -56384445.9401234     
  -56770091.8159385     
  -57116806.4172834     
  -57430131.4170313     
  -57715330.0119690     
  -57977247.1173148     
  -58220186.5680882     
  -58447792.6413093     
  -58662924.6695465     
  -58867515.4556929     
  -59062406.6204035     
  -54170354.7870888     
  -54807285.9280077     
  -55371144.1510138     
  -55868966.3153919     
  -56308286.6801196     
  -56696781.1391152     
  -57042000.2376609     
  -57351172.5853431     
  -57631060.1003624     
  -57887846.6603058     
  -58127042.3469852     
  -58353386.6463008     
  -58570735.7117198     
  -58781921.0820892     
  -58988570.0088234     
  -54006866.1724705     
  -54679070.4898636     
  -55263933.6083723     
  -55771553.2888740     
  -56212186.0014296     
  -56595900.8979671     
  -56932338.6713493     
  -57230552.3715247     
  -57498906.9772849     
  -57745014.5382999     
  -57975682.3268305     
  -58196852.8098354     
  -58413516.3478118     
  -58629580.2234322     
  -58847680.7461911     
  -53857197.4599816     
  -54554962.8580181     
  -55150545.7146019     
  -55657569.2945462     
  -56089349.3837695     
  -56458580.5409713     
  -56777143.6581543     
  -57056007.5091322     
  -57305196.0921399     
  -57533793.1295859     
  -57749955.6033327     
  -57960909.8231428     
  -58172906.1194528     
  -58391111.5433975     
  -58619423.6228062     
  -53726084.5749819     
  -54435689.3943105     
  -55028184.9988310     
  -55521171.3575082     
  -55931326.8972701     
  -56274153.3173521     
  -56563859.0186210     
  -56813349.8042427     
  -57034293.0540804     
  -57237220.1609090     
  -57431632.3377493     
  -57626076.9587927     
  -57828164.9985646     
  -58044504.3657915     
  -58280528.4413247     
  -53618013.2321650     
  -54321111.7651963     
  -54892750.5123254     
  -55354918.0674936     
  -55727899.3841010     
  -56030107.5178545     
  -56278074.1903899     
  -56486563.9865507     
  -56668771.3416600     
  -56836556.5103873     
  -57000676.9996560     
  -57170973.9277613     
  -57356477.5196682     
  -57565401.6549538     
  -57805003.3115284     
  -53536970.7133980     
  -54209997.6965220     
  -54738646.4187250     
  -55149640.7745944     
  -55467029.2817796     
  -55712131.6574166     
  -55903672.1594171     
  -56058059.4684128     
  -56189761.7112948     
  -56311720.5177394     
  -56435749.2347214     
  -56572865.4180554     
  -56733514.5820874     
  -56927649.9231272     
  -57164640.8879755     
  -53486161.5648950     
  -54099782.6882788     
  -54558607.3630021     
  -54894356.2693332     
  -55134884.8053434     
  -55304269.1870943     
  -55423124.9034578     
  -55509106.7962339     
  -55577520.7074483     
  -55641971.8041055     
  -55714979.8977239     
  -55808501.3233644     
  -55934306.4652614     
  -56104171.7950609     
  -56329856.2834574     
  -53467692.9255728     
  -53986317.5919512     
  -54343526.0727640     
  -54576208.0207284     
  -54715930.8133218     
  -54789186.0434145     
  -54817950.2617196     
  -54820482.0469963     
  -54812249.1755715     
  -54806881.7308301     
  -54817064.3903207     
  -54855298.2800871     
  -54934474.3457534     
  -55068208.7763128     
  -55270904.9034521     
  -53482232.7677660     
  -53863575.5074069     
  -54082239.0207743     
  -54180390.8928309     
  -54193053.1035528     
  -54148534.6264030     
  -54069329.1460172     
  -53973329.3147762     
  -53875178.8143384     
  -53787615.1097172     
  -53722703.8029953     
  -53692897.3291534     
  -53711855.7346638     
  -53794966.2112298     
  -53959506.9980111     
  -53528632.3042901     
  -53723244.5708841     
  -53761165.1519733     
  -53689959.1954350     
  -53547643.7010414     
  -53363373.0218829     
  -53158864.0877371     
  -52950233.2349948     
  -52749924.0220849     
  -52568525.9335776     
  -52416405.4218150     
  -52305116.8908898     
  -52248544.6018606     
  -52263671.1896220     
  -52370872.3419840     
  -53603468.6976933     
  -53554034.5308929     
  -53363577.7768790     
  -53085330.2286762     
  -52759527.5751923     
  -52414579.4974888     
  -52069447.9406788     
  -51736472.8439194     
  -51424063.7232653     
  -51139034.8552684     
  -50888624.2485705     
  -50682305.2580754     
  -50533356.4804296     
  -50460037.7380027     
  -50486074.9294967     
  -53700378.3115746     
  -53340305.3530283     
  -52868072.6103347     
  -52343166.1576852     
  -51806580.8678700     
  -51283221.4668800     
  -50786223.7577008     
  -50321407.1110977     
  -49890868.6411671     
  -49495690.3119012     
  -49138188.1267121     
  -48824079.8144164     
  -48564755.6204087     
  -48379138.4496485     
  -48294692.2623482     
  -53808790.7849162     
  -53059126.1120642     
  -52245354.2587108     
  -51434170.6675252     
  -50663969.1763422     
  -49950958.5564891     
  -49297684.6977315     
  -48699921.7651341     
  -48150993.9263806     
  -47644220.1570377     
  -47174831.8188897     
  -46742487.7105682     
  -46354333.2809530     
  -46028833.7763314     
  -45797595.8409042     
  -53911051.5609470     
  -52673388.7429118     
  -51451654.5630279     
  -50319378.1587488     
  -49303349.6960111     
  -48400940.1819482     
  -47597034.1822583     
  -46873836.9772570     
  -46213862.7017794     
  -45601067.6135087     
  -45021619.1527591     
  -44465375.2744571     
  -43931509.4586614     
  -43434045.7826567     
  -43010102.4605590     
  -53973025.2313696     
  -52114977.4576105     
  -50415568.2911707     
  -48945687.7598133     
  -47694192.4529464     
  -46619818.7148487     
  -45683976.5751313     
  -44853127.3444312     
  -44098342.4394483     
  -43393837.6208275     
  -42715588.2765909     
  -42040871.4298022     
  -41349084.9613002     
  -40645258.3234268     
  -39965148.0386674     
  -53914284.8765690     
  -51234009.1789701     
  -49017241.4702090     
  -47251775.6200999     
  -45808784.5873452     
  -44601601.0200034     
  -43566885.2505694     
  -42656736.9125548     
  -41832398.7582514     
  -41059819.1636176     
  -40305894.6982589     
  -39534385.5087100     
  -38702245.0675863     
  -37747048.7068866     
  -36727417.7785291     
  -53375684.5421545     
  -49681000.5748909     
  -47129567.7566948     
  -45184243.2876639     
  -43632801.0246725     
  -42352762.2869499     
  -41264956.7849308     
  -40312717.0145535     
  -39451561.1216605     
  -38642658.3005619     
  -37847405.2890597     
  -37021035.9154307     
  -36101048.6502487     
  -34983439.1571700     
  -33367035.0392881     
SCALARS 2waySource double 
LOOKUP_TABLE default
  0.000000000000000E+000
  0.000000000000000E+000
  0.000000000000000E+000
  0.000000000000000E+000
  0.000000000000000E+000
  0.000000000000000E+000
  0.000000000000000E+000
  0.000000000000000E+000
  0.000000000000000E+000
  0.000000000000000E+000
  0.000000000000000E+000
  0.000000000000000E+000
  0.000000000000000E+000
  0.000000000000000E+000
  0.000000000000000E+000
  0.000000000000000E+000
  0.000000000000000E+000
  0.000000000000000E+000
  0.000000000000000E+000
  0.000000000000000E+000
  0.000000000000000E+000
  0.000000000000000E+000
  0.000000000000000E+000
  0.000000000000000E+000
  0.000000000000000E+000
  0.000000000000000E+000
  0.000000000000000E+000
  0.000000000000000E+000
  0.000000000000000E+000
  0.000000000000000E+000
  0.000000000000000E+000
  0.000000000000000E+000
  0.000000000000000E+000
  0.000000000000000E+000
  0.000000000000000E+000
  0.000000000000000E+000
  0.000000000000000E+000
  0.000000000000000E+000
  0.000000000000000E+000
  0.000000000000000E+000
  0.000000000000000E+000
  0.000000000000000E+000
  0.000000000000000E+000
  0.000000000000000E+000
  0.000000000000000E+000
  0.000000000000000E+000
  0.000000000000000E+000
  0.000000000000000E+000
  0.000000000000000E+000
  0.000000000000000E+000
  0.000000000000000E+000
  0.000000000000000E+000
  0.000000000000000E+000
  0.000000000000000E+000
  0.000000000000000E+000
  0.000000000000000E+000
  0.000000000000000E+000
  0.000000000000000E+000
  0.000000000000000E+000
  0.000000000000000E+000
  0.000000000000000E+000
  0.000000000000000E+000
  0.000000000000000E+000
  0.000000000000000E+000
  0.000000000000000E+000
  0.000000000000000E+000
  0.000000000000000E+000
  0.000000000000000E+000
  0.000000000000000E+000
  0.000000000000000E+000
  0.000000000000000E+000
  0.000000000000000E+000
  0.000000000000000E+000
  0.000000000000000E+000
  0.000000000000000E+000
  0.000000000000000E+000
  0.000000000000000E+000
  0.000000000000000E+000
  0.000000000000000E+000
  0.000000000000000E+000
  0.000000000000000E+000
  0.000000000000000E+000
  0.000000000000000E+000
  0.000000000000000E+000
  0.000000000000000E+000
  0.000000000000000E+000
  0.000000000000000E+000
  0.000000000000000E+000
  0.000000000000000E+000
  0.000000000000000E+000
  0.000000000000000E+000
  0.000000000000000E+000
  0.000000000000000E+000
  0.000000000000000E+000
  0.000000000000000E+000
  0.000000000000000E+000
  0.000000000000000E+000
  0.000000000000000E+000
  0.000000000000000E+000
  0.000000000000000E+000
  0.000000000000000E+000
  0.000000000000000E+000
  0.000000000000000E+000
  0.000000000000000E+000
  0.000000000000000E+000
  0.000000000000000E+000
  0.000000000000000E+000
  0.000000000000000E+000
  0.000000000000000E+000
  0.000000000000000E+000
  0.000000000000000E+000
  0.000000000000000E+000
  0.000000000000000E+000
  0.000000000000000E+000
  0.000000000000000E+000
  0.000000000000000E+000
  0.000000000000000E+000
  0.000000000000000E+000
  0.000000000000000E+000
  0.000000000000000E+000
  0.000000000000000E+000
  0.000000000000000E+000
  0.000000000000000E+000
  0.000000000000000E+000
  0.000000000000000E+000
  0.000000000000000E+000
  0.000000000000000E+000
  0.000000000000000E+000
  0.000000000000000E+000
  0.000000000000000E+000
  0.000000000000000E+000
  0.000000000000000E+000
  0.000000000000000E+000
  0.000000000000000E+000
  0.000000000000000E+000
  0.000000000000000E+000
  0.000000000000000E+000
  0.000000000000000E+000
  0.000000000000000E+000
  0.000000000000000E+000
  0.000000000000000E+000
  0.000000000000000E+000
  0.000000000000000E+000
  0.000000000000000E+000
  0.000000000000000E+000
  0.000000000000000E+000
  0.000000000000000E+000
  0.000000000000000E+000
  0.000000000000000E+000
  0.000000000000000E+000
  0.000000000000000E+000
  0.000000000000000E+000
  0.000000000000000E+000
  0.000000000000000E+000
  0.000000000000000E+000
  0.000000000000000E+000
  0.000000000000000E+000
  0.000000000000000E+000
  0.000000000000000E+000
  0.000000000000000E+000
  0.000000000000000E+000
  0.000000000000000E+000
  0.000000000000000E+000
  0.000000000000000E+000
  0.000000000000000E+000
  0.000000000000000E+000
  0.000000000000000E+000
  0.000000000000000E+000
  0.000000000000000E+000
  0.000000000000000E+000
  0.000000000000000E+000
  0.000000000000000E+000
  0.000000000000000E+000
  0.000000000000000E+000
  0.000000000000000E+000
  0.000000000000000E+000
  0.000000000000000E+000
  0.000000000000000E+000
  0.000000000000000E+000
  0.000000000000000E+000
  0.000000000000000E+000
  0.000000000000000E+000
  0.000000000000000E+000
  0.000000000000000E+000
  0.000000000000000E+000
  0.000000000000000E+000
  0.000000000000000E+000
  0.000000000000000E+000
  0.000000000000000E+000
  0.000000000000000E+000
  0.000000000000000E+000
  0.000000000000000E+000
  0.000000000000000E+000
  0.000000000000000E+000
  0.000000000000000E+000
  0.000000000000000E+000
  0.000000000000000E+000
  0.000000000000000E+000
  0.000000000000000E+000
  0.000000000000000E+000
  0.000000000000000E+000
  0.000000000000000E+000
  0.000000000000000E+000
  0.000000000000000E+000
  0.000000000000000E+000
  0.000000000000000E+000
  0.000000000000000E+000
  0.000000000000000E+000
  0.000000000000000E+000
  0.000000000000000E+000
  0.000000000000000E+000
  0.000000000000000E+000
  0.000000000000000E+000
  0.000000000000000E+000
  0.000000000000000E+000
  0.000000000000000E+000
  0.000000000000000E+000
  0.000000000000000E+000
  0.000000000000000E+000
  0.000000000000000E+000
  0.000000000000000E+000
  0.000000000000000E+000
  0.000000000000000E+000
  0.000000000000000E+000
  0.000000000000000E+000
  0.000000000000000E+000
  0.000000000000000E+000
  0.000000000000000E+000
  0.000000000000000E+000
  0.000000000000000E+000
  0.000000000000000E+000
  0.000000000000000E+000
  0.000000000000000E+000
  0.000000000000000E+000
  0.000000000000000E+000
  0.000000000000000E+000
  0.000000000000000E+000
  0.000000000000000E+000
  0.000000000000000E+000
  0.000000000000000E+000
  0.000000000000000E+000
  0.000000000000000E+000
  0.000000000000000E+000
  0.000000000000000E+000
  0.000000000000000E+000
  0.000000000000000E+000
  0.000000000000000E+000
  0.000000000000000E+000
  0.000000000000000E+000
  0.000000000000000E+000
  0.000000000000000E+000
  0.000000000000000E+000
  0.000000000000000E+000
  0.000000000000000E+000
  0.000000000000000E+000
  0.000000000000000E+000
  0.000000000000000E+000
  0.000000000000000E+000
  0.000000000000000E+000
  0.000000000000000E+000
  0.000000000000000E+000
  0.000000000000000E+000
  0.000000000000000E+000
  0.000000000000000E+000
  0.000000000000000E+000
  0.000000000000000E+000
  0.000000000000000E+000
  0.000000000000000E+000
  0.000000000000000E+000
  0.000000000000000E+000
  0.000000000000000E+000
  0.000000000000000E+000
  0.000000000000000E+000
  0.000000000000000E+000
  0.000000000000000E+000
  0.000000000000000E+000
  0.000000000000000E+000
  0.000000000000000E+000
  0.000000000000000E+000
  0.000000000000000E+000
  0.000000000000000E+000
  0.000000000000000E+000
  0.000000000000000E+000
  0.000000000000000E+000
  0.000000000000000E+000
  0.000000000000000E+000
  0.000000000000000E+000
  0.000000000000000E+000
  0.000000000000000E+000
  0.000000000000000E+000
  0.000000000000000E+000
  0.000000000000000E+000
  0.000000000000000E+000
  0.000000000000000E+000
  0.000000000000000E+000
  0.000000000000000E+000
  0.000000000000000E+000
  0.000000000000000E+000
  0.000000000000000E+000
  0.000000000000000E+000
  0.000000000000000E+000
  0.000000000000000E+000
  0.000000000000000E+000
  0.000000000000000E+000
  0.000000000000000E+000
  0.000000000000000E+000
  0.000000000000000E+000
  0.000000000000000E+000
  0.000000000000000E+000
  0.000000000000000E+000
  0.000000000000000E+000
  0.000000000000000E+000
  0.000000000000000E+000
  0.000000000000000E+000
  0.000000000000000E+000
  0.000000000000000E+000
  0.000000000000000E+000
  0.000000000000000E+000
  0.000000000000000E+000
  0.000000000000000E+000
  0.000000000000000E+000
  0.000000000000000E+000
  0.000000000000000E+000
  0.000000000000000E+000
  0.000000000000000E+000
  0.000000000000000E+000
  0.000000000000000E+000
  0.000000000000000E+000
  0.000000000000000E+000
  0.000000000000000E+000
  0.000000000000000E+000
  0.000000000000000E+000
  0.000000000000000E+000
  0.000000000000000E+000
  0.000000000000000E+000
  0.000000000000000E+000
  0.000000000000000E+000
  0.000000000000000E+000
  0.000000000000000E+000
  0.000000000000000E+000
  0.000000000000000E+000
  0.000000000000000E+000
  0.000000000000000E+000
  0.000000000000000E+000
  0.000000000000000E+000
  0.000000000000000E+000
  0.000000000000000E+000
  0.000000000000000E+000
  0.000000000000000E+000
  0.000000000000000E+000
  0.000000000000000E+000
  0.000000000000000E+000
  0.000000000000000E+000
  0.000000000000000E+000
  0.000000000000000E+000
  0.000000000000000E+000
  0.000000000000000E+000
  0.000000000000000E+000
  0.000000000000000E+000
  0.000000000000000E+000
  0.000000000000000E+000
  0.000000000000000E+000
  0.000000000000000E+000
  0.000000000000000E+000
  0.000000000000000E+000
  0.000000000000000E+000
  0.000000000000000E+000
  0.000000000000000E+000
  0.000000000000000E+000
  0.000000000000000E+000
  0.000000000000000E+000
  0.000000000000000E+000
  0.000000000000000E+000
  0.000000000000000E+000
  0.000000000000000E+000
  0.000000000000000E+000
  0.000000000000000E+000
  0.000000000000000E+000
  0.000000000000000E+000
  0.000000000000000E+000
  0.000000000000000E+000
  0.000000000000000E+000
  0.000000000000000E+000
  0.000000000000000E+000
  0.000000000000000E+000
  0.000000000000000E+000
  0.000000000000000E+000
  0.000000000000000E+000
  0.000000000000000E+000
  0.000000000000000E+000
  0.000000000000000E+000
  0.000000000000000E+000
  0.000000000000000E+000
  0.000000000000000E+000
  0.000000000000000E+000
  0.000000000000000E+000
  0.000000000000000E+000
  0.000000000000000E+000
  0.000000000000000E+000
  0.000000000000000E+000
  0.000000000000000E+000
  0.000000000000000E+000
  0.000000000000000E+000
  0.000000000000000E+000
  0.000000000000000E+000
  0.000000000000000E+000
  0.000000000000000E+000
  0.000000000000000E+000
  0.000000000000000E+000
  0.000000000000000E+000
  0.000000000000000E+000
  0.000000000000000E+000
  0.000000000000000E+000
  0.000000000000000E+000
  0.000000000000000E+000
  0.000000000000000E+000
  0.000000000000000E+000
  0.000000000000000E+000
  0.000000000000000E+000
  0.000000000000000E+000
  0.000000000000000E+000
  0.000000000000000E+000
  0.000000000000000E+000
  0.000000000000000E+000
  0.000000000000000E+000
  0.000000000000000E+000
  0.000000000000000E+000
  0.000000000000000E+000
  0.000000000000000E+000
  0.000000000000000E+000
  0.000000000000000E+000
  0.000000000000000E+000
  0.000000000000000E+000
  0.000000000000000E+000
  0.000000000000000E+000
  0.000000000000000E+000
  0.000000000000000E+000
  0.000000000000000E+000
  0.000000000000000E+000
  0.000000000000000E+000
  0.000000000000000E+000
  0.000000000000000E+000
  0.000000000000000E+000
  0.000000000000000E+000
  0.000000000000000E+000
  0.000000000000000E+000
  0.000000000000000E+000
  0.000000000000000E+000
  0.000000000000000E+000
  0.000000000000000E+000
SCALARS poroP double 
LOOKUP_TABLE default
  0.000000000000000E+000
  0.000000000000000E+000
  0.000000000000000E+000
  0.000000000000000E+000
  0.000000000000000E+000
  0.000000000000000E+000
  0.000000000000000E+000
  0.000000000000000E+000
  0.000000000000000E+000
  0.000000000000000E+000
  0.000000000000000E+000
  0.000000000000000E+000
  0.000000000000000E+000
  0.000000000000000E+000
  0.000000000000000E+000
  0.000000000000000E+000
  0.000000000000000E+000
  0.000000000000000E+000
  0.000000000000000E+000
  0.000000000000000E+000
  0.000000000000000E+000
  0.000000000000000E+000
  0.000000000000000E+000
  0.000000000000000E+000
  0.000000000000000E+000
  0.000000000000000E+000
  0.000000000000000E+000
  0.000000000000000E+000
  0.000000000000000E+000
  0.000000000000000E+000
  0.000000000000000E+000
  0.000000000000000E+000
  0.000000000000000E+000
  0.000000000000000E+000
  0.000000000000000E+000
  0.000000000000000E+000
  0.000000000000000E+000
  0.000000000000000E+000
  0.000000000000000E+000
  0.000000000000000E+000
  0.000000000000000E+000
  0.000000000000000E+000
  0.000000000000000E+000
  0.000000000000000E+000
  0.000000000000000E+000
  0.000000000000000E+000
  0.000000000000000E+000
  0.000000000000000E+000
  0.000000000000000E+000
  0.000000000000000E+000
  0.000000000000000E+000
  0.000000000000000E+000
  0.000000000000000E+000
  0.000000000000000E+000
  0.000000000000000E+000
  0.000000000000000E+000
  0.000000000000000E+000
  0.000000000000000E+000
  0.000000000000000E+000
  0.000000000000000E+000
  0.000000000000000E+000
  0.000000000000000E+000
  0.000000000000000E+000
  0.000000000000000E+000
  0.000000000000000E+000
  0.000000000000000E+000
  0.000000000000000E+000
  0.000000000000000E+000
  0.000000000000000E+000
  0.000000000000000E+000
  0.000000000000000E+000
  0.000000000000000E+000
  0.000000000000000E+000
  0.000000000000000E+000
  0.000000000000000E+000
  0.000000000000000E+000
  0.000000000000000E+000
  0.000000000000000E+000
  0.000000000000000E+000
  0.000000000000000E+000
  0.000000000000000E+000
  0.000000000000000E+000
  0.000000000000000E+000
  0.000000000000000E+000
  0.000000000000000E+000
  0.000000000000000E+000
  0.000000000000000E+000
  0.000000000000000E+000
  0.000000000000000E+000
  0.000000000000000E+000
  0.000000000000000E+000
  0.000000000000000E+000
  0.000000000000000E+000
  0.000000000000000E+000
  0.000000000000000E+000
  0.000000000000000E+000
  0.000000000000000E+000
  0.000000000000000E+000
  0.000000000000000E+000
  0.000000000000000E+000
  0.000000000000000E+000
  0.000000000000000E+000
  0.000000000000000E+000
  0.000000000000000E+000
  0.000000000000000E+000
  0.000000000000000E+000
  0.000000000000000E+000
  0.000000000000000E+000
  0.000000000000000E+000
  0.000000000000000E+000
  0.000000000000000E+000
  0.000000000000000E+000
  0.000000000000000E+000
  0.000000000000000E+000
  0.000000000000000E+000
  0.000000000000000E+000
  0.000000000000000E+000
  0.000000000000000E+000
  0.000000000000000E+000
  0.000000000000000E+000
  0.000000000000000E+000
  0.000000000000000E+000
  0.000000000000000E+000
  0.000000000000000E+000
  0.000000000000000E+000
  0.000000000000000E+000
  0.000000000000000E+000
  0.000000000000000E+000
  0.000000000000000E+000
  0.000000000000000E+000
  0.000000000000000E+000
  0.000000000000000E+000
  0.000000000000000E+000
  0.000000000000000E+000
  0.000000000000000E+000
  0.000000000000000E+000
  0.000000000000000E+000
  0.000000000000000E+000
  0.000000000000000E+000
  0.000000000000000E+000
  0.000000000000000E+000
  0.000000000000000E+000
  0.000000000000000E+000
  0.000000000000000E+000
  0.000000000000000E+000
  0.000000000000000E+000
  0.000000000000000E+000
  0.000000000000000E+000
  0.000000000000000E+000
  0.000000000000000E+000
  0.000000000000000E+000
  0.000000000000000E+000
  0.000000000000000E+000
  0.000000000000000E+000
  0.000000000000000E+000
  0.000000000000000E+000
  0.000000000000000E+000
  0.000000000000000E+000
  0.000000000000000E+000
  0.000000000000000E+000
  0.000000000000000E+000
  0.000000000000000E+000
  0.000000000000000E+000
  0.000000000000000E+000
  0.000000000000000E+000
  0.000000000000000E+000
  0.000000000000000E+000
  0.000000000000000E+000
  0.000000000000000E+000
  0.000000000000000E+000
  0.000000000000000E+000
  0.000000000000000E+000
  0.000000000000000E+000
  0.000000000000000E+000
  0.000000000000000E+000
  0.000000000000000E+000
  0.000000000000000E+000
  0.000000000000000E+000
  0.000000000000000E+000
  0.000000000000000E+000
  0.000000000000000E+000
  0.000000000000000E+000
  0.000000000000000E+000
  0.000000000000000E+000
  0.000000000000000E+000
  0.000000000000000E+000
  0.000000000000000E+000
  0.000000000000000E+000
  0.000000000000000E+000
  0.000000000000000E+000
  0.000000000000000E+000
  0.000000000000000E+000
  0.000000000000000E+000
  0.000000000000000E+000
  0.000000000000000E+000
  0.000000000000000E+000
  0.000000000000000E+000
  0.000000000000000E+000
  0.000000000000000E+000
  0.000000000000000E+000
  0.000000000000000E+000
  0.000000000000000E+000
  0.000000000000000E+000
  0.000000000000000E+000
  0.000000000000000E+000
  0.000000000000000E+000
  0.000000000000000E+000
  0.000000000000000E+000
  0.000000000000000E+000
  0.000000000000000E+000
  0.000000000000000E+000
  0.000000000000000E+000
  0.000000000000000E+000
  0.000000000000000E+000
  0.000000000000000E+000
  0.000000000000000E+000
  0.000000000000000E+000
  0.000000000000000E+000
  0.000000000000000E+000
  0.000000000000000E+000
  0.000000000000000E+000
  0.000000000000000E+000
  0.000000000000000E+000
  0.000000000000000E+000
  0.000000000000000E+000
  0.000000000000000E+000
  0.000000000000000E+000
  0.000000000000000E+000
  0.000000000000000E+000
  0.000000000000000E+000
  0.000000000000000E+000
  0.000000000000000E+000
  0.000000000000000E+000
  0.000000000000000E+000
  0.000000000000000E+000
  0.000000000000000E+000
  0.000000000000000E+000
  0.000000000000000E+000
  0.000000000000000E+000
  0.000000000000000E+000
  0.000000000000000E+000
  0.000000000000000E+000
  0.000000000000000E+000
  0.000000000000000E+000
  0.000000000000000E+000
  0.000000000000000E+000
  0.000000000000000E+000
  0.000000000000000E+000
  0.000000000000000E+000
  0.000000000000000E+000
  0.000000000000000E+000
  0.000000000000000E+000
  0.000000000000000E+000
  0.000000000000000E+000
  0.000000000000000E+000
  0.000000000000000E+000
  0.000000000000000E+000
  0.000000000000000E+000
  0.000000000000000E+000
  0.000000000000000E+000
  0.000000000000000E+000
  0.000000000000000E+000
  0.000000000000000E+000
  0.000000000000000E+000
  0.000000000000000E+000
  0.000000000000000E+000
  0.000000000000000E+000
  0.000000000000000E+000
  0.000000000000000E+000
  0.000000000000000E+000
  0.000000000000000E+000
  0.000000000000000E+000
  0.000000000000000E+000
  0.000000000000000E+000
  0.000000000000000E+000
  0.000000000000000E+000
  0.000000000000000E+000
  0.000000000000000E+000
  0.000000000000000E+000
  0.000000000000000E+000
  0.000000000000000E+000
  0.000000000000000E+000
  0.000000000000000E+000
  0.000000000000000E+000
  0.000000000000000E+000
  0.000000000000000E+000
  0.000000000000000E+000
  0.000000000000000E+000
  0.000000000000000E+000
  0.000000000000000E+000
  0.000000000000000E+000
  0.000000000000000E+000
  0.000000000000000E+000
  0.000000000000000E+000
  0.000000000000000E+000
  0.000000000000000E+000
  0.000000000000000E+000
  0.000000000000000E+000
  0.000000000000000E+000
  0.000000000000000E+000
  0.000000000000000E+000
  0.000000000000000E+000
  0.000000000000000E+000
  0.000000000000000E+000
  0.000000000000000E+000
  0.000000000000000E+000
  0.000000000000000E+000
  0.000000000000000E+000
  0.000000000000000E+000
  0.000000000000000E+000
  0.000000000000000E+000
  0.000000000000000E+000
  0.000000000000000E+000
  0.000000000000000E+000
  0.000000000000000E+000
  0.000000000000000E+000
  0.000000000000000E+000
  0.000000000000000E+000
  0.000000000000000E+000
  0.000000000000000E+000
  0.000000000000000E+000
  0.000000000000000E+000
  0.000000000000000E+000
  0.000000000000000E+000
  0.000000000000000E+000
  0.000000000000000E+000
  0.000000000000000E+000
  0.000000000000000E+000
  0.000000000000000E+000
  0.000000000000000E+000
  0.000000000000000E+000
  0.000000000000000E+000
  0.000000000000000E+000
  0.000000000000000E+000
  0.000000000000000E+000
  0.000000000000000E+000
  0.000000000000000E+000
  0.000000000000000E+000
  0.000000000000000E+000
  0.000000000000000E+000
  0.000000000000000E+000
  0.000000000000000E+000
  0.000000000000000E+000
  0.000000000000000E+000
  0.000000000000000E+000
  0.000000000000000E+000
  0.000000000000000E+000
  0.000000000000000E+000
  0.000000000000000E+000
  0.000000000000000E+000
  0.000000000000000E+000
  0.000000000000000E+000
  0.000000000000000E+000
  0.000000000000000E+000
  0.000000000000000E+000
  0.000000000000000E+000
  0.000000000000000E+000
  0.000000000000000E+000
  0.000000000000000E+000
  0.000000000000000E+000
  0.000000000000000E+000
  0.000000000000000E+000
  0.000000000000000E+000
  0.000000000000000E+000
  0.000000000000000E+000
  0.000000000000000E+000
  0.000000000000000E+000
  0.000000000000000E+000
  0.000000000000000E+000
  0.000000000000000E+000
  0.000000000000000E+000
  0.000000000000000E+000
  0.000000000000000E+000
  0.000000000000000E+000
  0.000000000000000E+000
  0.000000000000000E+000
  0.000000000000000E+000
  0.000000000000000E+000
  0.000000000000000E+000
  0.000000000000000E+000
  0.000000000000000E+000
  0.000000000000000E+000
  0.000000000000000E+000
  0.000000000000000E+000
  0.000000000000000E+000
  0.000000000000000E+000
  0.000000000000000E+000
  0.000000000000000E+000
  0.000000000000000E+000
  0.000000000000000E+000
  0.000000000000000E+000
  0.000000000000000E+000
  0.000000000000000E+000
  0.000000000000000E+000
  0.000000000000000E+000
  0.000000000000000E+000
  0.000000000000000E+000
  0.000000000000000E+000
  0.000000000000000E+000
  0.000000000000000E+000
  0.000000000000000E+000
  0.000000000000000E+000
  0.000000000000000E+000
  0.000000000000000E+000
  0.000000000000000E+000
  0.000000000000000E+000
  0.000000000000000E+000
  0.000000000000000E+000
  0.000000000000000E+000
  0.000000000000000E+000
  0.000000000000000E+000
  0.000000000000000E+000
  0.000000000000000E+000
  0.000000000000000E+000
  0.000000000000000E+000
  0.000000000000000E+000
  0.000000000000000E+000
  0.000000000000000E+000
  0.000000000000000E+000
  0.000000000000000E+000
  0.000000000000000E+000
  0.000000000000000E+000
  0.000000000000000E+000
  0.000000000000000E+000
  0.000000000000000E+000
  0.000000000000000E+000
  0.000000000000000E+000
  0.000000000000000E+000
  0.000000000000000E+000
  0.000000000000000E+000
  0.000000000000000E+000
  0.000000000000000E+000
  0.000000000000000E+000
  0.000000000000000E+000
  0.000000000000000E+000
  0.000000000000000E+000
  0.000000000000000E+000
  0.000000000000000E+000
  0.000000000000000E+000
  0.000000000000000E+000
  0.000000000000000E+000
  0.000000000000000E+000
  0.000000000000000E+000
  0.000000000000000E+000
  0.000000000000000E+000
  0.000000000000000E+000
  0.000000000000000E+000
  0.000000000000000E+000
  0.000000000000000E+000
  0.000000000000000E+000
SCALARS elementIsPlast double 
LOOKUP_TABLE default
  0.000000000000000E+000
  0.000000000000000E+000
  0.000000000000000E+000
  0.000000000000000E+000
  0.000000000000000E+000
  0.000000000000000E+000
  0.000000000000000E+000
  0.000000000000000E+000
  0.000000000000000E+000
  0.000000000000000E+000
  0.000000000000000E+000
  0.000000000000000E+000
  0.000000000000000E+000
  0.000000000000000E+000
  0.000000000000000E+000
  0.000000000000000E+000
  0.000000000000000E+000
  0.000000000000000E+000
  0.000000000000000E+000
  0.000000000000000E+000
  0.000000000000000E+000
  0.000000000000000E+000
  0.000000000000000E+000
  0.000000000000000E+000
  0.000000000000000E+000
  0.000000000000000E+000
  0.000000000000000E+000
  0.000000000000000E+000
  0.000000000000000E+000
  0.000000000000000E+000
  0.000000000000000E+000
  0.000000000000000E+000
  0.000000000000000E+000
  0.000000000000000E+000
  0.000000000000000E+000
  0.000000000000000E+000
  0.000000000000000E+000
  0.000000000000000E+000
  0.000000000000000E+000
  0.000000000000000E+000
  0.000000000000000E+000
  0.000000000000000E+000
  0.000000000000000E+000
  0.000000000000000E+000
  0.000000000000000E+000
  0.000000000000000E+000
  0.000000000000000E+000
  0.000000000000000E+000
  0.000000000000000E+000
  0.000000000000000E+000
  0.000000000000000E+000
  0.000000000000000E+000
  0.000000000000000E+000
  0.000000000000000E+000
  0.000000000000000E+000
  0.000000000000000E+000
  0.000000000000000E+000
  0.000000000000000E+000
  0.000000000000000E+000
  0.000000000000000E+000
  0.000000000000000E+000
  0.000000000000000E+000
  0.000000000000000E+000
  0.000000000000000E+000
  0.000000000000000E+000
  0.000000000000000E+000
  0.000000000000000E+000
  0.000000000000000E+000
  0.000000000000000E+000
  0.000000000000000E+000
  0.000000000000000E+000
  0.000000000000000E+000
  0.000000000000000E+000
  0.000000000000000E+000
  0.000000000000000E+000
  0.000000000000000E+000
  0.000000000000000E+000
  0.000000000000000E+000
  0.000000000000000E+000
  0.000000000000000E+000
  0.000000000000000E+000
  0.000000000000000E+000
  0.000000000000000E+000
  0.000000000000000E+000
  0.000000000000000E+000
  0.000000000000000E+000
  0.000000000000000E+000
  0.000000000000000E+000
  0.000000000000000E+000
  0.000000000000000E+000
  0.000000000000000E+000
  0.000000000000000E+000
  0.000000000000000E+000
  0.000000000000000E+000
  0.000000000000000E+000
  0.000000000000000E+000
  0.000000000000000E+000
  0.000000000000000E+000
  0.000000000000000E+000
  0.000000000000000E+000
  0.000000000000000E+000
  0.000000000000000E+000
  0.000000000000000E+000
  0.000000000000000E+000
  0.000000000000000E+000
  0.000000000000000E+000
  0.000000000000000E+000
  0.000000000000000E+000
  0.000000000000000E+000
  0.000000000000000E+000
  0.000000000000000E+000
  0.000000000000000E+000
  0.000000000000000E+000
  0.000000000000000E+000
  0.000000000000000E+000
  0.000000000000000E+000
  0.000000000000000E+000
  0.000000000000000E+000
  0.000000000000000E+000
  0.000000000000000E+000
  0.000000000000000E+000
  0.000000000000000E+000
  0.000000000000000E+000
  0.000000000000000E+000
  0.000000000000000E+000
  0.000000000000000E+000
  0.000000000000000E+000
  0.000000000000000E+000
  0.000000000000000E+000
  0.000000000000000E+000
  0.000000000000000E+000
  0.000000000000000E+000
  0.000000000000000E+000
  0.000000000000000E+000
  0.000000000000000E+000
  0.000000000000000E+000
  0.000000000000000E+000
  0.000000000000000E+000
  0.000000000000000E+000
  0.000000000000000E+000
  0.000000000000000E+000
  0.000000000000000E+000
  0.000000000000000E+000
  0.000000000000000E+000
  0.000000000000000E+000
  0.000000000000000E+000
  0.000000000000000E+000
  0.000000000000000E+000
  0.000000000000000E+000
  0.000000000000000E+000
  0.000000000000000E+000
  0.000000000000000E+000
  0.000000000000000E+000
  0.000000000000000E+000
  0.000000000000000E+000
  0.000000000000000E+000
  0.000000000000000E+000
  0.000000000000000E+000
  0.000000000000000E+000
  0.000000000000000E+000
  0.000000000000000E+000
  0.000000000000000E+000
  0.000000000000000E+000
  0.000000000000000E+000
  0.000000000000000E+000
  0.000000000000000E+000
  0.000000000000000E+000
  0.000000000000000E+000
  0.000000000000000E+000
  0.000000000000000E+000
  0.000000000000000E+000
  0.000000000000000E+000
  0.000000000000000E+000
  0.000000000000000E+000
  0.000000000000000E+000
  0.000000000000000E+000
  0.000000000000000E+000
  0.000000000000000E+000
  0.000000000000000E+000
  0.000000000000000E+000
  0.000000000000000E+000
  0.000000000000000E+000
  0.000000000000000E+000
  0.000000000000000E+000
  0.000000000000000E+000
  0.000000000000000E+000
  0.000000000000000E+000
  0.000000000000000E+000
  0.000000000000000E+000
  0.000000000000000E+000
  0.000000000000000E+000
  0.000000000000000E+000
  0.000000000000000E+000
  0.000000000000000E+000
  0.000000000000000E+000
  0.000000000000000E+000
  0.000000000000000E+000
  0.000000000000000E+000
  0.000000000000000E+000
  0.000000000000000E+000
  0.000000000000000E+000
  0.000000000000000E+000
  0.000000000000000E+000
  0.000000000000000E+000
  0.000000000000000E+000
  0.000000000000000E+000
  0.000000000000000E+000
  0.000000000000000E+000
  0.000000000000000E+000
  0.000000000000000E+000
  0.000000000000000E+000
  0.000000000000000E+000
  0.000000000000000E+000
  0.000000000000000E+000
  0.000000000000000E+000
  0.000000000000000E+000
  0.000000000000000E+000
  0.000000000000000E+000
  0.000000000000000E+000
  0.000000000000000E+000
  0.000000000000000E+000
  0.000000000000000E+000
  0.000000000000000E+000
  0.000000000000000E+000
  0.000000000000000E+000
  0.000000000000000E+000
  0.000000000000000E+000
  0.000000000000000E+000
  0.000000000000000E+000
  0.000000000000000E+000
  0.000000000000000E+000
  0.000000000000000E+000
  0.000000000000000E+000
  0.000000000000000E+000
  0.000000000000000E+000
  0.000000000000000E+000
  0.000000000000000E+000
  0.000000000000000E+000
  0.000000000000000E+000
  0.000000000000000E+000
  0.000000000000000E+000
  0.000000000000000E+000
  0.000000000000000E+000
  0.000000000000000E+000
  0.000000000000000E+000
  0.000000000000000E+000
  0.000000000000000E+000
  0.000000000000000E+000
  0.000000000000000E+000
  0.000000000000000E+000
  0.000000000000000E+000
  0.000000000000000E+000
  0.000000000000000E+000
  0.000000000000000E+000
  0.000000000000000E+000
  0.000000000000000E+000
  0.000000000000000E+000
  0.000000000000000E+000
  0.000000000000000E+000
  0.000000000000000E+000
  0.000000000000000E+000
  0.000000000000000E+000
  0.000000000000000E+000
  0.000000000000000E+000
  0.000000000000000E+000
  0.000000000000000E+000
  0.000000000000000E+000
  0.000000000000000E+000
  0.000000000000000E+000
  0.000000000000000E+000
  0.000000000000000E+000
  0.000000000000000E+000
  0.000000000000000E+000
  0.000000000000000E+000
  0.000000000000000E+000
  0.000000000000000E+000
  0.000000000000000E+000
  0.000000000000000E+000
  0.000000000000000E+000
  0.000000000000000E+000
  0.000000000000000E+000
  0.000000000000000E+000
  0.000000000000000E+000
  0.000000000000000E+000
  0.000000000000000E+000
  0.000000000000000E+000
  0.000000000000000E+000
  0.000000000000000E+000
  0.000000000000000E+000
  0.000000000000000E+000
  0.000000000000000E+000
  0.000000000000000E+000
  0.000000000000000E+000
  0.000000000000000E+000
  0.000000000000000E+000
  0.000000000000000E+000
  0.000000000000000E+000
  0.000000000000000E+000
  0.000000000000000E+000
  0.000000000000000E+000
  0.000000000000000E+000
  0.000000000000000E+000
  0.000000000000000E+000
  0.000000000000000E+000
  0.000000000000000E+000
  0.000000000000000E+000
  0.000000000000000E+000
  0.000000000000000E+000
  0.000000000000000E+000
  0.000000000000000E+000
  0.000000000000000E+000
  0.000000000000000E+000
  0.000000000000000E+000
  0.000000000000000E+000
  0.000000000000000E+000
  0.000000000000000E+000
  0.000000000000000E+000
  0.000000000000000E+000
  0.000000000000000E+000
  0.000000000000000E+000
  0.000000000000000E+000
  0.000000000000000E+000
  0.000000000000000E+000
  0.000000000000000E+000
  0.000000000000000E+000
  0.000000000000000E+000
  0.000000000000000E+000
  0.000000000000000E+000
  0.000000000000000E+000
  0.000000000000000E+000
  0.000000000000000E+000
  0.000000000000000E+000
  0.000000000000000E+000
  0.000000000000000E+000
  0.000000000000000E+000
  0.000000000000000E+000
  0.000000000000000E+000
  0.000000000000000E+000
  0.000000000000000E+000
  0.000000000000000E+000
  0.000000000000000E+000
  0.000000000000000E+000
  0.000000000000000E+000
  0.000000000000000E+000
  0.000000000000000E+000
  0.000000000000000E+000
  0.000000000000000E+000
  0.000000000000000E+000
  0.000000000000000E+000
  0.000000000000000E+000
  0.000000000000000E+000
  0.000000000000000E+000
  0.000000000000000E+000
  0.000000000000000E+000
  0.000000000000000E+000
  0.000000000000000E+000
  0.000000000000000E+000
  0.000000000000000E+000
  0.000000000000000E+000
  0.000000000000000E+000
  0.000000000000000E+000
  0.000000000000000E+000
  0.000000000000000E+000
  0.000000000000000E+000
  0.000000000000000E+000
  0.000000000000000E+000
  0.000000000000000E+000
  0.000000000000000E+000
  0.000000000000000E+000
  0.000000000000000E+000
  0.000000000000000E+000
  0.000000000000000E+000
  0.000000000000000E+000
  0.000000000000000E+000
  0.000000000000000E+000
  0.000000000000000E+000
  0.000000000000000E+000
  0.000000000000000E+000
  0.000000000000000E+000
  0.000000000000000E+000
  0.000000000000000E+000
  0.000000000000000E+000
  0.000000000000000E+000
  0.000000000000000E+000
  0.000000000000000E+000
  0.000000000000000E+000
  0.000000000000000E+000
  0.000000000000000E+000
  0.000000000000000E+000
  0.000000000000000E+000
  0.000000000000000E+000
  0.000000000000000E+000
  0.000000000000000E+000
  0.000000000000000E+000
  0.000000000000000E+000
  0.000000000000000E+000
  0.000000000000000E+000
  0.000000000000000E+000
  0.000000000000000E+000
  0.000000000000000E+000
  0.000000000000000E+000
  0.000000000000000E+000
  0.000000000000000E+000
  0.000000000000000E+000
  0.000000000000000E+000
  0.000000000000000E+000
  0.000000000000000E+000
  0.000000000000000E+000
  0.000000000000000E+000
  0.000000000000000E+000
  0.000000000000000E+000
  0.000000000000000E+000
  0.000000000000000E+000
  0.000000000000000E+000
  0.000000000000000E+000
  0.000000000000000E+000
  0.000000000000000E+000
  0.000000000000000E+000
  0.000000000000000E+000
  0.000000000000000E+000
  0.000000000000000E+000
  0.000000000000000E+000
  0.000000000000000E+000
  0.000000000000000E+000
  0.000000000000000E+000
  0.000000000000000E+000
  0.000000000000000E+000
  0.000000000000000E+000
  0.000000000000000E+000
  0.000000000000000E+000
  0.000000000000000E+000
  0.000000000000000E+000
  0.000000000000000E+000
  0.000000000000000E+000
  0.000000000000000E+000
  0.000000000000000E+000
  0.000000000000000E+000
  0.000000000000000E+000
  0.000000000000000E+000
  0.000000000000000E+000
  0.000000000000000E+000
  0.000000000000000E+000
  0.000000000000000E+000
  0.000000000000000E+000
  0.000000000000000E+000
  0.000000000000000E+000
  0.000000000000000E+000
  0.000000000000000E+000
  0.000000000000000E+000
  0.000000000000000E+000
SCALARS poroL double 
LOOKUP_TABLE default
  0.156032225286310     
  0.156030325857576     
  0.156028409591287     
  0.156026479241681     
  0.156024555458844     
  0.156022659800069     
  0.156020812146382     
  0.156019029929697     
  0.156017328071374     
  0.156015719135108     
  0.156014213495200     
  0.156012819364240     
  0.156011542364187     
  0.156010384139774     
  0.156009330707782     
  0.156032025665307     
  0.156030152365435     
  0.156028218256467     
  0.156026265251049     
  0.156024319217127     
  0.156022403528584     
  0.156020538470462     
  0.156018741422151     
  0.156017027090857     
  0.156015407822796     
  0.156013893898583     
  0.156012493731683     
  0.156011214030740     
  0.156010059190718     
  0.156009042734947     
  0.156031916354418     
  0.156030003626006     
  0.156028023655228     
  0.156026021464316     
  0.156024029855532     
  0.156022073889117     
  0.156020174158252     
  0.156018347701660     
  0.156016608673796     
  0.156014968885404     
  0.156013438284625     
  0.156012025430838     
  0.156010737969649     
  0.156009584769937     
  0.156008576298947     
  0.156031891141923     
  0.156029877648355     
  0.156027809202807     
  0.156025727684357     
  0.156023665926336     
  0.156021649414119     
  0.156019698204861     
  0.156017828391818     
  0.156016053041518     
  0.156014382949626     
  0.156012827303815     
  0.156011394313998     
  0.156010092052832     
  0.156008929116862     
  0.156007915275996     
  0.156031914007914     
  0.156029747699674     
  0.156027549174273     
  0.156025356453741     
  0.156023199912779     
  0.156021103250822     
  0.156019084812248     
  0.156017158856110     
  0.156015336634485     
  0.156013627287411     
  0.156012038629508     
  0.156010577890745     
  0.156009252377466     
  0.156008070038448     
  0.156007039677668     
  0.156031936771418     
  0.156029571431502     
  0.156027204920116     
  0.156024871096517     
  0.156022596644023     
  0.156020401992376     
  0.156018302462451     
  0.156016309447522     
  0.156014431511256     
  0.156012675367140     
  0.156011046748027     
  0.156009551174176     
  0.156008194613074     
  0.156006983967151     
  0.156005927331842     
  0.156031899743805     
  0.156029293814399     
  0.156026725669543     
  0.156024224448180     
  0.156021812127739     
  0.156019504635363     
  0.156017313045547     
  0.156015244780601     
  0.156013304746710     
  0.156011496370814     
  0.156009822528161     
  0.156008286357767     
  0.156006891951311     
  0.156005644890150     
  0.156004552591800     
  0.156031730469844     
  0.156028846982544     
  0.156026048432872     
  0.156023358273100     
  0.156020792631426     
  0.156018361694717     
  0.156016071062448     
  0.156013923039060     
  0.156011917835950     
  0.156010054666707     
  0.156008332730569     
  0.156006752082846     
  0.156005314387973     
  0.156004023543125     
  0.156002886156121     
  0.156031341794553     
  0.156028149108521     
  0.156025097230045     
  0.156022202534925     
  0.156019473907972     
  0.156016914426004     
  0.156014522908486     
  0.156012295334071     
  0.156010226123552     
  0.156008309294727     
  0.156006539498951     
  0.156004912950170     
  0.156003428253962     
  0.156002087138363     
  0.156000895081336     
  0.156030629744276     
  0.156027102915392     
  0.156023782020581     
  0.156020674545116     
  0.156017780446523     
  0.156015094139044     
  0.156012606245023     
  0.156010305136496     
  0.156008178293167     
  0.156006213505277     
  0.156004399950636     
  0.156002729173390     
  0.156001195987356     
  0.155999799319291     
  0.155998542997844     
  0.156029471419930     
  0.156025594143667     
  0.156021997591724     
  0.156018678126962     
  0.156015624802419     
  0.156012821626958     
  0.156010249494041     
  0.156007887822115     
  0.156005715958537     
  0.156003714400006     
  0.156001865881180     
  0.156000156379256     
  0.155998576075403     
  0.155997120304106     
  0.155995790508649     
  0.156027723092603     
  0.156023490200884     
  0.156019622621461     
  0.156016102962201     
  0.156012907122150     
  0.156010006794627     
  0.156007371523762     
  0.156004970390992     
  0.156002773411088     
  0.156000752717349     
  0.155998883612846     
  0.155997145558722     
  0.155995523161544     
  0.155994007209307     
  0.155992595789839     
  0.156025218724425     
  0.156020639225072     
  0.156016519135168     
  0.156012824310375     
  0.156009515019395     
  0.156006548612805     
  0.156003881629528     
  0.156001471448773     
  0.155999277597399     
  0.155997262821802     
  0.155995394029433     
  0.155993643197543     
  0.155991988335535     
  0.155990414572431     
  0.155988915422392     
  0.156021769191750     
  0.156016869827256     
  0.156012532602179     
  0.156008703321484     
  0.156005323993722     
  0.156002335561427     
  0.155999679948557     
  0.155997301566851     
  0.155995148424126     
  0.155993172976308     
  0.155991332860161     
  0.155989591634622     
  0.155987919645237     
  0.155986295108694     
  0.155984705493315     
  0.156017162548717     
  0.156011991824513     
  0.156007492957072     
  0.156003588198738     
  0.156000198619926     
  0.155997246761464     
  0.155994658480716     
  0.155992364168286     
  0.155990299513945     
  0.155988406000054     
  0.155986631295799     
  0.155984929715025     
  0.155983262884329     
  0.155981600747512     
  0.155979923008463     
  0.156011165728080     
  0.156005798322193     
  0.156001216871122     
  0.155997316505898     
  0.155993994771909     
  0.155991154028803     
  0.155988702918830     
  0.155986557114199     
  0.155984639560290     
  0.155982880434707     
  0.155981217038004     
  0.155979593819484     
  0.155977962721581     
  0.155976284001270     
  0.155974527659003     
  0.156003528121573     
  0.155998069541670     
  0.155993511633951     
  0.155989718946733     
  0.155986563176626     
  0.155983925112713     
  0.155981695517621     
  0.155979775186836     
  0.155978074445899     
  0.155976512355660     
  0.155975015893081     
  0.155973519359340     
  0.155971964240986     
  0.155970299717649     
  0.155968483975541     
  0.155993987499606     
  0.155988578807432     
  0.155984181025739     
  0.155980624966581     
  0.155977754615345     
  0.155975428399953     
  0.155973519243872     
  0.155971913673475     
  0.155970510293092     
  0.155969217963432     
  0.155967954016677     
  0.155966642818671     
  0.155965214952437     
  0.155963607253781     
  0.155961763884755     
  0.155982278702229     
  0.155977101093139     
  0.155973033559147     
  0.155969870531651     
  0.155967427095102     
  0.155965539365817     
  0.155964063442927     
  0.155962873240118     
  0.155961857591879     
  0.155960917063701     
  0.155959960886088     
  0.155958904393994     
  0.155957667300970     
  0.155956173078366     
  0.155954349648011     
  0.155968145440956     
  0.155963424471532     
  0.155959893443658     
  0.155957308427552     
  0.155955455296626     
  0.155954149025845     
  0.155953231215953     
  0.155952566231978     
  0.155952036492007     
  0.155951537478988     
  0.155950973008297     
  0.155950251213093     
  0.155949281636761     
  0.155947973747248     
  0.155946237104466     
  0.155951355378067     
  0.155947364718194     
  0.155944614579941     
  0.155942821387872     
  0.155941742561601     
  0.155941174574158     
  0.155940948611995     
  0.155940924432484     
  0.155940983231280     
  0.155941020315943     
  0.155940938248834     
  0.155940640991090     
  0.155940029491124     
  0.155938999095810     
  0.155937439056694     
  0.155931718392610     
  0.155928783207922     
  0.155927097858682     
  0.155926338334084     
  0.155926235609111     
  0.155926572267863     
  0.155927175575258     
  0.155927908133516     
  0.155928657490822     
  0.155929325827135     
  0.155929820474171     
  0.155930045782728     
  0.155929896812555     
  0.155929255328548     
  0.155927988519177     
  0.155909107626853     
  0.155907608194819     
  0.155907312097415     
  0.155907854022265     
  0.155908942062412     
  0.155910352396458     
  0.155911918313659     
  0.155913516096185     
  0.155915050213394     
  0.155916439358997     
  0.155917603930099     
  0.155918455193568     
  0.155918886512796     
  0.155918767432492     
  0.155917941389647     
  0.155883482638647     
  0.155883859787541     
  0.155885319293547     
  0.155887452526782     
  0.155889950688717     
  0.155892595777457     
  0.155895242304804     
  0.155897795595470     
  0.155900191125426     
  0.155902376600212     
  0.155904296461056     
  0.155905877980025     
  0.155907019205074     
  0.155907579918901     
  0.155907377889408     
  0.155854914011565     
  0.155857679986218     
  0.155861305907105     
  0.155865335350561     
  0.155869453851880     
  0.155873470434269     
  0.155877284422453     
  0.155880851262956     
  0.155884154940960     
  0.155887187209570     
  0.155889930333652     
  0.155892340456510     
  0.155894330168199     
  0.155895754217950     
  0.155896401747627     
  0.155823610128004     
  0.155829372347768     
  0.155835624631575     
  0.155841855432675     
  0.155847770427882     
  0.155853245537595     
  0.155858261495364     
  0.155862850951880     
  0.155867065311777     
  0.155870955984495     
  0.155874559680544     
  0.155877879113312     
  0.155880859521319     
  0.155883359233024     
  0.155885135671552     
  0.155789951088603     
  0.155799466751020     
  0.155808856828541     
  0.155817557501028     
  0.155825363729879     
  0.155832296250535     
  0.155838471549911     
  0.155844026571413     
  0.155849095808292     
  0.155853802635346     
  0.155858253432061     
  0.155862526247678     
  0.155866627603814     
  0.155870450016043     
  0.155873708658321     
  0.155754564562621     
  0.155768852454450     
  0.155781917409040     
  0.155793216030142     
  0.155802834888057     
  0.155811091711844     
  0.155818283440072     
  0.155824668052040     
  0.155830468018429     
  0.155835881608385     
  0.155841093565551     
  0.155846278660951     
  0.155851595447896     
  0.155857005569189     
  0.155862234777963     
  0.155718547922189     
  0.155739161475187     
  0.155756207887483     
  0.155769782621625     
  0.155780877070569     
  0.155790158023539     
  0.155798112716385     
  0.155805109573120     
  0.155811446665684     
  0.155817385863031     
  0.155823181744838     
  0.155829113034258     
  0.155835510854711     
  0.155842855518536     
  0.155850696791198     
  0.155685237252066     
  0.155713656259373     
  0.155733280487483     
  0.155748242419444     
  0.155760174635340     
  0.155770019298938     
  0.155778385403028     
  0.155785708830736     
  0.155792331724494     
  0.155798552755780     
  0.155804668846776     
  0.155811024329729     
  0.155818099972781     
  0.155826695797137     
  0.155839128793476     
