# vtk DataFile Version 3.0
vtk output
ASCII
DATASET UNSTRUCTURED_GRID
POINTS       496 double 
  0.00000000E+00  3.00000000E+02  0.00000000E+00
  0.00000000E+00  2.80000000E+02  0.00000000E+00
  0.00000000E+00  2.60000000E+02  0.00000000E+00
  0.00000000E+00  2.40000000E+02  0.00000000E+00
  0.00000000E+00  2.20000000E+02  0.00000000E+00
  0.00000000E+00  2.00000000E+02  0.00000000E+00
  0.00000000E+00  1.80000000E+02  0.00000000E+00
  0.00000000E+00  1.60000000E+02  0.00000000E+00
  0.00000000E+00  1.40000000E+02  0.00000000E+00
  0.00000000E+00  1.20000000E+02  0.00000000E+00
  0.00000000E+00  1.00000000E+02  0.00000000E+00
  0.00000000E+00  8.00000000E+01  0.00000000E+00
  0.00000000E+00  6.00000000E+01  0.00000000E+00
  0.00000000E+00  4.00000000E+01  0.00000000E+00
  0.00000000E+00  2.00000000E+01  0.00000000E+00
  0.00000000E+00  4.99600361E-14  0.00000000E+00
  2.00000000E+01  3.00000000E+02  0.00000000E+00
  2.00000000E+01  2.80000000E+02  0.00000000E+00
  2.00000000E+01  2.60000000E+02  0.00000000E+00
  2.00000000E+01  2.40000000E+02  0.00000000E+00
  2.00000000E+01  2.20000000E+02  0.00000000E+00
  2.00000000E+01  2.00000000E+02  0.00000000E+00
  2.00000000E+01  1.80000000E+02  0.00000000E+00
  2.00000000E+01  1.60000000E+02  0.00000000E+00
  2.00000000E+01  1.40000000E+02  0.00000000E+00
  2.00000000E+01  1.20000000E+02  0.00000000E+00
  2.00000000E+01  1.00000000E+02  0.00000000E+00
  2.00000000E+01  8.00000000E+01  0.00000000E+00
  2.00000000E+01  6.00000000E+01  0.00000000E+00
  2.00000000E+01  4.00000000E+01  0.00000000E+00
  2.00000000E+01  2.00000000E+01  0.00000000E+00
  2.00000000E+01  4.99600361E-14  0.00000000E+00
  4.00000000E+01  3.00000000E+02  0.00000000E+00
  4.00000000E+01  2.80000000E+02  0.00000000E+00
  4.00000000E+01  2.60000000E+02  0.00000000E+00
  4.00000000E+01  2.40000000E+02  0.00000000E+00
  4.00000000E+01  2.20000000E+02  0.00000000E+00
  4.00000000E+01  2.00000000E+02  0.00000000E+00
  4.00000000E+01  1.80000000E+02  0.00000000E+00
  4.00000000E+01  1.60000000E+02  0.00000000E+00
  4.00000000E+01  1.40000000E+02  0.00000000E+00
  4.00000000E+01  1.20000000E+02  0.00000000E+00
  4.00000000E+01  1.00000000E+02  0.00000000E+00
  4.00000000E+01  8.00000000E+01  0.00000000E+00
  4.00000000E+01  6.00000000E+01  0.00000000E+00
  4.00000000E+01  4.00000000E+01  0.00000000E+00
  4.00000000E+01  2.00000000E+01  0.00000000E+00
  4.00000000E+01  4.99600361E-14  0.00000000E+00
  6.00000000E+01  3.00000000E+02  0.00000000E+00
  6.00000000E+01  2.80000000E+02  0.00000000E+00
  6.00000000E+01  2.60000000E+02  0.00000000E+00
  6.00000000E+01  2.40000000E+02  0.00000000E+00
  6.00000000E+01  2.20000000E+02  0.00000000E+00
  6.00000000E+01  2.00000000E+02  0.00000000E+00
  6.00000000E+01  1.80000000E+02  0.00000000E+00
  6.00000000E+01  1.60000000E+02  0.00000000E+00
  6.00000000E+01  1.40000000E+02  0.00000000E+00
  6.00000000E+01  1.20000000E+02  0.00000000E+00
  6.00000000E+01  1.00000000E+02  0.00000000E+00
  6.00000000E+01  8.00000000E+01  0.00000000E+00
  6.00000000E+01  6.00000000E+01  0.00000000E+00
  6.00000000E+01  4.00000000E+01  0.00000000E+00
  6.00000000E+01  2.00000000E+01  0.00000000E+00
  6.00000000E+01  4.99600361E-14  0.00000000E+00
  8.00000000E+01  3.00000000E+02  0.00000000E+00
  8.00000000E+01  2.80000000E+02  0.00000000E+00
  8.00000000E+01  2.60000000E+02  0.00000000E+00
  8.00000000E+01  2.40000000E+02  0.00000000E+00
  8.00000000E+01  2.20000000E+02  0.00000000E+00
  8.00000000E+01  2.00000000E+02  0.00000000E+00
  8.00000000E+01  1.80000000E+02  0.00000000E+00
  8.00000000E+01  1.60000000E+02  0.00000000E+00
  8.00000000E+01  1.40000000E+02  0.00000000E+00
  8.00000000E+01  1.20000000E+02  0.00000000E+00
  8.00000000E+01  1.00000000E+02  0.00000000E+00
  8.00000000E+01  8.00000000E+01  0.00000000E+00
  8.00000000E+01  6.00000000E+01  0.00000000E+00
  8.00000000E+01  4.00000000E+01  0.00000000E+00
  8.00000000E+01  2.00000000E+01  0.00000000E+00
  8.00000000E+01  4.99600361E-14  0.00000000E+00
  1.00000000E+02  3.00000000E+02  0.00000000E+00
  1.00000000E+02  2.80000000E+02  0.00000000E+00
  1.00000000E+02  2.60000000E+02  0.00000000E+00
  1.00000000E+02  2.40000000E+02  0.00000000E+00
  1.00000000E+02  2.20000000E+02  0.00000000E+00
  1.00000000E+02  2.00000000E+02  0.00000000E+00
  1.00000000E+02  1.80000000E+02  0.00000000E+00
  1.00000000E+02  1.60000000E+02  0.00000000E+00
  1.00000000E+02  1.40000000E+02  0.00000000E+00
  1.00000000E+02  1.20000000E+02  0.00000000E+00
  1.00000000E+02  1.00000000E+02  0.00000000E+00
  1.00000000E+02  8.00000000E+01  0.00000000E+00
  1.00000000E+02  6.00000000E+01  0.00000000E+00
  1.00000000E+02  4.00000000E+01  0.00000000E+00
  1.00000000E+02  2.00000000E+01  0.00000000E+00
  1.00000000E+02  4.99600361E-14  0.00000000E+00
  1.20000000E+02  3.00000000E+02  0.00000000E+00
  1.20000000E+02  2.80000000E+02  0.00000000E+00
  1.20000000E+02  2.60000000E+02  0.00000000E+00
  1.20000000E+02  2.40000000E+02  0.00000000E+00
  1.20000000E+02  2.20000000E+02  0.00000000E+00
  1.20000000E+02  2.00000000E+02  0.00000000E+00
  1.20000000E+02  1.80000000E+02  0.00000000E+00
  1.20000000E+02  1.60000000E+02  0.00000000E+00
  1.20000000E+02  1.40000000E+02  0.00000000E+00
  1.20000000E+02  1.20000000E+02  0.00000000E+00
  1.20000000E+02  1.00000000E+02  0.00000000E+00
  1.20000000E+02  8.00000000E+01  0.00000000E+00
  1.20000000E+02  6.00000000E+01  0.00000000E+00
  1.20000000E+02  4.00000000E+01  0.00000000E+00
  1.20000000E+02  2.00000000E+01  0.00000000E+00
  1.20000000E+02  4.99600361E-14  0.00000000E+00
  1.40000000E+02  3.00000000E+02  0.00000000E+00
  1.40000000E+02  2.80000000E+02  0.00000000E+00
  1.40000000E+02  2.60000000E+02  0.00000000E+00
  1.40000000E+02  2.40000000E+02  0.00000000E+00
  1.40000000E+02  2.20000000E+02  0.00000000E+00
  1.40000000E+02  2.00000000E+02  0.00000000E+00
  1.40000000E+02  1.80000000E+02  0.00000000E+00
  1.40000000E+02  1.60000000E+02  0.00000000E+00
  1.40000000E+02  1.40000000E+02  0.00000000E+00
  1.40000000E+02  1.20000000E+02  0.00000000E+00
  1.40000000E+02  1.00000000E+02  0.00000000E+00
  1.40000000E+02  8.00000000E+01  0.00000000E+00
  1.40000000E+02  6.00000000E+01  0.00000000E+00
  1.40000000E+02  4.00000000E+01  0.00000000E+00
  1.40000000E+02  2.00000000E+01  0.00000000E+00
  1.40000000E+02  4.99600361E-14  0.00000000E+00
  1.60000000E+02  3.00000000E+02  0.00000000E+00
  1.60000000E+02  2.80000000E+02  0.00000000E+00
  1.60000000E+02  2.60000000E+02  0.00000000E+00
  1.60000000E+02  2.40000000E+02  0.00000000E+00
  1.60000000E+02  2.20000000E+02  0.00000000E+00
  1.60000000E+02  2.00000000E+02  0.00000000E+00
  1.60000000E+02  1.80000000E+02  0.00000000E+00
  1.60000000E+02  1.60000000E+02  0.00000000E+00
  1.60000000E+02  1.40000000E+02  0.00000000E+00
  1.60000000E+02  1.20000000E+02  0.00000000E+00
  1.60000000E+02  1.00000000E+02  0.00000000E+00
  1.60000000E+02  8.00000000E+01  0.00000000E+00
  1.60000000E+02  6.00000000E+01  0.00000000E+00
  1.60000000E+02  4.00000000E+01  0.00000000E+00
  1.60000000E+02  2.00000000E+01  0.00000000E+00
  1.60000000E+02  4.99600361E-14  0.00000000E+00
  1.80000000E+02  3.00000000E+02  0.00000000E+00
  1.80000000E+02  2.80000000E+02  0.00000000E+00
  1.80000000E+02  2.60000000E+02  0.00000000E+00
  1.80000000E+02  2.40000000E+02  0.00000000E+00
  1.80000000E+02  2.20000000E+02  0.00000000E+00
  1.80000000E+02  2.00000000E+02  0.00000000E+00
  1.80000000E+02  1.80000000E+02  0.00000000E+00
  1.80000000E+02  1.60000000E+02  0.00000000E+00
  1.80000000E+02  1.40000000E+02  0.00000000E+00
  1.80000000E+02  1.20000000E+02  0.00000000E+00
  1.80000000E+02  1.00000000E+02  0.00000000E+00
  1.80000000E+02  8.00000000E+01  0.00000000E+00
  1.80000000E+02  6.00000000E+01  0.00000000E+00
  1.80000000E+02  4.00000000E+01  0.00000000E+00
  1.80000000E+02  2.00000000E+01  0.00000000E+00
  1.80000000E+02  4.99600361E-14  0.00000000E+00
  2.00000000E+02  3.00000000E+02  0.00000000E+00
  2.00000000E+02  2.80000000E+02  0.00000000E+00
  2.00000000E+02  2.60000000E+02  0.00000000E+00
  2.00000000E+02  2.40000000E+02  0.00000000E+00
  2.00000000E+02  2.20000000E+02  0.00000000E+00
  2.00000000E+02  2.00000000E+02  0.00000000E+00
  2.00000000E+02  1.80000000E+02  0.00000000E+00
  2.00000000E+02  1.60000000E+02  0.00000000E+00
  2.00000000E+02  1.40000000E+02  0.00000000E+00
  2.00000000E+02  1.20000000E+02  0.00000000E+00
  2.00000000E+02  1.00000000E+02  0.00000000E+00
  2.00000000E+02  8.00000000E+01  0.00000000E+00
  2.00000000E+02  6.00000000E+01  0.00000000E+00
  2.00000000E+02  4.00000000E+01  0.00000000E+00
  2.00000000E+02  2.00000000E+01  0.00000000E+00
  2.00000000E+02  4.99600361E-14  0.00000000E+00
  2.20000000E+02  3.00000000E+02  0.00000000E+00
  2.20000000E+02  2.80000000E+02  0.00000000E+00
  2.20000000E+02  2.60000000E+02  0.00000000E+00
  2.20000000E+02  2.40000000E+02  0.00000000E+00
  2.20000000E+02  2.20000000E+02  0.00000000E+00
  2.20000000E+02  2.00000000E+02  0.00000000E+00
  2.20000000E+02  1.80000000E+02  0.00000000E+00
  2.20000000E+02  1.60000000E+02  0.00000000E+00
  2.20000000E+02  1.40000000E+02  0.00000000E+00
  2.20000000E+02  1.20000000E+02  0.00000000E+00
  2.20000000E+02  1.00000000E+02  0.00000000E+00
  2.20000000E+02  8.00000000E+01  0.00000000E+00
  2.20000000E+02  6.00000000E+01  0.00000000E+00
  2.20000000E+02  4.00000000E+01  0.00000000E+00
  2.20000000E+02  2.00000000E+01  0.00000000E+00
  2.20000000E+02  4.99600361E-14  0.00000000E+00
  2.40000000E+02  3.00000000E+02  0.00000000E+00
  2.40000000E+02  2.80000000E+02  0.00000000E+00
  2.40000000E+02  2.60000000E+02  0.00000000E+00
  2.40000000E+02  2.40000000E+02  0.00000000E+00
  2.40000000E+02  2.20000000E+02  0.00000000E+00
  2.40000000E+02  2.00000000E+02  0.00000000E+00
  2.40000000E+02  1.80000000E+02  0.00000000E+00
  2.40000000E+02  1.60000000E+02  0.00000000E+00
  2.40000000E+02  1.40000000E+02  0.00000000E+00
  2.40000000E+02  1.20000000E+02  0.00000000E+00
  2.40000000E+02  1.00000000E+02  0.00000000E+00
  2.40000000E+02  8.00000000E+01  0.00000000E+00
  2.40000000E+02  6.00000000E+01  0.00000000E+00
  2.40000000E+02  4.00000000E+01  0.00000000E+00
  2.40000000E+02  2.00000000E+01  0.00000000E+00
  2.40000000E+02  4.99600361E-14  0.00000000E+00
  2.60000000E+02  3.00000000E+02  0.00000000E+00
  2.60000000E+02  2.80000000E+02  0.00000000E+00
  2.60000000E+02  2.60000000E+02  0.00000000E+00
  2.60000000E+02  2.40000000E+02  0.00000000E+00
  2.60000000E+02  2.20000000E+02  0.00000000E+00
  2.60000000E+02  2.00000000E+02  0.00000000E+00
  2.60000000E+02  1.80000000E+02  0.00000000E+00
  2.60000000E+02  1.60000000E+02  0.00000000E+00
  2.60000000E+02  1.40000000E+02  0.00000000E+00
  2.60000000E+02  1.20000000E+02  0.00000000E+00
  2.60000000E+02  1.00000000E+02  0.00000000E+00
  2.60000000E+02  8.00000000E+01  0.00000000E+00
  2.60000000E+02  6.00000000E+01  0.00000000E+00
  2.60000000E+02  4.00000000E+01  0.00000000E+00
  2.60000000E+02  2.00000000E+01  0.00000000E+00
  2.60000000E+02  4.99600361E-14  0.00000000E+00
  2.80000000E+02  3.00000000E+02  0.00000000E+00
  2.80000000E+02  2.80000000E+02  0.00000000E+00
  2.80000000E+02  2.60000000E+02  0.00000000E+00
  2.80000000E+02  2.40000000E+02  0.00000000E+00
  2.80000000E+02  2.20000000E+02  0.00000000E+00
  2.80000000E+02  2.00000000E+02  0.00000000E+00
  2.80000000E+02  1.80000000E+02  0.00000000E+00
  2.80000000E+02  1.60000000E+02  0.00000000E+00
  2.80000000E+02  1.40000000E+02  0.00000000E+00
  2.80000000E+02  1.20000000E+02  0.00000000E+00
  2.80000000E+02  1.00000000E+02  0.00000000E+00
  2.80000000E+02  8.00000000E+01  0.00000000E+00
  2.80000000E+02  6.00000000E+01  0.00000000E+00
  2.80000000E+02  4.00000000E+01  0.00000000E+00
  2.80000000E+02  2.00000000E+01  0.00000000E+00
  2.80000000E+02  4.99600361E-14  0.00000000E+00
  3.00000000E+02  3.00000000E+02  0.00000000E+00
  3.00000000E+02  2.80000000E+02  0.00000000E+00
  3.00000000E+02  2.60000000E+02  0.00000000E+00
  3.00000000E+02  2.40000000E+02  0.00000000E+00
  3.00000000E+02  2.20000000E+02  0.00000000E+00
  3.00000000E+02  2.00000000E+02  0.00000000E+00
  3.00000000E+02  1.80000000E+02  0.00000000E+00
  3.00000000E+02  1.60000000E+02  0.00000000E+00
  3.00000000E+02  1.40000000E+02  0.00000000E+00
  3.00000000E+02  1.20000000E+02  0.00000000E+00
  3.00000000E+02  1.00000000E+02  0.00000000E+00
  3.00000000E+02  8.00000000E+01  0.00000000E+00
  3.00000000E+02  6.00000000E+01  0.00000000E+00
  3.00000000E+02  4.00000000E+01  0.00000000E+00
  3.00000000E+02  2.00000000E+01  0.00000000E+00
  3.00000000E+02  4.99600361E-14  0.00000000E+00
  3.20000000E+02  3.00000000E+02  0.00000000E+00
  3.20000000E+02  2.80000000E+02  0.00000000E+00
  3.20000000E+02  2.60000000E+02  0.00000000E+00
  3.20000000E+02  2.40000000E+02  0.00000000E+00
  3.20000000E+02  2.20000000E+02  0.00000000E+00
  3.20000000E+02  2.00000000E+02  0.00000000E+00
  3.20000000E+02  1.80000000E+02  0.00000000E+00
  3.20000000E+02  1.60000000E+02  0.00000000E+00
  3.20000000E+02  1.40000000E+02  0.00000000E+00
  3.20000000E+02  1.20000000E+02  0.00000000E+00
  3.20000000E+02  1.00000000E+02  0.00000000E+00
  3.20000000E+02  8.00000000E+01  0.00000000E+00
  3.20000000E+02  6.00000000E+01  0.00000000E+00
  3.20000000E+02  4.00000000E+01  0.00000000E+00
  3.20000000E+02  2.00000000E+01  0.00000000E+00
  3.20000000E+02  4.99600361E-14  0.00000000E+00
  3.40000000E+02  3.00000000E+02  0.00000000E+00
  3.40000000E+02  2.80000000E+02  0.00000000E+00
  3.40000000E+02  2.60000000E+02  0.00000000E+00
  3.40000000E+02  2.40000000E+02  0.00000000E+00
  3.40000000E+02  2.20000000E+02  0.00000000E+00
  3.40000000E+02  2.00000000E+02  0.00000000E+00
  3.40000000E+02  1.80000000E+02  0.00000000E+00
  3.40000000E+02  1.60000000E+02  0.00000000E+00
  3.40000000E+02  1.40000000E+02  0.00000000E+00
  3.40000000E+02  1.20000000E+02  0.00000000E+00
  3.40000000E+02  1.00000000E+02  0.00000000E+00
  3.40000000E+02  8.00000000E+01  0.00000000E+00
  3.40000000E+02  6.00000000E+01  0.00000000E+00
  3.40000000E+02  4.00000000E+01  0.00000000E+00
  3.40000000E+02  2.00000000E+01  0.00000000E+00
  3.40000000E+02  4.99600361E-14  0.00000000E+00
  3.60000000E+02  3.00000000E+02  0.00000000E+00
  3.60000000E+02  2.80000000E+02  0.00000000E+00
  3.60000000E+02  2.60000000E+02  0.00000000E+00
  3.60000000E+02  2.40000000E+02  0.00000000E+00
  3.60000000E+02  2.20000000E+02  0.00000000E+00
  3.60000000E+02  2.00000000E+02  0.00000000E+00
  3.60000000E+02  1.80000000E+02  0.00000000E+00
  3.60000000E+02  1.60000000E+02  0.00000000E+00
  3.60000000E+02  1.40000000E+02  0.00000000E+00
  3.60000000E+02  1.20000000E+02  0.00000000E+00
  3.60000000E+02  1.00000000E+02  0.00000000E+00
  3.60000000E+02  8.00000000E+01  0.00000000E+00
  3.60000000E+02  6.00000000E+01  0.00000000E+00
  3.60000000E+02  4.00000000E+01  0.00000000E+00
  3.60000000E+02  2.00000000E+01  0.00000000E+00
  3.60000000E+02  4.99600361E-14  0.00000000E+00
  3.80000000E+02  3.00000000E+02  0.00000000E+00
  3.80000000E+02  2.80000000E+02  0.00000000E+00
  3.80000000E+02  2.60000000E+02  0.00000000E+00
  3.80000000E+02  2.40000000E+02  0.00000000E+00
  3.80000000E+02  2.20000000E+02  0.00000000E+00
  3.80000000E+02  2.00000000E+02  0.00000000E+00
  3.80000000E+02  1.80000000E+02  0.00000000E+00
  3.80000000E+02  1.60000000E+02  0.00000000E+00
  3.80000000E+02  1.40000000E+02  0.00000000E+00
  3.80000000E+02  1.20000000E+02  0.00000000E+00
  3.80000000E+02  1.00000000E+02  0.00000000E+00
  3.80000000E+02  8.00000000E+01  0.00000000E+00
  3.80000000E+02  6.00000000E+01  0.00000000E+00
  3.80000000E+02  4.00000000E+01  0.00000000E+00
  3.80000000E+02  2.00000000E+01  0.00000000E+00
  3.80000000E+02  4.99600361E-14  0.00000000E+00
  4.00000000E+02  3.00000000E+02  0.00000000E+00
  4.00000000E+02  2.80000000E+02  0.00000000E+00
  4.00000000E+02  2.60000000E+02  0.00000000E+00
  4.00000000E+02  2.40000000E+02  0.00000000E+00
  4.00000000E+02  2.20000000E+02  0.00000000E+00
  4.00000000E+02  2.00000000E+02  0.00000000E+00
  4.00000000E+02  1.80000000E+02  0.00000000E+00
  4.00000000E+02  1.60000000E+02  0.00000000E+00
  4.00000000E+02  1.40000000E+02  0.00000000E+00
  4.00000000E+02  1.20000000E+02  0.00000000E+00
  4.00000000E+02  1.00000000E+02  0.00000000E+00
  4.00000000E+02  8.00000000E+01  0.00000000E+00
  4.00000000E+02  6.00000000E+01  0.00000000E+00
  4.00000000E+02  4.00000000E+01  0.00000000E+00
  4.00000000E+02  2.00000000E+01  0.00000000E+00
  4.00000000E+02  4.99600361E-14  0.00000000E+00
  4.20000000E+02  3.00000000E+02  0.00000000E+00
  4.20000000E+02  2.80000000E+02  0.00000000E+00
  4.20000000E+02  2.60000000E+02  0.00000000E+00
  4.20000000E+02  2.40000000E+02  0.00000000E+00
  4.20000000E+02  2.20000000E+02  0.00000000E+00
  4.20000000E+02  2.00000000E+02  0.00000000E+00
  4.20000000E+02  1.80000000E+02  0.00000000E+00
  4.20000000E+02  1.60000000E+02  0.00000000E+00
  4.20000000E+02  1.40000000E+02  0.00000000E+00
  4.20000000E+02  1.20000000E+02  0.00000000E+00
  4.20000000E+02  1.00000000E+02  0.00000000E+00
  4.20000000E+02  8.00000000E+01  0.00000000E+00
  4.20000000E+02  6.00000000E+01  0.00000000E+00
  4.20000000E+02  4.00000000E+01  0.00000000E+00
  4.20000000E+02  2.00000000E+01  0.00000000E+00
  4.20000000E+02  4.99600361E-14  0.00000000E+00
  4.40000000E+02  3.00000000E+02  0.00000000E+00
  4.40000000E+02  2.80000000E+02  0.00000000E+00
  4.40000000E+02  2.60000000E+02  0.00000000E+00
  4.40000000E+02  2.40000000E+02  0.00000000E+00
  4.40000000E+02  2.20000000E+02  0.00000000E+00
  4.40000000E+02  2.00000000E+02  0.00000000E+00
  4.40000000E+02  1.80000000E+02  0.00000000E+00
  4.40000000E+02  1.60000000E+02  0.00000000E+00
  4.40000000E+02  1.40000000E+02  0.00000000E+00
  4.40000000E+02  1.20000000E+02  0.00000000E+00
  4.40000000E+02  1.00000000E+02  0.00000000E+00
  4.40000000E+02  8.00000000E+01  0.00000000E+00
  4.40000000E+02  6.00000000E+01  0.00000000E+00
  4.40000000E+02  4.00000000E+01  0.00000000E+00
  4.40000000E+02  2.00000000E+01  0.00000000E+00
  4.40000000E+02  4.99600361E-14  0.00000000E+00
  4.60000000E+02  3.00000000E+02  0.00000000E+00
  4.60000000E+02  2.80000000E+02  0.00000000E+00
  4.60000000E+02  2.60000000E+02  0.00000000E+00
  4.60000000E+02  2.40000000E+02  0.00000000E+00
  4.60000000E+02  2.20000000E+02  0.00000000E+00
  4.60000000E+02  2.00000000E+02  0.00000000E+00
  4.60000000E+02  1.80000000E+02  0.00000000E+00
  4.60000000E+02  1.60000000E+02  0.00000000E+00
  4.60000000E+02  1.40000000E+02  0.00000000E+00
  4.60000000E+02  1.20000000E+02  0.00000000E+00
  4.60000000E+02  1.00000000E+02  0.00000000E+00
  4.60000000E+02  8.00000000E+01  0.00000000E+00
  4.60000000E+02  6.00000000E+01  0.00000000E+00
  4.60000000E+02  4.00000000E+01  0.00000000E+00
  4.60000000E+02  2.00000000E+01  0.00000000E+00
  4.60000000E+02  4.99600361E-14  0.00000000E+00
  4.80000000E+02  3.00000000E+02  0.00000000E+00
  4.80000000E+02  2.80000000E+02  0.00000000E+00
  4.80000000E+02  2.60000000E+02  0.00000000E+00
  4.80000000E+02  2.40000000E+02  0.00000000E+00
  4.80000000E+02  2.20000000E+02  0.00000000E+00
  4.80000000E+02  2.00000000E+02  0.00000000E+00
  4.80000000E+02  1.80000000E+02  0.00000000E+00
  4.80000000E+02  1.60000000E+02  0.00000000E+00
  4.80000000E+02  1.40000000E+02  0.00000000E+00
  4.80000000E+02  1.20000000E+02  0.00000000E+00
  4.80000000E+02  1.00000000E+02  0.00000000E+00
  4.80000000E+02  8.00000000E+01  0.00000000E+00
  4.80000000E+02  6.00000000E+01  0.00000000E+00
  4.80000000E+02  4.00000000E+01  0.00000000E+00
  4.80000000E+02  2.00000000E+01  0.00000000E+00
  4.80000000E+02  4.99600361E-14  0.00000000E+00
  5.00000000E+02  3.00000000E+02  0.00000000E+00
  5.00000000E+02  2.80000000E+02  0.00000000E+00
  5.00000000E+02  2.60000000E+02  0.00000000E+00
  5.00000000E+02  2.40000000E+02  0.00000000E+00
  5.00000000E+02  2.20000000E+02  0.00000000E+00
  5.00000000E+02  2.00000000E+02  0.00000000E+00
  5.00000000E+02  1.80000000E+02  0.00000000E+00
  5.00000000E+02  1.60000000E+02  0.00000000E+00
  5.00000000E+02  1.40000000E+02  0.00000000E+00
  5.00000000E+02  1.20000000E+02  0.00000000E+00
  5.00000000E+02  1.00000000E+02  0.00000000E+00
  5.00000000E+02  8.00000000E+01  0.00000000E+00
  5.00000000E+02  6.00000000E+01  0.00000000E+00
  5.00000000E+02  4.00000000E+01  0.00000000E+00
  5.00000000E+02  2.00000000E+01  0.00000000E+00
  5.00000000E+02  4.99600361E-14  0.00000000E+00
  5.20000000E+02  3.00000000E+02  0.00000000E+00
  5.20000000E+02  2.80000000E+02  0.00000000E+00
  5.20000000E+02  2.60000000E+02  0.00000000E+00
  5.20000000E+02  2.40000000E+02  0.00000000E+00
  5.20000000E+02  2.20000000E+02  0.00000000E+00
  5.20000000E+02  2.00000000E+02  0.00000000E+00
  5.20000000E+02  1.80000000E+02  0.00000000E+00
  5.20000000E+02  1.60000000E+02  0.00000000E+00
  5.20000000E+02  1.40000000E+02  0.00000000E+00
  5.20000000E+02  1.20000000E+02  0.00000000E+00
  5.20000000E+02  1.00000000E+02  0.00000000E+00
  5.20000000E+02  8.00000000E+01  0.00000000E+00
  5.20000000E+02  6.00000000E+01  0.00000000E+00
  5.20000000E+02  4.00000000E+01  0.00000000E+00
  5.20000000E+02  2.00000000E+01  0.00000000E+00
  5.20000000E+02  4.99600361E-14  0.00000000E+00
  5.40000000E+02  3.00000000E+02  0.00000000E+00
  5.40000000E+02  2.80000000E+02  0.00000000E+00
  5.40000000E+02  2.60000000E+02  0.00000000E+00
  5.40000000E+02  2.40000000E+02  0.00000000E+00
  5.40000000E+02  2.20000000E+02  0.00000000E+00
  5.40000000E+02  2.00000000E+02  0.00000000E+00
  5.40000000E+02  1.80000000E+02  0.00000000E+00
  5.40000000E+02  1.60000000E+02  0.00000000E+00
  5.40000000E+02  1.40000000E+02  0.00000000E+00
  5.40000000E+02  1.20000000E+02  0.00000000E+00
  5.40000000E+02  1.00000000E+02  0.00000000E+00
  5.40000000E+02  8.00000000E+01  0.00000000E+00
  5.40000000E+02  6.00000000E+01  0.00000000E+00
  5.40000000E+02  4.00000000E+01  0.00000000E+00
  5.40000000E+02  2.00000000E+01  0.00000000E+00
  5.40000000E+02  4.99600361E-14  0.00000000E+00
  5.60000000E+02  3.00000000E+02  0.00000000E+00
  5.60000000E+02  2.80000000E+02  0.00000000E+00
  5.60000000E+02  2.60000000E+02  0.00000000E+00
  5.60000000E+02  2.40000000E+02  0.00000000E+00
  5.60000000E+02  2.20000000E+02  0.00000000E+00
  5.60000000E+02  2.00000000E+02  0.00000000E+00
  5.60000000E+02  1.80000000E+02  0.00000000E+00
  5.60000000E+02  1.60000000E+02  0.00000000E+00
  5.60000000E+02  1.40000000E+02  0.00000000E+00
  5.60000000E+02  1.20000000E+02  0.00000000E+00
  5.60000000E+02  1.00000000E+02  0.00000000E+00
  5.60000000E+02  8.00000000E+01  0.00000000E+00
  5.60000000E+02  6.00000000E+01  0.00000000E+00
  5.60000000E+02  4.00000000E+01  0.00000000E+00
  5.60000000E+02  2.00000000E+01  0.00000000E+00
  5.60000000E+02  4.99600361E-14  0.00000000E+00
  5.80000000E+02  3.00000000E+02  0.00000000E+00
  5.80000000E+02  2.80000000E+02  0.00000000E+00
  5.80000000E+02  2.60000000E+02  0.00000000E+00
  5.80000000E+02  2.40000000E+02  0.00000000E+00
  5.80000000E+02  2.20000000E+02  0.00000000E+00
  5.80000000E+02  2.00000000E+02  0.00000000E+00
  5.80000000E+02  1.80000000E+02  0.00000000E+00
  5.80000000E+02  1.60000000E+02  0.00000000E+00
  5.80000000E+02  1.40000000E+02  0.00000000E+00
  5.80000000E+02  1.20000000E+02  0.00000000E+00
  5.80000000E+02  1.00000000E+02  0.00000000E+00
  5.80000000E+02  8.00000000E+01  0.00000000E+00
  5.80000000E+02  6.00000000E+01  0.00000000E+00
  5.80000000E+02  4.00000000E+01  0.00000000E+00
  5.80000000E+02  2.00000000E+01  0.00000000E+00
  5.80000000E+02  4.99600361E-14  0.00000000E+00
  6.00000000E+02  3.00000000E+02  0.00000000E+00
  6.00000000E+02  2.80000000E+02  0.00000000E+00
  6.00000000E+02  2.60000000E+02  0.00000000E+00
  6.00000000E+02  2.40000000E+02  0.00000000E+00
  6.00000000E+02  2.20000000E+02  0.00000000E+00
  6.00000000E+02  2.00000000E+02  0.00000000E+00
  6.00000000E+02  1.80000000E+02  0.00000000E+00
  6.00000000E+02  1.60000000E+02  0.00000000E+00
  6.00000000E+02  1.40000000E+02  0.00000000E+00
  6.00000000E+02  1.20000000E+02  0.00000000E+00
  6.00000000E+02  1.00000000E+02  0.00000000E+00
  6.00000000E+02  8.00000000E+01  0.00000000E+00
  6.00000000E+02  6.00000000E+01  0.00000000E+00
  6.00000000E+02  4.00000000E+01  0.00000000E+00
  6.00000000E+02  2.00000000E+01  0.00000000E+00
  6.00000000E+02  4.99600361E-14  0.00000000E+00
CELLS       450      2250
         4           0           1          17          16
         4           1           2          18          17
         4           2           3          19          18
         4           3           4          20          19
         4           4           5          21          20
         4           5           6          22          21
         4           6           7          23          22
         4           7           8          24          23
         4           8           9          25          24
         4           9          10          26          25
         4          10          11          27          26
         4          11          12          28          27
         4          12          13          29          28
         4          13          14          30          29
         4          14          15          31          30
         4          16          17          33          32
         4          17          18          34          33
         4          18          19          35          34
         4          19          20          36          35
         4          20          21          37          36
         4          21          22          38          37
         4          22          23          39          38
         4          23          24          40          39
         4          24          25          41          40
         4          25          26          42          41
         4          26          27          43          42
         4          27          28          44          43
         4          28          29          45          44
         4          29          30          46          45
         4          30          31          47          46
         4          32          33          49          48
         4          33          34          50          49
         4          34          35          51          50
         4          35          36          52          51
         4          36          37          53          52
         4          37          38          54          53
         4          38          39          55          54
         4          39          40          56          55
         4          40          41          57          56
         4          41          42          58          57
         4          42          43          59          58
         4          43          44          60          59
         4          44          45          61          60
         4          45          46          62          61
         4          46          47          63          62
         4          48          49          65          64
         4          49          50          66          65
         4          50          51          67          66
         4          51          52          68          67
         4          52          53          69          68
         4          53          54          70          69
         4          54          55          71          70
         4          55          56          72          71
         4          56          57          73          72
         4          57          58          74          73
         4          58          59          75          74
         4          59          60          76          75
         4          60          61          77          76
         4          61          62          78          77
         4          62          63          79          78
         4          64          65          81          80
         4          65          66          82          81
         4          66          67          83          82
         4          67          68          84          83
         4          68          69          85          84
         4          69          70          86          85
         4          70          71          87          86
         4          71          72          88          87
         4          72          73          89          88
         4          73          74          90          89
         4          74          75          91          90
         4          75          76          92          91
         4          76          77          93          92
         4          77          78          94          93
         4          78          79          95          94
         4          80          81          97          96
         4          81          82          98          97
         4          82          83          99          98
         4          83          84         100          99
         4          84          85         101         100
         4          85          86         102         101
         4          86          87         103         102
         4          87          88         104         103
         4          88          89         105         104
         4          89          90         106         105
         4          90          91         107         106
         4          91          92         108         107
         4          92          93         109         108
         4          93          94         110         109
         4          94          95         111         110
         4          96          97         113         112
         4          97          98         114         113
         4          98          99         115         114
         4          99         100         116         115
         4         100         101         117         116
         4         101         102         118         117
         4         102         103         119         118
         4         103         104         120         119
         4         104         105         121         120
         4         105         106         122         121
         4         106         107         123         122
         4         107         108         124         123
         4         108         109         125         124
         4         109         110         126         125
         4         110         111         127         126
         4         112         113         129         128
         4         113         114         130         129
         4         114         115         131         130
         4         115         116         132         131
         4         116         117         133         132
         4         117         118         134         133
         4         118         119         135         134
         4         119         120         136         135
         4         120         121         137         136
         4         121         122         138         137
         4         122         123         139         138
         4         123         124         140         139
         4         124         125         141         140
         4         125         126         142         141
         4         126         127         143         142
         4         128         129         145         144
         4         129         130         146         145
         4         130         131         147         146
         4         131         132         148         147
         4         132         133         149         148
         4         133         134         150         149
         4         134         135         151         150
         4         135         136         152         151
         4         136         137         153         152
         4         137         138         154         153
         4         138         139         155         154
         4         139         140         156         155
         4         140         141         157         156
         4         141         142         158         157
         4         142         143         159         158
         4         144         145         161         160
         4         145         146         162         161
         4         146         147         163         162
         4         147         148         164         163
         4         148         149         165         164
         4         149         150         166         165
         4         150         151         167         166
         4         151         152         168         167
         4         152         153         169         168
         4         153         154         170         169
         4         154         155         171         170
         4         155         156         172         171
         4         156         157         173         172
         4         157         158         174         173
         4         158         159         175         174
         4         160         161         177         176
         4         161         162         178         177
         4         162         163         179         178
         4         163         164         180         179
         4         164         165         181         180
         4         165         166         182         181
         4         166         167         183         182
         4         167         168         184         183
         4         168         169         185         184
         4         169         170         186         185
         4         170         171         187         186
         4         171         172         188         187
         4         172         173         189         188
         4         173         174         190         189
         4         174         175         191         190
         4         176         177         193         192
         4         177         178         194         193
         4         178         179         195         194
         4         179         180         196         195
         4         180         181         197         196
         4         181         182         198         197
         4         182         183         199         198
         4         183         184         200         199
         4         184         185         201         200
         4         185         186         202         201
         4         186         187         203         202
         4         187         188         204         203
         4         188         189         205         204
         4         189         190         206         205
         4         190         191         207         206
         4         192         193         209         208
         4         193         194         210         209
         4         194         195         211         210
         4         195         196         212         211
         4         196         197         213         212
         4         197         198         214         213
         4         198         199         215         214
         4         199         200         216         215
         4         200         201         217         216
         4         201         202         218         217
         4         202         203         219         218
         4         203         204         220         219
         4         204         205         221         220
         4         205         206         222         221
         4         206         207         223         222
         4         208         209         225         224
         4         209         210         226         225
         4         210         211         227         226
         4         211         212         228         227
         4         212         213         229         228
         4         213         214         230         229
         4         214         215         231         230
         4         215         216         232         231
         4         216         217         233         232
         4         217         218         234         233
         4         218         219         235         234
         4         219         220         236         235
         4         220         221         237         236
         4         221         222         238         237
         4         222         223         239         238
         4         224         225         241         240
         4         225         226         242         241
         4         226         227         243         242
         4         227         228         244         243
         4         228         229         245         244
         4         229         230         246         245
         4         230         231         247         246
         4         231         232         248         247
         4         232         233         249         248
         4         233         234         250         249
         4         234         235         251         250
         4         235         236         252         251
         4         236         237         253         252
         4         237         238         254         253
         4         238         239         255         254
         4         240         241         257         256
         4         241         242         258         257
         4         242         243         259         258
         4         243         244         260         259
         4         244         245         261         260
         4         245         246         262         261
         4         246         247         263         262
         4         247         248         264         263
         4         248         249         265         264
         4         249         250         266         265
         4         250         251         267         266
         4         251         252         268         267
         4         252         253         269         268
         4         253         254         270         269
         4         254         255         271         270
         4         256         257         273         272
         4         257         258         274         273
         4         258         259         275         274
         4         259         260         276         275
         4         260         261         277         276
         4         261         262         278         277
         4         262         263         279         278
         4         263         264         280         279
         4         264         265         281         280
         4         265         266         282         281
         4         266         267         283         282
         4         267         268         284         283
         4         268         269         285         284
         4         269         270         286         285
         4         270         271         287         286
         4         272         273         289         288
         4         273         274         290         289
         4         274         275         291         290
         4         275         276         292         291
         4         276         277         293         292
         4         277         278         294         293
         4         278         279         295         294
         4         279         280         296         295
         4         280         281         297         296
         4         281         282         298         297
         4         282         283         299         298
         4         283         284         300         299
         4         284         285         301         300
         4         285         286         302         301
         4         286         287         303         302
         4         288         289         305         304
         4         289         290         306         305
         4         290         291         307         306
         4         291         292         308         307
         4         292         293         309         308
         4         293         294         310         309
         4         294         295         311         310
         4         295         296         312         311
         4         296         297         313         312
         4         297         298         314         313
         4         298         299         315         314
         4         299         300         316         315
         4         300         301         317         316
         4         301         302         318         317
         4         302         303         319         318
         4         304         305         321         320
         4         305         306         322         321
         4         306         307         323         322
         4         307         308         324         323
         4         308         309         325         324
         4         309         310         326         325
         4         310         311         327         326
         4         311         312         328         327
         4         312         313         329         328
         4         313         314         330         329
         4         314         315         331         330
         4         315         316         332         331
         4         316         317         333         332
         4         317         318         334         333
         4         318         319         335         334
         4         320         321         337         336
         4         321         322         338         337
         4         322         323         339         338
         4         323         324         340         339
         4         324         325         341         340
         4         325         326         342         341
         4         326         327         343         342
         4         327         328         344         343
         4         328         329         345         344
         4         329         330         346         345
         4         330         331         347         346
         4         331         332         348         347
         4         332         333         349         348
         4         333         334         350         349
         4         334         335         351         350
         4         336         337         353         352
         4         337         338         354         353
         4         338         339         355         354
         4         339         340         356         355
         4         340         341         357         356
         4         341         342         358         357
         4         342         343         359         358
         4         343         344         360         359
         4         344         345         361         360
         4         345         346         362         361
         4         346         347         363         362
         4         347         348         364         363
         4         348         349         365         364
         4         349         350         366         365
         4         350         351         367         366
         4         352         353         369         368
         4         353         354         370         369
         4         354         355         371         370
         4         355         356         372         371
         4         356         357         373         372
         4         357         358         374         373
         4         358         359         375         374
         4         359         360         376         375
         4         360         361         377         376
         4         361         362         378         377
         4         362         363         379         378
         4         363         364         380         379
         4         364         365         381         380
         4         365         366         382         381
         4         366         367         383         382
         4         368         369         385         384
         4         369         370         386         385
         4         370         371         387         386
         4         371         372         388         387
         4         372         373         389         388
         4         373         374         390         389
         4         374         375         391         390
         4         375         376         392         391
         4         376         377         393         392
         4         377         378         394         393
         4         378         379         395         394
         4         379         380         396         395
         4         380         381         397         396
         4         381         382         398         397
         4         382         383         399         398
         4         384         385         401         400
         4         385         386         402         401
         4         386         387         403         402
         4         387         388         404         403
         4         388         389         405         404
         4         389         390         406         405
         4         390         391         407         406
         4         391         392         408         407
         4         392         393         409         408
         4         393         394         410         409
         4         394         395         411         410
         4         395         396         412         411
         4         396         397         413         412
         4         397         398         414         413
         4         398         399         415         414
         4         400         401         417         416
         4         401         402         418         417
         4         402         403         419         418
         4         403         404         420         419
         4         404         405         421         420
         4         405         406         422         421
         4         406         407         423         422
         4         407         408         424         423
         4         408         409         425         424
         4         409         410         426         425
         4         410         411         427         426
         4         411         412         428         427
         4         412         413         429         428
         4         413         414         430         429
         4         414         415         431         430
         4         416         417         433         432
         4         417         418         434         433
         4         418         419         435         434
         4         419         420         436         435
         4         420         421         437         436
         4         421         422         438         437
         4         422         423         439         438
         4         423         424         440         439
         4         424         425         441         440
         4         425         426         442         441
         4         426         427         443         442
         4         427         428         444         443
         4         428         429         445         444
         4         429         430         446         445
         4         430         431         447         446
         4         432         433         449         448
         4         433         434         450         449
         4         434         435         451         450
         4         435         436         452         451
         4         436         437         453         452
         4         437         438         454         453
         4         438         439         455         454
         4         439         440         456         455
         4         440         441         457         456
         4         441         442         458         457
         4         442         443         459         458
         4         443         444         460         459
         4         444         445         461         460
         4         445         446         462         461
         4         446         447         463         462
         4         448         449         465         464
         4         449         450         466         465
         4         450         451         467         466
         4         451         452         468         467
         4         452         453         469         468
         4         453         454         470         469
         4         454         455         471         470
         4         455         456         472         471
         4         456         457         473         472
         4         457         458         474         473
         4         458         459         475         474
         4         459         460         476         475
         4         460         461         477         476
         4         461         462         478         477
         4         462         463         479         478
         4         464         465         481         480
         4         465         466         482         481
         4         466         467         483         482
         4         467         468         484         483
         4         468         469         485         484
         4         469         470         486         485
         4         470         471         487         486
         4         471         472         488         487
         4         472         473         489         488
         4         473         474         490         489
         4         474         475         491         490
         4         475         476         492         491
         4         476         477         493         492
         4         477         478         494         493
         4         478         479         495         494
CELL_TYPES        450
9
9
9
9
9
9
9
9
9
9
9
9
9
9
9
9
9
9
9
9
9
9
9
9
9
9
9
9
9
9
9
9
9
9
9
9
9
9
9
9
9
9
9
9
9
9
9
9
9
9
9
9
9
9
9
9
9
9
9
9
9
9
9
9
9
9
9
9
9
9
9
9
9
9
9
9
9
9
9
9
9
9
9
9
9
9
9
9
9
9
9
9
9
9
9
9
9
9
9
9
9
9
9
9
9
9
9
9
9
9
9
9
9
9
9
9
9
9
9
9
9
9
9
9
9
9
9
9
9
9
9
9
9
9
9
9
9
9
9
9
9
9
9
9
9
9
9
9
9
9
9
9
9
9
9
9
9
9
9
9
9
9
9
9
9
9
9
9
9
9
9
9
9
9
9
9
9
9
9
9
9
9
9
9
9
9
9
9
9
9
9
9
9
9
9
9
9
9
9
9
9
9
9
9
9
9
9
9
9
9
9
9
9
9
9
9
9
9
9
9
9
9
9
9
9
9
9
9
9
9
9
9
9
9
9
9
9
9
9
9
9
9
9
9
9
9
9
9
9
9
9
9
9
9
9
9
9
9
9
9
9
9
9
9
9
9
9
9
9
9
9
9
9
9
9
9
9
9
9
9
9
9
9
9
9
9
9
9
9
9
9
9
9
9
9
9
9
9
9
9
9
9
9
9
9
9
9
9
9
9
9
9
9
9
9
9
9
9
9
9
9
9
9
9
9
9
9
9
9
9
9
9
9
9
9
9
9
9
9
9
9
9
9
9
9
9
9
9
9
9
9
9
9
9
9
9
9
9
9
9
9
9
9
9
9
9
9
9
9
9
9
9
9
9
9
9
9
9
9
9
9
9
9
9
9
9
9
9
9
9
9
9
9
9
9
9
9
9
9
9
9
9
9
9
9
9
9
9
9
9
9
9
9
9
9
9
9
9
9
9
9
9
9
9
9
9
9
9
9
9
9
9
9
9
9
9
9
9
9
9
9
9
9
9
9
9
9
9
9
9
POINT_DATA       496
SCALARS p double 
LOOKUP_TABLE default
   85000000.0000000     
   85000000.0000000     
   85000000.0000000     
   85000000.0000000     
   85000000.0000000     
   85000000.0000000     
   85000000.0000000     
   85000000.0000000     
   85000000.0000000     
   85000000.0000000     
   85000000.0000000     
   85000000.0000000     
   85000000.0000000     
   85000000.0000000     
   85000000.0000000     
   85000000.0000000     
   82275985.1953553     
   82275836.7043637     
   82275568.9724253     
   82275353.6635181     
   82275171.5479294     
   82275006.8713356     
   82274855.4318594     
   82274714.9090304     
   82274583.8863279     
   82274461.2931233     
   82274346.2430400     
   82274237.9973357     
   82274135.9473012     
   82274040.3248906     
   82273949.4975142     
   82273904.7437512     
   79566477.7577586     
   79566380.0736052     
   79566123.0753653     
   79565799.9039953     
   79565480.4369544     
   79565178.0857405     
   79564893.5267355     
   79564626.4535260     
   79564376.0504129     
   79564141.4516316     
   79563921.9441001     
   79563717.2561768     
   79563528.3242894     
   79563358.4882526     
   79563225.5526236     
   79563172.1543372     
   76886713.5826427     
   76886606.8827693     
   76886333.2635641     
   76885969.6048130     
   76885570.5486615     
   76885170.4108172     
   76884782.9688754     
   76884413.5590838     
   76884064.4669248     
   76883736.7636658     
   76883431.3784048     
   76883150.0817753     
   76882896.9201508     
   76882682.1751342     
   76882527.4348486     
   76882468.5945382     
   74249383.6544669     
   74249277.8060704     
   74248998.0933955     
   74248612.6747801     
   74248172.8607227     
   74247713.6424969     
   74247256.6673722     
   74246813.7322793     
   74246391.4455786     
   74245994.0794319     
   74245625.3313254     
   74245289.8555887     
   74244995.2845800     
   74244754.8046873     
   74244589.5706589     
   74244528.9743428     
   71664543.3153890     
   71664441.1879649     
   71664166.9026690     
   71663778.7666048     
   71663323.3033919     
   71662835.3168962     
   71662339.1035601     
   71661850.8690874     
   71661381.3682268     
   71660938.4122280     
   71660528.8350663     
   71660160.2154607     
   71659842.5967417     
   71659590.1205667     
   71659421.9555586     
   71659361.6707362     
   69138984.4065456     
   69138888.8546076     
   69138628.2115775     
   69138251.2156785     
   69137799.1407481     
   69137304.9841064     
   69136793.9459115     
   69136284.7004825     
   69135791.1490459     
   69135324.2362696     
   69134893.6518482     
   69134509.3448708     
   69134182.8415722     
   69133928.1988044     
   69133762.2425214     
   69133703.7051120     
   66675937.9499469     
   66675850.3006042     
   66675608.0889149     
   66675251.2038743     
   66674815.4273578     
   66674331.1838490     
   66673823.3542141     
   66673311.8559762     
   66672812.6825448     
   66672339.1573208     
   66671903.2002787     
   66671516.4792753     
   66671191.3245581     
   66670941.2456591     
   66670780.8426904     
   66670724.9391556     
   64275024.0667681     
   64274944.7005895     
   64274722.8374972     
   64274390.6300529     
   64273978.6247326     
   64273514.3214568     
   64273021.5794735     
   64272520.6824895     
   64272028.8541780     
   64271561.0224461     
   64271130.6616606     
   64270750.5653306     
   64270433.4147649     
   64270192.0063533     
   64270039.0091380     
   64269986.1730342     
   61932437.1173002     
   61932365.6540225     
   61932163.8083175     
   61931857.2427430     
   61931471.8376996     
   61931032.1975469     
   61930560.8134485     
   61930077.7763287     
   61929600.8944096     
   61929146.0619652     
   61928727.7325197     
   61928359.3625453     
   61928053.7031025     
   61927822.8305941     
   61927677.8325750     
   61927628.1105002     
   59641323.6206044     
   59641259.1250599     
   59641075.2662394     
   59640792.4961350     
   59640432.7807545     
   59640018.1204591     
   59639569.5793146     
   59639106.7627185     
   59638647.6451357     
   59638208.6322221     
   59637804.7386371     
   59637449.7682130     
   59637156.3943351     
   59636936.0558620     
   59636798.6110386     
   59636751.7305460     
   57392303.8523295     
   57392244.9981806     
   57392075.8735631     
   57391812.9685295     
   57391475.1773431     
   57391082.3620960     
   57390654.3147283     
   57390210.0834808     
   57389767.5973382     
   57389343.5025883     
   57388953.1179065     
   57388610.4160627     
   57388327.9497710     
   57388116.6560895     
   57387985.4983991     
   57387940.9366329     
   55174084.9190075     
   55174030.1241686     
   55173871.6577063     
   55173623.2360066     
   55173301.5588028     
   55172924.9226750     
   55172512.1538895     
   55172081.8421636     
   55171651.8297351     
   55171238.8915125     
   55170858.5328323     
   55170524.8309222     
   55170250.2537303     
   55170045.4046044     
   55169918.6625193     
   55169875.7135239     
   52974116.0155328     
   52974063.5487517     
   52973911.1643113     
   52973670.9253334     
   52973358.2165432     
   52972990.4010786     
   52972585.7445478     
   52972162.5967018     
   52971738.7979171     
   52971331.2606000     
   52970955.6661496     
   52970626.2165946     
   52970355.3860960     
   52970153.6303552     
   52970029.0303267     
   52969986.8686339     
   50779243.1620231     
   50779191.2254774     
   50779040.1050985     
   50778801.2710415     
   50778489.6586360     
   50778122.3551547     
   50777717.5252906     
   50777293.5699911     
   50776868.4925673     
   50776459.4300583     
   50776082.2984823     
   50775751.4986162     
   50775479.6341644     
   50775277.2057909     
   50775152.2611274     
   50775110.0006163     
   48576329.3277769     
   48576276.1226464     
   48576121.4173929     
   48575877.1053140     
   48575558.5173007     
   48575183.1232430     
   48574769.4646249     
   48574336.3140494     
   48573902.0373820     
   48573484.1185058     
   48573098.7973548     
   48572760.7698178     
   48572482.9032043     
   48572275.9323530     
   48572148.1177177     
   48572104.8659707     
   46352814.9756773     
   46352758.7587622     
   46352595.7728641     
   46352339.3240510     
   46352005.9604765     
   46351614.1745384     
   46351183.3481357     
   46350732.9354957     
   46350281.8566048     
   46349848.0576265     
   46349448.1850670     
   46349097.3186711     
   46348808.7138020     
   46348593.5163354     
   46348460.4303747     
   46348415.3394387     
   44097202.6183523     
   44097141.7571324     
   44096966.1249234     
   44096691.4183577     
   44096336.1987957     
   44095920.5846498     
   44095465.2179617     
   44094990.4964680     
   44094516.0369147     
   44094060.3163993     
   44093640.4284119     
   44093271.8893369     
   44092968.4385380     
   44092741.7894318     
   44092601.3085984     
   44092553.6231207     
   41799456.3034247     
   41799389.3349838     
   41799197.2055517     
   41798898.9772638     
   41798515.9898071     
   41798070.5358537     
   41797584.8633427     
   41797080.4901868     
   41796577.7839203     
   41796095.7362392     
   41795651.8522721     
   41795262.0755317     
   41794940.6795739     
   41794700.0745889     
   41794550.5002245     
   41794499.6034780     
   39451312.7420957     
   39451238.4386413     
   39451026.6766793     
   39450700.8592012     
   39450285.8294965     
   39449806.5250378     
   39449287.0384577     
   39448750.0607228     
   39448216.6363481     
   39447706.1341011     
   39447236.3287971     
   39446823.4953933     
   39446482.4306274     
   39446226.3377283     
   39446066.5364564     
   39446011.9940185     
   37046505.0441323     
   37046422.4850654     
   37046188.8899162     
   37045832.9784464     
   37045383.7692986     
   37044869.2085967     
   37044315.3263466     
   37043745.8738100     
   37043182.3322187     
   37042644.1559934     
   37042149.1145879     
   37041713.6120769     
   37041352.8825587     
   37041080.9807996     
   37040910.5159456     
   37040852.1159648     
   34580902.8876588     
   34580811.5359544     
   34580555.0763132     
   34580168.5236925     
   34579685.6705414     
   34579137.6880524     
   34578552.4400135     
   34577954.4130659     
   34577365.0828532     
   34576803.5194343     
   34576287.0606342     
   34575831.9154168     
   34575453.5822761     
   34575166.9826950     
   34574986.2326671     
   34574924.0210177     
   32052574.6972400     
   32052474.4770927     
   32052195.5389386     
   32051780.1842277     
   32051267.4732437     
   32050691.8079409     
   32050082.5171300     
   32049464.2347742     
   32048857.7614753     
   32048281.1277737     
   32047750.6606916     
   32047281.9208207     
   32046890.3976523     
   32046591.8402167     
   32046402.0997546     
   32046336.4082980     
   29461778.3235395     
   29461669.6981428     
   29461370.3526019     
   29460930.9043858     
   29460396.0128804     
   29459802.9973531     
   29459181.9184292     
   29458556.6563351     
   29457946.4428052     
   29457367.4599732     
   29456834.3207013     
   29456361.3602826     
   29455963.6653613     
   29455657.6915132     
   29455461.2555278     
   29455392.7226016     
   26810887.0923595     
   26810771.1477021     
   26810455.4726531     
   26810000.1099710     
   26809455.3584327     
   26808860.6242695     
   26808245.4604837     
   26807631.7525134     
   26807036.1113103     
   26806472.0085739     
   26805951.5964095     
   26805487.3080434     
   26805093.2765094     
   26804786.3943245     
   26804586.6350793     
   26804516.2209942     
   24104258.1547864     
   24104136.7157676     
   24103811.2714878     
   24103352.5143916     
   24102815.8268326     
   24102240.9873910     
   24101655.1256360     
   24101076.6131164     
   24100518.4168817     
   24099990.5898952     
   24099502.1868226     
   24099063.0255714     
   24098685.5112743     
   24098386.4097167     
   24098187.8868596     
   24098116.8913898     
   21348050.0124274     
   21347925.8635302     
   21347600.5860350     
   21347156.7722279     
   21346652.9666034     
   21346126.1029493     
   21345598.2295052     
   21345082.7237054     
   21344588.2834529     
   21344121.2708478     
   21343687.3764994     
   21343293.1825067     
   21342948.3242729     
   21342668.2761237     
   21342476.9716350     
   21342407.1001267     
   18549995.9839855     
   18549873.4694672     
   18549563.6997253     
   18549161.6892929     
   18548724.0470381     
   18548279.3396687     
   18547841.7766318     
   18547419.1655896     
   18547016.0990354     
   18546635.6601954     
   18546280.5068080     
   18545953.9527699     
   18545661.5319514     
   18545415.2949343     
   18545239.2829011     
   18545172.7222552     
   15719140.7339551     
   15719027.4271987     
   15718758.9175229     
   15718439.0672381     
   15718109.6064226     
   15717784.2003931     
   15717469.3432333     
   15717168.1567239     
   15716882.2441955     
   15716612.4767233     
   15716359.4751170     
   15716124.0429511     
   15715908.0496499     
   15715715.7166004     
   15715566.6989697     
   15715507.2200922     
   12865546.4540195     
   12865460.4042709     
   12865284.1559837     
   12865103.2289274     
   12864924.3553787     
   12864751.5870628     
   12864586.3899942     
   12864429.4113293     
   12864280.8593844     
   12864140.7141556     
   12864008.8299078     
   12863885.0205610     
   12863769.0868646     
   12863661.5915377     
   12863560.8408808     
   12863511.5640712     
   10000000.0000000     
   10000000.0000000     
   10000000.0000000     
   10000000.0000000     
   10000000.0000000     
   10000000.0000000     
   10000000.0000000     
   10000000.0000000     
   10000000.0000000     
   10000000.0000000     
   10000000.0000000     
   10000000.0000000     
   10000000.0000000     
  10000000.00000000     
   10000000.0000000     
   10000000.0000000     
VECTORS u double 
    0.00000E+00         0.16491E-01         0.00000E+00
    0.00000E+00         0.15496E-01         0.00000E+00
    0.00000E+00         0.14413E-01         0.00000E+00
    0.00000E+00         0.13342E-01         0.00000E+00
    0.00000E+00         0.12300E-01         0.00000E+00
    0.00000E+00         0.11281E-01         0.00000E+00
    0.00000E+00         0.10280E-01         0.00000E+00
    0.00000E+00         0.92879E-02         0.00000E+00
    0.00000E+00         0.82971E-02         0.00000E+00
    0.00000E+00         0.72965E-02         0.00000E+00
    0.00000E+00         0.62733E-02         0.00000E+00
    0.00000E+00         0.52118E-02         0.00000E+00
    0.00000E+00         0.40918E-02         0.00000E+00
    0.00000E+00         0.28859E-02         0.00000E+00
    0.00000E+00         0.15531E-02         0.00000E+00
    0.00000E+00         0.00000E+00         0.00000E+00
    0.38187E-02         0.16009E-01         0.00000E+00
    0.31081E-02         0.15123E-01         0.00000E+00
    0.26866E-02         0.14135E-01         0.00000E+00
    0.24258E-02         0.13123E-01         0.00000E+00
    0.22212E-02         0.12117E-01         0.00000E+00
    0.20484E-02         0.11125E-01         0.00000E+00
    0.18945E-02         0.10145E-01         0.00000E+00
    0.17512E-02         0.91706E-02         0.00000E+00
    0.16123E-02         0.81948E-02         0.00000E+00
    0.14720E-02         0.72075E-02         0.00000E+00
    0.13245E-02         0.61962E-02         0.00000E+00
    0.11628E-02         0.51456E-02         0.00000E+00
    0.97751E-03         0.40358E-02         0.00000E+00
    0.75319E-03         0.28398E-02         0.00000E+00
    0.46029E-03         0.15168E-02         0.00000E+00
    0.00000E+00         0.00000E+00         0.00000E+00
    0.69621E-02         0.15016E-01         0.00000E+00
    0.59304E-02         0.14226E-01         0.00000E+00
    0.51975E-02         0.13387E-01         0.00000E+00
    0.46704E-02         0.12501E-01         0.00000E+00
    0.42571E-02         0.11589E-01         0.00000E+00
    0.39085E-02         0.10669E-01         0.00000E+00
    0.35989E-02         0.97483E-02         0.00000E+00
    0.33115E-02         0.88244E-02         0.00000E+00
    0.30333E-02         0.78925E-02         0.00000E+00
    0.27531E-02         0.69444E-02         0.00000E+00
    0.24592E-02         0.59689E-02         0.00000E+00
    0.21384E-02         0.49515E-02         0.00000E+00
    0.17725E-02         0.38738E-02         0.00000E+00
    0.13344E-02         0.27108E-02         0.00000E+00
    0.77370E-03         0.14296E-02         0.00000E+00
    0.00000E+00         0.00000E+00         0.00000E+00
    0.98199E-02         0.13656E-01         0.00000E+00
    0.85098E-02         0.13008E-01         0.00000E+00
    0.75143E-02         0.12302E-01         0.00000E+00
    0.67437E-02         0.11548E-01         0.00000E+00
    0.61232E-02         0.10757E-01         0.00000E+00
    0.55976E-02         0.99413E-02         0.00000E+00
    0.51310E-02         0.91098E-02         0.00000E+00
    0.46987E-02         0.82643E-02         0.00000E+00
    0.42815E-02         0.74025E-02         0.00000E+00
    0.38625E-02         0.65181E-02         0.00000E+00
    0.34251E-02         0.56018E-02         0.00000E+00
    0.29503E-02         0.46412E-02         0.00000E+00
    0.24138E-02         0.36201E-02         0.00000E+00
    0.17813E-02         0.25188E-02         0.00000E+00
    0.10012E-02         0.13168E-02         0.00000E+00
    0.00000E+00         0.00000E+00         0.00000E+00
    0.12404E-01         0.12028E-01         0.00000E+00
    0.10854E-01         0.11515E-01         0.00000E+00
    0.96279E-02         0.10948E-01         0.00000E+00
    0.86413E-02         0.10331E-01         0.00000E+00
    0.78257E-02         0.96718E-02         0.00000E+00
    0.71271E-02         0.89782E-02         0.00000E+00
    0.65050E-02         0.82574E-02         0.00000E+00
    0.59288E-02         0.75125E-02         0.00000E+00
    0.53742E-02         0.67429E-02         0.00000E+00
    0.48194E-02         0.59446E-02         0.00000E+00
    0.42432E-02         0.51102E-02         0.00000E+00
    0.36224E-02         0.42297E-02         0.00000E+00
    0.29293E-02         0.32906E-02         0.00000E+00
    0.21278E-02         0.22794E-02         0.00000E+00
    0.11709E-02         0.11842E-02         0.00000E+00
    0.00000E+00         0.00000E+00         0.00000E+00
    0.14711E-01         0.10182E-01         0.00000E+00
    0.12965E-01         0.98040E-02         0.00000E+00
    0.11540E-01         0.93770E-02         0.00000E+00
    0.10361E-01         0.89008E-02         0.00000E+00
    0.93670E-02         0.83793E-02         0.00000E+00
    0.85045E-02         0.78180E-02         0.00000E+00
    0.77321E-02         0.72220E-02         0.00000E+00
    0.70158E-02         0.65943E-02         0.00000E+00
    0.63275E-02         0.59353E-02         0.00000E+00
    0.56416E-02         0.52425E-02         0.00000E+00
    0.49335E-02         0.45106E-02         0.00000E+00
    0.41774E-02         0.37324E-02         0.00000E+00
    0.33439E-02         0.28991E-02         0.00000E+00
    0.23982E-02         0.20022E-02         0.00000E+00
    0.12992E-02         0.10358E-02         0.00000E+00
    0.00000E+00         0.00000E+00         0.00000E+00
    0.16751E-01         0.81670E-02         0.00000E+00
    0.14845E-01         0.79216E-02         0.00000E+00
    0.13251E-01         0.76333E-02         0.00000E+00
    0.11905E-01         0.72985E-02         0.00000E+00
    0.10749E-01         0.69181E-02         0.00000E+00
    0.97352E-02         0.64953E-02         0.00000E+00
    0.88210E-02         0.60336E-02         0.00000E+00
    0.79713E-02         0.55355E-02         0.00000E+00
    0.71555E-02         0.50019E-02         0.00000E+00
    0.63455E-02         0.44311E-02         0.00000E+00
    0.55145E-02         0.38200E-02         0.00000E+00
    0.46350E-02         0.31636E-02         0.00000E+00
    0.36777E-02         0.24565E-02         0.00000E+00
    0.26101E-02         0.16939E-02         0.00000E+00
    0.13968E-02         0.87410E-03         0.00000E+00
    0.00000E+00         0.00000E+00         0.00000E+00
    0.18535E-01         0.60196E-02         0.00000E+00
    0.16501E-01         0.59050E-02         0.00000E+00
    0.14766E-01         0.57533E-02         0.00000E+00
    0.13275E-01         0.55591E-02         0.00000E+00
    0.11976E-01         0.53210E-02         0.00000E+00
    0.10824E-01         0.50405E-02         0.00000E+00
    0.97792E-02         0.47197E-02         0.00000E+00
    0.88054E-02         0.43605E-02         0.00000E+00
    0.78707E-02         0.39637E-02         0.00000E+00
    0.69456E-02         0.35288E-02         0.00000E+00
    0.60021E-02         0.30538E-02         0.00000E+00
    0.50121E-02         0.25358E-02         0.00000E+00
    0.39469E-02         0.19720E-02         0.00000E+00
    0.27769E-02         0.13604E-02         0.00000E+00
    0.14713E-02         0.70150E-03         0.00000E+00
    0.00000E+00         0.00000E+00         0.00000E+00
    0.20077E-01         0.37694E-02         0.00000E+00
    0.17942E-01         0.37837E-02         0.00000E+00
    0.16090E-01         0.37667E-02         0.00000E+00
    0.14474E-01         0.37116E-02         0.00000E+00
    0.13050E-01         0.36160E-02         0.00000E+00
    0.11776E-01         0.34799E-02         0.00000E+00
    0.10613E-01         0.33045E-02         0.00000E+00
    0.95265E-02         0.30910E-02         0.00000E+00
    0.84835E-02         0.28402E-02         0.00000E+00
    0.74541E-02         0.25521E-02         0.00000E+00
    0.64096E-02         0.22259E-02         0.00000E+00
    0.53221E-02         0.18600E-02         0.00000E+00
    0.41642E-02         0.14535E-02         0.00000E+00
    0.29085E-02         0.10061E-02         0.00000E+00
    0.15286E-02         0.51986E-03         0.00000E+00
    0.00000E+00         0.00000E+00         0.00000E+00
    0.21392E-01         0.14397E-02         0.00000E+00
    0.19176E-01         0.15815E-02         0.00000E+00
    0.17227E-01         0.16970E-02         0.00000E+00
    0.15507E-01         0.17795E-02         0.00000E+00
    0.13976E-01         0.18260E-02         0.00000E+00
    0.12595E-01         0.18355E-02         0.00000E+00
    0.11329E-01         0.18084E-02         0.00000E+00
    0.10142E-01         0.17457E-02         0.00000E+00
    0.90028E-02         0.16480E-02         0.00000E+00
    0.78810E-02         0.15156E-02         0.00000E+00
    0.67479E-02         0.13482E-02         0.00000E+00
    0.55762E-02         0.11456E-02         0.00000E+00
    0.43394E-02         0.90757E-03         0.00000E+00
    0.30127E-02         0.63510E-03         0.00000E+00
    0.15729E-02         0.33085E-03         0.00000E+00
    0.00000E+00         0.00000E+00         0.00000E+00
    0.22491E-01        -0.95135E-03         0.00000E+00
    0.20212E-01        -0.68352E-03         0.00000E+00
    0.18185E-01        -0.43710E-03         0.00000E+00
    0.16379E-01        -0.21835E-03         0.00000E+00
    0.14757E-01        -0.30500E-04         0.00000E+00
    0.13286E-01         0.12523E-03         0.00000E+00
    0.11931E-01         0.24880E-03         0.00000E+00
    0.10658E-01         0.34071E-03         0.00000E+00
    0.94358E-02         0.40151E-03         0.00000E+00
    0.82346E-02         0.43158E-03         0.00000E+00
    0.70258E-02         0.43112E-03         0.00000E+00
    0.57827E-02         0.40032E-03         0.00000E+00
    0.44803E-02         0.33971E-03         0.00000E+00
    0.30953E-02         0.25064E-03         0.00000E+00
    0.16075E-02         0.13586E-03         0.00000E+00
    0.00000E+00         0.00000E+00         0.00000E+00
    0.23387E-01        -0.33900E-02         0.00000E+00
    0.21057E-01        -0.29970E-02         0.00000E+00
    0.18969E-01        -0.26210E-02         0.00000E+00
    0.17092E-01        -0.22672E-02         0.00000E+00
    0.15398E-01        -0.19385E-02         0.00000E+00
    0.13853E-01        -0.16361E-02         0.00000E+00
    0.12424E-01        -0.13604E-02         0.00000E+00
    0.11079E-01        -0.11110E-02         0.00000E+00
    0.97883E-02        -0.88752E-03         0.00000E+00
    0.85212E-02        -0.68964E-03         0.00000E+00
    0.72499E-02        -0.51698E-03         0.00000E+00
    0.59484E-02        -0.36916E-03         0.00000E+00
    0.45925E-02        -0.24545E-03         0.00000E+00
    0.31607E-02        -0.14451E-03         0.00000E+00
    0.16346E-02        -0.63935E-04         0.00000E+00
    0.00000E+00         0.00000E+00         0.00000E+00
    0.24088E-01        -0.58658E-02         0.00000E+00
    0.21720E-01        -0.53482E-02         0.00000E+00
    0.19582E-01        -0.48434E-02         0.00000E+00
    0.17652E-01        -0.43553E-02         0.00000E+00
    0.15900E-01        -0.38860E-02         0.00000E+00
    0.14297E-01        -0.34367E-02         0.00000E+00
    0.12811E-01        -0.30075E-02         0.00000E+00
    0.11410E-01        -0.25985E-02         0.00000E+00
    0.10065E-01        -0.22092E-02         0.00000E+00
    0.87456E-02        -0.18395E-02         0.00000E+00
    0.74252E-02        -0.14890E-02         0.00000E+00
    0.60779E-02        -0.11574E-02         0.00000E+00
    0.46803E-02        -0.84409E-03         0.00000E+00
    0.32121E-02        -0.54805E-03         0.00000E+00
    0.16562E-02        -0.26755E-03         0.00000E+00
    0.00000E+00         0.00000E+00         0.00000E+00
    0.24602E-01        -0.83708E-02         0.00000E+00
    0.22204E-01        -0.77287E-02         0.00000E+00
    0.20031E-01        -0.70955E-02         0.00000E+00
    0.18061E-01        -0.64734E-02         0.00000E+00
    0.16267E-01        -0.58637E-02         0.00000E+00
    0.14622E-01        -0.52669E-02         0.00000E+00
    0.13094E-01        -0.46833E-02         0.00000E+00
    0.11652E-01        -0.41128E-02         0.00000E+00
    0.10268E-01        -0.35554E-02         0.00000E+00
    0.89110E-02        -0.30108E-02         0.00000E+00
    0.75551E-02        -0.24789E-02         0.00000E+00
    0.61745E-02        -0.19598E-02         0.00000E+00
    0.47466E-02        -0.14530E-02         0.00000E+00
    0.32515E-02        -0.95806E-03         0.00000E+00
    0.16732E-02        -0.47417E-03         0.00000E+00
    0.00000E+00         0.00000E+00         0.00000E+00
    0.24933E-01        -0.10899E-01         0.00000E+00
    0.22512E-01        -0.10132E-01         0.00000E+00
    0.20315E-01        -0.93703E-02         0.00000E+00
    0.18319E-01        -0.86141E-02         0.00000E+00
    0.16500E-01        -0.78635E-02         0.00000E+00
    0.14828E-01        -0.71187E-02         0.00000E+00
    0.13274E-01        -0.63797E-02         0.00000E+00
    0.11808E-01        -0.56465E-02         0.00000E+00
    0.10399E-01        -0.49190E-02         0.00000E+00
    0.90194E-02        -0.41974E-02         0.00000E+00
    0.76415E-02        -0.34818E-02         0.00000E+00
    0.62401E-02        -0.27723E-02         0.00000E+00
    0.47928E-02        -0.20693E-02         0.00000E+00
    0.32801E-02        -0.13729E-02         0.00000E+00
    0.16862E-02        -0.68308E-03         0.00000E+00
    0.00000E+00         0.00000E+00         0.00000E+00
    0.25082E-01        -0.13445E-01         0.00000E+00
    0.22647E-01        -0.12553E-01         0.00000E+00
    0.20436E-01        -0.11662E-01         0.00000E+00
    0.18428E-01        -0.10771E-01         0.00000E+00
    0.16598E-01        -0.98786E-02         0.00000E+00
    0.14916E-01        -0.89851E-02         0.00000E+00
    0.13352E-01        -0.80898E-02         0.00000E+00
    0.11877E-01        -0.71926E-02         0.00000E+00
    0.10460E-01        -0.62939E-02         0.00000E+00
    0.90715E-02        -0.53938E-02         0.00000E+00
    0.76852E-02        -0.44929E-02         0.00000E+00
    0.62754E-02        -0.35916E-02         0.00000E+00
    0.48197E-02        -0.26906E-02         0.00000E+00
    0.32983E-02        -0.17909E-02         0.00000E+00
    0.16956E-02        -0.89361E-03         0.00000E+00
    0.00000E+00         0.00000E+00         0.00000E+00
    0.25047E-01        -0.16003E-01         0.00000E+00
    0.22606E-01        -0.14985E-01         0.00000E+00
    0.20393E-01        -0.13964E-01         0.00000E+00
    0.18387E-01        -0.12937E-01         0.00000E+00
    0.16561E-01        -0.11902E-01         0.00000E+00
    0.14885E-01        -0.10859E-01         0.00000E+00
    0.13328E-01        -0.98066E-02         0.00000E+00
    0.11859E-01        -0.87448E-02         0.00000E+00
    0.10449E-01        -0.76740E-02         0.00000E+00
    0.90667E-02        -0.65948E-02         0.00000E+00
    0.76857E-02        -0.55078E-02         0.00000E+00
    0.62801E-02        -0.44139E-02         0.00000E+00
    0.48269E-02        -0.33144E-02         0.00000E+00
    0.33060E-02        -0.22108E-02         0.00000E+00
    0.17011E-02        -0.11051E-02         0.00000E+00
    0.00000E+00         0.00000E+00         0.00000E+00
    0.24826E-01        -0.18569E-01         0.00000E+00
    0.22386E-01        -0.17423E-01         0.00000E+00
    0.20184E-01        -0.16270E-01         0.00000E+00
    0.18194E-01        -0.15106E-01         0.00000E+00
    0.16387E-01        -0.13928E-01         0.00000E+00
    0.14733E-01        -0.12734E-01         0.00000E+00
    0.13199E-01        -0.11523E-01         0.00000E+00
    0.11753E-01        -0.10296E-01         0.00000E+00
    0.10365E-01        -0.90531E-02         0.00000E+00
    0.90036E-02        -0.77947E-02         0.00000E+00
    0.76417E-02        -0.65219E-02         0.00000E+00
    0.62529E-02        -0.52359E-02         0.00000E+00
    0.48133E-02        -0.39382E-02         0.00000E+00
    0.33023E-02        -0.26309E-02         0.00000E+00
    0.17023E-02        -0.13169E-02         0.00000E+00
    0.00000E+00         0.00000E+00         0.00000E+00
    0.24412E-01        -0.21135E-01         0.00000E+00
    0.21983E-01        -0.19860E-01         0.00000E+00
    0.19803E-01        -0.18574E-01         0.00000E+00
    0.17844E-01        -0.17271E-01         0.00000E+00
    0.16074E-01        -0.15947E-01         0.00000E+00
    0.14458E-01        -0.14601E-01         0.00000E+00
    0.12963E-01        -0.13232E-01         0.00000E+00
    0.11556E-01        -0.11839E-01         0.00000E+00
    0.10205E-01        -0.10424E-01         0.00000E+00
    0.88795E-02        -0.89876E-02         0.00000E+00
    0.75506E-02        -0.75302E-02         0.00000E+00
    0.61913E-02        -0.60534E-02         0.00000E+00
    0.47769E-02        -0.45590E-02         0.00000E+00
    0.32855E-02        -0.30494E-02         0.00000E+00
    0.16982E-02        -0.15282E-02         0.00000E+00
    0.00000E+00         0.00000E+00         0.00000E+00
    0.23795E-01        -0.23692E-01         0.00000E+00
    0.21389E-01        -0.22286E-01         0.00000E+00
    0.19247E-01        -0.20865E-01         0.00000E+00
    0.17335E-01        -0.19421E-01         0.00000E+00
    0.15617E-01        -0.17950E-01         0.00000E+00
    0.14056E-01        -0.16451E-01         0.00000E+00
    0.12616E-01        -0.14922E-01         0.00000E+00
    0.11264E-01        -0.13365E-01         0.00000E+00
    0.99663E-02        -0.11779E-01         0.00000E+00
    0.86910E-02        -0.10166E-01         0.00000E+00
    0.74088E-02        -0.85267E-02         0.00000E+00
    0.60921E-02        -0.68619E-02         0.00000E+00
    0.47149E-02        -0.51736E-02         0.00000E+00
    0.32537E-02        -0.34643E-02         0.00000E+00
    0.16879E-02        -0.17380E-02         0.00000E+00
    0.00000E+00         0.00000E+00         0.00000E+00
    0.22965E-01        -0.26229E-01         0.00000E+00
    0.20596E-01        -0.24690E-01         0.00000E+00
    0.18508E-01        -0.23132E-01         0.00000E+00
    0.16660E-01        -0.21545E-01         0.00000E+00
    0.15012E-01        -0.19926E-01         0.00000E+00
    0.13523E-01        -0.18272E-01         0.00000E+00
    0.12156E-01        -0.16584E-01         0.00000E+00
    0.10874E-01        -0.14863E-01         0.00000E+00
    0.96440E-02        -0.13109E-01         0.00000E+00
    0.84333E-02        -0.11322E-01         0.00000E+00
    0.72118E-02        -0.95043E-02         0.00000E+00
    0.59508E-02        -0.76558E-02         0.00000E+00
    0.46234E-02        -0.57780E-02         0.00000E+00
    0.32040E-02        -0.38732E-02         0.00000E+00
    0.16696E-02        -0.19452E-02         0.00000E+00
    0.00000E+00         0.00000E+00         0.00000E+00
    0.21910E-01        -0.28731E-01         0.00000E+00
    0.19596E-01        -0.27058E-01         0.00000E+00
    0.17581E-01        -0.25360E-01         0.00000E+00
    0.15816E-01        -0.23628E-01         0.00000E+00
    0.14255E-01        -0.21858E-01         0.00000E+00
    0.12856E-01        -0.20050E-01         0.00000E+00
    0.11577E-01        -0.18204E-01         0.00000E+00
    0.10381E-01        -0.16320E-01         0.00000E+00
    0.92328E-02        -0.14400E-01         0.00000E+00
    0.81006E-02        -0.12445E-01         0.00000E+00
    0.69535E-02        -0.10455E-01         0.00000E+00
    0.57620E-02        -0.84285E-02         0.00000E+00
    0.44976E-02        -0.63675E-02         0.00000E+00
    0.31328E-02        -0.42730E-02         0.00000E+00
    0.16415E-02        -0.21485E-02         0.00000E+00
    0.00000E+00         0.00000E+00         0.00000E+00
    0.20616E-01        -0.31180E-01         0.00000E+00
    0.18379E-01        -0.29371E-01         0.00000E+00
    0.16457E-01        -0.27531E-01         0.00000E+00
    0.14796E-01        -0.25651E-01         0.00000E+00
    0.13342E-01        -0.23730E-01         0.00000E+00
    0.12050E-01        -0.21767E-01         0.00000E+00
    0.10874E-01        -0.19763E-01         0.00000E+00
    0.97783E-02        -0.17721E-01         0.00000E+00
    0.87262E-02        -0.15641E-01         0.00000E+00
    0.76860E-02        -0.13523E-01         0.00000E+00
    0.66267E-02        -0.11368E-01         0.00000E+00
    0.55184E-02        -0.91723E-02         0.00000E+00
    0.43312E-02        -0.69366E-02         0.00000E+00
    0.30353E-02        -0.46605E-02         0.00000E+00
    0.16010E-02        -0.23464E-02         0.00000E+00
    0.00000E+00         0.00000E+00         0.00000E+00
    0.19069E-01        -0.33553E-01         0.00000E+00
    0.16933E-01        -0.31606E-01         0.00000E+00
    0.15130E-01        -0.29622E-01         0.00000E+00
    0.13595E-01        -0.27593E-01         0.00000E+00
    0.12269E-01        -0.25518E-01         0.00000E+00
    0.11100E-01        -0.23401E-01         0.00000E+00
    0.10043E-01        -0.21243E-01         0.00000E+00
    0.90604E-02        -0.19047E-01         0.00000E+00
    0.81168E-02        -0.16813E-01         0.00000E+00
    0.71808E-02        -0.14542E-01         0.00000E+00
    0.62223E-02        -0.12232E-01         0.00000E+00
    0.52112E-02        -0.98780E-02         0.00000E+00
    0.41164E-02        -0.74787E-02         0.00000E+00
    0.29055E-02        -0.50316E-02         0.00000E+00
    0.15448E-02        -0.25371E-02         0.00000E+00
    0.00000E+00         0.00000E+00         0.00000E+00
    0.17254E-01        -0.35821E-01         0.00000E+00
    0.15251E-01        -0.33736E-01         0.00000E+00
    0.13595E-01        -0.31605E-01         0.00000E+00
    0.12211E-01        -0.29424E-01         0.00000E+00
    0.11031E-01        -0.27197E-01         0.00000E+00
    0.10002E-01        -0.24927E-01         0.00000E+00
    0.90778E-02        -0.22619E-01         0.00000E+00
    0.82198E-02        -0.20276E-01         0.00000E+00
    0.73954E-02        -0.17899E-01         0.00000E+00
    0.65749E-02        -0.15486E-01         0.00000E+00
    0.57293E-02        -0.13033E-01         0.00000E+00
    0.48294E-02        -0.10535E-01         0.00000E+00
    0.38433E-02        -0.79862E-02         0.00000E+00
    0.27360E-02        -0.53816E-02         0.00000E+00
    0.14686E-02        -0.27187E-02         0.00000E+00
    0.00000E+00         0.00000E+00         0.00000E+00
    0.15157E-01        -0.37951E-01         0.00000E+00
    0.13323E-01        -0.35725E-01         0.00000E+00
    0.11847E-01        -0.33445E-01         0.00000E+00
    0.10640E-01        -0.31112E-01         0.00000E+00
    0.96274E-02        -0.28733E-01         0.00000E+00
    0.87531E-02        -0.26314E-01         0.00000E+00
    0.79718E-02        -0.23864E-01         0.00000E+00
    0.72480E-02        -0.21384E-01         0.00000E+00
    0.65517E-02        -0.18876E-01         0.00000E+00
    0.58559E-02        -0.16335E-01         0.00000E+00
    0.51344E-02        -0.13756E-01         0.00000E+00
    0.43593E-02        -0.11131E-01         0.00000E+00
    0.34992E-02        -0.84506E-02         0.00000E+00
    0.25165E-02        -0.57054E-02         0.00000E+00
    0.13670E-02        -0.28888E-02         0.00000E+00
    0.00000E+00         0.00000E+00         0.00000E+00
    0.12763E-01        -0.39901E-01         0.00000E+00
    0.11144E-01        -0.37533E-01         0.00000E+00
    0.98849E-02        -0.35102E-01         0.00000E+00
    0.88820E-02        -0.32616E-01         0.00000E+00
    0.80553E-02        -0.30088E-01         0.00000E+00
    0.73476E-02        -0.27529E-01         0.00000E+00
    0.67179E-02        -0.24947E-01         0.00000E+00
    0.61350E-02        -0.22345E-01         0.00000E+00
    0.55731E-02        -0.19721E-01         0.00000E+00
    0.50096E-02        -0.17070E-01         0.00000E+00
    0.44216E-02        -0.14384E-01         0.00000E+00
    0.37844E-02        -0.11652E-01         0.00000E+00
    0.30680E-02        -0.88616E-02         0.00000E+00
    0.22339E-02        -0.59968E-02         0.00000E+00
    0.12321E-02        -0.30450E-02         0.00000E+00
    0.00000E+00         0.00000E+00         0.00000E+00
    0.10059E-01        -0.41617E-01         0.00000E+00
    0.87101E-02        -0.39106E-01         0.00000E+00
    0.77116E-02        -0.36522E-01         0.00000E+00
    0.69398E-02        -0.33886E-01         0.00000E+00
    0.63131E-02        -0.31219E-01         0.00000E+00
    0.57802E-02        -0.28533E-01         0.00000E+00
    0.53070E-02        -0.25837E-01         0.00000E+00
    0.48688E-02        -0.23130E-01         0.00000E+00
    0.44456E-02        -0.20410E-01         0.00000E+00
    0.40195E-02        -0.17670E-01         0.00000E+00
    0.35725E-02        -0.14899E-01         0.00000E+00
    0.30844E-02        -0.12084E-01         0.00000E+00
    0.25293E-02        -0.92074E-02         0.00000E+00
    0.18705E-02        -0.62483E-02         0.00000E+00
    0.10532E-02        -0.31844E-02         0.00000E+00
    0.00000E+00         0.00000E+00         0.00000E+00
    0.70320E-02        -0.43032E-01         0.00000E+00
    0.60276E-02        -0.40375E-01         0.00000E+00
    0.53354E-02        -0.37640E-01         0.00000E+00
    0.48155E-02        -0.34865E-01         0.00000E+00
    0.43971E-02        -0.32077E-01         0.00000E+00
    0.40423E-02        -0.29288E-01         0.00000E+00
    0.37274E-02        -0.26501E-01         0.00000E+00
    0.34355E-02        -0.23714E-01         0.00000E+00
    0.31528E-02        -0.20922E-01         0.00000E+00
    0.28674E-02        -0.18116E-01         0.00000E+00
    0.25669E-02        -0.15283E-01         0.00000E+00
    0.22367E-02        -0.12409E-01         0.00000E+00
    0.18579E-02        -0.94737E-02         0.00000E+00
    0.14011E-02        -0.64500E-02         0.00000E+00
    0.81354E-03        -0.33029E-02         0.00000E+00
    0.00000E+00         0.00000E+00         0.00000E+00
    0.36738E-02        -0.44046E-01         0.00000E+00
    0.31145E-02        -0.41244E-01         0.00000E+00
    0.27663E-02        -0.38371E-01         0.00000E+00
    0.25065E-02        -0.35489E-01         0.00000E+00
    0.22981E-02        -0.32616E-01         0.00000E+00
    0.21214E-02        -0.29757E-01         0.00000E+00
    0.19643E-02        -0.26912E-01         0.00000E+00
    0.18185E-02        -0.24075E-01         0.00000E+00
    0.16772E-02        -0.21238E-01         0.00000E+00
    0.15342E-02        -0.18391E-01         0.00000E+00
    0.13832E-02        -0.15521E-01         0.00000E+00
    0.12167E-02        -0.12613E-01         0.00000E+00
    0.10247E-02        -0.96437E-02         0.00000E+00
    0.79079E-03        -0.65854E-02         0.00000E+00
    0.48380E-03        -0.33944E-02         0.00000E+00
    0.00000E+00         0.00000E+00         0.00000E+00
    0.00000E+00        -0.44483E-01         0.00000E+00
    0.00000E+00        -0.41565E-01         0.00000E+00
    0.00000E+00        -0.38628E-01         0.00000E+00
    0.00000E+00        -0.35704E-01         0.00000E+00
    0.00000E+00        -0.32800E-01         0.00000E+00
    0.00000E+00        -0.29917E-01         0.00000E+00
    0.00000E+00        -0.27051E-01         0.00000E+00
    0.00000E+00        -0.24196E-01         0.00000E+00
    0.00000E+00        -0.21344E-01         0.00000E+00
    0.00000E+00        -0.18484E-01         0.00000E+00
    0.00000E+00        -0.15602E-01         0.00000E+00
    0.00000E+00        -0.12682E-01         0.00000E+00
    0.00000E+00        -0.97025E-02         0.00000E+00
    0.00000E+00        -0.66339E-02         0.00000E+00
    0.00000E+00        -0.34326E-02         0.00000E+00
    0.00000E+00         0.00000E+00         0.00000E+00
CELL_DATA        450
VECTORS vDarcy double 
    0.19528E-07        -0.53225E-12         0.00000E+00
    0.19522E-07        -0.95928E-12         0.00000E+00
    0.19519E-07        -0.77123E-12         0.00000E+00
    0.19516E-07        -0.65220E-12         0.00000E+00
    0.19514E-07        -0.58965E-12         0.00000E+00
    0.19512E-07        -0.54217E-12         0.00000E+00
    0.19511E-07        -0.50302E-12         0.00000E+00
    0.19509E-07        -0.46896E-12         0.00000E+00
    0.19508E-07        -0.43875E-12         0.00000E+00
    0.19507E-07        -0.41171E-12         0.00000E+00
    0.19506E-07        -0.38732E-12         0.00000E+00
    0.19505E-07        -0.36512E-12         0.00000E+00
    0.19504E-07        -0.34209E-12         0.00000E+00
    0.19502E-07        -0.32490E-12         0.00000E+00
    0.19500E-07        -0.16007E-12         0.00000E+00
    0.19414E-07        -0.88195E-12         0.00000E+00
    0.19410E-07        -0.18795E-11         0.00000E+00
    0.19406E-07        -0.19284E-11         0.00000E+00
    0.19404E-07        -0.17959E-11         0.00000E+00
    0.19401E-07        -0.16719E-11         0.00000E+00
    0.19400E-07        -0.15606E-11         0.00000E+00
    0.19398E-07        -0.14588E-11         0.00000E+00
    0.19397E-07        -0.13650E-11         0.00000E+00
    0.19396E-07        -0.12781E-11         0.00000E+00
    0.19395E-07        -0.11970E-11         0.00000E+00
    0.19394E-07        -0.11195E-11         0.00000E+00
    0.19393E-07        -0.10409E-11         0.00000E+00
    0.19391E-07        -0.94951E-12         0.00000E+00
    0.19390E-07        -0.80030E-12         0.00000E+00
    0.19388E-07        -0.35101E-12         0.00000E+00
    0.19195E-07        -0.73200E-12         0.00000E+00
    0.19192E-07        -0.19000E-11         0.00000E+00
    0.19189E-07        -0.24590E-11         0.00000E+00
    0.19186E-07        -0.25721E-11         0.00000E+00
    0.19184E-07        -0.25143E-11         0.00000E+00
    0.19182E-07        -0.24049E-11         0.00000E+00
    0.19181E-07        -0.22775E-11         0.00000E+00
    0.19179E-07        -0.21449E-11         0.00000E+00
    0.19178E-07        -0.20117E-11         0.00000E+00
    0.19177E-07        -0.18776E-11         0.00000E+00
    0.19176E-07        -0.17383E-11         0.00000E+00
    0.19175E-07        -0.15812E-11         0.00000E+00
    0.19174E-07        -0.13754E-11         0.00000E+00
    0.19172E-07        -0.10287E-11         0.00000E+00
    0.19171E-07        -0.40134E-12         0.00000E+00
    0.18885E-07        -0.76098E-12         0.00000E+00
    0.18882E-07        -0.19808E-11         0.00000E+00
    0.18879E-07        -0.26811E-11         0.00000E+00
    0.18877E-07        -0.30021E-11         0.00000E+00
    0.18875E-07        -0.30750E-11         0.00000E+00
    0.18873E-07        -0.30212E-11         0.00000E+00
    0.18872E-07        -0.29062E-11         0.00000E+00
    0.18870E-07        -0.27593E-11         0.00000E+00
    0.18869E-07        -0.25935E-11         0.00000E+00
    0.18868E-07        -0.24111E-11         0.00000E+00
    0.18867E-07        -0.22057E-11         0.00000E+00
    0.18866E-07        -0.19587E-11         0.00000E+00
    0.18865E-07        -0.16278E-11         0.00000E+00
    0.18864E-07        -0.11441E-11         0.00000E+00
    0.18863E-07        -0.42702E-12         0.00000E+00
    0.18503E-07        -0.74437E-12         0.00000E+00
    0.18501E-07        -0.19826E-11         0.00000E+00
    0.18498E-07        -0.27680E-11         0.00000E+00
    0.18496E-07        -0.32032E-11         0.00000E+00
    0.18494E-07        -0.33886E-11         0.00000E+00
    0.18493E-07        -0.34096E-11         0.00000E+00
    0.18491E-07        -0.33306E-11         0.00000E+00
    0.18490E-07        -0.31894E-11         0.00000E+00
    0.18489E-07        -0.30051E-11         0.00000E+00
    0.18488E-07        -0.27832E-11         0.00000E+00
    0.18487E-07        -0.25176E-11         0.00000E+00
    0.18486E-07        -0.21888E-11         0.00000E+00
    0.18485E-07        -0.17624E-11         0.00000E+00
    0.18484E-07        -0.11919E-11         0.00000E+00
    0.18483E-07        -0.43213E-12         0.00000E+00
    0.18073E-07        -0.70729E-12         0.00000E+00
    0.18071E-07        -0.19138E-11         0.00000E+00
    0.18069E-07        -0.27371E-11         0.00000E+00
    0.18067E-07        -0.32462E-11         0.00000E+00
    0.18066E-07        -0.35127E-11         0.00000E+00
    0.18064E-07        -0.36022E-11         0.00000E+00
    0.18063E-07        -0.35670E-11         0.00000E+00
    0.18061E-07        -0.34436E-11         0.00000E+00
    0.18060E-07        -0.32532E-11         0.00000E+00
    0.18059E-07        -0.30037E-11         0.00000E+00
    0.18058E-07        -0.26917E-11         0.00000E+00
    0.18057E-07        -0.23026E-11         0.00000E+00
    0.18056E-07        -0.18127E-11         0.00000E+00
    0.18056E-07        -0.11943E-11         0.00000E+00
    0.18055E-07        -0.42471E-12         0.00000E+00
    0.17620E-07        -0.65528E-12         0.00000E+00
    0.17618E-07        -0.17985E-11         0.00000E+00
    0.17617E-07        -0.26246E-11         0.00000E+00
    0.17615E-07        -0.31750E-11         0.00000E+00
    0.17614E-07        -0.34985E-11         0.00000E+00
    0.17613E-07        -0.36429E-11         0.00000E+00
    0.17611E-07        -0.36494E-11         0.00000E+00
    0.17610E-07        -0.35490E-11         0.00000E+00
    0.17609E-07        -0.33618E-11         0.00000E+00
    0.17608E-07        -0.30975E-11         0.00000E+00
    0.17607E-07        -0.27559E-11         0.00000E+00
    0.17606E-07        -0.23291E-11         0.00000E+00
    0.17605E-07        -0.18039E-11         0.00000E+00
    0.17605E-07        -0.11664E-11         0.00000E+00
    0.17604E-07        -0.40899E-12         0.00000E+00
    0.17170E-07        -0.59721E-12         0.00000E+00
    0.17169E-07        -0.16593E-11         0.00000E+00
    0.17168E-07        -0.24638E-11         0.00000E+00
    0.17167E-07        -0.30309E-11         0.00000E+00
    0.17165E-07        -0.33910E-11         0.00000E+00
    0.17164E-07        -0.35767E-11         0.00000E+00
    0.17163E-07        -0.36188E-11         0.00000E+00
    0.17162E-07        -0.35421E-11         0.00000E+00
    0.17161E-07        -0.33644E-11         0.00000E+00
    0.17160E-07        -0.30961E-11         0.00000E+00
    0.17159E-07        -0.27404E-11         0.00000E+00
    0.17158E-07        -0.22953E-11         0.00000E+00
    0.17158E-07        -0.17563E-11         0.00000E+00
    0.17157E-07        -0.11199E-11         0.00000E+00
    0.17157E-07        -0.38855E-12         0.00000E+00
    0.16749E-07        -0.53918E-12         0.00000E+00
    0.16748E-07        -0.15146E-11         0.00000E+00
    0.16747E-07        -0.22833E-11         0.00000E+00
    0.16746E-07        -0.28502E-11         0.00000E+00
    0.16744E-07        -0.32308E-11         0.00000E+00
    0.16743E-07        -0.34457E-11         0.00000E+00
    0.16742E-07        -0.35163E-11         0.00000E+00
    0.16741E-07        -0.34617E-11         0.00000E+00
    0.16741E-07        -0.32970E-11         0.00000E+00
    0.16740E-07        -0.30325E-11         0.00000E+00
    0.16739E-07        -0.26743E-11         0.00000E+00
    0.16738E-07        -0.22253E-11         0.00000E+00
    0.16738E-07        -0.16874E-11         0.00000E+00
    0.16737E-07        -0.10647E-11         0.00000E+00
    0.16737E-07        -0.36641E-12         0.00000E+00
    0.16376E-07        -0.48589E-12         0.00000E+00
    0.16375E-07        -0.13784E-11         0.00000E+00
    0.16375E-07        -0.21060E-11         0.00000E+00
    0.16374E-07        -0.26626E-11         0.00000E+00
    0.16373E-07        -0.30526E-11         0.00000E+00
    0.16372E-07        -0.32870E-11         0.00000E+00
    0.16371E-07        -0.33795E-11         0.00000E+00
    0.16370E-07        -0.33441E-11         0.00000E+00
    0.16370E-07        -0.31934E-11         0.00000E+00
    0.16369E-07        -0.29374E-11         0.00000E+00
    0.16368E-07        -0.25841E-11         0.00000E+00
    0.16368E-07        -0.21399E-11         0.00000E+00
    0.16367E-07        -0.16118E-11         0.00000E+00
    0.16367E-07        -0.10089E-11         0.00000E+00
    0.16367E-07        -0.34508E-12         0.00000E+00
    0.16071E-07        -0.44072E-12         0.00000E+00
    0.16071E-07        -0.12611E-11         0.00000E+00
    0.16070E-07        -0.19495E-11         0.00000E+00
    0.16069E-07        -0.24919E-11         0.00000E+00
    0.16069E-07        -0.28847E-11         0.00000E+00
    0.16068E-07        -0.31315E-11         0.00000E+00
    0.16067E-07        -0.32402E-11         0.00000E+00
    0.16066E-07        -0.32206E-11         0.00000E+00
    0.16066E-07        -0.30830E-11         0.00000E+00
    0.16065E-07        -0.28371E-11         0.00000E+00
    0.16065E-07        -0.24919E-11         0.00000E+00
    0.16064E-07        -0.20567E-11         0.00000E+00
    0.16064E-07        -0.15416E-11         0.00000E+00
    0.16064E-07        -0.95933E-12         0.00000E+00
    0.16063E-07        -0.32659E-12         0.00000E+00
    0.15847E-07        -0.40596E-12         0.00000E+00
    0.15847E-07        -0.11701E-11         0.00000E+00
    0.15846E-07        -0.18264E-11         0.00000E+00
    0.15846E-07        -0.23555E-11         0.00000E+00
    0.15845E-07        -0.27482E-11         0.00000E+00
    0.15845E-07        -0.30030E-11         0.00000E+00
    0.15844E-07        -0.31234E-11         0.00000E+00
    0.15843E-07        -0.31160E-11         0.00000E+00
    0.15843E-07        -0.29893E-11         0.00000E+00
    0.15843E-07        -0.27525E-11         0.00000E+00
    0.15842E-07        -0.24155E-11         0.00000E+00
    0.15842E-07        -0.19892E-11         0.00000E+00
    0.15842E-07        -0.14861E-11         0.00000E+00
    0.15841E-07        -0.92095E-12         0.00000E+00
    0.15841E-07        -0.31250E-12         0.00000E+00
    0.15713E-07        -0.38305E-12         0.00000E+00
    0.15713E-07        -0.11101E-11         0.00000E+00
    0.15712E-07        -0.17450E-11         0.00000E+00
    0.15712E-07        -0.22654E-11         0.00000E+00
    0.15711E-07        -0.26583E-11         0.00000E+00
    0.15711E-07        -0.29189E-11         0.00000E+00
    0.15711E-07        -0.30475E-11         0.00000E+00
    0.15710E-07        -0.30487E-11         0.00000E+00
    0.15710E-07        -0.29296E-11         0.00000E+00
    0.15710E-07        -0.26992E-11         0.00000E+00
    0.15709E-07        -0.23678E-11         0.00000E+00
    0.15709E-07        -0.19473E-11         0.00000E+00
    0.15709E-07        -0.14517E-11         0.00000E+00
    0.15709E-07        -0.89738E-12         0.00000E+00
    0.15709E-07        -0.30387E-12         0.00000E+00
    0.15673E-07        -0.37275E-12         0.00000E+00
    0.15672E-07        -0.10836E-11         0.00000E+00
    0.15672E-07        -0.17104E-11         0.00000E+00
    0.15672E-07        -0.22289E-11         0.00000E+00
    0.15672E-07        -0.26244E-11         0.00000E+00
    0.15672E-07        -0.28899E-11         0.00000E+00
    0.15671E-07        -0.30242E-11         0.00000E+00
    0.15671E-07        -0.30305E-11         0.00000E+00
    0.15671E-07        -0.29152E-11         0.00000E+00
    0.15671E-07        -0.26871E-11         0.00000E+00
    0.15671E-07        -0.23570E-11         0.00000E+00
    0.15671E-07        -0.19373E-11         0.00000E+00
    0.15670E-07        -0.14428E-11         0.00000E+00
    0.15670E-07        -0.89081E-12         0.00000E+00
    0.15670E-07        -0.30137E-12         0.00000E+00
    0.15726E-07        -0.37530E-12         0.00000E+00
    0.15726E-07        -0.10916E-11         0.00000E+00
    0.15726E-07        -0.17245E-11         0.00000E+00
    0.15726E-07        -0.22494E-11         0.00000E+00
    0.15726E-07        -0.26509E-11         0.00000E+00
    0.15726E-07        -0.29214E-11         0.00000E+00
    0.15726E-07        -0.30592E-11         0.00000E+00
    0.15726E-07        -0.30672E-11         0.00000E+00
    0.15726E-07        -0.29517E-11         0.00000E+00
    0.15726E-07        -0.27214E-11         0.00000E+00
    0.15726E-07        -0.23872E-11         0.00000E+00
    0.15726E-07        -0.19621E-11         0.00000E+00
    0.15726E-07        -0.14612E-11         0.00000E+00
    0.15726E-07        -0.90214E-12         0.00000E+00
    0.15726E-07        -0.30520E-12         0.00000E+00
    0.15870E-07        -0.39048E-12         0.00000E+00
    0.15870E-07        -0.11337E-11         0.00000E+00
    0.15870E-07        -0.17870E-11         0.00000E+00
    0.15870E-07        -0.23265E-11         0.00000E+00
    0.15870E-07        -0.27377E-11         0.00000E+00
    0.15870E-07        -0.30136E-11         0.00000E+00
    0.15870E-07        -0.31530E-11         0.00000E+00
    0.15870E-07        -0.31594E-11         0.00000E+00
    0.15870E-07        -0.30394E-11         0.00000E+00
    0.15870E-07        -0.28020E-11         0.00000E+00
    0.15870E-07        -0.24583E-11         0.00000E+00
    0.15870E-07        -0.20215E-11         0.00000E+00
    0.15871E-07        -0.15065E-11         0.00000E+00
    0.15871E-07        -0.93103E-12         0.00000E+00
    0.15871E-07        -0.31525E-12         0.00000E+00
    0.16095E-07        -0.41770E-12         0.00000E+00
    0.16095E-07        -0.12081E-11         0.00000E+00
    0.16095E-07        -0.18950E-11         0.00000E+00
    0.16095E-07        -0.24567E-11         0.00000E+00
    0.16095E-07        -0.28806E-11         0.00000E+00
    0.16096E-07        -0.31617E-11         0.00000E+00
    0.16096E-07        -0.33007E-11         0.00000E+00
    0.16096E-07        -0.33021E-11         0.00000E+00
    0.16096E-07        -0.31737E-11         0.00000E+00
    0.16097E-07        -0.29248E-11         0.00000E+00
    0.16097E-07        -0.25667E-11         0.00000E+00
    0.16097E-07        -0.21124E-11         0.00000E+00
    0.16097E-07        -0.15765E-11         0.00000E+00
    0.16097E-07        -0.97606E-12         0.00000E+00
    0.16097E-07        -0.33102E-12         0.00000E+00
    0.16391E-07        -0.45594E-12         0.00000E+00
    0.16391E-07        -0.13117E-11         0.00000E+00
    0.16392E-07        -0.20436E-11         0.00000E+00
    0.16392E-07        -0.26331E-11         0.00000E+00
    0.16392E-07        -0.30714E-11         0.00000E+00
    0.16393E-07        -0.33567E-11         0.00000E+00
    0.16393E-07        -0.34924E-11         0.00000E+00
    0.16394E-07        -0.34856E-11         0.00000E+00
    0.16394E-07        -0.33451E-11         0.00000E+00
    0.16395E-07        -0.30812E-11         0.00000E+00
    0.16395E-07        -0.27051E-11         0.00000E+00
    0.16395E-07        -0.22290E-11         0.00000E+00
    0.16395E-07        -0.16668E-11         0.00000E+00
    0.16396E-07        -0.10347E-11         0.00000E+00
    0.16396E-07        -0.35167E-12         0.00000E+00
    0.16746E-07        -0.50375E-12         0.00000E+00
    0.16747E-07        -0.14402E-11         0.00000E+00
    0.16747E-07        -0.22253E-11         0.00000E+00
    0.16747E-07        -0.28457E-11         0.00000E+00
    0.16748E-07        -0.32978E-11         0.00000E+00
    0.16749E-07        -0.35846E-11         0.00000E+00
    0.16749E-07        -0.37137E-11         0.00000E+00
    0.16750E-07        -0.36952E-11         0.00000E+00
    0.16750E-07        -0.35398E-11         0.00000E+00
    0.16751E-07        -0.32586E-11         0.00000E+00
    0.16751E-07        -0.28625E-11         0.00000E+00
    0.16752E-07        -0.23627E-11         0.00000E+00
    0.16752E-07        -0.17715E-11         0.00000E+00
    0.16752E-07        -0.11034E-11         0.00000E+00
    0.16753E-07        -0.37607E-12         0.00000E+00
    0.17146E-07        -0.55919E-12         0.00000E+00
    0.17146E-07        -0.15877E-11         0.00000E+00
    0.17147E-07        -0.24304E-11         0.00000E+00
    0.17147E-07        -0.30811E-11         0.00000E+00
    0.17148E-07        -0.35434E-11         0.00000E+00
    0.17149E-07        -0.38269E-11         0.00000E+00
    0.17150E-07        -0.39449E-11         0.00000E+00
    0.17150E-07        -0.39113E-11         0.00000E+00
    0.17151E-07        -0.37392E-11         0.00000E+00
    0.17152E-07        -0.34404E-11         0.00000E+00
    0.17152E-07        -0.30250E-11         0.00000E+00
    0.17153E-07        -0.25025E-11         0.00000E+00
    0.17153E-07        -0.18828E-11         0.00000E+00
    0.17154E-07        -0.11777E-11         0.00000E+00
    0.17154E-07        -0.40276E-12         0.00000E+00
    0.17574E-07        -0.61979E-12         0.00000E+00
    0.17575E-07        -0.17465E-11         0.00000E+00
    0.17576E-07        -0.26462E-11         0.00000E+00
    0.17576E-07        -0.33221E-11         0.00000E+00
    0.17577E-07        -0.37873E-11         0.00000E+00
    0.17578E-07        -0.40604E-11         0.00000E+00
    0.17579E-07        -0.41617E-11         0.00000E+00
    0.17580E-07        -0.41097E-11         0.00000E+00
    0.17581E-07        -0.39205E-11         0.00000E+00
    0.17582E-07        -0.36060E-11         0.00000E+00
    0.17582E-07        -0.31753E-11         0.00000E+00
    0.17583E-07        -0.26349E-11         0.00000E+00
    0.17584E-07        -0.19912E-11         0.00000E+00
    0.17584E-07        -0.12522E-11         0.00000E+00
    0.17584E-07        -0.43003E-12         0.00000E+00
    0.18016E-07        -0.68253E-12         0.00000E+00
    0.18017E-07        -0.19076E-11         0.00000E+00
    0.18018E-07        -0.28573E-11         0.00000E+00
    0.18019E-07        -0.35475E-11         0.00000E+00
    0.18020E-07        -0.40041E-11         0.00000E+00
    0.18021E-07        -0.42569E-11         0.00000E+00
    0.18022E-07        -0.43347E-11         0.00000E+00
    0.18023E-07        -0.42619E-11         0.00000E+00
    0.18024E-07        -0.40567E-11         0.00000E+00
    0.18025E-07        -0.37316E-11         0.00000E+00
    0.18026E-07        -0.32932E-11         0.00000E+00
    0.18027E-07        -0.27442E-11         0.00000E+00
    0.18027E-07        -0.20859E-11         0.00000E+00
    0.18028E-07        -0.13207E-11         0.00000E+00
    0.18028E-07        -0.45595E-12         0.00000E+00
    0.18455E-07        -0.74384E-12         0.00000E+00
    0.18456E-07        -0.20598E-11         0.00000E+00
    0.18458E-07        -0.30449E-11         0.00000E+00
    0.18459E-07        -0.37319E-11         0.00000E+00
    0.18460E-07        -0.41635E-11         0.00000E+00
    0.18462E-07        -0.43836E-11         0.00000E+00
    0.18463E-07        -0.44308E-11         0.00000E+00
    0.18464E-07        -0.43353E-11         0.00000E+00
    0.18465E-07        -0.41180E-11         0.00000E+00
    0.18466E-07        -0.37903E-11         0.00000E+00
    0.18467E-07        -0.33560E-11         0.00000E+00
    0.18468E-07        -0.28127E-11         0.00000E+00
    0.18468E-07        -0.21546E-11         0.00000E+00
    0.18469E-07        -0.13764E-11         0.00000E+00
    0.18469E-07        -0.47841E-12         0.00000E+00
    0.18877E-07        -0.79958E-12         0.00000E+00
    0.18879E-07        -0.21899E-11         0.00000E+00
    0.18880E-07        -0.31865E-11         0.00000E+00
    0.18882E-07        -0.38450E-11         0.00000E+00
    0.18883E-07        -0.42303E-11         0.00000E+00
    0.18885E-07        -0.44034E-11         0.00000E+00
    0.18886E-07        -0.44135E-11         0.00000E+00
    0.18887E-07        -0.42958E-11         0.00000E+00
    0.18889E-07        -0.40724E-11         0.00000E+00
    0.18890E-07        -0.37537E-11         0.00000E+00
    0.18891E-07        -0.33395E-11         0.00000E+00
    0.18892E-07        -0.28211E-11         0.00000E+00
    0.18892E-07        -0.21839E-11         0.00000E+00
    0.18893E-07        -0.14119E-11         0.00000E+00
    0.18894E-07        -0.49516E-12         0.00000E+00
    0.19267E-07        -0.84492E-12         0.00000E+00
    0.19269E-07        -0.22822E-11         0.00000E+00
    0.19271E-07        -0.32543E-11         0.00000E+00
    0.19273E-07        -0.38503E-11         0.00000E+00
    0.19275E-07        -0.41645E-11         0.00000E+00
    0.19277E-07        -0.42769E-11         0.00000E+00
    0.19278E-07        -0.42459E-11         0.00000E+00
    0.19280E-07        -0.41096E-11         0.00000E+00
    0.19281E-07        -0.38894E-11         0.00000E+00
    0.19282E-07        -0.35936E-11         0.00000E+00
    0.19283E-07        -0.32185E-11         0.00000E+00
    0.19284E-07        -0.27487E-11         0.00000E+00
    0.19285E-07        -0.21590E-11         0.00000E+00
    0.19286E-07        -0.14191E-11         0.00000E+00
    0.19286E-07        -0.50386E-12         0.00000E+00
    0.19613E-07        -0.87381E-12         0.00000E+00
    0.19616E-07        -0.23156E-11         0.00000E+00
    0.19618E-07        -0.32122E-11         0.00000E+00
    0.19621E-07        -0.37035E-11         0.00000E+00
    0.19623E-07        -0.39219E-11         0.00000E+00
    0.19624E-07        -0.39651E-11         0.00000E+00
    0.19626E-07        -0.38953E-11         0.00000E+00
    0.19627E-07        -0.37483E-11         0.00000E+00
    0.19629E-07        -0.35428E-11         0.00000E+00
    0.19630E-07        -0.32847E-11         0.00000E+00
    0.19631E-07        -0.29682E-11         0.00000E+00
    0.19632E-07        -0.25731E-11         0.00000E+00
    0.19633E-07        -0.20630E-11         0.00000E+00
    0.19634E-07        -0.13887E-11         0.00000E+00
    0.19635E-07        -0.50185E-12         0.00000E+00
    0.19904E-07        -0.87733E-12         0.00000E+00
    0.19907E-07        -0.22591E-11         0.00000E+00
    0.19910E-07        -0.30094E-11         0.00000E+00
    0.19913E-07        -0.33501E-11         0.00000E+00
    0.19915E-07        -0.34577E-11         0.00000E+00
    0.19917E-07        -0.34363E-11         0.00000E+00
    0.19918E-07        -0.33395E-11         0.00000E+00
    0.19920E-07        -0.31952E-11         0.00000E+00
    0.19921E-07        -0.30173E-11         0.00000E+00
    0.19922E-07        -0.28096E-11         0.00000E+00
    0.19923E-07        -0.25666E-11         0.00000E+00
    0.19924E-07        -0.22696E-11         0.00000E+00
    0.19925E-07        -0.18744E-11         0.00000E+00
    0.19927E-07        -0.13083E-11         0.00000E+00
    0.19928E-07        -0.48598E-12         0.00000E+00
    0.20130E-07        -0.83846E-12         0.00000E+00
    0.20134E-07        -0.20565E-11         0.00000E+00
    0.20138E-07        -0.25676E-11         0.00000E+00
    0.20140E-07        -0.27290E-11         0.00000E+00
    0.20143E-07        -0.27401E-11         0.00000E+00
    0.20144E-07        -0.26775E-11         0.00000E+00
    0.20146E-07        -0.25760E-11         0.00000E+00
    0.20147E-07        -0.24523E-11         0.00000E+00
    0.20149E-07        -0.23146E-11         0.00000E+00
    0.20150E-07        -0.21651E-11         0.00000E+00
    0.20151E-07        -0.20009E-11         0.00000E+00
    0.20152E-07        -0.18103E-11         0.00000E+00
    0.20153E-07        -0.15617E-11         0.00000E+00
    0.20155E-07        -0.11575E-11         0.00000E+00
    0.20156E-07        -0.44890E-12         0.00000E+00
    0.20284E-07        -0.70855E-12         0.00000E+00
    0.20289E-07        -0.15812E-11         0.00000E+00
    0.20293E-07        -0.17807E-11         0.00000E+00
    0.20296E-07        -0.18080E-11         0.00000E+00
    0.20298E-07        -0.17721E-11         0.00000E+00
    0.20300E-07        -0.17079E-11         0.00000E+00
    0.20302E-07        -0.16303E-11         0.00000E+00
    0.20303E-07        -0.15461E-11         0.00000E+00
    0.20304E-07        -0.14589E-11         0.00000E+00
    0.20306E-07        -0.13700E-11         0.00000E+00
    0.20307E-07        -0.12788E-11         0.00000E+00
    0.20308E-07        -0.11817E-11         0.00000E+00
    0.20309E-07        -0.10675E-11         0.00000E+00
    0.20311E-07        -0.88937E-12         0.00000E+00
    0.20313E-07        -0.38729E-12         0.00000E+00
    0.20362E-07        -0.30574E-12         0.00000E+00
    0.20368E-07        -0.62643E-12         0.00000E+00
    0.20372E-07        -0.64322E-12         0.00000E+00
    0.20375E-07        -0.63605E-12         0.00000E+00
    0.20378E-07        -0.61445E-12         0.00000E+00
    0.20379E-07        -0.58761E-12         0.00000E+00
    0.20381E-07        -0.55845E-12         0.00000E+00
    0.20382E-07        -0.52854E-12         0.00000E+00
    0.20384E-07        -0.49868E-12         0.00000E+00
    0.20385E-07        -0.46934E-12         0.00000E+00
    0.20386E-07        -0.44064E-12         0.00000E+00
    0.20387E-07        -0.41265E-12         0.00000E+00
    0.20388E-07        -0.38266E-12         0.00000E+00
    0.20390E-07        -0.35869E-12         0.00000E+00
    0.20392E-07        -0.17546E-12         0.00000E+00
POINT_DATA        496
VECTORS vDarcyNodal double 
    0.19528E-07         0.00000E+00         0.00000E+00
    0.19525E-07         0.00000E+00         0.00000E+00
    0.19520E-07         0.00000E+00         0.00000E+00
    0.19517E-07         0.00000E+00         0.00000E+00
    0.19515E-07         0.00000E+00         0.00000E+00
    0.19513E-07         0.00000E+00         0.00000E+00
    0.19511E-07         0.00000E+00         0.00000E+00
    0.19510E-07         0.00000E+00         0.00000E+00
    0.19509E-07         0.00000E+00         0.00000E+00
    0.19508E-07         0.00000E+00         0.00000E+00
    0.19507E-07         0.00000E+00         0.00000E+00
    0.19506E-07         0.00000E+00         0.00000E+00
    0.19504E-07        -0.66636E-22         0.00000E+00
    0.19503E-07        -0.72848E-26         0.00000E+00
    0.19501E-07         0.66629E-22         0.00000E+00
    0.19500E-07         0.00000E+00         0.00000E+00
    0.19471E-07        -0.10642E-11         0.00000E+00
    0.19469E-07        -0.14913E-11         0.00000E+00
    0.19464E-07        -0.17303E-11         0.00000E+00
    0.19461E-07        -0.14233E-11         0.00000E+00
    0.19459E-07        -0.12417E-11         0.00000E+00
    0.19457E-07        -0.11317E-11         0.00000E+00
    0.19455E-07        -0.10451E-11         0.00000E+00
    0.19454E-07        -0.97189E-12         0.00000E+00
    0.19453E-07        -0.90762E-12         0.00000E+00
    0.19451E-07        -0.85038E-12         0.00000E+00
    0.19450E-07        -0.79896E-12         0.00000E+00
    0.19449E-07        -0.75237E-12         0.00000E+00
    0.19448E-07        -0.70715E-12         0.00000E+00
    0.19447E-07        -0.66693E-12         0.00000E+00
    0.19445E-07        -0.48493E-12         0.00000E+00
    0.19444E-07        -0.32011E-12         0.00000E+00
    0.19305E-07        -0.69982E-12         0.00000E+00
    0.19303E-07        -0.12703E-11         0.00000E+00
    0.19299E-07        -0.20776E-11         0.00000E+00
    0.19296E-07        -0.23009E-11         0.00000E+00
    0.19294E-07        -0.22260E-11         0.00000E+00
    0.19292E-07        -0.21007E-11         0.00000E+00
    0.19290E-07        -0.19742E-11         0.00000E+00
    0.19289E-07        -0.18518E-11         0.00000E+00
    0.19288E-07        -0.17354E-11         0.00000E+00
    0.19286E-07        -0.16247E-11         0.00000E+00
    0.19285E-07        -0.15175E-11         0.00000E+00
    0.19284E-07        -0.14080E-11         0.00000E+00
    0.19283E-07        -0.12832E-11         0.00000E+00
    0.19282E-07        -0.10828E-11         0.00000E+00
    0.19280E-07        -0.66636E-12         0.00000E+00
    0.19280E-07        -0.38190E-12         0.00000E+00
    0.19040E-07        -0.76416E-12         0.00000E+00
    0.19038E-07        -0.13617E-11         0.00000E+00
    0.19035E-07        -0.22814E-11         0.00000E+00
    0.19033E-07        -0.27301E-11         0.00000E+00
    0.19030E-07        -0.28603E-11         0.00000E+00
    0.19029E-07        -0.28184E-11         0.00000E+00
    0.19027E-07        -0.27081E-11         0.00000E+00
    0.19026E-07        -0.25706E-11         0.00000E+00
    0.19024E-07        -0.24211E-11         0.00000E+00
    0.19023E-07        -0.22646E-11         0.00000E+00
    0.19022E-07        -0.20984E-11         0.00000E+00
    0.19021E-07        -0.19115E-11         0.00000E+00
    0.19020E-07        -0.16733E-11         0.00000E+00
    0.19019E-07        -0.13212E-11         0.00000E+00
    0.19018E-07        -0.76370E-12         0.00000E+00
    0.19017E-07        -0.42077E-12         0.00000E+00
    0.18694E-07        -0.75781E-12         0.00000E+00
    0.18693E-07        -0.13801E-11         0.00000E+00
    0.18690E-07        -0.23805E-11         0.00000E+00
    0.18688E-07        -0.29531E-11         0.00000E+00
    0.18686E-07        -0.32168E-11         0.00000E+00
    0.18684E-07        -0.32779E-11         0.00000E+00
    0.18682E-07        -0.32193E-11         0.00000E+00
    0.18681E-07        -0.30949E-11         0.00000E+00
    0.18680E-07        -0.29316E-11         0.00000E+00
    0.18679E-07        -0.27399E-11         0.00000E+00
    0.18677E-07        -0.25184E-11         0.00000E+00
    0.18676E-07        -0.22529E-11         0.00000E+00
    0.18675E-07        -0.19131E-11         0.00000E+00
    0.18674E-07        -0.14506E-11         0.00000E+00
    0.18673E-07        -0.80739E-12         0.00000E+00
    0.18673E-07        -0.43327E-12         0.00000E+00
    0.18288E-07        -0.73093E-12         0.00000E+00
    0.18287E-07        -0.13469E-11         0.00000E+00
    0.18285E-07        -0.23701E-11         0.00000E+00
    0.18283E-07        -0.30180E-11         0.00000E+00
    0.18281E-07        -0.33749E-11         0.00000E+00
    0.18279E-07        -0.35203E-11         0.00000E+00
    0.18278E-07        -0.35209E-11         0.00000E+00
    0.18276E-07        -0.34251E-11         0.00000E+00
    0.18275E-07        -0.32629E-11         0.00000E+00
    0.18274E-07        -0.30484E-11         0.00000E+00
    0.18273E-07        -0.27824E-11         0.00000E+00
    0.18272E-07        -0.24534E-11         0.00000E+00
    0.18271E-07        -0.20381E-11         0.00000E+00
    0.18270E-07        -0.15037E-11         0.00000E+00
    0.18269E-07        -0.81663E-12         0.00000E+00
    0.18269E-07        -0.43098E-12         0.00000E+00
    0.17846E-07        -0.68366E-12         0.00000E+00
    0.17845E-07        -0.12742E-11         0.00000E+00
    0.17844E-07        -0.22808E-11         0.00000E+00
    0.17842E-07        -0.29653E-11         0.00000E+00
    0.17841E-07        -0.33840E-11         0.00000E+00
    0.17839E-07        -0.35946E-11         0.00000E+00
    0.17838E-07        -0.36483E-11         0.00000E+00
    0.17836E-07        -0.35855E-11         0.00000E+00
    0.17835E-07        -0.34339E-11         0.00000E+00
    0.17834E-07        -0.32085E-11         0.00000E+00
    0.17833E-07        -0.29130E-11         0.00000E+00
    0.17832E-07        -0.25408E-11         0.00000E+00
    0.17831E-07        -0.20772E-11         0.00000E+00
    0.17831E-07        -0.15033E-11         0.00000E+00
    0.17830E-07        -0.80237E-12         0.00000E+00
    0.17830E-07        -0.41843E-12         0.00000E+00
    0.17395E-07        -0.62693E-12         0.00000E+00
    0.17395E-07        -0.11796E-11         0.00000E+00
    0.17393E-07        -0.21423E-11         0.00000E+00
    0.17392E-07        -0.28343E-11         0.00000E+00
    0.17390E-07        -0.32895E-11         0.00000E+00
    0.17389E-07        -0.35469E-11         0.00000E+00
    0.17388E-07        -0.36440E-11         0.00000E+00
    0.17387E-07        -0.36129E-11         0.00000E+00
    0.17386E-07        -0.34769E-11         0.00000E+00
    0.17385E-07        -0.32508E-11         0.00000E+00
    0.17384E-07        -0.29403E-11         0.00000E+00
    0.17383E-07        -0.25442E-11         0.00000E+00
    0.17382E-07        -0.20558E-11         0.00000E+00
    0.17381E-07        -0.14669E-11         0.00000E+00
    0.17381E-07        -0.77299E-12         0.00000E+00
    0.17381E-07        -0.39954E-12         0.00000E+00
    0.16959E-07        -0.56752E-12         0.00000E+00
    0.16959E-07        -0.10769E-11         0.00000E+00
    0.16958E-07        -0.19808E-11         0.00000E+00
    0.16957E-07        -0.26604E-11         0.00000E+00
    0.16956E-07        -0.31324E-11         0.00000E+00
    0.16954E-07        -0.34208E-11         0.00000E+00
    0.16953E-07        -0.35514E-11         0.00000E+00
    0.16952E-07        -0.35480E-11         0.00000E+00
    0.16951E-07        -0.34296E-11         0.00000E+00
    0.16950E-07        -0.32098E-11         0.00000E+00
    0.16950E-07        -0.28961E-11         0.00000E+00
    0.16949E-07        -0.24915E-11         0.00000E+00
    0.16948E-07        -0.19958E-11         0.00000E+00
    0.16948E-07        -0.14092E-11         0.00000E+00
    0.16947E-07        -0.73544E-12         0.00000E+00
    0.16947E-07        -0.37756E-12         0.00000E+00
    0.16562E-07        -0.51086E-12         0.00000E+00
    0.16562E-07        -0.97686E-12         0.00000E+00
    0.16561E-07        -0.18171E-11         0.00000E+00
    0.16560E-07        -0.24730E-11         0.00000E+00
    0.16559E-07        -0.29485E-11         0.00000E+00
    0.16558E-07        -0.32556E-11         0.00000E+00
    0.16557E-07        -0.34105E-11         0.00000E+00
    0.16556E-07        -0.34300E-11         0.00000E+00
    0.16555E-07        -0.33291E-11         0.00000E+00
    0.16555E-07        -0.31198E-11         0.00000E+00
    0.16554E-07        -0.28107E-11         0.00000E+00
    0.16553E-07        -0.24081E-11         0.00000E+00
    0.16553E-07        -0.19168E-11         0.00000E+00
    0.16552E-07        -0.13428E-11         0.00000E+00
    0.16552E-07        -0.69562E-12         0.00000E+00
    0.16552E-07        -0.35525E-12         0.00000E+00
    0.16224E-07        -0.46093E-12         0.00000E+00
    0.16223E-07        -0.88744E-12         0.00000E+00
    0.16223E-07        -0.16674E-11         0.00000E+00
    0.16222E-07        -0.22956E-11         0.00000E+00
    0.16221E-07        -0.27668E-11         0.00000E+00
    0.16220E-07        -0.30840E-11         0.00000E+00
    0.16219E-07        -0.32560E-11         0.00000E+00
    0.16219E-07        -0.32936E-11         0.00000E+00
    0.16218E-07        -0.32085E-11         0.00000E+00
    0.16217E-07        -0.30111E-11         0.00000E+00
    0.16217E-07        -0.27108E-11         0.00000E+00
    0.16216E-07        -0.23159E-11         0.00000E+00
    0.16216E-07        -0.18350E-11         0.00000E+00
    0.16215E-07        -0.12780E-11         0.00000E+00
    0.16215E-07        -0.65838E-12         0.00000E+00
    0.16215E-07        -0.33490E-12         0.00000E+00
    0.15959E-07        -0.42051E-12         0.00000E+00
    0.15959E-07        -0.81443E-12         0.00000E+00
    0.15958E-07        -0.15433E-11         0.00000E+00
    0.15958E-07        -0.21458E-11         0.00000E+00
    0.15957E-07        -0.26098E-11         0.00000E+00
    0.15956E-07        -0.29321E-11         0.00000E+00
    0.15956E-07        -0.31157E-11         0.00000E+00
    0.15955E-07        -0.31672E-11         0.00000E+00
    0.15955E-07        -0.30951E-11         0.00000E+00
    0.15954E-07        -0.29090E-11         0.00000E+00
    0.15954E-07        -0.26182E-11         0.00000E+00
    0.15953E-07        -0.22327E-11         0.00000E+00
    0.15953E-07        -0.17634E-11         0.00000E+00
    0.15953E-07        -0.12230E-11         0.00000E+00
    0.15952E-07        -0.62754E-12         0.00000E+00
    0.15952E-07        -0.31828E-12         0.00000E+00
    0.15780E-07        -0.39141E-12         0.00000E+00
    0.15780E-07        -0.76167E-12         0.00000E+00
    0.15779E-07        -0.14532E-11         0.00000E+00
    0.15779E-07        -0.20360E-11         0.00000E+00
    0.15778E-07        -0.24939E-11         0.00000E+00
    0.15778E-07        -0.28191E-11         0.00000E+00
    0.15778E-07        -0.30108E-11         0.00000E+00
    0.15777E-07        -0.30723E-11         0.00000E+00
    0.15777E-07        -0.30102E-11         0.00000E+00
    0.15776E-07        -0.28328E-11         0.00000E+00
    0.15776E-07        -0.25498E-11         0.00000E+00
    0.15776E-07        -0.21720E-11         0.00000E+00
    0.15775E-07        -0.17119E-11         0.00000E+00
    0.15775E-07        -0.11840E-11         0.00000E+00
    0.15775E-07        -0.60591E-12         0.00000E+00
    0.15775E-07        -0.30671E-12         0.00000E+00
    0.15693E-07        -0.37469E-12         0.00000E+00
    0.15693E-07        -0.73146E-12         0.00000E+00
    0.15692E-07        -0.14019E-11         0.00000E+00
    0.15692E-07        -0.19743E-11         0.00000E+00
    0.15692E-07        -0.24298E-11         0.00000E+00
    0.15691E-07        -0.27581E-11         0.00000E+00
    0.15691E-07        -0.29556E-11         0.00000E+00
    0.15691E-07        -0.30239E-11         0.00000E+00
    0.15691E-07        -0.29681E-11         0.00000E+00
    0.15690E-07        -0.27960E-11         0.00000E+00
    0.15690E-07        -0.25171E-11         0.00000E+00
    0.15690E-07        -0.21431E-11         0.00000E+00
    0.15690E-07        -0.16872E-11         0.00000E+00
    0.15690E-07        -0.11651E-11         0.00000E+00
    0.15690E-07        -0.59535E-12         0.00000E+00
    0.15690E-07        -0.30104E-12         0.00000E+00
    0.15700E-07        -0.37081E-12         0.00000E+00
    0.15699E-07        -0.72488E-12         0.00000E+00
    0.15699E-07        -0.13921E-11         0.00000E+00
    0.15699E-07        -0.19650E-11         0.00000E+00
    0.15699E-07        -0.24235E-11         0.00000E+00
    0.15699E-07        -0.27563E-11         0.00000E+00
    0.15699E-07        -0.29585E-11         0.00000E+00
    0.15699E-07        -0.30307E-11         0.00000E+00
    0.15698E-07        -0.29775E-11         0.00000E+00
    0.15698E-07        -0.28064E-11         0.00000E+00
    0.15698E-07        -0.25270E-11         0.00000E+00
    0.15698E-07        -0.21512E-11         0.00000E+00
    0.15698E-07        -0.16930E-11         0.00000E+00
    0.15698E-07        -0.11685E-11         0.00000E+00
    0.15698E-07        -0.59683E-12         0.00000E+00
    0.15698E-07        -0.30169E-12         0.00000E+00
    0.15798E-07        -0.37978E-12         0.00000E+00
    0.15798E-07        -0.74203E-12         0.00000E+00
    0.15798E-07        -0.14241E-11         0.00000E+00
    0.15798E-07        -0.20090E-11         0.00000E+00
    0.15798E-07        -0.24768E-11         0.00000E+00
    0.15798E-07        -0.28161E-11         0.00000E+00
    0.15798E-07        -0.30222E-11         0.00000E+00
    0.15798E-07        -0.30958E-11         0.00000E+00
    0.15798E-07        -0.30414E-11         0.00000E+00
    0.15798E-07        -0.28667E-11         0.00000E+00
    0.15798E-07        -0.25815E-11         0.00000E+00
    0.15798E-07        -0.21980E-11         0.00000E+00
    0.15798E-07        -0.17303E-11         0.00000E+00
    0.15798E-07        -0.11948E-11         0.00000E+00
    0.15798E-07        -0.61051E-12         0.00000E+00
    0.15798E-07        -0.30872E-12         0.00000E+00
    0.15982E-07        -0.40118E-12         0.00000E+00
    0.15982E-07        -0.78214E-12         0.00000E+00
    0.15982E-07        -0.14966E-11         0.00000E+00
    0.15982E-07        -0.21045E-11         0.00000E+00
    0.15982E-07        -0.25874E-11         0.00000E+00
    0.15983E-07        -0.29352E-11         0.00000E+00
    0.15983E-07        -0.31444E-11         0.00000E+00
    0.15983E-07        -0.32167E-11         0.00000E+00
    0.15983E-07        -0.31574E-11         0.00000E+00
    0.15983E-07        -0.29747E-11         0.00000E+00
    0.15984E-07        -0.26788E-11         0.00000E+00
    0.15984E-07        -0.22818E-11         0.00000E+00
    0.15984E-07        -0.17977E-11         0.00000E+00
    0.15984E-07        -0.12428E-11         0.00000E+00
    0.15984E-07        -0.63577E-12         0.00000E+00
    0.15984E-07        -0.32179E-12         0.00000E+00
    0.16243E-07        -0.43421E-12         0.00000E+00
    0.16243E-07        -0.84363E-12         0.00000E+00
    0.16243E-07        -0.16065E-11         0.00000E+00
    0.16243E-07        -0.22471E-11         0.00000E+00
    0.16244E-07        -0.27498E-11         0.00000E+00
    0.16244E-07        -0.31071E-11         0.00000E+00
    0.16244E-07        -0.33180E-11         0.00000E+00
    0.16245E-07        -0.33861E-11         0.00000E+00
    0.16245E-07        -0.33184E-11         0.00000E+00
    0.16245E-07        -0.31237E-11         0.00000E+00
    0.16246E-07        -0.28127E-11         0.00000E+00
    0.16246E-07        -0.23974E-11         0.00000E+00
    0.16246E-07        -0.18912E-11         0.00000E+00
    0.16246E-07        -0.13098E-11         0.00000E+00
    0.16246E-07        -0.67130E-12         0.00000E+00
    0.16247E-07        -0.34024E-12         0.00000E+00
    0.16569E-07        -0.47766E-12         0.00000E+00
    0.16569E-07        -0.92403E-12         0.00000E+00
    0.16569E-07        -0.17488E-11         0.00000E+00
    0.16569E-07        -0.24295E-11         0.00000E+00
    0.16570E-07        -0.29546E-11         0.00000E+00
    0.16570E-07        -0.33209E-11         0.00000E+00
    0.16571E-07        -0.35311E-11         0.00000E+00
    0.16572E-07        -0.35919E-11         0.00000E+00
    0.16572E-07        -0.35123E-11         0.00000E+00
    0.16573E-07        -0.33026E-11         0.00000E+00
    0.16573E-07        -0.29735E-11         0.00000E+00
    0.16573E-07        -0.25367E-11         0.00000E+00
    0.16574E-07        -0.20046E-11         0.00000E+00
    0.16574E-07        -0.13918E-11         0.00000E+00
    0.16574E-07        -0.71507E-12         0.00000E+00
    0.16574E-07        -0.36309E-12         0.00000E+00
    0.16946E-07        -0.52984E-12         0.00000E+00
    0.16946E-07        -0.10199E-11         0.00000E+00
    0.16947E-07        -0.19167E-11         0.00000E+00
    0.16947E-07        -0.26415E-11         0.00000E+00
    0.16948E-07        -0.31888E-11         0.00000E+00
    0.16948E-07        -0.35614E-11         0.00000E+00
    0.16949E-07        -0.37671E-11         0.00000E+00
    0.16950E-07        -0.38169E-11         0.00000E+00
    0.16951E-07        -0.37226E-11         0.00000E+00
    0.16951E-07        -0.34958E-11         0.00000E+00
    0.16952E-07        -0.31476E-11         0.00000E+00
    0.16952E-07        -0.26886E-11         0.00000E+00
    0.16953E-07        -0.21296E-11         0.00000E+00
    0.16953E-07        -0.14832E-11         0.00000E+00
    0.16953E-07        -0.76442E-12         0.00000E+00
    0.16953E-07        -0.38904E-12         0.00000E+00
    0.17360E-07        -0.58854E-12         0.00000E+00
    0.17360E-07        -0.11269E-11         0.00000E+00
    0.17361E-07        -0.21013E-11         0.00000E+00
    0.17361E-07        -0.28699E-11         0.00000E+00
    0.17362E-07        -0.34356E-11         0.00000E+00
    0.17363E-07        -0.38089E-11         0.00000E+00
    0.17364E-07        -0.40047E-11         0.00000E+00
    0.17365E-07        -0.40393E-11         0.00000E+00
    0.17366E-07        -0.39279E-11         0.00000E+00
    0.17366E-07        -0.36838E-11         0.00000E+00
    0.17367E-07        -0.33178E-11         0.00000E+00
    0.17368E-07        -0.28390E-11         0.00000E+00
    0.17368E-07        -0.22557E-11         0.00000E+00
    0.17369E-07        -0.15773E-11         0.00000E+00
    0.17369E-07        -0.81607E-12         0.00000E+00
    0.17369E-07        -0.41648E-12         0.00000E+00
    0.17795E-07        -0.65103E-12         0.00000E+00
    0.17795E-07        -0.12394E-11         0.00000E+00
    0.17796E-07        -0.22914E-11         0.00000E+00
    0.17797E-07        -0.30983E-11         0.00000E+00
    0.17798E-07        -0.36737E-11         0.00000E+00
    0.17799E-07        -0.40388E-11         0.00000E+00
    0.17800E-07        -0.42174E-11         0.00000E+00
    0.17801E-07        -0.42321E-11         0.00000E+00
    0.17802E-07        -0.41023E-11         0.00000E+00
    0.17803E-07        -0.38427E-11         0.00000E+00
    0.17804E-07        -0.34635E-11         0.00000E+00
    0.17804E-07        -0.29712E-11         0.00000E+00
    0.17805E-07        -0.23705E-11         0.00000E+00
    0.17806E-07        -0.16661E-11         0.00000E+00
    0.17806E-07        -0.86618E-12         0.00000E+00
    0.17806E-07        -0.44359E-12         0.00000E+00
    0.18235E-07        -0.71401E-12         0.00000E+00
    0.18236E-07        -0.13507E-11         0.00000E+00
    0.18237E-07        -0.24734E-11         0.00000E+00
    0.18238E-07        -0.33064E-11         0.00000E+00
    0.18240E-07        -0.38778E-11         0.00000E+00
    0.18241E-07        -0.42221E-11         0.00000E+00
    0.18242E-07        -0.43742E-11         0.00000E+00
    0.18243E-07        -0.43644E-11         0.00000E+00
    0.18244E-07        -0.42163E-11         0.00000E+00
    0.18245E-07        -0.39456E-11         0.00000E+00
    0.18246E-07        -0.35612E-11         0.00000E+00
    0.18247E-07        -0.30661E-11         0.00000E+00
    0.18247E-07        -0.24597E-11         0.00000E+00
    0.18248E-07        -0.17405E-11         0.00000E+00
    0.18249E-07        -0.91048E-12         0.00000E+00
    0.18249E-07        -0.46832E-12         0.00000E+00
    0.18666E-07        -0.77365E-12         0.00000E+00
    0.18667E-07        -0.14529E-11         0.00000E+00
    0.18668E-07        -0.26312E-11         0.00000E+00
    0.18670E-07        -0.34703E-11         0.00000E+00
    0.18671E-07        -0.40176E-11         0.00000E+00
    0.18673E-07        -0.43249E-11         0.00000E+00
    0.18674E-07        -0.44401E-11         0.00000E+00
    0.18675E-07        -0.44017E-11         0.00000E+00
    0.18676E-07        -0.42370E-11         0.00000E+00
    0.18677E-07        -0.39627E-11         0.00000E+00
    0.18678E-07        -0.35851E-11         0.00000E+00
    0.18679E-07        -0.31026E-11         0.00000E+00
    0.18680E-07        -0.25076E-11         0.00000E+00
    0.18681E-07        -0.17905E-11         0.00000E+00
    0.18681E-07        -0.94432E-12         0.00000E+00
    0.18682E-07        -0.48850E-12         0.00000E+00
    0.19072E-07        -0.82550E-12         0.00000E+00
    0.19073E-07        -0.15366E-11         0.00000E+00
    0.19075E-07        -0.27452E-11         0.00000E+00
    0.19077E-07        -0.35611E-11         0.00000E+00
    0.19078E-07        -0.40577E-11         0.00000E+00
    0.19080E-07        -0.43089E-11         0.00000E+00
    0.19082E-07        -0.43768E-11         0.00000E+00
    0.19083E-07        -0.43076E-11         0.00000E+00
    0.19084E-07        -0.41312E-11         0.00000E+00
    0.19085E-07        -0.38635E-11         0.00000E+00
    0.19086E-07        -0.35081E-11         0.00000E+00
    0.19087E-07        -0.30581E-11         0.00000E+00
    0.19088E-07        -0.24974E-11         0.00000E+00
    0.19089E-07        -0.18053E-11         0.00000E+00
    0.19090E-07        -0.96271E-12         0.00000E+00
    0.19090E-07        -0.50182E-12         0.00000E+00
    0.19440E-07        -0.86432E-12         0.00000E+00
    0.19442E-07        -0.15904E-11         0.00000E+00
    0.19444E-07        -0.27912E-11         0.00000E+00
    0.19446E-07        -0.35435E-11         0.00000E+00
    0.19448E-07        -0.39571E-11         0.00000E+00
    0.19450E-07        -0.41326E-11         0.00000E+00
    0.19451E-07        -0.41461E-11         0.00000E+00
    0.19453E-07        -0.40479E-11         0.00000E+00
    0.19454E-07        -0.38678E-11         0.00000E+00
    0.19455E-07        -0.36195E-11         0.00000E+00
    0.19456E-07        -0.33039E-11         0.00000E+00
    0.19457E-07        -0.29091E-11         0.00000E+00
    0.19458E-07        -0.24104E-11         0.00000E+00
    0.19459E-07        -0.17728E-11         0.00000E+00
    0.19460E-07        -0.96022E-12         0.00000E+00
    0.19461E-07        -0.50589E-12         0.00000E+00
    0.19759E-07        -0.88330E-12         0.00000E+00
    0.19760E-07        -0.15990E-11         0.00000E+00
    0.19763E-07        -0.27366E-11         0.00000E+00
    0.19766E-07        -0.33723E-11         0.00000E+00
    0.19768E-07        -0.36683E-11         0.00000E+00
    0.19770E-07        -0.37544E-11         0.00000E+00
    0.19771E-07        -0.37144E-11         0.00000E+00
    0.19773E-07        -0.35957E-11         0.00000E+00
    0.19774E-07        -0.34234E-11         0.00000E+00
    0.19775E-07        -0.32081E-11         0.00000E+00
    0.19776E-07        -0.29490E-11         0.00000E+00
    0.19777E-07        -0.26321E-11         0.00000E+00
    0.19779E-07        -0.22258E-11         0.00000E+00
    0.19780E-07        -0.16790E-11         0.00000E+00
    0.19781E-07        -0.93035E-12         0.00000E+00
    0.19781E-07        -0.49781E-12         0.00000E+00
    0.20017E-07        -0.87135E-12         0.00000E+00
    0.20019E-07        -0.15375E-11         0.00000E+00
    0.20022E-07        -0.25319E-11         0.00000E+00
    0.20025E-07        -0.29872E-11         0.00000E+00
    0.20028E-07        -0.31396E-11         0.00000E+00
    0.20030E-07        -0.31397E-11         0.00000E+00
    0.20031E-07        -0.30615E-11         0.00000E+00
    0.20033E-07        -0.29390E-11         0.00000E+00
    0.20034E-07        -0.27892E-11         0.00000E+00
    0.20035E-07        -0.26189E-11         0.00000E+00
    0.20036E-07        -0.24273E-11         0.00000E+00
    0.20038E-07        -0.22041E-11         0.00000E+00
    0.20039E-07        -0.19182E-11         0.00000E+00
    0.20040E-07        -0.15038E-11         0.00000E+00
    0.20041E-07        -0.86396E-12         0.00000E+00
    0.20042E-07        -0.47415E-12         0.00000E+00
    0.20207E-07        -0.80557E-12         0.00000E+00
    0.20210E-07        -0.13575E-11         0.00000E+00
    0.20214E-07        -0.20923E-11         0.00000E+00
    0.20217E-07        -0.23094E-11         0.00000E+00
    0.20219E-07        -0.23296E-11         0.00000E+00
    0.20221E-07        -0.22780E-11         0.00000E+00
    0.20223E-07        -0.21921E-11         0.00000E+00
    0.20225E-07        -0.20894E-11         0.00000E+00
    0.20226E-07        -0.19778E-11         0.00000E+00
    0.20227E-07        -0.18608E-11         0.00000E+00
    0.20228E-07        -0.17388E-11         0.00000E+00
    0.20229E-07        -0.16072E-11         0.00000E+00
    0.20231E-07        -0.14539E-11         0.00000E+00
    0.20232E-07        -0.12155E-11         0.00000E+00
    0.20234E-07        -0.74248E-12         0.00000E+00
    0.20234E-07        -0.42365E-12         0.00000E+00
    0.20324E-07        -0.61157E-12         0.00000E+00
    0.20326E-07        -0.93230E-12         0.00000E+00
    0.20331E-07        -0.12698E-11         0.00000E+00
    0.20334E-07        -0.12794E-11         0.00000E+00
    0.20337E-07        -0.12506E-11         0.00000E+00
    0.20339E-07        -0.12022E-11         0.00000E+00
    0.20341E-07        -0.11462E-11         0.00000E+00
    0.20342E-07        -0.10871E-11         0.00000E+00
    0.20343E-07        -0.10273E-11         0.00000E+00
    0.20345E-07        -0.96811E-12         0.00000E+00
    0.20346E-07        -0.91007E-12         0.00000E+00
    0.20347E-07        -0.85338E-12         0.00000E+00
    0.20348E-07        -0.79538E-12         0.00000E+00
    0.20350E-07        -0.74141E-12         0.00000E+00
    0.20351E-07        -0.53419E-12         0.00000E+00
    0.20352E-07        -0.35094E-12         0.00000E+00
    0.20363E-07         0.00000E+00         0.00000E+00
    0.20366E-07         0.00000E+00         0.00000E+00
    0.20370E-07        -0.57942E-22         0.00000E+00
    0.20374E-07         0.11982E-25         0.00000E+00
    0.20376E-07         0.62094E-22         0.00000E+00
    0.20379E-07         0.00000E+00         0.00000E+00
    0.20380E-07         0.00000E+00         0.00000E+00
    0.20382E-07        -0.57988E-22         0.00000E+00
    0.20383E-07        -0.57988E-22         0.00000E+00
    0.20384E-07         0.58000E-22         0.00000E+00
    0.20385E-07         0.62143E-22         0.00000E+00
    0.20386E-07        -0.62155E-22         0.00000E+00
    0.20388E-07        -0.41381E-23         0.00000E+00
    0.20389E-07         0.62163E-22         0.00000E+00
    0.20391E-07         0.82892E-23         0.00000E+00
    0.20392E-07         0.00000E+00         0.00000E+00
CELL_DATA        450
TENSORS stressef double 
    0.44387E+08        -0.18253E+06         0.00000E+00
   -0.18253E+06         0.23707E+08         0.00000E+00
    0.00000E+00         0.00000E+00         0.15877E+08
 
    0.41032E+08        -0.56239E+06         0.00000E+00
   -0.56239E+06         0.22881E+08         0.00000E+00
    0.00000E+00         0.00000E+00         0.12783E+08
 
    0.36616E+08        -0.57669E+06         0.00000E+00
   -0.57669E+06         0.21848E+08         0.00000E+00
    0.00000E+00         0.00000E+00         0.11693E+08
 
    0.33533E+08        -0.47919E+06         0.00000E+00
   -0.47919E+06         0.20860E+08         0.00000E+00
    0.00000E+00         0.00000E+00         0.10879E+08
 
    0.31020E+08        -0.40252E+06         0.00000E+00
   -0.40252E+06         0.20008E+08         0.00000E+00
    0.00000E+00         0.00000E+00         0.10206E+08
 
    0.28849E+08        -0.33257E+06         0.00000E+00
   -0.33257E+06         0.19290E+08         0.00000E+00
    0.00000E+00         0.00000E+00         0.96279E+07
 
    0.26892E+08        -0.26492E+06         0.00000E+00
   -0.26492E+06         0.18703E+08         0.00000E+00
    0.00000E+00         0.00000E+00         0.91190E+07
 
    0.25059E+08        -0.19635E+06         0.00000E+00
   -0.19635E+06         0.18249E+08         0.00000E+00
    0.00000E+00         0.00000E+00         0.86616E+07
 
    0.23278E+08        -0.12414E+06         0.00000E+00
   -0.12414E+06         0.17934E+08         0.00000E+00
    0.00000E+00         0.00000E+00         0.82424E+07
 
    0.21483E+08        -0.45213E+05         0.00000E+00
   -0.45213E+05         0.17768E+08         0.00000E+00
    0.00000E+00         0.00000E+00         0.78502E+07
 
    0.19600E+08         0.44914E+05         0.00000E+00
    0.44914E+05         0.17771E+08         0.00000E+00
    0.00000E+00         0.00000E+00         0.74741E+07
 
    0.17536E+08         0.15386E+06         0.00000E+00
    0.15386E+06         0.17972E+08         0.00000E+00
    0.00000E+00         0.00000E+00         0.71015E+07
 
    0.15152E+08         0.29774E+06         0.00000E+00
    0.29774E+06         0.18424E+08         0.00000E+00
    0.00000E+00         0.00000E+00         0.67154E+07
 
    0.12203E+08         0.51284E+06         0.00000E+00
    0.51284E+06         0.19235E+08         0.00000E+00
    0.00000E+00         0.00000E+00         0.62876E+07
 
    0.79804E+07         0.10334E+07         0.00000E+00
    0.10334E+07         0.20702E+08         0.00000E+00
    0.00000E+00         0.00000E+00         0.57365E+07
 
    0.41296E+08        -0.35372E+06         0.00000E+00
   -0.35372E+06         0.20598E+08         0.00000E+00
    0.00000E+00         0.00000E+00         0.12508E+08
 
    0.37635E+08        -0.11932E+07         0.00000E+00
   -0.11932E+07         0.20541E+08         0.00000E+00
    0.00000E+00         0.00000E+00         0.11635E+08
 
    0.33996E+08        -0.14177E+07         0.00000E+00
   -0.14177E+07         0.20069E+08         0.00000E+00
    0.00000E+00         0.00000E+00         0.10813E+08
 
    0.30939E+08        -0.12999E+07         0.00000E+00
   -0.12999E+07         0.19419E+08         0.00000E+00
    0.00000E+00         0.00000E+00         0.10072E+08
 
    0.28430E+08        -0.11298E+07         0.00000E+00
   -0.11298E+07         0.18755E+08         0.00000E+00
    0.00000E+00         0.00000E+00         0.94369E+07
 
    0.26259E+08        -0.94878E+06         0.00000E+00
   -0.94878E+06         0.18152E+08         0.00000E+00
    0.00000E+00         0.00000E+00         0.88823E+07
 
    0.24305E+08        -0.76110E+06         0.00000E+00
   -0.76110E+06         0.17643E+08         0.00000E+00
    0.00000E+00         0.00000E+00         0.83895E+07
 
    0.22478E+08        -0.56429E+06         0.00000E+00
   -0.56429E+06         0.17245E+08         0.00000E+00
    0.00000E+00         0.00000E+00         0.79445E+07
 
    0.20709E+08        -0.35312E+06         0.00000E+00
   -0.35312E+06         0.16971E+08         0.00000E+00
    0.00000E+00         0.00000E+00         0.75361E+07
 
    0.18932E+08        -0.11962E+06         0.00000E+00
   -0.11962E+06         0.16840E+08         0.00000E+00
    0.00000E+00         0.00000E+00         0.71543E+07
 
    0.17077E+08         0.14900E+06         0.00000E+00
    0.14900E+06         0.16871E+08         0.00000E+00
    0.00000E+00         0.00000E+00         0.67896E+07
 
    0.15064E+08         0.47544E+06         0.00000E+00
    0.47544E+06         0.17097E+08         0.00000E+00
    0.00000E+00         0.00000E+00         0.64321E+07
 
    0.12779E+08         0.90550E+06         0.00000E+00
    0.90550E+06         0.17570E+08         0.00000E+00
    0.00000E+00         0.00000E+00         0.60697E+07
 
    0.10047E+08         0.15537E+07         0.00000E+00
    0.15537E+07         0.18381E+08         0.00000E+00
    0.00000E+00         0.00000E+00         0.56857E+07
 
    0.68249E+07         0.27953E+07         0.00000E+00
    0.27953E+07         0.19660E+08         0.00000E+00
    0.00000E+00         0.00000E+00         0.52971E+07
 
    0.37679E+08        -0.57551E+06         0.00000E+00
   -0.57551E+06         0.18184E+08         0.00000E+00
    0.00000E+00         0.00000E+00         0.11173E+08
 
    0.34335E+08        -0.14027E+07         0.00000E+00
   -0.14027E+07         0.17999E+08         0.00000E+00
    0.00000E+00         0.00000E+00         0.10467E+08
 
    0.31201E+08        -0.18055E+07         0.00000E+00
   -0.18055E+07         0.17799E+08         0.00000E+00
    0.00000E+00         0.00000E+00         0.98000E+07
 
    0.28373E+08        -0.18303E+07         0.00000E+00
   -0.18303E+07         0.17472E+08         0.00000E+00
    0.00000E+00         0.00000E+00         0.91690E+07
 
    0.25927E+08        -0.16714E+07         0.00000E+00
   -0.16714E+07         0.17053E+08         0.00000E+00
    0.00000E+00         0.00000E+00         0.85959E+07
 
    0.23785E+08        -0.14390E+07         0.00000E+00
   -0.14390E+07         0.16626E+08         0.00000E+00
    0.00000E+00         0.00000E+00         0.80822E+07
 
    0.21850E+08        -0.11671E+07         0.00000E+00
   -0.11671E+07         0.16244E+08         0.00000E+00
    0.00000E+00         0.00000E+00         0.76189E+07
 
    0.20044E+08        -0.86467E+06         0.00000E+00
   -0.86467E+06         0.15942E+08         0.00000E+00
    0.00000E+00         0.00000E+00         0.71972E+07
 
    0.18302E+08        -0.52932E+06         0.00000E+00
   -0.52932E+06         0.15742E+08         0.00000E+00
    0.00000E+00         0.00000E+00         0.68089E+07
 
    0.16564E+08        -0.15124E+06         0.00000E+00
   -0.15124E+06         0.15669E+08         0.00000E+00
    0.00000E+00         0.00000E+00         0.64465E+07
 
    0.14770E+08         0.28851E+06         0.00000E+00
    0.28851E+06         0.15746E+08         0.00000E+00
    0.00000E+00         0.00000E+00         0.61031E+07
 
    0.12856E+08         0.82451E+06         0.00000E+00
    0.82451E+06         0.16004E+08         0.00000E+00
    0.00000E+00         0.00000E+00         0.57721E+07
 
    0.10752E+08         0.15233E+07         0.00000E+00
    0.15233E+07         0.16486E+08         0.00000E+00
    0.00000E+00         0.00000E+00         0.54477E+07
 
    0.84186E+07         0.25253E+07         0.00000E+00
    0.25253E+07         0.17237E+08         0.00000E+00
    0.00000E+00         0.00000E+00         0.51311E+07
 
    0.59413E+07         0.40513E+07         0.00000E+00
    0.40513E+07         0.18221E+08         0.00000E+00
    0.00000E+00         0.00000E+00         0.48324E+07
 
    0.33920E+08        -0.63940E+06         0.00000E+00
   -0.63940E+06         0.15556E+08         0.00000E+00
    0.00000E+00         0.00000E+00         0.98953E+07
 
    0.31045E+08        -0.15240E+07         0.00000E+00
   -0.15240E+07         0.15519E+08         0.00000E+00
    0.00000E+00         0.00000E+00         0.93127E+07
 
    0.28301E+08        -0.19822E+07         0.00000E+00
   -0.19822E+07         0.15428E+08         0.00000E+00
    0.00000E+00         0.00000E+00         0.87458E+07
 
    0.25758E+08        -0.21094E+07         0.00000E+00
   -0.21094E+07         0.15279E+08         0.00000E+00
    0.00000E+00         0.00000E+00         0.82074E+07
 
    0.23461E+08        -0.20078E+07         0.00000E+00
   -0.20078E+07         0.15060E+08         0.00000E+00
    0.00000E+00         0.00000E+00         0.77042E+07
 
    0.21396E+08        -0.17712E+07         0.00000E+00
   -0.17712E+07         0.14808E+08         0.00000E+00
    0.00000E+00         0.00000E+00         0.72409E+07
 
    0.19512E+08        -0.14521E+07         0.00000E+00
   -0.14521E+07         0.14569E+08         0.00000E+00
    0.00000E+00         0.00000E+00         0.68161E+07
 
    0.17750E+08        -0.10712E+07         0.00000E+00
   -0.10712E+07         0.14379E+08         0.00000E+00
    0.00000E+00         0.00000E+00         0.64258E+07
 
    0.16056E+08        -0.63201E+06         0.00000E+00
   -0.63201E+06         0.14268E+08         0.00000E+00
    0.00000E+00         0.00000E+00         0.60650E+07
 
    0.14381E+08        -0.12577E+06         0.00000E+00
   -0.12577E+06         0.14263E+08         0.00000E+00
    0.00000E+00         0.00000E+00         0.57290E+07
 
    0.12678E+08         0.46887E+06         0.00000E+00
    0.46887E+06         0.14389E+08         0.00000E+00
    0.00000E+00         0.00000E+00         0.54135E+07
 
    0.10905E+08         0.11910E+07         0.00000E+00
    0.11910E+07         0.14671E+08         0.00000E+00
    0.00000E+00         0.00000E+00         0.51152E+07
 
    0.90358E+07         0.21090E+07         0.00000E+00
    0.21090E+07         0.15132E+08         0.00000E+00
    0.00000E+00         0.00000E+00         0.48336E+07
 
    0.70886E+07         0.33275E+07         0.00000E+00
    0.33275E+07         0.15771E+08         0.00000E+00
    0.00000E+00         0.00000E+00         0.45719E+07
 
    0.51675E+07         0.49714E+07         0.00000E+00
    0.49714E+07         0.16532E+08         0.00000E+00
    0.00000E+00         0.00000E+00         0.43400E+07
 
    0.30164E+08        -0.63312E+06         0.00000E+00
   -0.63312E+06         0.12969E+08         0.00000E+00
    0.00000E+00         0.00000E+00         0.86267E+07
 
    0.27759E+08        -0.15369E+07         0.00000E+00
   -0.15369E+07         0.12995E+08         0.00000E+00
    0.00000E+00         0.00000E+00         0.81508E+07
 
    0.25382E+08        -0.20390E+07         0.00000E+00
   -0.20390E+07         0.13006E+08         0.00000E+00
    0.00000E+00         0.00000E+00         0.76777E+07
 
    0.23118E+08        -0.22248E+07         0.00000E+00
   -0.22248E+07         0.12975E+08         0.00000E+00
    0.00000E+00         0.00000E+00         0.72187E+07
 
    0.21011E+08        -0.21732E+07         0.00000E+00
   -0.21732E+07         0.12899E+08         0.00000E+00
    0.00000E+00         0.00000E+00         0.67820E+07
 
    0.19069E+08        -0.19527E+07         0.00000E+00
   -0.19527E+07         0.12792E+08         0.00000E+00
    0.00000E+00         0.00000E+00         0.63722E+07
 
    0.17272E+08        -0.16118E+07         0.00000E+00
   -0.16118E+07         0.12682E+08         0.00000E+00
    0.00000E+00         0.00000E+00         0.59907E+07
 
    0.15583E+08        -0.11767E+07         0.00000E+00
   -0.11767E+07         0.12601E+08         0.00000E+00
    0.00000E+00         0.00000E+00         0.56368E+07
 
    0.13964E+08        -0.65556E+06         0.00000E+00
   -0.65556E+06         0.12578E+08         0.00000E+00
    0.00000E+00         0.00000E+00         0.53084E+07
 
    0.12377E+08        -0.42342E+05         0.00000E+00
   -0.42342E+05         0.12639E+08         0.00000E+00
    0.00000E+00         0.00000E+00         0.50031E+07
 
    0.10790E+08         0.68256E+06         0.00000E+00
    0.68256E+06         0.12805E+08         0.00000E+00
    0.00000E+00         0.00000E+00         0.47191E+07
 
    0.91820E+07         0.15548E+07         0.00000E+00
    0.15548E+07         0.13096E+08         0.00000E+00
    0.00000E+00         0.00000E+00         0.44555E+07
 
    0.75529E+07         0.26285E+07         0.00000E+00
    0.26285E+07         0.13516E+08         0.00000E+00
    0.00000E+00         0.00000E+00         0.42137E+07
 
    0.59414E+07         0.39735E+07         0.00000E+00
    0.39735E+07         0.14048E+08         0.00000E+00
    0.00000E+00         0.00000E+00         0.39979E+07
 
    0.44413E+07         0.56590E+07         0.00000E+00
    0.56590E+07         0.14638E+08         0.00000E+00
    0.00000E+00         0.00000E+00         0.38159E+07
 
    0.26492E+08        -0.59634E+06         0.00000E+00
   -0.59634E+06         0.10422E+08         0.00000E+00
    0.00000E+00         0.00000E+00         0.73828E+07
 
    0.24510E+08        -0.14807E+07         0.00000E+00
   -0.14807E+07         0.10486E+08         0.00000E+00
    0.00000E+00         0.00000E+00         0.69991E+07
 
    0.22477E+08        -0.20031E+07         0.00000E+00
   -0.20031E+07         0.10561E+08         0.00000E+00
    0.00000E+00         0.00000E+00         0.66077E+07
 
    0.20485E+08        -0.22268E+07         0.00000E+00
   -0.22268E+07         0.10617E+08         0.00000E+00
    0.00000E+00         0.00000E+00         0.62204E+07
 
    0.18584E+08        -0.22116E+07         0.00000E+00
   -0.22116E+07         0.10643E+08         0.00000E+00
    0.00000E+00         0.00000E+00         0.58455E+07
 
    0.16796E+08        -0.20096E+07         0.00000E+00
   -0.20096E+07         0.10645E+08         0.00000E+00
    0.00000E+00         0.00000E+00         0.54882E+07
 
    0.15118E+08        -0.16606E+07         0.00000E+00
   -0.16606E+07         0.10639E+08         0.00000E+00
    0.00000E+00         0.00000E+00         0.51515E+07
 
    0.13531E+08        -0.11896E+07         0.00000E+00
   -0.11896E+07         0.10651E+08         0.00000E+00
    0.00000E+00         0.00000E+00         0.48364E+07
 
    0.12011E+08        -0.60689E+06         0.00000E+00
   -0.60689E+06         0.10703E+08         0.00000E+00
    0.00000E+00         0.00000E+00         0.45428E+07
 
    0.10535E+08         0.90264E+05         0.00000E+00
    0.90264E+05         0.10818E+08         0.00000E+00
    0.00000E+00         0.00000E+00         0.42705E+07
 
    0.90824E+07         0.91686E+06         0.00000E+00
    0.91686E+06         0.11013E+08         0.00000E+00
    0.00000E+00         0.00000E+00         0.40191E+07
 
    0.76478E+07         0.18999E+07         0.00000E+00
    0.18999E+07         0.11299E+08         0.00000E+00
    0.00000E+00         0.00000E+00         0.37893E+07
 
    0.62442E+07         0.30771E+07         0.00000E+00
    0.30771E+07         0.11673E+08         0.00000E+00
    0.00000E+00         0.00000E+00         0.35835E+07
 
    0.49145E+07         0.44911E+07         0.00000E+00
    0.44911E+07         0.12114E+08         0.00000E+00
    0.00000E+00         0.00000E+00         0.34056E+07
 
    0.37378E+07         0.61773E+07         0.00000E+00
    0.61773E+07         0.12573E+08         0.00000E+00
    0.00000E+00         0.00000E+00         0.32621E+07
 
    0.22948E+08        -0.54695E+06         0.00000E+00
   -0.54695E+06         0.79314E+07         0.00000E+00
    0.00000E+00         0.00000E+00         0.61760E+07
 
    0.21330E+08        -0.13846E+07         0.00000E+00
   -0.13846E+07         0.80131E+07         0.00000E+00
    0.00000E+00         0.00000E+00         0.58685E+07
 
    0.19611E+08        -0.19055E+07         0.00000E+00
   -0.19055E+07         0.81270E+07         0.00000E+00
    0.00000E+00         0.00000E+00         0.55476E+07
 
    0.17881E+08        -0.21497E+07         0.00000E+00
   -0.21497E+07         0.82390E+07         0.00000E+00
    0.00000E+00         0.00000E+00         0.52240E+07
 
    0.16194E+08        -0.21593E+07         0.00000E+00
   -0.21593E+07         0.83344E+07         0.00000E+00
    0.00000E+00         0.00000E+00         0.49056E+07
 
    0.14578E+08        -0.19730E+07         0.00000E+00
   -0.19730E+07         0.84128E+07         0.00000E+00
    0.00000E+00         0.00000E+00         0.45982E+07
 
    0.13043E+08        -0.16220E+07         0.00000E+00
   -0.16220E+07         0.84844E+07         0.00000E+00
    0.00000E+00         0.00000E+00         0.43054E+07
 
    0.11582E+08        -0.11277E+07         0.00000E+00
   -0.11277E+07         0.85654E+07         0.00000E+00
    0.00000E+00         0.00000E+00         0.40294E+07
 
    0.10183E+08        -0.50078E+06         0.00000E+00
   -0.50078E+06         0.86741E+07         0.00000E+00
    0.00000E+00         0.00000E+00         0.37715E+07
 
    0.88348E+07         0.25841E+06         0.00000E+00
    0.25841E+06         0.88275E+07         0.00000E+00
    0.00000E+00         0.00000E+00         0.35325E+07
 
    0.75281E+07         0.11591E+07         0.00000E+00
    0.11591E+07         0.90382E+07         0.00000E+00
    0.00000E+00         0.00000E+00         0.33133E+07
 
    0.62657E+07         0.22188E+07         0.00000E+00
    0.22188E+07         0.93113E+07         0.00000E+00
    0.00000E+00         0.00000E+00         0.31154E+07
 
    0.50666E+07         0.34603E+07         0.00000E+00
    0.34603E+07         0.96403E+07         0.00000E+00
    0.00000E+00         0.00000E+00         0.29414E+07
 
    0.39714E+07         0.49060E+07         0.00000E+00
    0.49060E+07         0.10004E+08         0.00000E+00
    0.00000E+00         0.00000E+00         0.27950E+07
 
    0.30451E+07         0.65702E+07         0.00000E+00
    0.65702E+07         0.10363E+08         0.00000E+00
    0.00000E+00         0.00000E+00         0.26815E+07
 
    0.19553E+08        -0.49324E+06         0.00000E+00
   -0.49324E+06         0.55001E+07         0.00000E+00
    0.00000E+00         0.00000E+00         0.50107E+07
 
    0.18241E+08        -0.12694E+07         0.00000E+00
   -0.12694E+07         0.55881E+07         0.00000E+00
    0.00000E+00         0.00000E+00         0.47659E+07
 
    0.16804E+08        -0.17721E+07         0.00000E+00
   -0.17721E+07         0.57201E+07         0.00000E+00
    0.00000E+00         0.00000E+00         0.45047E+07
 
    0.15321E+08        -0.20224E+07         0.00000E+00
   -0.20224E+07         0.58633E+07         0.00000E+00
    0.00000E+00         0.00000E+00         0.42368E+07
 
    0.13847E+08        -0.20468E+07         0.00000E+00
   -0.20468E+07         0.60007E+07         0.00000E+00
    0.00000E+00         0.00000E+00         0.39696E+07
 
    0.12415E+08        -0.18720E+07         0.00000E+00
   -0.18720E+07         0.61278E+07         0.00000E+00
    0.00000E+00         0.00000E+00         0.37085E+07
 
    0.11039E+08        -0.15215E+07         0.00000E+00
   -0.15215E+07         0.62496E+07         0.00000E+00
    0.00000E+00         0.00000E+00         0.34577E+07
 
    0.97227E+07        -0.10125E+07         0.00000E+00
   -0.10125E+07         0.63766E+07         0.00000E+00
    0.00000E+00         0.00000E+00         0.32198E+07
 
    0.84630E+07        -0.35533E+06         0.00000E+00
   -0.35533E+06         0.65216E+07         0.00000E+00
    0.00000E+00         0.00000E+00         0.29969E+07
 
    0.72557E+07         0.44714E+06         0.00000E+00
    0.44714E+06         0.66968E+07         0.00000E+00
    0.00000E+00         0.00000E+00         0.27905E+07
 
    0.61002E+07         0.13986E+07         0.00000E+00
    0.13986E+07         0.69104E+07         0.00000E+00
    0.00000E+00         0.00000E+00         0.26021E+07
 
    0.50043E+07         0.25078E+07         0.00000E+00
    0.25078E+07         0.71642E+07         0.00000E+00
    0.00000E+00         0.00000E+00         0.24337E+07
 
    0.39885E+07         0.37854E+07         0.00000E+00
    0.37854E+07         0.74506E+07         0.00000E+00
    0.00000E+00         0.00000E+00         0.22878E+07
 
    0.30886E+07         0.52394E+07         0.00000E+00
    0.52394E+07         0.77503E+07         0.00000E+00
    0.00000E+00         0.00000E+00         0.21678E+07
 
    0.23570E+07         0.68697E+07         0.00000E+00
    0.68697E+07         0.80319E+07         0.00000E+00
    0.00000E+00         0.00000E+00         0.20778E+07
 
    0.16311E+08        -0.44007E+06         0.00000E+00
   -0.44007E+06         0.31272E+07         0.00000E+00
    0.00000E+00         0.00000E+00         0.38877E+07
 
    0.15255E+08        -0.11489E+07         0.00000E+00
   -0.11489E+07         0.32137E+07         0.00000E+00
    0.00000E+00         0.00000E+00         0.36937E+07
 
    0.14065E+08        -0.16236E+07         0.00000E+00
   -0.16236E+07         0.33488E+07         0.00000E+00
    0.00000E+00         0.00000E+00         0.34828E+07
 
    0.12814E+08        -0.18696E+07         0.00000E+00
   -0.18696E+07         0.35029E+07         0.00000E+00
    0.00000E+00         0.00000E+00         0.32633E+07
 
    0.11550E+08        -0.19005E+07         0.00000E+00
   -0.19005E+07         0.36590E+07         0.00000E+00
    0.00000E+00         0.00000E+00         0.30417E+07
 
    0.10306E+08        -0.17331E+07         0.00000E+00
   -0.17331E+07         0.38104E+07         0.00000E+00
    0.00000E+00         0.00000E+00         0.28233E+07
 
    0.91007E+07        -0.13837E+07         0.00000E+00
   -0.13837E+07         0.39583E+07         0.00000E+00
    0.00000E+00         0.00000E+00         0.26118E+07
 
    0.79423E+07        -0.86580E+06         0.00000E+00
   -0.86580E+06         0.41090E+07         0.00000E+00
    0.00000E+00         0.00000E+00         0.24103E+07
 
    0.68338E+07        -0.18892E+06         0.00000E+00
   -0.18892E+06         0.42709E+07         0.00000E+00
    0.00000E+00         0.00000E+00         0.22209E+07
 
    0.57764E+07         0.64208E+06         0.00000E+00
    0.64208E+06         0.44522E+07         0.00000E+00
    0.00000E+00         0.00000E+00         0.20457E+07
 
    0.47742E+07         0.16262E+07         0.00000E+00
    0.16262E+07         0.46577E+07         0.00000E+00
    0.00000E+00         0.00000E+00         0.18864E+07
 
    0.38376E+07         0.27649E+07         0.00000E+00
    0.27649E+07         0.48872E+07         0.00000E+00
    0.00000E+00         0.00000E+00         0.17450E+07
 
    0.29860E+07         0.40595E+07         0.00000E+00
    0.40595E+07         0.51332E+07         0.00000E+00
    0.00000E+00         0.00000E+00         0.16238E+07
 
    0.22497E+07         0.55077E+07         0.00000E+00
    0.55077E+07         0.53795E+07         0.00000E+00
    0.00000E+00         0.00000E+00         0.15258E+07
 
    0.16703E+07         0.70993E+07         0.00000E+00
    0.70993E+07         0.56016E+07         0.00000E+00
    0.00000E+00         0.00000E+00         0.14544E+07
 
    0.13214E+08        -0.39078E+06         0.00000E+00
   -0.39078E+06         0.80790E+06         0.00000E+00
    0.00000E+00         0.00000E+00         0.28044E+07
 
    0.12370E+08        -0.10336E+07         0.00000E+00
   -0.10336E+07         0.88696E+06         0.00000E+00
    0.00000E+00         0.00000E+00         0.26514E+07
 
    0.11399E+08        -0.14758E+07         0.00000E+00
   -0.14758E+07         0.10137E+07         0.00000E+00
    0.00000E+00         0.00000E+00         0.24826E+07
 
    0.10362E+08        -0.17111E+07         0.00000E+00
   -0.17111E+07         0.11628E+07         0.00000E+00
    0.00000E+00         0.00000E+00         0.23050E+07
 
    0.93017E+07        -0.17427E+07         0.00000E+00
   -0.17427E+07         0.13186E+07         0.00000E+00
    0.00000E+00         0.00000E+00         0.21241E+07
 
    0.82481E+07        -0.15790E+07         0.00000E+00
   -0.15790E+07         0.14737E+07         0.00000E+00
    0.00000E+00         0.00000E+00         0.19443E+07
 
    0.72201E+07        -0.12306E+07         0.00000E+00
   -0.12306E+07         0.16271E+07         0.00000E+00
    0.00000E+00         0.00000E+00         0.17694E+07
 
    0.62285E+07        -0.70752E+06         0.00000E+00
   -0.70752E+06         0.17820E+07         0.00000E+00
    0.00000E+00         0.00000E+00         0.16021E+07
 
    0.52793E+07        -0.18402E+05         0.00000E+00
   -0.18402E+05         0.19436E+07         0.00000E+00
    0.00000E+00         0.00000E+00         0.14446E+07
 
    0.43772E+07         0.83037E+06         0.00000E+00
    0.83037E+06         0.21169E+07         0.00000E+00
    0.00000E+00         0.00000E+00         0.12988E+07
 
    0.35284E+07         0.18341E+07         0.00000E+00
    0.18341E+07         0.23047E+07         0.00000E+00
    0.00000E+00         0.00000E+00         0.11666E+07
 
    0.27437E+07         0.29887E+07         0.00000E+00
    0.29887E+07         0.25057E+07         0.00000E+00
    0.00000E+00         0.00000E+00         0.10499E+07
 
    0.20402E+07         0.42885E+07         0.00000E+00
    0.42885E+07         0.27131E+07         0.00000E+00
    0.00000E+00         0.00000E+00         0.95066E+06
 
    0.14426E+07         0.57236E+07         0.00000E+00
    0.57236E+07         0.29141E+07         0.00000E+00
    0.00000E+00         0.00000E+00         0.87134E+06
 
    0.98295E+06         0.72769E+07         0.00000E+00
    0.72769E+07         0.30897E+07         0.00000E+00
    0.00000E+00         0.00000E+00         0.81454E+06
 
    0.10246E+08        -0.34787E+06         0.00000E+00
   -0.34787E+06        -0.14656E+07         0.00000E+00
    0.00000E+00         0.00000E+00         0.17561E+07
 
    0.95784E+07        -0.93102E+06         0.00000E+00
   -0.93102E+06        -0.13983E+07         0.00000E+00
    0.00000E+00         0.00000E+00         0.16360E+07
 
    0.88015E+07        -0.13410E+07         0.00000E+00
   -0.13410E+07        -0.12886E+07         0.00000E+00
    0.00000E+00         0.00000E+00         0.15026E+07
 
    0.79631E+07        -0.15627E+07         0.00000E+00
   -0.15627E+07        -0.11570E+07         0.00000E+00
    0.00000E+00         0.00000E+00         0.13612E+07
 
    0.70990E+07        -0.15914E+07         0.00000E+00
   -0.15914E+07        -0.10167E+07         0.00000E+00
    0.00000E+00         0.00000E+00         0.12165E+07
 
    0.62348E+07        -0.14288E+07         0.00000E+00
   -0.14288E+07        -0.87466E+06         0.00000E+00
    0.00000E+00         0.00000E+00         0.10720E+07
 
    0.53876E+07        -0.10808E+07         0.00000E+00
   -0.10808E+07        -0.73289E+06         0.00000E+00
    0.00000E+00         0.00000E+00         0.93095E+06
 
    0.45683E+07        -0.55478E+06         0.00000E+00
   -0.55478E+06        -0.59006E+06         0.00000E+00
    0.00000E+00         0.00000E+00         0.79564E+06
 
    0.37838E+07         0.14167E+06         0.00000E+00
    0.14167E+06        -0.44319E+06         0.00000E+00
    0.00000E+00         0.00000E+00         0.66811E+06
 
    0.30399E+07         0.10010E+07         0.00000E+00
    0.10010E+07        -0.28936E+06         0.00000E+00
    0.00000E+00         0.00000E+00         0.55011E+06
 
    0.23434E+07         0.20158E+07         0.00000E+00
    0.20158E+07        -0.12725E+06         0.00000E+00
    0.00000E+00         0.00000E+00         0.44323E+06
 
    0.17040E+07         0.31779E+07         0.00000E+00
    0.31779E+07         0.41541E+05         0.00000E+00
    0.00000E+00         0.00000E+00         0.34911E+06
 
    0.11357E+07         0.44763E+07         0.00000E+00
    0.44763E+07         0.21152E+06         0.00000E+00
    0.00000E+00         0.00000E+00         0.26944E+06
 
    0.65760E+06         0.58962E+07         0.00000E+00
    0.58962E+07         0.37287E+06         0.00000E+00
    0.00000E+00         0.00000E+00         0.20609E+06
 
    0.29359E+06         0.74156E+07         0.00000E+00
    0.74156E+07         0.51169E+06         0.00000E+00
    0.00000E+00         0.00000E+00         0.16106E+06
 
    0.73842E+07        -0.31322E+06         0.00000E+00
   -0.31322E+06        -0.37033E+07         0.00000E+00
    0.00000E+00         0.00000E+00         0.73618E+06
 
    0.68647E+07        -0.84692E+06         0.00000E+00
   -0.84692E+06        -0.36512E+07         0.00000E+00
    0.00000E+00         0.00000E+00         0.64270E+06
 
    0.62610E+07        -0.12286E+07         0.00000E+00
   -0.12286E+07        -0.35651E+07         0.00000E+00
    0.00000E+00         0.00000E+00         0.53917E+06
 
    0.56083E+07        -0.14369E+07         0.00000E+00
   -0.14369E+07        -0.34604E+07         0.00000E+00
    0.00000E+00         0.00000E+00         0.42959E+06
 
    0.49339E+07        -0.14609E+07         0.00000E+00
   -0.14609E+07        -0.33472E+07         0.00000E+00
    0.00000E+00         0.00000E+00         0.31734E+06
 
    0.42574E+07        -0.12978E+07         0.00000E+00
   -0.12978E+07        -0.32311E+07         0.00000E+00
    0.00000E+00         0.00000E+00         0.20524E+06
 
    0.35926E+07        -0.94961E+06         0.00000E+00
   -0.94961E+06        -0.31144E+07         0.00000E+00
    0.00000E+00         0.00000E+00         0.95632E+05
 
    0.29486E+07        -0.42156E+06         0.00000E+00
   -0.42156E+06        -0.29965E+07         0.00000E+00
    0.00000E+00         0.00000E+00        -0.95832E+04
 
    0.23320E+07         0.27937E+06         0.00000E+00
    0.27937E+06        -0.28760E+07         0.00000E+00
    0.00000E+00         0.00000E+00        -0.10880E+06
 
    0.17479E+07         0.11450E+07         0.00000E+00
    0.11450E+07        -0.27509E+07         0.00000E+00
    0.00000E+00         0.00000E+00        -0.20062E+06
 
    0.12022E+07         0.21660E+07         0.00000E+00
    0.21660E+07        -0.26209E+07         0.00000E+00
    0.00000E+00         0.00000E+00        -0.28375E+06
 
    0.70259E+06         0.33311E+07         0.00000E+00
    0.33311E+07        -0.24873E+07         0.00000E+00
    0.00000E+00         0.00000E+00        -0.35695E+06
 
    0.25965E+06         0.46261E+07         0.00000E+00
    0.46261E+07        -0.23542E+07         0.00000E+00
    0.00000E+00         0.00000E+00        -0.41891E+06
 
   -0.11298E+06         0.60324E+07         0.00000E+00
    0.60324E+07        -0.22285E+07         0.00000E+00
    0.00000E+00         0.00000E+00        -0.46829E+06
 
   -0.39877E+06         0.75250E+07         0.00000E+00
    0.75250E+07        -0.21197E+07         0.00000E+00
    0.00000E+00         0.00000E+00        -0.50369E+06
 
    0.46009E+07        -0.28822E+06         0.00000E+00
   -0.28822E+06        -0.59170E+07         0.00000E+00
    0.00000E+00         0.00000E+00        -0.26323E+06
 
    0.42088E+07        -0.78552E+06         0.00000E+00
   -0.78552E+06        -0.58824E+07         0.00000E+00
    0.00000E+00         0.00000E+00        -0.33470E+06
 
    0.37630E+07        -0.11456E+07         0.00000E+00
   -0.11456E+07        -0.58245E+07         0.00000E+00
    0.00000E+00         0.00000E+00        -0.41230E+06
 
    0.32861E+07        -0.13427E+07         0.00000E+00
   -0.13427E+07        -0.57534E+07         0.00000E+00
    0.00000E+00         0.00000E+00        -0.49347E+06
 
    0.27957E+07        -0.13621E+07         0.00000E+00
   -0.13621E+07        -0.56757E+07         0.00000E+00
    0.00000E+00         0.00000E+00        -0.57601E+06
 
    0.23049E+07        -0.11975E+07         0.00000E+00
   -0.11975E+07        -0.55952E+07         0.00000E+00
    0.00000E+00         0.00000E+00        -0.65807E+06
 
    0.18230E+07        -0.84848E+06         0.00000E+00
   -0.84848E+06        -0.55134E+07         0.00000E+00
    0.00000E+00         0.00000E+00        -0.73808E+06
 
    0.13563E+07        -0.31868E+06         0.00000E+00
   -0.31868E+06        -0.54301E+07         0.00000E+00
    0.00000E+00         0.00000E+00        -0.81476E+06
 
    0.90931E+06         0.38547E+06         0.00000E+00
    0.38547E+06        -0.53444E+07         0.00000E+00
    0.00000E+00         0.00000E+00        -0.88702E+06
 
    0.48568E+06         0.12554E+07         0.00000E+00
    0.12554E+07        -0.52552E+07         0.00000E+00
    0.00000E+00         0.00000E+00        -0.95390E+06
 
    0.89428E+05         0.22803E+07         0.00000E+00
    0.22803E+07        -0.51621E+07         0.00000E+00
    0.00000E+00         0.00000E+00        -0.10145E+07
 
   -0.27434E+06         0.34473E+07         0.00000E+00
    0.34473E+07        -0.50661E+07         0.00000E+00
    0.00000E+00         0.00000E+00        -0.10681E+07
 
   -0.59890E+06         0.47397E+07         0.00000E+00
    0.47397E+07        -0.49696E+07         0.00000E+00
    0.00000E+00         0.00000E+00        -0.11137E+07
 
   -0.87575E+06         0.61366E+07         0.00000E+00
    0.61366E+07        -0.48769E+07         0.00000E+00
    0.00000E+00         0.00000E+00        -0.11505E+07
 
   -0.10949E+07         0.76116E+07         0.00000E+00
    0.76116E+07        -0.47936E+07         0.00000E+00
    0.00000E+00         0.00000E+00        -0.11777E+07
 
    0.18651E+07        -0.27376E+06         0.00000E+00
   -0.27376E+06        -0.81194E+07         0.00000E+00
    0.00000E+00         0.00000E+00        -0.12508E+07
 
    0.15875E+07        -0.74963E+06         0.00000E+00
   -0.74963E+06        -0.81035E+07         0.00000E+00
    0.00000E+00         0.00000E+00        -0.13032E+07
 
    0.12897E+07        -0.10965E+07         0.00000E+00
   -0.10965E+07        -0.80769E+07         0.00000E+00
    0.00000E+00         0.00000E+00        -0.13574E+07
 
    0.98173E+06        -0.12864E+07         0.00000E+00
   -0.12864E+07        -0.80437E+07         0.00000E+00
    0.00000E+00         0.00000E+00        -0.14124E+07
 
    0.67162E+06        -0.13024E+07         0.00000E+00
   -0.13024E+07        -0.80070E+07         0.00000E+00
    0.00000E+00         0.00000E+00        -0.14671E+07
 
    0.36519E+06        -0.11361E+07         0.00000E+00
   -0.11361E+07        -0.79683E+07         0.00000E+00
    0.00000E+00         0.00000E+00        -0.15206E+07
 
    0.66490E+05        -0.78569E+06         0.00000E+00
   -0.78569E+06        -0.79280E+07         0.00000E+00
    0.00000E+00         0.00000E+00        -0.15723E+07
 
   -0.22185E+06        -0.25381E+06         0.00000E+00
   -0.25381E+06        -0.78857E+07         0.00000E+00
    0.00000E+00         0.00000E+00        -0.16215E+07
 
   -0.49808E+06         0.45340E+06         0.00000E+00
    0.45340E+06        -0.78406E+07         0.00000E+00
    0.00000E+00         0.00000E+00        -0.16677E+07
 
   -0.76081E+06         0.13271E+07         0.00000E+00
    0.13271E+07        -0.77918E+07         0.00000E+00
    0.00000E+00         0.00000E+00        -0.17105E+07
 
   -0.10085E+07         0.23559E+07         0.00000E+00
    0.23559E+07        -0.77389E+07         0.00000E+00
    0.00000E+00         0.00000E+00        -0.17495E+07
 
   -0.12390E+07         0.35255E+07         0.00000E+00
    0.35255E+07        -0.76821E+07         0.00000E+00
    0.00000E+00         0.00000E+00        -0.17842E+07
 
   -0.14494E+07         0.48181E+07         0.00000E+00
    0.48181E+07        -0.76222E+07         0.00000E+00
    0.00000E+00         0.00000E+00        -0.18143E+07
 
   -0.16363E+07         0.62118E+07         0.00000E+00
    0.62118E+07        -0.75611E+07         0.00000E+00
    0.00000E+00         0.00000E+00        -0.18395E+07
 
   -0.17956E+07         0.76793E+07         0.00000E+00
    0.76793E+07        -0.75009E+07         0.00000E+00
    0.00000E+00         0.00000E+00        -0.18593E+07
 
   -0.85566E+06        -0.27029E+06         0.00000E+00
   -0.27029E+06        -0.10323E+08         0.00000E+00
    0.00000E+00         0.00000E+00        -0.22358E+07
 
   -0.10246E+07        -0.74076E+06         0.00000E+00
   -0.74076E+06        -0.10327E+08         0.00000E+00
    0.00000E+00         0.00000E+00        -0.22703E+07
 
   -0.11788E+07        -0.10841E+07         0.00000E+00
   -0.10841E+07        -0.10333E+08         0.00000E+00
    0.00000E+00         0.00000E+00        -0.23023E+07
 
   -0.13207E+07        -0.12718E+07         0.00000E+00
   -0.12718E+07        -0.10340E+08         0.00000E+00
    0.00000E+00         0.00000E+00        -0.23320E+07
 
   -0.14520E+07        -0.12863E+07         0.00000E+00
   -0.12863E+07        -0.10347E+08         0.00000E+00
    0.00000E+00         0.00000E+00        -0.23597E+07
 
   -0.15745E+07        -0.11186E+07         0.00000E+00
   -0.11186E+07        -0.10353E+08         0.00000E+00
    0.00000E+00         0.00000E+00        -0.23855E+07
 
   -0.16896E+07        -0.76624E+06         0.00000E+00
   -0.76624E+06        -0.10357E+08         0.00000E+00
    0.00000E+00         0.00000E+00        -0.24094E+07
 
   -0.17987E+07        -0.23168E+06         0.00000E+00
   -0.23168E+06        -0.10359E+08         0.00000E+00
    0.00000E+00         0.00000E+00        -0.24316E+07
 
   -0.19033E+07         0.47910E+06         0.00000E+00
    0.47910E+06        -0.10358E+08         0.00000E+00
    0.00000E+00         0.00000E+00        -0.24523E+07
 
   -0.20046E+07         0.13571E+07         0.00000E+00
    0.13571E+07        -0.10352E+08         0.00000E+00
    0.00000E+00         0.00000E+00        -0.24714E+07
 
   -0.21038E+07         0.23906E+07         0.00000E+00
    0.23906E+07        -0.10341E+08         0.00000E+00
    0.00000E+00         0.00000E+00        -0.24890E+07
 
   -0.22020E+07         0.35650E+07         0.00000E+00
    0.35650E+07        -0.10325E+08         0.00000E+00
    0.00000E+00         0.00000E+00        -0.25053E+07
 
   -0.23002E+07         0.48620E+07         0.00000E+00
    0.48620E+07        -0.10301E+08         0.00000E+00
    0.00000E+00         0.00000E+00        -0.25203E+07
 
   -0.23994E+07         0.62595E+07         0.00000E+00
    0.62595E+07        -0.10271E+08         0.00000E+00
    0.00000E+00         0.00000E+00        -0.25341E+07
 
   -0.25012E+07         0.77300E+07         0.00000E+00
    0.77300E+07        -0.10233E+08         0.00000E+00
    0.00000E+00         0.00000E+00        -0.25469E+07
 
   -0.35944E+07        -0.27788E+06         0.00000E+00
   -0.27788E+06        -0.12541E+08         0.00000E+00
    0.00000E+00         0.00000E+00        -0.32272E+07
 
   -0.36531E+07        -0.75924E+06         0.00000E+00
   -0.75924E+06        -0.12564E+08         0.00000E+00
    0.00000E+00         0.00000E+00        -0.32435E+07
 
   -0.36626E+07        -0.11091E+07         0.00000E+00
   -0.11091E+07        -0.12602E+08         0.00000E+00
    0.00000E+00         0.00000E+00        -0.32530E+07
 
   -0.36375E+07        -0.13000E+07         0.00000E+00
   -0.13000E+07        -0.12649E+08         0.00000E+00
    0.00000E+00         0.00000E+00        -0.32573E+07
 
   -0.35893E+07        -0.13153E+07         0.00000E+00
   -0.13153E+07        -0.12700E+08         0.00000E+00
    0.00000E+00         0.00000E+00        -0.32579E+07
 
   -0.35269E+07        -0.11467E+07         0.00000E+00
   -0.11467E+07        -0.12752E+08         0.00000E+00
    0.00000E+00         0.00000E+00        -0.32557E+07
 
   -0.34574E+07        -0.79204E+06         0.00000E+00
   -0.79204E+06        -0.12802E+08         0.00000E+00
    0.00000E+00         0.00000E+00        -0.32518E+07
 
   -0.33865E+07        -0.25409E+06         0.00000E+00
   -0.25409E+06        -0.12848E+08         0.00000E+00
    0.00000E+00         0.00000E+00        -0.32470E+07
 
   -0.33185E+07         0.46098E+06         0.00000E+00
    0.46098E+06        -0.12891E+08         0.00000E+00
    0.00000E+00         0.00000E+00        -0.32419E+07
 
   -0.32577E+07         0.13442E+07         0.00000E+00
    0.13442E+07        -0.12929E+08         0.00000E+00
    0.00000E+00         0.00000E+00        -0.32372E+07
 
   -0.32078E+07         0.23838E+07         0.00000E+00
    0.23838E+07        -0.12960E+08         0.00000E+00
    0.00000E+00         0.00000E+00        -0.32335E+07
 
   -0.31731E+07         0.35655E+07         0.00000E+00
    0.35655E+07        -0.12983E+08         0.00000E+00
    0.00000E+00         0.00000E+00        -0.32313E+07
 
   -0.31584E+07         0.48715E+07         0.00000E+00
    0.48715E+07        -0.12997E+08         0.00000E+00
    0.00000E+00         0.00000E+00        -0.32311E+07
 
   -0.31691E+07         0.62798E+07         0.00000E+00
    0.62798E+07        -0.12998E+08         0.00000E+00
    0.00000E+00         0.00000E+00        -0.32335E+07
 
   -0.32121E+07         0.77639E+07         0.00000E+00
    0.77639E+07        -0.12983E+08         0.00000E+00
    0.00000E+00         0.00000E+00        -0.32390E+07
 
   -0.63830E+07        -0.29617E+06         0.00000E+00
   -0.29617E+06        -0.14786E+08         0.00000E+00
    0.00000E+00         0.00000E+00        -0.42338E+07
 
   -0.63228E+07        -0.80432E+06         0.00000E+00
   -0.80432E+06        -0.14827E+08         0.00000E+00
    0.00000E+00         0.00000E+00        -0.42299E+07
 
   -0.61812E+07        -0.11705E+07         0.00000E+00
   -0.11705E+07        -0.14896E+08         0.00000E+00
    0.00000E+00         0.00000E+00        -0.42154E+07
 
   -0.59845E+07        -0.13700E+07         0.00000E+00
   -0.13700E+07        -0.14980E+08         0.00000E+00
    0.00000E+00         0.00000E+00        -0.41930E+07
 
   -0.57534E+07        -0.13884E+07         0.00000E+00
   -0.13884E+07        -0.15073E+08         0.00000E+00
    0.00000E+00         0.00000E+00        -0.41652E+07
 
   -0.55040E+07        -0.12193E+07         0.00000E+00
   -0.12193E+07        -0.15167E+08         0.00000E+00
    0.00000E+00         0.00000E+00        -0.41342E+07
 
   -0.52485E+07        -0.86204E+06         0.00000E+00
   -0.86204E+06        -0.15260E+08         0.00000E+00
    0.00000E+00         0.00000E+00        -0.41017E+07
 
   -0.49964E+07        -0.32012E+06         0.00000E+00
   -0.32012E+06        -0.15349E+08         0.00000E+00
    0.00000E+00         0.00000E+00        -0.40691E+07
 
   -0.47551E+07         0.39985E+06         0.00000E+00
    0.39985E+06        -0.15434E+08         0.00000E+00
    0.00000E+00         0.00000E+00        -0.40377E+07
 
   -0.45311E+07         0.12889E+07         0.00000E+00
    0.12889E+07        -0.15513E+08         0.00000E+00
    0.00000E+00         0.00000E+00        -0.40088E+07
 
   -0.43307E+07         0.23359E+07         0.00000E+00
    0.23359E+07        -0.15585E+08         0.00000E+00
    0.00000E+00         0.00000E+00        -0.39831E+07
 
   -0.41611E+07         0.35272E+07         0.00000E+00
    0.35272E+07        -0.15648E+08         0.00000E+00
    0.00000E+00         0.00000E+00        -0.39619E+07
 
   -0.40305E+07         0.48460E+07         0.00000E+00
    0.48460E+07        -0.15699E+08         0.00000E+00
    0.00000E+00         0.00000E+00        -0.39459E+07
 
   -0.39490E+07         0.62719E+07         0.00000E+00
    0.62719E+07        -0.15732E+08         0.00000E+00
    0.00000E+00         0.00000E+00        -0.39363E+07
 
   -0.39283E+07         0.77795E+07         0.00000E+00
    0.77795E+07        -0.15741E+08         0.00000E+00
    0.00000E+00         0.00000E+00        -0.39339E+07
 
   -0.92512E+07        -0.32448E+06         0.00000E+00
   -0.32448E+06        -0.17067E+08         0.00000E+00
    0.00000E+00         0.00000E+00        -0.52636E+07
 
   -0.90566E+07        -0.87418E+06         0.00000E+00
   -0.87418E+06        -0.17125E+08         0.00000E+00
    0.00000E+00         0.00000E+00        -0.52363E+07
 
   -0.87524E+07        -0.12656E+07         0.00000E+00
   -0.12656E+07        -0.17221E+08         0.00000E+00
    0.00000E+00         0.00000E+00        -0.51947E+07
 
   -0.83758E+07        -0.14783E+07         0.00000E+00
   -0.14783E+07        -0.17340E+08         0.00000E+00
    0.00000E+00         0.00000E+00        -0.51431E+07
 
   -0.79563E+07        -0.15017E+07         0.00000E+00
   -0.15017E+07        -0.17469E+08         0.00000E+00
    0.00000E+00         0.00000E+00        -0.50851E+07
 
   -0.75165E+07        -0.13325E+07         0.00000E+00
   -0.13325E+07        -0.17601E+08         0.00000E+00
    0.00000E+00         0.00000E+00        -0.50234E+07
 
   -0.70732E+07        -0.97223E+06         0.00000E+00
   -0.97223E+06        -0.17731E+08         0.00000E+00
    0.00000E+00         0.00000E+00        -0.49608E+07
 
   -0.66390E+07        -0.42604E+06         0.00000E+00
   -0.42604E+06        -0.17857E+08         0.00000E+00
    0.00000E+00         0.00000E+00        -0.48992E+07
 
   -0.62235E+07         0.29886E+06         0.00000E+00
    0.29886E+06        -0.17979E+08         0.00000E+00
    0.00000E+00         0.00000E+00        -0.48405E+07
 
   -0.58351E+07         0.11937E+07         0.00000E+00
    0.11937E+07        -0.18096E+08         0.00000E+00
    0.00000E+00         0.00000E+00        -0.47861E+07
 
   -0.54821E+07         0.22482E+07         0.00000E+00
    0.22482E+07        -0.18206E+08         0.00000E+00
    0.00000E+00         0.00000E+00        -0.47377E+07
 
   -0.51741E+07         0.34503E+07         0.00000E+00
    0.34503E+07        -0.18308E+08         0.00000E+00
    0.00000E+00         0.00000E+00        -0.46964E+07
 
   -0.49227E+07         0.47851E+07         0.00000E+00
    0.47851E+07        -0.18396E+08         0.00000E+00
    0.00000E+00         0.00000E+00        -0.46637E+07
 
   -0.47422E+07         0.62340E+07         0.00000E+00
    0.62340E+07        -0.18463E+08         0.00000E+00
    0.00000E+00         0.00000E+00        -0.46410E+07
 
   -0.46494E+07         0.77738E+07         0.00000E+00
    0.77738E+07        -0.18499E+08         0.00000E+00
    0.00000E+00         0.00000E+00        -0.46298E+07
 
   -0.12225E+08        -0.36182E+06         0.00000E+00
   -0.36182E+06        -0.19393E+08         0.00000E+00
    0.00000E+00         0.00000E+00        -0.63237E+07
 
   -0.11875E+08        -0.96604E+06         0.00000E+00
   -0.96604E+06        -0.19466E+08         0.00000E+00
    0.00000E+00         0.00000E+00        -0.62681E+07
 
   -0.11391E+08        -0.13901E+07         0.00000E+00
   -0.13901E+07        -0.19586E+08         0.00000E+00
    0.00000E+00         0.00000E+00        -0.61955E+07
 
   -0.10823E+08        -0.16194E+07         0.00000E+00
   -0.16194E+07        -0.19733E+08         0.00000E+00
    0.00000E+00         0.00000E+00        -0.61112E+07
 
   -0.10208E+08        -0.16488E+07         0.00000E+00
   -0.16488E+07        -0.19891E+08         0.00000E+00
    0.00000E+00         0.00000E+00        -0.60198E+07
 
   -0.95733E+07        -0.14792E+07         0.00000E+00
   -0.14792E+07        -0.20052E+08         0.00000E+00
    0.00000E+00         0.00000E+00        -0.59251E+07
 
   -0.89404E+07        -0.11156E+07         0.00000E+00
   -0.11156E+07        -0.20211E+08         0.00000E+00
    0.00000E+00         0.00000E+00        -0.58303E+07
 
   -0.83235E+07        -0.56537E+06         0.00000E+00
   -0.56537E+06        -0.20366E+08         0.00000E+00
    0.00000E+00         0.00000E+00        -0.57379E+07
 
   -0.77335E+07         0.16356E+06         0.00000E+00
    0.16356E+06        -0.20518E+08         0.00000E+00
    0.00000E+00         0.00000E+00        -0.56503E+07
 
   -0.71796E+07         0.10628E+07         0.00000E+00
    0.10628E+07        -0.20667E+08         0.00000E+00
    0.00000E+00         0.00000E+00        -0.55692E+07
 
   -0.66713E+07         0.21234E+07         0.00000E+00
    0.21234E+07        -0.20811E+08         0.00000E+00
    0.00000E+00         0.00000E+00        -0.54966E+07
 
   -0.62201E+07         0.33357E+07         0.00000E+00
    0.33357E+07        -0.20950E+08         0.00000E+00
    0.00000E+00         0.00000E+00        -0.54340E+07
 
   -0.58407E+07         0.46875E+07         0.00000E+00
    0.46875E+07        -0.21075E+08         0.00000E+00
    0.00000E+00         0.00000E+00        -0.53832E+07
 
   -0.55516E+07         0.61632E+07         0.00000E+00
    0.61632E+07        -0.21178E+08         0.00000E+00
    0.00000E+00         0.00000E+00        -0.53460E+07
 
   -0.53748E+07         0.77422E+07         0.00000E+00
    0.77422E+07        -0.21247E+08         0.00000E+00
    0.00000E+00         0.00000E+00        -0.53243E+07
 
   -0.15328E+08        -0.40689E+06         0.00000E+00
   -0.40689E+06        -0.21773E+08         0.00000E+00
    0.00000E+00         0.00000E+00        -0.74202E+07
 
   -0.14793E+08        -0.10762E+07         0.00000E+00
   -0.10762E+07        -0.21857E+08         0.00000E+00
    0.00000E+00         0.00000E+00        -0.73300E+07
 
   -0.14109E+08        -0.15381E+07         0.00000E+00
   -0.15381E+07        -0.21996E+08         0.00000E+00
    0.00000E+00         0.00000E+00        -0.72210E+07
 
   -0.13335E+08        -0.17856E+07         0.00000E+00
   -0.17856E+07        -0.22163E+08         0.00000E+00
    0.00000E+00         0.00000E+00        -0.70995E+07
 
   -0.12514E+08        -0.18204E+07         0.00000E+00
   -0.18204E+07        -0.22341E+08         0.00000E+00
    0.00000E+00         0.00000E+00        -0.69710E+07
 
   -0.11681E+08        -0.16494E+07         0.00000E+00
   -0.16494E+07        -0.22520E+08         0.00000E+00
    0.00000E+00         0.00000E+00        -0.68401E+07
 
   -0.10857E+08        -0.12822E+07         0.00000E+00
   -0.12822E+07        -0.22695E+08         0.00000E+00
    0.00000E+00         0.00000E+00        -0.67105E+07
 
   -0.10058E+08        -0.72876E+06         0.00000E+00
   -0.72876E+06        -0.22868E+08         0.00000E+00
    0.00000E+00         0.00000E+00        -0.65853E+07
 
   -0.92944E+07         0.19107E+04         0.00000E+00
    0.19107E+04        -0.23040E+08         0.00000E+00
    0.00000E+00         0.00000E+00        -0.64668E+07
 
   -0.85744E+07         0.90208E+06         0.00000E+00
    0.90208E+06        -0.23212E+08         0.00000E+00
    0.00000E+00         0.00000E+00        -0.63573E+07
 
   -0.79080E+07         0.19651E+07         0.00000E+00
    0.19651E+07        -0.23386E+08         0.00000E+00
    0.00000E+00         0.00000E+00        -0.62587E+07
 
   -0.73077E+07         0.31842E+07         0.00000E+00
    0.31842E+07        -0.23558E+08         0.00000E+00
    0.00000E+00         0.00000E+00        -0.61731E+07
 
   -0.67908E+07         0.45515E+07         0.00000E+00
    0.45515E+07        -0.23721E+08         0.00000E+00
    0.00000E+00         0.00000E+00        -0.61024E+07
 
   -0.63801E+07         0.60553E+07         0.00000E+00
    0.60553E+07        -0.23864E+08         0.00000E+00
    0.00000E+00         0.00000E+00        -0.60488E+07
 
   -0.61037E+07         0.76788E+07         0.00000E+00
    0.76788E+07        -0.23970E+08         0.00000E+00
    0.00000E+00         0.00000E+00        -0.60148E+07
 
   -0.18576E+08        -0.45816E+06         0.00000E+00
   -0.45816E+06        -0.24211E+08         0.00000E+00
    0.00000E+00         0.00000E+00        -0.85573E+07
 
   -0.17823E+08        -0.12000E+07         0.00000E+00
   -0.12000E+07        -0.24303E+08         0.00000E+00
    0.00000E+00         0.00000E+00        -0.84252E+07
 
   -0.16913E+08        -0.17019E+07         0.00000E+00
   -0.17019E+07        -0.24453E+08         0.00000E+00
    0.00000E+00         0.00000E+00        -0.82732E+07
 
   -0.15915E+08        -0.19664E+07         0.00000E+00
   -0.19664E+07        -0.24630E+08         0.00000E+00
    0.00000E+00         0.00000E+00        -0.81090E+07
 
   -0.14880E+08        -0.20041E+07         0.00000E+00
   -0.20041E+07        -0.24815E+08         0.00000E+00
    0.00000E+00         0.00000E+00        -0.79390E+07
 
   -0.13844E+08        -0.18298E+07         0.00000E+00
   -0.18298E+07        -0.24997E+08         0.00000E+00
    0.00000E+00         0.00000E+00        -0.77683E+07
 
   -0.12830E+08        -0.14587E+07         0.00000E+00
   -0.14587E+07        -0.25175E+08         0.00000E+00
    0.00000E+00         0.00000E+00        -0.76010E+07
 
   -0.11851E+08        -0.90390E+06         0.00000E+00
   -0.90390E+06        -0.25351E+08         0.00000E+00
    0.00000E+00         0.00000E+00        -0.74404E+07
 
   -0.10915E+08        -0.17564E+06         0.00000E+00
   -0.17564E+06        -0.25530E+08         0.00000E+00
    0.00000E+00         0.00000E+00        -0.72890E+07
 
   -0.10030E+08         0.71951E+06         0.00000E+00
    0.71951E+06        -0.25716E+08         0.00000E+00
    0.00000E+00         0.00000E+00        -0.71491E+07
 
   -0.92026E+07         0.17779E+07         0.00000E+00
    0.17779E+07        -0.25911E+08         0.00000E+00
    0.00000E+00         0.00000E+00        -0.70227E+07
 
   -0.84462E+07         0.29972E+07         0.00000E+00
    0.29972E+07        -0.26114E+08         0.00000E+00
    0.00000E+00         0.00000E+00        -0.69120E+07
 
   -0.77801E+07         0.43748E+07         0.00000E+00
    0.43748E+07        -0.26316E+08         0.00000E+00
    0.00000E+00         0.00000E+00        -0.68192E+07
 
   -0.72314E+07         0.59048E+07         0.00000E+00
    0.59048E+07        -0.26503E+08         0.00000E+00
    0.00000E+00         0.00000E+00        -0.67469E+07
 
   -0.68350E+07         0.75752E+07         0.00000E+00
    0.75752E+07        -0.26655E+08         0.00000E+00
    0.00000E+00         0.00000E+00        -0.66979E+07
 
   -0.21982E+08        -0.51389E+06         0.00000E+00
   -0.51389E+06        -0.26709E+08         0.00000E+00
    0.00000E+00         0.00000E+00        -0.97382E+07
 
   -0.20970E+08        -0.13320E+07         0.00000E+00
   -0.13320E+07        -0.26806E+08         0.00000E+00
    0.00000E+00         0.00000E+00        -0.95552E+07
 
   -0.19804E+08        -0.18721E+07         0.00000E+00
   -0.18721E+07        -0.26959E+08         0.00000E+00
    0.00000E+00         0.00000E+00        -0.93527E+07
 
   -0.18564E+08        -0.21488E+07         0.00000E+00
   -0.21488E+07        -0.27133E+08         0.00000E+00
    0.00000E+00         0.00000E+00        -0.91394E+07
 
   -0.17304E+08        -0.21845E+07         0.00000E+00
   -0.21845E+07        -0.27309E+08         0.00000E+00
    0.00000E+00         0.00000E+00        -0.89226E+07
 
   -0.16064E+08        -0.20037E+07         0.00000E+00
   -0.20037E+07        -0.27477E+08         0.00000E+00
    0.00000E+00         0.00000E+00        -0.87080E+07
 
   -0.14862E+08        -0.16283E+07         0.00000E+00
   -0.16283E+07        -0.27638E+08         0.00000E+00
    0.00000E+00         0.00000E+00        -0.84999E+07
 
   -0.13708E+08        -0.10755E+07         0.00000E+00
   -0.10755E+07        -0.27800E+08         0.00000E+00
    0.00000E+00         0.00000E+00        -0.83015E+07
 
   -0.12606E+08        -0.35618E+06         0.00000E+00
   -0.35618E+06        -0.27970E+08         0.00000E+00
    0.00000E+00         0.00000E+00        -0.81151E+07
 
   -0.11557E+08         0.52469E+06         0.00000E+00
    0.52469E+06        -0.28157E+08         0.00000E+00
    0.00000E+00         0.00000E+00        -0.79428E+07
 
   -0.10567E+08         0.15674E+07         0.00000E+00
    0.15674E+07        -0.28365E+08         0.00000E+00
    0.00000E+00         0.00000E+00        -0.77866E+07
 
   -0.96471E+07         0.27757E+07         0.00000E+00
    0.27757E+07        -0.28595E+08         0.00000E+00
    0.00000E+00         0.00000E+00        -0.76485E+07
 
   -0.88173E+07         0.41540E+07         0.00000E+00
    0.41540E+07        -0.28837E+08         0.00000E+00
    0.00000E+00         0.00000E+00        -0.75309E+07
 
   -0.81099E+07         0.57041E+07         0.00000E+00
    0.57041E+07        -0.29075E+08         0.00000E+00
    0.00000E+00         0.00000E+00        -0.74370E+07
 
   -0.75677E+07         0.74211E+07         0.00000E+00
    0.74211E+07        -0.29283E+08         0.00000E+00
    0.00000E+00         0.00000E+00        -0.73701E+07
 
   -0.25551E+08        -0.57216E+06         0.00000E+00
   -0.57216E+06        -0.29270E+08         0.00000E+00
    0.00000E+00         0.00000E+00        -0.10964E+08
 
   -0.24233E+08        -0.14654E+07         0.00000E+00
   -0.14654E+07        -0.29367E+08         0.00000E+00
    0.00000E+00         0.00000E+00        -0.10720E+08
 
   -0.22778E+08        -0.20366E+07         0.00000E+00
   -0.20366E+07        -0.29512E+08         0.00000E+00
    0.00000E+00         0.00000E+00        -0.10458E+08
 
   -0.21274E+08        -0.23163E+07         0.00000E+00
   -0.23163E+07        -0.29668E+08         0.00000E+00
    0.00000E+00         0.00000E+00        -0.10188E+08
 
   -0.19783E+08        -0.23420E+07         0.00000E+00
   -0.23420E+07        -0.29813E+08         0.00000E+00
    0.00000E+00         0.00000E+00        -0.99192E+07
 
   -0.18339E+08        -0.21502E+07         0.00000E+00
   -0.21502E+07        -0.29944E+08         0.00000E+00
    0.00000E+00         0.00000E+00        -0.96566E+07
 
   -0.16956E+08        -0.17710E+07         0.00000E+00
   -0.17710E+07        -0.30067E+08         0.00000E+00
    0.00000E+00         0.00000E+00        -0.94046E+07
 
   -0.15637E+08        -0.12253E+07         0.00000E+00
   -0.12253E+07        -0.30193E+08         0.00000E+00
    0.00000E+00         0.00000E+00        -0.91660E+07
 
   -0.14376E+08        -0.52445E+06         0.00000E+00
   -0.52445E+06        -0.30337E+08         0.00000E+00
    0.00000E+00         0.00000E+00        -0.89427E+07
 
   -0.13170E+08         0.32897E+06         0.00000E+00
    0.32897E+06        -0.30511E+08         0.00000E+00
    0.00000E+00         0.00000E+00        -0.87362E+07
 
   -0.12017E+08         0.13403E+07         0.00000E+00
    0.13403E+07        -0.30723E+08         0.00000E+00
    0.00000E+00         0.00000E+00        -0.85481E+07
 
   -0.10925E+08         0.25208E+07         0.00000E+00
    0.25208E+07        -0.30976E+08         0.00000E+00
    0.00000E+00         0.00000E+00        -0.83801E+07
 
   -0.99143E+07         0.38845E+07         0.00000E+00
    0.38845E+07        -0.31261E+08         0.00000E+00
    0.00000E+00         0.00000E+00        -0.82350E+07
 
   -0.90222E+07         0.54436E+07         0.00000E+00
    0.54436E+07        -0.31557E+08         0.00000E+00
    0.00000E+00         0.00000E+00        -0.81159E+07
 
   -0.83012E+07         0.72029E+07         0.00000E+00
    0.72029E+07        -0.31835E+08         0.00000E+00
    0.00000E+00         0.00000E+00        -0.80271E+07
 
   -0.29284E+08        -0.63083E+06         0.00000E+00
   -0.63083E+06        -0.31890E+08         0.00000E+00
    0.00000E+00         0.00000E+00        -0.12235E+08
 
   -0.27604E+08        -0.15921E+07         0.00000E+00
   -0.15921E+07        -0.31981E+08         0.00000E+00
    0.00000E+00         0.00000E+00        -0.11917E+08
 
   -0.25820E+08        -0.21805E+07         0.00000E+00
   -0.21805E+07        -0.32106E+08         0.00000E+00
    0.00000E+00         0.00000E+00        -0.11585E+08
 
   -0.24034E+08        -0.24481E+07         0.00000E+00
   -0.24481E+07        -0.32222E+08         0.00000E+00
    0.00000E+00         0.00000E+00        -0.11251E+08
 
   -0.22307E+08        -0.24525E+07         0.00000E+00
   -0.24525E+07        -0.32313E+08         0.00000E+00
    0.00000E+00         0.00000E+00        -0.10924E+08
 
   -0.20666E+08        -0.22449E+07         0.00000E+00
   -0.22449E+07        -0.32381E+08         0.00000E+00
    0.00000E+00         0.00000E+00        -0.10609E+08
 
   -0.19115E+08        -0.18635E+07         0.00000E+00
   -0.18635E+07        -0.32439E+08         0.00000E+00
    0.00000E+00         0.00000E+00        -0.10311E+08
 
   -0.17645E+08        -0.13326E+07         0.00000E+00
   -0.13326E+07        -0.32507E+08         0.00000E+00
    0.00000E+00         0.00000E+00        -0.10030E+08
 
   -0.16239E+08        -0.66329E+06         0.00000E+00
   -0.66329E+06        -0.32605E+08         0.00000E+00
    0.00000E+00         0.00000E+00        -0.97688E+07
 
   -0.14884E+08         0.14523E+06         0.00000E+00
    0.14523E+06        -0.32750E+08         0.00000E+00
    0.00000E+00         0.00000E+00        -0.95267E+07
 
   -0.13569E+08         0.11041E+07         0.00000E+00
    0.11041E+07        -0.32955E+08         0.00000E+00
    0.00000E+00         0.00000E+00        -0.93049E+07
 
   -0.12297E+08         0.22337E+07         0.00000E+00
    0.22337E+07        -0.33226E+08         0.00000E+00
    0.00000E+00         0.00000E+00        -0.91047E+07
 
   -0.11087E+08         0.35601E+07         0.00000E+00
    0.35601E+07        -0.33556E+08         0.00000E+00
    0.00000E+00         0.00000E+00        -0.89285E+07
 
   -0.99779E+07         0.51102E+07         0.00000E+00
    0.51102E+07        -0.33922E+08         0.00000E+00
    0.00000E+00         0.00000E+00        -0.87800E+07
 
   -0.90356E+07         0.69027E+07         0.00000E+00
    0.69027E+07        -0.34287E+08         0.00000E+00
    0.00000E+00         0.00000E+00        -0.86644E+07
 
   -0.33171E+08        -0.68754E+06         0.00000E+00
   -0.68754E+06        -0.34568E+08         0.00000E+00
    0.00000E+00         0.00000E+00        -0.13548E+08
 
   -0.31062E+08        -0.17014E+07         0.00000E+00
   -0.17014E+07        -0.34645E+08         0.00000E+00
    0.00000E+00         0.00000E+00        -0.13141E+08
 
   -0.28908E+08        -0.22833E+07         0.00000E+00
   -0.22833E+07        -0.34731E+08         0.00000E+00
    0.00000E+00         0.00000E+00        -0.12728E+08
 
   -0.26824E+08        -0.25170E+07         0.00000E+00
   -0.25170E+07        -0.34780E+08         0.00000E+00
    0.00000E+00         0.00000E+00        -0.12321E+08
 
   -0.24864E+08        -0.24865E+07         0.00000E+00
   -0.24865E+07        -0.34784E+08         0.00000E+00
    0.00000E+00         0.00000E+00        -0.11930E+08
 
   -0.23041E+08        -0.22592E+07         0.00000E+00
   -0.22592E+07        -0.34757E+08         0.00000E+00
    0.00000E+00         0.00000E+00        -0.11560E+08
 
   -0.21342E+08        -0.18805E+07         0.00000E+00
   -0.18805E+07        -0.34723E+08         0.00000E+00
    0.00000E+00         0.00000E+00        -0.11213E+08
 
   -0.19741E+08        -0.13759E+07         0.00000E+00
   -0.13759E+07        -0.34709E+08         0.00000E+00
    0.00000E+00         0.00000E+00        -0.10890E+08
 
   -0.18208E+08        -0.75471E+06         0.00000E+00
   -0.75471E+06        -0.34741E+08         0.00000E+00
    0.00000E+00         0.00000E+00        -0.10590E+08
 
   -0.16717E+08        -0.12638E+05         0.00000E+00
   -0.12638E+05        -0.34842E+08         0.00000E+00
    0.00000E+00         0.00000E+00        -0.10312E+08
 
   -0.15247E+08         0.86753E+06         0.00000E+00
    0.86753E+06        -0.35028E+08         0.00000E+00
    0.00000E+00         0.00000E+00        -0.10055E+08
 
   -0.13789E+08         0.19157E+07         0.00000E+00
    0.19157E+07        -0.35311E+08         0.00000E+00
    0.00000E+00         0.00000E+00        -0.98201E+07
 
   -0.12357E+08         0.31734E+07         0.00000E+00
    0.31734E+07        -0.35689E+08         0.00000E+00
    0.00000E+00         0.00000E+00        -0.96092E+07
 
   -0.10992E+08         0.46872E+07         0.00000E+00
    0.46872E+07        -0.36139E+08         0.00000E+00
    0.00000E+00         0.00000E+00        -0.94262E+07
 
   -0.97731E+07         0.64971E+07         0.00000E+00
    0.64971E+07        -0.36614E+08         0.00000E+00
    0.00000E+00         0.00000E+00        -0.92774E+07
 
   -0.37194E+08        -0.73937E+06         0.00000E+00
   -0.73937E+06        -0.37296E+08         0.00000E+00
    0.00000E+00         0.00000E+00        -0.14898E+08
 
   -0.34575E+08        -0.17777E+07         0.00000E+00
   -0.17777E+07        -0.37349E+08         0.00000E+00
    0.00000E+00         0.00000E+00        -0.14385E+08
 
   -0.32008E+08        -0.23160E+07         0.00000E+00
   -0.23160E+07        -0.37368E+08         0.00000E+00
    0.00000E+00         0.00000E+00        -0.13875E+08
 
   -0.29618E+08        -0.24870E+07         0.00000E+00
   -0.24870E+07        -0.37311E+08         0.00000E+00
    0.00000E+00         0.00000E+00        -0.13386E+08
 
   -0.27442E+08        -0.24086E+07         0.00000E+00
   -0.24086E+07        -0.37188E+08         0.00000E+00
    0.00000E+00         0.00000E+00        -0.12926E+08
 
   -0.25464E+08        -0.21627E+07         0.00000E+00
   -0.21627E+07        -0.37032E+08         0.00000E+00
    0.00000E+00         0.00000E+00        -0.12499E+08
 
   -0.23643E+08        -0.17970E+07         0.00000E+00
   -0.17970E+07        -0.36879E+08         0.00000E+00
    0.00000E+00         0.00000E+00        -0.12105E+08
 
   -0.21936E+08        -0.13347E+07         0.00000E+00
   -0.13347E+07        -0.36763E+08         0.00000E+00
    0.00000E+00         0.00000E+00        -0.11740E+08
 
   -0.20298E+08        -0.78180E+06         0.00000E+00
   -0.78180E+06        -0.36713E+08         0.00000E+00
    0.00000E+00         0.00000E+00        -0.11402E+08
 
   -0.18689E+08        -0.13057E+06         0.00000E+00
   -0.13057E+06        -0.36754E+08         0.00000E+00
    0.00000E+00         0.00000E+00        -0.11089E+08
 
   -0.17075E+08         0.64062E+06         0.00000E+00
    0.64062E+06        -0.36910E+08         0.00000E+00
    0.00000E+00         0.00000E+00        -0.10797E+08
 
   -0.15431E+08         0.15702E+07         0.00000E+00
    0.15702E+07        -0.37197E+08         0.00000E+00
    0.00000E+00         0.00000E+00        -0.10526E+08
 
   -0.13755E+08         0.27161E+07         0.00000E+00
    0.27161E+07        -0.37624E+08         0.00000E+00
    0.00000E+00         0.00000E+00        -0.10276E+08
 
   -0.12087E+08         0.41530E+07         0.00000E+00
    0.41530E+07        -0.38173E+08         0.00000E+00
    0.00000E+00         0.00000E+00        -0.10052E+08
 
   -0.10519E+08         0.59544E+07         0.00000E+00
    0.59544E+07        -0.38789E+08         0.00000E+00
    0.00000E+00         0.00000E+00        -0.98616E+07
 
   -0.41325E+08        -0.78198E+06         0.00000E+00
   -0.78198E+06        -0.40068E+08         0.00000E+00
    0.00000E+00         0.00000E+00        -0.16279E+08
 
   -0.38091E+08        -0.17946E+07         0.00000E+00
   -0.17946E+07        -0.40076E+08         0.00000E+00
    0.00000E+00         0.00000E+00        -0.15633E+08
 
   -0.35073E+08        -0.22335E+07         0.00000E+00
   -0.22335E+07        -0.39979E+08         0.00000E+00
    0.00000E+00         0.00000E+00        -0.15010E+08
 
   -0.32391E+08        -0.23104E+07         0.00000E+00
   -0.23104E+07        -0.39760E+08         0.00000E+00
    0.00000E+00         0.00000E+00        -0.14430E+08
 
   -0.30034E+08        -0.21800E+07         0.00000E+00
   -0.21800E+07        -0.39465E+08         0.00000E+00
    0.00000E+00         0.00000E+00        -0.13900E+08
 
   -0.27936E+08        -0.19275E+07         0.00000E+00
   -0.19275E+07        -0.39149E+08         0.00000E+00
    0.00000E+00         0.00000E+00        -0.13417E+08
 
   -0.26028E+08        -0.15934E+07         0.00000E+00
   -0.15934E+07        -0.38858E+08         0.00000E+00
    0.00000E+00         0.00000E+00        -0.12977E+08
 
   -0.24244E+08        -0.11943E+07         0.00000E+00
   -0.11943E+07        -0.38628E+08         0.00000E+00
    0.00000E+00         0.00000E+00        -0.12574E+08
 
   -0.22526E+08        -0.73183E+06         0.00000E+00
   -0.73183E+06        -0.38486E+08         0.00000E+00
    0.00000E+00         0.00000E+00        -0.12202E+08
 
   -0.20822E+08        -0.19620E+06         0.00000E+00
   -0.19620E+06        -0.38458E+08         0.00000E+00
    0.00000E+00         0.00000E+00        -0.11856E+08
 
   -0.19082E+08         0.43538E+06         0.00000E+00
    0.43538E+06        -0.38570E+08         0.00000E+00
    0.00000E+00         0.00000E+00        -0.11530E+08
 
   -0.17260E+08         0.12044E+07         0.00000E+00
    0.12044E+07        -0.38850E+08         0.00000E+00
    0.00000E+00         0.00000E+00        -0.11222E+08
 
   -0.15328E+08         0.21829E+07         0.00000E+00
    0.21829E+07        -0.39321E+08         0.00000E+00
    0.00000E+00         0.00000E+00        -0.10930E+08
 
   -0.13301E+08         0.34814E+07         0.00000E+00
    0.34814E+07        -0.39984E+08         0.00000E+00
    0.00000E+00         0.00000E+00        -0.10657E+08
 
   -0.11286E+08         0.52306E+07         0.00000E+00
    0.52306E+07        -0.40782E+08         0.00000E+00
    0.00000E+00         0.00000E+00        -0.10414E+08
 
   -0.45509E+08        -0.80597E+06         0.00000E+00
   -0.80597E+06        -0.42871E+08         0.00000E+00
    0.00000E+00         0.00000E+00        -0.17676E+08
 
   -0.41523E+08        -0.16986E+07         0.00000E+00
   -0.16986E+07        -0.42785E+08         0.00000E+00
    0.00000E+00         0.00000E+00        -0.16862E+08
 
   -0.38047E+08        -0.19626E+07         0.00000E+00
   -0.19626E+07        -0.42486E+08         0.00000E+00
    0.00000E+00         0.00000E+00        -0.16107E+08
 
   -0.35128E+08        -0.19304E+07         0.00000E+00
   -0.19304E+07        -0.42030E+08         0.00000E+00
    0.00000E+00         0.00000E+00        -0.15432E+08
 
   -0.32647E+08        -0.17675E+07         0.00000E+00
   -0.17675E+07        -0.41523E+08         0.00000E+00
    0.00000E+00         0.00000E+00        -0.14834E+08
 
   -0.30474E+08        -0.15365E+07         0.00000E+00
   -0.15365E+07        -0.41033E+08         0.00000E+00
    0.00000E+00         0.00000E+00        -0.14301E+08
 
   -0.28510E+08        -0.12617E+07         0.00000E+00
   -0.12617E+07        -0.40601E+08         0.00000E+00
    0.00000E+00         0.00000E+00        -0.13822E+08
 
   -0.26677E+08        -0.95031E+06         0.00000E+00
   -0.95031E+06        -0.40258E+08         0.00000E+00
    0.00000E+00         0.00000E+00        -0.13387E+08
 
   -0.24904E+08        -0.60035E+06         0.00000E+00
   -0.60035E+06        -0.40026E+08         0.00000E+00
    0.00000E+00         0.00000E+00        -0.12986E+08
 
   -0.23131E+08        -0.20206E+06         0.00000E+00
   -0.20206E+06        -0.39929E+08         0.00000E+00
    0.00000E+00         0.00000E+00        -0.12612E+08
 
   -0.21292E+08         0.26411E+06         0.00000E+00
    0.26411E+06        -0.39991E+08         0.00000E+00
    0.00000E+00         0.00000E+00        -0.12257E+08
 
   -0.19319E+08         0.83434E+06         0.00000E+00
    0.83434E+06        -0.40248E+08         0.00000E+00
    0.00000E+00         0.00000E+00        -0.11913E+08
 
   -0.17137E+08         0.15786E+07         0.00000E+00
    0.15786E+07        -0.40742E+08         0.00000E+00
    0.00000E+00         0.00000E+00        -0.11576E+08
 
   -0.14701E+08         0.26439E+07         0.00000E+00
    0.26439E+07        -0.41524E+08         0.00000E+00
    0.00000E+00         0.00000E+00        -0.11245E+08
 
   -0.12099E+08         0.42613E+07         0.00000E+00
    0.42613E+07        -0.42557E+08         0.00000E+00
    0.00000E+00         0.00000E+00        -0.10931E+08
 
   -0.49635E+08        -0.77865E+06         0.00000E+00
   -0.77865E+06        -0.45675E+08         0.00000E+00
    0.00000E+00         0.00000E+00        -0.19062E+08
 
   -0.44745E+08        -0.13622E+07         0.00000E+00
   -0.13622E+07        -0.45353E+08         0.00000E+00
    0.00000E+00         0.00000E+00        -0.18020E+08
 
   -0.40901E+08        -0.14014E+07         0.00000E+00
   -0.14014E+07        -0.44700E+08         0.00000E+00
    0.00000E+00         0.00000E+00        -0.17120E+08
 
   -0.37851E+08        -0.13063E+07         0.00000E+00
   -0.13063E+07        -0.43961E+08         0.00000E+00
    0.00000E+00         0.00000E+00        -0.16362E+08
 
   -0.35308E+08        -0.11632E+07         0.00000E+00
   -0.11632E+07        -0.43244E+08         0.00000E+00
    0.00000E+00         0.00000E+00        -0.15710E+08
 
   -0.33099E+08        -0.99631E+06         0.00000E+00
   -0.99631E+06        -0.42598E+08         0.00000E+00
    0.00000E+00         0.00000E+00        -0.15139E+08
 
   -0.31109E+08        -0.81296E+06         0.00000E+00
   -0.81296E+06        -0.42048E+08         0.00000E+00
    0.00000E+00         0.00000E+00        -0.14631E+08
 
   -0.29248E+08        -0.61370E+06         0.00000E+00
   -0.61370E+06        -0.41613E+08         0.00000E+00
    0.00000E+00         0.00000E+00        -0.14172E+08
 
   -0.27444E+08        -0.39515E+06         0.00000E+00
   -0.39515E+06        -0.41309E+08         0.00000E+00
    0.00000E+00         0.00000E+00        -0.13751E+08
 
   -0.25626E+08        -0.15013E+06         0.00000E+00
   -0.15013E+06        -0.41153E+08         0.00000E+00
    0.00000E+00         0.00000E+00        -0.13356E+08
 
   -0.23721E+08         0.13414E+06         0.00000E+00
    0.13414E+06        -0.41169E+08         0.00000E+00
    0.00000E+00         0.00000E+00        -0.12978E+08
 
   -0.21641E+08         0.48120E+06         0.00000E+00
    0.48120E+06        -0.41392E+08         0.00000E+00
    0.00000E+00         0.00000E+00        -0.12607E+08
 
   -0.19266E+08         0.93897E+06         0.00000E+00
    0.93897E+06        -0.41878E+08         0.00000E+00
    0.00000E+00         0.00000E+00        -0.12229E+08
 
   -0.16410E+08         0.16273E+07         0.00000E+00
    0.16273E+07        -0.42725E+08         0.00000E+00
    0.00000E+00         0.00000E+00        -0.11827E+08
 
   -0.13026E+08         0.29391E+07         0.00000E+00
    0.29391E+07        -0.44068E+08         0.00000E+00
    0.00000E+00         0.00000E+00        -0.11419E+08
 
   -0.53420E+08        -0.48637E+06         0.00000E+00
   -0.48637E+06        -0.48215E+08         0.00000E+00
    0.00000E+00         0.00000E+00        -0.20327E+08
 
   -0.47665E+08        -0.56128E+06         0.00000E+00
   -0.56128E+06        -0.47318E+08         0.00000E+00
    0.00000E+00         0.00000E+00        -0.18997E+08
 
   -0.43708E+08        -0.51737E+06         0.00000E+00
   -0.51737E+06        -0.46308E+08         0.00000E+00
    0.00000E+00         0.00000E+00        -0.18003E+08
 
   -0.40618E+08        -0.46528E+06         0.00000E+00
   -0.46528E+06        -0.45357E+08         0.00000E+00
    0.00000E+00         0.00000E+00        -0.17195E+08
 
   -0.38057E+08        -0.40720E+06         0.00000E+00
   -0.40720E+06        -0.44504E+08         0.00000E+00
    0.00000E+00         0.00000E+00        -0.16512E+08
 
   -0.35838E+08        -0.34575E+06         0.00000E+00
   -0.34575E+06        -0.43764E+08         0.00000E+00
    0.00000E+00         0.00000E+00        -0.15920E+08
 
   -0.33838E+08        -0.28106E+06         0.00000E+00
   -0.28106E+06        -0.43146E+08         0.00000E+00
    0.00000E+00         0.00000E+00        -0.15397E+08
 
   -0.31967E+08        -0.21233E+06         0.00000E+00
   -0.21233E+06        -0.42659E+08         0.00000E+00
    0.00000E+00         0.00000E+00        -0.14925E+08
 
   -0.30148E+08        -0.13797E+06         0.00000E+00
   -0.13797E+06        -0.42314E+08         0.00000E+00
    0.00000E+00         0.00000E+00        -0.14492E+08
 
   -0.28309E+08        -0.55346E+05         0.00000E+00
   -0.55346E+05        -0.42124E+08         0.00000E+00
    0.00000E+00         0.00000E+00        -0.14087E+08
 
   -0.26371E+08         0.39935E+05         0.00000E+00
    0.39935E+05        -0.42112E+08         0.00000E+00
    0.00000E+00         0.00000E+00        -0.13697E+08
 
   -0.24236E+08         0.15572E+06         0.00000E+00
    0.15572E+06        -0.42310E+08         0.00000E+00
    0.00000E+00         0.00000E+00        -0.13309E+08
 
   -0.21757E+08         0.30884E+06         0.00000E+00
    0.30884E+06        -0.42775E+08         0.00000E+00
    0.00000E+00         0.00000E+00        -0.12906E+08
 
   -0.18672E+08         0.53723E+06         0.00000E+00
    0.53723E+06        -0.43621E+08         0.00000E+00
    0.00000E+00         0.00000E+00        -0.12459E+08
 
   -0.14239E+08         0.10863E+07         0.00000E+00
    0.10863E+07        -0.45162E+08         0.00000E+00
    0.00000E+00         0.00000E+00        -0.11880E+08
 
TENSORS stresstot double 
   -0.39251E+08        -0.18253E+06         0.00000E+00
   -0.18253E+06        -0.59931E+08         0.00000E+00
    0.00000E+00         0.00000E+00        -0.67761E+08
 
   -0.42606E+08        -0.56239E+06         0.00000E+00
   -0.56239E+06        -0.60757E+08         0.00000E+00
    0.00000E+00         0.00000E+00        -0.70855E+08
 
   -0.47022E+08        -0.57669E+06         0.00000E+00
   -0.57669E+06        -0.61790E+08         0.00000E+00
    0.00000E+00         0.00000E+00        -0.71945E+08
 
   -0.50105E+08        -0.47919E+06         0.00000E+00
   -0.47919E+06        -0.62777E+08         0.00000E+00
    0.00000E+00         0.00000E+00        -0.72759E+08
 
   -0.52618E+08        -0.40252E+06         0.00000E+00
   -0.40252E+06        -0.63629E+08         0.00000E+00
    0.00000E+00         0.00000E+00        -0.73432E+08
 
   -0.54788E+08        -0.33257E+06         0.00000E+00
   -0.33257E+06        -0.64348E+08         0.00000E+00
    0.00000E+00         0.00000E+00        -0.74010E+08
 
   -0.56745E+08        -0.26492E+06         0.00000E+00
   -0.26492E+06        -0.64934E+08         0.00000E+00
    0.00000E+00         0.00000E+00        -0.74518E+08
 
   -0.58578E+08        -0.19635E+06         0.00000E+00
   -0.19635E+06        -0.65388E+08         0.00000E+00
    0.00000E+00         0.00000E+00        -0.74976E+08
 
   -0.60359E+08        -0.12414E+06         0.00000E+00
   -0.12414E+06        -0.65704E+08         0.00000E+00
    0.00000E+00         0.00000E+00        -0.75395E+08
 
   -0.62154E+08        -0.45213E+05         0.00000E+00
   -0.45213E+05        -0.65869E+08         0.00000E+00
    0.00000E+00         0.00000E+00        -0.75787E+08
 
   -0.64038E+08         0.44914E+05         0.00000E+00
    0.44914E+05        -0.65866E+08         0.00000E+00
    0.00000E+00         0.00000E+00        -0.76163E+08
 
   -0.66102E+08         0.15386E+06         0.00000E+00
    0.15386E+06        -0.65665E+08         0.00000E+00
    0.00000E+00         0.00000E+00        -0.76536E+08
 
   -0.68485E+08         0.29774E+06         0.00000E+00
    0.29774E+06        -0.65213E+08         0.00000E+00
    0.00000E+00         0.00000E+00        -0.76922E+08
 
   -0.71434E+08         0.51284E+06         0.00000E+00
    0.51284E+06        -0.64402E+08         0.00000E+00
    0.00000E+00         0.00000E+00        -0.77349E+08
 
   -0.75657E+08         0.10334E+07         0.00000E+00
    0.10334E+07        -0.62935E+08         0.00000E+00
    0.00000E+00         0.00000E+00        -0.77900E+08
 
   -0.39625E+08        -0.35372E+06         0.00000E+00
   -0.35372E+06        -0.60323E+08         0.00000E+00
    0.00000E+00         0.00000E+00        -0.68413E+08
 
   -0.43286E+08        -0.11932E+07         0.00000E+00
   -0.11932E+07        -0.60380E+08         0.00000E+00
    0.00000E+00         0.00000E+00        -0.69286E+08
 
   -0.46925E+08        -0.14177E+07         0.00000E+00
   -0.14177E+07        -0.60852E+08         0.00000E+00
    0.00000E+00         0.00000E+00        -0.70108E+08
 
   -0.49982E+08        -0.12999E+07         0.00000E+00
   -0.12999E+07        -0.61501E+08         0.00000E+00
    0.00000E+00         0.00000E+00        -0.70849E+08
 
   -0.52490E+08        -0.11298E+07         0.00000E+00
   -0.11298E+07        -0.62165E+08         0.00000E+00
    0.00000E+00         0.00000E+00        -0.71483E+08
 
   -0.54661E+08        -0.94878E+06         0.00000E+00
   -0.94878E+06        -0.62768E+08         0.00000E+00
    0.00000E+00         0.00000E+00        -0.72038E+08
 
   -0.56615E+08        -0.76110E+06         0.00000E+00
   -0.76110E+06        -0.63277E+08         0.00000E+00
    0.00000E+00         0.00000E+00        -0.72530E+08
 
   -0.58441E+08        -0.56429E+06         0.00000E+00
   -0.56429E+06        -0.63675E+08         0.00000E+00
    0.00000E+00         0.00000E+00        -0.72975E+08
 
   -0.60211E+08        -0.35312E+06         0.00000E+00
   -0.35312E+06        -0.63948E+08         0.00000E+00
    0.00000E+00         0.00000E+00        -0.73383E+08
 
   -0.61988E+08        -0.11962E+06         0.00000E+00
   -0.11962E+06        -0.64079E+08         0.00000E+00
    0.00000E+00         0.00000E+00        -0.73765E+08
 
   -0.63842E+08         0.14900E+06         0.00000E+00
    0.14900E+06        -0.64048E+08         0.00000E+00
    0.00000E+00         0.00000E+00        -0.74129E+08
 
   -0.65855E+08         0.47544E+06         0.00000E+00
    0.47544E+06        -0.63822E+08         0.00000E+00
    0.00000E+00         0.00000E+00        -0.74487E+08
 
   -0.68140E+08         0.90550E+06         0.00000E+00
    0.90550E+06        -0.63349E+08         0.00000E+00
    0.00000E+00         0.00000E+00        -0.74849E+08
 
   -0.70872E+08         0.15537E+07         0.00000E+00
    0.15537E+07        -0.62537E+08         0.00000E+00
    0.00000E+00         0.00000E+00        -0.75233E+08
 
   -0.74094E+08         0.27953E+07         0.00000E+00
    0.27953E+07        -0.61258E+08         0.00000E+00
    0.00000E+00         0.00000E+00        -0.75621E+08
 
   -0.40548E+08        -0.57551E+06         0.00000E+00
   -0.57551E+06        -0.60042E+08         0.00000E+00
    0.00000E+00         0.00000E+00        -0.67054E+08
 
   -0.43891E+08        -0.14027E+07         0.00000E+00
   -0.14027E+07        -0.60228E+08         0.00000E+00
    0.00000E+00         0.00000E+00        -0.67760E+08
 
   -0.47025E+08        -0.18055E+07         0.00000E+00
   -0.18055E+07        -0.60427E+08         0.00000E+00
    0.00000E+00         0.00000E+00        -0.68426E+08
 
   -0.49853E+08        -0.18303E+07         0.00000E+00
   -0.18303E+07        -0.60754E+08         0.00000E+00
    0.00000E+00         0.00000E+00        -0.69057E+08
 
   -0.52298E+08        -0.16714E+07         0.00000E+00
   -0.16714E+07        -0.61173E+08         0.00000E+00
    0.00000E+00         0.00000E+00        -0.69629E+08
 
   -0.54440E+08        -0.14390E+07         0.00000E+00
   -0.14390E+07        -0.61599E+08         0.00000E+00
    0.00000E+00         0.00000E+00        -0.70143E+08
 
   -0.56375E+08        -0.11671E+07         0.00000E+00
   -0.11671E+07        -0.61980E+08         0.00000E+00
    0.00000E+00         0.00000E+00        -0.70606E+08
 
   -0.58180E+08        -0.86467E+06         0.00000E+00
   -0.86467E+06        -0.62283E+08         0.00000E+00
    0.00000E+00         0.00000E+00        -0.71027E+08
 
   -0.59922E+08        -0.52932E+06         0.00000E+00
   -0.52932E+06        -0.62482E+08         0.00000E+00
    0.00000E+00         0.00000E+00        -0.71415E+08
 
   -0.61660E+08        -0.15124E+06         0.00000E+00
   -0.15124E+06        -0.62555E+08         0.00000E+00
    0.00000E+00         0.00000E+00        -0.71777E+08
 
   -0.63454E+08         0.28851E+06         0.00000E+00
    0.28851E+06        -0.62478E+08         0.00000E+00
    0.00000E+00         0.00000E+00        -0.72120E+08
 
   -0.65367E+08         0.82451E+06         0.00000E+00
    0.82451E+06        -0.62219E+08         0.00000E+00
    0.00000E+00         0.00000E+00        -0.72451E+08
 
   -0.67471E+08         0.15233E+07         0.00000E+00
    0.15233E+07        -0.61737E+08         0.00000E+00
    0.00000E+00         0.00000E+00        -0.72775E+08
 
   -0.69804E+08         0.25253E+07         0.00000E+00
    0.25253E+07        -0.60986E+08         0.00000E+00
    0.00000E+00         0.00000E+00        -0.73092E+08
 
   -0.72282E+08         0.40513E+07         0.00000E+00
    0.40513E+07        -0.60002E+08         0.00000E+00
    0.00000E+00         0.00000E+00        -0.73390E+08
 
   -0.41648E+08        -0.63940E+06         0.00000E+00
   -0.63940E+06        -0.60012E+08         0.00000E+00
    0.00000E+00         0.00000E+00        -0.65673E+08
 
   -0.44523E+08        -0.15240E+07         0.00000E+00
   -0.15240E+07        -0.60049E+08         0.00000E+00
    0.00000E+00         0.00000E+00        -0.66255E+08
 
   -0.47267E+08        -0.19822E+07         0.00000E+00
   -0.19822E+07        -0.60139E+08         0.00000E+00
    0.00000E+00         0.00000E+00        -0.66822E+08
 
   -0.49809E+08        -0.21094E+07         0.00000E+00
   -0.21094E+07        -0.60289E+08         0.00000E+00
    0.00000E+00         0.00000E+00        -0.67360E+08
 
   -0.52106E+08        -0.20078E+07         0.00000E+00
   -0.20078E+07        -0.60506E+08         0.00000E+00
    0.00000E+00         0.00000E+00        -0.67862E+08
 
   -0.54170E+08        -0.17712E+07         0.00000E+00
   -0.17712E+07        -0.60758E+08         0.00000E+00
    0.00000E+00         0.00000E+00        -0.68325E+08
 
   -0.56054E+08        -0.14521E+07         0.00000E+00
   -0.14521E+07        -0.60997E+08         0.00000E+00
    0.00000E+00         0.00000E+00        -0.68750E+08
 
   -0.57815E+08        -0.10712E+07         0.00000E+00
   -0.10712E+07        -0.61186E+08         0.00000E+00
    0.00000E+00         0.00000E+00        -0.69140E+08
 
   -0.59509E+08        -0.63201E+06         0.00000E+00
   -0.63201E+06        -0.61297E+08         0.00000E+00
    0.00000E+00         0.00000E+00        -0.69500E+08
 
   -0.61183E+08        -0.12577E+06         0.00000E+00
   -0.12577E+06        -0.61301E+08         0.00000E+00
    0.00000E+00         0.00000E+00        -0.69836E+08
 
   -0.62886E+08         0.46887E+06         0.00000E+00
    0.46887E+06        -0.61175E+08         0.00000E+00
    0.00000E+00         0.00000E+00        -0.70151E+08
 
   -0.64659E+08         0.11910E+07         0.00000E+00
    0.11910E+07        -0.60893E+08         0.00000E+00
    0.00000E+00         0.00000E+00        -0.70449E+08
 
   -0.66528E+08         0.21090E+07         0.00000E+00
    0.21090E+07        -0.60432E+08         0.00000E+00
    0.00000E+00         0.00000E+00        -0.70730E+08
 
   -0.68475E+08         0.33275E+07         0.00000E+00
    0.33275E+07        -0.59793E+08         0.00000E+00
    0.00000E+00         0.00000E+00        -0.70992E+08
 
   -0.70396E+08         0.49714E+07         0.00000E+00
    0.49714E+07        -0.59031E+08         0.00000E+00
    0.00000E+00         0.00000E+00        -0.71224E+08
 
   -0.42793E+08        -0.63312E+06         0.00000E+00
   -0.63312E+06        -0.59988E+08         0.00000E+00
    0.00000E+00         0.00000E+00        -0.64330E+08
 
   -0.45198E+08        -0.15369E+07         0.00000E+00
   -0.15369E+07        -0.59961E+08         0.00000E+00
    0.00000E+00         0.00000E+00        -0.64806E+08
 
   -0.47574E+08        -0.20390E+07         0.00000E+00
   -0.20390E+07        -0.59950E+08         0.00000E+00
    0.00000E+00         0.00000E+00        -0.65279E+08
 
   -0.49838E+08        -0.22248E+07         0.00000E+00
   -0.22248E+07        -0.59980E+08         0.00000E+00
    0.00000E+00         0.00000E+00        -0.65737E+08
 
   -0.51945E+08        -0.21732E+07         0.00000E+00
   -0.21732E+07        -0.60056E+08         0.00000E+00
    0.00000E+00         0.00000E+00        -0.66173E+08
 
   -0.53886E+08        -0.19527E+07         0.00000E+00
   -0.19527E+07        -0.60163E+08         0.00000E+00
    0.00000E+00         0.00000E+00        -0.66583E+08
 
   -0.55683E+08        -0.16118E+07         0.00000E+00
   -0.16118E+07        -0.60273E+08         0.00000E+00
    0.00000E+00         0.00000E+00        -0.66964E+08
 
   -0.57371E+08        -0.11767E+07         0.00000E+00
   -0.11767E+07        -0.60353E+08         0.00000E+00
    0.00000E+00         0.00000E+00        -0.67317E+08
 
   -0.58990E+08        -0.65556E+06         0.00000E+00
   -0.65556E+06        -0.60376E+08         0.00000E+00
    0.00000E+00         0.00000E+00        -0.67645E+08
 
   -0.60576E+08        -0.42342E+05         0.00000E+00
   -0.42342E+05        -0.60315E+08         0.00000E+00
    0.00000E+00         0.00000E+00        -0.67950E+08
 
   -0.62163E+08         0.68256E+06         0.00000E+00
    0.68256E+06        -0.60147E+08         0.00000E+00
    0.00000E+00         0.00000E+00        -0.68234E+08
 
   -0.63771E+08         0.15548E+07         0.00000E+00
    0.15548E+07        -0.59857E+08         0.00000E+00
    0.00000E+00         0.00000E+00        -0.68497E+08
 
   -0.65399E+08         0.26285E+07         0.00000E+00
    0.26285E+07        -0.59437E+08         0.00000E+00
    0.00000E+00         0.00000E+00        -0.68739E+08
 
   -0.67011E+08         0.39735E+07         0.00000E+00
    0.39735E+07        -0.58904E+08         0.00000E+00
    0.00000E+00         0.00000E+00        -0.68954E+08
 
   -0.68511E+08         0.56590E+07         0.00000E+00
    0.56590E+07        -0.58314E+08         0.00000E+00
    0.00000E+00         0.00000E+00        -0.69136E+08
 
   -0.43910E+08        -0.59634E+06         0.00000E+00
   -0.59634E+06        -0.59979E+08         0.00000E+00
    0.00000E+00         0.00000E+00        -0.63019E+08
 
   -0.45892E+08        -0.14807E+07         0.00000E+00
   -0.14807E+07        -0.59915E+08         0.00000E+00
    0.00000E+00         0.00000E+00        -0.63402E+08
 
   -0.47924E+08        -0.20031E+07         0.00000E+00
   -0.20031E+07        -0.59840E+08         0.00000E+00
    0.00000E+00         0.00000E+00        -0.63793E+08
 
   -0.49916E+08        -0.22268E+07         0.00000E+00
   -0.22268E+07        -0.59783E+08         0.00000E+00
    0.00000E+00         0.00000E+00        -0.64180E+08
 
   -0.51816E+08        -0.22116E+07         0.00000E+00
   -0.22116E+07        -0.59757E+08         0.00000E+00
    0.00000E+00         0.00000E+00        -0.64555E+08
 
   -0.53603E+08        -0.20096E+07         0.00000E+00
   -0.20096E+07        -0.59755E+08         0.00000E+00
    0.00000E+00         0.00000E+00        -0.64912E+08
 
   -0.55281E+08        -0.16606E+07         0.00000E+00
   -0.16606E+07        -0.59760E+08         0.00000E+00
    0.00000E+00         0.00000E+00        -0.65248E+08
 
   -0.56868E+08        -0.11896E+07         0.00000E+00
   -0.11896E+07        -0.59748E+08         0.00000E+00
    0.00000E+00         0.00000E+00        -0.65562E+08
 
   -0.58387E+08        -0.60689E+06         0.00000E+00
   -0.60689E+06        -0.59696E+08         0.00000E+00
    0.00000E+00         0.00000E+00        -0.65856E+08
 
   -0.59863E+08         0.90264E+05         0.00000E+00
    0.90264E+05        -0.59580E+08         0.00000E+00
    0.00000E+00         0.00000E+00        -0.66127E+08
 
   -0.61315E+08         0.91686E+06         0.00000E+00
    0.91686E+06        -0.59385E+08         0.00000E+00
    0.00000E+00         0.00000E+00        -0.66378E+08
 
   -0.62749E+08         0.18999E+07         0.00000E+00
    0.18999E+07        -0.59098E+08         0.00000E+00
    0.00000E+00         0.00000E+00        -0.66608E+08
 
   -0.64153E+08         0.30771E+07         0.00000E+00
    0.30771E+07        -0.58724E+08         0.00000E+00
    0.00000E+00         0.00000E+00        -0.66813E+08
 
   -0.65482E+08         0.44911E+07         0.00000E+00
    0.44911E+07        -0.58283E+08         0.00000E+00
    0.00000E+00         0.00000E+00        -0.66991E+08
 
   -0.66659E+08         0.61773E+07         0.00000E+00
    0.61773E+07        -0.57824E+08         0.00000E+00
    0.00000E+00         0.00000E+00        -0.67134E+08
 
   -0.44959E+08        -0.54695E+06         0.00000E+00
   -0.54695E+06        -0.59976E+08         0.00000E+00
    0.00000E+00         0.00000E+00        -0.61731E+08
 
   -0.46578E+08        -0.13846E+07         0.00000E+00
   -0.13846E+07        -0.59894E+08         0.00000E+00
    0.00000E+00         0.00000E+00        -0.62039E+08
 
   -0.48296E+08        -0.19055E+07         0.00000E+00
   -0.19055E+07        -0.59780E+08         0.00000E+00
    0.00000E+00         0.00000E+00        -0.62359E+08
 
   -0.50026E+08        -0.21497E+07         0.00000E+00
   -0.21497E+07        -0.59668E+08         0.00000E+00
    0.00000E+00         0.00000E+00        -0.62683E+08
 
   -0.51712E+08        -0.21593E+07         0.00000E+00
   -0.21593E+07        -0.59572E+08         0.00000E+00
    0.00000E+00         0.00000E+00        -0.63000E+08
 
   -0.53327E+08        -0.19730E+07         0.00000E+00
   -0.19730E+07        -0.59493E+08         0.00000E+00
    0.00000E+00         0.00000E+00        -0.63307E+08
 
   -0.54863E+08        -0.16220E+07         0.00000E+00
   -0.16220E+07        -0.59421E+08         0.00000E+00
    0.00000E+00         0.00000E+00        -0.63600E+08
 
   -0.56323E+08        -0.11277E+07         0.00000E+00
   -0.11277E+07        -0.59339E+08         0.00000E+00
    0.00000E+00         0.00000E+00        -0.63875E+08
 
   -0.57721E+08        -0.50078E+06         0.00000E+00
   -0.50078E+06        -0.59230E+08         0.00000E+00
    0.00000E+00         0.00000E+00        -0.64133E+08
 
   -0.59069E+08         0.25841E+06         0.00000E+00
    0.25841E+06        -0.59076E+08         0.00000E+00
    0.00000E+00         0.00000E+00        -0.64371E+08
 
   -0.60375E+08         0.11591E+07         0.00000E+00
    0.11591E+07        -0.58865E+08         0.00000E+00
    0.00000E+00         0.00000E+00        -0.64590E+08
 
   -0.61637E+08         0.22188E+07         0.00000E+00
    0.22188E+07        -0.58592E+08         0.00000E+00
    0.00000E+00         0.00000E+00        -0.64787E+08
 
   -0.62836E+08         0.34603E+07         0.00000E+00
    0.34603E+07        -0.58262E+08         0.00000E+00
    0.00000E+00         0.00000E+00        -0.64961E+08
 
   -0.63931E+08         0.49060E+07         0.00000E+00
    0.49060E+07        -0.57899E+08         0.00000E+00
    0.00000E+00         0.00000E+00        -0.65107E+08
 
   -0.64857E+08         0.65702E+07         0.00000E+00
    0.65702E+07        -0.57540E+08         0.00000E+00
    0.00000E+00         0.00000E+00        -0.65221E+08
 
   -0.45922E+08        -0.49324E+06         0.00000E+00
   -0.49324E+06        -0.59975E+08         0.00000E+00
    0.00000E+00         0.00000E+00        -0.60465E+08
 
   -0.47234E+08        -0.12694E+07         0.00000E+00
   -0.12694E+07        -0.59887E+08         0.00000E+00
    0.00000E+00         0.00000E+00        -0.60709E+08
 
   -0.48671E+08        -0.17721E+07         0.00000E+00
   -0.17721E+07        -0.59755E+08         0.00000E+00
    0.00000E+00         0.00000E+00        -0.60970E+08
 
   -0.50154E+08        -0.20224E+07         0.00000E+00
   -0.20224E+07        -0.59611E+08         0.00000E+00
    0.00000E+00         0.00000E+00        -0.61238E+08
 
   -0.51627E+08        -0.20468E+07         0.00000E+00
   -0.20468E+07        -0.59473E+08         0.00000E+00
    0.00000E+00         0.00000E+00        -0.61505E+08
 
   -0.53059E+08        -0.18720E+07         0.00000E+00
   -0.18720E+07        -0.59346E+08         0.00000E+00
    0.00000E+00         0.00000E+00        -0.61765E+08
 
   -0.54434E+08        -0.15215E+07         0.00000E+00
   -0.15215E+07        -0.59224E+08         0.00000E+00
    0.00000E+00         0.00000E+00        -0.62015E+08
 
   -0.55750E+08        -0.10125E+07         0.00000E+00
   -0.10125E+07        -0.59096E+08         0.00000E+00
    0.00000E+00         0.00000E+00        -0.62253E+08
 
   -0.57009E+08        -0.35533E+06         0.00000E+00
   -0.35533E+06        -0.58951E+08         0.00000E+00
    0.00000E+00         0.00000E+00        -0.62475E+08
 
   -0.58216E+08         0.44714E+06         0.00000E+00
    0.44714E+06        -0.58775E+08         0.00000E+00
    0.00000E+00         0.00000E+00        -0.62681E+08
 
   -0.59371E+08         0.13986E+07         0.00000E+00
    0.13986E+07        -0.58561E+08         0.00000E+00
    0.00000E+00         0.00000E+00        -0.62869E+08
 
   -0.60467E+08         0.25078E+07         0.00000E+00
    0.25078E+07        -0.58307E+08         0.00000E+00
    0.00000E+00         0.00000E+00        -0.63037E+08
 
   -0.61482E+08         0.37854E+07         0.00000E+00
    0.37854E+07        -0.58020E+08         0.00000E+00
    0.00000E+00         0.00000E+00        -0.63183E+08
 
   -0.62382E+08         0.52394E+07         0.00000E+00
    0.52394E+07        -0.57720E+08         0.00000E+00
    0.00000E+00         0.00000E+00        -0.63303E+08
 
   -0.63113E+08         0.68697E+07         0.00000E+00
    0.68697E+07        -0.57438E+08         0.00000E+00
    0.00000E+00         0.00000E+00        -0.63393E+08
 
   -0.46792E+08        -0.44007E+06         0.00000E+00
   -0.44007E+06        -0.59977E+08         0.00000E+00
    0.00000E+00         0.00000E+00        -0.59216E+08
 
   -0.47849E+08        -0.11489E+07         0.00000E+00
   -0.11489E+07        -0.59890E+08         0.00000E+00
    0.00000E+00         0.00000E+00        -0.59410E+08
 
   -0.49038E+08        -0.16236E+07         0.00000E+00
   -0.16236E+07        -0.59755E+08         0.00000E+00
    0.00000E+00         0.00000E+00        -0.59620E+08
 
   -0.50289E+08        -0.18696E+07         0.00000E+00
   -0.18696E+07        -0.59600E+08         0.00000E+00
    0.00000E+00         0.00000E+00        -0.59840E+08
 
   -0.51553E+08        -0.19005E+07         0.00000E+00
   -0.19005E+07        -0.59444E+08         0.00000E+00
    0.00000E+00         0.00000E+00        -0.60061E+08
 
   -0.52796E+08        -0.17331E+07         0.00000E+00
   -0.17331E+07        -0.59292E+08         0.00000E+00
    0.00000E+00         0.00000E+00        -0.60279E+08
 
   -0.54001E+08        -0.13837E+07         0.00000E+00
   -0.13837E+07        -0.59143E+08         0.00000E+00
    0.00000E+00         0.00000E+00        -0.60490E+08
 
   -0.55159E+08        -0.86580E+06         0.00000E+00
   -0.86580E+06        -0.58992E+08         0.00000E+00
    0.00000E+00         0.00000E+00        -0.60691E+08
 
   -0.56267E+08        -0.18892E+06         0.00000E+00
   -0.18892E+06        -0.58830E+08         0.00000E+00
    0.00000E+00         0.00000E+00        -0.60880E+08
 
   -0.57324E+08         0.64208E+06         0.00000E+00
    0.64208E+06        -0.58648E+08         0.00000E+00
    0.00000E+00         0.00000E+00        -0.61054E+08
 
   -0.58326E+08         0.16262E+07         0.00000E+00
    0.16262E+07        -0.58442E+08         0.00000E+00
    0.00000E+00         0.00000E+00        -0.61213E+08
 
   -0.59262E+08         0.27649E+07         0.00000E+00
    0.27649E+07        -0.58212E+08         0.00000E+00
    0.00000E+00         0.00000E+00        -0.61354E+08
 
   -0.60113E+08         0.40595E+07         0.00000E+00
    0.40595E+07        -0.57966E+08         0.00000E+00
    0.00000E+00         0.00000E+00        -0.61475E+08
 
   -0.60849E+08         0.55077E+07         0.00000E+00
    0.55077E+07        -0.57719E+08         0.00000E+00
    0.00000E+00         0.00000E+00        -0.61573E+08
 
   -0.61429E+08         0.70993E+07         0.00000E+00
    0.70993E+07        -0.57497E+08         0.00000E+00
    0.00000E+00         0.00000E+00        -0.61644E+08
 
   -0.47573E+08        -0.39078E+06         0.00000E+00
   -0.39078E+06        -0.59979E+08         0.00000E+00
    0.00000E+00         0.00000E+00        -0.57982E+08
 
   -0.48417E+08        -0.10336E+07         0.00000E+00
   -0.10336E+07        -0.59900E+08         0.00000E+00
    0.00000E+00         0.00000E+00        -0.58135E+08
 
   -0.49387E+08        -0.14758E+07         0.00000E+00
   -0.14758E+07        -0.59773E+08         0.00000E+00
    0.00000E+00         0.00000E+00        -0.58304E+08
 
   -0.50424E+08        -0.17111E+07         0.00000E+00
   -0.17111E+07        -0.59623E+08         0.00000E+00
    0.00000E+00         0.00000E+00        -0.58481E+08
 
   -0.51484E+08        -0.17427E+07         0.00000E+00
   -0.17427E+07        -0.59467E+08         0.00000E+00
    0.00000E+00         0.00000E+00        -0.58662E+08
 
   -0.52537E+08        -0.15790E+07         0.00000E+00
   -0.15790E+07        -0.59312E+08         0.00000E+00
    0.00000E+00         0.00000E+00        -0.58841E+08
 
   -0.53565E+08        -0.12306E+07         0.00000E+00
   -0.12306E+07        -0.59158E+08         0.00000E+00
    0.00000E+00         0.00000E+00        -0.59015E+08
 
   -0.54556E+08        -0.70752E+06         0.00000E+00
   -0.70752E+06        -0.59002E+08         0.00000E+00
    0.00000E+00         0.00000E+00        -0.59182E+08
 
   -0.55505E+08        -0.18402E+05         0.00000E+00
   -0.18402E+05        -0.58840E+08         0.00000E+00
    0.00000E+00         0.00000E+00        -0.59339E+08
 
   -0.56406E+08         0.83037E+06         0.00000E+00
    0.83037E+06        -0.58667E+08         0.00000E+00
    0.00000E+00         0.00000E+00        -0.59485E+08
 
   -0.57255E+08         0.18341E+07         0.00000E+00
    0.18341E+07        -0.58478E+08         0.00000E+00
    0.00000E+00         0.00000E+00        -0.59616E+08
 
   -0.58039E+08         0.29887E+07         0.00000E+00
    0.29887E+07        -0.58277E+08         0.00000E+00
    0.00000E+00         0.00000E+00        -0.59733E+08
 
   -0.58742E+08         0.42885E+07         0.00000E+00
    0.42885E+07        -0.58069E+08         0.00000E+00
    0.00000E+00         0.00000E+00        -0.59832E+08
 
   -0.59340E+08         0.57236E+07         0.00000E+00
    0.57236E+07        -0.57868E+08         0.00000E+00
    0.00000E+00         0.00000E+00        -0.59911E+08
 
   -0.59799E+08         0.72769E+07         0.00000E+00
    0.72769E+07        -0.57692E+08         0.00000E+00
    0.00000E+00         0.00000E+00        -0.59968E+08
 
   -0.48271E+08        -0.34787E+06         0.00000E+00
   -0.34787E+06        -0.59982E+08         0.00000E+00
    0.00000E+00         0.00000E+00        -0.56761E+08
 
   -0.48938E+08        -0.93102E+06         0.00000E+00
   -0.93102E+06        -0.59915E+08         0.00000E+00
    0.00000E+00         0.00000E+00        -0.56881E+08
 
   -0.49715E+08        -0.13410E+07         0.00000E+00
   -0.13410E+07        -0.59805E+08         0.00000E+00
    0.00000E+00         0.00000E+00        -0.57014E+08
 
   -0.50553E+08        -0.15627E+07         0.00000E+00
   -0.15627E+07        -0.59673E+08         0.00000E+00
    0.00000E+00         0.00000E+00        -0.57155E+08
 
   -0.51417E+08        -0.15914E+07         0.00000E+00
   -0.15914E+07        -0.59532E+08         0.00000E+00
    0.00000E+00         0.00000E+00        -0.57299E+08
 
   -0.52281E+08        -0.14288E+07         0.00000E+00
   -0.14288E+07        -0.59390E+08         0.00000E+00
    0.00000E+00         0.00000E+00        -0.57443E+08
 
   -0.53127E+08        -0.10808E+07         0.00000E+00
   -0.10808E+07        -0.59248E+08         0.00000E+00
    0.00000E+00         0.00000E+00        -0.57584E+08
 
   -0.53946E+08        -0.55478E+06         0.00000E+00
   -0.55478E+06        -0.59104E+08         0.00000E+00
    0.00000E+00         0.00000E+00        -0.57719E+08
 
   -0.54730E+08         0.14167E+06         0.00000E+00
    0.14167E+06        -0.58957E+08         0.00000E+00
    0.00000E+00         0.00000E+00        -0.57846E+08
 
   -0.55474E+08         0.10010E+07         0.00000E+00
    0.10010E+07        -0.58803E+08         0.00000E+00
    0.00000E+00         0.00000E+00        -0.57963E+08
 
   -0.56170E+08         0.20158E+07         0.00000E+00
    0.20158E+07        -0.58640E+08         0.00000E+00
    0.00000E+00         0.00000E+00        -0.58070E+08
 
   -0.56809E+08         0.31779E+07         0.00000E+00
    0.31779E+07        -0.58471E+08         0.00000E+00
    0.00000E+00         0.00000E+00        -0.58164E+08
 
   -0.57377E+08         0.44763E+07         0.00000E+00
    0.44763E+07        -0.58301E+08         0.00000E+00
    0.00000E+00         0.00000E+00        -0.58243E+08
 
   -0.57855E+08         0.58962E+07         0.00000E+00
    0.58962E+07        -0.58140E+08         0.00000E+00
    0.00000E+00         0.00000E+00        -0.58306E+08
 
   -0.58219E+08         0.74156E+07         0.00000E+00
    0.74156E+07        -0.58001E+08         0.00000E+00
    0.00000E+00         0.00000E+00        -0.58351E+08
 
   -0.48899E+08        -0.31322E+06         0.00000E+00
   -0.31322E+06        -0.59986E+08         0.00000E+00
    0.00000E+00         0.00000E+00        -0.55547E+08
 
   -0.49418E+08        -0.84692E+06         0.00000E+00
   -0.84692E+06        -0.59934E+08         0.00000E+00
    0.00000E+00         0.00000E+00        -0.55640E+08
 
   -0.50022E+08        -0.12286E+07         0.00000E+00
   -0.12286E+07        -0.59848E+08         0.00000E+00
    0.00000E+00         0.00000E+00        -0.55744E+08
 
   -0.50674E+08        -0.14369E+07         0.00000E+00
   -0.14369E+07        -0.59743E+08         0.00000E+00
    0.00000E+00         0.00000E+00        -0.55853E+08
 
   -0.51348E+08        -0.14609E+07         0.00000E+00
   -0.14609E+07        -0.59629E+08         0.00000E+00
    0.00000E+00         0.00000E+00        -0.55965E+08
 
   -0.52024E+08        -0.12978E+07         0.00000E+00
   -0.12978E+07        -0.59513E+08         0.00000E+00
    0.00000E+00         0.00000E+00        -0.56077E+08
 
   -0.52689E+08        -0.94961E+06         0.00000E+00
   -0.94961E+06        -0.59396E+08         0.00000E+00
    0.00000E+00         0.00000E+00        -0.56186E+08
 
   -0.53332E+08        -0.42156E+06         0.00000E+00
   -0.42156E+06        -0.59277E+08         0.00000E+00
    0.00000E+00         0.00000E+00        -0.56291E+08
 
   -0.53949E+08         0.27937E+06         0.00000E+00
    0.27937E+06        -0.59156E+08         0.00000E+00
    0.00000E+00         0.00000E+00        -0.56389E+08
 
   -0.54532E+08         0.11450E+07         0.00000E+00
    0.11450E+07        -0.59031E+08         0.00000E+00
    0.00000E+00         0.00000E+00        -0.56481E+08
 
   -0.55078E+08         0.21660E+07         0.00000E+00
    0.21660E+07        -0.58901E+08         0.00000E+00
    0.00000E+00         0.00000E+00        -0.56563E+08
 
   -0.55577E+08         0.33311E+07         0.00000E+00
    0.33311E+07        -0.58767E+08         0.00000E+00
    0.00000E+00         0.00000E+00        -0.56636E+08
 
   -0.56020E+08         0.46261E+07         0.00000E+00
    0.46261E+07        -0.58633E+08         0.00000E+00
    0.00000E+00         0.00000E+00        -0.56698E+08
 
   -0.56392E+08         0.60324E+07         0.00000E+00
    0.60324E+07        -0.58508E+08         0.00000E+00
    0.00000E+00         0.00000E+00        -0.56747E+08
 
   -0.56678E+08         0.75250E+07         0.00000E+00
    0.75250E+07        -0.58399E+08         0.00000E+00
    0.00000E+00         0.00000E+00        -0.56783E+08
 
   -0.49473E+08        -0.28822E+06         0.00000E+00
   -0.28822E+06        -0.59991E+08         0.00000E+00
    0.00000E+00         0.00000E+00        -0.54337E+08
 
   -0.49865E+08        -0.78552E+06         0.00000E+00
   -0.78552E+06        -0.59956E+08         0.00000E+00
    0.00000E+00         0.00000E+00        -0.54409E+08
 
   -0.50311E+08        -0.11456E+07         0.00000E+00
   -0.11456E+07        -0.59898E+08         0.00000E+00
    0.00000E+00         0.00000E+00        -0.54486E+08
 
   -0.50787E+08        -0.13427E+07         0.00000E+00
   -0.13427E+07        -0.59827E+08         0.00000E+00
    0.00000E+00         0.00000E+00        -0.54567E+08
 
   -0.51277E+08        -0.13621E+07         0.00000E+00
   -0.13621E+07        -0.59749E+08         0.00000E+00
    0.00000E+00         0.00000E+00        -0.54649E+08
 
   -0.51768E+08        -0.11975E+07         0.00000E+00
   -0.11975E+07        -0.59668E+08         0.00000E+00
    0.00000E+00         0.00000E+00        -0.54731E+08
 
   -0.52249E+08        -0.84848E+06         0.00000E+00
   -0.84848E+06        -0.59586E+08         0.00000E+00
    0.00000E+00         0.00000E+00        -0.54810E+08
 
   -0.52716E+08        -0.31868E+06         0.00000E+00
   -0.31868E+06        -0.59502E+08         0.00000E+00
    0.00000E+00         0.00000E+00        -0.54887E+08
 
   -0.53162E+08         0.38547E+06         0.00000E+00
    0.38547E+06        -0.59416E+08         0.00000E+00
    0.00000E+00         0.00000E+00        -0.54959E+08
 
   -0.53585E+08         0.12554E+07         0.00000E+00
    0.12554E+07        -0.59326E+08         0.00000E+00
    0.00000E+00         0.00000E+00        -0.55025E+08
 
   -0.53981E+08         0.22803E+07         0.00000E+00
    0.22803E+07        -0.59233E+08         0.00000E+00
    0.00000E+00         0.00000E+00        -0.55085E+08
 
   -0.54345E+08         0.34473E+07         0.00000E+00
    0.34473E+07        -0.59136E+08         0.00000E+00
    0.00000E+00         0.00000E+00        -0.55139E+08
 
   -0.54669E+08         0.47397E+07         0.00000E+00
    0.47397E+07        -0.59040E+08         0.00000E+00
    0.00000E+00         0.00000E+00        -0.55184E+08
 
   -0.54946E+08         0.61366E+07         0.00000E+00
    0.61366E+07        -0.58947E+08         0.00000E+00
    0.00000E+00         0.00000E+00        -0.55221E+08
 
   -0.55165E+08         0.76116E+07         0.00000E+00
    0.76116E+07        -0.58864E+08         0.00000E+00
    0.00000E+00         0.00000E+00        -0.55248E+08
 
   -0.50012E+08        -0.27376E+06         0.00000E+00
   -0.27376E+06        -0.59996E+08         0.00000E+00
    0.00000E+00         0.00000E+00        -0.53127E+08
 
   -0.50289E+08        -0.74963E+06         0.00000E+00
   -0.74963E+06        -0.59980E+08         0.00000E+00
    0.00000E+00         0.00000E+00        -0.53180E+08
 
   -0.50587E+08        -0.10965E+07         0.00000E+00
   -0.10965E+07        -0.59953E+08         0.00000E+00
    0.00000E+00         0.00000E+00        -0.53234E+08
 
   -0.50894E+08        -0.12864E+07         0.00000E+00
   -0.12864E+07        -0.59920E+08         0.00000E+00
    0.00000E+00         0.00000E+00        -0.53288E+08
 
   -0.51204E+08        -0.13024E+07         0.00000E+00
   -0.13024E+07        -0.59883E+08         0.00000E+00
    0.00000E+00         0.00000E+00        -0.53343E+08
 
   -0.51510E+08        -0.11361E+07         0.00000E+00
   -0.11361E+07        -0.59844E+08         0.00000E+00
    0.00000E+00         0.00000E+00        -0.53396E+08
 
   -0.51808E+08        -0.78569E+06         0.00000E+00
   -0.78569E+06        -0.59803E+08         0.00000E+00
    0.00000E+00         0.00000E+00        -0.53447E+08
 
   -0.52096E+08        -0.25381E+06         0.00000E+00
   -0.25381E+06        -0.59760E+08         0.00000E+00
    0.00000E+00         0.00000E+00        -0.53496E+08
 
   -0.52372E+08         0.45340E+06         0.00000E+00
    0.45340E+06        -0.59715E+08         0.00000E+00
    0.00000E+00         0.00000E+00        -0.53542E+08
 
   -0.52635E+08         0.13271E+07         0.00000E+00
    0.13271E+07        -0.59666E+08         0.00000E+00
    0.00000E+00         0.00000E+00        -0.53584E+08
 
   -0.52882E+08         0.23559E+07         0.00000E+00
    0.23559E+07        -0.59612E+08         0.00000E+00
    0.00000E+00         0.00000E+00        -0.53623E+08
 
   -0.53112E+08         0.35255E+07         0.00000E+00
    0.35255E+07        -0.59555E+08         0.00000E+00
    0.00000E+00         0.00000E+00        -0.53657E+08
 
   -0.53322E+08         0.48181E+07         0.00000E+00
    0.48181E+07        -0.59495E+08         0.00000E+00
    0.00000E+00         0.00000E+00        -0.53687E+08
 
   -0.53509E+08         0.62118E+07         0.00000E+00
    0.62118E+07        -0.59434E+08         0.00000E+00
    0.00000E+00         0.00000E+00        -0.53712E+08
 
   -0.53668E+08         0.76793E+07         0.00000E+00
    0.76793E+07        -0.59373E+08         0.00000E+00
    0.00000E+00         0.00000E+00        -0.53732E+08
 
   -0.50533E+08        -0.27029E+06         0.00000E+00
   -0.27029E+06        -0.60001E+08         0.00000E+00
    0.00000E+00         0.00000E+00        -0.51914E+08
 
   -0.50702E+08        -0.74076E+06         0.00000E+00
   -0.74076E+06        -0.60005E+08         0.00000E+00
    0.00000E+00         0.00000E+00        -0.51948E+08
 
   -0.50856E+08        -0.10841E+07         0.00000E+00
   -0.10841E+07        -0.60010E+08         0.00000E+00
    0.00000E+00         0.00000E+00        -0.51980E+08
 
   -0.50998E+08        -0.12718E+07         0.00000E+00
   -0.12718E+07        -0.60017E+08         0.00000E+00
    0.00000E+00         0.00000E+00        -0.52009E+08
 
   -0.51129E+08        -0.12863E+07         0.00000E+00
   -0.12863E+07        -0.60023E+08         0.00000E+00
    0.00000E+00         0.00000E+00        -0.52037E+08
 
   -0.51251E+08        -0.11186E+07         0.00000E+00
   -0.11186E+07        -0.60029E+08         0.00000E+00
    0.00000E+00         0.00000E+00        -0.52062E+08
 
   -0.51366E+08        -0.76624E+06         0.00000E+00
   -0.76624E+06        -0.60033E+08         0.00000E+00
    0.00000E+00         0.00000E+00        -0.52085E+08
 
   -0.51474E+08        -0.23168E+06         0.00000E+00
   -0.23168E+06        -0.60035E+08         0.00000E+00
    0.00000E+00         0.00000E+00        -0.52107E+08
 
   -0.51578E+08         0.47910E+06         0.00000E+00
    0.47910E+06        -0.60033E+08         0.00000E+00
    0.00000E+00         0.00000E+00        -0.52127E+08
 
   -0.51679E+08         0.13571E+07         0.00000E+00
    0.13571E+07        -0.60027E+08         0.00000E+00
    0.00000E+00         0.00000E+00        -0.52146E+08
 
   -0.51778E+08         0.23906E+07         0.00000E+00
    0.23906E+07        -0.60016E+08         0.00000E+00
    0.00000E+00         0.00000E+00        -0.52163E+08
 
   -0.51876E+08         0.35650E+07         0.00000E+00
    0.35650E+07        -0.59999E+08         0.00000E+00
    0.00000E+00         0.00000E+00        -0.52179E+08
 
   -0.51974E+08         0.48620E+07         0.00000E+00
    0.48620E+07        -0.59975E+08         0.00000E+00
    0.00000E+00         0.00000E+00        -0.52194E+08
 
   -0.52073E+08         0.62595E+07         0.00000E+00
    0.62595E+07        -0.59945E+08         0.00000E+00
    0.00000E+00         0.00000E+00        -0.52208E+08
 
   -0.52175E+08         0.77300E+07         0.00000E+00
    0.77300E+07        -0.59907E+08         0.00000E+00
    0.00000E+00         0.00000E+00        -0.52221E+08
 
   -0.51059E+08        -0.27788E+06         0.00000E+00
   -0.27788E+06        -0.60006E+08         0.00000E+00
    0.00000E+00         0.00000E+00        -0.50692E+08
 
   -0.51118E+08        -0.75924E+06         0.00000E+00
   -0.75924E+06        -0.60029E+08         0.00000E+00
    0.00000E+00         0.00000E+00        -0.50708E+08
 
   -0.51127E+08        -0.11091E+07         0.00000E+00
   -0.11091E+07        -0.60067E+08         0.00000E+00
    0.00000E+00         0.00000E+00        -0.50717E+08
 
   -0.51101E+08        -0.13000E+07         0.00000E+00
   -0.13000E+07        -0.60113E+08         0.00000E+00
    0.00000E+00         0.00000E+00        -0.50721E+08
 
   -0.51053E+08        -0.13153E+07         0.00000E+00
   -0.13153E+07        -0.60164E+08         0.00000E+00
    0.00000E+00         0.00000E+00        -0.50721E+08
 
   -0.50990E+08        -0.11467E+07         0.00000E+00
   -0.11467E+07        -0.60215E+08         0.00000E+00
    0.00000E+00         0.00000E+00        -0.50719E+08
 
   -0.50920E+08        -0.79204E+06         0.00000E+00
   -0.79204E+06        -0.60264E+08         0.00000E+00
    0.00000E+00         0.00000E+00        -0.50715E+08
 
   -0.50849E+08        -0.25409E+06         0.00000E+00
   -0.25409E+06        -0.60311E+08         0.00000E+00
    0.00000E+00         0.00000E+00        -0.50709E+08
 
   -0.50780E+08         0.46098E+06         0.00000E+00
    0.46098E+06        -0.60353E+08         0.00000E+00
    0.00000E+00         0.00000E+00        -0.50704E+08
 
   -0.50719E+08         0.13442E+07         0.00000E+00
    0.13442E+07        -0.60390E+08         0.00000E+00
    0.00000E+00         0.00000E+00        -0.50699E+08
 
   -0.50669E+08         0.23838E+07         0.00000E+00
    0.23838E+07        -0.60421E+08         0.00000E+00
    0.00000E+00         0.00000E+00        -0.50695E+08
 
   -0.50634E+08         0.35655E+07         0.00000E+00
    0.35655E+07        -0.60444E+08         0.00000E+00
    0.00000E+00         0.00000E+00        -0.50692E+08
 
   -0.50619E+08         0.48715E+07         0.00000E+00
    0.48715E+07        -0.60458E+08         0.00000E+00
    0.00000E+00         0.00000E+00        -0.50692E+08
 
   -0.50629E+08         0.62798E+07         0.00000E+00
    0.62798E+07        -0.60459E+08         0.00000E+00
    0.00000E+00         0.00000E+00        -0.50694E+08
 
   -0.50672E+08         0.77639E+07         0.00000E+00
    0.77639E+07        -0.60443E+08         0.00000E+00
    0.00000E+00         0.00000E+00        -0.50699E+08
 
   -0.51608E+08        -0.29617E+06         0.00000E+00
   -0.29617E+06        -0.60011E+08         0.00000E+00
    0.00000E+00         0.00000E+00        -0.49459E+08
 
   -0.51548E+08        -0.80432E+06         0.00000E+00
   -0.80432E+06        -0.60052E+08         0.00000E+00
    0.00000E+00         0.00000E+00        -0.49455E+08
 
   -0.51406E+08        -0.11705E+07         0.00000E+00
   -0.11705E+07        -0.60120E+08         0.00000E+00
    0.00000E+00         0.00000E+00        -0.49440E+08
 
   -0.51209E+08        -0.13700E+07         0.00000E+00
   -0.13700E+07        -0.60205E+08         0.00000E+00
    0.00000E+00         0.00000E+00        -0.49417E+08
 
   -0.50977E+08        -0.13884E+07         0.00000E+00
   -0.13884E+07        -0.60297E+08         0.00000E+00
    0.00000E+00         0.00000E+00        -0.49389E+08
 
   -0.50728E+08        -0.12193E+07         0.00000E+00
   -0.12193E+07        -0.60391E+08         0.00000E+00
    0.00000E+00         0.00000E+00        -0.49358E+08
 
   -0.50472E+08        -0.86204E+06         0.00000E+00
   -0.86204E+06        -0.60483E+08         0.00000E+00
    0.00000E+00         0.00000E+00        -0.49325E+08
 
   -0.50219E+08        -0.32012E+06         0.00000E+00
   -0.32012E+06        -0.60572E+08         0.00000E+00
    0.00000E+00         0.00000E+00        -0.49292E+08
 
   -0.49977E+08         0.39985E+06         0.00000E+00
    0.39985E+06        -0.60656E+08         0.00000E+00
    0.00000E+00         0.00000E+00        -0.49260E+08
 
   -0.49753E+08         0.12889E+07         0.00000E+00
    0.12889E+07        -0.60734E+08         0.00000E+00
    0.00000E+00         0.00000E+00        -0.49231E+08
 
   -0.49552E+08         0.23359E+07         0.00000E+00
    0.23359E+07        -0.60806E+08         0.00000E+00
    0.00000E+00         0.00000E+00        -0.49205E+08
 
   -0.49382E+08         0.35272E+07         0.00000E+00
    0.35272E+07        -0.60869E+08         0.00000E+00
    0.00000E+00         0.00000E+00        -0.49183E+08
 
   -0.49251E+08         0.48460E+07         0.00000E+00
    0.48460E+07        -0.60920E+08         0.00000E+00
    0.00000E+00         0.00000E+00        -0.49167E+08
 
   -0.49170E+08         0.62719E+07         0.00000E+00
    0.62719E+07        -0.60953E+08         0.00000E+00
    0.00000E+00         0.00000E+00        -0.49157E+08
 
   -0.49149E+08         0.77795E+07         0.00000E+00
    0.77795E+07        -0.60962E+08         0.00000E+00
    0.00000E+00         0.00000E+00        -0.49154E+08
 
   -0.52199E+08        -0.32448E+06         0.00000E+00
   -0.32448E+06        -0.60015E+08         0.00000E+00
    0.00000E+00         0.00000E+00        -0.48212E+08
 
   -0.52005E+08        -0.87418E+06         0.00000E+00
   -0.87418E+06        -0.60073E+08         0.00000E+00
    0.00000E+00         0.00000E+00        -0.48184E+08
 
   -0.51700E+08        -0.12656E+07         0.00000E+00
   -0.12656E+07        -0.60169E+08         0.00000E+00
    0.00000E+00         0.00000E+00        -0.48143E+08
 
   -0.51323E+08        -0.14783E+07         0.00000E+00
   -0.14783E+07        -0.60288E+08         0.00000E+00
    0.00000E+00         0.00000E+00        -0.48091E+08
 
   -0.50903E+08        -0.15017E+07         0.00000E+00
   -0.15017E+07        -0.60416E+08         0.00000E+00
    0.00000E+00         0.00000E+00        -0.48032E+08
 
   -0.50463E+08        -0.13325E+07         0.00000E+00
   -0.13325E+07        -0.60547E+08         0.00000E+00
    0.00000E+00         0.00000E+00        -0.47970E+08
 
   -0.50020E+08        -0.97223E+06         0.00000E+00
   -0.97223E+06        -0.60677E+08         0.00000E+00
    0.00000E+00         0.00000E+00        -0.47907E+08
 
   -0.49585E+08        -0.42604E+06         0.00000E+00
   -0.42604E+06        -0.60803E+08         0.00000E+00
    0.00000E+00         0.00000E+00        -0.47845E+08
 
   -0.49169E+08         0.29886E+06         0.00000E+00
    0.29886E+06        -0.60924E+08         0.00000E+00
    0.00000E+00         0.00000E+00        -0.47786E+08
 
   -0.48780E+08         0.11937E+07         0.00000E+00
    0.11937E+07        -0.61040E+08         0.00000E+00
    0.00000E+00         0.00000E+00        -0.47731E+08
 
   -0.48427E+08         0.22482E+07         0.00000E+00
    0.22482E+07        -0.61151E+08         0.00000E+00
    0.00000E+00         0.00000E+00        -0.47682E+08
 
   -0.48118E+08         0.34503E+07         0.00000E+00
    0.34503E+07        -0.61252E+08         0.00000E+00
    0.00000E+00         0.00000E+00        -0.47641E+08
 
   -0.47867E+08         0.47851E+07         0.00000E+00
    0.47851E+07        -0.61340E+08         0.00000E+00
    0.00000E+00         0.00000E+00        -0.47608E+08
 
   -0.47686E+08         0.62340E+07         0.00000E+00
    0.62340E+07        -0.61407E+08         0.00000E+00
    0.00000E+00         0.00000E+00        -0.47585E+08
 
   -0.47593E+08         0.77738E+07         0.00000E+00
    0.77738E+07        -0.61443E+08         0.00000E+00
    0.00000E+00         0.00000E+00        -0.47573E+08
 
   -0.52851E+08        -0.36182E+06         0.00000E+00
   -0.36182E+06        -0.60019E+08         0.00000E+00
    0.00000E+00         0.00000E+00        -0.46949E+08
 
   -0.52500E+08        -0.96604E+06         0.00000E+00
   -0.96604E+06        -0.60091E+08         0.00000E+00
    0.00000E+00         0.00000E+00        -0.46893E+08
 
   -0.52016E+08        -0.13901E+07         0.00000E+00
   -0.13901E+07        -0.60211E+08         0.00000E+00
    0.00000E+00         0.00000E+00        -0.46820E+08
 
   -0.51448E+08        -0.16194E+07         0.00000E+00
   -0.16194E+07        -0.60358E+08         0.00000E+00
    0.00000E+00         0.00000E+00        -0.46736E+08
 
   -0.50832E+08        -0.16488E+07         0.00000E+00
   -0.16488E+07        -0.60516E+08         0.00000E+00
    0.00000E+00         0.00000E+00        -0.46644E+08
 
   -0.50197E+08        -0.14792E+07         0.00000E+00
   -0.14792E+07        -0.60676E+08         0.00000E+00
    0.00000E+00         0.00000E+00        -0.46549E+08
 
   -0.49564E+08        -0.11156E+07         0.00000E+00
   -0.11156E+07        -0.60834E+08         0.00000E+00
    0.00000E+00         0.00000E+00        -0.46453E+08
 
   -0.48946E+08        -0.56537E+06         0.00000E+00
   -0.56537E+06        -0.60989E+08         0.00000E+00
    0.00000E+00         0.00000E+00        -0.46361E+08
 
   -0.48356E+08         0.16356E+06         0.00000E+00
    0.16356E+06        -0.61140E+08         0.00000E+00
    0.00000E+00         0.00000E+00        -0.46272E+08
 
   -0.47801E+08         0.10628E+07         0.00000E+00
    0.10628E+07        -0.61288E+08         0.00000E+00
    0.00000E+00         0.00000E+00        -0.46191E+08
 
   -0.47293E+08         0.21234E+07         0.00000E+00
    0.21234E+07        -0.61433E+08         0.00000E+00
    0.00000E+00         0.00000E+00        -0.46118E+08
 
   -0.46841E+08         0.33357E+07         0.00000E+00
    0.33357E+07        -0.61571E+08         0.00000E+00
    0.00000E+00         0.00000E+00        -0.46055E+08
 
   -0.46461E+08         0.46875E+07         0.00000E+00
    0.46875E+07        -0.61696E+08         0.00000E+00
    0.00000E+00         0.00000E+00        -0.46004E+08
 
   -0.46172E+08         0.61632E+07         0.00000E+00
    0.61632E+07        -0.61799E+08         0.00000E+00
    0.00000E+00         0.00000E+00        -0.45966E+08
 
   -0.45995E+08         0.77422E+07         0.00000E+00
    0.77422E+07        -0.61867E+08         0.00000E+00
    0.00000E+00         0.00000E+00        -0.45945E+08
 
   -0.53577E+08        -0.40689E+06         0.00000E+00
   -0.40689E+06        -0.60022E+08         0.00000E+00
    0.00000E+00         0.00000E+00        -0.45669E+08
 
   -0.53041E+08        -0.10762E+07         0.00000E+00
   -0.10762E+07        -0.60106E+08         0.00000E+00
    0.00000E+00         0.00000E+00        -0.45579E+08
 
   -0.52358E+08        -0.15381E+07         0.00000E+00
   -0.15381E+07        -0.60244E+08         0.00000E+00
    0.00000E+00         0.00000E+00        -0.45469E+08
 
   -0.51583E+08        -0.17856E+07         0.00000E+00
   -0.17856E+07        -0.60411E+08         0.00000E+00
    0.00000E+00         0.00000E+00        -0.45348E+08
 
   -0.50762E+08        -0.18204E+07         0.00000E+00
   -0.18204E+07        -0.60588E+08         0.00000E+00
    0.00000E+00         0.00000E+00        -0.45219E+08
 
   -0.49928E+08        -0.16494E+07         0.00000E+00
   -0.16494E+07        -0.60767E+08         0.00000E+00
    0.00000E+00         0.00000E+00        -0.45087E+08
 
   -0.49104E+08        -0.12822E+07         0.00000E+00
   -0.12822E+07        -0.60942E+08         0.00000E+00
    0.00000E+00         0.00000E+00        -0.44957E+08
 
   -0.48304E+08        -0.72876E+06         0.00000E+00
   -0.72876E+06        -0.61114E+08         0.00000E+00
    0.00000E+00         0.00000E+00        -0.44831E+08
 
   -0.47540E+08         0.19107E+04         0.00000E+00
    0.19107E+04        -0.61285E+08         0.00000E+00
    0.00000E+00         0.00000E+00        -0.44712E+08
 
   -0.46819E+08         0.90208E+06         0.00000E+00
    0.90208E+06        -0.61457E+08         0.00000E+00
    0.00000E+00         0.00000E+00        -0.44602E+08
 
   -0.46152E+08         0.19651E+07         0.00000E+00
    0.19651E+07        -0.61630E+08         0.00000E+00
    0.00000E+00         0.00000E+00        -0.44503E+08
 
   -0.45552E+08         0.31842E+07         0.00000E+00
    0.31842E+07        -0.61802E+08         0.00000E+00
    0.00000E+00         0.00000E+00        -0.44417E+08
 
   -0.45035E+08         0.45515E+07         0.00000E+00
    0.45515E+07        -0.61965E+08         0.00000E+00
    0.00000E+00         0.00000E+00        -0.44346E+08
 
   -0.44624E+08         0.60553E+07         0.00000E+00
    0.60553E+07        -0.62108E+08         0.00000E+00
    0.00000E+00         0.00000E+00        -0.44292E+08
 
   -0.44347E+08         0.76788E+07         0.00000E+00
    0.76788E+07        -0.62214E+08         0.00000E+00
    0.00000E+00         0.00000E+00        -0.44258E+08
 
   -0.54389E+08        -0.45816E+06         0.00000E+00
   -0.45816E+06        -0.60024E+08         0.00000E+00
    0.00000E+00         0.00000E+00        -0.44371E+08
 
   -0.53636E+08        -0.12000E+07         0.00000E+00
   -0.12000E+07        -0.60117E+08         0.00000E+00
    0.00000E+00         0.00000E+00        -0.44239E+08
 
   -0.52726E+08        -0.17019E+07         0.00000E+00
   -0.17019E+07        -0.60266E+08         0.00000E+00
    0.00000E+00         0.00000E+00        -0.44086E+08
 
   -0.51728E+08        -0.19664E+07         0.00000E+00
   -0.19664E+07        -0.60443E+08         0.00000E+00
    0.00000E+00         0.00000E+00        -0.43922E+08
 
   -0.50692E+08        -0.20041E+07         0.00000E+00
   -0.20041E+07        -0.60627E+08         0.00000E+00
    0.00000E+00         0.00000E+00        -0.43751E+08
 
   -0.49656E+08        -0.18298E+07         0.00000E+00
   -0.18298E+07        -0.60809E+08         0.00000E+00
    0.00000E+00         0.00000E+00        -0.43580E+08
 
   -0.48641E+08        -0.14587E+07         0.00000E+00
   -0.14587E+07        -0.60986E+08         0.00000E+00
    0.00000E+00         0.00000E+00        -0.43412E+08
 
   -0.47661E+08        -0.90390E+06         0.00000E+00
   -0.90390E+06        -0.61162E+08         0.00000E+00
    0.00000E+00         0.00000E+00        -0.43251E+08
 
   -0.46725E+08        -0.17564E+06         0.00000E+00
   -0.17564E+06        -0.61340E+08         0.00000E+00
    0.00000E+00         0.00000E+00        -0.43099E+08
 
   -0.45839E+08         0.71951E+06         0.00000E+00
    0.71951E+06        -0.61525E+08         0.00000E+00
    0.00000E+00         0.00000E+00        -0.42959E+08
 
   -0.45012E+08         0.17779E+07         0.00000E+00
    0.17779E+07        -0.61720E+08         0.00000E+00
    0.00000E+00         0.00000E+00        -0.42832E+08
 
   -0.44255E+08         0.29972E+07         0.00000E+00
    0.29972E+07        -0.61922E+08         0.00000E+00
    0.00000E+00         0.00000E+00        -0.42721E+08
 
   -0.43588E+08         0.43748E+07         0.00000E+00
    0.43748E+07        -0.62124E+08         0.00000E+00
    0.00000E+00         0.00000E+00        -0.42627E+08
 
   -0.43039E+08         0.59048E+07         0.00000E+00
    0.59048E+07        -0.62311E+08         0.00000E+00
    0.00000E+00         0.00000E+00        -0.42555E+08
 
   -0.42643E+08         0.75752E+07         0.00000E+00
    0.75752E+07        -0.62463E+08         0.00000E+00
    0.00000E+00         0.00000E+00        -0.42506E+08
 
   -0.55298E+08        -0.51389E+06         0.00000E+00
   -0.51389E+06        -0.60026E+08         0.00000E+00
    0.00000E+00         0.00000E+00        -0.43055E+08
 
   -0.54286E+08        -0.13320E+07         0.00000E+00
   -0.13320E+07        -0.60123E+08         0.00000E+00
    0.00000E+00         0.00000E+00        -0.42872E+08
 
   -0.53120E+08        -0.18721E+07         0.00000E+00
   -0.18721E+07        -0.60275E+08         0.00000E+00
    0.00000E+00         0.00000E+00        -0.42669E+08
 
   -0.51879E+08        -0.21488E+07         0.00000E+00
   -0.21488E+07        -0.60449E+08         0.00000E+00
    0.00000E+00         0.00000E+00        -0.42455E+08
 
   -0.50620E+08        -0.21845E+07         0.00000E+00
   -0.21845E+07        -0.60624E+08         0.00000E+00
    0.00000E+00         0.00000E+00        -0.42238E+08
 
   -0.49378E+08        -0.20037E+07         0.00000E+00
   -0.20037E+07        -0.60791E+08         0.00000E+00
    0.00000E+00         0.00000E+00        -0.42023E+08
 
   -0.48176E+08        -0.16283E+07         0.00000E+00
   -0.16283E+07        -0.60952E+08         0.00000E+00
    0.00000E+00         0.00000E+00        -0.41814E+08
 
   -0.47021E+08        -0.10755E+07         0.00000E+00
   -0.10755E+07        -0.61113E+08         0.00000E+00
    0.00000E+00         0.00000E+00        -0.41615E+08
 
   -0.45919E+08        -0.35618E+06         0.00000E+00
   -0.35618E+06        -0.61282E+08         0.00000E+00
    0.00000E+00         0.00000E+00        -0.41428E+08
 
   -0.44870E+08         0.52469E+06         0.00000E+00
    0.52469E+06        -0.61469E+08         0.00000E+00
    0.00000E+00         0.00000E+00        -0.41255E+08
 
   -0.43879E+08         0.15674E+07         0.00000E+00
    0.15674E+07        -0.61677E+08         0.00000E+00
    0.00000E+00         0.00000E+00        -0.41098E+08
 
   -0.42958E+08         0.27757E+07         0.00000E+00
    0.27757E+07        -0.61907E+08         0.00000E+00
    0.00000E+00         0.00000E+00        -0.40960E+08
 
   -0.42128E+08         0.41540E+07         0.00000E+00
    0.41540E+07        -0.62148E+08         0.00000E+00
    0.00000E+00         0.00000E+00        -0.40842E+08
 
   -0.41421E+08         0.57041E+07         0.00000E+00
    0.57041E+07        -0.62386E+08         0.00000E+00
    0.00000E+00         0.00000E+00        -0.40748E+08
 
   -0.40878E+08         0.74211E+07         0.00000E+00
    0.74211E+07        -0.62594E+08         0.00000E+00
    0.00000E+00         0.00000E+00        -0.40681E+08
 
   -0.56308E+08        -0.57216E+06         0.00000E+00
   -0.57216E+06        -0.60027E+08         0.00000E+00
    0.00000E+00         0.00000E+00        -0.41721E+08
 
   -0.54990E+08        -0.14654E+07         0.00000E+00
   -0.14654E+07        -0.60123E+08         0.00000E+00
    0.00000E+00         0.00000E+00        -0.41477E+08
 
   -0.53534E+08        -0.20366E+07         0.00000E+00
   -0.20366E+07        -0.60268E+08         0.00000E+00
    0.00000E+00         0.00000E+00        -0.41214E+08
 
   -0.52030E+08        -0.23163E+07         0.00000E+00
   -0.23163E+07        -0.60424E+08         0.00000E+00
    0.00000E+00         0.00000E+00        -0.40944E+08
 
   -0.50538E+08        -0.23420E+07         0.00000E+00
   -0.23420E+07        -0.60569E+08         0.00000E+00
    0.00000E+00         0.00000E+00        -0.40675E+08
 
   -0.49093E+08        -0.21502E+07         0.00000E+00
   -0.21502E+07        -0.60699E+08         0.00000E+00
    0.00000E+00         0.00000E+00        -0.40412E+08
 
   -0.47710E+08        -0.17710E+07         0.00000E+00
   -0.17710E+07        -0.60821E+08         0.00000E+00
    0.00000E+00         0.00000E+00        -0.40159E+08
 
   -0.46390E+08        -0.12253E+07         0.00000E+00
   -0.12253E+07        -0.60947E+08         0.00000E+00
    0.00000E+00         0.00000E+00        -0.39920E+08
 
   -0.45130E+08        -0.52445E+06         0.00000E+00
   -0.52445E+06        -0.61090E+08         0.00000E+00
    0.00000E+00         0.00000E+00        -0.39696E+08
 
   -0.43923E+08         0.32897E+06         0.00000E+00
    0.32897E+06        -0.61263E+08         0.00000E+00
    0.00000E+00         0.00000E+00        -0.39489E+08
 
   -0.42769E+08         0.13403E+07         0.00000E+00
    0.13403E+07        -0.61475E+08         0.00000E+00
    0.00000E+00         0.00000E+00        -0.39300E+08
 
   -0.41676E+08         0.25208E+07         0.00000E+00
    0.25208E+07        -0.61728E+08         0.00000E+00
    0.00000E+00         0.00000E+00        -0.39132E+08
 
   -0.40666E+08         0.38845E+07         0.00000E+00
    0.38845E+07        -0.62012E+08         0.00000E+00
    0.00000E+00         0.00000E+00        -0.38986E+08
 
   -0.39773E+08         0.54436E+07         0.00000E+00
    0.54436E+07        -0.62308E+08         0.00000E+00
    0.00000E+00         0.00000E+00        -0.38867E+08
 
   -0.39052E+08         0.72029E+07         0.00000E+00
    0.72029E+07        -0.62585E+08         0.00000E+00
    0.00000E+00         0.00000E+00        -0.38778E+08
 
   -0.57420E+08        -0.63083E+06         0.00000E+00
   -0.63083E+06        -0.60027E+08         0.00000E+00
    0.00000E+00         0.00000E+00        -0.40371E+08
 
   -0.55740E+08        -0.15921E+07         0.00000E+00
   -0.15921E+07        -0.60117E+08         0.00000E+00
    0.00000E+00         0.00000E+00        -0.40053E+08
 
   -0.53956E+08        -0.21805E+07         0.00000E+00
   -0.21805E+07        -0.60242E+08         0.00000E+00
    0.00000E+00         0.00000E+00        -0.39721E+08
 
   -0.52169E+08        -0.24481E+07         0.00000E+00
   -0.24481E+07        -0.60357E+08         0.00000E+00
    0.00000E+00         0.00000E+00        -0.39386E+08
 
   -0.50441E+08        -0.24525E+07         0.00000E+00
   -0.24525E+07        -0.60448E+08         0.00000E+00
    0.00000E+00         0.00000E+00        -0.39059E+08
 
   -0.48800E+08        -0.22449E+07         0.00000E+00
   -0.22449E+07        -0.60515E+08         0.00000E+00
    0.00000E+00         0.00000E+00        -0.38743E+08
 
   -0.47249E+08        -0.18635E+07         0.00000E+00
   -0.18635E+07        -0.60572E+08         0.00000E+00
    0.00000E+00         0.00000E+00        -0.38444E+08
 
   -0.45778E+08        -0.13326E+07         0.00000E+00
   -0.13326E+07        -0.60640E+08         0.00000E+00
    0.00000E+00         0.00000E+00        -0.38163E+08
 
   -0.44372E+08        -0.66329E+06         0.00000E+00
   -0.66329E+06        -0.60737E+08         0.00000E+00
    0.00000E+00         0.00000E+00        -0.37901E+08
 
   -0.43016E+08         0.14523E+06         0.00000E+00
    0.14523E+06        -0.60881E+08         0.00000E+00
    0.00000E+00         0.00000E+00        -0.37658E+08
 
   -0.41701E+08         0.11041E+07         0.00000E+00
    0.11041E+07        -0.61086E+08         0.00000E+00
    0.00000E+00         0.00000E+00        -0.37436E+08
 
   -0.40428E+08         0.22337E+07         0.00000E+00
    0.22337E+07        -0.61357E+08         0.00000E+00
    0.00000E+00         0.00000E+00        -0.37235E+08
 
   -0.39217E+08         0.35601E+07         0.00000E+00
    0.35601E+07        -0.61686E+08         0.00000E+00
    0.00000E+00         0.00000E+00        -0.37059E+08
 
   -0.38108E+08         0.51102E+07         0.00000E+00
    0.51102E+07        -0.62052E+08         0.00000E+00
    0.00000E+00         0.00000E+00        -0.36910E+08
 
   -0.37166E+08         0.69027E+07         0.00000E+00
    0.69027E+07        -0.62417E+08         0.00000E+00
    0.00000E+00         0.00000E+00        -0.36794E+08
 
   -0.58628E+08        -0.68754E+06         0.00000E+00
   -0.68754E+06        -0.60025E+08         0.00000E+00
    0.00000E+00         0.00000E+00        -0.39005E+08
 
   -0.56519E+08        -0.17014E+07         0.00000E+00
   -0.17014E+07        -0.60103E+08         0.00000E+00
    0.00000E+00         0.00000E+00        -0.38599E+08
 
   -0.54365E+08        -0.22833E+07         0.00000E+00
   -0.22833E+07        -0.60188E+08         0.00000E+00
    0.00000E+00         0.00000E+00        -0.38185E+08
 
   -0.52280E+08        -0.25170E+07         0.00000E+00
   -0.25170E+07        -0.60237E+08         0.00000E+00
    0.00000E+00         0.00000E+00        -0.37777E+08
 
   -0.50320E+08        -0.24865E+07         0.00000E+00
   -0.24865E+07        -0.60240E+08         0.00000E+00
    0.00000E+00         0.00000E+00        -0.37385E+08
 
   -0.48497E+08        -0.22592E+07         0.00000E+00
   -0.22592E+07        -0.60212E+08         0.00000E+00
    0.00000E+00         0.00000E+00        -0.37015E+08
 
   -0.46797E+08        -0.18805E+07         0.00000E+00
   -0.18805E+07        -0.60177E+08         0.00000E+00
    0.00000E+00         0.00000E+00        -0.36668E+08
 
   -0.45195E+08        -0.13759E+07         0.00000E+00
   -0.13759E+07        -0.60163E+08         0.00000E+00
    0.00000E+00         0.00000E+00        -0.36344E+08
 
   -0.43662E+08        -0.75471E+06         0.00000E+00
   -0.75471E+06        -0.60195E+08         0.00000E+00
    0.00000E+00         0.00000E+00        -0.36043E+08
 
   -0.42170E+08        -0.12638E+05         0.00000E+00
   -0.12638E+05        -0.60295E+08         0.00000E+00
    0.00000E+00         0.00000E+00        -0.35765E+08
 
   -0.40699E+08         0.86753E+06         0.00000E+00
    0.86753E+06        -0.60481E+08         0.00000E+00
    0.00000E+00         0.00000E+00        -0.35507E+08
 
   -0.39241E+08         0.19157E+07         0.00000E+00
    0.19157E+07        -0.60763E+08         0.00000E+00
    0.00000E+00         0.00000E+00        -0.35272E+08
 
   -0.37808E+08         0.31734E+07         0.00000E+00
    0.31734E+07        -0.61141E+08         0.00000E+00
    0.00000E+00         0.00000E+00        -0.35061E+08
 
   -0.36443E+08         0.46872E+07         0.00000E+00
    0.46872E+07        -0.61591E+08         0.00000E+00
    0.00000E+00         0.00000E+00        -0.34878E+08
 
   -0.35224E+08         0.64971E+07         0.00000E+00
    0.64971E+07        -0.62065E+08         0.00000E+00
    0.00000E+00         0.00000E+00        -0.34729E+08
 
   -0.59921E+08        -0.73937E+06         0.00000E+00
   -0.73937E+06        -0.60022E+08         0.00000E+00
    0.00000E+00         0.00000E+00        -0.37624E+08
 
   -0.57301E+08        -0.17777E+07         0.00000E+00
   -0.17777E+07        -0.60075E+08         0.00000E+00
    0.00000E+00         0.00000E+00        -0.37111E+08
 
   -0.54734E+08        -0.23160E+07         0.00000E+00
   -0.23160E+07        -0.60093E+08         0.00000E+00
    0.00000E+00         0.00000E+00        -0.36601E+08
 
   -0.52343E+08        -0.24870E+07         0.00000E+00
   -0.24870E+07        -0.60036E+08         0.00000E+00
    0.00000E+00         0.00000E+00        -0.36111E+08
 
   -0.50167E+08        -0.24086E+07         0.00000E+00
   -0.24086E+07        -0.59913E+08         0.00000E+00
    0.00000E+00         0.00000E+00        -0.35651E+08
 
   -0.48188E+08        -0.21627E+07         0.00000E+00
   -0.21627E+07        -0.59756E+08         0.00000E+00
    0.00000E+00         0.00000E+00        -0.35223E+08
 
   -0.46367E+08        -0.17970E+07         0.00000E+00
   -0.17970E+07        -0.59603E+08         0.00000E+00
    0.00000E+00         0.00000E+00        -0.34828E+08
 
   -0.44659E+08        -0.13347E+07         0.00000E+00
   -0.13347E+07        -0.59486E+08         0.00000E+00
    0.00000E+00         0.00000E+00        -0.34463E+08
 
   -0.43021E+08        -0.78180E+06         0.00000E+00
   -0.78180E+06        -0.59435E+08         0.00000E+00
    0.00000E+00         0.00000E+00        -0.34125E+08
 
   -0.41411E+08        -0.13057E+06         0.00000E+00
   -0.13057E+06        -0.59476E+08         0.00000E+00
    0.00000E+00         0.00000E+00        -0.33811E+08
 
   -0.39796E+08         0.64062E+06         0.00000E+00
    0.64062E+06        -0.59631E+08         0.00000E+00
    0.00000E+00         0.00000E+00        -0.33518E+08
 
   -0.38152E+08         0.15702E+07         0.00000E+00
    0.15702E+07        -0.59918E+08         0.00000E+00
    0.00000E+00         0.00000E+00        -0.33247E+08
 
   -0.36476E+08         0.27161E+07         0.00000E+00
    0.27161E+07        -0.60345E+08         0.00000E+00
    0.00000E+00         0.00000E+00        -0.32997E+08
 
   -0.34807E+08         0.41530E+07         0.00000E+00
    0.41530E+07        -0.60893E+08         0.00000E+00
    0.00000E+00         0.00000E+00        -0.32772E+08
 
   -0.33239E+08         0.59544E+07         0.00000E+00
    0.59544E+07        -0.61509E+08         0.00000E+00
    0.00000E+00         0.00000E+00        -0.32582E+08
 
   -0.61274E+08        -0.78198E+06         0.00000E+00
   -0.78198E+06        -0.60017E+08         0.00000E+00
    0.00000E+00         0.00000E+00        -0.36228E+08
 
   -0.58039E+08        -0.17946E+07         0.00000E+00
   -0.17946E+07        -0.60024E+08         0.00000E+00
    0.00000E+00         0.00000E+00        -0.35582E+08
 
   -0.55021E+08        -0.22335E+07         0.00000E+00
   -0.22335E+07        -0.59928E+08         0.00000E+00
    0.00000E+00         0.00000E+00        -0.34959E+08
 
   -0.52339E+08        -0.23104E+07         0.00000E+00
   -0.23104E+07        -0.59708E+08         0.00000E+00
    0.00000E+00         0.00000E+00        -0.34378E+08
 
   -0.49981E+08        -0.21800E+07         0.00000E+00
   -0.21800E+07        -0.59412E+08         0.00000E+00
    0.00000E+00         0.00000E+00        -0.33847E+08
 
   -0.47883E+08        -0.19275E+07         0.00000E+00
   -0.19275E+07        -0.59096E+08         0.00000E+00
    0.00000E+00         0.00000E+00        -0.33364E+08
 
   -0.45974E+08        -0.15934E+07         0.00000E+00
   -0.15934E+07        -0.58805E+08         0.00000E+00
    0.00000E+00         0.00000E+00        -0.32924E+08
 
   -0.44190E+08        -0.11943E+07         0.00000E+00
   -0.11943E+07        -0.58574E+08         0.00000E+00
    0.00000E+00         0.00000E+00        -0.32520E+08
 
   -0.42471E+08        -0.73183E+06         0.00000E+00
   -0.73183E+06        -0.58431E+08         0.00000E+00
    0.00000E+00         0.00000E+00        -0.32148E+08
 
   -0.40767E+08        -0.19620E+06         0.00000E+00
   -0.19620E+06        -0.58403E+08         0.00000E+00
    0.00000E+00         0.00000E+00        -0.31801E+08
 
   -0.39026E+08         0.43538E+06         0.00000E+00
    0.43538E+06        -0.58515E+08         0.00000E+00
    0.00000E+00         0.00000E+00        -0.31475E+08
 
   -0.37204E+08         0.12044E+07         0.00000E+00
    0.12044E+07        -0.58794E+08         0.00000E+00
    0.00000E+00         0.00000E+00        -0.31166E+08
 
   -0.35272E+08         0.21829E+07         0.00000E+00
    0.21829E+07        -0.59265E+08         0.00000E+00
    0.00000E+00         0.00000E+00        -0.30874E+08
 
   -0.33245E+08         0.34814E+07         0.00000E+00
    0.34814E+07        -0.59928E+08         0.00000E+00
    0.00000E+00         0.00000E+00        -0.30601E+08
 
   -0.31230E+08         0.52306E+07         0.00000E+00
    0.52306E+07        -0.60726E+08         0.00000E+00
    0.00000E+00         0.00000E+00        -0.30357E+08
 
   -0.62643E+08        -0.80597E+06         0.00000E+00
   -0.80597E+06        -0.60005E+08         0.00000E+00
    0.00000E+00         0.00000E+00        -0.34810E+08
 
   -0.58657E+08        -0.16986E+07         0.00000E+00
   -0.16986E+07        -0.59919E+08         0.00000E+00
    0.00000E+00         0.00000E+00        -0.33996E+08
 
   -0.55181E+08        -0.19626E+07         0.00000E+00
   -0.19626E+07        -0.59620E+08         0.00000E+00
    0.00000E+00         0.00000E+00        -0.33241E+08
 
   -0.52262E+08        -0.19304E+07         0.00000E+00
   -0.19304E+07        -0.59163E+08         0.00000E+00
    0.00000E+00         0.00000E+00        -0.32565E+08
 
   -0.49780E+08        -0.17675E+07         0.00000E+00
   -0.17675E+07        -0.58656E+08         0.00000E+00
    0.00000E+00         0.00000E+00        -0.31967E+08
 
   -0.47607E+08        -0.15365E+07         0.00000E+00
   -0.15365E+07        -0.58166E+08         0.00000E+00
    0.00000E+00         0.00000E+00        -0.31434E+08
 
   -0.45643E+08        -0.12617E+07         0.00000E+00
   -0.12617E+07        -0.57734E+08         0.00000E+00
    0.00000E+00         0.00000E+00        -0.30955E+08
 
   -0.43809E+08        -0.95031E+06         0.00000E+00
   -0.95031E+06        -0.57390E+08         0.00000E+00
    0.00000E+00         0.00000E+00        -0.30519E+08
 
   -0.42036E+08        -0.60035E+06         0.00000E+00
   -0.60035E+06        -0.57158E+08         0.00000E+00
    0.00000E+00         0.00000E+00        -0.30118E+08
 
   -0.40262E+08        -0.20206E+06         0.00000E+00
   -0.20206E+06        -0.57060E+08         0.00000E+00
    0.00000E+00         0.00000E+00        -0.29743E+08
 
   -0.38423E+08         0.26411E+06         0.00000E+00
    0.26411E+06        -0.57122E+08         0.00000E+00
    0.00000E+00         0.00000E+00        -0.29388E+08
 
   -0.36450E+08         0.83434E+06         0.00000E+00
    0.83434E+06        -0.57379E+08         0.00000E+00
    0.00000E+00         0.00000E+00        -0.29044E+08
 
   -0.34268E+08         0.15786E+07         0.00000E+00
    0.15786E+07        -0.57873E+08         0.00000E+00
    0.00000E+00         0.00000E+00        -0.28706E+08
 
   -0.31832E+08         0.26439E+07         0.00000E+00
    0.26439E+07        -0.58654E+08         0.00000E+00
    0.00000E+00         0.00000E+00        -0.28375E+08
 
   -0.29230E+08         0.42613E+07         0.00000E+00
    0.42613E+07        -0.59687E+08         0.00000E+00
    0.00000E+00         0.00000E+00        -0.28062E+08
 
   -0.63927E+08        -0.77865E+06         0.00000E+00
   -0.77865E+06        -0.59967E+08         0.00000E+00
    0.00000E+00         0.00000E+00        -0.33354E+08
 
   -0.59037E+08        -0.13622E+07         0.00000E+00
   -0.13622E+07        -0.59645E+08         0.00000E+00
    0.00000E+00         0.00000E+00        -0.32312E+08
 
   -0.55192E+08        -0.14014E+07         0.00000E+00
   -0.14014E+07        -0.58992E+08         0.00000E+00
    0.00000E+00         0.00000E+00        -0.31412E+08
 
   -0.52143E+08        -0.13063E+07         0.00000E+00
   -0.13063E+07        -0.58252E+08         0.00000E+00
    0.00000E+00         0.00000E+00        -0.30654E+08
 
   -0.49599E+08        -0.11632E+07         0.00000E+00
   -0.11632E+07        -0.57535E+08         0.00000E+00
    0.00000E+00         0.00000E+00        -0.30002E+08
 
   -0.47390E+08        -0.99631E+06         0.00000E+00
   -0.99631E+06        -0.56889E+08         0.00000E+00
    0.00000E+00         0.00000E+00        -0.29431E+08
 
   -0.45400E+08        -0.81296E+06         0.00000E+00
   -0.81296E+06        -0.56339E+08         0.00000E+00
    0.00000E+00         0.00000E+00        -0.28922E+08
 
   -0.43539E+08        -0.61370E+06         0.00000E+00
   -0.61370E+06        -0.55904E+08         0.00000E+00
    0.00000E+00         0.00000E+00        -0.28463E+08
 
   -0.41734E+08        -0.39515E+06         0.00000E+00
   -0.39515E+06        -0.55599E+08         0.00000E+00
    0.00000E+00         0.00000E+00        -0.28041E+08
 
   -0.39916E+08        -0.15013E+06         0.00000E+00
   -0.15013E+06        -0.55443E+08         0.00000E+00
    0.00000E+00         0.00000E+00        -0.27646E+08
 
   -0.38011E+08         0.13414E+06         0.00000E+00
    0.13414E+06        -0.55459E+08         0.00000E+00
    0.00000E+00         0.00000E+00        -0.27268E+08
 
   -0.35930E+08         0.48120E+06         0.00000E+00
    0.48120E+06        -0.55682E+08         0.00000E+00
    0.00000E+00         0.00000E+00        -0.26896E+08
 
   -0.33556E+08         0.93897E+06         0.00000E+00
    0.93897E+06        -0.56168E+08         0.00000E+00
    0.00000E+00         0.00000E+00        -0.26519E+08
 
   -0.30700E+08         0.16273E+07         0.00000E+00
    0.16273E+07        -0.57015E+08         0.00000E+00
    0.00000E+00         0.00000E+00        -0.26117E+08
 
   -0.27316E+08         0.29391E+07         0.00000E+00
    0.29391E+07        -0.58358E+08         0.00000E+00
    0.00000E+00         0.00000E+00        -0.25709E+08
 
   -0.64852E+08        -0.48637E+06         0.00000E+00
   -0.48637E+06        -0.59647E+08         0.00000E+00
    0.00000E+00         0.00000E+00        -0.31760E+08
 
   -0.59098E+08        -0.56128E+06         0.00000E+00
   -0.56128E+06        -0.58750E+08         0.00000E+00
    0.00000E+00         0.00000E+00        -0.30429E+08
 
   -0.55141E+08        -0.51737E+06         0.00000E+00
   -0.51737E+06        -0.57741E+08         0.00000E+00
    0.00000E+00         0.00000E+00        -0.29436E+08
 
   -0.52050E+08        -0.46528E+06         0.00000E+00
   -0.46528E+06        -0.56790E+08         0.00000E+00
    0.00000E+00         0.00000E+00        -0.28628E+08
 
   -0.49489E+08        -0.40720E+06         0.00000E+00
   -0.40720E+06        -0.55936E+08         0.00000E+00
    0.00000E+00         0.00000E+00        -0.27945E+08
 
   -0.47270E+08        -0.34575E+06         0.00000E+00
   -0.34575E+06        -0.55196E+08         0.00000E+00
    0.00000E+00         0.00000E+00        -0.27353E+08
 
   -0.45271E+08        -0.28106E+06         0.00000E+00
   -0.28106E+06        -0.54578E+08         0.00000E+00
    0.00000E+00         0.00000E+00        -0.26829E+08
 
   -0.43399E+08        -0.21233E+06         0.00000E+00
   -0.21233E+06        -0.54091E+08         0.00000E+00
    0.00000E+00         0.00000E+00        -0.26357E+08
 
   -0.41580E+08        -0.13797E+06         0.00000E+00
   -0.13797E+06        -0.53746E+08         0.00000E+00
    0.00000E+00         0.00000E+00        -0.25924E+08
 
   -0.39741E+08        -0.55346E+05         0.00000E+00
   -0.55346E+05        -0.53556E+08         0.00000E+00
    0.00000E+00         0.00000E+00        -0.25519E+08
 
   -0.37803E+08         0.39935E+05         0.00000E+00
    0.39935E+05        -0.53544E+08         0.00000E+00
    0.00000E+00         0.00000E+00        -0.25129E+08
 
   -0.35668E+08         0.15572E+06         0.00000E+00
    0.15572E+06        -0.53741E+08         0.00000E+00
    0.00000E+00         0.00000E+00        -0.24741E+08
 
   -0.33189E+08         0.30884E+06         0.00000E+00
    0.30884E+06        -0.54207E+08         0.00000E+00
    0.00000E+00         0.00000E+00        -0.24338E+08
 
   -0.30104E+08         0.53723E+06         0.00000E+00
    0.53723E+06        -0.55053E+08         0.00000E+00
    0.00000E+00         0.00000E+00        -0.23890E+08
 
   -0.25670E+08         0.10863E+07         0.00000E+00
    0.10863E+07        -0.56593E+08         0.00000E+00
    0.00000E+00         0.00000E+00        -0.23312E+08
 
SCALARS stressS double 
LOOKUP_TABLE default
  -55647813.0678664     
  -58072832.2286610     
  -60252189.7840187     
  -61880271.7147423     
  -63226247.4758729     
  -64381743.7228927     
  -65399431.8130455     
  -66314198.1052706     
  -67152461.2645225     
  -67936751.3063816     
  -68689013.4078862     
  -69434161.1595236     
  -70206334.1434893     
  -71061714.9912545     
  -72163953.9375858     
  -56120433.9192685     
  -57650616.7467073     
  -59294930.3558167     
  -60777242.4013616     
  -62046342.5300284     
  -63155378.3286002     
  -64140713.9518111     
  -65030481.0571594     
  -65847246.4640645     
  -66610703.7268591     
  -67339763.8562988     
  -68054761.5673759     
  -68779358.0232191     
  -69547292.6948600     
  -70324420.4165266     
  -55881282.3104020     
  -57292748.7998926     
  -58625974.6403082     
  -59887769.6923501     
  -61033463.7289507     
  -62060617.2051301     
  -62986881.2682837     
  -63829996.1703555     
  -64606328.5239801     
  -65330787.7513563     
  -66017334.6987829     
  -66679090.0478999     
  -67327785.9002014     
  -67960704.6476908     
  -68557988.0466717     
  -55777360.3996916     
  -56942331.0530147     
  -58075877.9653140     
  -59152265.3795889     
  -60158267.7378735     
  -61084515.8541472     
  -61933560.8542451     
  -62713849.3229170     
  -63435082.1844904     
  -64106783.9275502     
  -64737471.0174110     
  -65333666.2345572     
  -65896726.9405640     
  -66419831.5475791     
  -66883604.7011397     
  -55703581.4616798     
  -56655114.2304808     
  -57601008.4312353     
  -58518656.5837321     
  -59391487.4538972     
  -60210666.8167463     
  -60973076.5603397     
  -61680432.8982308     
  -62336861.4746448     
  -62947005.4392678     
  -63514707.2391257     
  -64041489.9955859     
  -64524847.6619173     
  -64956206.3500147     
  -65320116.2186538     
  -55636076.8794822     
  -56403288.7233889     
  -57185781.5140329     
  -57959900.4227834     
  -58709339.0730923     
  -59423413.8709077     
  -60096388.7613774     
  -60726109.2814753     
  -61312667.9260052     
  -61856960.8138443     
  -62359362.0333200     
  -62818485.9537559     
  -63229952.2559367     
  -63585451.8223862     
  -63872368.5847470     
  -55555501.1899325     
  -56170150.6956970     
  -56811693.3424605     
  -57458624.5653342     
  -58094879.3550847     
  -58709217.9796617     
  -59294293.1847421     
  -59845732.9468360     
  -60361071.0570063     
  -60838673.0834797     
  -61276687.9336450     
  -61672078.1145063     
  -62019803.7314147     
  -62312265.3767838     
  -62539182.2735740     
  -55454025.6187047     
  -55943528.3697524     
  -56465531.2431644     
  -57000984.8965705     
  -57535042.8959269     
  -58056616.3851557     
  -58557769.3964319     
  -59032977.5917304     
  -59478335.5627610     
  -59890734.9685814     
  -60267072.8918672     
  -60603541.4109559     
  -60895061.2898215     
  -61134938.1733489     
  -61314805.8979389     
  -55328345.5925176     
  -55716195.4131473     
  -56137639.3677802     
  -56576308.6715377     
  -57019018.4989372     
  -57455496.7133731     
  -57877948.2373213     
  -58280520.0219627     
  -58658705.1534376     
  -59008732.5139683     
  -59326981.8256722     
  -59609470.5495809     
  -59851460.9166441     
  -60047233.3302765     
  -60190060.6289572     
  -55178048.0149755     
  -55483946.6612904     
  -55821186.8531572     
  -56176152.2698125     
  -56537626.2421753     
  -56896602.1962850     
  -57245982.3149968     
  -57580193.1663038     
  -57894754.3657304     
  -58185833.9855929     
  -58449826.3294667     
  -58682987.4077226     
  -58881162.9171422     
  -59039638.7182178     
  -59153132.7856436     
  -55004594.7664320     
  -55244657.9038706     
  -55511298.8594308     
  -55793711.8496388     
  -56082845.1275959     
  -56371273.6860058     
  -56652993.6401303     
  -56923156.2892169     
  -57177765.4409508     
  -57413364.6082648     
  -57626741.1237136     
  -57814674.0465373     
  -57973750.6197357     
  -58100271.4128622     
  -58190256.5028238     
  -54810810.4048942     
  -54997664.7638618     
  -55204505.1172532     
  -55423375.1944697     
  -55647518.8440584     
  -55871305.5534922     
  -56090101.0663328     
  -56300094.1954943     
  -56498096.3459417     
  -56681332.8363000     
  -56847246.0503065     
  -56993329.8995529     
  -57117013.1744211     
  -57215605.7915092     
  -57286316.7911517     
  -54600533.3467652     
  -54743373.1078150     
  -54898369.8345539     
  -55060430.2628307     
  -55225169.5694271     
  -55388885.8292231     
  -55548494.1407055     
  -55701428.8330470     
  -55845525.3698622     
  -55978895.3810306     
  -56099808.8046390     
  -56206596.6635092     
  -56297586.5729426     
  -56371080.7340662     
  -56425383.0715859     
  -54378346.0543390     
  -54482982.9964014     
  -54591241.5125782     
  -54700871.8511651     
  -54809887.4645182     
  -54916584.1648852     
  -55019528.7637521     
  -55117524.4250707     
  -55209561.0775535     
  -55294759.7854255     
  -55372319.9994594     
  -55441478.1608993     
  -55501485.2682291     
  -55551609.7865125     
  -55591170.8033944     
  -54149339.9071562     
  -54218271.4551726     
  -54282066.3915001     
  -54341264.3635065     
  -54396259.9378654     
  -54447360.7007504     
  -54494822.9730809     
  -54538871.7225578     
  -54579710.3664383     
  -54617525.3859966     
  -54652490.0481398     
  -54684771.0695729     
  -54714541.7415021     
  -54742004.8264327     
  -54767428.4377332     
  -53918897.7377767     
  -53951401.7740523     
  -53970230.2584843     
  -53978627.2474845     
  -53979312.9966385     
  -53974573.4825964     
  -53966336.6386063     
  -53956241.1660497     
  -53945700.8671053     
  -53935965.2729075     
  -53928176.0528502     
  -53923418.2535115     
  -53922765.6977583     
  -53927320.7079208     
  -53938249.5405454     
  -53692486.4038832     
  -53684741.2635072     
  -53655405.2218397     
  -53610319.3761356     
  -53554443.4660800     
  -53491967.6069991     
  -53426423.3714790     
  -53360798.8728297     
  -53297657.2157838     
  -53239253.9902279     
  -53187647.5942512     
  -53144795.9220069     
  -53112634.0170005     
  -53093129.3274966     
  -53088313.8854277     
  -53475455.9502048     
  -53420676.0694084     
  -53337385.1730283     
  -53233904.6095844     
  -53117325.8223196     
  -52993633.3964799     
  -52867846.7633759     
  -52744182.8907068     
  -52626233.9199403     
  -52517148.3827433     
  -52419802.3972049     
  -52336947.5654616     
  -52271324.4917517     
  -52225734.3803856     
  -52203065.6259418     
  -53272843.4470306     
  -53161414.1155855     
  -53015896.1676613     
  -52846983.0843245     
  -52663779.5572891     
  -52473923.2403667     
  -52283755.6970473     
  -52098540.0840095     
  -51922710.6204241     
  -51760132.0980644     
  -51614345.9029484     
  -51488780.6847888     
  -51386909.6443057     
  -51312341.7641668     
  -51268840.9580246     
  -53089179.8890463     
  -52908766.2027562     
  -52690366.1355505     
  -52446970.9977279     
  -52189582.0209050     
  -51927316.9660891     
  -51667614.9111842     
  -51416526.4240767     
  -51179058.6351672     
  -50959537.8002852     
  -50761952.6693977     
  -50590246.4715685     
  -50448531.1764174     
  -50341204.8288346     
  -50272961.8323266     
  -52928297.6185924     
  -52663890.1368326     
  -52359631.1704662     
  -52030804.9513951     
  -51690207.1741318     
  -51348223.8580544     
  -51013087.6417469     
  -50691275.7297401     
  -50387990.9875361     
  -50107665.2544229     
  -49854432.3556760     
  -49632527.9726959     
  -49446581.0841798     
  -49301768.6172075     
  -49203816.2502689     
  -52793132.4705387     
  -52426970.8815313     
  -52021540.3202191     
  -51594533.4784317     
  -51160462.3166143     
  -50730706.5118299     
  -50313868.0999391     
  -49916344.8199924     
  -49543011.9157922     
  -49197918.1288147     
  -48884928.9806153     
  -48608269.5283939     
  -48372923.0449144     
  -48184843.6555014     
  -48050949.5494269     
  -52685506.2964514     
  -52196784.6804534     
  -51672391.0374393     
  -51132734.8797551     
  -50593982.9825291     
  -50068110.1100338     
  -49563465.3734571     
  -49085647.8098905     
  -48638486.0372667     
  -48224986.7921850     
  -47848189.2170206     
  -47511890.3863229     
  -47221199.6860472     
  -46982849.5598817     
  -46805195.3876495     
  -52605854.1493797     
  -51970042.0825355     
  -51306069.3858171     
  -50637661.8896271     
  -49982534.1464703     
  -49352587.4064852     
  -48754952.5159388     
  -48193400.6844730     
  -47669749.7263479     
  -47185106.2425169     
  -46740941.4107213     
  -46340041.3671713     
  -45987291.6339558     
  -45690187.6548840     
  -45458880.9079478     
  -52552810.2101522     
  -51740283.3119437     
  -50912654.1952946     
  -50097954.2100690     
  -49315067.5474958     
  -48574542.7829874     
  -47880725.2370870     
  -47234109.5651432     
  -46633283.7491842     
  -46076405.8786395     
  -45562431.2924918     
  -45092282.1252770     
  -44670040.3930364     
  -44303837.7085827     
  -44006156.5558351     
  -52522415.3362237     
  -51495814.6816998     
  -50475999.3871965     
  -49496691.5221512     
  -48576551.8853812     
  -47722113.0197605     
  -46932379.5122112     
  -46202649.6372906     
  -45526936.1283351     
  -44899338.3982045     
  -44315119.0604912     
  -43772113.0230227     
  -43272408.4535236     
  -42824396.1486849     
  -42443522.0036438     
  -52506345.0630205     
  -51215311.3011749     
  -49969343.1741456     
  -48808596.8459124     
  -47746854.1504695     
  -46781046.8601729     
  -45900881.6892518     
  -45094485.5382569     
  -44350149.1735909     
  -43657012.1884164     
  -43005535.9864065     
  -42388374.4109650     
  -41803615.5867053     
  -41257880.1652107     
  -40770837.9436187     
  -52486277.8412986     
  -50857580.1328557     
  -49347090.9187691     
  -47996888.6413065     
  -46801020.5649676     
  -45735455.4283554     
  -44777246.6549458     
  -43906064.9975244     
  -43104078.2188375     
  -42355215.0644934     
  -41644461.3691198     
  -40957685.5033312     
  -40282195.3509989     
  -39620441.4001234     
  -38992807.2847161     
  -52416236.8440220     
  -50331418.0441228     
  -48532125.3478354     
  -47016329.6772262     
  -45711974.6051421     
  -44569966.8748740     
  -43553803.2587617     
  -42635364.5977367     
  -41791519.2906730     
  -41001741.9667727     
  -40246098.1787578     
  -39503039.5581531     
  -38747472.3572859     
  -37943723.7071059     
  -37127466.3866991     
  -52086427.3626161     
  -49425886.4978444     
  -47439171.3784810     
  -45822508.0101751     
  -44456835.6696457     
  -43273040.9056232     
  -42225894.1734647     
  -41282491.6137393     
  -40416601.1082833     
  -39605111.4258655     
  -38825088.9800269     
  -38050281.0027427     
  -37244673.0813928     
  -36349132.9931371     
  -35191879.3006586     
SCALARS 2waySource double 
LOOKUP_TABLE default
  0.000000000000000E+000
  0.000000000000000E+000
  0.000000000000000E+000
  0.000000000000000E+000
  0.000000000000000E+000
  0.000000000000000E+000
  0.000000000000000E+000
  0.000000000000000E+000
  0.000000000000000E+000
  0.000000000000000E+000
  0.000000000000000E+000
  0.000000000000000E+000
  0.000000000000000E+000
  0.000000000000000E+000
  0.000000000000000E+000
  0.000000000000000E+000
  0.000000000000000E+000
  0.000000000000000E+000
  0.000000000000000E+000
  0.000000000000000E+000
  0.000000000000000E+000
  0.000000000000000E+000
  0.000000000000000E+000
  0.000000000000000E+000
  0.000000000000000E+000
  0.000000000000000E+000
  0.000000000000000E+000
  0.000000000000000E+000
  0.000000000000000E+000
  0.000000000000000E+000
  0.000000000000000E+000
  0.000000000000000E+000
  0.000000000000000E+000
  0.000000000000000E+000
  0.000000000000000E+000
  0.000000000000000E+000
  0.000000000000000E+000
  0.000000000000000E+000
  0.000000000000000E+000
  0.000000000000000E+000
  0.000000000000000E+000
  0.000000000000000E+000
  0.000000000000000E+000
  0.000000000000000E+000
  0.000000000000000E+000
  0.000000000000000E+000
  0.000000000000000E+000
  0.000000000000000E+000
  0.000000000000000E+000
  0.000000000000000E+000
  0.000000000000000E+000
  0.000000000000000E+000
  0.000000000000000E+000
  0.000000000000000E+000
  0.000000000000000E+000
  0.000000000000000E+000
  0.000000000000000E+000
  0.000000000000000E+000
  0.000000000000000E+000
  0.000000000000000E+000
  0.000000000000000E+000
  0.000000000000000E+000
  0.000000000000000E+000
  0.000000000000000E+000
  0.000000000000000E+000
  0.000000000000000E+000
  0.000000000000000E+000
  0.000000000000000E+000
  0.000000000000000E+000
  0.000000000000000E+000
  0.000000000000000E+000
  0.000000000000000E+000
  0.000000000000000E+000
  0.000000000000000E+000
  0.000000000000000E+000
  0.000000000000000E+000
  0.000000000000000E+000
  0.000000000000000E+000
  0.000000000000000E+000
  0.000000000000000E+000
  0.000000000000000E+000
  0.000000000000000E+000
  0.000000000000000E+000
  0.000000000000000E+000
  0.000000000000000E+000
  0.000000000000000E+000
  0.000000000000000E+000
  0.000000000000000E+000
  0.000000000000000E+000
  0.000000000000000E+000
  0.000000000000000E+000
  0.000000000000000E+000
  0.000000000000000E+000
  0.000000000000000E+000
  0.000000000000000E+000
  0.000000000000000E+000
  0.000000000000000E+000
  0.000000000000000E+000
  0.000000000000000E+000
  0.000000000000000E+000
  0.000000000000000E+000
  0.000000000000000E+000
  0.000000000000000E+000
  0.000000000000000E+000
  0.000000000000000E+000
  0.000000000000000E+000
  0.000000000000000E+000
  0.000000000000000E+000
  0.000000000000000E+000
  0.000000000000000E+000
  0.000000000000000E+000
  0.000000000000000E+000
  0.000000000000000E+000
  0.000000000000000E+000
  0.000000000000000E+000
  0.000000000000000E+000
  0.000000000000000E+000
  0.000000000000000E+000
  0.000000000000000E+000
  0.000000000000000E+000
  0.000000000000000E+000
  0.000000000000000E+000
  0.000000000000000E+000
  0.000000000000000E+000
  0.000000000000000E+000
  0.000000000000000E+000
  0.000000000000000E+000
  0.000000000000000E+000
  0.000000000000000E+000
  0.000000000000000E+000
  0.000000000000000E+000
  0.000000000000000E+000
  0.000000000000000E+000
  0.000000000000000E+000
  0.000000000000000E+000
  0.000000000000000E+000
  0.000000000000000E+000
  0.000000000000000E+000
  0.000000000000000E+000
  0.000000000000000E+000
  0.000000000000000E+000
  0.000000000000000E+000
  0.000000000000000E+000
  0.000000000000000E+000
  0.000000000000000E+000
  0.000000000000000E+000
  0.000000000000000E+000
  0.000000000000000E+000
  0.000000000000000E+000
  0.000000000000000E+000
  0.000000000000000E+000
  0.000000000000000E+000
  0.000000000000000E+000
  0.000000000000000E+000
  0.000000000000000E+000
  0.000000000000000E+000
  0.000000000000000E+000
  0.000000000000000E+000
  0.000000000000000E+000
  0.000000000000000E+000
  0.000000000000000E+000
  0.000000000000000E+000
  0.000000000000000E+000
  0.000000000000000E+000
  0.000000000000000E+000
  0.000000000000000E+000
  0.000000000000000E+000
  0.000000000000000E+000
  0.000000000000000E+000
  0.000000000000000E+000
  0.000000000000000E+000
  0.000000000000000E+000
  0.000000000000000E+000
  0.000000000000000E+000
  0.000000000000000E+000
  0.000000000000000E+000
  0.000000000000000E+000
  0.000000000000000E+000
  0.000000000000000E+000
  0.000000000000000E+000
  0.000000000000000E+000
  0.000000000000000E+000
  0.000000000000000E+000
  0.000000000000000E+000
  0.000000000000000E+000
  0.000000000000000E+000
  0.000000000000000E+000
  0.000000000000000E+000
  0.000000000000000E+000
  0.000000000000000E+000
  0.000000000000000E+000
  0.000000000000000E+000
  0.000000000000000E+000
  0.000000000000000E+000
  0.000000000000000E+000
  0.000000000000000E+000
  0.000000000000000E+000
  0.000000000000000E+000
  0.000000000000000E+000
  0.000000000000000E+000
  0.000000000000000E+000
  0.000000000000000E+000
  0.000000000000000E+000
  0.000000000000000E+000
  0.000000000000000E+000
  0.000000000000000E+000
  0.000000000000000E+000
  0.000000000000000E+000
  0.000000000000000E+000
  0.000000000000000E+000
  0.000000000000000E+000
  0.000000000000000E+000
  0.000000000000000E+000
  0.000000000000000E+000
  0.000000000000000E+000
  0.000000000000000E+000
  0.000000000000000E+000
  0.000000000000000E+000
  0.000000000000000E+000
  0.000000000000000E+000
  0.000000000000000E+000
  0.000000000000000E+000
  0.000000000000000E+000
  0.000000000000000E+000
  0.000000000000000E+000
  0.000000000000000E+000
  0.000000000000000E+000
  0.000000000000000E+000
  0.000000000000000E+000
  0.000000000000000E+000
  0.000000000000000E+000
  0.000000000000000E+000
  0.000000000000000E+000
  0.000000000000000E+000
  0.000000000000000E+000
  0.000000000000000E+000
  0.000000000000000E+000
  0.000000000000000E+000
  0.000000000000000E+000
  0.000000000000000E+000
  0.000000000000000E+000
  0.000000000000000E+000
  0.000000000000000E+000
  0.000000000000000E+000
  0.000000000000000E+000
  0.000000000000000E+000
  0.000000000000000E+000
  0.000000000000000E+000
  0.000000000000000E+000
  0.000000000000000E+000
  0.000000000000000E+000
  0.000000000000000E+000
  0.000000000000000E+000
  0.000000000000000E+000
  0.000000000000000E+000
  0.000000000000000E+000
  0.000000000000000E+000
  0.000000000000000E+000
  0.000000000000000E+000
  0.000000000000000E+000
  0.000000000000000E+000
  0.000000000000000E+000
  0.000000000000000E+000
  0.000000000000000E+000
  0.000000000000000E+000
  0.000000000000000E+000
  0.000000000000000E+000
  0.000000000000000E+000
  0.000000000000000E+000
  0.000000000000000E+000
  0.000000000000000E+000
  0.000000000000000E+000
  0.000000000000000E+000
  0.000000000000000E+000
  0.000000000000000E+000
  0.000000000000000E+000
  0.000000000000000E+000
  0.000000000000000E+000
  0.000000000000000E+000
  0.000000000000000E+000
  0.000000000000000E+000
  0.000000000000000E+000
  0.000000000000000E+000
  0.000000000000000E+000
  0.000000000000000E+000
  0.000000000000000E+000
  0.000000000000000E+000
  0.000000000000000E+000
  0.000000000000000E+000
  0.000000000000000E+000
  0.000000000000000E+000
  0.000000000000000E+000
  0.000000000000000E+000
  0.000000000000000E+000
  0.000000000000000E+000
  0.000000000000000E+000
  0.000000000000000E+000
  0.000000000000000E+000
  0.000000000000000E+000
  0.000000000000000E+000
  0.000000000000000E+000
  0.000000000000000E+000
  0.000000000000000E+000
  0.000000000000000E+000
  0.000000000000000E+000
  0.000000000000000E+000
  0.000000000000000E+000
  0.000000000000000E+000
  0.000000000000000E+000
  0.000000000000000E+000
  0.000000000000000E+000
  0.000000000000000E+000
  0.000000000000000E+000
  0.000000000000000E+000
  0.000000000000000E+000
  0.000000000000000E+000
  0.000000000000000E+000
  0.000000000000000E+000
  0.000000000000000E+000
  0.000000000000000E+000
  0.000000000000000E+000
  0.000000000000000E+000
  0.000000000000000E+000
  0.000000000000000E+000
  0.000000000000000E+000
  0.000000000000000E+000
  0.000000000000000E+000
  0.000000000000000E+000
  0.000000000000000E+000
  0.000000000000000E+000
  0.000000000000000E+000
  0.000000000000000E+000
  0.000000000000000E+000
  0.000000000000000E+000
  0.000000000000000E+000
  0.000000000000000E+000
  0.000000000000000E+000
  0.000000000000000E+000
  0.000000000000000E+000
  0.000000000000000E+000
  0.000000000000000E+000
  0.000000000000000E+000
  0.000000000000000E+000
  0.000000000000000E+000
  0.000000000000000E+000
  0.000000000000000E+000
  0.000000000000000E+000
  0.000000000000000E+000
  0.000000000000000E+000
  0.000000000000000E+000
  0.000000000000000E+000
  0.000000000000000E+000
  0.000000000000000E+000
  0.000000000000000E+000
  0.000000000000000E+000
  0.000000000000000E+000
  0.000000000000000E+000
  0.000000000000000E+000
  0.000000000000000E+000
  0.000000000000000E+000
  0.000000000000000E+000
  0.000000000000000E+000
  0.000000000000000E+000
  0.000000000000000E+000
  0.000000000000000E+000
  0.000000000000000E+000
  0.000000000000000E+000
  0.000000000000000E+000
  0.000000000000000E+000
  0.000000000000000E+000
  0.000000000000000E+000
  0.000000000000000E+000
  0.000000000000000E+000
  0.000000000000000E+000
  0.000000000000000E+000
  0.000000000000000E+000
  0.000000000000000E+000
  0.000000000000000E+000
  0.000000000000000E+000
  0.000000000000000E+000
  0.000000000000000E+000
  0.000000000000000E+000
  0.000000000000000E+000
  0.000000000000000E+000
  0.000000000000000E+000
  0.000000000000000E+000
  0.000000000000000E+000
  0.000000000000000E+000
  0.000000000000000E+000
  0.000000000000000E+000
  0.000000000000000E+000
  0.000000000000000E+000
  0.000000000000000E+000
  0.000000000000000E+000
  0.000000000000000E+000
  0.000000000000000E+000
  0.000000000000000E+000
  0.000000000000000E+000
  0.000000000000000E+000
  0.000000000000000E+000
  0.000000000000000E+000
  0.000000000000000E+000
  0.000000000000000E+000
  0.000000000000000E+000
  0.000000000000000E+000
  0.000000000000000E+000
  0.000000000000000E+000
  0.000000000000000E+000
  0.000000000000000E+000
  0.000000000000000E+000
  0.000000000000000E+000
  0.000000000000000E+000
  0.000000000000000E+000
  0.000000000000000E+000
  0.000000000000000E+000
  0.000000000000000E+000
  0.000000000000000E+000
  0.000000000000000E+000
  0.000000000000000E+000
  0.000000000000000E+000
  0.000000000000000E+000
  0.000000000000000E+000
  0.000000000000000E+000
  0.000000000000000E+000
  0.000000000000000E+000
  0.000000000000000E+000
  0.000000000000000E+000
  0.000000000000000E+000
  0.000000000000000E+000
  0.000000000000000E+000
  0.000000000000000E+000
  0.000000000000000E+000
  0.000000000000000E+000
  0.000000000000000E+000
  0.000000000000000E+000
  0.000000000000000E+000
  0.000000000000000E+000
  0.000000000000000E+000
  0.000000000000000E+000
  0.000000000000000E+000
  0.000000000000000E+000
  0.000000000000000E+000
  0.000000000000000E+000
  0.000000000000000E+000
  0.000000000000000E+000
  0.000000000000000E+000
  0.000000000000000E+000
  0.000000000000000E+000
  0.000000000000000E+000
  0.000000000000000E+000
SCALARS poroP double 
LOOKUP_TABLE default
  4.867742405330698E-006
  0.000000000000000E+000
  0.000000000000000E+000
  0.000000000000000E+000
  0.000000000000000E+000
  0.000000000000000E+000
  0.000000000000000E+000
  0.000000000000000E+000
  0.000000000000000E+000
  0.000000000000000E+000
  0.000000000000000E+000
  0.000000000000000E+000
  0.000000000000000E+000
  0.000000000000000E+000
  0.000000000000000E+000
  2.703257074584176E-007
  0.000000000000000E+000
  0.000000000000000E+000
  0.000000000000000E+000
  0.000000000000000E+000
  0.000000000000000E+000
  0.000000000000000E+000
  0.000000000000000E+000
  0.000000000000000E+000
  0.000000000000000E+000
  0.000000000000000E+000
  0.000000000000000E+000
  0.000000000000000E+000
  0.000000000000000E+000
  0.000000000000000E+000
  0.000000000000000E+000
  0.000000000000000E+000
  0.000000000000000E+000
  0.000000000000000E+000
  0.000000000000000E+000
  0.000000000000000E+000
  0.000000000000000E+000
  0.000000000000000E+000
  0.000000000000000E+000
  0.000000000000000E+000
  0.000000000000000E+000
  0.000000000000000E+000
  0.000000000000000E+000
  0.000000000000000E+000
  0.000000000000000E+000
  0.000000000000000E+000
  0.000000000000000E+000
  0.000000000000000E+000
  0.000000000000000E+000
  0.000000000000000E+000
  0.000000000000000E+000
  0.000000000000000E+000
  0.000000000000000E+000
  0.000000000000000E+000
  0.000000000000000E+000
  0.000000000000000E+000
  0.000000000000000E+000
  0.000000000000000E+000
  0.000000000000000E+000
  0.000000000000000E+000
  0.000000000000000E+000
  0.000000000000000E+000
  0.000000000000000E+000
  0.000000000000000E+000
  0.000000000000000E+000
  0.000000000000000E+000
  0.000000000000000E+000
  0.000000000000000E+000
  0.000000000000000E+000
  0.000000000000000E+000
  0.000000000000000E+000
  0.000000000000000E+000
  0.000000000000000E+000
  0.000000000000000E+000
  0.000000000000000E+000
  0.000000000000000E+000
  0.000000000000000E+000
  0.000000000000000E+000
  0.000000000000000E+000
  0.000000000000000E+000
  0.000000000000000E+000
  0.000000000000000E+000
  0.000000000000000E+000
  0.000000000000000E+000
  0.000000000000000E+000
  0.000000000000000E+000
  0.000000000000000E+000
  0.000000000000000E+000
  0.000000000000000E+000
  0.000000000000000E+000
  0.000000000000000E+000
  0.000000000000000E+000
  0.000000000000000E+000
  0.000000000000000E+000
  0.000000000000000E+000
  0.000000000000000E+000
  0.000000000000000E+000
  0.000000000000000E+000
  0.000000000000000E+000
  0.000000000000000E+000
  0.000000000000000E+000
  0.000000000000000E+000
  0.000000000000000E+000
  0.000000000000000E+000
  0.000000000000000E+000
  0.000000000000000E+000
  0.000000000000000E+000
  0.000000000000000E+000
  0.000000000000000E+000
  0.000000000000000E+000
  0.000000000000000E+000
  0.000000000000000E+000
  0.000000000000000E+000
  0.000000000000000E+000
  0.000000000000000E+000
  0.000000000000000E+000
  0.000000000000000E+000
  0.000000000000000E+000
  0.000000000000000E+000
  0.000000000000000E+000
  0.000000000000000E+000
  0.000000000000000E+000
  0.000000000000000E+000
  0.000000000000000E+000
  0.000000000000000E+000
  0.000000000000000E+000
  0.000000000000000E+000
  0.000000000000000E+000
  0.000000000000000E+000
  0.000000000000000E+000
  0.000000000000000E+000
  0.000000000000000E+000
  0.000000000000000E+000
  0.000000000000000E+000
  0.000000000000000E+000
  0.000000000000000E+000
  0.000000000000000E+000
  0.000000000000000E+000
  0.000000000000000E+000
  0.000000000000000E+000
  0.000000000000000E+000
  0.000000000000000E+000
  0.000000000000000E+000
  0.000000000000000E+000
  0.000000000000000E+000
  0.000000000000000E+000
  0.000000000000000E+000
  0.000000000000000E+000
  0.000000000000000E+000
  0.000000000000000E+000
  0.000000000000000E+000
  0.000000000000000E+000
  0.000000000000000E+000
  0.000000000000000E+000
  0.000000000000000E+000
  0.000000000000000E+000
  0.000000000000000E+000
  0.000000000000000E+000
  0.000000000000000E+000
  0.000000000000000E+000
  0.000000000000000E+000
  0.000000000000000E+000
  0.000000000000000E+000
  0.000000000000000E+000
  0.000000000000000E+000
  0.000000000000000E+000
  0.000000000000000E+000
  0.000000000000000E+000
  0.000000000000000E+000
  0.000000000000000E+000
  0.000000000000000E+000
  0.000000000000000E+000
  0.000000000000000E+000
  0.000000000000000E+000
  0.000000000000000E+000
  0.000000000000000E+000
  0.000000000000000E+000
  0.000000000000000E+000
  0.000000000000000E+000
  0.000000000000000E+000
  0.000000000000000E+000
  0.000000000000000E+000
  0.000000000000000E+000
  0.000000000000000E+000
  0.000000000000000E+000
  0.000000000000000E+000
  0.000000000000000E+000
  0.000000000000000E+000
  0.000000000000000E+000
  0.000000000000000E+000
  0.000000000000000E+000
  0.000000000000000E+000
  0.000000000000000E+000
  0.000000000000000E+000
  0.000000000000000E+000
  0.000000000000000E+000
  0.000000000000000E+000
  0.000000000000000E+000
  0.000000000000000E+000
  0.000000000000000E+000
  0.000000000000000E+000
  0.000000000000000E+000
  0.000000000000000E+000
  0.000000000000000E+000
  0.000000000000000E+000
  0.000000000000000E+000
  0.000000000000000E+000
  0.000000000000000E+000
  0.000000000000000E+000
  0.000000000000000E+000
  0.000000000000000E+000
  0.000000000000000E+000
  0.000000000000000E+000
  0.000000000000000E+000
  0.000000000000000E+000
  0.000000000000000E+000
  0.000000000000000E+000
  0.000000000000000E+000
  0.000000000000000E+000
  0.000000000000000E+000
  0.000000000000000E+000
  0.000000000000000E+000
  0.000000000000000E+000
  0.000000000000000E+000
  0.000000000000000E+000
  0.000000000000000E+000
  0.000000000000000E+000
  0.000000000000000E+000
  0.000000000000000E+000
  0.000000000000000E+000
  0.000000000000000E+000
  0.000000000000000E+000
  0.000000000000000E+000
  0.000000000000000E+000
  0.000000000000000E+000
  0.000000000000000E+000
  0.000000000000000E+000
  0.000000000000000E+000
  0.000000000000000E+000
  0.000000000000000E+000
  0.000000000000000E+000
  0.000000000000000E+000
  0.000000000000000E+000
  0.000000000000000E+000
  0.000000000000000E+000
  0.000000000000000E+000
  0.000000000000000E+000
  0.000000000000000E+000
  0.000000000000000E+000
  0.000000000000000E+000
  0.000000000000000E+000
  0.000000000000000E+000
  0.000000000000000E+000
  0.000000000000000E+000
  0.000000000000000E+000
  0.000000000000000E+000
  0.000000000000000E+000
  0.000000000000000E+000
  0.000000000000000E+000
  0.000000000000000E+000
  0.000000000000000E+000
  0.000000000000000E+000
  0.000000000000000E+000
  0.000000000000000E+000
  0.000000000000000E+000
  0.000000000000000E+000
  0.000000000000000E+000
  0.000000000000000E+000
  0.000000000000000E+000
  0.000000000000000E+000
  0.000000000000000E+000
  0.000000000000000E+000
  0.000000000000000E+000
  0.000000000000000E+000
  0.000000000000000E+000
  0.000000000000000E+000
  0.000000000000000E+000
  0.000000000000000E+000
  0.000000000000000E+000
  0.000000000000000E+000
  0.000000000000000E+000
  0.000000000000000E+000
  0.000000000000000E+000
  0.000000000000000E+000
  0.000000000000000E+000
  0.000000000000000E+000
  0.000000000000000E+000
  0.000000000000000E+000
  0.000000000000000E+000
  0.000000000000000E+000
  0.000000000000000E+000
  0.000000000000000E+000
  0.000000000000000E+000
  0.000000000000000E+000
  0.000000000000000E+000
  0.000000000000000E+000
  0.000000000000000E+000
  0.000000000000000E+000
  0.000000000000000E+000
  0.000000000000000E+000
  0.000000000000000E+000
  0.000000000000000E+000
  0.000000000000000E+000
  0.000000000000000E+000
  0.000000000000000E+000
  0.000000000000000E+000
  0.000000000000000E+000
  0.000000000000000E+000
  0.000000000000000E+000
  0.000000000000000E+000
  0.000000000000000E+000
  0.000000000000000E+000
  0.000000000000000E+000
  0.000000000000000E+000
  0.000000000000000E+000
  0.000000000000000E+000
  0.000000000000000E+000
  0.000000000000000E+000
  0.000000000000000E+000
  0.000000000000000E+000
  0.000000000000000E+000
  0.000000000000000E+000
  0.000000000000000E+000
  0.000000000000000E+000
  0.000000000000000E+000
  0.000000000000000E+000
  0.000000000000000E+000
  0.000000000000000E+000
  0.000000000000000E+000
  0.000000000000000E+000
  0.000000000000000E+000
  0.000000000000000E+000
  0.000000000000000E+000
  0.000000000000000E+000
  0.000000000000000E+000
  0.000000000000000E+000
  0.000000000000000E+000
  0.000000000000000E+000
  0.000000000000000E+000
  0.000000000000000E+000
  0.000000000000000E+000
  0.000000000000000E+000
  0.000000000000000E+000
  0.000000000000000E+000
  0.000000000000000E+000
  0.000000000000000E+000
  0.000000000000000E+000
  0.000000000000000E+000
  0.000000000000000E+000
  0.000000000000000E+000
  0.000000000000000E+000
  0.000000000000000E+000
  0.000000000000000E+000
  0.000000000000000E+000
  0.000000000000000E+000
  0.000000000000000E+000
  0.000000000000000E+000
  0.000000000000000E+000
  0.000000000000000E+000
  0.000000000000000E+000
  0.000000000000000E+000
  0.000000000000000E+000
  0.000000000000000E+000
  0.000000000000000E+000
  0.000000000000000E+000
  0.000000000000000E+000
  0.000000000000000E+000
  0.000000000000000E+000
  0.000000000000000E+000
  0.000000000000000E+000
  0.000000000000000E+000
  0.000000000000000E+000
  0.000000000000000E+000
  0.000000000000000E+000
  0.000000000000000E+000
  0.000000000000000E+000
  0.000000000000000E+000
  0.000000000000000E+000
  0.000000000000000E+000
  0.000000000000000E+000
  0.000000000000000E+000
  0.000000000000000E+000
  0.000000000000000E+000
  0.000000000000000E+000
  0.000000000000000E+000
  0.000000000000000E+000
  0.000000000000000E+000
  0.000000000000000E+000
  0.000000000000000E+000
  0.000000000000000E+000
  0.000000000000000E+000
  0.000000000000000E+000
  0.000000000000000E+000
  0.000000000000000E+000
  0.000000000000000E+000
  0.000000000000000E+000
  0.000000000000000E+000
  0.000000000000000E+000
  0.000000000000000E+000
  0.000000000000000E+000
  0.000000000000000E+000
  0.000000000000000E+000
  0.000000000000000E+000
  0.000000000000000E+000
  0.000000000000000E+000
  0.000000000000000E+000
  0.000000000000000E+000
  0.000000000000000E+000
  0.000000000000000E+000
  0.000000000000000E+000
  0.000000000000000E+000
  0.000000000000000E+000
  0.000000000000000E+000
  0.000000000000000E+000
  0.000000000000000E+000
  0.000000000000000E+000
  0.000000000000000E+000
  0.000000000000000E+000
  0.000000000000000E+000
  0.000000000000000E+000
  0.000000000000000E+000
  0.000000000000000E+000
  0.000000000000000E+000
  0.000000000000000E+000
  0.000000000000000E+000
  0.000000000000000E+000
  0.000000000000000E+000
  0.000000000000000E+000
  0.000000000000000E+000
  0.000000000000000E+000
  0.000000000000000E+000
  0.000000000000000E+000
  0.000000000000000E+000
  0.000000000000000E+000
  0.000000000000000E+000
  0.000000000000000E+000
  0.000000000000000E+000
  0.000000000000000E+000
  0.000000000000000E+000
  0.000000000000000E+000
  0.000000000000000E+000
  0.000000000000000E+000
  0.000000000000000E+000
  0.000000000000000E+000
  0.000000000000000E+000
  0.000000000000000E+000
  0.000000000000000E+000
  0.000000000000000E+000
  0.000000000000000E+000
  0.000000000000000E+000
SCALARS elementIsPlast double 
LOOKUP_TABLE default
   1.00000000000000     
  0.000000000000000E+000
  0.000000000000000E+000
  0.000000000000000E+000
  0.000000000000000E+000
  0.000000000000000E+000
  0.000000000000000E+000
  0.000000000000000E+000
  0.000000000000000E+000
  0.000000000000000E+000
  0.000000000000000E+000
  0.000000000000000E+000
  0.000000000000000E+000
  0.000000000000000E+000
  0.000000000000000E+000
   1.00000000000000     
  0.000000000000000E+000
  0.000000000000000E+000
  0.000000000000000E+000
  0.000000000000000E+000
  0.000000000000000E+000
  0.000000000000000E+000
  0.000000000000000E+000
  0.000000000000000E+000
  0.000000000000000E+000
  0.000000000000000E+000
  0.000000000000000E+000
  0.000000000000000E+000
  0.000000000000000E+000
  0.000000000000000E+000
  0.000000000000000E+000
  0.000000000000000E+000
  0.000000000000000E+000
  0.000000000000000E+000
  0.000000000000000E+000
  0.000000000000000E+000
  0.000000000000000E+000
  0.000000000000000E+000
  0.000000000000000E+000
  0.000000000000000E+000
  0.000000000000000E+000
  0.000000000000000E+000
  0.000000000000000E+000
  0.000000000000000E+000
  0.000000000000000E+000
  0.000000000000000E+000
  0.000000000000000E+000
  0.000000000000000E+000
  0.000000000000000E+000
  0.000000000000000E+000
  0.000000000000000E+000
  0.000000000000000E+000
  0.000000000000000E+000
  0.000000000000000E+000
  0.000000000000000E+000
  0.000000000000000E+000
  0.000000000000000E+000
  0.000000000000000E+000
  0.000000000000000E+000
  0.000000000000000E+000
  0.000000000000000E+000
  0.000000000000000E+000
  0.000000000000000E+000
  0.000000000000000E+000
  0.000000000000000E+000
  0.000000000000000E+000
  0.000000000000000E+000
  0.000000000000000E+000
  0.000000000000000E+000
  0.000000000000000E+000
  0.000000000000000E+000
  0.000000000000000E+000
  0.000000000000000E+000
  0.000000000000000E+000
  0.000000000000000E+000
  0.000000000000000E+000
  0.000000000000000E+000
  0.000000000000000E+000
  0.000000000000000E+000
  0.000000000000000E+000
  0.000000000000000E+000
  0.000000000000000E+000
  0.000000000000000E+000
  0.000000000000000E+000
  0.000000000000000E+000
  0.000000000000000E+000
  0.000000000000000E+000
  0.000000000000000E+000
  0.000000000000000E+000
  0.000000000000000E+000
  0.000000000000000E+000
  0.000000000000000E+000
  0.000000000000000E+000
  0.000000000000000E+000
  0.000000000000000E+000
  0.000000000000000E+000
  0.000000000000000E+000
  0.000000000000000E+000
  0.000000000000000E+000
  0.000000000000000E+000
  0.000000000000000E+000
  0.000000000000000E+000
  0.000000000000000E+000
  0.000000000000000E+000
  0.000000000000000E+000
  0.000000000000000E+000
  0.000000000000000E+000
  0.000000000000000E+000
  0.000000000000000E+000
  0.000000000000000E+000
  0.000000000000000E+000
  0.000000000000000E+000
  0.000000000000000E+000
  0.000000000000000E+000
  0.000000000000000E+000
  0.000000000000000E+000
  0.000000000000000E+000
  0.000000000000000E+000
  0.000000000000000E+000
  0.000000000000000E+000
  0.000000000000000E+000
  0.000000000000000E+000
  0.000000000000000E+000
  0.000000000000000E+000
  0.000000000000000E+000
  0.000000000000000E+000
  0.000000000000000E+000
  0.000000000000000E+000
  0.000000000000000E+000
  0.000000000000000E+000
  0.000000000000000E+000
  0.000000000000000E+000
  0.000000000000000E+000
  0.000000000000000E+000
  0.000000000000000E+000
  0.000000000000000E+000
  0.000000000000000E+000
  0.000000000000000E+000
  0.000000000000000E+000
  0.000000000000000E+000
  0.000000000000000E+000
  0.000000000000000E+000
  0.000000000000000E+000
  0.000000000000000E+000
  0.000000000000000E+000
  0.000000000000000E+000
  0.000000000000000E+000
  0.000000000000000E+000
  0.000000000000000E+000
  0.000000000000000E+000
  0.000000000000000E+000
  0.000000000000000E+000
  0.000000000000000E+000
  0.000000000000000E+000
  0.000000000000000E+000
  0.000000000000000E+000
  0.000000000000000E+000
  0.000000000000000E+000
  0.000000000000000E+000
  0.000000000000000E+000
  0.000000000000000E+000
  0.000000000000000E+000
  0.000000000000000E+000
  0.000000000000000E+000
  0.000000000000000E+000
  0.000000000000000E+000
  0.000000000000000E+000
  0.000000000000000E+000
  0.000000000000000E+000
  0.000000000000000E+000
  0.000000000000000E+000
  0.000000000000000E+000
  0.000000000000000E+000
  0.000000000000000E+000
  0.000000000000000E+000
  0.000000000000000E+000
  0.000000000000000E+000
  0.000000000000000E+000
  0.000000000000000E+000
  0.000000000000000E+000
  0.000000000000000E+000
  0.000000000000000E+000
  0.000000000000000E+000
  0.000000000000000E+000
  0.000000000000000E+000
  0.000000000000000E+000
  0.000000000000000E+000
  0.000000000000000E+000
  0.000000000000000E+000
  0.000000000000000E+000
  0.000000000000000E+000
  0.000000000000000E+000
  0.000000000000000E+000
  0.000000000000000E+000
  0.000000000000000E+000
  0.000000000000000E+000
  0.000000000000000E+000
  0.000000000000000E+000
  0.000000000000000E+000
  0.000000000000000E+000
  0.000000000000000E+000
  0.000000000000000E+000
  0.000000000000000E+000
  0.000000000000000E+000
  0.000000000000000E+000
  0.000000000000000E+000
  0.000000000000000E+000
  0.000000000000000E+000
  0.000000000000000E+000
  0.000000000000000E+000
  0.000000000000000E+000
  0.000000000000000E+000
  0.000000000000000E+000
  0.000000000000000E+000
  0.000000000000000E+000
  0.000000000000000E+000
  0.000000000000000E+000
  0.000000000000000E+000
  0.000000000000000E+000
  0.000000000000000E+000
  0.000000000000000E+000
  0.000000000000000E+000
  0.000000000000000E+000
  0.000000000000000E+000
  0.000000000000000E+000
  0.000000000000000E+000
  0.000000000000000E+000
  0.000000000000000E+000
  0.000000000000000E+000
  0.000000000000000E+000
  0.000000000000000E+000
  0.000000000000000E+000
  0.000000000000000E+000
  0.000000000000000E+000
  0.000000000000000E+000
  0.000000000000000E+000
  0.000000000000000E+000
  0.000000000000000E+000
  0.000000000000000E+000
  0.000000000000000E+000
  0.000000000000000E+000
  0.000000000000000E+000
  0.000000000000000E+000
  0.000000000000000E+000
  0.000000000000000E+000
  0.000000000000000E+000
  0.000000000000000E+000
  0.000000000000000E+000
  0.000000000000000E+000
  0.000000000000000E+000
  0.000000000000000E+000
  0.000000000000000E+000
  0.000000000000000E+000
  0.000000000000000E+000
  0.000000000000000E+000
  0.000000000000000E+000
  0.000000000000000E+000
  0.000000000000000E+000
  0.000000000000000E+000
  0.000000000000000E+000
  0.000000000000000E+000
  0.000000000000000E+000
  0.000000000000000E+000
  0.000000000000000E+000
  0.000000000000000E+000
  0.000000000000000E+000
  0.000000000000000E+000
  0.000000000000000E+000
  0.000000000000000E+000
  0.000000000000000E+000
  0.000000000000000E+000
  0.000000000000000E+000
  0.000000000000000E+000
  0.000000000000000E+000
  0.000000000000000E+000
  0.000000000000000E+000
  0.000000000000000E+000
  0.000000000000000E+000
  0.000000000000000E+000
  0.000000000000000E+000
  0.000000000000000E+000
  0.000000000000000E+000
  0.000000000000000E+000
  0.000000000000000E+000
  0.000000000000000E+000
  0.000000000000000E+000
  0.000000000000000E+000
  0.000000000000000E+000
  0.000000000000000E+000
  0.000000000000000E+000
  0.000000000000000E+000
  0.000000000000000E+000
  0.000000000000000E+000
  0.000000000000000E+000
  0.000000000000000E+000
  0.000000000000000E+000
  0.000000000000000E+000
  0.000000000000000E+000
  0.000000000000000E+000
  0.000000000000000E+000
  0.000000000000000E+000
  0.000000000000000E+000
  0.000000000000000E+000
  0.000000000000000E+000
  0.000000000000000E+000
  0.000000000000000E+000
  0.000000000000000E+000
  0.000000000000000E+000
  0.000000000000000E+000
  0.000000000000000E+000
  0.000000000000000E+000
  0.000000000000000E+000
  0.000000000000000E+000
  0.000000000000000E+000
  0.000000000000000E+000
  0.000000000000000E+000
  0.000000000000000E+000
  0.000000000000000E+000
  0.000000000000000E+000
  0.000000000000000E+000
  0.000000000000000E+000
  0.000000000000000E+000
  0.000000000000000E+000
  0.000000000000000E+000
  0.000000000000000E+000
  0.000000000000000E+000
  0.000000000000000E+000
  0.000000000000000E+000
  0.000000000000000E+000
  0.000000000000000E+000
  0.000000000000000E+000
  0.000000000000000E+000
  0.000000000000000E+000
  0.000000000000000E+000
  0.000000000000000E+000
  0.000000000000000E+000
  0.000000000000000E+000
  0.000000000000000E+000
  0.000000000000000E+000
  0.000000000000000E+000
  0.000000000000000E+000
  0.000000000000000E+000
  0.000000000000000E+000
  0.000000000000000E+000
  0.000000000000000E+000
  0.000000000000000E+000
  0.000000000000000E+000
  0.000000000000000E+000
  0.000000000000000E+000
  0.000000000000000E+000
  0.000000000000000E+000
  0.000000000000000E+000
  0.000000000000000E+000
  0.000000000000000E+000
  0.000000000000000E+000
  0.000000000000000E+000
  0.000000000000000E+000
  0.000000000000000E+000
  0.000000000000000E+000
  0.000000000000000E+000
  0.000000000000000E+000
  0.000000000000000E+000
  0.000000000000000E+000
  0.000000000000000E+000
  0.000000000000000E+000
  0.000000000000000E+000
  0.000000000000000E+000
  0.000000000000000E+000
  0.000000000000000E+000
  0.000000000000000E+000
  0.000000000000000E+000
  0.000000000000000E+000
  0.000000000000000E+000
  0.000000000000000E+000
  0.000000000000000E+000
  0.000000000000000E+000
  0.000000000000000E+000
  0.000000000000000E+000
  0.000000000000000E+000
  0.000000000000000E+000
  0.000000000000000E+000
  0.000000000000000E+000
  0.000000000000000E+000
  0.000000000000000E+000
  0.000000000000000E+000
  0.000000000000000E+000
  0.000000000000000E+000
  0.000000000000000E+000
  0.000000000000000E+000
  0.000000000000000E+000
  0.000000000000000E+000
  0.000000000000000E+000
  0.000000000000000E+000
  0.000000000000000E+000
  0.000000000000000E+000
  0.000000000000000E+000
  0.000000000000000E+000
  0.000000000000000E+000
  0.000000000000000E+000
  0.000000000000000E+000
  0.000000000000000E+000
  0.000000000000000E+000
  0.000000000000000E+000
  0.000000000000000E+000
  0.000000000000000E+000
  0.000000000000000E+000
  0.000000000000000E+000
  0.000000000000000E+000
  0.000000000000000E+000
  0.000000000000000E+000
  0.000000000000000E+000
  0.000000000000000E+000
  0.000000000000000E+000
  0.000000000000000E+000
  0.000000000000000E+000
  0.000000000000000E+000
  0.000000000000000E+000
  0.000000000000000E+000
  0.000000000000000E+000
  0.000000000000000E+000
  0.000000000000000E+000
  0.000000000000000E+000
  0.000000000000000E+000
  0.000000000000000E+000
  0.000000000000000E+000
  0.000000000000000E+000
  0.000000000000000E+000
  0.000000000000000E+000
  0.000000000000000E+000
  0.000000000000000E+000
  0.000000000000000E+000
  0.000000000000000E+000
  0.000000000000000E+000
  0.000000000000000E+000
  0.000000000000000E+000
  0.000000000000000E+000
  0.000000000000000E+000
  0.000000000000000E+000
  0.000000000000000E+000
  0.000000000000000E+000
  0.000000000000000E+000
  0.000000000000000E+000
  0.000000000000000E+000
  0.000000000000000E+000
  0.000000000000000E+000
  0.000000000000000E+000
  0.000000000000000E+000
  0.000000000000000E+000
  0.000000000000000E+000
  0.000000000000000E+000
SCALARS poroL double 
LOOKUP_TABLE default
  0.156220176530152     
  0.156196653993773     
  0.156179888775961     
  0.156167364304524     
  0.156157009977915     
  0.156148120937330     
  0.156140292005940     
  0.156133254819951     
  0.156126806154080     
  0.156120772696751     
  0.156114985635786     
  0.156109253325590     
  0.156103313153266     
  0.156096732942033     
  0.156088253920175     
  0.156191045218119     
  0.156179002772767     
  0.156166352161908     
  0.156154947761436     
  0.156145183590042     
  0.156136650808849     
  0.156129069681758     
  0.156122223802059     
  0.156115939570818     
  0.156110065492355     
  0.156104456092337     
  0.156098954948568     
  0.156093380059600     
  0.156087471929007     
  0.156081493404389     
  0.156171886632798     
  0.156161027784799     
  0.156150769860166     
  0.156141061041779     
  0.156132245278012     
  0.156124341454176     
  0.156117213829683     
  0.156110725953555     
  0.156104751931994     
  0.156099177077947     
  0.156093894003587     
  0.156088801793059     
  0.156083810235206     
  0.156078940336654     
  0.156074345079903     
  0.156152235654475     
  0.156143272868911     
  0.156134550772645     
  0.156126267815713     
  0.156118526070214     
  0.156111397808217     
  0.156104863506751     
  0.156098858242139     
  0.156093307419265     
  0.156088137792005     
  0.156083283870341     
  0.156078695513854     
  0.156074362348889     
  0.156070336976529     
  0.156066768645711     
  0.156132717923302     
  0.156125396975131     
  0.156118118312909     
  0.156111056271674     
  0.156104338644823     
  0.156098033610506     
  0.156092165296406     
  0.156086720588120     
  0.156081667806552     
  0.156076971278656     
  0.156072601490925     
  0.156068546784558     
  0.156064826523383     
  0.156061506790483     
  0.156058706610186     
  0.156113581827397     
  0.156107678788968     
  0.156101657113539     
  0.156095699136029     
  0.156089930589332     
  0.156084433880513     
  0.156079253295334     
  0.156074405521079     
  0.156069889929734     
  0.156065699695923     
  0.156061832007527     
  0.156058297598430     
  0.156055130259104     
  0.156052394029284     
  0.156050186106221     
  0.156095014724523     
  0.156090285332063     
  0.156085348010289     
  0.156080368497551     
  0.156075470640992     
  0.156070741118364     
  0.156066236617534     
  0.156061990901155     
  0.156058023044225     
  0.156054345707523     
  0.156050973213349     
  0.156047929014485     
  0.156045251978240     
  0.156043000675043     
  0.156041254312760     
  0.156077087797198     
  0.156073321177786     
  0.156069303553438     
  0.156065181723653     
  0.156061070130719     
  0.156057054278651     
  0.156053195384397     
  0.156049536084054     
  0.156046106537434     
  0.156042930758014     
  0.156040032710267     
  0.156037441781039     
  0.156035197140062     
  0.156033350385405     
  0.156031965975716     
  0.156059810363786     
  0.156056825798746     
  0.156053581878937     
  0.156050204737787     
  0.156046796005742     
  0.156043434888574     
  0.156040181515197     
  0.156037081054076     
  0.156034168300422     
  0.156031472375813     
  0.156029021232730     
  0.156026845605476     
  0.156024982035170     
  0.156023474612226     
  0.156022375170403     
  0.156043144602802     
  0.156040790533093     
  0.156038194502694     
  0.156035461433227     
  0.156032677788400     
  0.156029913022934     
  0.156027221895523     
  0.156024647423872     
  0.156022224203405     
  0.156019981829275     
  0.156017948146700     
  0.156016152056918     
  0.156014625610222     
  0.156013405154725     
  0.156012531394504     
  0.156027016831789     
  0.156025169276245     
  0.156023116463782     
  0.156020941665431     
  0.156018714669097     
  0.156016492749293     
  0.156014322242653     
  0.156012240590253     
  0.156010278664641     
  0.156008463176074     
  0.156006818949127     
  0.156005370862197     
  0.156004145258802     
  0.156003170675327     
  0.156002477789933     
  0.156011325812066     
  0.156009887622304     
  0.156008294929359     
  0.156006609061852     
  0.156004882132009     
  0.156003157599114     
  0.156001471257940     
  0.155999852566482     
  0.155998326185457     
  0.155996913582115     
  0.155995634543647     
  0.155994508449716     
  0.155993555168397     
  0.155992795467415     
  0.155992250872397     
  0.155995950310039     
  0.155994850738584     
  0.155993656918548     
  0.155992408140164     
  0.155991138263118     
  0.155989875903664     
  0.155988644934182     
  0.155987465230258     
  0.155986353575578     
  0.155985324620821     
  0.155984391788515     
  0.155983568019295     
  0.155982866266121     
  0.155982299661138     
  0.155981881303824     
  0.155980756211028     
  0.155979950527035     
  0.155979116264261     
  0.155978270832052     
  0.155977429636103     
  0.155976605921859     
  0.155975810854580     
  0.155975053780302     
  0.155974342603213     
  0.155973684210603     
  0.155973084876312     
  0.155972550577100     
  0.155972087163045     
  0.155971700332657     
  0.155971395374898     
  0.155965603231172     
  0.155965072198173     
  0.155964579950640     
  0.155964122440574     
  0.155963696757506     
  0.155963300672433     
  0.155962932355734     
  0.155962590218315     
  0.155962272831948     
  0.155961978890578     
  0.155961707179176     
  0.155961456520245     
  0.155961225670595     
  0.155961013142714     
  0.155960816925951     
  0.155950351131219     
  0.155950100278799     
  0.155949953870357     
  0.155949887061379     
  0.155949879057287     
  0.155949912415731     
  0.155949972452900     
  0.155950046708614     
  0.155950124447311     
  0.155950196188590     
  0.155950253270884     
  0.155950287455176     
  0.155950290573605     
  0.155950254221471     
  0.155950169481906     
  0.155934865331720     
  0.155934924033384     
  0.155935148022602     
  0.155935492491148     
  0.155935919428950     
  0.155936396755572     
  0.155936897458677     
  0.155937398703527     
  0.155937880918085     
  0.155938326886590     
  0.155938720898932     
  0.155939048005139     
  0.155939293416135     
  0.155939442076413     
  0.155939478413769     
  0.155919021858102     
  0.155919442288740     
  0.155920081178912     
  0.155920874661819     
  0.155921768346192     
  0.155922716360800     
  0.155923680257720     
  0.155924627756240     
  0.155925531373449     
  0.155926367028466     
  0.155927112724340     
  0.155927747409271     
  0.155928250101952     
  0.155928599338752     
  0.155928772966407     
  0.155902711582752     
  0.155903567683064     
  0.155904685075092     
  0.155905981671766     
  0.155907387616637     
  0.155908844338464     
  0.155910303230124     
  0.155911723970452     
  0.155913072603479     
  0.155914319541652     
  0.155915437673347     
  0.155916400742196     
  0.155917182136433     
  0.155917754185370     
  0.155918088009235     
  0.155885843767603     
  0.155887230407076     
  0.155888908240119     
  0.155890777537395     
  0.155892753879325     
  0.155894767327373     
  0.155896760843567     
  0.155898688056167     
  0.155900510605227     
  0.155902195354870     
  0.155903711753602     
  0.155905029589489     
  0.155906117342165     
  0.155906941278953     
  0.155907465372756     
  0.155868348945151     
  0.155870381572000     
  0.155872719655359     
  0.155875245867570     
  0.155877862014692     
  0.155880488421598     
  0.155883061956704     
  0.155885532970737     
  0.155887861598347     
  0.155890013890063     
  0.155891958177462     
  0.155893662000195     
  0.155895089865561     
  0.155896202058160     
  0.155896954630547     
  0.155850181218684     
  0.155852996448273     
  0.155856112573158     
  0.155859393784496     
  0.155862728718026     
  0.155866030073857     
  0.155869231886933     
  0.155872285119639     
  0.155875152422747     
  0.155877802788179     
  0.155880206606991     
  0.155882331499428     
  0.155884139251198     
  0.155885584177949     
  0.155886613174162     
  0.155831320138481     
  0.155835078021817     
  0.155839109063135     
  0.155843256605876     
  0.155847396589156     
  0.155851437151540     
  0.155855314276602     
  0.155858985065107     
  0.155862420208929     
  0.155865596704616     
  0.155868491291143     
  0.155871074876536     
  0.155873308278559     
  0.155875139835861     
  0.155876505405645     
  0.155811772480124     
  0.155816661727579     
  0.155821766306339     
  0.155826904105437     
  0.155831939189244     
  0.155836780271874     
  0.155841372703315     
  0.155845687631202     
  0.155849711198302     
  0.155853435000799     
  0.155856847824890     
  0.155859928346426     
  0.155862639104792     
  0.155864922579533     
  0.155866700833082     
  0.155791574638981     
  0.155797823156461     
  0.155804186543437     
  0.155810449628787     
  0.155816467505013     
  0.155822159290511     
  0.155827491746160     
  0.155832461201218     
  0.155837078619481     
  0.155841358255514     
  0.155845308228744     
  0.155848921539654     
  0.155852166903884     
  0.155854981916330     
  0.155857270733483     
  0.155770797518080     
  0.155778692722519     
  0.155786534468453     
  0.155794063869214     
  0.155801137746812     
  0.155807706093012     
  0.155813776720468     
  0.155819385899015     
  0.155824579757784     
  0.155829403745829     
  0.155833894364480     
  0.155838068342215     
  0.155841909720591     
  0.155845354105672     
  0.155848282886222     
  0.155749558586687     
  0.155759487920027     
  0.155769069442405     
  0.155777994823253     
  0.155786158395874     
  0.155793583957708     
  0.155800350798343     
  0.155806550315613     
  0.155812272624268     
  0.155817601300117     
  0.155822609752063     
  0.155827354537207     
  0.155831850444385     
  0.155836046690701     
  0.155839792200582     
  0.155728063319710     
  0.155740590198043     
  0.155752206845574     
  0.155762590153548     
  0.155771786182565     
  0.155779979909513     
  0.155787347907351     
  0.155794046587837     
  0.155800213141548     
  0.155805971207425     
  0.155811436293271     
  0.155816717126085     
  0.155821911383056     
  0.155827000329602     
  0.155831827416895     
  0.155706738899314     
  0.155722774728324     
  0.155736613623035     
  0.155748271649133     
  0.155758303214094     
  0.155767086007733     
  0.155774900846666     
  0.155781964042847     
  0.155788453536792     
  0.155794527218517     
  0.155800338432026     
  0.155806052938399     
  0.155811863778876     
  0.155818045403884     
  0.155824323616879     
  0.155687279418092     
  0.155707744612632     
  0.155723026349752     
  0.155735461529892     
  0.155745966025507     
  0.155755071489143     
  0.155763125844437     
  0.155770382199646     
  0.155777042340655     
  0.155783284045847     
  0.155789283726789     
  0.155795243327109     
  0.155801439881448     
  0.155808328250884     
  0.155817229913851     
