# vtk DataFile Version 3.0
vtk output
ASCII
DATASET UNSTRUCTURED_GRID
POINTS       496 double 
  0.00000000E+00  3.00000000E+02  0.00000000E+00
  0.00000000E+00  2.80000000E+02  0.00000000E+00
  0.00000000E+00  2.60000000E+02  0.00000000E+00
  0.00000000E+00  2.40000000E+02  0.00000000E+00
  0.00000000E+00  2.20000000E+02  0.00000000E+00
  0.00000000E+00  2.00000000E+02  0.00000000E+00
  0.00000000E+00  1.80000000E+02  0.00000000E+00
  0.00000000E+00  1.60000000E+02  0.00000000E+00
  0.00000000E+00  1.40000000E+02  0.00000000E+00
  0.00000000E+00  1.20000000E+02  0.00000000E+00
  0.00000000E+00  1.00000000E+02  0.00000000E+00
  0.00000000E+00  8.00000000E+01  0.00000000E+00
  0.00000000E+00  6.00000000E+01  0.00000000E+00
  0.00000000E+00  4.00000000E+01  0.00000000E+00
  0.00000000E+00  2.00000000E+01  0.00000000E+00
  0.00000000E+00  4.99600361E-14  0.00000000E+00
  2.00000000E+01  3.00000000E+02  0.00000000E+00
  2.00000000E+01  2.80000000E+02  0.00000000E+00
  2.00000000E+01  2.60000000E+02  0.00000000E+00
  2.00000000E+01  2.40000000E+02  0.00000000E+00
  2.00000000E+01  2.20000000E+02  0.00000000E+00
  2.00000000E+01  2.00000000E+02  0.00000000E+00
  2.00000000E+01  1.80000000E+02  0.00000000E+00
  2.00000000E+01  1.60000000E+02  0.00000000E+00
  2.00000000E+01  1.40000000E+02  0.00000000E+00
  2.00000000E+01  1.20000000E+02  0.00000000E+00
  2.00000000E+01  1.00000000E+02  0.00000000E+00
  2.00000000E+01  8.00000000E+01  0.00000000E+00
  2.00000000E+01  6.00000000E+01  0.00000000E+00
  2.00000000E+01  4.00000000E+01  0.00000000E+00
  2.00000000E+01  2.00000000E+01  0.00000000E+00
  2.00000000E+01  4.99600361E-14  0.00000000E+00
  4.00000000E+01  3.00000000E+02  0.00000000E+00
  4.00000000E+01  2.80000000E+02  0.00000000E+00
  4.00000000E+01  2.60000000E+02  0.00000000E+00
  4.00000000E+01  2.40000000E+02  0.00000000E+00
  4.00000000E+01  2.20000000E+02  0.00000000E+00
  4.00000000E+01  2.00000000E+02  0.00000000E+00
  4.00000000E+01  1.80000000E+02  0.00000000E+00
  4.00000000E+01  1.60000000E+02  0.00000000E+00
  4.00000000E+01  1.40000000E+02  0.00000000E+00
  4.00000000E+01  1.20000000E+02  0.00000000E+00
  4.00000000E+01  1.00000000E+02  0.00000000E+00
  4.00000000E+01  8.00000000E+01  0.00000000E+00
  4.00000000E+01  6.00000000E+01  0.00000000E+00
  4.00000000E+01  4.00000000E+01  0.00000000E+00
  4.00000000E+01  2.00000000E+01  0.00000000E+00
  4.00000000E+01  4.99600361E-14  0.00000000E+00
  6.00000000E+01  3.00000000E+02  0.00000000E+00
  6.00000000E+01  2.80000000E+02  0.00000000E+00
  6.00000000E+01  2.60000000E+02  0.00000000E+00
  6.00000000E+01  2.40000000E+02  0.00000000E+00
  6.00000000E+01  2.20000000E+02  0.00000000E+00
  6.00000000E+01  2.00000000E+02  0.00000000E+00
  6.00000000E+01  1.80000000E+02  0.00000000E+00
  6.00000000E+01  1.60000000E+02  0.00000000E+00
  6.00000000E+01  1.40000000E+02  0.00000000E+00
  6.00000000E+01  1.20000000E+02  0.00000000E+00
  6.00000000E+01  1.00000000E+02  0.00000000E+00
  6.00000000E+01  8.00000000E+01  0.00000000E+00
  6.00000000E+01  6.00000000E+01  0.00000000E+00
  6.00000000E+01  4.00000000E+01  0.00000000E+00
  6.00000000E+01  2.00000000E+01  0.00000000E+00
  6.00000000E+01  4.99600361E-14  0.00000000E+00
  8.00000000E+01  3.00000000E+02  0.00000000E+00
  8.00000000E+01  2.80000000E+02  0.00000000E+00
  8.00000000E+01  2.60000000E+02  0.00000000E+00
  8.00000000E+01  2.40000000E+02  0.00000000E+00
  8.00000000E+01  2.20000000E+02  0.00000000E+00
  8.00000000E+01  2.00000000E+02  0.00000000E+00
  8.00000000E+01  1.80000000E+02  0.00000000E+00
  8.00000000E+01  1.60000000E+02  0.00000000E+00
  8.00000000E+01  1.40000000E+02  0.00000000E+00
  8.00000000E+01  1.20000000E+02  0.00000000E+00
  8.00000000E+01  1.00000000E+02  0.00000000E+00
  8.00000000E+01  8.00000000E+01  0.00000000E+00
  8.00000000E+01  6.00000000E+01  0.00000000E+00
  8.00000000E+01  4.00000000E+01  0.00000000E+00
  8.00000000E+01  2.00000000E+01  0.00000000E+00
  8.00000000E+01  4.99600361E-14  0.00000000E+00
  1.00000000E+02  3.00000000E+02  0.00000000E+00
  1.00000000E+02  2.80000000E+02  0.00000000E+00
  1.00000000E+02  2.60000000E+02  0.00000000E+00
  1.00000000E+02  2.40000000E+02  0.00000000E+00
  1.00000000E+02  2.20000000E+02  0.00000000E+00
  1.00000000E+02  2.00000000E+02  0.00000000E+00
  1.00000000E+02  1.80000000E+02  0.00000000E+00
  1.00000000E+02  1.60000000E+02  0.00000000E+00
  1.00000000E+02  1.40000000E+02  0.00000000E+00
  1.00000000E+02  1.20000000E+02  0.00000000E+00
  1.00000000E+02  1.00000000E+02  0.00000000E+00
  1.00000000E+02  8.00000000E+01  0.00000000E+00
  1.00000000E+02  6.00000000E+01  0.00000000E+00
  1.00000000E+02  4.00000000E+01  0.00000000E+00
  1.00000000E+02  2.00000000E+01  0.00000000E+00
  1.00000000E+02  4.99600361E-14  0.00000000E+00
  1.20000000E+02  3.00000000E+02  0.00000000E+00
  1.20000000E+02  2.80000000E+02  0.00000000E+00
  1.20000000E+02  2.60000000E+02  0.00000000E+00
  1.20000000E+02  2.40000000E+02  0.00000000E+00
  1.20000000E+02  2.20000000E+02  0.00000000E+00
  1.20000000E+02  2.00000000E+02  0.00000000E+00
  1.20000000E+02  1.80000000E+02  0.00000000E+00
  1.20000000E+02  1.60000000E+02  0.00000000E+00
  1.20000000E+02  1.40000000E+02  0.00000000E+00
  1.20000000E+02  1.20000000E+02  0.00000000E+00
  1.20000000E+02  1.00000000E+02  0.00000000E+00
  1.20000000E+02  8.00000000E+01  0.00000000E+00
  1.20000000E+02  6.00000000E+01  0.00000000E+00
  1.20000000E+02  4.00000000E+01  0.00000000E+00
  1.20000000E+02  2.00000000E+01  0.00000000E+00
  1.20000000E+02  4.99600361E-14  0.00000000E+00
  1.40000000E+02  3.00000000E+02  0.00000000E+00
  1.40000000E+02  2.80000000E+02  0.00000000E+00
  1.40000000E+02  2.60000000E+02  0.00000000E+00
  1.40000000E+02  2.40000000E+02  0.00000000E+00
  1.40000000E+02  2.20000000E+02  0.00000000E+00
  1.40000000E+02  2.00000000E+02  0.00000000E+00
  1.40000000E+02  1.80000000E+02  0.00000000E+00
  1.40000000E+02  1.60000000E+02  0.00000000E+00
  1.40000000E+02  1.40000000E+02  0.00000000E+00
  1.40000000E+02  1.20000000E+02  0.00000000E+00
  1.40000000E+02  1.00000000E+02  0.00000000E+00
  1.40000000E+02  8.00000000E+01  0.00000000E+00
  1.40000000E+02  6.00000000E+01  0.00000000E+00
  1.40000000E+02  4.00000000E+01  0.00000000E+00
  1.40000000E+02  2.00000000E+01  0.00000000E+00
  1.40000000E+02  4.99600361E-14  0.00000000E+00
  1.60000000E+02  3.00000000E+02  0.00000000E+00
  1.60000000E+02  2.80000000E+02  0.00000000E+00
  1.60000000E+02  2.60000000E+02  0.00000000E+00
  1.60000000E+02  2.40000000E+02  0.00000000E+00
  1.60000000E+02  2.20000000E+02  0.00000000E+00
  1.60000000E+02  2.00000000E+02  0.00000000E+00
  1.60000000E+02  1.80000000E+02  0.00000000E+00
  1.60000000E+02  1.60000000E+02  0.00000000E+00
  1.60000000E+02  1.40000000E+02  0.00000000E+00
  1.60000000E+02  1.20000000E+02  0.00000000E+00
  1.60000000E+02  1.00000000E+02  0.00000000E+00
  1.60000000E+02  8.00000000E+01  0.00000000E+00
  1.60000000E+02  6.00000000E+01  0.00000000E+00
  1.60000000E+02  4.00000000E+01  0.00000000E+00
  1.60000000E+02  2.00000000E+01  0.00000000E+00
  1.60000000E+02  4.99600361E-14  0.00000000E+00
  1.80000000E+02  3.00000000E+02  0.00000000E+00
  1.80000000E+02  2.80000000E+02  0.00000000E+00
  1.80000000E+02  2.60000000E+02  0.00000000E+00
  1.80000000E+02  2.40000000E+02  0.00000000E+00
  1.80000000E+02  2.20000000E+02  0.00000000E+00
  1.80000000E+02  2.00000000E+02  0.00000000E+00
  1.80000000E+02  1.80000000E+02  0.00000000E+00
  1.80000000E+02  1.60000000E+02  0.00000000E+00
  1.80000000E+02  1.40000000E+02  0.00000000E+00
  1.80000000E+02  1.20000000E+02  0.00000000E+00
  1.80000000E+02  1.00000000E+02  0.00000000E+00
  1.80000000E+02  8.00000000E+01  0.00000000E+00
  1.80000000E+02  6.00000000E+01  0.00000000E+00
  1.80000000E+02  4.00000000E+01  0.00000000E+00
  1.80000000E+02  2.00000000E+01  0.00000000E+00
  1.80000000E+02  4.99600361E-14  0.00000000E+00
  2.00000000E+02  3.00000000E+02  0.00000000E+00
  2.00000000E+02  2.80000000E+02  0.00000000E+00
  2.00000000E+02  2.60000000E+02  0.00000000E+00
  2.00000000E+02  2.40000000E+02  0.00000000E+00
  2.00000000E+02  2.20000000E+02  0.00000000E+00
  2.00000000E+02  2.00000000E+02  0.00000000E+00
  2.00000000E+02  1.80000000E+02  0.00000000E+00
  2.00000000E+02  1.60000000E+02  0.00000000E+00
  2.00000000E+02  1.40000000E+02  0.00000000E+00
  2.00000000E+02  1.20000000E+02  0.00000000E+00
  2.00000000E+02  1.00000000E+02  0.00000000E+00
  2.00000000E+02  8.00000000E+01  0.00000000E+00
  2.00000000E+02  6.00000000E+01  0.00000000E+00
  2.00000000E+02  4.00000000E+01  0.00000000E+00
  2.00000000E+02  2.00000000E+01  0.00000000E+00
  2.00000000E+02  4.99600361E-14  0.00000000E+00
  2.20000000E+02  3.00000000E+02  0.00000000E+00
  2.20000000E+02  2.80000000E+02  0.00000000E+00
  2.20000000E+02  2.60000000E+02  0.00000000E+00
  2.20000000E+02  2.40000000E+02  0.00000000E+00
  2.20000000E+02  2.20000000E+02  0.00000000E+00
  2.20000000E+02  2.00000000E+02  0.00000000E+00
  2.20000000E+02  1.80000000E+02  0.00000000E+00
  2.20000000E+02  1.60000000E+02  0.00000000E+00
  2.20000000E+02  1.40000000E+02  0.00000000E+00
  2.20000000E+02  1.20000000E+02  0.00000000E+00
  2.20000000E+02  1.00000000E+02  0.00000000E+00
  2.20000000E+02  8.00000000E+01  0.00000000E+00
  2.20000000E+02  6.00000000E+01  0.00000000E+00
  2.20000000E+02  4.00000000E+01  0.00000000E+00
  2.20000000E+02  2.00000000E+01  0.00000000E+00
  2.20000000E+02  4.99600361E-14  0.00000000E+00
  2.40000000E+02  3.00000000E+02  0.00000000E+00
  2.40000000E+02  2.80000000E+02  0.00000000E+00
  2.40000000E+02  2.60000000E+02  0.00000000E+00
  2.40000000E+02  2.40000000E+02  0.00000000E+00
  2.40000000E+02  2.20000000E+02  0.00000000E+00
  2.40000000E+02  2.00000000E+02  0.00000000E+00
  2.40000000E+02  1.80000000E+02  0.00000000E+00
  2.40000000E+02  1.60000000E+02  0.00000000E+00
  2.40000000E+02  1.40000000E+02  0.00000000E+00
  2.40000000E+02  1.20000000E+02  0.00000000E+00
  2.40000000E+02  1.00000000E+02  0.00000000E+00
  2.40000000E+02  8.00000000E+01  0.00000000E+00
  2.40000000E+02  6.00000000E+01  0.00000000E+00
  2.40000000E+02  4.00000000E+01  0.00000000E+00
  2.40000000E+02  2.00000000E+01  0.00000000E+00
  2.40000000E+02  4.99600361E-14  0.00000000E+00
  2.60000000E+02  3.00000000E+02  0.00000000E+00
  2.60000000E+02  2.80000000E+02  0.00000000E+00
  2.60000000E+02  2.60000000E+02  0.00000000E+00
  2.60000000E+02  2.40000000E+02  0.00000000E+00
  2.60000000E+02  2.20000000E+02  0.00000000E+00
  2.60000000E+02  2.00000000E+02  0.00000000E+00
  2.60000000E+02  1.80000000E+02  0.00000000E+00
  2.60000000E+02  1.60000000E+02  0.00000000E+00
  2.60000000E+02  1.40000000E+02  0.00000000E+00
  2.60000000E+02  1.20000000E+02  0.00000000E+00
  2.60000000E+02  1.00000000E+02  0.00000000E+00
  2.60000000E+02  8.00000000E+01  0.00000000E+00
  2.60000000E+02  6.00000000E+01  0.00000000E+00
  2.60000000E+02  4.00000000E+01  0.00000000E+00
  2.60000000E+02  2.00000000E+01  0.00000000E+00
  2.60000000E+02  4.99600361E-14  0.00000000E+00
  2.80000000E+02  3.00000000E+02  0.00000000E+00
  2.80000000E+02  2.80000000E+02  0.00000000E+00
  2.80000000E+02  2.60000000E+02  0.00000000E+00
  2.80000000E+02  2.40000000E+02  0.00000000E+00
  2.80000000E+02  2.20000000E+02  0.00000000E+00
  2.80000000E+02  2.00000000E+02  0.00000000E+00
  2.80000000E+02  1.80000000E+02  0.00000000E+00
  2.80000000E+02  1.60000000E+02  0.00000000E+00
  2.80000000E+02  1.40000000E+02  0.00000000E+00
  2.80000000E+02  1.20000000E+02  0.00000000E+00
  2.80000000E+02  1.00000000E+02  0.00000000E+00
  2.80000000E+02  8.00000000E+01  0.00000000E+00
  2.80000000E+02  6.00000000E+01  0.00000000E+00
  2.80000000E+02  4.00000000E+01  0.00000000E+00
  2.80000000E+02  2.00000000E+01  0.00000000E+00
  2.80000000E+02  4.99600361E-14  0.00000000E+00
  3.00000000E+02  3.00000000E+02  0.00000000E+00
  3.00000000E+02  2.80000000E+02  0.00000000E+00
  3.00000000E+02  2.60000000E+02  0.00000000E+00
  3.00000000E+02  2.40000000E+02  0.00000000E+00
  3.00000000E+02  2.20000000E+02  0.00000000E+00
  3.00000000E+02  2.00000000E+02  0.00000000E+00
  3.00000000E+02  1.80000000E+02  0.00000000E+00
  3.00000000E+02  1.60000000E+02  0.00000000E+00
  3.00000000E+02  1.40000000E+02  0.00000000E+00
  3.00000000E+02  1.20000000E+02  0.00000000E+00
  3.00000000E+02  1.00000000E+02  0.00000000E+00
  3.00000000E+02  8.00000000E+01  0.00000000E+00
  3.00000000E+02  6.00000000E+01  0.00000000E+00
  3.00000000E+02  4.00000000E+01  0.00000000E+00
  3.00000000E+02  2.00000000E+01  0.00000000E+00
  3.00000000E+02  4.99600361E-14  0.00000000E+00
  3.20000000E+02  3.00000000E+02  0.00000000E+00
  3.20000000E+02  2.80000000E+02  0.00000000E+00
  3.20000000E+02  2.60000000E+02  0.00000000E+00
  3.20000000E+02  2.40000000E+02  0.00000000E+00
  3.20000000E+02  2.20000000E+02  0.00000000E+00
  3.20000000E+02  2.00000000E+02  0.00000000E+00
  3.20000000E+02  1.80000000E+02  0.00000000E+00
  3.20000000E+02  1.60000000E+02  0.00000000E+00
  3.20000000E+02  1.40000000E+02  0.00000000E+00
  3.20000000E+02  1.20000000E+02  0.00000000E+00
  3.20000000E+02  1.00000000E+02  0.00000000E+00
  3.20000000E+02  8.00000000E+01  0.00000000E+00
  3.20000000E+02  6.00000000E+01  0.00000000E+00
  3.20000000E+02  4.00000000E+01  0.00000000E+00
  3.20000000E+02  2.00000000E+01  0.00000000E+00
  3.20000000E+02  4.99600361E-14  0.00000000E+00
  3.40000000E+02  3.00000000E+02  0.00000000E+00
  3.40000000E+02  2.80000000E+02  0.00000000E+00
  3.40000000E+02  2.60000000E+02  0.00000000E+00
  3.40000000E+02  2.40000000E+02  0.00000000E+00
  3.40000000E+02  2.20000000E+02  0.00000000E+00
  3.40000000E+02  2.00000000E+02  0.00000000E+00
  3.40000000E+02  1.80000000E+02  0.00000000E+00
  3.40000000E+02  1.60000000E+02  0.00000000E+00
  3.40000000E+02  1.40000000E+02  0.00000000E+00
  3.40000000E+02  1.20000000E+02  0.00000000E+00
  3.40000000E+02  1.00000000E+02  0.00000000E+00
  3.40000000E+02  8.00000000E+01  0.00000000E+00
  3.40000000E+02  6.00000000E+01  0.00000000E+00
  3.40000000E+02  4.00000000E+01  0.00000000E+00
  3.40000000E+02  2.00000000E+01  0.00000000E+00
  3.40000000E+02  4.99600361E-14  0.00000000E+00
  3.60000000E+02  3.00000000E+02  0.00000000E+00
  3.60000000E+02  2.80000000E+02  0.00000000E+00
  3.60000000E+02  2.60000000E+02  0.00000000E+00
  3.60000000E+02  2.40000000E+02  0.00000000E+00
  3.60000000E+02  2.20000000E+02  0.00000000E+00
  3.60000000E+02  2.00000000E+02  0.00000000E+00
  3.60000000E+02  1.80000000E+02  0.00000000E+00
  3.60000000E+02  1.60000000E+02  0.00000000E+00
  3.60000000E+02  1.40000000E+02  0.00000000E+00
  3.60000000E+02  1.20000000E+02  0.00000000E+00
  3.60000000E+02  1.00000000E+02  0.00000000E+00
  3.60000000E+02  8.00000000E+01  0.00000000E+00
  3.60000000E+02  6.00000000E+01  0.00000000E+00
  3.60000000E+02  4.00000000E+01  0.00000000E+00
  3.60000000E+02  2.00000000E+01  0.00000000E+00
  3.60000000E+02  4.99600361E-14  0.00000000E+00
  3.80000000E+02  3.00000000E+02  0.00000000E+00
  3.80000000E+02  2.80000000E+02  0.00000000E+00
  3.80000000E+02  2.60000000E+02  0.00000000E+00
  3.80000000E+02  2.40000000E+02  0.00000000E+00
  3.80000000E+02  2.20000000E+02  0.00000000E+00
  3.80000000E+02  2.00000000E+02  0.00000000E+00
  3.80000000E+02  1.80000000E+02  0.00000000E+00
  3.80000000E+02  1.60000000E+02  0.00000000E+00
  3.80000000E+02  1.40000000E+02  0.00000000E+00
  3.80000000E+02  1.20000000E+02  0.00000000E+00
  3.80000000E+02  1.00000000E+02  0.00000000E+00
  3.80000000E+02  8.00000000E+01  0.00000000E+00
  3.80000000E+02  6.00000000E+01  0.00000000E+00
  3.80000000E+02  4.00000000E+01  0.00000000E+00
  3.80000000E+02  2.00000000E+01  0.00000000E+00
  3.80000000E+02  4.99600361E-14  0.00000000E+00
  4.00000000E+02  3.00000000E+02  0.00000000E+00
  4.00000000E+02  2.80000000E+02  0.00000000E+00
  4.00000000E+02  2.60000000E+02  0.00000000E+00
  4.00000000E+02  2.40000000E+02  0.00000000E+00
  4.00000000E+02  2.20000000E+02  0.00000000E+00
  4.00000000E+02  2.00000000E+02  0.00000000E+00
  4.00000000E+02  1.80000000E+02  0.00000000E+00
  4.00000000E+02  1.60000000E+02  0.00000000E+00
  4.00000000E+02  1.40000000E+02  0.00000000E+00
  4.00000000E+02  1.20000000E+02  0.00000000E+00
  4.00000000E+02  1.00000000E+02  0.00000000E+00
  4.00000000E+02  8.00000000E+01  0.00000000E+00
  4.00000000E+02  6.00000000E+01  0.00000000E+00
  4.00000000E+02  4.00000000E+01  0.00000000E+00
  4.00000000E+02  2.00000000E+01  0.00000000E+00
  4.00000000E+02  4.99600361E-14  0.00000000E+00
  4.20000000E+02  3.00000000E+02  0.00000000E+00
  4.20000000E+02  2.80000000E+02  0.00000000E+00
  4.20000000E+02  2.60000000E+02  0.00000000E+00
  4.20000000E+02  2.40000000E+02  0.00000000E+00
  4.20000000E+02  2.20000000E+02  0.00000000E+00
  4.20000000E+02  2.00000000E+02  0.00000000E+00
  4.20000000E+02  1.80000000E+02  0.00000000E+00
  4.20000000E+02  1.60000000E+02  0.00000000E+00
  4.20000000E+02  1.40000000E+02  0.00000000E+00
  4.20000000E+02  1.20000000E+02  0.00000000E+00
  4.20000000E+02  1.00000000E+02  0.00000000E+00
  4.20000000E+02  8.00000000E+01  0.00000000E+00
  4.20000000E+02  6.00000000E+01  0.00000000E+00
  4.20000000E+02  4.00000000E+01  0.00000000E+00
  4.20000000E+02  2.00000000E+01  0.00000000E+00
  4.20000000E+02  4.99600361E-14  0.00000000E+00
  4.40000000E+02  3.00000000E+02  0.00000000E+00
  4.40000000E+02  2.80000000E+02  0.00000000E+00
  4.40000000E+02  2.60000000E+02  0.00000000E+00
  4.40000000E+02  2.40000000E+02  0.00000000E+00
  4.40000000E+02  2.20000000E+02  0.00000000E+00
  4.40000000E+02  2.00000000E+02  0.00000000E+00
  4.40000000E+02  1.80000000E+02  0.00000000E+00
  4.40000000E+02  1.60000000E+02  0.00000000E+00
  4.40000000E+02  1.40000000E+02  0.00000000E+00
  4.40000000E+02  1.20000000E+02  0.00000000E+00
  4.40000000E+02  1.00000000E+02  0.00000000E+00
  4.40000000E+02  8.00000000E+01  0.00000000E+00
  4.40000000E+02  6.00000000E+01  0.00000000E+00
  4.40000000E+02  4.00000000E+01  0.00000000E+00
  4.40000000E+02  2.00000000E+01  0.00000000E+00
  4.40000000E+02  4.99600361E-14  0.00000000E+00
  4.60000000E+02  3.00000000E+02  0.00000000E+00
  4.60000000E+02  2.80000000E+02  0.00000000E+00
  4.60000000E+02  2.60000000E+02  0.00000000E+00
  4.60000000E+02  2.40000000E+02  0.00000000E+00
  4.60000000E+02  2.20000000E+02  0.00000000E+00
  4.60000000E+02  2.00000000E+02  0.00000000E+00
  4.60000000E+02  1.80000000E+02  0.00000000E+00
  4.60000000E+02  1.60000000E+02  0.00000000E+00
  4.60000000E+02  1.40000000E+02  0.00000000E+00
  4.60000000E+02  1.20000000E+02  0.00000000E+00
  4.60000000E+02  1.00000000E+02  0.00000000E+00
  4.60000000E+02  8.00000000E+01  0.00000000E+00
  4.60000000E+02  6.00000000E+01  0.00000000E+00
  4.60000000E+02  4.00000000E+01  0.00000000E+00
  4.60000000E+02  2.00000000E+01  0.00000000E+00
  4.60000000E+02  4.99600361E-14  0.00000000E+00
  4.80000000E+02  3.00000000E+02  0.00000000E+00
  4.80000000E+02  2.80000000E+02  0.00000000E+00
  4.80000000E+02  2.60000000E+02  0.00000000E+00
  4.80000000E+02  2.40000000E+02  0.00000000E+00
  4.80000000E+02  2.20000000E+02  0.00000000E+00
  4.80000000E+02  2.00000000E+02  0.00000000E+00
  4.80000000E+02  1.80000000E+02  0.00000000E+00
  4.80000000E+02  1.60000000E+02  0.00000000E+00
  4.80000000E+02  1.40000000E+02  0.00000000E+00
  4.80000000E+02  1.20000000E+02  0.00000000E+00
  4.80000000E+02  1.00000000E+02  0.00000000E+00
  4.80000000E+02  8.00000000E+01  0.00000000E+00
  4.80000000E+02  6.00000000E+01  0.00000000E+00
  4.80000000E+02  4.00000000E+01  0.00000000E+00
  4.80000000E+02  2.00000000E+01  0.00000000E+00
  4.80000000E+02  4.99600361E-14  0.00000000E+00
  5.00000000E+02  3.00000000E+02  0.00000000E+00
  5.00000000E+02  2.80000000E+02  0.00000000E+00
  5.00000000E+02  2.60000000E+02  0.00000000E+00
  5.00000000E+02  2.40000000E+02  0.00000000E+00
  5.00000000E+02  2.20000000E+02  0.00000000E+00
  5.00000000E+02  2.00000000E+02  0.00000000E+00
  5.00000000E+02  1.80000000E+02  0.00000000E+00
  5.00000000E+02  1.60000000E+02  0.00000000E+00
  5.00000000E+02  1.40000000E+02  0.00000000E+00
  5.00000000E+02  1.20000000E+02  0.00000000E+00
  5.00000000E+02  1.00000000E+02  0.00000000E+00
  5.00000000E+02  8.00000000E+01  0.00000000E+00
  5.00000000E+02  6.00000000E+01  0.00000000E+00
  5.00000000E+02  4.00000000E+01  0.00000000E+00
  5.00000000E+02  2.00000000E+01  0.00000000E+00
  5.00000000E+02  4.99600361E-14  0.00000000E+00
  5.20000000E+02  3.00000000E+02  0.00000000E+00
  5.20000000E+02  2.80000000E+02  0.00000000E+00
  5.20000000E+02  2.60000000E+02  0.00000000E+00
  5.20000000E+02  2.40000000E+02  0.00000000E+00
  5.20000000E+02  2.20000000E+02  0.00000000E+00
  5.20000000E+02  2.00000000E+02  0.00000000E+00
  5.20000000E+02  1.80000000E+02  0.00000000E+00
  5.20000000E+02  1.60000000E+02  0.00000000E+00
  5.20000000E+02  1.40000000E+02  0.00000000E+00
  5.20000000E+02  1.20000000E+02  0.00000000E+00
  5.20000000E+02  1.00000000E+02  0.00000000E+00
  5.20000000E+02  8.00000000E+01  0.00000000E+00
  5.20000000E+02  6.00000000E+01  0.00000000E+00
  5.20000000E+02  4.00000000E+01  0.00000000E+00
  5.20000000E+02  2.00000000E+01  0.00000000E+00
  5.20000000E+02  4.99600361E-14  0.00000000E+00
  5.40000000E+02  3.00000000E+02  0.00000000E+00
  5.40000000E+02  2.80000000E+02  0.00000000E+00
  5.40000000E+02  2.60000000E+02  0.00000000E+00
  5.40000000E+02  2.40000000E+02  0.00000000E+00
  5.40000000E+02  2.20000000E+02  0.00000000E+00
  5.40000000E+02  2.00000000E+02  0.00000000E+00
  5.40000000E+02  1.80000000E+02  0.00000000E+00
  5.40000000E+02  1.60000000E+02  0.00000000E+00
  5.40000000E+02  1.40000000E+02  0.00000000E+00
  5.40000000E+02  1.20000000E+02  0.00000000E+00
  5.40000000E+02  1.00000000E+02  0.00000000E+00
  5.40000000E+02  8.00000000E+01  0.00000000E+00
  5.40000000E+02  6.00000000E+01  0.00000000E+00
  5.40000000E+02  4.00000000E+01  0.00000000E+00
  5.40000000E+02  2.00000000E+01  0.00000000E+00
  5.40000000E+02  4.99600361E-14  0.00000000E+00
  5.60000000E+02  3.00000000E+02  0.00000000E+00
  5.60000000E+02  2.80000000E+02  0.00000000E+00
  5.60000000E+02  2.60000000E+02  0.00000000E+00
  5.60000000E+02  2.40000000E+02  0.00000000E+00
  5.60000000E+02  2.20000000E+02  0.00000000E+00
  5.60000000E+02  2.00000000E+02  0.00000000E+00
  5.60000000E+02  1.80000000E+02  0.00000000E+00
  5.60000000E+02  1.60000000E+02  0.00000000E+00
  5.60000000E+02  1.40000000E+02  0.00000000E+00
  5.60000000E+02  1.20000000E+02  0.00000000E+00
  5.60000000E+02  1.00000000E+02  0.00000000E+00
  5.60000000E+02  8.00000000E+01  0.00000000E+00
  5.60000000E+02  6.00000000E+01  0.00000000E+00
  5.60000000E+02  4.00000000E+01  0.00000000E+00
  5.60000000E+02  2.00000000E+01  0.00000000E+00
  5.60000000E+02  4.99600361E-14  0.00000000E+00
  5.80000000E+02  3.00000000E+02  0.00000000E+00
  5.80000000E+02  2.80000000E+02  0.00000000E+00
  5.80000000E+02  2.60000000E+02  0.00000000E+00
  5.80000000E+02  2.40000000E+02  0.00000000E+00
  5.80000000E+02  2.20000000E+02  0.00000000E+00
  5.80000000E+02  2.00000000E+02  0.00000000E+00
  5.80000000E+02  1.80000000E+02  0.00000000E+00
  5.80000000E+02  1.60000000E+02  0.00000000E+00
  5.80000000E+02  1.40000000E+02  0.00000000E+00
  5.80000000E+02  1.20000000E+02  0.00000000E+00
  5.80000000E+02  1.00000000E+02  0.00000000E+00
  5.80000000E+02  8.00000000E+01  0.00000000E+00
  5.80000000E+02  6.00000000E+01  0.00000000E+00
  5.80000000E+02  4.00000000E+01  0.00000000E+00
  5.80000000E+02  2.00000000E+01  0.00000000E+00
  5.80000000E+02  4.99600361E-14  0.00000000E+00
  6.00000000E+02  3.00000000E+02  0.00000000E+00
  6.00000000E+02  2.80000000E+02  0.00000000E+00
  6.00000000E+02  2.60000000E+02  0.00000000E+00
  6.00000000E+02  2.40000000E+02  0.00000000E+00
  6.00000000E+02  2.20000000E+02  0.00000000E+00
  6.00000000E+02  2.00000000E+02  0.00000000E+00
  6.00000000E+02  1.80000000E+02  0.00000000E+00
  6.00000000E+02  1.60000000E+02  0.00000000E+00
  6.00000000E+02  1.40000000E+02  0.00000000E+00
  6.00000000E+02  1.20000000E+02  0.00000000E+00
  6.00000000E+02  1.00000000E+02  0.00000000E+00
  6.00000000E+02  8.00000000E+01  0.00000000E+00
  6.00000000E+02  6.00000000E+01  0.00000000E+00
  6.00000000E+02  4.00000000E+01  0.00000000E+00
  6.00000000E+02  2.00000000E+01  0.00000000E+00
  6.00000000E+02  4.99600361E-14  0.00000000E+00
CELLS       450      2250
         4           0           1          17          16
         4           1           2          18          17
         4           2           3          19          18
         4           3           4          20          19
         4           4           5          21          20
         4           5           6          22          21
         4           6           7          23          22
         4           7           8          24          23
         4           8           9          25          24
         4           9          10          26          25
         4          10          11          27          26
         4          11          12          28          27
         4          12          13          29          28
         4          13          14          30          29
         4          14          15          31          30
         4          16          17          33          32
         4          17          18          34          33
         4          18          19          35          34
         4          19          20          36          35
         4          20          21          37          36
         4          21          22          38          37
         4          22          23          39          38
         4          23          24          40          39
         4          24          25          41          40
         4          25          26          42          41
         4          26          27          43          42
         4          27          28          44          43
         4          28          29          45          44
         4          29          30          46          45
         4          30          31          47          46
         4          32          33          49          48
         4          33          34          50          49
         4          34          35          51          50
         4          35          36          52          51
         4          36          37          53          52
         4          37          38          54          53
         4          38          39          55          54
         4          39          40          56          55
         4          40          41          57          56
         4          41          42          58          57
         4          42          43          59          58
         4          43          44          60          59
         4          44          45          61          60
         4          45          46          62          61
         4          46          47          63          62
         4          48          49          65          64
         4          49          50          66          65
         4          50          51          67          66
         4          51          52          68          67
         4          52          53          69          68
         4          53          54          70          69
         4          54          55          71          70
         4          55          56          72          71
         4          56          57          73          72
         4          57          58          74          73
         4          58          59          75          74
         4          59          60          76          75
         4          60          61          77          76
         4          61          62          78          77
         4          62          63          79          78
         4          64          65          81          80
         4          65          66          82          81
         4          66          67          83          82
         4          67          68          84          83
         4          68          69          85          84
         4          69          70          86          85
         4          70          71          87          86
         4          71          72          88          87
         4          72          73          89          88
         4          73          74          90          89
         4          74          75          91          90
         4          75          76          92          91
         4          76          77          93          92
         4          77          78          94          93
         4          78          79          95          94
         4          80          81          97          96
         4          81          82          98          97
         4          82          83          99          98
         4          83          84         100          99
         4          84          85         101         100
         4          85          86         102         101
         4          86          87         103         102
         4          87          88         104         103
         4          88          89         105         104
         4          89          90         106         105
         4          90          91         107         106
         4          91          92         108         107
         4          92          93         109         108
         4          93          94         110         109
         4          94          95         111         110
         4          96          97         113         112
         4          97          98         114         113
         4          98          99         115         114
         4          99         100         116         115
         4         100         101         117         116
         4         101         102         118         117
         4         102         103         119         118
         4         103         104         120         119
         4         104         105         121         120
         4         105         106         122         121
         4         106         107         123         122
         4         107         108         124         123
         4         108         109         125         124
         4         109         110         126         125
         4         110         111         127         126
         4         112         113         129         128
         4         113         114         130         129
         4         114         115         131         130
         4         115         116         132         131
         4         116         117         133         132
         4         117         118         134         133
         4         118         119         135         134
         4         119         120         136         135
         4         120         121         137         136
         4         121         122         138         137
         4         122         123         139         138
         4         123         124         140         139
         4         124         125         141         140
         4         125         126         142         141
         4         126         127         143         142
         4         128         129         145         144
         4         129         130         146         145
         4         130         131         147         146
         4         131         132         148         147
         4         132         133         149         148
         4         133         134         150         149
         4         134         135         151         150
         4         135         136         152         151
         4         136         137         153         152
         4         137         138         154         153
         4         138         139         155         154
         4         139         140         156         155
         4         140         141         157         156
         4         141         142         158         157
         4         142         143         159         158
         4         144         145         161         160
         4         145         146         162         161
         4         146         147         163         162
         4         147         148         164         163
         4         148         149         165         164
         4         149         150         166         165
         4         150         151         167         166
         4         151         152         168         167
         4         152         153         169         168
         4         153         154         170         169
         4         154         155         171         170
         4         155         156         172         171
         4         156         157         173         172
         4         157         158         174         173
         4         158         159         175         174
         4         160         161         177         176
         4         161         162         178         177
         4         162         163         179         178
         4         163         164         180         179
         4         164         165         181         180
         4         165         166         182         181
         4         166         167         183         182
         4         167         168         184         183
         4         168         169         185         184
         4         169         170         186         185
         4         170         171         187         186
         4         171         172         188         187
         4         172         173         189         188
         4         173         174         190         189
         4         174         175         191         190
         4         176         177         193         192
         4         177         178         194         193
         4         178         179         195         194
         4         179         180         196         195
         4         180         181         197         196
         4         181         182         198         197
         4         182         183         199         198
         4         183         184         200         199
         4         184         185         201         200
         4         185         186         202         201
         4         186         187         203         202
         4         187         188         204         203
         4         188         189         205         204
         4         189         190         206         205
         4         190         191         207         206
         4         192         193         209         208
         4         193         194         210         209
         4         194         195         211         210
         4         195         196         212         211
         4         196         197         213         212
         4         197         198         214         213
         4         198         199         215         214
         4         199         200         216         215
         4         200         201         217         216
         4         201         202         218         217
         4         202         203         219         218
         4         203         204         220         219
         4         204         205         221         220
         4         205         206         222         221
         4         206         207         223         222
         4         208         209         225         224
         4         209         210         226         225
         4         210         211         227         226
         4         211         212         228         227
         4         212         213         229         228
         4         213         214         230         229
         4         214         215         231         230
         4         215         216         232         231
         4         216         217         233         232
         4         217         218         234         233
         4         218         219         235         234
         4         219         220         236         235
         4         220         221         237         236
         4         221         222         238         237
         4         222         223         239         238
         4         224         225         241         240
         4         225         226         242         241
         4         226         227         243         242
         4         227         228         244         243
         4         228         229         245         244
         4         229         230         246         245
         4         230         231         247         246
         4         231         232         248         247
         4         232         233         249         248
         4         233         234         250         249
         4         234         235         251         250
         4         235         236         252         251
         4         236         237         253         252
         4         237         238         254         253
         4         238         239         255         254
         4         240         241         257         256
         4         241         242         258         257
         4         242         243         259         258
         4         243         244         260         259
         4         244         245         261         260
         4         245         246         262         261
         4         246         247         263         262
         4         247         248         264         263
         4         248         249         265         264
         4         249         250         266         265
         4         250         251         267         266
         4         251         252         268         267
         4         252         253         269         268
         4         253         254         270         269
         4         254         255         271         270
         4         256         257         273         272
         4         257         258         274         273
         4         258         259         275         274
         4         259         260         276         275
         4         260         261         277         276
         4         261         262         278         277
         4         262         263         279         278
         4         263         264         280         279
         4         264         265         281         280
         4         265         266         282         281
         4         266         267         283         282
         4         267         268         284         283
         4         268         269         285         284
         4         269         270         286         285
         4         270         271         287         286
         4         272         273         289         288
         4         273         274         290         289
         4         274         275         291         290
         4         275         276         292         291
         4         276         277         293         292
         4         277         278         294         293
         4         278         279         295         294
         4         279         280         296         295
         4         280         281         297         296
         4         281         282         298         297
         4         282         283         299         298
         4         283         284         300         299
         4         284         285         301         300
         4         285         286         302         301
         4         286         287         303         302
         4         288         289         305         304
         4         289         290         306         305
         4         290         291         307         306
         4         291         292         308         307
         4         292         293         309         308
         4         293         294         310         309
         4         294         295         311         310
         4         295         296         312         311
         4         296         297         313         312
         4         297         298         314         313
         4         298         299         315         314
         4         299         300         316         315
         4         300         301         317         316
         4         301         302         318         317
         4         302         303         319         318
         4         304         305         321         320
         4         305         306         322         321
         4         306         307         323         322
         4         307         308         324         323
         4         308         309         325         324
         4         309         310         326         325
         4         310         311         327         326
         4         311         312         328         327
         4         312         313         329         328
         4         313         314         330         329
         4         314         315         331         330
         4         315         316         332         331
         4         316         317         333         332
         4         317         318         334         333
         4         318         319         335         334
         4         320         321         337         336
         4         321         322         338         337
         4         322         323         339         338
         4         323         324         340         339
         4         324         325         341         340
         4         325         326         342         341
         4         326         327         343         342
         4         327         328         344         343
         4         328         329         345         344
         4         329         330         346         345
         4         330         331         347         346
         4         331         332         348         347
         4         332         333         349         348
         4         333         334         350         349
         4         334         335         351         350
         4         336         337         353         352
         4         337         338         354         353
         4         338         339         355         354
         4         339         340         356         355
         4         340         341         357         356
         4         341         342         358         357
         4         342         343         359         358
         4         343         344         360         359
         4         344         345         361         360
         4         345         346         362         361
         4         346         347         363         362
         4         347         348         364         363
         4         348         349         365         364
         4         349         350         366         365
         4         350         351         367         366
         4         352         353         369         368
         4         353         354         370         369
         4         354         355         371         370
         4         355         356         372         371
         4         356         357         373         372
         4         357         358         374         373
         4         358         359         375         374
         4         359         360         376         375
         4         360         361         377         376
         4         361         362         378         377
         4         362         363         379         378
         4         363         364         380         379
         4         364         365         381         380
         4         365         366         382         381
         4         366         367         383         382
         4         368         369         385         384
         4         369         370         386         385
         4         370         371         387         386
         4         371         372         388         387
         4         372         373         389         388
         4         373         374         390         389
         4         374         375         391         390
         4         375         376         392         391
         4         376         377         393         392
         4         377         378         394         393
         4         378         379         395         394
         4         379         380         396         395
         4         380         381         397         396
         4         381         382         398         397
         4         382         383         399         398
         4         384         385         401         400
         4         385         386         402         401
         4         386         387         403         402
         4         387         388         404         403
         4         388         389         405         404
         4         389         390         406         405
         4         390         391         407         406
         4         391         392         408         407
         4         392         393         409         408
         4         393         394         410         409
         4         394         395         411         410
         4         395         396         412         411
         4         396         397         413         412
         4         397         398         414         413
         4         398         399         415         414
         4         400         401         417         416
         4         401         402         418         417
         4         402         403         419         418
         4         403         404         420         419
         4         404         405         421         420
         4         405         406         422         421
         4         406         407         423         422
         4         407         408         424         423
         4         408         409         425         424
         4         409         410         426         425
         4         410         411         427         426
         4         411         412         428         427
         4         412         413         429         428
         4         413         414         430         429
         4         414         415         431         430
         4         416         417         433         432
         4         417         418         434         433
         4         418         419         435         434
         4         419         420         436         435
         4         420         421         437         436
         4         421         422         438         437
         4         422         423         439         438
         4         423         424         440         439
         4         424         425         441         440
         4         425         426         442         441
         4         426         427         443         442
         4         427         428         444         443
         4         428         429         445         444
         4         429         430         446         445
         4         430         431         447         446
         4         432         433         449         448
         4         433         434         450         449
         4         434         435         451         450
         4         435         436         452         451
         4         436         437         453         452
         4         437         438         454         453
         4         438         439         455         454
         4         439         440         456         455
         4         440         441         457         456
         4         441         442         458         457
         4         442         443         459         458
         4         443         444         460         459
         4         444         445         461         460
         4         445         446         462         461
         4         446         447         463         462
         4         448         449         465         464
         4         449         450         466         465
         4         450         451         467         466
         4         451         452         468         467
         4         452         453         469         468
         4         453         454         470         469
         4         454         455         471         470
         4         455         456         472         471
         4         456         457         473         472
         4         457         458         474         473
         4         458         459         475         474
         4         459         460         476         475
         4         460         461         477         476
         4         461         462         478         477
         4         462         463         479         478
         4         464         465         481         480
         4         465         466         482         481
         4         466         467         483         482
         4         467         468         484         483
         4         468         469         485         484
         4         469         470         486         485
         4         470         471         487         486
         4         471         472         488         487
         4         472         473         489         488
         4         473         474         490         489
         4         474         475         491         490
         4         475         476         492         491
         4         476         477         493         492
         4         477         478         494         493
         4         478         479         495         494
CELL_TYPES        450
9
9
9
9
9
9
9
9
9
9
9
9
9
9
9
9
9
9
9
9
9
9
9
9
9
9
9
9
9
9
9
9
9
9
9
9
9
9
9
9
9
9
9
9
9
9
9
9
9
9
9
9
9
9
9
9
9
9
9
9
9
9
9
9
9
9
9
9
9
9
9
9
9
9
9
9
9
9
9
9
9
9
9
9
9
9
9
9
9
9
9
9
9
9
9
9
9
9
9
9
9
9
9
9
9
9
9
9
9
9
9
9
9
9
9
9
9
9
9
9
9
9
9
9
9
9
9
9
9
9
9
9
9
9
9
9
9
9
9
9
9
9
9
9
9
9
9
9
9
9
9
9
9
9
9
9
9
9
9
9
9
9
9
9
9
9
9
9
9
9
9
9
9
9
9
9
9
9
9
9
9
9
9
9
9
9
9
9
9
9
9
9
9
9
9
9
9
9
9
9
9
9
9
9
9
9
9
9
9
9
9
9
9
9
9
9
9
9
9
9
9
9
9
9
9
9
9
9
9
9
9
9
9
9
9
9
9
9
9
9
9
9
9
9
9
9
9
9
9
9
9
9
9
9
9
9
9
9
9
9
9
9
9
9
9
9
9
9
9
9
9
9
9
9
9
9
9
9
9
9
9
9
9
9
9
9
9
9
9
9
9
9
9
9
9
9
9
9
9
9
9
9
9
9
9
9
9
9
9
9
9
9
9
9
9
9
9
9
9
9
9
9
9
9
9
9
9
9
9
9
9
9
9
9
9
9
9
9
9
9
9
9
9
9
9
9
9
9
9
9
9
9
9
9
9
9
9
9
9
9
9
9
9
9
9
9
9
9
9
9
9
9
9
9
9
9
9
9
9
9
9
9
9
9
9
9
9
9
9
9
9
9
9
9
9
9
9
9
9
9
9
9
9
9
9
9
9
9
9
9
9
9
9
9
9
9
9
9
9
9
9
9
9
9
9
9
9
9
9
9
9
9
9
9
9
9
9
9
9
9
9
9
9
9
9
9
9
9
9
9
POINT_DATA       496
SCALARS p double 
LOOKUP_TABLE default
   60000000.0000000     
   60000000.0000000     
   60000000.0000000     
   60000000.0000000     
   60000000.0000000     
   60000000.0000000     
   60000000.0000000     
   60000000.0000000     
   60000000.0000000     
   60000000.0000000     
   60000000.0000000     
   60000000.0000000     
   60000000.0000000     
   60000000.0000000     
   60000000.0000000     
   60000000.0000000     
   60000000.0000000     
   60000000.0000000     
   60000000.0000000     
   60000000.0000000     
   60000000.0000000     
   60000000.0000000     
   60000000.0000000     
   60000000.0000000     
   60000000.0000000     
   60000000.0000000     
   60000000.0000000     
   60000000.0000000     
   60000000.0000000     
   60000000.0000000     
   60000000.0000000     
   60000000.0000000     
   60000000.0000000     
   60000000.0000000     
   60000000.0000000     
   60000000.0000000     
   60000000.0000000     
   60000000.0000000     
   60000000.0000000     
   60000000.0000000     
   60000000.0000000     
   60000000.0000000     
   60000000.0000000     
   60000000.0000000     
   60000000.0000000     
   60000000.0000000     
   60000000.0000000     
   60000000.0000000     
   60000000.0000000     
   60000000.0000000     
   60000000.0000000     
   60000000.0000000     
   60000000.0000000     
   60000000.0000000     
   60000000.0000000     
   60000000.0000000     
   60000000.0000000     
   60000000.0000000     
   60000000.0000000     
   60000000.0000000     
   60000000.0000000     
   60000000.0000000     
   60000000.0000000     
   60000000.0000000     
   60000000.0000000     
   60000000.0000000     
   60000000.0000000     
   60000000.0000000     
   60000000.0000000     
   60000000.0000000     
   60000000.0000000     
   60000000.0000000     
   60000000.0000000     
   60000000.0000000     
   60000000.0000000     
   60000000.0000000     
   60000000.0000000     
   60000000.0000000     
   60000000.0000000     
   60000000.0000000     
   60000000.0000000     
   60000000.0000000     
   60000000.0000000     
   60000000.0000000     
   60000000.0000000     
   60000000.0000000     
   60000000.0000000     
   60000000.0000000     
   60000000.0000000     
   60000000.0000000     
   60000000.0000000     
   60000000.0000000     
   60000000.0000000     
   60000000.0000000     
   60000000.0000000     
   60000000.0000000     
   60000000.0000000     
   60000000.0000000     
   60000000.0000000     
   60000000.0000000     
   60000000.0000000     
   60000000.0000000     
   60000000.0000000     
   60000000.0000000     
   60000000.0000000     
   60000000.0000000     
   60000000.0000000     
   60000000.0000000     
   60000000.0000000     
   60000000.0000000     
   60000000.0000000     
   60000000.0000000     
   60000000.0000000     
   60000000.0000000     
   60000000.0000000     
   60000000.0000000     
   60000000.0000000     
   60000000.0000000     
   60000000.0000000     
   60000000.0000000     
   60000000.0000000     
   60000000.0000000     
   60000000.0000000     
   60000000.0000000     
   60000000.0000000     
   60000000.0000000     
   60000000.0000000     
   60000000.0000000     
   60000000.0000000     
   60000000.0000000     
   60000000.0000000     
   60000000.0000000     
   60000000.0000000     
   60000000.0000000     
   60000000.0000000     
   60000000.0000000     
   60000000.0000000     
   60000000.0000000     
   60000000.0000000     
   60000000.0000000     
   60000000.0000000     
   60000000.0000000     
   60000000.0000000     
   60000000.0000000     
   60000000.0000000     
   60000000.0000000     
   60000000.0000000     
   60000000.0000000     
   60000000.0000000     
   60000000.0000000     
   60000000.0000000     
   60000000.0000000     
   60000000.0000000     
   60000000.0000000     
   60000000.0000000     
   60000000.0000000     
   60000000.0000000     
   60000000.0000000     
   60000000.0000000     
   60000000.0000000     
   60000000.0000000     
   60000000.0000000     
   60000000.0000000     
   60000000.0000000     
   60000000.0000000     
   60000000.0000000     
   60000000.0000000     
   60000000.0000000     
   60000000.0000000     
   60000000.0000000     
   60000000.0000000     
   60000000.0000000     
   60000000.0000000     
   60000000.0000000     
   60000000.0000000     
   60000000.0000000     
   60000000.0000000     
   60000000.0000000     
   60000000.0000000     
   60000000.0000000     
   60000000.0000000     
   60000000.0000000     
   60000000.0000000     
   60000000.0000000     
   60000000.0000000     
   60000000.0000000     
   60000000.0000000     
   60000000.0000000     
   60000000.0000000     
   60000000.0000000     
   60000000.0000000     
   60000000.0000000     
   60000000.0000000     
   60000000.0000000     
   60000000.0000000     
   60000000.0000000     
   60000000.0000000     
   60000000.0000000     
   60000000.0000000     
   60000000.0000000     
   60000000.0000000     
   60000000.0000000     
   60000000.0000000     
   60000000.0000000     
   60000000.0000000     
   60000000.0000000     
   60000000.0000000     
   60000000.0000000     
   60000000.0000000     
   60000000.0000000     
   60000000.0000000     
   60000000.0000000     
   60000000.0000000     
   60000000.0000000     
   60000000.0000000     
   60000000.0000000     
   60000000.0000000     
   60000000.0000000     
   60000000.0000000     
   60000000.0000000     
   60000000.0000000     
   60000000.0000000     
   60000000.0000000     
   60000000.0000000     
   60000000.0000000     
   60000000.0000000     
   60000000.0000000     
   60000000.0000000     
   60000000.0000000     
   60000000.0000000     
   60000000.0000000     
   60000000.0000000     
   60000000.0000000     
   60000000.0000000     
   60000000.0000000     
   60000000.0000000     
   60000000.0000000     
   60000000.0000000     
   60000000.0000000     
   60000000.0000000     
   60000000.0000000     
   60000000.0000000     
   60000000.0000000     
   60000000.0000000     
   60000000.0000000     
   60000000.0000000     
   60000000.0000000     
   60000000.0000000     
   60000000.0000000     
   60000000.0000000     
   60000000.0000000     
   60000000.0000000     
   60000000.0000000     
   60000000.0000000     
   60000000.0000000     
   60000000.0000000     
   60000000.0000000     
   60000000.0000000     
   60000000.0000000     
   60000000.0000000     
   60000000.0000000     
   60000000.0000000     
   60000000.0000000     
   60000000.0000000     
   60000000.0000000     
   60000000.0000000     
   60000000.0000000     
   60000000.0000000     
   60000000.0000000     
   60000000.0000000     
   60000000.0000000     
   60000000.0000000     
   60000000.0000000     
   60000000.0000000     
   60000000.0000000     
   60000000.0000000     
   60000000.0000000     
   60000000.0000000     
   60000000.0000000     
   60000000.0000000     
   60000000.0000000     
   60000000.0000000     
   60000000.0000000     
   60000000.0000000     
   60000000.0000000     
   60000000.0000000     
   60000000.0000000     
   60000000.0000000     
   60000000.0000000     
   60000000.0000000     
   60000000.0000000     
   60000000.0000000     
   60000000.0000000     
   60000000.0000000     
   60000000.0000000     
   60000000.0000000     
   60000000.0000000     
   60000000.0000000     
   60000000.0000000     
   60000000.0000000     
   60000000.0000000     
   60000000.0000000     
   60000000.0000000     
   60000000.0000000     
   60000000.0000000     
   60000000.0000000     
   60000000.0000000     
   60000000.0000000     
   60000000.0000000     
   60000000.0000000     
   60000000.0000000     
   60000000.0000000     
   60000000.0000000     
   60000000.0000000     
   60000000.0000000     
   60000000.0000000     
   60000000.0000000     
   60000000.0000000     
   60000000.0000000     
   60000000.0000000     
   60000000.0000000     
   60000000.0000000     
   60000000.0000000     
   60000000.0000000     
   60000000.0000000     
   60000000.0000000     
   60000000.0000000     
   60000000.0000000     
   60000000.0000000     
   60000000.0000000     
   60000000.0000000     
   60000000.0000000     
   60000000.0000000     
   60000000.0000000     
   60000000.0000000     
   60000000.0000000     
   60000000.0000000     
   60000000.0000000     
   60000000.0000000     
   60000000.0000000     
   60000000.0000000     
   60000000.0000000     
   60000000.0000000     
   60000000.0000000     
   60000000.0000000     
   60000000.0000000     
   60000000.0000000     
   60000000.0000000     
   60000000.0000000     
   60000000.0000000     
   60000000.0000000     
   60000000.0000000     
   60000000.0000000     
   60000000.0000000     
   60000000.0000000     
   60000000.0000000     
   60000000.0000000     
   60000000.0000000     
   60000000.0000000     
   60000000.0000000     
   60000000.0000000     
   60000000.0000000     
   60000000.0000000     
   60000000.0000000     
   60000000.0000000     
   60000000.0000000     
   60000000.0000000     
   60000000.0000000     
   60000000.0000000     
   60000000.0000000     
   60000000.0000000     
   60000000.0000000     
   60000000.0000000     
   60000000.0000000     
   60000000.0000000     
   60000000.0000000     
   60000000.0000000     
   60000000.0000000     
   60000000.0000000     
   60000000.0000000     
   60000000.0000000     
   60000000.0000000     
   60000000.0000000     
   60000000.0000000     
   60000000.0000000     
   60000000.0000000     
   60000000.0000000     
   60000000.0000000     
   60000000.0000000     
   60000000.0000000     
   60000000.0000000     
   60000000.0000000     
   60000000.0000000     
   60000000.0000000     
   60000000.0000000     
   60000000.0000000     
   60000000.0000000     
   60000000.0000000     
   60000000.0000000     
   60000000.0000000     
   60000000.0000000     
   60000000.0000000     
   60000000.0000000     
   60000000.0000000     
   60000000.0000000     
   60000000.0000000     
   60000000.0000000     
   60000000.0000000     
   60000000.0000000     
   60000000.0000000     
   60000000.0000000     
   60000000.0000000     
   60000000.0000000     
   60000000.0000000     
   60000000.0000000     
   60000000.0000000     
   60000000.0000000     
   60000000.0000000     
   60000000.0000000     
   60000000.0000000     
   60000000.0000000     
   60000000.0000000     
   60000000.0000000     
   60000000.0000000     
   60000000.0000000     
   60000000.0000000     
   60000000.0000000     
   60000000.0000000     
   60000000.0000000     
   60000000.0000000     
   60000000.0000000     
   60000000.0000000     
   60000000.0000000     
   60000000.0000000     
   60000000.0000000     
   60000000.0000000     
   60000000.0000000     
   60000000.0000000     
   60000000.0000000     
   60000000.0000000     
   60000000.0000000     
   60000000.0000000     
   60000000.0000000     
   60000000.0000000     
   60000000.0000000     
   60000000.0000000     
   60000000.0000000     
   60000000.0000000     
   60000000.0000000     
   60000000.0000000     
   60000000.0000000     
   60000000.0000000     
   60000000.0000000     
   60000000.0000000     
   60000000.0000000     
   60000000.0000000     
   60000000.0000000     
   60000000.0000000     
   60000000.0000000     
   60000000.0000000     
   60000000.0000000     
   60000000.0000000     
   60000000.0000000     
   60000000.0000000     
   60000000.0000000     
   60000000.0000000     
   60000000.0000000     
   60000000.0000000     
   60000000.0000000     
   60000000.0000000     
   60000000.0000000     
   60000000.0000000     
   60000000.0000000     
   60000000.0000000     
   60000000.0000000     
   60000000.0000000     
   60000000.0000000     
   60000000.0000000     
   60000000.0000000     
   60000000.0000000     
   60000000.0000000     
   60000000.0000000     
   60000000.0000000     
   60000000.0000000     
   60000000.0000000     
   60000000.0000000     
   60000000.0000000     
   60000000.0000000     
   60000000.0000000     
   60000000.0000000     
   60000000.0000000     
   60000000.0000000     
   60000000.0000000     
   60000000.0000000     
   60000000.0000000     
   60000000.0000000     
VECTORS u double 
    0.00000E+00        -0.24170E-16         0.00000E+00
    0.00000E+00        -0.24391E-16         0.00000E+00
    0.00000E+00        -0.22147E-16         0.00000E+00
    0.00000E+00        -0.17519E-16         0.00000E+00
    0.00000E+00        -0.15107E-16         0.00000E+00
    0.00000E+00        -0.13529E-16         0.00000E+00
    0.00000E+00        -0.10668E-16         0.00000E+00
    0.00000E+00        -0.90913E-17         0.00000E+00
    0.00000E+00        -0.78735E-17         0.00000E+00
    0.00000E+00        -0.72079E-17         0.00000E+00
    0.00000E+00        -0.61430E-17         0.00000E+00
    0.00000E+00        -0.43775E-17         0.00000E+00
    0.00000E+00        -0.37738E-17         0.00000E+00
    0.00000E+00        -0.23188E-17         0.00000E+00
    0.00000E+00        -0.10208E-17         0.00000E+00
    0.00000E+00         0.00000E+00         0.00000E+00
   -0.51221E-17        -0.24789E-16         0.00000E+00
   -0.43119E-17        -0.24262E-16         0.00000E+00
    0.54782E-17        -0.21633E-16         0.00000E+00
    0.21762E-17        -0.18240E-16         0.00000E+00
    0.13125E-17        -0.15890E-16         0.00000E+00
    0.26477E-17        -0.12950E-16         0.00000E+00
    0.88961E-18        -0.10763E-16         0.00000E+00
   -0.20211E-18        -0.88468E-17         0.00000E+00
   -0.65762E-18        -0.79611E-17         0.00000E+00
   -0.15920E-17        -0.72272E-17         0.00000E+00
    0.48659E-18        -0.61533E-17         0.00000E+00
   -0.63503E-18        -0.52379E-17         0.00000E+00
    0.53414E-18        -0.35101E-17         0.00000E+00
    0.77265E-18        -0.22599E-17         0.00000E+00
    0.30947E-18        -0.10738E-17         0.00000E+00
    0.00000E+00         0.00000E+00         0.00000E+00
   -0.95332E-17        -0.23599E-16         0.00000E+00
   -0.54176E-17        -0.22495E-16         0.00000E+00
    0.68082E-17        -0.20360E-16         0.00000E+00
    0.26257E-17        -0.18173E-16         0.00000E+00
    0.40975E-17        -0.14444E-16         0.00000E+00
    0.29593E-17        -0.12695E-16         0.00000E+00
    0.19452E-17        -0.11388E-16         0.00000E+00
   -0.49631E-18        -0.96432E-17         0.00000E+00
   -0.19294E-17        -0.80428E-17         0.00000E+00
   -0.20820E-17        -0.66226E-17         0.00000E+00
    0.35924E-18        -0.58658E-17         0.00000E+00
   -0.31747E-18        -0.47189E-17         0.00000E+00
    0.14454E-17        -0.38468E-17         0.00000E+00
    0.12198E-17        -0.26667E-17         0.00000E+00
   -0.95840E-19        -0.14672E-17         0.00000E+00
    0.00000E+00         0.00000E+00         0.00000E+00
   -0.13198E-16        -0.21393E-16         0.00000E+00
   -0.66838E-17        -0.19874E-16         0.00000E+00
    0.67004E-17        -0.17950E-16         0.00000E+00
    0.41268E-17        -0.15829E-16         0.00000E+00
    0.52295E-17        -0.14197E-16         0.00000E+00
    0.51064E-18        -0.13301E-16         0.00000E+00
    0.12172E-17        -0.11643E-16         0.00000E+00
    0.25151E-18        -0.95890E-17         0.00000E+00
   -0.93352E-18        -0.79672E-17         0.00000E+00
   -0.22638E-17        -0.67926E-17         0.00000E+00
   -0.74440E-18        -0.57740E-17         0.00000E+00
   -0.10528E-17        -0.50255E-17         0.00000E+00
    0.15281E-17        -0.35729E-17         0.00000E+00
    0.16137E-17        -0.25115E-17         0.00000E+00
    0.30966E-18        -0.10283E-17         0.00000E+00
    0.00000E+00         0.00000E+00         0.00000E+00
   -0.12688E-16        -0.20745E-16         0.00000E+00
   -0.63226E-17        -0.18347E-16         0.00000E+00
    0.59770E-17        -0.16567E-16         0.00000E+00
    0.31174E-17        -0.14672E-16         0.00000E+00
    0.30318E-17        -0.13383E-16         0.00000E+00
    0.17275E-17        -0.12474E-16         0.00000E+00
    0.22961E-17        -0.10307E-16         0.00000E+00
    0.25008E-18        -0.87639E-17         0.00000E+00
   -0.21001E-17        -0.76729E-17         0.00000E+00
   -0.31783E-17        -0.69584E-17         0.00000E+00
   -0.96178E-18        -0.60030E-17         0.00000E+00
   -0.18142E-17        -0.45477E-17         0.00000E+00
    0.28303E-18        -0.36565E-17         0.00000E+00
    0.12196E-17        -0.25439E-17         0.00000E+00
    0.32471E-18        -0.10613E-17         0.00000E+00
    0.00000E+00         0.00000E+00         0.00000E+00
   -0.12003E-16        -0.18025E-16         0.00000E+00
   -0.57939E-17        -0.16458E-16         0.00000E+00
    0.63707E-17        -0.15471E-16         0.00000E+00
    0.32166E-17        -0.13707E-16         0.00000E+00
    0.42790E-17        -0.12133E-16         0.00000E+00
    0.41132E-17        -0.10559E-16         0.00000E+00
    0.25289E-17        -0.89575E-17         0.00000E+00
   -0.11949E-18        -0.90113E-17         0.00000E+00
   -0.29667E-17        -0.80893E-17         0.00000E+00
   -0.29853E-17        -0.69070E-17         0.00000E+00
   -0.11238E-17        -0.53663E-17         0.00000E+00
   -0.24211E-17        -0.45939E-17         0.00000E+00
   -0.32682E-18        -0.33406E-17         0.00000E+00
    0.77271E-18        -0.25140E-17         0.00000E+00
   -0.31938E-19        -0.20536E-17         0.00000E+00
    0.00000E+00         0.00000E+00         0.00000E+00
   -0.11849E-16        -0.15074E-16         0.00000E+00
   -0.58420E-17        -0.15148E-16         0.00000E+00
    0.64181E-17        -0.14561E-16         0.00000E+00
    0.37317E-17        -0.11528E-16         0.00000E+00
    0.43753E-17        -0.10814E-16         0.00000E+00
    0.37697E-17        -0.10858E-16         0.00000E+00
    0.75069E-18        -0.10570E-16         0.00000E+00
   -0.31044E-18        -0.86766E-17         0.00000E+00
   -0.37157E-17        -0.76364E-17         0.00000E+00
   -0.32134E-17        -0.58987E-17         0.00000E+00
   -0.16148E-17        -0.61585E-17         0.00000E+00
   -0.12575E-17        -0.43613E-17         0.00000E+00
   -0.32877E-19        -0.33628E-17         0.00000E+00
    0.24478E-18        -0.20683E-17         0.00000E+00
   -0.22422E-18        -0.11174E-17         0.00000E+00
    0.00000E+00         0.00000E+00         0.00000E+00
   -0.11530E-16        -0.15581E-16         0.00000E+00
   -0.62566E-17        -0.14521E-16         0.00000E+00
    0.66361E-17        -0.13470E-16         0.00000E+00
    0.43996E-17        -0.12151E-16         0.00000E+00
    0.38814E-17        -0.11029E-16         0.00000E+00
    0.34302E-17        -0.10882E-16         0.00000E+00
    0.19663E-17        -0.10106E-16         0.00000E+00
   -0.17074E-18        -0.84378E-17         0.00000E+00
   -0.30406E-17        -0.72381E-17         0.00000E+00
   -0.33490E-17        -0.60701E-17         0.00000E+00
   -0.19619E-17        -0.51322E-17         0.00000E+00
   -0.42472E-18        -0.36521E-17         0.00000E+00
   -0.51915E-18        -0.31055E-17         0.00000E+00
    0.64841E-18        -0.27343E-17         0.00000E+00
   -0.38056E-18        -0.14726E-17         0.00000E+00
    0.00000E+00         0.00000E+00         0.00000E+00
   -0.99609E-17        -0.14381E-16         0.00000E+00
   -0.77287E-17        -0.13751E-16         0.00000E+00
    0.57099E-17        -0.13765E-16         0.00000E+00
    0.31325E-17        -0.13714E-16         0.00000E+00
    0.43408E-17        -0.12882E-16         0.00000E+00
    0.19726E-17        -0.11123E-16         0.00000E+00
    0.26713E-17        -0.94916E-17         0.00000E+00
   -0.42576E-18        -0.86770E-17         0.00000E+00
   -0.23771E-17        -0.75164E-17         0.00000E+00
   -0.31508E-17        -0.57501E-17         0.00000E+00
   -0.95251E-18        -0.47085E-17         0.00000E+00
   -0.12868E-17        -0.40811E-17         0.00000E+00
   -0.82237E-18        -0.35774E-17         0.00000E+00
    0.31187E-18        -0.16960E-17         0.00000E+00
   -0.46049E-18         0.14033E-19         0.00000E+00
    0.00000E+00         0.00000E+00         0.00000E+00
   -0.10699E-16        -0.20407E-16         0.00000E+00
   -0.68593E-17        -0.17568E-16         0.00000E+00
    0.54051E-17        -0.15100E-16         0.00000E+00
    0.44589E-17        -0.14900E-16         0.00000E+00
    0.57029E-17        -0.12887E-16         0.00000E+00
    0.20520E-17        -0.10092E-16         0.00000E+00
    0.18132E-17        -0.90482E-17         0.00000E+00
   -0.56691E-18        -0.80183E-17         0.00000E+00
   -0.11216E-17        -0.73941E-17         0.00000E+00
   -0.27112E-17        -0.61195E-17         0.00000E+00
   -0.17106E-17        -0.49116E-17         0.00000E+00
   -0.21954E-17        -0.38835E-17         0.00000E+00
   -0.51126E-18        -0.28208E-17         0.00000E+00
    0.14301E-18        -0.19852E-17         0.00000E+00
   -0.83449E-18        -0.17784E-17         0.00000E+00
    0.00000E+00         0.00000E+00         0.00000E+00
   -0.12655E-16        -0.20678E-16         0.00000E+00
   -0.60495E-17        -0.17210E-16         0.00000E+00
    0.62171E-17        -0.14869E-16         0.00000E+00
    0.53817E-17        -0.13408E-16         0.00000E+00
    0.64839E-17        -0.12277E-16         0.00000E+00
    0.35079E-17        -0.11414E-16         0.00000E+00
    0.25168E-18        -0.95474E-17         0.00000E+00
   -0.54122E-18        -0.84144E-17         0.00000E+00
   -0.23346E-17        -0.72651E-17         0.00000E+00
   -0.36027E-17        -0.64988E-17         0.00000E+00
   -0.17308E-17        -0.53931E-17         0.00000E+00
   -0.19185E-17        -0.31155E-17         0.00000E+00
   -0.33782E-18        -0.28693E-17         0.00000E+00
   -0.32257E-19        -0.19500E-17         0.00000E+00
   -0.15405E-17        -0.97084E-18         0.00000E+00
    0.00000E+00         0.00000E+00         0.00000E+00
   -0.13614E-16        -0.15386E-16         0.00000E+00
   -0.61773E-17        -0.14106E-16         0.00000E+00
    0.67275E-17        -0.13394E-16         0.00000E+00
    0.44084E-17        -0.12872E-16         0.00000E+00
    0.59399E-17        -0.12556E-16         0.00000E+00
    0.45014E-17        -0.11233E-16         0.00000E+00
    0.79783E-18        -0.98443E-17         0.00000E+00
   -0.92024E-18        -0.89493E-17         0.00000E+00
   -0.29340E-17        -0.80032E-17         0.00000E+00
   -0.34339E-17        -0.56352E-17         0.00000E+00
   -0.13459E-17        -0.45519E-17         0.00000E+00
   -0.27923E-17        -0.41362E-17         0.00000E+00
   -0.71113E-18        -0.24139E-17         0.00000E+00
    0.17539E-18        -0.24509E-17         0.00000E+00
   -0.18455E-17        -0.16766E-17         0.00000E+00
    0.00000E+00         0.00000E+00         0.00000E+00
   -0.13266E-16        -0.11720E-16         0.00000E+00
   -0.67469E-17        -0.11274E-16         0.00000E+00
    0.62311E-17        -0.11485E-16         0.00000E+00
    0.47121E-17        -0.11062E-16         0.00000E+00
    0.63056E-17        -0.10039E-16         0.00000E+00
    0.33906E-17        -0.11322E-16         0.00000E+00
    0.18312E-17        -0.12122E-16         0.00000E+00
   -0.52896E-18        -0.96930E-17         0.00000E+00
   -0.20742E-17        -0.79587E-17         0.00000E+00
   -0.26287E-17        -0.58256E-17         0.00000E+00
   -0.17150E-17        -0.54391E-17         0.00000E+00
   -0.23135E-17        -0.47527E-17         0.00000E+00
   -0.70137E-18        -0.20421E-17         0.00000E+00
   -0.82831E-18        -0.19849E-17         0.00000E+00
   -0.17654E-17        -0.13910E-17         0.00000E+00
    0.00000E+00         0.00000E+00         0.00000E+00
   -0.13012E-16        -0.81018E-17         0.00000E+00
   -0.77884E-17        -0.95772E-17         0.00000E+00
    0.55126E-17        -0.10315E-16         0.00000E+00
    0.46991E-17        -0.98508E-17         0.00000E+00
    0.42090E-17        -0.99757E-17         0.00000E+00
    0.10989E-17        -0.12158E-16         0.00000E+00
    0.28380E-17        -0.11755E-16         0.00000E+00
    0.78512E-18        -0.93333E-17         0.00000E+00
   -0.71955E-18        -0.70070E-17         0.00000E+00
   -0.20174E-17        -0.67261E-17         0.00000E+00
   -0.94186E-18        -0.71062E-17         0.00000E+00
   -0.10476E-17        -0.40272E-17         0.00000E+00
    0.29801E-19        -0.30035E-17         0.00000E+00
   -0.11542E-17        -0.18660E-17         0.00000E+00
   -0.14724E-17        -0.49052E-18         0.00000E+00
    0.00000E+00         0.00000E+00         0.00000E+00
   -0.12420E-16        -0.99783E-17         0.00000E+00
   -0.85029E-17        -0.97556E-17         0.00000E+00
    0.49982E-17        -0.89687E-17         0.00000E+00
    0.36528E-17        -0.11468E-16         0.00000E+00
    0.26178E-17        -0.12223E-16         0.00000E+00
    0.18816E-17        -0.10336E-16         0.00000E+00
    0.18522E-17        -0.88628E-17         0.00000E+00
    0.18024E-17        -0.89032E-17         0.00000E+00
   -0.60154E-18        -0.91489E-17         0.00000E+00
   -0.18233E-17        -0.69391E-17         0.00000E+00
   -0.55491E-18        -0.47591E-17         0.00000E+00
   -0.53737E-18        -0.29571E-17         0.00000E+00
   -0.47699E-18        -0.35243E-17         0.00000E+00
   -0.12347E-18        -0.31582E-17         0.00000E+00
   -0.18081E-17        -0.17648E-17         0.00000E+00
    0.00000E+00         0.00000E+00         0.00000E+00
   -0.12832E-16        -0.10552E-16         0.00000E+00
   -0.85037E-17        -0.91805E-17         0.00000E+00
    0.36744E-17        -0.10489E-16         0.00000E+00
    0.27970E-17        -0.11353E-16         0.00000E+00
    0.27635E-17        -0.10318E-16         0.00000E+00
    0.22600E-17        -0.10171E-16         0.00000E+00
    0.84161E-18        -0.92921E-17         0.00000E+00
    0.18589E-17        -0.94828E-17         0.00000E+00
   -0.77319E-18        -0.81163E-17         0.00000E+00
   -0.12658E-17        -0.59187E-17         0.00000E+00
   -0.30260E-18        -0.45358E-17         0.00000E+00
   -0.10966E-17        -0.47898E-17         0.00000E+00
   -0.39012E-18        -0.33647E-17         0.00000E+00
   -0.91562E-18        -0.11749E-17         0.00000E+00
   -0.60422E-18        -0.13056E-18         0.00000E+00
    0.00000E+00         0.00000E+00         0.00000E+00
   -0.12293E-16        -0.12621E-16         0.00000E+00
   -0.84358E-17        -0.88301E-17         0.00000E+00
    0.22868E-17        -0.88393E-17         0.00000E+00
    0.16486E-17        -0.72132E-17         0.00000E+00
    0.27635E-17        -0.84549E-17         0.00000E+00
    0.24475E-17        -0.84229E-17         0.00000E+00
    0.33816E-18        -0.74229E-17         0.00000E+00
    0.19371E-17        -0.84383E-17         0.00000E+00
   -0.86831E-18        -0.67332E-17         0.00000E+00
   -0.24605E-17        -0.65468E-17         0.00000E+00
   -0.52315E-18        -0.55050E-17         0.00000E+00
   -0.98414E-18        -0.41374E-17         0.00000E+00
   -0.77368E-18        -0.26579E-17         0.00000E+00
   -0.10916E-17        -0.11682E-17         0.00000E+00
   -0.12842E-17        -0.20678E-18         0.00000E+00
    0.00000E+00         0.00000E+00         0.00000E+00
   -0.11751E-16        -0.78977E-17         0.00000E+00
   -0.79247E-17        -0.11535E-16         0.00000E+00
    0.24469E-17        -0.80874E-17         0.00000E+00
    0.72446E-18        -0.52864E-17         0.00000E+00
    0.19723E-17        -0.76911E-17         0.00000E+00
    0.41651E-17        -0.77077E-17         0.00000E+00
    0.71570E-18        -0.25979E-17         0.00000E+00
    0.57822E-18        -0.66670E-17         0.00000E+00
   -0.11410E-17        -0.10074E-16         0.00000E+00
   -0.23389E-17        -0.68527E-17         0.00000E+00
   -0.68987E-18        -0.53787E-17         0.00000E+00
   -0.14474E-17        -0.43384E-17         0.00000E+00
   -0.63597E-18        -0.37484E-17         0.00000E+00
   -0.12397E-17        -0.98802E-18         0.00000E+00
   -0.13594E-17         0.15342E-17         0.00000E+00
    0.00000E+00         0.00000E+00         0.00000E+00
   -0.11408E-16        -0.98728E-17         0.00000E+00
   -0.95381E-17        -0.12461E-16         0.00000E+00
    0.44199E-17        -0.10052E-16         0.00000E+00
    0.17688E-17        -0.44703E-17         0.00000E+00
    0.28209E-17        -0.53225E-17         0.00000E+00
    0.35742E-17        -0.70296E-17         0.00000E+00
    0.17859E-17        -0.48077E-17         0.00000E+00
   -0.84098E-18        -0.60382E-17         0.00000E+00
   -0.14073E-18        -0.81748E-17         0.00000E+00
   -0.16968E-17        -0.66106E-17         0.00000E+00
   -0.10444E-17        -0.55209E-17         0.00000E+00
   -0.24827E-17        -0.48348E-17         0.00000E+00
   -0.58591E-18        -0.42299E-17         0.00000E+00
   -0.71187E-18        -0.24791E-17         0.00000E+00
   -0.23664E-17         0.23101E-18         0.00000E+00
    0.00000E+00         0.00000E+00         0.00000E+00
   -0.12726E-16        -0.21125E-16         0.00000E+00
   -0.83012E-17        -0.11905E-16         0.00000E+00
    0.59863E-17        -0.89285E-17         0.00000E+00
    0.45492E-17        -0.49881E-17         0.00000E+00
    0.27901E-17        -0.43159E-17         0.00000E+00
    0.36183E-17        -0.47630E-17         0.00000E+00
    0.17037E-17        -0.61005E-17         0.00000E+00
   -0.18200E-18        -0.57502E-17         0.00000E+00
   -0.12571E-17        -0.61162E-17         0.00000E+00
   -0.20944E-17        -0.54282E-17         0.00000E+00
   -0.14642E-17        -0.58598E-17         0.00000E+00
   -0.27684E-17        -0.56489E-17         0.00000E+00
   -0.81678E-18        -0.58722E-17         0.00000E+00
   -0.72754E-18        -0.78249E-17         0.00000E+00
   -0.22622E-17        -0.19902E-17         0.00000E+00
    0.00000E+00         0.00000E+00         0.00000E+00
   -0.12838E-16        -0.16770E-16         0.00000E+00
   -0.54545E-17        -0.77504E-17         0.00000E+00
    0.72760E-17        -0.39407E-17         0.00000E+00
    0.59562E-17        -0.58325E-17         0.00000E+00
    0.29201E-17        -0.49145E-17         0.00000E+00
    0.35447E-17        -0.67465E-17         0.00000E+00
    0.11851E-17        -0.59259E-17         0.00000E+00
   -0.39841E-18        -0.57213E-17         0.00000E+00
   -0.29507E-17        -0.60001E-17         0.00000E+00
   -0.25704E-17        -0.61882E-17         0.00000E+00
   -0.29785E-17        -0.54821E-17         0.00000E+00
   -0.39410E-17        -0.54614E-17         0.00000E+00
   -0.22933E-17        -0.58180E-17         0.00000E+00
   -0.15648E-17        -0.55963E-17         0.00000E+00
   -0.18470E-17        -0.36049E-17         0.00000E+00
    0.00000E+00         0.00000E+00         0.00000E+00
   -0.11082E-16        -0.64822E-17         0.00000E+00
   -0.33646E-17        -0.67205E-17         0.00000E+00
    0.75698E-17        -0.33371E-17         0.00000E+00
    0.62826E-17        -0.44596E-17         0.00000E+00
    0.25832E-17        -0.58012E-17         0.00000E+00
   -0.32320E-19        -0.67244E-17         0.00000E+00
    0.87725E-18        -0.67280E-17         0.00000E+00
   -0.16134E-17        -0.58527E-17         0.00000E+00
   -0.49628E-17        -0.68198E-17         0.00000E+00
   -0.45766E-17        -0.62401E-17         0.00000E+00
   -0.32092E-17        -0.64760E-17         0.00000E+00
   -0.48727E-17        -0.52330E-17         0.00000E+00
   -0.28089E-17        -0.48999E-17         0.00000E+00
   -0.16304E-17        -0.47987E-17         0.00000E+00
   -0.15658E-17        -0.24897E-17         0.00000E+00
    0.00000E+00         0.00000E+00         0.00000E+00
   -0.79426E-17         0.25108E-17         0.00000E+00
   -0.41769E-17        -0.66834E-17         0.00000E+00
    0.79195E-17        -0.24964E-17         0.00000E+00
    0.42741E-17        -0.63719E-17         0.00000E+00
    0.15757E-17        -0.65178E-17         0.00000E+00
   -0.16692E-17        -0.75889E-17         0.00000E+00
   -0.32758E-19        -0.59473E-17         0.00000E+00
   -0.44796E-17        -0.75846E-17         0.00000E+00
   -0.55209E-17        -0.66881E-17         0.00000E+00
   -0.51071E-17        -0.60408E-17         0.00000E+00
   -0.33933E-17        -0.53022E-17         0.00000E+00
   -0.46991E-17        -0.57070E-17         0.00000E+00
   -0.37383E-17        -0.51372E-17         0.00000E+00
   -0.21656E-17        -0.25999E-17         0.00000E+00
   -0.12966E-17        -0.19811E-17         0.00000E+00
    0.00000E+00         0.00000E+00         0.00000E+00
   -0.61677E-17        -0.11702E-16         0.00000E+00
   -0.47293E-17        -0.10360E-16         0.00000E+00
    0.85456E-17        -0.68636E-17         0.00000E+00
    0.37390E-17        -0.10101E-16         0.00000E+00
    0.22859E-17        -0.78253E-17         0.00000E+00
    0.17683E-17        -0.98562E-17         0.00000E+00
   -0.54279E-18        -0.56839E-17         0.00000E+00
   -0.62165E-17        -0.10165E-16         0.00000E+00
   -0.53404E-17        -0.66897E-17         0.00000E+00
   -0.53366E-17        -0.53357E-17         0.00000E+00
   -0.37942E-17        -0.43509E-17         0.00000E+00
   -0.46219E-17        -0.90921E-17         0.00000E+00
   -0.28071E-17        -0.40611E-17         0.00000E+00
   -0.22115E-17        -0.16307E-18         0.00000E+00
   -0.11747E-17        -0.20650E-17         0.00000E+00
    0.00000E+00         0.00000E+00         0.00000E+00
   -0.80500E-17        -0.17241E-16         0.00000E+00
   -0.23449E-17        -0.13050E-16         0.00000E+00
    0.74120E-17        -0.92111E-17         0.00000E+00
    0.35731E-17        -0.10435E-16         0.00000E+00
    0.27890E-17        -0.67890E-17         0.00000E+00
    0.25723E-17        -0.10511E-16         0.00000E+00
   -0.18271E-17        -0.12289E-16         0.00000E+00
   -0.78426E-17        -0.10289E-16         0.00000E+00
   -0.42722E-17        -0.55626E-17         0.00000E+00
   -0.65585E-17        -0.61207E-17         0.00000E+00
   -0.46623E-17        -0.91766E-17         0.00000E+00
   -0.49689E-17        -0.93043E-17         0.00000E+00
   -0.15245E-17        -0.43105E-17         0.00000E+00
   -0.18240E-17        -0.20223E-17         0.00000E+00
   -0.14984E-17         0.12691E-17         0.00000E+00
    0.00000E+00         0.00000E+00         0.00000E+00
   -0.83764E-17        -0.78748E-17         0.00000E+00
   -0.15979E-17        -0.88751E-17         0.00000E+00
    0.86298E-17        -0.10864E-16         0.00000E+00
    0.38726E-17        -0.11338E-16         0.00000E+00
    0.31604E-17        -0.11363E-16         0.00000E+00
    0.20374E-17        -0.14404E-16         0.00000E+00
   -0.31104E-17        -0.15290E-16         0.00000E+00
   -0.69978E-17        -0.11059E-16         0.00000E+00
   -0.41812E-17        -0.96303E-17         0.00000E+00
   -0.64861E-17        -0.93484E-17         0.00000E+00
   -0.42157E-17        -0.98776E-17         0.00000E+00
   -0.40877E-17        -0.72000E-17         0.00000E+00
   -0.14427E-17        -0.49641E-17         0.00000E+00
    0.31151E-18        -0.11852E-17         0.00000E+00
   -0.13857E-17         0.53577E-18         0.00000E+00
    0.00000E+00         0.00000E+00         0.00000E+00
   -0.60414E-17        -0.30897E-18         0.00000E+00
   -0.28414E-17        -0.72774E-17         0.00000E+00
    0.53746E-17        -0.14099E-16         0.00000E+00
    0.16253E-17        -0.15838E-16         0.00000E+00
    0.18691E-17        -0.16862E-16         0.00000E+00
    0.19056E-17        -0.17004E-16         0.00000E+00
   -0.31604E-17        -0.16581E-16         0.00000E+00
   -0.67329E-17        -0.15611E-16         0.00000E+00
   -0.40287E-17        -0.11484E-16         0.00000E+00
   -0.63438E-17        -0.95966E-17         0.00000E+00
   -0.38638E-17        -0.97924E-17         0.00000E+00
   -0.36043E-17        -0.69934E-17         0.00000E+00
   -0.50402E-18        -0.50150E-17         0.00000E+00
    0.51104E-18        -0.23019E-17         0.00000E+00
   -0.81476E-18        -0.76365E-18         0.00000E+00
    0.00000E+00         0.00000E+00         0.00000E+00
    0.44060E-17        -0.16101E-16         0.00000E+00
   -0.56195E-17        -0.20017E-16         0.00000E+00
    0.33457E-17        -0.22151E-16         0.00000E+00
    0.57703E-19        -0.21790E-16         0.00000E+00
   -0.31276E-18        -0.21955E-16         0.00000E+00
    0.31465E-17        -0.22497E-16         0.00000E+00
   -0.25640E-17        -0.19056E-16         0.00000E+00
   -0.55782E-17        -0.15877E-16         0.00000E+00
   -0.46683E-17        -0.13067E-16         0.00000E+00
   -0.74597E-17        -0.11892E-16         0.00000E+00
   -0.42258E-17        -0.11311E-16         0.00000E+00
   -0.23673E-17        -0.65501E-17         0.00000E+00
   -0.36544E-18        -0.50563E-17         0.00000E+00
    0.17959E-18        -0.21183E-17         0.00000E+00
   -0.38547E-18        -0.25277E-17         0.00000E+00
    0.00000E+00         0.00000E+00         0.00000E+00
    0.95349E-17        -0.53766E-16         0.00000E+00
   -0.34200E-17        -0.40172E-16         0.00000E+00
    0.51733E-19        -0.29050E-16         0.00000E+00
   -0.30294E-17        -0.27569E-16         0.00000E+00
   -0.15509E-17        -0.30549E-16         0.00000E+00
    0.48645E-17        -0.26604E-16         0.00000E+00
   -0.60028E-18        -0.20824E-16         0.00000E+00
   -0.36668E-17        -0.18059E-16         0.00000E+00
   -0.62080E-17        -0.17671E-16         0.00000E+00
   -0.58344E-17        -0.15984E-16         0.00000E+00
   -0.31506E-17        -0.59004E-17         0.00000E+00
   -0.22431E-17        -0.34429E-17         0.00000E+00
   -0.95589E-18        -0.35984E-17         0.00000E+00
    0.70723E-18        -0.51472E-17         0.00000E+00
    0.68953E-18        -0.50240E-17         0.00000E+00
    0.00000E+00         0.00000E+00         0.00000E+00
    0.23894E-17        -0.44574E-16         0.00000E+00
    0.17374E-17        -0.41811E-16         0.00000E+00
    0.70189E-18        -0.33704E-16         0.00000E+00
   -0.57516E-17        -0.31961E-16         0.00000E+00
   -0.16615E-17        -0.28534E-16         0.00000E+00
    0.41567E-17        -0.25802E-16         0.00000E+00
    0.35723E-17        -0.28320E-16         0.00000E+00
   -0.77137E-18        -0.25489E-16         0.00000E+00
   -0.78517E-17        -0.20440E-16         0.00000E+00
   -0.48845E-17        -0.17351E-16         0.00000E+00
    0.21352E-17        -0.94579E-17         0.00000E+00
   -0.89613E-18        -0.38069E-17         0.00000E+00
   -0.34567E-17        -0.34824E-17         0.00000E+00
   -0.76243E-19        -0.22907E-17         0.00000E+00
    0.28341E-17         0.97138E-18         0.00000E+00
    0.00000E+00         0.00000E+00         0.00000E+00
    0.00000E+00        -0.44309E-16         0.00000E+00
    0.00000E+00        -0.45497E-16         0.00000E+00
    0.00000E+00        -0.57030E-16         0.00000E+00
    0.00000E+00        -0.33596E-16         0.00000E+00
    0.00000E+00        -0.91017E-17         0.00000E+00
    0.00000E+00        -0.23774E-16         0.00000E+00
    0.00000E+00        -0.32524E-16         0.00000E+00
    0.00000E+00        -0.50471E-16         0.00000E+00
    0.00000E+00        -0.40736E-16         0.00000E+00
    0.00000E+00         0.24880E-17         0.00000E+00
    0.00000E+00         0.91815E-17         0.00000E+00
    0.00000E+00        -0.17972E-16         0.00000E+00
    0.00000E+00        -0.28335E-17         0.00000E+00
    0.00000E+00         0.18769E-16         0.00000E+00
    0.00000E+00         0.48973E-17         0.00000E+00
    0.00000E+00         0.00000E+00         0.00000E+00
CELL_DATA        450
VECTORS vDarcy double 
    0.00000E+00         0.00000E+00         0.00000E+00
    0.00000E+00         0.00000E+00         0.00000E+00
    0.00000E+00         0.00000E+00         0.00000E+00
    0.00000E+00         0.00000E+00         0.00000E+00
    0.00000E+00         0.00000E+00         0.00000E+00
    0.00000E+00         0.00000E+00         0.00000E+00
    0.00000E+00         0.00000E+00         0.00000E+00
    0.00000E+00         0.00000E+00         0.00000E+00
    0.00000E+00         0.00000E+00         0.00000E+00
    0.00000E+00         0.00000E+00         0.00000E+00
    0.00000E+00         0.00000E+00         0.00000E+00
    0.00000E+00         0.00000E+00         0.00000E+00
    0.00000E+00         0.00000E+00         0.00000E+00
    0.00000E+00         0.00000E+00         0.00000E+00
    0.00000E+00         0.00000E+00         0.00000E+00
    0.00000E+00         0.00000E+00         0.00000E+00
    0.00000E+00         0.00000E+00         0.00000E+00
    0.00000E+00         0.00000E+00         0.00000E+00
    0.00000E+00         0.00000E+00         0.00000E+00
    0.00000E+00         0.00000E+00         0.00000E+00
    0.00000E+00         0.00000E+00         0.00000E+00
    0.00000E+00         0.00000E+00         0.00000E+00
    0.00000E+00         0.00000E+00         0.00000E+00
    0.00000E+00         0.00000E+00         0.00000E+00
    0.00000E+00         0.00000E+00         0.00000E+00
    0.00000E+00         0.00000E+00         0.00000E+00
    0.00000E+00         0.00000E+00         0.00000E+00
    0.00000E+00         0.00000E+00         0.00000E+00
    0.00000E+00         0.00000E+00         0.00000E+00
    0.00000E+00         0.00000E+00         0.00000E+00
    0.00000E+00         0.00000E+00         0.00000E+00
    0.00000E+00         0.00000E+00         0.00000E+00
    0.00000E+00         0.00000E+00         0.00000E+00
    0.00000E+00         0.00000E+00         0.00000E+00
    0.00000E+00         0.00000E+00         0.00000E+00
    0.00000E+00         0.00000E+00         0.00000E+00
    0.00000E+00         0.00000E+00         0.00000E+00
    0.00000E+00         0.00000E+00         0.00000E+00
    0.00000E+00         0.00000E+00         0.00000E+00
    0.00000E+00         0.00000E+00         0.00000E+00
    0.00000E+00         0.00000E+00         0.00000E+00
    0.00000E+00         0.00000E+00         0.00000E+00
    0.00000E+00         0.00000E+00         0.00000E+00
    0.00000E+00         0.00000E+00         0.00000E+00
    0.00000E+00         0.00000E+00         0.00000E+00
    0.00000E+00         0.00000E+00         0.00000E+00
    0.00000E+00         0.00000E+00         0.00000E+00
    0.00000E+00         0.00000E+00         0.00000E+00
    0.00000E+00         0.00000E+00         0.00000E+00
    0.00000E+00         0.00000E+00         0.00000E+00
    0.00000E+00         0.00000E+00         0.00000E+00
    0.00000E+00         0.00000E+00         0.00000E+00
    0.00000E+00         0.00000E+00         0.00000E+00
    0.00000E+00         0.00000E+00         0.00000E+00
    0.00000E+00         0.00000E+00         0.00000E+00
    0.00000E+00         0.00000E+00         0.00000E+00
    0.00000E+00         0.00000E+00         0.00000E+00
    0.00000E+00         0.00000E+00         0.00000E+00
    0.00000E+00         0.00000E+00         0.00000E+00
    0.00000E+00         0.00000E+00         0.00000E+00
    0.00000E+00         0.00000E+00         0.00000E+00
    0.00000E+00         0.00000E+00         0.00000E+00
    0.00000E+00         0.00000E+00         0.00000E+00
    0.00000E+00         0.00000E+00         0.00000E+00
    0.00000E+00         0.00000E+00         0.00000E+00
    0.00000E+00         0.00000E+00         0.00000E+00
    0.00000E+00         0.00000E+00         0.00000E+00
    0.00000E+00         0.00000E+00         0.00000E+00
    0.00000E+00         0.00000E+00         0.00000E+00
    0.00000E+00         0.00000E+00         0.00000E+00
    0.00000E+00         0.00000E+00         0.00000E+00
    0.00000E+00         0.00000E+00         0.00000E+00
    0.00000E+00         0.00000E+00         0.00000E+00
    0.00000E+00         0.00000E+00         0.00000E+00
    0.00000E+00         0.00000E+00         0.00000E+00
    0.00000E+00         0.00000E+00         0.00000E+00
    0.00000E+00         0.00000E+00         0.00000E+00
    0.00000E+00         0.00000E+00         0.00000E+00
    0.00000E+00         0.00000E+00         0.00000E+00
    0.00000E+00         0.00000E+00         0.00000E+00
    0.00000E+00         0.00000E+00         0.00000E+00
    0.00000E+00         0.00000E+00         0.00000E+00
    0.00000E+00         0.00000E+00         0.00000E+00
    0.00000E+00         0.00000E+00         0.00000E+00
    0.00000E+00         0.00000E+00         0.00000E+00
    0.00000E+00         0.00000E+00         0.00000E+00
    0.00000E+00         0.00000E+00         0.00000E+00
    0.00000E+00         0.00000E+00         0.00000E+00
    0.00000E+00         0.00000E+00         0.00000E+00
    0.00000E+00         0.00000E+00         0.00000E+00
    0.00000E+00         0.00000E+00         0.00000E+00
    0.00000E+00         0.00000E+00         0.00000E+00
    0.00000E+00         0.00000E+00         0.00000E+00
    0.00000E+00         0.00000E+00         0.00000E+00
    0.00000E+00         0.00000E+00         0.00000E+00
    0.00000E+00         0.00000E+00         0.00000E+00
    0.00000E+00         0.00000E+00         0.00000E+00
    0.00000E+00         0.00000E+00         0.00000E+00
    0.00000E+00         0.00000E+00         0.00000E+00
    0.00000E+00         0.00000E+00         0.00000E+00
    0.00000E+00         0.00000E+00         0.00000E+00
    0.00000E+00         0.00000E+00         0.00000E+00
    0.00000E+00         0.00000E+00         0.00000E+00
    0.00000E+00         0.00000E+00         0.00000E+00
    0.00000E+00         0.00000E+00         0.00000E+00
    0.00000E+00         0.00000E+00         0.00000E+00
    0.00000E+00         0.00000E+00         0.00000E+00
    0.00000E+00         0.00000E+00         0.00000E+00
    0.00000E+00         0.00000E+00         0.00000E+00
    0.00000E+00         0.00000E+00         0.00000E+00
    0.00000E+00         0.00000E+00         0.00000E+00
    0.00000E+00         0.00000E+00         0.00000E+00
    0.00000E+00         0.00000E+00         0.00000E+00
    0.00000E+00         0.00000E+00         0.00000E+00
    0.00000E+00         0.00000E+00         0.00000E+00
    0.00000E+00         0.00000E+00         0.00000E+00
    0.00000E+00         0.00000E+00         0.00000E+00
    0.00000E+00         0.00000E+00         0.00000E+00
    0.00000E+00         0.00000E+00         0.00000E+00
    0.00000E+00         0.00000E+00         0.00000E+00
    0.00000E+00         0.00000E+00         0.00000E+00
    0.00000E+00         0.00000E+00         0.00000E+00
    0.00000E+00         0.00000E+00         0.00000E+00
    0.00000E+00         0.00000E+00         0.00000E+00
    0.00000E+00         0.00000E+00         0.00000E+00
    0.00000E+00         0.00000E+00         0.00000E+00
    0.00000E+00         0.00000E+00         0.00000E+00
    0.00000E+00         0.00000E+00         0.00000E+00
    0.00000E+00         0.00000E+00         0.00000E+00
    0.00000E+00         0.00000E+00         0.00000E+00
    0.00000E+00         0.00000E+00         0.00000E+00
    0.00000E+00         0.00000E+00         0.00000E+00
    0.00000E+00         0.00000E+00         0.00000E+00
    0.00000E+00         0.00000E+00         0.00000E+00
    0.00000E+00         0.00000E+00         0.00000E+00
    0.00000E+00         0.00000E+00         0.00000E+00
    0.00000E+00         0.00000E+00         0.00000E+00
    0.00000E+00         0.00000E+00         0.00000E+00
    0.00000E+00         0.00000E+00         0.00000E+00
    0.00000E+00         0.00000E+00         0.00000E+00
    0.00000E+00         0.00000E+00         0.00000E+00
    0.00000E+00         0.00000E+00         0.00000E+00
    0.00000E+00         0.00000E+00         0.00000E+00
    0.00000E+00         0.00000E+00         0.00000E+00
    0.00000E+00         0.00000E+00         0.00000E+00
    0.00000E+00         0.00000E+00         0.00000E+00
    0.00000E+00         0.00000E+00         0.00000E+00
    0.00000E+00         0.00000E+00         0.00000E+00
    0.00000E+00         0.00000E+00         0.00000E+00
    0.00000E+00         0.00000E+00         0.00000E+00
    0.00000E+00         0.00000E+00         0.00000E+00
    0.00000E+00         0.00000E+00         0.00000E+00
    0.00000E+00         0.00000E+00         0.00000E+00
    0.00000E+00         0.00000E+00         0.00000E+00
    0.00000E+00         0.00000E+00         0.00000E+00
    0.00000E+00         0.00000E+00         0.00000E+00
    0.00000E+00         0.00000E+00         0.00000E+00
    0.00000E+00         0.00000E+00         0.00000E+00
    0.00000E+00         0.00000E+00         0.00000E+00
    0.00000E+00         0.00000E+00         0.00000E+00
    0.00000E+00         0.00000E+00         0.00000E+00
    0.00000E+00         0.00000E+00         0.00000E+00
    0.00000E+00         0.00000E+00         0.00000E+00
    0.00000E+00         0.00000E+00         0.00000E+00
    0.00000E+00         0.00000E+00         0.00000E+00
    0.00000E+00         0.00000E+00         0.00000E+00
    0.00000E+00         0.00000E+00         0.00000E+00
    0.00000E+00         0.00000E+00         0.00000E+00
    0.00000E+00         0.00000E+00         0.00000E+00
    0.00000E+00         0.00000E+00         0.00000E+00
    0.00000E+00         0.00000E+00         0.00000E+00
    0.00000E+00         0.00000E+00         0.00000E+00
    0.00000E+00         0.00000E+00         0.00000E+00
    0.00000E+00         0.00000E+00         0.00000E+00
    0.00000E+00         0.00000E+00         0.00000E+00
    0.00000E+00         0.00000E+00         0.00000E+00
    0.00000E+00         0.00000E+00         0.00000E+00
    0.00000E+00         0.00000E+00         0.00000E+00
    0.00000E+00         0.00000E+00         0.00000E+00
    0.00000E+00         0.00000E+00         0.00000E+00
    0.00000E+00         0.00000E+00         0.00000E+00
    0.00000E+00         0.00000E+00         0.00000E+00
    0.00000E+00         0.00000E+00         0.00000E+00
    0.00000E+00         0.00000E+00         0.00000E+00
    0.00000E+00         0.00000E+00         0.00000E+00
    0.00000E+00         0.00000E+00         0.00000E+00
    0.00000E+00         0.00000E+00         0.00000E+00
    0.00000E+00         0.00000E+00         0.00000E+00
    0.00000E+00         0.00000E+00         0.00000E+00
    0.00000E+00         0.00000E+00         0.00000E+00
    0.00000E+00         0.00000E+00         0.00000E+00
    0.00000E+00         0.00000E+00         0.00000E+00
    0.00000E+00         0.00000E+00         0.00000E+00
    0.00000E+00         0.00000E+00         0.00000E+00
    0.00000E+00         0.00000E+00         0.00000E+00
    0.00000E+00         0.00000E+00         0.00000E+00
    0.00000E+00         0.00000E+00         0.00000E+00
    0.00000E+00         0.00000E+00         0.00000E+00
    0.00000E+00         0.00000E+00         0.00000E+00
    0.00000E+00         0.00000E+00         0.00000E+00
    0.00000E+00         0.00000E+00         0.00000E+00
    0.00000E+00         0.00000E+00         0.00000E+00
    0.00000E+00         0.00000E+00         0.00000E+00
    0.00000E+00         0.00000E+00         0.00000E+00
    0.00000E+00         0.00000E+00         0.00000E+00
    0.00000E+00         0.00000E+00         0.00000E+00
    0.00000E+00         0.00000E+00         0.00000E+00
    0.00000E+00         0.00000E+00         0.00000E+00
    0.00000E+00         0.00000E+00         0.00000E+00
    0.00000E+00         0.00000E+00         0.00000E+00
    0.00000E+00         0.00000E+00         0.00000E+00
    0.00000E+00         0.00000E+00         0.00000E+00
    0.00000E+00         0.00000E+00         0.00000E+00
    0.00000E+00         0.00000E+00         0.00000E+00
    0.00000E+00         0.00000E+00         0.00000E+00
    0.00000E+00         0.00000E+00         0.00000E+00
    0.00000E+00         0.00000E+00         0.00000E+00
    0.00000E+00         0.00000E+00         0.00000E+00
    0.00000E+00         0.00000E+00         0.00000E+00
    0.00000E+00         0.00000E+00         0.00000E+00
    0.00000E+00         0.00000E+00         0.00000E+00
    0.00000E+00         0.00000E+00         0.00000E+00
    0.00000E+00         0.00000E+00         0.00000E+00
    0.00000E+00         0.00000E+00         0.00000E+00
    0.00000E+00         0.00000E+00         0.00000E+00
    0.00000E+00         0.00000E+00         0.00000E+00
    0.00000E+00         0.00000E+00         0.00000E+00
    0.00000E+00         0.00000E+00         0.00000E+00
    0.00000E+00         0.00000E+00         0.00000E+00
    0.00000E+00         0.00000E+00         0.00000E+00
    0.00000E+00         0.00000E+00         0.00000E+00
    0.00000E+00         0.00000E+00         0.00000E+00
    0.00000E+00         0.00000E+00         0.00000E+00
    0.00000E+00         0.00000E+00         0.00000E+00
    0.00000E+00         0.00000E+00         0.00000E+00
    0.00000E+00         0.00000E+00         0.00000E+00
    0.00000E+00         0.00000E+00         0.00000E+00
    0.00000E+00         0.00000E+00         0.00000E+00
    0.00000E+00         0.00000E+00         0.00000E+00
    0.00000E+00         0.00000E+00         0.00000E+00
    0.00000E+00         0.00000E+00         0.00000E+00
    0.00000E+00         0.00000E+00         0.00000E+00
    0.00000E+00         0.00000E+00         0.00000E+00
    0.00000E+00         0.00000E+00         0.00000E+00
    0.00000E+00         0.00000E+00         0.00000E+00
    0.00000E+00         0.00000E+00         0.00000E+00
    0.00000E+00         0.00000E+00         0.00000E+00
    0.00000E+00         0.00000E+00         0.00000E+00
    0.00000E+00         0.00000E+00         0.00000E+00
    0.00000E+00         0.00000E+00         0.00000E+00
    0.00000E+00         0.00000E+00         0.00000E+00
    0.00000E+00         0.00000E+00         0.00000E+00
    0.00000E+00         0.00000E+00         0.00000E+00
    0.00000E+00         0.00000E+00         0.00000E+00
    0.00000E+00         0.00000E+00         0.00000E+00
    0.00000E+00         0.00000E+00         0.00000E+00
    0.00000E+00         0.00000E+00         0.00000E+00
    0.00000E+00         0.00000E+00         0.00000E+00
    0.00000E+00         0.00000E+00         0.00000E+00
    0.00000E+00         0.00000E+00         0.00000E+00
    0.00000E+00         0.00000E+00         0.00000E+00
    0.00000E+00         0.00000E+00         0.00000E+00
    0.00000E+00         0.00000E+00         0.00000E+00
    0.00000E+00         0.00000E+00         0.00000E+00
    0.00000E+00         0.00000E+00         0.00000E+00
    0.00000E+00         0.00000E+00         0.00000E+00
    0.00000E+00         0.00000E+00         0.00000E+00
    0.00000E+00         0.00000E+00         0.00000E+00
    0.00000E+00         0.00000E+00         0.00000E+00
    0.00000E+00         0.00000E+00         0.00000E+00
    0.00000E+00         0.00000E+00         0.00000E+00
    0.00000E+00         0.00000E+00         0.00000E+00
    0.00000E+00         0.00000E+00         0.00000E+00
    0.00000E+00         0.00000E+00         0.00000E+00
    0.00000E+00         0.00000E+00         0.00000E+00
    0.00000E+00         0.00000E+00         0.00000E+00
    0.00000E+00         0.00000E+00         0.00000E+00
    0.00000E+00         0.00000E+00         0.00000E+00
    0.00000E+00         0.00000E+00         0.00000E+00
    0.00000E+00         0.00000E+00         0.00000E+00
    0.00000E+00         0.00000E+00         0.00000E+00
    0.00000E+00         0.00000E+00         0.00000E+00
    0.00000E+00         0.00000E+00         0.00000E+00
    0.00000E+00         0.00000E+00         0.00000E+00
    0.00000E+00         0.00000E+00         0.00000E+00
    0.00000E+00         0.00000E+00         0.00000E+00
    0.00000E+00         0.00000E+00         0.00000E+00
    0.00000E+00         0.00000E+00         0.00000E+00
    0.00000E+00         0.00000E+00         0.00000E+00
    0.00000E+00         0.00000E+00         0.00000E+00
    0.00000E+00         0.00000E+00         0.00000E+00
    0.00000E+00         0.00000E+00         0.00000E+00
    0.00000E+00         0.00000E+00         0.00000E+00
    0.00000E+00         0.00000E+00         0.00000E+00
    0.00000E+00         0.00000E+00         0.00000E+00
    0.00000E+00         0.00000E+00         0.00000E+00
    0.00000E+00         0.00000E+00         0.00000E+00
    0.00000E+00         0.00000E+00         0.00000E+00
    0.00000E+00         0.00000E+00         0.00000E+00
    0.00000E+00         0.00000E+00         0.00000E+00
    0.00000E+00         0.00000E+00         0.00000E+00
    0.00000E+00         0.00000E+00         0.00000E+00
    0.00000E+00         0.00000E+00         0.00000E+00
    0.00000E+00         0.00000E+00         0.00000E+00
    0.00000E+00         0.00000E+00         0.00000E+00
    0.00000E+00         0.00000E+00         0.00000E+00
    0.00000E+00         0.00000E+00         0.00000E+00
    0.18601E-07         0.45998E-12         0.00000E+00
    0.18604E-07         0.39593E-12         0.00000E+00
    0.18607E-07         0.36591E-12         0.00000E+00
    0.18610E-07         0.36347E-12         0.00000E+00
    0.18613E-07         0.37432E-12         0.00000E+00
    0.18615E-07         0.37399E-12         0.00000E+00
    0.18616E-07         0.32464E-12         0.00000E+00
    0.18617E-07         0.17177E-12         0.00000E+00
    0.18524E-07        -0.17703E-12         0.00000E+00
    0.18527E-07        -0.63911E-12         0.00000E+00
    0.18530E-07        -0.10929E-11         0.00000E+00
    0.18533E-07        -0.14739E-11         0.00000E+00
    0.18537E-07        -0.17537E-11         0.00000E+00
    0.18541E-07        -0.19270E-11         0.00000E+00
    0.18544E-07        -0.20001E-11         0.00000E+00
    0.18548E-07        -0.19830E-11         0.00000E+00
    0.18551E-07        -0.18853E-11         0.00000E+00
    0.18554E-07        -0.17147E-11         0.00000E+00
    0.18557E-07        -0.14773E-11         0.00000E+00
    0.18560E-07        -0.11806E-11         0.00000E+00
    0.18562E-07        -0.83729E-12         0.00000E+00
    0.18563E-07        -0.47099E-12         0.00000E+00
    0.18564E-07        -0.12230E-12         0.00000E+00
    0.18477E-07        -0.73922E-12         0.00000E+00
    0.18479E-07        -0.20664E-11         0.00000E+00
    0.18483E-07        -0.30714E-11         0.00000E+00
    0.18486E-07        -0.37609E-11         0.00000E+00
    0.18490E-07        -0.41728E-11         0.00000E+00
    0.18494E-07        -0.43569E-11         0.00000E+00
    0.18497E-07        -0.43614E-11         0.00000E+00
    0.18501E-07        -0.42249E-11         0.00000E+00
    0.18504E-07        -0.39738E-11         0.00000E+00
    0.18507E-07        -0.36222E-11         0.00000E+00
    0.18510E-07        -0.31739E-11         0.00000E+00
    0.18512E-07        -0.26264E-11         0.00000E+00
    0.18514E-07        -0.19765E-11         0.00000E+00
    0.18516E-07        -0.12290E-11         0.00000E+00
    0.18517E-07        -0.40618E-12         0.00000E+00
    0.18437E-07        -0.12762E-11         0.00000E+00
    0.18439E-07        -0.34054E-11         0.00000E+00
    0.18443E-07        -0.48871E-11         0.00000E+00
    0.18446E-07        -0.58127E-11         0.00000E+00
    0.18450E-07        -0.62974E-11         0.00000E+00
    0.18454E-07        -0.64526E-11         0.00000E+00
    0.18457E-07        -0.63699E-11         0.00000E+00
    0.18460E-07        -0.61152E-11         0.00000E+00
    0.18463E-07        -0.57295E-11         0.00000E+00
    0.18466E-07        -0.52309E-11         0.00000E+00
    0.18469E-07        -0.46187E-11         0.00000E+00
    0.18471E-07        -0.38773E-11         0.00000E+00
    0.18473E-07        -0.29828E-11         0.00000E+00
    0.18474E-07        -0.19145E-11         0.00000E+00
    0.18476E-07        -0.66919E-12         0.00000E+00
    0.18404E-07        -0.17657E-11         0.00000E+00
    0.18407E-07        -0.45871E-11         0.00000E+00
    0.18410E-07        -0.64266E-11         0.00000E+00
    0.18414E-07        -0.74830E-11         0.00000E+00
    0.18417E-07        -0.79632E-11         0.00000E+00
    0.18420E-07        -0.80445E-11         0.00000E+00
    0.18423E-07        -0.78594E-11         0.00000E+00
    0.18426E-07        -0.74964E-11         0.00000E+00
    0.18429E-07        -0.70063E-11         0.00000E+00
    0.18431E-07        -0.64090E-11         0.00000E+00
    0.18433E-07        -0.56974E-11         0.00000E+00
    0.18436E-07        -0.48408E-11         0.00000E+00
    0.18437E-07        -0.37901E-11         0.00000E+00
    0.18439E-07        -0.24898E-11         0.00000E+00
    0.18440E-07        -0.90037E-12         0.00000E+00
    0.18378E-07        -0.21802E-11         0.00000E+00
    0.18382E-07        -0.55232E-11         0.00000E+00
    0.18385E-07        -0.75472E-11         0.00000E+00
    0.18388E-07        -0.85949E-11         0.00000E+00
    0.18391E-07        -0.89818E-11         0.00000E+00
    0.18394E-07        -0.89484E-11         0.00000E+00
    0.18397E-07        -0.86573E-11         0.00000E+00
    0.18399E-07        -0.82089E-11         0.00000E+00
    0.18401E-07        -0.76576E-11         0.00000E+00
    0.18403E-07        -0.70220E-11         0.00000E+00
    0.18404E-07        -0.62893E-11         0.00000E+00
    0.18406E-07        -0.54150E-11         0.00000E+00
    0.18408E-07        -0.43225E-11         0.00000E+00
    0.18409E-07        -0.29117E-11         0.00000E+00
    0.18411E-07        -0.10877E-11         0.00000E+00
    0.18361E-07        -0.24798E-11         0.00000E+00
    0.18364E-07        -0.60858E-11         0.00000E+00
    0.18367E-07        -0.80522E-11         0.00000E+00
    0.18370E-07        -0.89257E-11         0.00000E+00
    0.18373E-07        -0.91387E-11         0.00000E+00
    0.18375E-07        -0.89720E-11         0.00000E+00
    0.18376E-07        -0.85939E-11         0.00000E+00
    0.18378E-07        -0.81017E-11         0.00000E+00
    0.18379E-07        -0.75451E-11         0.00000E+00
    0.18380E-07        -0.69393E-11         0.00000E+00
    0.18381E-07        -0.62687E-11         0.00000E+00
    0.18383E-07        -0.54836E-11         0.00000E+00
    0.18384E-07        -0.44865E-11         0.00000E+00
    0.18385E-07        -0.31240E-11         0.00000E+00
    0.18387E-07        -0.12161E-11         0.00000E+00
    0.18351E-07        -0.25938E-11         0.00000E+00
    0.18354E-07        -0.60595E-11         0.00000E+00
    0.18357E-07        -0.76477E-11         0.00000E+00
    0.18359E-07        -0.81945E-11         0.00000E+00
    0.18361E-07        -0.82017E-11         0.00000E+00
    0.18362E-07        -0.79291E-11         0.00000E+00
    0.18362E-07        -0.75186E-11         0.00000E+00
    0.18363E-07        -0.70474E-11         0.00000E+00
    0.18364E-07        -0.65533E-11         0.00000E+00
    0.18364E-07        -0.60467E-11         0.00000E+00
    0.18364E-07        -0.55138E-11         0.00000E+00
    0.18365E-07        -0.49118E-11         0.00000E+00
    0.18366E-07        -0.41511E-11         0.00000E+00
    0.18367E-07        -0.30388E-11         0.00000E+00
    0.18368E-07        -0.12589E-11         0.00000E+00
    0.18349E-07        -0.23621E-11         0.00000E+00
    0.18352E-07        -0.50030E-11         0.00000E+00
    0.18355E-07        -0.58948E-11         0.00000E+00
    0.18355E-07        -0.60850E-11         0.00000E+00
    0.18356E-07        -0.59517E-11         0.00000E+00
    0.18355E-07        -0.56681E-11         0.00000E+00
    0.18355E-07        -0.53229E-11         0.00000E+00
    0.18355E-07        -0.49621E-11         0.00000E+00
    0.18354E-07        -0.46076E-11         0.00000E+00
    0.18354E-07        -0.42648E-11         0.00000E+00
    0.18353E-07        -0.39251E-11         0.00000E+00
    0.18353E-07        -0.35623E-11         0.00000E+00
    0.18353E-07        -0.31205E-11         0.00000E+00
    0.18354E-07        -0.24678E-11         0.00000E+00
    0.18356E-07        -0.11804E-11         0.00000E+00
    0.18356E-07        -0.10656E-11         0.00000E+00
    0.18359E-07        -0.20707E-11         0.00000E+00
    0.18359E-07        -0.23080E-11         0.00000E+00
    0.18358E-07        -0.23228E-11         0.00000E+00
    0.18357E-07        -0.22365E-11         0.00000E+00
    0.18355E-07        -0.21085E-11         0.00000E+00
    0.18354E-07        -0.19673E-11         0.00000E+00
    0.18352E-07        -0.18273E-11         0.00000E+00
    0.18351E-07        -0.16951E-11         0.00000E+00
    0.18349E-07        -0.15722E-11         0.00000E+00
    0.18348E-07        -0.14560E-11         0.00000E+00
    0.18347E-07        -0.13384E-11         0.00000E+00
    0.18347E-07        -0.12008E-11         0.00000E+00
    0.18346E-07        -0.10136E-11         0.00000E+00
    0.18347E-07        -0.55325E-12         0.00000E+00
POINT_DATA        496
VECTORS vDarcyNodal double 
    0.00000E+00         0.00000E+00         0.00000E+00
    0.00000E+00         0.00000E+00         0.00000E+00
    0.00000E+00         0.00000E+00         0.00000E+00
    0.00000E+00         0.00000E+00         0.00000E+00
    0.00000E+00         0.00000E+00         0.00000E+00
    0.00000E+00         0.00000E+00         0.00000E+00
    0.00000E+00         0.00000E+00         0.00000E+00
    0.00000E+00         0.00000E+00         0.00000E+00
    0.00000E+00         0.00000E+00         0.00000E+00
    0.00000E+00         0.00000E+00         0.00000E+00
    0.00000E+00         0.00000E+00         0.00000E+00
    0.00000E+00         0.00000E+00         0.00000E+00
    0.00000E+00         0.00000E+00         0.00000E+00
    0.00000E+00         0.00000E+00         0.00000E+00
    0.00000E+00         0.00000E+00         0.00000E+00
    0.00000E+00         0.00000E+00         0.00000E+00
    0.00000E+00         0.00000E+00         0.00000E+00
    0.00000E+00         0.00000E+00         0.00000E+00
    0.00000E+00         0.00000E+00         0.00000E+00
    0.00000E+00         0.00000E+00         0.00000E+00
    0.00000E+00         0.00000E+00         0.00000E+00
    0.00000E+00         0.00000E+00         0.00000E+00
    0.00000E+00         0.00000E+00         0.00000E+00
    0.00000E+00         0.00000E+00         0.00000E+00
    0.00000E+00         0.00000E+00         0.00000E+00
    0.00000E+00         0.00000E+00         0.00000E+00
    0.00000E+00         0.00000E+00         0.00000E+00
    0.00000E+00         0.00000E+00         0.00000E+00
    0.00000E+00         0.00000E+00         0.00000E+00
    0.00000E+00         0.00000E+00         0.00000E+00
    0.00000E+00         0.00000E+00         0.00000E+00
    0.00000E+00         0.00000E+00         0.00000E+00
    0.00000E+00         0.00000E+00         0.00000E+00
    0.00000E+00         0.00000E+00         0.00000E+00
    0.00000E+00         0.00000E+00         0.00000E+00
    0.00000E+00         0.00000E+00         0.00000E+00
    0.00000E+00         0.00000E+00         0.00000E+00
    0.00000E+00         0.00000E+00         0.00000E+00
    0.00000E+00         0.00000E+00         0.00000E+00
    0.00000E+00         0.00000E+00         0.00000E+00
    0.00000E+00         0.00000E+00         0.00000E+00
    0.00000E+00         0.00000E+00         0.00000E+00
    0.00000E+00         0.00000E+00         0.00000E+00
    0.00000E+00         0.00000E+00         0.00000E+00
    0.00000E+00         0.00000E+00         0.00000E+00
    0.00000E+00         0.00000E+00         0.00000E+00
    0.00000E+00         0.00000E+00         0.00000E+00
    0.00000E+00         0.00000E+00         0.00000E+00
    0.00000E+00         0.00000E+00         0.00000E+00
    0.00000E+00         0.00000E+00         0.00000E+00
    0.00000E+00         0.00000E+00         0.00000E+00
    0.00000E+00         0.00000E+00         0.00000E+00
    0.00000E+00         0.00000E+00         0.00000E+00
    0.00000E+00         0.00000E+00         0.00000E+00
    0.00000E+00         0.00000E+00         0.00000E+00
    0.00000E+00         0.00000E+00         0.00000E+00
    0.00000E+00         0.00000E+00         0.00000E+00
    0.00000E+00         0.00000E+00         0.00000E+00
    0.00000E+00         0.00000E+00         0.00000E+00
    0.00000E+00         0.00000E+00         0.00000E+00
    0.00000E+00         0.00000E+00         0.00000E+00
    0.00000E+00         0.00000E+00         0.00000E+00
    0.00000E+00         0.00000E+00         0.00000E+00
    0.00000E+00         0.00000E+00         0.00000E+00
    0.00000E+00         0.00000E+00         0.00000E+00
    0.00000E+00         0.00000E+00         0.00000E+00
    0.00000E+00         0.00000E+00         0.00000E+00
    0.00000E+00         0.00000E+00         0.00000E+00
    0.00000E+00         0.00000E+00         0.00000E+00
    0.00000E+00         0.00000E+00         0.00000E+00
    0.00000E+00         0.00000E+00         0.00000E+00
    0.00000E+00         0.00000E+00         0.00000E+00
    0.00000E+00         0.00000E+00         0.00000E+00
    0.00000E+00         0.00000E+00         0.00000E+00
    0.00000E+00         0.00000E+00         0.00000E+00
    0.00000E+00         0.00000E+00         0.00000E+00
    0.00000E+00         0.00000E+00         0.00000E+00
    0.00000E+00         0.00000E+00         0.00000E+00
    0.00000E+00         0.00000E+00         0.00000E+00
    0.00000E+00         0.00000E+00         0.00000E+00
    0.00000E+00         0.00000E+00         0.00000E+00
    0.00000E+00         0.00000E+00         0.00000E+00
    0.00000E+00         0.00000E+00         0.00000E+00
    0.00000E+00         0.00000E+00         0.00000E+00
    0.00000E+00         0.00000E+00         0.00000E+00
    0.00000E+00         0.00000E+00         0.00000E+00
    0.00000E+00         0.00000E+00         0.00000E+00
    0.00000E+00         0.00000E+00         0.00000E+00
    0.00000E+00         0.00000E+00         0.00000E+00
    0.00000E+00         0.00000E+00         0.00000E+00
    0.00000E+00         0.00000E+00         0.00000E+00
    0.00000E+00         0.00000E+00         0.00000E+00
    0.00000E+00         0.00000E+00         0.00000E+00
    0.00000E+00         0.00000E+00         0.00000E+00
    0.00000E+00         0.00000E+00         0.00000E+00
    0.00000E+00         0.00000E+00         0.00000E+00
    0.00000E+00         0.00000E+00         0.00000E+00
    0.00000E+00         0.00000E+00         0.00000E+00
    0.00000E+00         0.00000E+00         0.00000E+00
    0.00000E+00         0.00000E+00         0.00000E+00
    0.00000E+00         0.00000E+00         0.00000E+00
    0.00000E+00         0.00000E+00         0.00000E+00
    0.00000E+00         0.00000E+00         0.00000E+00
    0.00000E+00         0.00000E+00         0.00000E+00
    0.00000E+00         0.00000E+00         0.00000E+00
    0.00000E+00         0.00000E+00         0.00000E+00
    0.00000E+00         0.00000E+00         0.00000E+00
    0.00000E+00         0.00000E+00         0.00000E+00
    0.00000E+00         0.00000E+00         0.00000E+00
    0.00000E+00         0.00000E+00         0.00000E+00
    0.00000E+00         0.00000E+00         0.00000E+00
    0.00000E+00         0.00000E+00         0.00000E+00
    0.00000E+00         0.00000E+00         0.00000E+00
    0.00000E+00         0.00000E+00         0.00000E+00
    0.00000E+00         0.00000E+00         0.00000E+00
    0.00000E+00         0.00000E+00         0.00000E+00
    0.00000E+00         0.00000E+00         0.00000E+00
    0.00000E+00         0.00000E+00         0.00000E+00
    0.00000E+00         0.00000E+00         0.00000E+00
    0.00000E+00         0.00000E+00         0.00000E+00
    0.00000E+00         0.00000E+00         0.00000E+00
    0.00000E+00         0.00000E+00         0.00000E+00
    0.00000E+00         0.00000E+00         0.00000E+00
    0.00000E+00         0.00000E+00         0.00000E+00
    0.00000E+00         0.00000E+00         0.00000E+00
    0.00000E+00         0.00000E+00         0.00000E+00
    0.00000E+00         0.00000E+00         0.00000E+00
    0.00000E+00         0.00000E+00         0.00000E+00
    0.00000E+00         0.00000E+00         0.00000E+00
    0.00000E+00         0.00000E+00         0.00000E+00
    0.00000E+00         0.00000E+00         0.00000E+00
    0.00000E+00         0.00000E+00         0.00000E+00
    0.00000E+00         0.00000E+00         0.00000E+00
    0.00000E+00         0.00000E+00         0.00000E+00
    0.00000E+00         0.00000E+00         0.00000E+00
    0.00000E+00         0.00000E+00         0.00000E+00
    0.00000E+00         0.00000E+00         0.00000E+00
    0.00000E+00         0.00000E+00         0.00000E+00
    0.00000E+00         0.00000E+00         0.00000E+00
    0.00000E+00         0.00000E+00         0.00000E+00
    0.00000E+00         0.00000E+00         0.00000E+00
    0.00000E+00         0.00000E+00         0.00000E+00
    0.00000E+00         0.00000E+00         0.00000E+00
    0.00000E+00         0.00000E+00         0.00000E+00
    0.00000E+00         0.00000E+00         0.00000E+00
    0.00000E+00         0.00000E+00         0.00000E+00
    0.00000E+00         0.00000E+00         0.00000E+00
    0.00000E+00         0.00000E+00         0.00000E+00
    0.00000E+00         0.00000E+00         0.00000E+00
    0.00000E+00         0.00000E+00         0.00000E+00
    0.00000E+00         0.00000E+00         0.00000E+00
    0.00000E+00         0.00000E+00         0.00000E+00
    0.00000E+00         0.00000E+00         0.00000E+00
    0.00000E+00         0.00000E+00         0.00000E+00
    0.00000E+00         0.00000E+00         0.00000E+00
    0.00000E+00         0.00000E+00         0.00000E+00
    0.00000E+00         0.00000E+00         0.00000E+00
    0.00000E+00         0.00000E+00         0.00000E+00
    0.00000E+00         0.00000E+00         0.00000E+00
    0.00000E+00         0.00000E+00         0.00000E+00
    0.00000E+00         0.00000E+00         0.00000E+00
    0.00000E+00         0.00000E+00         0.00000E+00
    0.00000E+00         0.00000E+00         0.00000E+00
    0.00000E+00         0.00000E+00         0.00000E+00
    0.00000E+00         0.00000E+00         0.00000E+00
    0.00000E+00         0.00000E+00         0.00000E+00
    0.00000E+00         0.00000E+00         0.00000E+00
    0.00000E+00         0.00000E+00         0.00000E+00
    0.00000E+00         0.00000E+00         0.00000E+00
    0.00000E+00         0.00000E+00         0.00000E+00
    0.00000E+00         0.00000E+00         0.00000E+00
    0.00000E+00         0.00000E+00         0.00000E+00
    0.00000E+00         0.00000E+00         0.00000E+00
    0.00000E+00         0.00000E+00         0.00000E+00
    0.00000E+00         0.00000E+00         0.00000E+00
    0.00000E+00         0.00000E+00         0.00000E+00
    0.00000E+00         0.00000E+00         0.00000E+00
    0.00000E+00         0.00000E+00         0.00000E+00
    0.00000E+00         0.00000E+00         0.00000E+00
    0.00000E+00         0.00000E+00         0.00000E+00
    0.00000E+00         0.00000E+00         0.00000E+00
    0.00000E+00         0.00000E+00         0.00000E+00
    0.00000E+00         0.00000E+00         0.00000E+00
    0.00000E+00         0.00000E+00         0.00000E+00
    0.00000E+00         0.00000E+00         0.00000E+00
    0.00000E+00         0.00000E+00         0.00000E+00
    0.00000E+00         0.00000E+00         0.00000E+00
    0.00000E+00         0.00000E+00         0.00000E+00
    0.00000E+00         0.00000E+00         0.00000E+00
    0.00000E+00         0.00000E+00         0.00000E+00
    0.00000E+00         0.00000E+00         0.00000E+00
    0.00000E+00         0.00000E+00         0.00000E+00
    0.00000E+00         0.00000E+00         0.00000E+00
    0.00000E+00         0.00000E+00         0.00000E+00
    0.00000E+00         0.00000E+00         0.00000E+00
    0.00000E+00         0.00000E+00         0.00000E+00
    0.00000E+00         0.00000E+00         0.00000E+00
    0.00000E+00         0.00000E+00         0.00000E+00
    0.00000E+00         0.00000E+00         0.00000E+00
    0.00000E+00         0.00000E+00         0.00000E+00
    0.00000E+00         0.00000E+00         0.00000E+00
    0.00000E+00         0.00000E+00         0.00000E+00
    0.00000E+00         0.00000E+00         0.00000E+00
    0.00000E+00         0.00000E+00         0.00000E+00
    0.00000E+00         0.00000E+00         0.00000E+00
    0.00000E+00         0.00000E+00         0.00000E+00
    0.00000E+00         0.00000E+00         0.00000E+00
    0.00000E+00         0.00000E+00         0.00000E+00
    0.00000E+00         0.00000E+00         0.00000E+00
    0.00000E+00         0.00000E+00         0.00000E+00
    0.00000E+00         0.00000E+00         0.00000E+00
    0.00000E+00         0.00000E+00         0.00000E+00
    0.00000E+00         0.00000E+00         0.00000E+00
    0.00000E+00         0.00000E+00         0.00000E+00
    0.00000E+00         0.00000E+00         0.00000E+00
    0.00000E+00         0.00000E+00         0.00000E+00
    0.00000E+00         0.00000E+00         0.00000E+00
    0.00000E+00         0.00000E+00         0.00000E+00
    0.00000E+00         0.00000E+00         0.00000E+00
    0.00000E+00         0.00000E+00         0.00000E+00
    0.00000E+00         0.00000E+00         0.00000E+00
    0.00000E+00         0.00000E+00         0.00000E+00
    0.00000E+00         0.00000E+00         0.00000E+00
    0.00000E+00         0.00000E+00         0.00000E+00
    0.00000E+00         0.00000E+00         0.00000E+00
    0.00000E+00         0.00000E+00         0.00000E+00
    0.00000E+00         0.00000E+00         0.00000E+00
    0.00000E+00         0.00000E+00         0.00000E+00
    0.00000E+00         0.00000E+00         0.00000E+00
    0.00000E+00         0.00000E+00         0.00000E+00
    0.00000E+00         0.00000E+00         0.00000E+00
    0.00000E+00         0.00000E+00         0.00000E+00
    0.00000E+00         0.00000E+00         0.00000E+00
    0.00000E+00         0.00000E+00         0.00000E+00
    0.00000E+00         0.00000E+00         0.00000E+00
    0.00000E+00         0.00000E+00         0.00000E+00
    0.00000E+00         0.00000E+00         0.00000E+00
    0.00000E+00         0.00000E+00         0.00000E+00
    0.00000E+00         0.00000E+00         0.00000E+00
    0.00000E+00         0.00000E+00         0.00000E+00
    0.00000E+00         0.00000E+00         0.00000E+00
    0.00000E+00         0.00000E+00         0.00000E+00
    0.00000E+00         0.00000E+00         0.00000E+00
    0.00000E+00         0.00000E+00         0.00000E+00
    0.00000E+00         0.00000E+00         0.00000E+00
    0.00000E+00         0.00000E+00         0.00000E+00
    0.00000E+00         0.00000E+00         0.00000E+00
    0.00000E+00         0.00000E+00         0.00000E+00
    0.00000E+00         0.00000E+00         0.00000E+00
    0.00000E+00         0.00000E+00         0.00000E+00
    0.00000E+00         0.00000E+00         0.00000E+00
    0.00000E+00         0.00000E+00         0.00000E+00
    0.00000E+00         0.00000E+00         0.00000E+00
    0.00000E+00         0.00000E+00         0.00000E+00
    0.00000E+00         0.00000E+00         0.00000E+00
    0.00000E+00         0.00000E+00         0.00000E+00
    0.00000E+00         0.00000E+00         0.00000E+00
    0.00000E+00         0.00000E+00         0.00000E+00
    0.00000E+00         0.00000E+00         0.00000E+00
    0.00000E+00         0.00000E+00         0.00000E+00
    0.00000E+00         0.00000E+00         0.00000E+00
    0.00000E+00         0.00000E+00         0.00000E+00
    0.00000E+00         0.00000E+00         0.00000E+00
    0.00000E+00         0.00000E+00         0.00000E+00
    0.00000E+00         0.00000E+00         0.00000E+00
    0.00000E+00         0.00000E+00         0.00000E+00
    0.00000E+00         0.00000E+00         0.00000E+00
    0.00000E+00         0.00000E+00         0.00000E+00
    0.00000E+00         0.00000E+00         0.00000E+00
    0.00000E+00         0.00000E+00         0.00000E+00
    0.00000E+00         0.00000E+00         0.00000E+00
    0.00000E+00         0.00000E+00         0.00000E+00
    0.00000E+00         0.00000E+00         0.00000E+00
    0.00000E+00         0.00000E+00         0.00000E+00
    0.00000E+00         0.00000E+00         0.00000E+00
    0.00000E+00         0.00000E+00         0.00000E+00
    0.00000E+00         0.00000E+00         0.00000E+00
    0.00000E+00         0.00000E+00         0.00000E+00
    0.00000E+00         0.00000E+00         0.00000E+00
    0.00000E+00         0.00000E+00         0.00000E+00
    0.00000E+00         0.00000E+00         0.00000E+00
    0.00000E+00         0.00000E+00         0.00000E+00
    0.00000E+00         0.00000E+00         0.00000E+00
    0.00000E+00         0.00000E+00         0.00000E+00
    0.00000E+00         0.00000E+00         0.00000E+00
    0.00000E+00         0.00000E+00         0.00000E+00
    0.00000E+00         0.00000E+00         0.00000E+00
    0.00000E+00         0.00000E+00         0.00000E+00
    0.00000E+00         0.00000E+00         0.00000E+00
    0.00000E+00         0.00000E+00         0.00000E+00
    0.00000E+00         0.00000E+00         0.00000E+00
    0.00000E+00         0.00000E+00         0.00000E+00
    0.00000E+00         0.00000E+00         0.00000E+00
    0.00000E+00         0.00000E+00         0.00000E+00
    0.00000E+00         0.00000E+00         0.00000E+00
    0.00000E+00         0.00000E+00         0.00000E+00
    0.00000E+00         0.00000E+00         0.00000E+00
    0.00000E+00         0.00000E+00         0.00000E+00
    0.00000E+00         0.00000E+00         0.00000E+00
    0.00000E+00         0.00000E+00         0.00000E+00
    0.00000E+00         0.00000E+00         0.00000E+00
    0.00000E+00         0.00000E+00         0.00000E+00
    0.00000E+00         0.00000E+00         0.00000E+00
    0.00000E+00         0.00000E+00         0.00000E+00
    0.00000E+00         0.00000E+00         0.00000E+00
    0.00000E+00         0.00000E+00         0.00000E+00
    0.00000E+00         0.00000E+00         0.00000E+00
    0.00000E+00         0.00000E+00         0.00000E+00
    0.00000E+00         0.00000E+00         0.00000E+00
    0.00000E+00         0.00000E+00         0.00000E+00
    0.00000E+00         0.00000E+00         0.00000E+00
    0.00000E+00         0.00000E+00         0.00000E+00
    0.00000E+00         0.00000E+00         0.00000E+00
    0.00000E+00         0.00000E+00         0.00000E+00
    0.00000E+00         0.00000E+00         0.00000E+00
    0.00000E+00         0.00000E+00         0.00000E+00
    0.00000E+00         0.00000E+00         0.00000E+00
    0.00000E+00         0.00000E+00         0.00000E+00
    0.00000E+00         0.00000E+00         0.00000E+00
    0.00000E+00         0.00000E+00         0.00000E+00
    0.00000E+00         0.00000E+00         0.00000E+00
    0.00000E+00         0.00000E+00         0.00000E+00
    0.00000E+00         0.00000E+00         0.00000E+00
    0.00000E+00         0.00000E+00         0.00000E+00
    0.00000E+00         0.00000E+00         0.00000E+00
    0.00000E+00         0.00000E+00         0.00000E+00
    0.00000E+00         0.00000E+00         0.00000E+00
    0.00000E+00         0.00000E+00         0.00000E+00
    0.00000E+00         0.00000E+00         0.00000E+00
    0.00000E+00         0.00000E+00         0.00000E+00
    0.00000E+00         0.00000E+00         0.00000E+00
    0.00000E+00         0.00000E+00         0.00000E+00
    0.00000E+00         0.00000E+00         0.00000E+00
    0.00000E+00         0.00000E+00         0.00000E+00
    0.00000E+00         0.00000E+00         0.00000E+00
    0.00000E+00         0.00000E+00         0.00000E+00
    0.00000E+00         0.00000E+00         0.00000E+00
    0.00000E+00         0.00000E+00         0.00000E+00
    0.00000E+00         0.00000E+00         0.00000E+00
    0.00000E+00         0.00000E+00         0.00000E+00
    0.00000E+00         0.00000E+00         0.00000E+00
    0.00000E+00         0.00000E+00         0.00000E+00
    0.00000E+00         0.00000E+00         0.00000E+00
    0.00000E+00         0.00000E+00         0.00000E+00
    0.00000E+00         0.00000E+00         0.00000E+00
    0.00000E+00         0.00000E+00         0.00000E+00
    0.00000E+00         0.00000E+00         0.00000E+00
    0.00000E+00         0.00000E+00         0.00000E+00
    0.00000E+00         0.00000E+00         0.00000E+00
    0.00000E+00         0.00000E+00         0.00000E+00
    0.00000E+00         0.00000E+00         0.00000E+00
    0.00000E+00         0.00000E+00         0.00000E+00
    0.00000E+00         0.00000E+00         0.00000E+00
    0.00000E+00         0.00000E+00         0.00000E+00
    0.00000E+00         0.00000E+00         0.00000E+00
    0.00000E+00         0.00000E+00         0.00000E+00
    0.00000E+00         0.00000E+00         0.00000E+00
    0.00000E+00         0.00000E+00         0.00000E+00
    0.00000E+00         0.00000E+00         0.00000E+00
    0.00000E+00         0.00000E+00         0.00000E+00
    0.00000E+00         0.00000E+00         0.00000E+00
    0.00000E+00         0.00000E+00         0.00000E+00
    0.00000E+00         0.00000E+00         0.00000E+00
    0.00000E+00         0.00000E+00         0.00000E+00
    0.00000E+00         0.00000E+00         0.00000E+00
    0.00000E+00         0.00000E+00         0.00000E+00
    0.00000E+00         0.00000E+00         0.00000E+00
    0.00000E+00         0.00000E+00         0.00000E+00
    0.00000E+00         0.00000E+00         0.00000E+00
    0.00000E+00         0.00000E+00         0.00000E+00
    0.00000E+00         0.00000E+00         0.00000E+00
    0.00000E+00         0.00000E+00         0.00000E+00
    0.00000E+00         0.00000E+00         0.00000E+00
    0.00000E+00         0.00000E+00         0.00000E+00
    0.00000E+00         0.00000E+00         0.00000E+00
    0.00000E+00         0.00000E+00         0.00000E+00
    0.00000E+00         0.00000E+00         0.00000E+00
    0.00000E+00         0.00000E+00         0.00000E+00
    0.00000E+00         0.00000E+00         0.00000E+00
    0.00000E+00         0.00000E+00         0.00000E+00
    0.00000E+00         0.00000E+00         0.00000E+00
    0.00000E+00         0.00000E+00         0.00000E+00
    0.00000E+00         0.00000E+00         0.00000E+00
    0.00000E+00         0.00000E+00         0.00000E+00
    0.00000E+00         0.00000E+00         0.00000E+00
    0.00000E+00         0.00000E+00         0.00000E+00
    0.00000E+00         0.00000E+00         0.00000E+00
    0.00000E+00         0.00000E+00         0.00000E+00
    0.00000E+00         0.00000E+00         0.00000E+00
    0.00000E+00         0.00000E+00         0.00000E+00
    0.00000E+00         0.00000E+00         0.00000E+00
    0.00000E+00         0.00000E+00         0.00000E+00
    0.00000E+00         0.00000E+00         0.00000E+00
    0.00000E+00         0.00000E+00         0.00000E+00
    0.00000E+00         0.00000E+00         0.00000E+00
    0.00000E+00         0.00000E+00         0.00000E+00
    0.00000E+00         0.00000E+00         0.00000E+00
    0.00000E+00         0.00000E+00         0.00000E+00
    0.00000E+00         0.00000E+00         0.00000E+00
    0.00000E+00         0.00000E+00         0.00000E+00
    0.00000E+00         0.00000E+00         0.00000E+00
    0.00000E+00         0.00000E+00         0.00000E+00
    0.00000E+00         0.00000E+00         0.00000E+00
    0.00000E+00         0.00000E+00         0.00000E+00
    0.00000E+00         0.00000E+00         0.00000E+00
    0.00000E+00         0.00000E+00         0.00000E+00
    0.00000E+00         0.00000E+00         0.00000E+00
    0.00000E+00         0.00000E+00         0.00000E+00
    0.00000E+00         0.00000E+00         0.00000E+00
    0.00000E+00         0.00000E+00         0.00000E+00
    0.00000E+00         0.00000E+00         0.00000E+00
    0.00000E+00         0.00000E+00         0.00000E+00
    0.00000E+00         0.00000E+00         0.00000E+00
    0.00000E+00         0.00000E+00         0.00000E+00
    0.00000E+00         0.00000E+00         0.00000E+00
    0.00000E+00         0.00000E+00         0.00000E+00
    0.00000E+00         0.00000E+00         0.00000E+00
    0.00000E+00         0.00000E+00         0.00000E+00
    0.00000E+00         0.00000E+00         0.00000E+00
    0.00000E+00         0.00000E+00         0.00000E+00
    0.00000E+00         0.00000E+00         0.00000E+00
    0.00000E+00         0.00000E+00         0.00000E+00
    0.00000E+00         0.00000E+00         0.00000E+00
    0.00000E+00         0.00000E+00         0.00000E+00
    0.00000E+00         0.00000E+00         0.00000E+00
    0.00000E+00         0.00000E+00         0.00000E+00
    0.00000E+00         0.00000E+00         0.00000E+00
    0.00000E+00         0.00000E+00         0.00000E+00
    0.00000E+00         0.00000E+00         0.00000E+00
    0.00000E+00         0.00000E+00         0.00000E+00
    0.00000E+00         0.00000E+00         0.00000E+00
    0.00000E+00         0.00000E+00         0.00000E+00
    0.00000E+00         0.00000E+00         0.00000E+00
    0.00000E+00         0.00000E+00         0.00000E+00
    0.00000E+00         0.00000E+00         0.00000E+00
    0.00000E+00         0.00000E+00         0.00000E+00
    0.00000E+00         0.00000E+00         0.00000E+00
    0.00000E+00         0.00000E+00         0.00000E+00
    0.00000E+00         0.00000E+00         0.00000E+00
    0.00000E+00         0.00000E+00         0.00000E+00
    0.00000E+00         0.00000E+00         0.00000E+00
    0.00000E+00         0.00000E+00         0.00000E+00
    0.00000E+00         0.00000E+00         0.00000E+00
    0.00000E+00         0.00000E+00         0.00000E+00
    0.00000E+00         0.00000E+00         0.00000E+00
    0.00000E+00         0.00000E+00         0.00000E+00
    0.00000E+00         0.00000E+00         0.00000E+00
    0.00000E+00         0.00000E+00         0.00000E+00
    0.00000E+00         0.00000E+00         0.00000E+00
    0.00000E+00         0.00000E+00         0.00000E+00
    0.00000E+00         0.00000E+00         0.00000E+00
    0.00000E+00         0.00000E+00         0.00000E+00
    0.00000E+00         0.00000E+00         0.00000E+00
    0.00000E+00         0.00000E+00         0.00000E+00
    0.00000E+00         0.00000E+00         0.00000E+00
    0.00000E+00         0.00000E+00         0.00000E+00
    0.00000E+00         0.00000E+00         0.00000E+00
    0.00000E+00         0.00000E+00         0.00000E+00
    0.00000E+00         0.00000E+00         0.00000E+00
    0.00000E+00         0.00000E+00         0.00000E+00
    0.00000E+00         0.00000E+00         0.00000E+00
    0.00000E+00         0.00000E+00         0.00000E+00
    0.00000E+00         0.00000E+00         0.00000E+00
    0.00000E+00         0.00000E+00         0.00000E+00
    0.00000E+00         0.00000E+00         0.00000E+00
    0.00000E+00         0.00000E+00         0.00000E+00
    0.00000E+00         0.00000E+00         0.00000E+00
    0.00000E+00         0.00000E+00         0.00000E+00
    0.00000E+00         0.00000E+00         0.00000E+00
    0.00000E+00         0.00000E+00         0.00000E+00
    0.00000E+00         0.00000E+00         0.00000E+00
    0.00000E+00         0.00000E+00         0.00000E+00
    0.00000E+00         0.00000E+00         0.00000E+00
    0.00000E+00         0.00000E+00         0.00000E+00
    0.00000E+00         0.00000E+00         0.00000E+00
    0.00000E+00         0.00000E+00         0.00000E+00
    0.00000E+00         0.00000E+00         0.00000E+00
    0.00000E+00         0.00000E+00         0.00000E+00
    0.00000E+00         0.00000E+00         0.00000E+00
    0.00000E+00         0.00000E+00         0.00000E+00
    0.00000E+00         0.00000E+00         0.00000E+00
    0.00000E+00         0.00000E+00         0.00000E+00
    0.00000E+00         0.00000E+00         0.00000E+00
    0.00000E+00         0.00000E+00         0.00000E+00
    0.00000E+00         0.00000E+00         0.00000E+00
    0.00000E+00         0.00000E+00         0.00000E+00
    0.00000E+00         0.00000E+00         0.00000E+00
    0.00000E+00         0.00000E+00         0.00000E+00
    0.00000E+00         0.00000E+00         0.00000E+00
    0.00000E+00         0.00000E+00         0.00000E+00
    0.00000E+00         0.00000E+00         0.00000E+00
    0.00000E+00         0.00000E+00         0.00000E+00
    0.00000E+00         0.00000E+00         0.00000E+00
    0.00000E+00         0.00000E+00         0.00000E+00
    0.00000E+00         0.00000E+00         0.00000E+00
    0.00000E+00         0.00000E+00         0.00000E+00
CELL_DATA        450
TENSORS stressef double 
   -0.61818E-07        -0.31674E-08         0.00000E+00
   -0.31674E-08        -0.17318E-07         0.00000E+00
    0.00000E+00         0.00000E+00        -0.15827E-07
 
   -0.33660E-09        -0.22294E-07         0.00000E+00
   -0.22294E-07        -0.29775E-07         0.00000E+00
    0.00000E+00         0.00000E+00        -0.60223E-08
 
    0.36720E-07         0.75448E-08         0.00000E+00
    0.75448E-08        -0.39697E-07         0.00000E+00
    0.00000E+00         0.00000E+00        -0.59538E-09
 
    0.14938E-07        -0.15620E-08         0.00000E+00
   -0.15620E-08        -0.25288E-07         0.00000E+00
    0.00000E+00         0.00000E+00        -0.20700E-08
 
    0.18401E-07        -0.37525E-08         0.00000E+00
   -0.37525E-08        -0.22927E-07         0.00000E+00
    0.00000E+00         0.00000E+00        -0.90519E-09
 
    0.14789E-07         0.54674E-08         0.00000E+00
    0.54674E-08        -0.27067E-07         0.00000E+00
    0.00000E+00         0.00000E+00        -0.24555E-08
 
   -0.12076E-08         0.30271E-08         0.00000E+00
    0.30271E-08        -0.21588E-07         0.00000E+00
    0.00000E+00         0.00000E+00        -0.45591E-08
 
   -0.90063E-08         0.14927E-08         0.00000E+00
    0.14927E-08        -0.15069E-07         0.00000E+00
    0.00000E+00         0.00000E+00        -0.48152E-08
 
   -0.16897E-07         0.20167E-08         0.00000E+00
    0.20167E-08        -0.12753E-07         0.00000E+00
    0.00000E+00         0.00000E+00        -0.59299E-08
 
   -0.10661E-07        -0.51388E-08         0.00000E+00
   -0.51388E-08        -0.15699E-07         0.00000E+00
    0.00000E+00         0.00000E+00        -0.52718E-08
 
   -0.53212E-08         0.61157E-09         0.00000E+00
    0.61157E-09        -0.17666E-07         0.00000E+00
    0.00000E+00         0.00000E+00        -0.45975E-08
 
   -0.44447E-08        -0.43043E-08         0.00000E+00
   -0.43043E-08        -0.15320E-07         0.00000E+00
    0.00000E+00         0.00000E+00        -0.39529E-08
 
    0.40983E-08         0.20496E-09         0.00000E+00
    0.20496E-09        -0.15460E-07         0.00000E+00
    0.00000E+00         0.00000E+00        -0.22723E-08
 
    0.29971E-08         0.11431E-08         0.00000E+00
    0.11431E-08        -0.14388E-07         0.00000E+00
    0.00000E+00         0.00000E+00        -0.22783E-08
 
   -0.13922E-08         0.62493E-09         0.00000E+00
    0.62493E-09        -0.13112E-07         0.00000E+00
    0.00000E+00         0.00000E+00        -0.29008E-08
 
   -0.38510E-07        -0.47998E-08         0.00000E+00
   -0.47998E-08        -0.19567E-07         0.00000E+00
    0.00000E+00         0.00000E+00        -0.11615E-07
 
   -0.62819E-08        -0.46255E-07         0.00000E+00
   -0.46255E-07        -0.30595E-07         0.00000E+00
    0.00000E+00         0.00000E+00        -0.73754E-08
 
    0.24993E-08         0.21509E-07         0.00000E+00
    0.21509E-07        -0.33378E-07         0.00000E+00
    0.00000E+00         0.00000E+00        -0.61757E-08
 
    0.11145E-07         0.22071E-08         0.00000E+00
    0.22071E-08        -0.34259E-07         0.00000E+00
    0.00000E+00         0.00000E+00        -0.46227E-08
 
    0.12507E-07         0.36682E-08         0.00000E+00
    0.36682E-08        -0.25449E-07         0.00000E+00
    0.00000E+00         0.00000E+00        -0.25885E-08
 
    0.32085E-08         0.58562E-08         0.00000E+00
    0.58562E-08        -0.20489E-07         0.00000E+00
    0.00000E+00         0.00000E+00        -0.34560E-08
 
   -0.10000E-08         0.51466E-08         0.00000E+00
    0.51466E-08        -0.22558E-07         0.00000E+00
    0.00000E+00         0.00000E+00        -0.47117E-08
 
   -0.14218E-07         0.24629E-08         0.00000E+00
    0.24629E-08        -0.18704E-07         0.00000E+00
    0.00000E+00         0.00000E+00        -0.65845E-08
 
   -0.14952E-07         0.39243E-08         0.00000E+00
    0.39243E-08        -0.16865E-07         0.00000E+00
    0.00000E+00         0.00000E+00        -0.63635E-08
 
   -0.69882E-08        -0.88426E-08         0.00000E+00
   -0.88426E-08        -0.12903E-07         0.00000E+00
    0.00000E+00         0.00000E+00        -0.39782E-08
 
   -0.21147E-08         0.63492E-08         0.00000E+00
    0.63492E-08        -0.13095E-07         0.00000E+00
    0.00000E+00         0.00000E+00        -0.30420E-08
 
    0.37625E-08        -0.67027E-08         0.00000E+00
   -0.67027E-08        -0.14903E-07         0.00000E+00
    0.00000E+00         0.00000E+00        -0.22281E-08
 
    0.48804E-08        -0.18436E-08         0.00000E+00
   -0.18436E-08        -0.13589E-07         0.00000E+00
    0.00000E+00         0.00000E+00        -0.17418E-08
 
   -0.36049E-08         0.23856E-08         0.00000E+00
    0.23856E-08        -0.15439E-07         0.00000E+00
    0.00000E+00         0.00000E+00        -0.38087E-08
 
   -0.67637E-08        -0.43798E-09         0.00000E+00
   -0.43798E-09        -0.17175E-07         0.00000E+00
    0.00000E+00         0.00000E+00        -0.47878E-08
 
   -0.36315E-07        -0.14147E-07         0.00000E+00
   -0.14147E-07        -0.25058E-07         0.00000E+00
    0.00000E+00         0.00000E+00        -0.12275E-07
 
   -0.15526E-07        -0.50162E-07         0.00000E+00
   -0.50162E-07        -0.28615E-07         0.00000E+00
    0.00000E+00         0.00000E+00        -0.88282E-08
 
    0.20553E-08         0.28056E-07         0.00000E+00
    0.28056E-07        -0.25740E-07         0.00000E+00
    0.00000E+00         0.00000E+00        -0.47369E-08
 
    0.84028E-08         0.41188E-10         0.00000E+00
    0.41188E-10        -0.30571E-07         0.00000E+00
    0.00000E+00         0.00000E+00        -0.44337E-08
 
   -0.12855E-07         0.13400E-07         0.00000E+00
    0.13400E-07        -0.19329E-07         0.00000E+00
    0.00000E+00         0.00000E+00        -0.64369E-08
 
   -0.25467E-07        -0.13499E-08         0.00000E+00
   -0.13499E-08        -0.24437E-07         0.00000E+00
    0.00000E+00         0.00000E+00        -0.99806E-08
 
   -0.60433E-08         0.78169E-08         0.00000E+00
    0.78169E-08        -0.24657E-07         0.00000E+00
    0.00000E+00         0.00000E+00        -0.61401E-08
 
    0.60976E-08         0.66981E-08         0.00000E+00
    0.66981E-08        -0.18111E-07         0.00000E+00
    0.00000E+00         0.00000E+00        -0.24028E-08
 
    0.10751E-08         0.33847E-08         0.00000E+00
    0.33847E-08        -0.15543E-07         0.00000E+00
    0.00000E+00         0.00000E+00        -0.28936E-08
 
   -0.11240E-07        -0.98449E-08         0.00000E+00
   -0.98449E-08        -0.13628E-07         0.00000E+00
    0.00000E+00         0.00000E+00        -0.49736E-08
 
   -0.15033E-07         0.18776E-08         0.00000E+00
    0.18776E-08        -0.15308E-07         0.00000E+00
    0.00000E+00         0.00000E+00        -0.60683E-08
 
   -0.80197E-08        -0.10668E-07         0.00000E+00
   -0.10668E-07        -0.16171E-07         0.00000E+00
    0.00000E+00         0.00000E+00        -0.48382E-08
 
   -0.54399E-09         0.13873E-08         0.00000E+00
    0.13873E-08        -0.13795E-07         0.00000E+00
    0.00000E+00         0.00000E+00        -0.28678E-08
 
    0.83731E-09         0.78334E-08         0.00000E+00
    0.78334E-08        -0.16138E-07         0.00000E+00
    0.00000E+00         0.00000E+00        -0.30602E-08
 
   -0.14195E-08         0.15908E-08         0.00000E+00
    0.15908E-08        -0.15562E-07         0.00000E+00
    0.00000E+00         0.00000E+00        -0.33963E-08
 
   -0.70052E-09        -0.26095E-07         0.00000E+00
   -0.26095E-07        -0.24038E-07         0.00000E+00
    0.00000E+00         0.00000E+00        -0.49476E-08
 
   -0.83747E-08        -0.55511E-07         0.00000E+00
   -0.55511E-07        -0.24670E-07         0.00000E+00
    0.00000E+00         0.00000E+00        -0.66089E-08
 
   -0.17789E-07         0.19435E-07         0.00000E+00
    0.19435E-07        -0.28919E-07         0.00000E+00
    0.00000E+00         0.00000E+00        -0.93416E-08
 
   -0.25595E-07         0.23256E-08         0.00000E+00
    0.23256E-08        -0.24204E-07         0.00000E+00
    0.00000E+00         0.00000E+00        -0.99596E-08
 
   -0.93072E-08         0.18683E-07         0.00000E+00
    0.18683E-07        -0.13319E-07         0.00000E+00
    0.00000E+00         0.00000E+00        -0.45252E-08
 
    0.87060E-08         0.21636E-08         0.00000E+00
    0.21636E-08        -0.21135E-07         0.00000E+00
    0.00000E+00         0.00000E+00        -0.24858E-08
 
    0.11584E-08         0.12607E-07         0.00000E+00
    0.12607E-07        -0.21630E-07         0.00000E+00
    0.00000E+00         0.00000E+00        -0.40943E-08
 
   -0.12000E-07         0.11346E-07         0.00000E+00
    0.11346E-07        -0.19531E-07         0.00000E+00
    0.00000E+00         0.00000E+00        -0.63063E-08
 
   -0.16596E-07         0.61836E-08         0.00000E+00
    0.61836E-08        -0.15660E-07         0.00000E+00
    0.00000E+00         0.00000E+00        -0.64513E-08
 
   -0.10565E-07        -0.10068E-07         0.00000E+00
   -0.10068E-07        -0.14670E-07         0.00000E+00
    0.00000E+00         0.00000E+00        -0.50471E-08
 
   -0.99435E-08         0.34362E-08         0.00000E+00
    0.34362E-08        -0.15916E-07         0.00000E+00
    0.00000E+00         0.00000E+00        -0.51718E-08
 
   -0.16851E-07        -0.10442E-07         0.00000E+00
   -0.10442E-07        -0.18495E-07         0.00000E+00
    0.00000E+00         0.00000E+00        -0.70692E-08
 
   -0.14188E-07        -0.27744E-08         0.00000E+00
   -0.27744E-08        -0.16795E-07         0.00000E+00
    0.00000E+00         0.00000E+00        -0.61966E-08
 
   -0.72834E-08         0.52008E-08         0.00000E+00
    0.52008E-08        -0.19893E-07         0.00000E+00
    0.00000E+00         0.00000E+00        -0.54353E-08
 
   -0.32978E-08         0.14660E-08         0.00000E+00
    0.14660E-08        -0.13558E-07         0.00000E+00
    0.00000E+00         0.00000E+00        -0.33712E-08
 
    0.14483E-08        -0.19418E-07         0.00000E+00
   -0.19418E-07        -0.23795E-07         0.00000E+00
    0.00000E+00         0.00000E+00        -0.44693E-08
 
    0.14985E-08        -0.52356E-07         0.00000E+00
   -0.52356E-07        -0.16491E-07         0.00000E+00
    0.00000E+00         0.00000E+00        -0.29985E-08
 
   -0.27422E-08         0.19681E-07         0.00000E+00
    0.19681E-07        -0.22982E-07         0.00000E+00
    0.00000E+00         0.00000E+00        -0.51448E-08
 
    0.40978E-08         0.30171E-08         0.00000E+00
    0.30171E-08        -0.16428E-07         0.00000E+00
    0.00000E+00         0.00000E+00        -0.24660E-08
 
    0.19580E-07         0.11298E-07         0.00000E+00
    0.11298E-07        -0.10234E-07         0.00000E+00
    0.00000E+00         0.00000E+00         0.18693E-08
 
    0.10898E-07         0.10434E-07         0.00000E+00
    0.10434E-07        -0.20236E-07         0.00000E+00
    0.00000E+00         0.00000E+00        -0.18676E-08
 
   -0.33096E-08         0.14130E-07         0.00000E+00
    0.14130E-07        -0.99051E-08         0.00000E+00
    0.00000E+00         0.00000E+00        -0.26429E-08
 
   -0.11306E-07         0.11051E-07         0.00000E+00
    0.11051E-07        -0.15093E-07         0.00000E+00
    0.00000E+00         0.00000E+00        -0.52798E-08
 
   -0.74612E-08         0.17839E-08         0.00000E+00
    0.17839E-08        -0.13424E-07         0.00000E+00
    0.00000E+00         0.00000E+00        -0.41770E-08
 
   -0.38552E-08        -0.82626E-08         0.00000E+00
   -0.82626E-08        -0.16175E-07         0.00000E+00
    0.00000E+00         0.00000E+00        -0.40060E-08
 
   -0.86185E-08         0.66794E-08         0.00000E+00
    0.66794E-08        -0.15730E-07         0.00000E+00
    0.00000E+00         0.00000E+00        -0.48697E-08
 
   -0.11394E-07        -0.95594E-08         0.00000E+00
   -0.95594E-08        -0.15916E-07         0.00000E+00
    0.00000E+00         0.00000E+00        -0.54619E-08
 
   -0.10020E-07        -0.41200E-08         0.00000E+00
   -0.41200E-08        -0.14322E-07         0.00000E+00
    0.00000E+00         0.00000E+00        -0.48685E-08
 
   -0.83804E-08         0.17967E-08         0.00000E+00
    0.17967E-08        -0.13935E-07         0.00000E+00
    0.00000E+00         0.00000E+00        -0.44631E-08
 
   -0.73799E-08        -0.17051E-08         0.00000E+00
   -0.17051E-08        -0.20826E-07         0.00000E+00
    0.00000E+00         0.00000E+00        -0.56413E-08
 
   -0.17340E-08        -0.19390E-07         0.00000E+00
   -0.19390E-07        -0.95251E-08         0.00000E+00
    0.00000E+00         0.00000E+00        -0.22518E-08
 
   -0.25636E-08        -0.54125E-07         0.00000E+00
   -0.54125E-07        -0.10234E-07         0.00000E+00
    0.00000E+00         0.00000E+00        -0.25596E-08
 
   -0.41397E-08         0.21766E-07         0.00000E+00
    0.21766E-07        -0.30269E-07         0.00000E+00
    0.00000E+00         0.00000E+00        -0.68818E-08
 
    0.25553E-09         0.43674E-08         0.00000E+00
    0.43674E-08        -0.13880E-07         0.00000E+00
    0.00000E+00         0.00000E+00        -0.27248E-08
 
   -0.40943E-08         0.43652E-08         0.00000E+00
    0.43652E-08        -0.10350E-07         0.00000E+00
    0.00000E+00         0.00000E+00        -0.28888E-08
 
   -0.16860E-07         0.65605E-08         0.00000E+00
    0.65605E-08        -0.15725E-07         0.00000E+00
    0.00000E+00         0.00000E+00        -0.65170E-08
 
   -0.15790E-07         0.59267E-08         0.00000E+00
    0.59267E-08        -0.15159E-07         0.00000E+00
    0.00000E+00         0.00000E+00        -0.61898E-08
 
   -0.92979E-08         0.17160E-07         0.00000E+00
    0.17160E-07        -0.14281E-07         0.00000E+00
    0.00000E+00         0.00000E+00        -0.47159E-08
 
   -0.11096E-07         0.23827E-08         0.00000E+00
    0.23827E-08        -0.20568E-07         0.00000E+00
    0.00000E+00         0.00000E+00        -0.63327E-08
 
   -0.67558E-08        -0.79070E-08         0.00000E+00
   -0.79070E-08        -0.94947E-08         0.00000E+00
    0.00000E+00         0.00000E+00        -0.32501E-08
 
    0.19681E-09         0.92722E-09         0.00000E+00
    0.92722E-09        -0.15609E-07         0.00000E+00
    0.00000E+00         0.00000E+00        -0.30825E-08
 
    0.58153E-08        -0.75770E-08         0.00000E+00
   -0.75770E-08        -0.12268E-07         0.00000E+00
    0.00000E+00         0.00000E+00        -0.12905E-08
 
   -0.49678E-08        -0.23244E-08         0.00000E+00
   -0.23244E-08        -0.14167E-07         0.00000E+00
    0.00000E+00         0.00000E+00        -0.38270E-08
 
   -0.69746E-08         0.64729E-08         0.00000E+00
    0.64729E-08        -0.10343E-07         0.00000E+00
    0.00000E+00         0.00000E+00        -0.34636E-08
 
   -0.64028E-08         0.16576E-08         0.00000E+00
    0.16576E-08        -0.20924E-07         0.00000E+00
    0.00000E+00         0.00000E+00        -0.54654E-08
 
   -0.22251E-08        -0.27205E-07         0.00000E+00
   -0.27205E-07        -0.65606E-08         0.00000E+00
    0.00000E+00         0.00000E+00        -0.17571E-08
 
   -0.39396E-08        -0.57122E-07         0.00000E+00
   -0.57122E-07        -0.10967E-07         0.00000E+00
    0.00000E+00         0.00000E+00        -0.29812E-08
 
   -0.13151E-08         0.13140E-07         0.00000E+00
    0.13140E-07        -0.26854E-07         0.00000E+00
    0.00000E+00         0.00000E+00        -0.56338E-08
 
   -0.18520E-08        -0.23468E-08         0.00000E+00
   -0.23468E-08        -0.11651E-07         0.00000E+00
    0.00000E+00         0.00000E+00        -0.27007E-08
 
   -0.55849E-08         0.19954E-08         0.00000E+00
    0.19954E-08        -0.20263E-08         0.00000E+00
    0.00000E+00         0.00000E+00        -0.15222E-08
 
    0.39674E-08         0.12000E-07         0.00000E+00
    0.12000E-07        -0.54850E-08         0.00000E+00
    0.00000E+00         0.00000E+00        -0.30353E-09
 
    0.30210E-08         0.95084E-08         0.00000E+00
    0.95084E-08        -0.20952E-07         0.00000E+00
    0.00000E+00         0.00000E+00        -0.35862E-08
 
    0.16563E-08         0.16848E-07         0.00000E+00
    0.16848E-07        -0.13235E-07         0.00000E+00
    0.00000E+00         0.00000E+00        -0.23158E-08
 
   -0.12149E-08         0.80367E-10         0.00000E+00
    0.80367E-10        -0.18010E-07         0.00000E+00
    0.00000E+00         0.00000E+00        -0.38450E-08
 
   -0.42390E-08        -0.51939E-08         0.00000E+00
   -0.51939E-08        -0.51926E-08         0.00000E+00
    0.00000E+00         0.00000E+00        -0.18863E-08
 
   -0.21684E-08        -0.38760E-09         0.00000E+00
   -0.38760E-09        -0.20513E-07         0.00000E+00
    0.00000E+00         0.00000E+00        -0.45363E-08
 
   -0.25875E-09        -0.39894E-09         0.00000E+00
   -0.39894E-09        -0.94804E-08         0.00000E+00
    0.00000E+00         0.00000E+00        -0.19478E-08
 
   -0.32439E-08        -0.45190E-08         0.00000E+00
   -0.45190E-08        -0.10961E-07         0.00000E+00
    0.00000E+00         0.00000E+00        -0.28410E-08
 
   -0.19879E-08         0.11621E-08         0.00000E+00
    0.11621E-08        -0.13979E-07         0.00000E+00
    0.00000E+00         0.00000E+00        -0.31935E-08
 
   -0.52249E-08        -0.23399E-08         0.00000E+00
   -0.23399E-08        -0.17089E-07         0.00000E+00
    0.00000E+00         0.00000E+00        -0.44628E-08
 
   -0.21147E-08        -0.13492E-07         0.00000E+00
   -0.13492E-07        -0.10828E-07         0.00000E+00
    0.00000E+00         0.00000E+00        -0.25884E-08
 
   -0.17274E-07        -0.63023E-07         0.00000E+00
   -0.63023E-07        -0.10638E-07         0.00000E+00
    0.00000E+00         0.00000E+00        -0.55825E-08
 
   -0.16482E-07         0.72051E-08         0.00000E+00
    0.72051E-08        -0.12468E-07         0.00000E+00
    0.00000E+00         0.00000E+00        -0.57901E-08
 
   -0.84268E-08        -0.10011E-07         0.00000E+00
   -0.10011E-07        -0.14019E-07         0.00000E+00
    0.00000E+00         0.00000E+00        -0.44891E-08
 
   -0.95858E-08         0.17673E-08         0.00000E+00
    0.17673E-08        -0.14013E-07         0.00000E+00
    0.00000E+00         0.00000E+00        -0.47197E-08
 
   -0.88017E-08         0.27762E-08         0.00000E+00
    0.27762E-08        -0.16864E-07         0.00000E+00
    0.00000E+00         0.00000E+00        -0.51332E-08
 
   -0.11100E-08         0.13673E-07         0.00000E+00
    0.13673E-07        -0.15409E-07         0.00000E+00
    0.00000E+00         0.00000E+00        -0.33037E-08
 
   -0.11807E-08         0.10490E-07         0.00000E+00
    0.10490E-07        -0.14678E-07         0.00000E+00
    0.00000E+00         0.00000E+00        -0.31718E-08
 
    0.83264E-09         0.27393E-08         0.00000E+00
    0.27393E-08        -0.17673E-07         0.00000E+00
    0.00000E+00         0.00000E+00        -0.33680E-08
 
    0.46324E-08        -0.69268E-08         0.00000E+00
   -0.69268E-08        -0.10905E-07         0.00000E+00
    0.00000E+00         0.00000E+00        -0.12545E-08
 
   -0.24674E-08        -0.29451E-08         0.00000E+00
   -0.29451E-08        -0.13459E-07         0.00000E+00
    0.00000E+00         0.00000E+00        -0.31854E-08
 
   -0.92811E-08        -0.30979E-08         0.00000E+00
   -0.30979E-08        -0.87206E-08         0.00000E+00
    0.00000E+00         0.00000E+00        -0.36004E-08
 
   -0.78189E-08        -0.42302E-08         0.00000E+00
   -0.42302E-08        -0.15681E-07         0.00000E+00
    0.00000E+00         0.00000E+00        -0.47001E-08
 
   -0.75361E-08         0.10545E-07         0.00000E+00
    0.10545E-07        -0.19993E-07         0.00000E+00
    0.00000E+00         0.00000E+00        -0.55058E-08
 
   -0.28897E-08         0.15736E-08         0.00000E+00
    0.15736E-08        -0.96106E-08         0.00000E+00
    0.00000E+00         0.00000E+00        -0.25001E-08
 
   -0.47855E-08        -0.38793E-07         0.00000E+00
   -0.38793E-07        -0.22336E-07         0.00000E+00
    0.00000E+00         0.00000E+00        -0.54243E-08
 
   -0.31744E-09        -0.75209E-07         0.00000E+00
   -0.75209E-07        -0.15033E-07         0.00000E+00
    0.00000E+00         0.00000E+00        -0.30701E-08
 
    0.62331E-08         0.24441E-08         0.00000E+00
    0.24441E-08         0.32139E-10         0.00000E+00
    0.00000E+00         0.00000E+00         0.12531E-08
 
    0.12852E-07        -0.88805E-08         0.00000E+00
   -0.88805E-08        -0.14125E-07         0.00000E+00
    0.00000E+00         0.00000E+00        -0.25462E-09
 
    0.19691E-08         0.17170E-07         0.00000E+00
    0.17170E-07        -0.27261E-07         0.00000E+00
    0.00000E+00         0.00000E+00        -0.50583E-08
 
   -0.94086E-08         0.24711E-08         0.00000E+00
    0.24711E-08        -0.18653E-07         0.00000E+00
    0.00000E+00         0.00000E+00        -0.56124E-08
 
   -0.94922E-08         0.16037E-07         0.00000E+00
    0.16037E-07        -0.13613E-07         0.00000E+00
    0.00000E+00         0.00000E+00        -0.46210E-08
 
    0.43430E-08         0.80122E-08         0.00000E+00
    0.80122E-08        -0.97904E-08         0.00000E+00
    0.00000E+00         0.00000E+00        -0.10895E-08
 
    0.60763E-08         0.51582E-08         0.00000E+00
    0.51582E-08        -0.17012E-07         0.00000E+00
    0.00000E+00         0.00000E+00        -0.21871E-08
 
   -0.57260E-08        -0.91927E-08         0.00000E+00
   -0.91927E-08        -0.15139E-07         0.00000E+00
    0.00000E+00         0.00000E+00        -0.41730E-08
 
   -0.13524E-07         0.19829E-08         0.00000E+00
    0.19829E-08        -0.13469E-07         0.00000E+00
    0.00000E+00         0.00000E+00        -0.53987E-08
 
   -0.64294E-08        -0.29113E-08         0.00000E+00
   -0.29113E-08        -0.11153E-07         0.00000E+00
    0.00000E+00         0.00000E+00        -0.35165E-08
 
   -0.34904E-08        -0.32201E-08         0.00000E+00
   -0.32201E-08        -0.17429E-07         0.00000E+00
    0.00000E+00         0.00000E+00        -0.41839E-08
 
   -0.66435E-08        -0.80870E-09         0.00000E+00
   -0.80870E-09        -0.13342E-07         0.00000E+00
    0.00000E+00         0.00000E+00        -0.39970E-08
 
   -0.52981E-08        -0.75256E-08         0.00000E+00
   -0.75256E-08        -0.12076E-07         0.00000E+00
    0.00000E+00         0.00000E+00        -0.34749E-08
 
   -0.17695E-07        -0.25247E-07         0.00000E+00
   -0.25247E-07        -0.42858E-07         0.00000E+00
    0.00000E+00         0.00000E+00        -0.12111E-07
 
    0.27279E-08        -0.58358E-07         0.00000E+00
   -0.58358E-07        -0.28620E-07         0.00000E+00
    0.00000E+00         0.00000E+00        -0.51783E-08
 
    0.85771E-08         0.85430E-08         0.00000E+00
    0.85430E-08        -0.79786E-08         0.00000E+00
    0.00000E+00         0.00000E+00         0.11969E-09
 
    0.59666E-08        -0.59549E-09         0.00000E+00
   -0.59549E-09        -0.17663E-07         0.00000E+00
    0.00000E+00         0.00000E+00        -0.23392E-08
 
    0.85955E-08         0.14417E-07         0.00000E+00
    0.14417E-07        -0.20143E-07         0.00000E+00
    0.00000E+00         0.00000E+00        -0.23094E-08
 
   -0.54169E-08         0.40798E-08         0.00000E+00
    0.40798E-08        -0.19093E-07         0.00000E+00
    0.00000E+00         0.00000E+00        -0.49019E-08
 
   -0.13498E-07         0.55520E-08         0.00000E+00
    0.55520E-08        -0.16555E-07         0.00000E+00
    0.00000E+00         0.00000E+00        -0.60106E-08
 
   -0.10600E-07         0.50727E-08         0.00000E+00
    0.50727E-08        -0.13457E-07         0.00000E+00
    0.00000E+00         0.00000E+00        -0.48113E-08
 
   -0.16996E-07         0.63556E-08         0.00000E+00
    0.63556E-08        -0.16686E-07         0.00000E+00
    0.00000E+00         0.00000E+00        -0.67364E-08
 
   -0.96853E-08        -0.91001E-08         0.00000E+00
   -0.91001E-08        -0.16519E-07         0.00000E+00
    0.00000E+00         0.00000E+00        -0.52409E-08
 
   -0.37028E-08         0.23376E-08         0.00000E+00
    0.23376E-08        -0.21070E-07         0.00000E+00
    0.00000E+00         0.00000E+00        -0.49545E-08
 
    0.80025E-09        -0.62044E-08         0.00000E+00
   -0.62044E-08        -0.77766E-08         0.00000E+00
    0.00000E+00         0.00000E+00        -0.13953E-08
 
   -0.28635E-08        -0.23722E-08         0.00000E+00
   -0.23722E-08        -0.11409E-07         0.00000E+00
    0.00000E+00         0.00000E+00        -0.28546E-08
 
   -0.76556E-08         0.81132E-08         0.00000E+00
    0.81132E-08        -0.91410E-08         0.00000E+00
    0.00000E+00         0.00000E+00        -0.33593E-08
 
   -0.90567E-08        -0.38207E-08         0.00000E+00
   -0.38207E-08        -0.19017E-07         0.00000E+00
    0.00000E+00         0.00000E+00        -0.56148E-08
 
   -0.14780E-07        -0.13761E-07         0.00000E+00
   -0.13761E-07        -0.32631E-07         0.00000E+00
    0.00000E+00         0.00000E+00        -0.94823E-08
 
   -0.24723E-08        -0.50195E-07         0.00000E+00
   -0.50195E-07        -0.19215E-07         0.00000E+00
    0.00000E+00         0.00000E+00        -0.43374E-08
 
   -0.62322E-08         0.12589E-07         0.00000E+00
    0.12589E-07        -0.13645E-07         0.00000E+00
    0.00000E+00         0.00000E+00        -0.39755E-08
 
   -0.12214E-07        -0.57921E-08         0.00000E+00
   -0.57921E-08        -0.11871E-07         0.00000E+00
    0.00000E+00         0.00000E+00        -0.48170E-08
 
   -0.63065E-09         0.10525E-07         0.00000E+00
    0.10525E-07        -0.13479E-07         0.00000E+00
    0.00000E+00         0.00000E+00        -0.28219E-08
 
    0.47179E-08         0.16684E-07         0.00000E+00
    0.16684E-07        -0.18657E-07         0.00000E+00
    0.00000E+00         0.00000E+00        -0.27879E-08
 
   -0.22093E-08         0.40930E-08         0.00000E+00
    0.40930E-08        -0.12911E-07         0.00000E+00
    0.00000E+00         0.00000E+00        -0.30240E-08
 
   -0.97647E-08         0.61771E-08         0.00000E+00
    0.61771E-08        -0.15210E-07         0.00000E+00
    0.00000E+00         0.00000E+00        -0.49950E-08
 
   -0.78914E-08         0.46154E-08         0.00000E+00
    0.46154E-08        -0.21073E-07         0.00000E+00
    0.00000E+00         0.00000E+00        -0.57928E-08
 
    0.42671E-10        -0.54967E-08         0.00000E+00
   -0.54967E-08        -0.13328E-07         0.00000E+00
    0.00000E+00         0.00000E+00        -0.26570E-08
 
   -0.75543E-08         0.35455E-08         0.00000E+00
    0.35455E-08        -0.18301E-07         0.00000E+00
    0.00000E+00         0.00000E+00        -0.51710E-08
 
   -0.11305E-07        -0.10304E-07         0.00000E+00
   -0.10304E-07        -0.14822E-07         0.00000E+00
    0.00000E+00         0.00000E+00        -0.52254E-08
 
   -0.25106E-08        -0.30164E-08         0.00000E+00
   -0.30164E-08        -0.60043E-08         0.00000E+00
    0.00000E+00         0.00000E+00        -0.17030E-08
 
   -0.34822E-08         0.56612E-08         0.00000E+00
    0.56612E-08        -0.11555E-07         0.00000E+00
    0.00000E+00         0.00000E+00        -0.30075E-08
 
   -0.62848E-08        -0.99739E-08         0.00000E+00
   -0.99739E-08        -0.17704E-07         0.00000E+00
    0.00000E+00         0.00000E+00        -0.47978E-08
 
   -0.42457E-08        -0.18178E-07         0.00000E+00
   -0.18178E-07        -0.11581E-07         0.00000E+00
    0.00000E+00         0.00000E+00        -0.31654E-08
 
   -0.77428E-08        -0.51532E-07         0.00000E+00
   -0.51532E-07        -0.49877E-08         0.00000E+00
    0.00000E+00         0.00000E+00        -0.25461E-08
 
   -0.27870E-08         0.18422E-07         0.00000E+00
    0.18422E-07        -0.64524E-08         0.00000E+00
    0.00000E+00         0.00000E+00        -0.18479E-08
 
    0.21734E-08         0.29296E-08         0.00000E+00
    0.29296E-08        -0.76247E-08         0.00000E+00
    0.00000E+00         0.00000E+00        -0.10903E-08
 
   -0.49072E-08         0.16529E-07         0.00000E+00
    0.16529E-07        -0.14669E-08         0.00000E+00
    0.00000E+00         0.00000E+00        -0.12748E-08
 
   -0.14593E-08         0.70585E-08         0.00000E+00
    0.70585E-08        -0.39493E-08         0.00000E+00
    0.00000E+00         0.00000E+00        -0.10817E-08
 
    0.38586E-08         0.25755E-08         0.00000E+00
    0.25755E-08        -0.19292E-07         0.00000E+00
    0.00000E+00         0.00000E+00        -0.30866E-08
 
    0.37766E-08         0.69705E-08         0.00000E+00
    0.69705E-08        -0.15390E-07         0.00000E+00
    0.00000E+00         0.00000E+00        -0.23227E-08
 
    0.35080E-08         0.22144E-08         0.00000E+00
    0.22144E-08        -0.26552E-07         0.00000E+00
    0.00000E+00         0.00000E+00        -0.46088E-08
 
    0.44638E-09        -0.99433E-08         0.00000E+00
   -0.99433E-08        -0.88441E-08         0.00000E+00
    0.00000E+00         0.00000E+00        -0.16795E-08
 
   -0.10780E-08         0.13193E-08         0.00000E+00
    0.13193E-08        -0.69854E-08         0.00000E+00
    0.00000E+00         0.00000E+00        -0.16127E-08
 
   -0.40283E-08        -0.95988E-08         0.00000E+00
   -0.95988E-08        -0.28021E-07         0.00000E+00
    0.00000E+00         0.00000E+00        -0.64098E-08
 
   -0.64934E-08         0.19058E-09         0.00000E+00
    0.19058E-09        -0.17466E-08         0.00000E+00
    0.00000E+00         0.00000E+00        -0.16480E-08
 
   -0.82265E-08         0.90424E-08         0.00000E+00
    0.90424E-08        -0.10394E-07         0.00000E+00
    0.00000E+00         0.00000E+00        -0.37241E-08
 
   -0.44641E-08        -0.81053E-08         0.00000E+00
   -0.81053E-08        -0.19809E-07         0.00000E+00
    0.00000E+00         0.00000E+00        -0.48547E-08
 
   -0.34511E-08        -0.15667E-07         0.00000E+00
   -0.15667E-07         0.54106E-08         0.00000E+00
    0.00000E+00         0.00000E+00         0.39191E-09
 
   -0.98997E-08        -0.57068E-07         0.00000E+00
   -0.57068E-07         0.33016E-08         0.00000E+00
    0.00000E+00         0.00000E+00        -0.13196E-08
 
   -0.61951E-08         0.11490E-07         0.00000E+00
    0.11490E-07        -0.69496E-08         0.00000E+00
    0.00000E+00         0.00000E+00        -0.26289E-08
 
   -0.15173E-07         0.41688E-09         0.00000E+00
    0.41688E-09        -0.92711E-08         0.00000E+00
    0.00000E+00         0.00000E+00        -0.48889E-08
 
   -0.22892E-07         0.12801E-07         0.00000E+00
    0.12801E-07         0.15399E-07         0.00000E+00
    0.00000E+00         0.00000E+00        -0.14987E-08
 
   -0.77072E-08        -0.15823E-08         0.00000E+00
   -0.15823E-08         0.49360E-09         0.00000E+00
    0.00000E+00         0.00000E+00        -0.14427E-08
 
    0.72023E-08         0.12528E-07         0.00000E+00
    0.12528E-07        -0.27761E-07         0.00000E+00
    0.00000E+00         0.00000E+00        -0.41117E-08
 
    0.10748E-07         0.10631E-07         0.00000E+00
    0.10631E-07        -0.22058E-07         0.00000E+00
    0.00000E+00         0.00000E+00        -0.22619E-08
 
    0.88554E-08         0.46400E-08         0.00000E+00
    0.46400E-08        -0.12497E-07         0.00000E+00
    0.00000E+00         0.00000E+00        -0.72829E-09
 
    0.89881E-08        -0.11108E-07         0.00000E+00
   -0.11108E-07         0.22086E-08         0.00000E+00
    0.00000E+00         0.00000E+00         0.22393E-08
 
    0.71347E-08        -0.57825E-09         0.00000E+00
   -0.57825E-09        -0.21162E-07         0.00000E+00
    0.00000E+00         0.00000E+00        -0.28055E-08
 
    0.69128E-08        -0.71306E-08         0.00000E+00
   -0.71306E-08        -0.21028E-07         0.00000E+00
    0.00000E+00         0.00000E+00        -0.28230E-08
 
    0.69324E-09         0.11417E-08         0.00000E+00
    0.11417E-08        -0.71064E-08         0.00000E+00
    0.00000E+00         0.00000E+00        -0.12826E-08
 
   -0.34139E-08         0.55445E-08         0.00000E+00
    0.55445E-08        -0.12855E-07         0.00000E+00
    0.00000E+00         0.00000E+00        -0.32538E-08
 
   -0.11528E-08        -0.56974E-08         0.00000E+00
   -0.56974E-08        -0.11753E-07         0.00000E+00
    0.00000E+00         0.00000E+00        -0.25812E-08
 
    0.12394E-08        -0.27291E-07         0.00000E+00
   -0.27291E-07         0.79438E-08         0.00000E+00
    0.00000E+00         0.00000E+00         0.18366E-08
 
   -0.80676E-08        -0.62484E-07         0.00000E+00
   -0.62484E-07        -0.23173E-08         0.00000E+00
    0.00000E+00         0.00000E+00        -0.20770E-08
 
   -0.68368E-08         0.46007E-08         0.00000E+00
    0.46007E-08         0.10696E-07         0.00000E+00
    0.00000E+00         0.00000E+00         0.77175E-09
 
   -0.15715E-07        -0.57026E-08         0.00000E+00
   -0.57026E-08         0.14285E-08         0.00000E+00
    0.00000E+00         0.00000E+00        -0.28573E-08
 
   -0.47745E-08         0.83414E-08         0.00000E+00
    0.83414E-08         0.60737E-09         0.00000E+00
    0.00000E+00         0.00000E+00        -0.83342E-09
 
   -0.43678E-08         0.73260E-08         0.00000E+00
    0.73260E-08        -0.12522E-07         0.00000E+00
    0.00000E+00         0.00000E+00        -0.33780E-08
 
   -0.36655E-08         0.13224E-07         0.00000E+00
    0.13224E-07        -0.15429E-07         0.00000E+00
    0.00000E+00         0.00000E+00        -0.38190E-08
 
    0.39981E-08         0.53549E-08         0.00000E+00
    0.53549E-08        -0.11679E-07         0.00000E+00
    0.00000E+00         0.00000E+00        -0.15363E-08
 
   -0.20185E-08         0.40172E-09         0.00000E+00
    0.40172E-09        -0.15682E-07         0.00000E+00
    0.00000E+00         0.00000E+00        -0.35401E-08
 
    0.85203E-09        -0.51173E-09         0.00000E+00
   -0.51173E-09        -0.10755E-07         0.00000E+00
    0.00000E+00         0.00000E+00        -0.19806E-08
 
   -0.21000E-08         0.85442E-08         0.00000E+00
    0.85442E-08        -0.30269E-07         0.00000E+00
    0.00000E+00         0.00000E+00        -0.64738E-08
 
   -0.71954E-09        -0.14347E-08         0.00000E+00
   -0.14347E-08        -0.29621E-08         0.00000E+00
    0.00000E+00         0.00000E+00        -0.73633E-09
 
    0.96217E-09        -0.23948E-08         0.00000E+00
   -0.23948E-08        -0.89216E-08         0.00000E+00
    0.00000E+00         0.00000E+00        -0.15919E-08
 
    0.18070E-10        -0.13736E-08         0.00000E+00
   -0.13736E-08        -0.16868E-07         0.00000E+00
    0.00000E+00         0.00000E+00        -0.33700E-08
 
   -0.58470E-08        -0.11102E-07         0.00000E+00
   -0.11102E-07        -0.15205E-07         0.00000E+00
    0.00000E+00         0.00000E+00        -0.42105E-08
 
   -0.52686E-08        -0.20094E-07         0.00000E+00
   -0.20094E-07        -0.11030E-07         0.00000E+00
    0.00000E+00         0.00000E+00        -0.32597E-08
 
   -0.77619E-08        -0.64898E-07         0.00000E+00
   -0.64898E-07         0.12408E-08         0.00000E+00
    0.00000E+00         0.00000E+00        -0.13042E-08
 
   -0.87017E-08         0.19923E-08         0.00000E+00
    0.19923E-08         0.18320E-07         0.00000E+00
    0.00000E+00         0.00000E+00         0.19237E-08
 
   -0.50712E-08         0.75266E-08         0.00000E+00
    0.75266E-08        -0.29769E-08         0.00000E+00
    0.00000E+00         0.00000E+00        -0.16096E-08
 
    0.10026E-09         0.80657E-08         0.00000E+00
    0.80657E-08        -0.12375E-07         0.00000E+00
    0.00000E+00         0.00000E+00        -0.24550E-08
 
   -0.79297E-08         0.28849E-08         0.00000E+00
    0.28849E-08        -0.16311E-07         0.00000E+00
    0.00000E+00         0.00000E+00        -0.48481E-08
 
   -0.58258E-08        -0.48173E-08         0.00000E+00
   -0.48173E-08        -0.48282E-10         0.00000E+00
    0.00000E+00         0.00000E+00        -0.11748E-08
 
   -0.25694E-08         0.13379E-07         0.00000E+00
    0.13379E-07        -0.74719E-08         0.00000E+00
    0.00000E+00         0.00000E+00        -0.20083E-08
 
   -0.46538E-08         0.91831E-08         0.00000E+00
    0.91831E-08        -0.28021E-07         0.00000E+00
    0.00000E+00         0.00000E+00        -0.65349E-08
 
   -0.52573E-09        -0.24081E-08         0.00000E+00
   -0.24081E-08        -0.21843E-07         0.00000E+00
    0.00000E+00         0.00000E+00        -0.44737E-08
 
   -0.45107E-08        -0.20302E-08         0.00000E+00
   -0.20302E-08        -0.10561E-07         0.00000E+00
    0.00000E+00         0.00000E+00        -0.30143E-08
 
   -0.44650E-08        -0.59474E-08         0.00000E+00
   -0.59474E-08        -0.63449E-08         0.00000E+00
    0.00000E+00         0.00000E+00        -0.21620E-08
 
   -0.87376E-08         0.56424E-08         0.00000E+00
    0.56424E-08        -0.17759E-07         0.00000E+00
    0.00000E+00         0.00000E+00        -0.52993E-08
 
   -0.12848E-08         0.12165E-07         0.00000E+00
    0.12165E-07        -0.15176E-07         0.00000E+00
    0.00000E+00         0.00000E+00        -0.32922E-08
 
    0.47453E-08        -0.18965E-08         0.00000E+00
   -0.18965E-08        -0.10364E-07         0.00000E+00
    0.00000E+00         0.00000E+00        -0.11237E-08
 
   -0.44457E-08        -0.24141E-07         0.00000E+00
   -0.24141E-07        -0.32568E-07         0.00000E+00
    0.00000E+00         0.00000E+00        -0.74028E-08
 
   -0.64360E-08        -0.50944E-07         0.00000E+00
   -0.50944E-07         0.64234E-08         0.00000E+00
    0.00000E+00         0.00000E+00        -0.25147E-11
 
   -0.17723E-07         0.17808E-07         0.00000E+00
    0.17808E-07        -0.90767E-08         0.00000E+00
    0.00000E+00         0.00000E+00        -0.53599E-08
 
   -0.71281E-08         0.11998E-07         0.00000E+00
    0.11998E-07        -0.52072E-09         0.00000E+00
    0.00000E+00         0.00000E+00        -0.15298E-08
 
    0.92606E-09         0.10800E-07         0.00000E+00
    0.10800E-07        -0.86437E-09         0.00000E+00
    0.00000E+00         0.00000E+00         0.12339E-10
 
   -0.51066E-08         0.17415E-07         0.00000E+00
    0.17415E-07        -0.12724E-07         0.00000E+00
    0.00000E+00         0.00000E+00        -0.35661E-08
 
   -0.80428E-09         0.72504E-09         0.00000E+00
    0.72504E-09         0.71485E-08         0.00000E+00
    0.00000E+00         0.00000E+00         0.12688E-08
 
   -0.51012E-08         0.19171E-07         0.00000E+00
    0.19171E-07        -0.19992E-07         0.00000E+00
    0.00000E+00         0.00000E+00        -0.50187E-08
 
   -0.12258E-07         0.69221E-08         0.00000E+00
    0.69221E-08        -0.17593E-07         0.00000E+00
    0.00000E+00         0.00000E+00        -0.59701E-08
 
   -0.13139E-07        -0.10963E-07         0.00000E+00
   -0.10963E-07        -0.18060E-07         0.00000E+00
    0.00000E+00         0.00000E+00        -0.62397E-08
 
   -0.25121E-08         0.22871E-08         0.00000E+00
    0.22871E-08        -0.74145E-08         0.00000E+00
    0.00000E+00         0.00000E+00        -0.19853E-08
 
   -0.64819E-08         0.10780E-08         0.00000E+00
    0.10780E-08        -0.19320E-07         0.00000E+00
    0.00000E+00         0.00000E+00        -0.51605E-08
 
   -0.96159E-08         0.37947E-08         0.00000E+00
    0.37947E-08        -0.24825E-07         0.00000E+00
    0.00000E+00         0.00000E+00        -0.68882E-08
 
   -0.88231E-08        -0.45899E-09         0.00000E+00
   -0.45899E-09        -0.14429E-07         0.00000E+00
    0.00000E+00         0.00000E+00        -0.46504E-08
 
   -0.49681E-08        -0.47888E-08         0.00000E+00
   -0.47888E-08        -0.32976E-08         0.00000E+00
    0.00000E+00         0.00000E+00        -0.16532E-08
 
    0.65977E-08        -0.13809E-07         0.00000E+00
   -0.13809E-07         0.71562E-09         0.00000E+00
    0.00000E+00         0.00000E+00         0.14627E-08
 
   -0.12255E-08        -0.56179E-07         0.00000E+00
   -0.56179E-07        -0.21262E-07         0.00000E+00
    0.00000E+00         0.00000E+00        -0.44975E-08
 
   -0.12161E-07         0.12283E-07         0.00000E+00
    0.12283E-07        -0.30018E-07         0.00000E+00
    0.00000E+00         0.00000E+00        -0.84357E-08
 
   -0.52246E-08         0.79895E-09         0.00000E+00
    0.79895E-09         0.20914E-07         0.00000E+00
    0.00000E+00         0.00000E+00         0.31378E-08
 
    0.59969E-08        -0.96954E-09         0.00000E+00
   -0.96954E-09         0.14060E-08         0.00000E+00
    0.00000E+00         0.00000E+00         0.14806E-08
 
    0.36900E-08         0.27054E-07         0.00000E+00
    0.27054E-07        -0.36310E-07         0.00000E+00
    0.00000E+00         0.00000E+00        -0.65239E-08
 
    0.18836E-08         0.12516E-07         0.00000E+00
    0.12516E-07         0.31455E-07         0.00000E+00
    0.00000E+00         0.00000E+00         0.66676E-08
 
   -0.78396E-08         0.72033E-08         0.00000E+00
    0.72033E-08         0.84114E-08         0.00000E+00
    0.00000E+00         0.00000E+00         0.11436E-09
 
   -0.65199E-08        -0.20880E-08         0.00000E+00
   -0.20880E-08        -0.22396E-07         0.00000E+00
    0.00000E+00         0.00000E+00        -0.57831E-08
 
   -0.43816E-08        -0.91795E-08         0.00000E+00
   -0.91795E-08        -0.16426E-07         0.00000E+00
    0.00000E+00         0.00000E+00        -0.41615E-08
 
   -0.80077E-08         0.27882E-08         0.00000E+00
    0.27882E-08        -0.16676E-07         0.00000E+00
    0.00000E+00         0.00000E+00        -0.49366E-08
 
   -0.54787E-08        -0.56389E-08         0.00000E+00
   -0.56389E-08        -0.13980E-07         0.00000E+00
    0.00000E+00         0.00000E+00        -0.38918E-08
 
   -0.69741E-08         0.27619E-10         0.00000E+00
    0.27619E-10        -0.27642E-07         0.00000E+00
    0.00000E+00         0.00000E+00        -0.69233E-08
 
   -0.71127E-08         0.54443E-08         0.00000E+00
    0.54443E-08        -0.23007E-07         0.00000E+00
    0.00000E+00         0.00000E+00        -0.60240E-08
 
    0.16683E-08        -0.22001E-08         0.00000E+00
   -0.22001E-08         0.85062E-08         0.00000E+00
    0.00000E+00         0.00000E+00         0.20349E-08
 
    0.18606E-08        -0.20955E-07         0.00000E+00
   -0.20955E-07         0.38407E-07         0.00000E+00
    0.00000E+00         0.00000E+00         0.80536E-08
 
   -0.71814E-08        -0.66349E-07         0.00000E+00
   -0.66349E-07        -0.37490E-07         0.00000E+00
    0.00000E+00         0.00000E+00        -0.89343E-08
 
    0.59912E-08         0.78612E-08         0.00000E+00
    0.78612E-08        -0.49584E-07         0.00000E+00
    0.00000E+00         0.00000E+00        -0.87186E-08
 
    0.17596E-07         0.21568E-08         0.00000E+00
    0.21568E-08         0.24246E-07         0.00000E+00
    0.00000E+00         0.00000E+00         0.83684E-08
 
    0.44755E-08         0.24550E-09         0.00000E+00
    0.24550E-09         0.11623E-07         0.00000E+00
    0.00000E+00         0.00000E+00         0.32197E-08
 
   -0.87990E-08         0.90334E-08         0.00000E+00
    0.90334E-08        -0.46877E-07         0.00000E+00
    0.00000E+00         0.00000E+00        -0.11135E-07
 
    0.63433E-08         0.28841E-08         0.00000E+00
    0.28841E-08         0.33880E-07         0.00000E+00
    0.00000E+00         0.00000E+00         0.80447E-08
 
    0.62854E-08         0.86455E-08         0.00000E+00
    0.86455E-08         0.35353E-07         0.00000E+00
    0.00000E+00         0.00000E+00         0.83277E-08
 
    0.28994E-08         0.11932E-07         0.00000E+00
    0.11932E-07        -0.28437E-07         0.00000E+00
    0.00000E+00         0.00000E+00        -0.51075E-08
 
   -0.22967E-08        -0.53662E-08         0.00000E+00
   -0.53662E-08        -0.16197E-07         0.00000E+00
    0.00000E+00         0.00000E+00        -0.36988E-08
 
   -0.11839E-07         0.37955E-08         0.00000E+00
    0.37955E-08        -0.13480E-07         0.00000E+00
    0.00000E+00         0.00000E+00        -0.50638E-08
 
   -0.83458E-08        -0.89850E-08         0.00000E+00
   -0.89850E-08        -0.93677E-08         0.00000E+00
    0.00000E+00         0.00000E+00        -0.35427E-08
 
   -0.35743E-08        -0.30296E-08         0.00000E+00
   -0.30296E-08        -0.28384E-07         0.00000E+00
    0.00000E+00         0.00000E+00        -0.63916E-08
 
   -0.11617E-07        -0.24864E-08         0.00000E+00
   -0.24864E-08        -0.34789E-07         0.00000E+00
    0.00000E+00         0.00000E+00        -0.92813E-08
 
   -0.36773E-08        -0.12258E-07         0.00000E+00
   -0.12258E-07         0.98376E-08         0.00000E+00
    0.00000E+00         0.00000E+00         0.12321E-08
 
   -0.11303E-07        -0.41412E-07         0.00000E+00
   -0.41412E-07        -0.43235E-07         0.00000E+00
    0.00000E+00         0.00000E+00        -0.10908E-07
 
    0.94697E-08        -0.64753E-07         0.00000E+00
   -0.64753E-07        -0.30453E-07         0.00000E+00
    0.00000E+00         0.00000E+00        -0.41966E-08
 
    0.12780E-07         0.11441E-07         0.00000E+00
    0.11441E-07        -0.54830E-07         0.00000E+00
    0.00000E+00         0.00000E+00        -0.84100E-08
 
    0.18165E-07         0.29146E-08         0.00000E+00
    0.29146E-08         0.56380E-08         0.00000E+00
    0.00000E+00         0.00000E+00         0.47605E-08
 
    0.35873E-08         0.41237E-08         0.00000E+00
    0.41237E-08         0.14024E-07         0.00000E+00
    0.00000E+00         0.00000E+00         0.35222E-08
 
   -0.16842E-08         0.11399E-07         0.00000E+00
    0.11399E-07        -0.58096E-08         0.00000E+00
    0.00000E+00         0.00000E+00        -0.14987E-08
 
    0.51796E-08         0.85504E-08         0.00000E+00
    0.85504E-08         0.66582E-08         0.00000E+00
    0.00000E+00         0.00000E+00         0.23676E-08
 
    0.10936E-08         0.66339E-08         0.00000E+00
    0.66339E-08         0.15524E-07         0.00000E+00
    0.00000E+00         0.00000E+00         0.33235E-08
 
   -0.13501E-07         0.13734E-07         0.00000E+00
    0.13734E-07        -0.17099E-07         0.00000E+00
    0.00000E+00         0.00000E+00        -0.61201E-08
 
   -0.63829E-08        -0.10702E-08         0.00000E+00
   -0.10702E-08        -0.56065E-08         0.00000E+00
    0.00000E+00         0.00000E+00        -0.23979E-08
 
   -0.60436E-08         0.38743E-08         0.00000E+00
    0.38743E-08        -0.69763E-08         0.00000E+00
    0.00000E+00         0.00000E+00        -0.26040E-08
 
   -0.39782E-08        -0.15368E-07         0.00000E+00
   -0.15368E-07        -0.33202E-08         0.00000E+00
    0.00000E+00         0.00000E+00        -0.14597E-08
 
   -0.12745E-08        -0.16944E-07         0.00000E+00
   -0.16944E-07         0.91149E-09         0.00000E+00
    0.00000E+00         0.00000E+00        -0.72597E-10
 
   -0.13310E-07        -0.10671E-07         0.00000E+00
   -0.10671E-07        -0.55397E-07         0.00000E+00
    0.00000E+00         0.00000E+00        -0.13741E-07
 
   -0.21814E-08        -0.16697E-07         0.00000E+00
   -0.16697E-07        -0.11266E-07         0.00000E+00
    0.00000E+00         0.00000E+00        -0.26894E-08
 
   -0.11866E-07        -0.80395E-08         0.00000E+00
   -0.80395E-08        -0.11411E-06         0.00000E+00
    0.00000E+00         0.00000E+00        -0.25195E-07
 
    0.15860E-07        -0.43572E-07         0.00000E+00
   -0.43572E-07        -0.37387E-07         0.00000E+00
    0.00000E+00         0.00000E+00        -0.43055E-08
 
    0.14200E-07         0.16820E-07         0.00000E+00
    0.16820E-07        -0.89340E-08         0.00000E+00
    0.00000E+00         0.00000E+00         0.10532E-08
 
    0.74065E-08         0.81710E-08         0.00000E+00
    0.81710E-08        -0.78388E-08         0.00000E+00
    0.00000E+00         0.00000E+00        -0.86458E-10
 
    0.40699E-08        -0.98352E-08         0.00000E+00
   -0.98352E-08         0.14906E-07         0.00000E+00
    0.00000E+00         0.00000E+00         0.37952E-08
 
   -0.30093E-08         0.60090E-08         0.00000E+00
    0.60090E-08         0.23977E-08         0.00000E+00
    0.00000E+00         0.00000E+00        -0.12233E-09
 
   -0.56795E-08         0.89524E-08         0.00000E+00
    0.89524E-08        -0.48016E-08         0.00000E+00
    0.00000E+00         0.00000E+00        -0.20962E-08
 
   -0.11367E-07         0.91950E-08         0.00000E+00
    0.91950E-08         0.10880E-08         0.00000E+00
    0.00000E+00         0.00000E+00        -0.20558E-08
 
   -0.14914E-07        -0.45570E-09         0.00000E+00
   -0.45570E-09        -0.67750E-08         0.00000E+00
    0.00000E+00         0.00000E+00        -0.43379E-08
 
   -0.13383E-07        -0.14731E-08         0.00000E+00
   -0.14731E-08        -0.50184E-08         0.00000E+00
    0.00000E+00         0.00000E+00        -0.36802E-08
 
   -0.17841E-07         0.69031E-08         0.00000E+00
    0.69031E-08        -0.58713E-08         0.00000E+00
    0.00000E+00         0.00000E+00        -0.47424E-08
 
   -0.16277E-07        -0.81840E-08         0.00000E+00
   -0.81840E-08        -0.53545E-09         0.00000E+00
    0.00000E+00         0.00000E+00        -0.33625E-08
 
   -0.12227E-07         0.35711E-08         0.00000E+00
    0.35711E-08         0.74915E-08         0.00000E+00
    0.00000E+00         0.00000E+00        -0.94712E-09
 
   -0.15461E-07         0.59248E-08         0.00000E+00
    0.59248E-08        -0.51555E-07         0.00000E+00
    0.00000E+00         0.00000E+00        -0.13403E-07
 
   -0.63929E-08        -0.13952E-07         0.00000E+00
   -0.13952E-07        -0.35694E-07         0.00000E+00
    0.00000E+00         0.00000E+00        -0.84173E-08
 
    0.10733E-07        -0.92223E-08         0.00000E+00
   -0.92223E-08        -0.50825E-07         0.00000E+00
    0.00000E+00         0.00000E+00        -0.80184E-08
 
    0.38053E-08        -0.53702E-07         0.00000E+00
   -0.53702E-07        -0.42881E-07         0.00000E+00
    0.00000E+00         0.00000E+00        -0.78151E-08
 
    0.89289E-08         0.11172E-07         0.00000E+00
    0.11172E-07         0.20600E-07         0.00000E+00
    0.00000E+00         0.00000E+00         0.59058E-08
 
    0.62038E-09         0.17603E-07         0.00000E+00
    0.17603E-07         0.27366E-08         0.00000E+00
    0.00000E+00         0.00000E+00         0.67140E-09
 
   -0.20963E-07         0.27454E-08         0.00000E+00
    0.27454E-08         0.11549E-07         0.00000E+00
    0.00000E+00         0.00000E+00        -0.18827E-08
 
   -0.26579E-07         0.16332E-08         0.00000E+00
    0.16332E-08        -0.11624E-07         0.00000E+00
    0.00000E+00         0.00000E+00        -0.76407E-08
 
   -0.11654E-07         0.76555E-08         0.00000E+00
    0.76555E-08        -0.94939E-08         0.00000E+00
    0.00000E+00         0.00000E+00        -0.42295E-08
 
   -0.18952E-07         0.12067E-07         0.00000E+00
    0.12067E-07         0.28548E-08         0.00000E+00
    0.00000E+00         0.00000E+00        -0.32194E-08
 
   -0.26755E-07        -0.39929E-08         0.00000E+00
   -0.39929E-08        -0.90753E-08         0.00000E+00
    0.00000E+00         0.00000E+00        -0.71661E-08
 
   -0.15304E-07        -0.48877E-08         0.00000E+00
   -0.48877E-08        -0.66912E-08         0.00000E+00
    0.00000E+00         0.00000E+00        -0.43990E-08
 
   -0.96091E-08         0.45350E-08         0.00000E+00
    0.45350E-08        -0.10103E-07         0.00000E+00
    0.00000E+00         0.00000E+00        -0.39425E-08
 
   -0.93691E-08        -0.62523E-08         0.00000E+00
   -0.62523E-08        -0.21986E-08         0.00000E+00
    0.00000E+00         0.00000E+00        -0.23135E-08
 
   -0.43025E-08        -0.46635E-09         0.00000E+00
   -0.46635E-09        -0.30430E-08         0.00000E+00
    0.00000E+00         0.00000E+00        -0.14691E-08
 
   -0.55867E-08         0.51926E-08         0.00000E+00
    0.51926E-08        -0.27603E-07         0.00000E+00
    0.00000E+00         0.00000E+00        -0.66379E-08
 
   -0.80760E-08        -0.56004E-08         0.00000E+00
   -0.56004E-08        -0.39158E-07         0.00000E+00
    0.00000E+00         0.00000E+00        -0.94468E-08
 
    0.30451E-07        -0.59783E-08         0.00000E+00
   -0.59783E-08         0.65092E-07         0.00000E+00
    0.00000E+00         0.00000E+00         0.19109E-07
 
   -0.15309E-07        -0.53998E-07         0.00000E+00
   -0.53998E-07        -0.49959E-07         0.00000E+00
    0.00000E+00         0.00000E+00        -0.13053E-07
 
   -0.26607E-08         0.94111E-08         0.00000E+00
    0.94111E-08         0.29791E-07         0.00000E+00
    0.00000E+00         0.00000E+00         0.54260E-08
 
   -0.17187E-07         0.91865E-08         0.00000E+00
    0.91865E-08         0.47677E-08         0.00000E+00
    0.00000E+00         0.00000E+00        -0.24839E-08
 
   -0.13948E-07         0.10431E-07         0.00000E+00
    0.10431E-07         0.86660E-08         0.00000E+00
    0.00000E+00         0.00000E+00        -0.10564E-08
 
   -0.19216E-07        -0.64101E-08         0.00000E+00
   -0.64101E-08        -0.14785E-07         0.00000E+00
    0.00000E+00         0.00000E+00        -0.68003E-08
 
   -0.23307E-07         0.14591E-07         0.00000E+00
    0.14591E-07        -0.11834E-08         0.00000E+00
    0.00000E+00         0.00000E+00        -0.48980E-08
 
   -0.22143E-07         0.68016E-08         0.00000E+00
    0.68016E-08        -0.51053E-08         0.00000E+00
    0.00000E+00         0.00000E+00        -0.54497E-08
 
   -0.90705E-08        -0.11432E-08         0.00000E+00
   -0.11432E-08        -0.97445E-08         0.00000E+00
    0.00000E+00         0.00000E+00        -0.37630E-08
 
   -0.54624E-08        -0.41634E-08         0.00000E+00
   -0.41634E-08        -0.44290E-08         0.00000E+00
    0.00000E+00         0.00000E+00        -0.19783E-08
 
   -0.14308E-08         0.89434E-08         0.00000E+00
    0.89434E-08        -0.54658E-08         0.00000E+00
    0.00000E+00         0.00000E+00        -0.13793E-08
 
   -0.63798E-08        -0.91062E-08         0.00000E+00
   -0.91062E-08        -0.70966E-08         0.00000E+00
    0.00000E+00         0.00000E+00        -0.26953E-08
 
   -0.13807E-07        -0.19247E-08         0.00000E+00
   -0.19247E-08        -0.19530E-07         0.00000E+00
    0.00000E+00         0.00000E+00        -0.66675E-08
 
   -0.64867E-08         0.43235E-08         0.00000E+00
    0.43235E-08        -0.19463E-07         0.00000E+00
    0.00000E+00         0.00000E+00        -0.51899E-08
 
   -0.55154E-08        -0.57374E-08         0.00000E+00
   -0.57374E-08        -0.28623E-07         0.00000E+00
    0.00000E+00         0.00000E+00        -0.68277E-08
 
    0.20706E-07        -0.56289E-07         0.00000E+00
   -0.56289E-07         0.53025E-07         0.00000E+00
    0.00000E+00         0.00000E+00         0.14746E-07
 
   -0.12006E-07        -0.81449E-07         0.00000E+00
   -0.81449E-07        -0.49821E-07         0.00000E+00
    0.00000E+00         0.00000E+00        -0.12365E-07
 
    0.12149E-07         0.86827E-09         0.00000E+00
    0.86827E-09         0.46379E-07         0.00000E+00
    0.00000E+00         0.00000E+00         0.11706E-07
 
   -0.23220E-08        -0.21563E-08         0.00000E+00
   -0.21563E-08        -0.13556E-07         0.00000E+00
    0.00000E+00         0.00000E+00        -0.31756E-08
 
    0.32001E-07         0.45693E-09         0.00000E+00
    0.45693E-09         0.26903E-07         0.00000E+00
    0.00000E+00         0.00000E+00         0.11781E-07
 
    0.95810E-08        -0.32398E-08         0.00000E+00
   -0.32398E-08        -0.33033E-07         0.00000E+00
    0.00000E+00         0.00000E+00        -0.46904E-08
 
   -0.46632E-08         0.19022E-07         0.00000E+00
    0.19022E-07         0.36117E-07         0.00000E+00
    0.00000E+00         0.00000E+00         0.62907E-08
 
   -0.17220E-07        -0.58904E-08         0.00000E+00
   -0.58904E-08        -0.30944E-07         0.00000E+00
    0.00000E+00         0.00000E+00        -0.96328E-08
 
   -0.35703E-08         0.69712E-09         0.00000E+00
    0.69712E-09        -0.13088E-07         0.00000E+00
    0.00000E+00         0.00000E+00        -0.33317E-08
 
   -0.68975E-08        -0.38996E-08         0.00000E+00
   -0.38996E-08        -0.12226E-07         0.00000E+00
    0.00000E+00         0.00000E+00        -0.38247E-08
 
    0.62589E-08        -0.73201E-09         0.00000E+00
   -0.73201E-09         0.32923E-07         0.00000E+00
    0.00000E+00         0.00000E+00         0.78364E-08
 
   -0.25465E-08        -0.12393E-07         0.00000E+00
   -0.12393E-07        -0.34767E-07         0.00000E+00
    0.00000E+00         0.00000E+00        -0.74626E-08
 
   -0.47031E-08         0.32777E-08         0.00000E+00
    0.32777E-08        -0.40391E-07         0.00000E+00
    0.00000E+00         0.00000E+00        -0.90188E-08
 
    0.25790E-08         0.10899E-08         0.00000E+00
    0.10899E-08         0.84641E-08         0.00000E+00
    0.00000E+00         0.00000E+00         0.22086E-08
 
   -0.57829E-08        -0.62283E-08         0.00000E+00
   -0.62283E-08        -0.26102E-07         0.00000E+00
    0.00000E+00         0.00000E+00        -0.63770E-08
 
   -0.57275E-08        -0.37472E-07         0.00000E+00
   -0.37472E-07        -0.35149E-07         0.00000E+00
    0.00000E+00         0.00000E+00        -0.81753E-08
 
   -0.37893E-08        -0.68420E-07         0.00000E+00
   -0.68420E-07        -0.45645E-07         0.00000E+00
    0.00000E+00         0.00000E+00        -0.98870E-08
 
   -0.11972E-08         0.14535E-07         0.00000E+00
    0.14535E-07         0.26886E-07         0.00000E+00
    0.00000E+00         0.00000E+00         0.51378E-08
 
   -0.74307E-08         0.71631E-08         0.00000E+00
    0.71631E-08        -0.37942E-07         0.00000E+00
    0.00000E+00         0.00000E+00        -0.90746E-08
 
    0.17845E-07         0.27189E-08         0.00000E+00
    0.27189E-08         0.39519E-07         0.00000E+00
    0.00000E+00         0.00000E+00         0.11473E-07
 
   -0.70134E-08        -0.13394E-08         0.00000E+00
   -0.13394E-08        -0.16346E-07         0.00000E+00
    0.00000E+00         0.00000E+00        -0.46720E-08
 
   -0.14885E-07         0.12089E-07         0.00000E+00
    0.12089E-07         0.11400E-07         0.00000E+00
    0.00000E+00         0.00000E+00        -0.69716E-09
 
   -0.16954E-07        -0.83949E-08         0.00000E+00
   -0.83949E-08        -0.54218E-07         0.00000E+00
    0.00000E+00         0.00000E+00        -0.14234E-07
 
   -0.22926E-08         0.63975E-08         0.00000E+00
    0.63975E-08        -0.54238E-08         0.00000E+00
    0.00000E+00         0.00000E+00        -0.15433E-08
 
   -0.10220E-07        -0.22058E-07         0.00000E+00
   -0.22058E-07         0.10066E-07         0.00000E+00
    0.00000E+00         0.00000E+00        -0.30694E-10
 
    0.13492E-10        -0.95148E-08         0.00000E+00
   -0.95148E-08         0.29673E-07         0.00000E+00
    0.00000E+00         0.00000E+00         0.59373E-08
 
   -0.10209E-07        -0.13944E-07         0.00000E+00
   -0.13944E-07        -0.63641E-07         0.00000E+00
    0.00000E+00         0.00000E+00        -0.14770E-07
 
    0.80381E-09        -0.58617E-08         0.00000E+00
   -0.58617E-08        -0.37496E-07         0.00000E+00
    0.00000E+00         0.00000E+00        -0.73384E-08
 
   -0.18425E-08         0.27432E-09         0.00000E+00
    0.27432E-09        -0.89279E-08         0.00000E+00
    0.00000E+00         0.00000E+00        -0.21541E-08
 
   -0.33970E-08         0.16112E-08         0.00000E+00
    0.16112E-08        -0.56992E-08         0.00000E+00
    0.00000E+00         0.00000E+00        -0.18192E-08
 
   -0.24511E-08         0.25777E-08         0.00000E+00
    0.25777E-08        -0.20057E-07         0.00000E+00
    0.00000E+00         0.00000E+00        -0.45016E-08
 
    0.97655E-08        -0.42565E-07         0.00000E+00
   -0.42565E-07        -0.88317E-08         0.00000E+00
    0.00000E+00         0.00000E+00         0.18676E-09
 
    0.12622E-07         0.14724E-07         0.00000E+00
    0.14724E-07         0.13506E-07         0.00000E+00
    0.00000E+00         0.00000E+00         0.52256E-08
 
   -0.15247E-08        -0.97022E-08         0.00000E+00
   -0.97022E-08        -0.22451E-07         0.00000E+00
    0.00000E+00         0.00000E+00        -0.47952E-08
 
    0.99281E-08        -0.17373E-07         0.00000E+00
   -0.17373E-07         0.43699E-07         0.00000E+00
    0.00000E+00         0.00000E+00         0.10725E-07
 
   -0.74906E-08         0.64657E-08         0.00000E+00
    0.64657E-08         0.14357E-07         0.00000E+00
    0.00000E+00         0.00000E+00         0.13734E-08
 
   -0.12974E-07         0.14946E-07         0.00000E+00
    0.14946E-07        -0.41211E-07         0.00000E+00
    0.00000E+00         0.00000E+00        -0.10837E-07
 
   -0.39196E-08        -0.27360E-07         0.00000E+00
   -0.27360E-07        -0.38491E-07         0.00000E+00
    0.00000E+00         0.00000E+00        -0.84820E-08
 
    0.15111E-08        -0.65912E-08         0.00000E+00
   -0.65912E-08         0.20606E-08         0.00000E+00
    0.00000E+00         0.00000E+00         0.71434E-09
 
    0.91992E-08        -0.19732E-07         0.00000E+00
   -0.19732E-07         0.24146E-07         0.00000E+00
    0.00000E+00         0.00000E+00         0.66691E-08
 
    0.44863E-08         0.38559E-08         0.00000E+00
    0.38559E-08        -0.14417E-07         0.00000E+00
    0.00000E+00         0.00000E+00        -0.19861E-08
 
   -0.54891E-08        -0.11307E-07         0.00000E+00
   -0.11307E-07        -0.45428E-07         0.00000E+00
    0.00000E+00         0.00000E+00        -0.10183E-07
 
    0.45535E-08        -0.30988E-08         0.00000E+00
   -0.30988E-08        -0.35832E-07         0.00000E+00
    0.00000E+00         0.00000E+00        -0.62558E-08
 
    0.64677E-08         0.35962E-08         0.00000E+00
    0.35962E-08        -0.28928E-07         0.00000E+00
    0.00000E+00         0.00000E+00        -0.44920E-08
 
    0.36654E-08        -0.88175E-08         0.00000E+00
   -0.88175E-08         0.11915E-07         0.00000E+00
    0.00000E+00         0.00000E+00         0.31161E-08
 
    0.20044E-07        -0.19867E-08         0.00000E+00
   -0.19867E-08         0.53570E-07         0.00000E+00
    0.00000E+00         0.00000E+00         0.14723E-07
 
   -0.14924E-07        -0.48948E-07         0.00000E+00
   -0.48948E-07         0.49961E-07         0.00000E+00
    0.00000E+00         0.00000E+00         0.70073E-08
 
   -0.32170E-07         0.18810E-08         0.00000E+00
    0.18810E-08         0.54405E-08         0.00000E+00
    0.00000E+00         0.00000E+00        -0.53460E-08
 
   -0.21296E-07        -0.23231E-07         0.00000E+00
   -0.23231E-07         0.10680E-08         0.00000E+00
    0.00000E+00         0.00000E+00        -0.40455E-08
 
   -0.40760E-08        -0.17094E-07         0.00000E+00
   -0.17094E-07         0.18383E-07         0.00000E+00
    0.00000E+00         0.00000E+00         0.28613E-08
 
   -0.42975E-09         0.15411E-07         0.00000E+00
    0.15411E-07         0.27125E-08         0.00000E+00
    0.00000E+00         0.00000E+00         0.45655E-09
 
   -0.70567E-08         0.39425E-08         0.00000E+00
    0.39425E-08        -0.33462E-07         0.00000E+00
    0.00000E+00         0.00000E+00        -0.81038E-08
 
   -0.63153E-08        -0.29069E-07         0.00000E+00
   -0.29069E-07        -0.35434E-07         0.00000E+00
    0.00000E+00         0.00000E+00        -0.83499E-08
 
   -0.16086E-08         0.61385E-08         0.00000E+00
    0.61385E-08        -0.13619E-07         0.00000E+00
    0.00000E+00         0.00000E+00        -0.30456E-08
 
    0.43900E-08        -0.11977E-07         0.00000E+00
   -0.11977E-07         0.55152E-08         0.00000E+00
    0.00000E+00         0.00000E+00         0.19810E-08
 
   -0.34700E-08        -0.23363E-09         0.00000E+00
   -0.23363E-09        -0.34240E-07         0.00000E+00
    0.00000E+00         0.00000E+00        -0.75421E-08
 
    0.23952E-08        -0.13625E-07         0.00000E+00
   -0.13625E-07        -0.25082E-07         0.00000E+00
    0.00000E+00         0.00000E+00        -0.45374E-08
 
   -0.31512E-08        -0.95958E-08         0.00000E+00
   -0.95958E-08        -0.40348E-07         0.00000E+00
    0.00000E+00         0.00000E+00        -0.86999E-08
 
   -0.28812E-09         0.14795E-08         0.00000E+00
    0.14795E-08        -0.19933E-07         0.00000E+00
    0.00000E+00         0.00000E+00        -0.40442E-08
 
    0.33408E-08        -0.85310E-08         0.00000E+00
   -0.85310E-08        -0.55346E-09         0.00000E+00
    0.00000E+00         0.00000E+00         0.55748E-09
 
    0.67537E-07        -0.52910E-07         0.00000E+00
   -0.52910E-07         0.83209E-07         0.00000E+00
    0.00000E+00         0.00000E+00         0.30149E-07
 
   -0.16693E-07        -0.92557E-07         0.00000E+00
   -0.92557E-07         0.50401E-07         0.00000E+00
    0.00000E+00         0.00000E+00         0.67415E-08
 
   -0.21139E-07        -0.16981E-07         0.00000E+00
   -0.16981E-07         0.31130E-08         0.00000E+00
    0.00000E+00         0.00000E+00        -0.36051E-08
 
   -0.22439E-07        -0.26616E-07         0.00000E+00
   -0.26616E-07         0.16385E-08         0.00000E+00
    0.00000E+00         0.00000E+00        -0.41601E-08
 
   -0.50049E-08        -0.34325E-07         0.00000E+00
   -0.34325E-07         0.29159E-08         0.00000E+00
    0.00000E+00         0.00000E+00        -0.41781E-09
 
    0.56643E-08         0.68463E-08         0.00000E+00
    0.68463E-08        -0.22129E-07         0.00000E+00
    0.00000E+00         0.00000E+00        -0.32929E-08
 
    0.46379E-08         0.93737E-08         0.00000E+00
    0.93737E-08        -0.24132E-07         0.00000E+00
    0.00000E+00         0.00000E+00        -0.38988E-08
 
   -0.79234E-08        -0.13318E-07         0.00000E+00
   -0.13318E-07        -0.44248E-07         0.00000E+00
    0.00000E+00         0.00000E+00        -0.10434E-07
 
   -0.16387E-07         0.29912E-08         0.00000E+00
    0.29912E-08        -0.22756E-07         0.00000E+00
    0.00000E+00         0.00000E+00        -0.78285E-08
 
   -0.10233E-07        -0.23226E-07         0.00000E+00
   -0.23226E-07        -0.49079E-08         0.00000E+00
    0.00000E+00         0.00000E+00        -0.30281E-08
 
   -0.65966E-08        -0.77839E-08         0.00000E+00
   -0.77839E-08        -0.47718E-07         0.00000E+00
    0.00000E+00         0.00000E+00        -0.10863E-07
 
    0.32991E-08        -0.11457E-07         0.00000E+00
   -0.11457E-07        -0.20335E-07         0.00000E+00
    0.00000E+00         0.00000E+00        -0.34071E-08
 
   -0.10437E-07        -0.34560E-08         0.00000E+00
   -0.34560E-08        -0.37045E-07         0.00000E+00
    0.00000E+00         0.00000E+00        -0.94964E-08
 
   -0.11985E-08         0.75656E-09         0.00000E+00
    0.75656E-09        -0.71787E-08         0.00000E+00
    0.00000E+00         0.00000E+00        -0.16754E-08
 
   -0.25580E-08        -0.72253E-08         0.00000E+00
   -0.72253E-08        -0.20696E-07         0.00000E+00
    0.00000E+00         0.00000E+00        -0.46508E-08
 
    0.31908E-07        -0.84920E-07         0.00000E+00
   -0.84920E-07        -0.50997E-07         0.00000E+00
    0.00000E+00         0.00000E+00        -0.38179E-08
 
   -0.21720E-07        -0.96261E-07         0.00000E+00
   -0.96261E-07        -0.60202E-07         0.00000E+00
    0.00000E+00         0.00000E+00        -0.16384E-07
 
   -0.44469E-07        -0.15378E-07         0.00000E+00
   -0.15378E-07        -0.22341E-07         0.00000E+00
    0.00000E+00         0.00000E+00        -0.13362E-07
 
   -0.23002E-07        -0.37733E-07         0.00000E+00
   -0.37733E-07         0.13419E-07         0.00000E+00
    0.00000E+00         0.00000E+00        -0.19166E-08
 
   -0.24118E-08        -0.55029E-07         0.00000E+00
   -0.55029E-07        -0.21343E-07         0.00000E+00
    0.00000E+00         0.00000E+00        -0.47509E-08
 
    0.89457E-08         0.12921E-07         0.00000E+00
    0.12921E-07        -0.53958E-07         0.00000E+00
    0.00000E+00         0.00000E+00        -0.90024E-08
 
    0.15529E-07         0.51947E-08         0.00000E+00
    0.51947E-08        -0.32339E-07         0.00000E+00
    0.00000E+00         0.00000E+00        -0.33620E-08
 
   -0.27794E-08        -0.12565E-07         0.00000E+00
   -0.12565E-07        -0.20178E-07         0.00000E+00
    0.00000E+00         0.00000E+00        -0.45915E-08
 
   -0.40945E-08        -0.15302E-07         0.00000E+00
   -0.15302E-07        -0.18464E-07         0.00000E+00
    0.00000E+00         0.00000E+00        -0.45117E-08
 
    0.22241E-09        -0.11209E-07         0.00000E+00
   -0.11209E-07        -0.64935E-07         0.00000E+00
    0.00000E+00         0.00000E+00        -0.12942E-07
 
   -0.39340E-08         0.14020E-07         0.00000E+00
    0.14020E-07        -0.44971E-07         0.00000E+00
    0.00000E+00         0.00000E+00        -0.97810E-08
 
   -0.52056E-08         0.31105E-08         0.00000E+00
    0.31105E-08        -0.94575E-08         0.00000E+00
    0.00000E+00         0.00000E+00        -0.29326E-08
 
   -0.26656E-08        -0.92115E-08         0.00000E+00
   -0.92115E-08        -0.91312E-08         0.00000E+00
    0.00000E+00         0.00000E+00        -0.23594E-08
 
    0.10882E-07        -0.12047E-07         0.00000E+00
   -0.12047E-07         0.44643E-08         0.00000E+00
    0.00000E+00         0.00000E+00         0.30693E-08
 
   -0.52840E-08        -0.53438E-08         0.00000E+00
   -0.53438E-08        -0.47339E-07         0.00000E+00
    0.00000E+00         0.00000E+00        -0.10525E-07
 
   -0.39502E-07         0.51577E-07         0.00000E+00
    0.51577E-07        -0.10955E-06         0.00000E+00
    0.00000E+00         0.00000E+00        -0.29811E-07
 
    0.65025E-08        -0.21274E-07         0.00000E+00
   -0.21274E-07        -0.11555E-06         0.00000E+00
    0.00000E+00         0.00000E+00        -0.21810E-07
 
   -0.18707E-07         0.11908E-08         0.00000E+00
    0.11908E-08        -0.24321E-07         0.00000E+00
    0.00000E+00         0.00000E+00        -0.86055E-08
 
   -0.19139E-07        -0.19368E-07         0.00000E+00
   -0.19368E-07        -0.75055E-08         0.00000E+00
    0.00000E+00         0.00000E+00        -0.53288E-08
 
   -0.16171E-07        -0.22950E-07         0.00000E+00
   -0.22950E-07        -0.44735E-07         0.00000E+00
    0.00000E+00         0.00000E+00        -0.12181E-07
 
    0.17219E-07        -0.15701E-08         0.00000E+00
   -0.15701E-08        -0.15577E-07         0.00000E+00
    0.00000E+00         0.00000E+00         0.32844E-09
 
    0.36849E-07        -0.18319E-07         0.00000E+00
   -0.18319E-07        -0.24886E-07         0.00000E+00
    0.00000E+00         0.00000E+00         0.23927E-08
 
   -0.69757E-09        -0.14064E-08         0.00000E+00
   -0.14064E-08        -0.33300E-07         0.00000E+00
    0.00000E+00         0.00000E+00        -0.67996E-08
 
   -0.12272E-07        -0.18225E-07         0.00000E+00
   -0.18225E-07        -0.32174E-07         0.00000E+00
    0.00000E+00         0.00000E+00        -0.88890E-08
 
    0.11319E-07        -0.35656E-07         0.00000E+00
   -0.35656E-07        -0.10672E-06         0.00000E+00
    0.00000E+00         0.00000E+00        -0.19080E-07
 
    0.29937E-07        -0.43818E-08         0.00000E+00
   -0.43818E-08        -0.41927E-07         0.00000E+00
    0.00000E+00         0.00000E+00        -0.23980E-08
 
   -0.77749E-08         0.24992E-08         0.00000E+00
    0.24992E-08        -0.29739E-08         0.00000E+00
    0.00000E+00         0.00000E+00        -0.21498E-08
 
   -0.20768E-07        -0.50485E-08         0.00000E+00
   -0.50485E-08        -0.30155E-08         0.00000E+00
    0.00000E+00         0.00000E+00        -0.47566E-08
 
    0.33459E-08         0.14526E-07         0.00000E+00
    0.14526E-07        -0.19793E-07         0.00000E+00
    0.00000E+00         0.00000E+00        -0.32893E-08
 
    0.73540E-08         0.23203E-07         0.00000E+00
    0.23203E-07        -0.22857E-07         0.00000E+00
    0.00000E+00         0.00000E+00        -0.31007E-08
 
   -0.29385E-07        -0.67486E-08         0.00000E+00
   -0.67486E-08        -0.16946E-07         0.00000E+00
    0.00000E+00         0.00000E+00        -0.92662E-08
 
   -0.10288E-07        -0.63320E-07         0.00000E+00
   -0.63320E-07         0.18306E-07         0.00000E+00
    0.00000E+00         0.00000E+00         0.16035E-08
 
   -0.80884E-08        -0.45112E-07         0.00000E+00
   -0.45112E-07        -0.15544E-06         0.00000E+00
    0.00000E+00         0.00000E+00        -0.32706E-07
 
    0.28124E-08         0.33413E-07         0.00000E+00
    0.33413E-07        -0.16944E-06         0.00000E+00
    0.00000E+00         0.00000E+00        -0.33326E-07
 
    0.31836E-08         0.38126E-07         0.00000E+00
    0.38126E-07         0.73556E-07         0.00000E+00
    0.00000E+00         0.00000E+00         0.15348E-07
 
   -0.31929E-07        -0.38826E-08         0.00000E+00
   -0.38826E-08         0.60681E-07         0.00000E+00
    0.00000E+00         0.00000E+00         0.57505E-08
 
    0.63571E-08        -0.60555E-07         0.00000E+00
   -0.60555E-07         0.93702E-07         0.00000E+00
    0.00000E+00         0.00000E+00         0.20012E-07
 
    0.32027E-07        -0.93107E-07         0.00000E+00
   -0.93107E-07        -0.82081E-07         0.00000E+00
    0.00000E+00         0.00000E+00        -0.10011E-07
 
    0.75273E-08        -0.83445E-08         0.00000E+00
   -0.83445E-08        -0.28034E-06         0.00000E+00
    0.00000E+00         0.00000E+00        -0.54562E-07
 
   -0.58327E-08         0.76681E-07         0.00000E+00
    0.76681E-07        -0.90346E-07         0.00000E+00
    0.00000E+00         0.00000E+00        -0.19236E-07
 
    0.26888E-07         0.18294E-07         0.00000E+00
    0.18294E-07         0.13775E-06         0.00000E+00
    0.00000E+00         0.00000E+00         0.32929E-07
 
    0.31655E-08        -0.26705E-07         0.00000E+00
   -0.26705E-07        -0.93438E-07         0.00000E+00
    0.00000E+00         0.00000E+00        -0.18055E-07
 
   -0.14076E-07         0.44675E-07         0.00000E+00
    0.44675E-07        -0.14242E-06         0.00000E+00
    0.00000E+00         0.00000E+00        -0.31299E-07
 
   -0.68565E-09         0.53808E-07         0.00000E+00
    0.53808E-07         0.64479E-07         0.00000E+00
    0.00000E+00         0.00000E+00         0.12759E-07
 
   -0.88848E-08         0.16478E-07         0.00000E+00
    0.16478E-07         0.33541E-07         0.00000E+00
    0.00000E+00         0.00000E+00         0.49313E-08
 
TENSORS stresstot double 
   -0.60000E+08        -0.31674E-08         0.00000E+00
   -0.31674E-08        -0.60000E+08         0.00000E+00
    0.00000E+00         0.00000E+00        -0.60000E+08
 
   -0.60000E+08        -0.22294E-07         0.00000E+00
   -0.22294E-07        -0.60000E+08         0.00000E+00
    0.00000E+00         0.00000E+00        -0.60000E+08
 
   -0.60000E+08         0.75448E-08         0.00000E+00
    0.75448E-08        -0.60000E+08         0.00000E+00
    0.00000E+00         0.00000E+00        -0.60000E+08
 
   -0.60000E+08        -0.15620E-08         0.00000E+00
   -0.15620E-08        -0.60000E+08         0.00000E+00
    0.00000E+00         0.00000E+00        -0.60000E+08
 
   -0.60000E+08        -0.37525E-08         0.00000E+00
   -0.37525E-08        -0.60000E+08         0.00000E+00
    0.00000E+00         0.00000E+00        -0.60000E+08
 
   -0.60000E+08         0.54674E-08         0.00000E+00
    0.54674E-08        -0.60000E+08         0.00000E+00
    0.00000E+00         0.00000E+00        -0.60000E+08
 
   -0.60000E+08         0.30271E-08         0.00000E+00
    0.30271E-08        -0.60000E+08         0.00000E+00
    0.00000E+00         0.00000E+00        -0.60000E+08
 
   -0.60000E+08         0.14927E-08         0.00000E+00
    0.14927E-08        -0.60000E+08         0.00000E+00
    0.00000E+00         0.00000E+00        -0.60000E+08
 
   -0.60000E+08         0.20167E-08         0.00000E+00
    0.20167E-08        -0.60000E+08         0.00000E+00
    0.00000E+00         0.00000E+00        -0.60000E+08
 
   -0.60000E+08        -0.51388E-08         0.00000E+00
   -0.51388E-08        -0.60000E+08         0.00000E+00
    0.00000E+00         0.00000E+00        -0.60000E+08
 
   -0.60000E+08         0.61157E-09         0.00000E+00
    0.61157E-09        -0.60000E+08         0.00000E+00
    0.00000E+00         0.00000E+00        -0.60000E+08
 
   -0.60000E+08        -0.43043E-08         0.00000E+00
   -0.43043E-08        -0.60000E+08         0.00000E+00
    0.00000E+00         0.00000E+00        -0.60000E+08
 
   -0.60000E+08         0.20496E-09         0.00000E+00
    0.20496E-09        -0.60000E+08         0.00000E+00
    0.00000E+00         0.00000E+00        -0.60000E+08
 
   -0.60000E+08         0.11431E-08         0.00000E+00
    0.11431E-08        -0.60000E+08         0.00000E+00
    0.00000E+00         0.00000E+00        -0.60000E+08
 
   -0.60000E+08         0.62493E-09         0.00000E+00
    0.62493E-09        -0.60000E+08         0.00000E+00
    0.00000E+00         0.00000E+00        -0.60000E+08
 
   -0.60000E+08        -0.47998E-08         0.00000E+00
   -0.47998E-08        -0.60000E+08         0.00000E+00
    0.00000E+00         0.00000E+00        -0.60000E+08
 
   -0.60000E+08        -0.46255E-07         0.00000E+00
   -0.46255E-07        -0.60000E+08         0.00000E+00
    0.00000E+00         0.00000E+00        -0.60000E+08
 
   -0.60000E+08         0.21509E-07         0.00000E+00
    0.21509E-07        -0.60000E+08         0.00000E+00
    0.00000E+00         0.00000E+00        -0.60000E+08
 
   -0.60000E+08         0.22071E-08         0.00000E+00
    0.22071E-08        -0.60000E+08         0.00000E+00
    0.00000E+00         0.00000E+00        -0.60000E+08
 
   -0.60000E+08         0.36682E-08         0.00000E+00
    0.36682E-08        -0.60000E+08         0.00000E+00
    0.00000E+00         0.00000E+00        -0.60000E+08
 
   -0.60000E+08         0.58562E-08         0.00000E+00
    0.58562E-08        -0.60000E+08         0.00000E+00
    0.00000E+00         0.00000E+00        -0.60000E+08
 
   -0.60000E+08         0.51466E-08         0.00000E+00
    0.51466E-08        -0.60000E+08         0.00000E+00
    0.00000E+00         0.00000E+00        -0.60000E+08
 
   -0.60000E+08         0.24629E-08         0.00000E+00
    0.24629E-08        -0.60000E+08         0.00000E+00
    0.00000E+00         0.00000E+00        -0.60000E+08
 
   -0.60000E+08         0.39243E-08         0.00000E+00
    0.39243E-08        -0.60000E+08         0.00000E+00
    0.00000E+00         0.00000E+00        -0.60000E+08
 
   -0.60000E+08        -0.88426E-08         0.00000E+00
   -0.88426E-08        -0.60000E+08         0.00000E+00
    0.00000E+00         0.00000E+00        -0.60000E+08
 
   -0.60000E+08         0.63492E-08         0.00000E+00
    0.63492E-08        -0.60000E+08         0.00000E+00
    0.00000E+00         0.00000E+00        -0.60000E+08
 
   -0.60000E+08        -0.67027E-08         0.00000E+00
   -0.67027E-08        -0.60000E+08         0.00000E+00
    0.00000E+00         0.00000E+00        -0.60000E+08
 
   -0.60000E+08        -0.18436E-08         0.00000E+00
   -0.18436E-08        -0.60000E+08         0.00000E+00
    0.00000E+00         0.00000E+00        -0.60000E+08
 
   -0.60000E+08         0.23856E-08         0.00000E+00
    0.23856E-08        -0.60000E+08         0.00000E+00
    0.00000E+00         0.00000E+00        -0.60000E+08
 
   -0.60000E+08        -0.43798E-09         0.00000E+00
   -0.43798E-09        -0.60000E+08         0.00000E+00
    0.00000E+00         0.00000E+00        -0.60000E+08
 
   -0.60000E+08        -0.14147E-07         0.00000E+00
   -0.14147E-07        -0.60000E+08         0.00000E+00
    0.00000E+00         0.00000E+00        -0.60000E+08
 
   -0.60000E+08        -0.50162E-07         0.00000E+00
   -0.50162E-07        -0.60000E+08         0.00000E+00
    0.00000E+00         0.00000E+00        -0.60000E+08
 
   -0.60000E+08         0.28056E-07         0.00000E+00
    0.28056E-07        -0.60000E+08         0.00000E+00
    0.00000E+00         0.00000E+00        -0.60000E+08
 
   -0.60000E+08         0.41188E-10         0.00000E+00
    0.41188E-10        -0.60000E+08         0.00000E+00
    0.00000E+00         0.00000E+00        -0.60000E+08
 
   -0.60000E+08         0.13400E-07         0.00000E+00
    0.13400E-07        -0.60000E+08         0.00000E+00
    0.00000E+00         0.00000E+00        -0.60000E+08
 
   -0.60000E+08        -0.13499E-08         0.00000E+00
   -0.13499E-08        -0.60000E+08         0.00000E+00
    0.00000E+00         0.00000E+00        -0.60000E+08
 
   -0.60000E+08         0.78169E-08         0.00000E+00
    0.78169E-08        -0.60000E+08         0.00000E+00
    0.00000E+00         0.00000E+00        -0.60000E+08
 
   -0.60000E+08         0.66981E-08         0.00000E+00
    0.66981E-08        -0.60000E+08         0.00000E+00
    0.00000E+00         0.00000E+00        -0.60000E+08
 
   -0.60000E+08         0.33847E-08         0.00000E+00
    0.33847E-08        -0.60000E+08         0.00000E+00
    0.00000E+00         0.00000E+00        -0.60000E+08
 
   -0.60000E+08        -0.98449E-08         0.00000E+00
   -0.98449E-08        -0.60000E+08         0.00000E+00
    0.00000E+00         0.00000E+00        -0.60000E+08
 
   -0.60000E+08         0.18776E-08         0.00000E+00
    0.18776E-08        -0.60000E+08         0.00000E+00
    0.00000E+00         0.00000E+00        -0.60000E+08
 
   -0.60000E+08        -0.10668E-07         0.00000E+00
   -0.10668E-07        -0.60000E+08         0.00000E+00
    0.00000E+00         0.00000E+00        -0.60000E+08
 
   -0.60000E+08         0.13873E-08         0.00000E+00
    0.13873E-08        -0.60000E+08         0.00000E+00
    0.00000E+00         0.00000E+00        -0.60000E+08
 
   -0.60000E+08         0.78334E-08         0.00000E+00
    0.78334E-08        -0.60000E+08         0.00000E+00
    0.00000E+00         0.00000E+00        -0.60000E+08
 
   -0.60000E+08         0.15908E-08         0.00000E+00
    0.15908E-08        -0.60000E+08         0.00000E+00
    0.00000E+00         0.00000E+00        -0.60000E+08
 
   -0.60000E+08        -0.26095E-07         0.00000E+00
   -0.26095E-07        -0.60000E+08         0.00000E+00
    0.00000E+00         0.00000E+00        -0.60000E+08
 
   -0.60000E+08        -0.55511E-07         0.00000E+00
   -0.55511E-07        -0.60000E+08         0.00000E+00
    0.00000E+00         0.00000E+00        -0.60000E+08
 
   -0.60000E+08         0.19435E-07         0.00000E+00
    0.19435E-07        -0.60000E+08         0.00000E+00
    0.00000E+00         0.00000E+00        -0.60000E+08
 
   -0.60000E+08         0.23256E-08         0.00000E+00
    0.23256E-08        -0.60000E+08         0.00000E+00
    0.00000E+00         0.00000E+00        -0.60000E+08
 
   -0.60000E+08         0.18683E-07         0.00000E+00
    0.18683E-07        -0.60000E+08         0.00000E+00
    0.00000E+00         0.00000E+00        -0.60000E+08
 
   -0.60000E+08         0.21636E-08         0.00000E+00
    0.21636E-08        -0.60000E+08         0.00000E+00
    0.00000E+00         0.00000E+00        -0.60000E+08
 
   -0.60000E+08         0.12607E-07         0.00000E+00
    0.12607E-07        -0.60000E+08         0.00000E+00
    0.00000E+00         0.00000E+00        -0.60000E+08
 
   -0.60000E+08         0.11346E-07         0.00000E+00
    0.11346E-07        -0.60000E+08         0.00000E+00
    0.00000E+00         0.00000E+00        -0.60000E+08
 
   -0.60000E+08         0.61836E-08         0.00000E+00
    0.61836E-08        -0.60000E+08         0.00000E+00
    0.00000E+00         0.00000E+00        -0.60000E+08
 
   -0.60000E+08        -0.10068E-07         0.00000E+00
   -0.10068E-07        -0.60000E+08         0.00000E+00
    0.00000E+00         0.00000E+00        -0.60000E+08
 
   -0.60000E+08         0.34362E-08         0.00000E+00
    0.34362E-08        -0.60000E+08         0.00000E+00
    0.00000E+00         0.00000E+00        -0.60000E+08
 
   -0.60000E+08        -0.10442E-07         0.00000E+00
   -0.10442E-07        -0.60000E+08         0.00000E+00
    0.00000E+00         0.00000E+00        -0.60000E+08
 
   -0.60000E+08        -0.27744E-08         0.00000E+00
   -0.27744E-08        -0.60000E+08         0.00000E+00
    0.00000E+00         0.00000E+00        -0.60000E+08
 
   -0.60000E+08         0.52008E-08         0.00000E+00
    0.52008E-08        -0.60000E+08         0.00000E+00
    0.00000E+00         0.00000E+00        -0.60000E+08
 
   -0.60000E+08         0.14660E-08         0.00000E+00
    0.14660E-08        -0.60000E+08         0.00000E+00
    0.00000E+00         0.00000E+00        -0.60000E+08
 
   -0.60000E+08        -0.19418E-07         0.00000E+00
   -0.19418E-07        -0.60000E+08         0.00000E+00
    0.00000E+00         0.00000E+00        -0.60000E+08
 
   -0.60000E+08        -0.52356E-07         0.00000E+00
   -0.52356E-07        -0.60000E+08         0.00000E+00
    0.00000E+00         0.00000E+00        -0.60000E+08
 
   -0.60000E+08         0.19681E-07         0.00000E+00
    0.19681E-07        -0.60000E+08         0.00000E+00
    0.00000E+00         0.00000E+00        -0.60000E+08
 
   -0.60000E+08         0.30171E-08         0.00000E+00
    0.30171E-08        -0.60000E+08         0.00000E+00
    0.00000E+00         0.00000E+00        -0.60000E+08
 
   -0.60000E+08         0.11298E-07         0.00000E+00
    0.11298E-07        -0.60000E+08         0.00000E+00
    0.00000E+00         0.00000E+00        -0.60000E+08
 
   -0.60000E+08         0.10434E-07         0.00000E+00
    0.10434E-07        -0.60000E+08         0.00000E+00
    0.00000E+00         0.00000E+00        -0.60000E+08
 
   -0.60000E+08         0.14130E-07         0.00000E+00
    0.14130E-07        -0.60000E+08         0.00000E+00
    0.00000E+00         0.00000E+00        -0.60000E+08
 
   -0.60000E+08         0.11051E-07         0.00000E+00
    0.11051E-07        -0.60000E+08         0.00000E+00
    0.00000E+00         0.00000E+00        -0.60000E+08
 
   -0.60000E+08         0.17839E-08         0.00000E+00
    0.17839E-08        -0.60000E+08         0.00000E+00
    0.00000E+00         0.00000E+00        -0.60000E+08
 
   -0.60000E+08        -0.82626E-08         0.00000E+00
   -0.82626E-08        -0.60000E+08         0.00000E+00
    0.00000E+00         0.00000E+00        -0.60000E+08
 
   -0.60000E+08         0.66794E-08         0.00000E+00
    0.66794E-08        -0.60000E+08         0.00000E+00
    0.00000E+00         0.00000E+00        -0.60000E+08
 
   -0.60000E+08        -0.95594E-08         0.00000E+00
   -0.95594E-08        -0.60000E+08         0.00000E+00
    0.00000E+00         0.00000E+00        -0.60000E+08
 
   -0.60000E+08        -0.41200E-08         0.00000E+00
   -0.41200E-08        -0.60000E+08         0.00000E+00
    0.00000E+00         0.00000E+00        -0.60000E+08
 
   -0.60000E+08         0.17967E-08         0.00000E+00
    0.17967E-08        -0.60000E+08         0.00000E+00
    0.00000E+00         0.00000E+00        -0.60000E+08
 
   -0.60000E+08        -0.17051E-08         0.00000E+00
   -0.17051E-08        -0.60000E+08         0.00000E+00
    0.00000E+00         0.00000E+00        -0.60000E+08
 
   -0.60000E+08        -0.19390E-07         0.00000E+00
   -0.19390E-07        -0.60000E+08         0.00000E+00
    0.00000E+00         0.00000E+00        -0.60000E+08
 
   -0.60000E+08        -0.54125E-07         0.00000E+00
   -0.54125E-07        -0.60000E+08         0.00000E+00
    0.00000E+00         0.00000E+00        -0.60000E+08
 
   -0.60000E+08         0.21766E-07         0.00000E+00
    0.21766E-07        -0.60000E+08         0.00000E+00
    0.00000E+00         0.00000E+00        -0.60000E+08
 
   -0.60000E+08         0.43674E-08         0.00000E+00
    0.43674E-08        -0.60000E+08         0.00000E+00
    0.00000E+00         0.00000E+00        -0.60000E+08
 
   -0.60000E+08         0.43652E-08         0.00000E+00
    0.43652E-08        -0.60000E+08         0.00000E+00
    0.00000E+00         0.00000E+00        -0.60000E+08
 
   -0.60000E+08         0.65605E-08         0.00000E+00
    0.65605E-08        -0.60000E+08         0.00000E+00
    0.00000E+00         0.00000E+00        -0.60000E+08
 
   -0.60000E+08         0.59267E-08         0.00000E+00
    0.59267E-08        -0.60000E+08         0.00000E+00
    0.00000E+00         0.00000E+00        -0.60000E+08
 
   -0.60000E+08         0.17160E-07         0.00000E+00
    0.17160E-07        -0.60000E+08         0.00000E+00
    0.00000E+00         0.00000E+00        -0.60000E+08
 
   -0.60000E+08         0.23827E-08         0.00000E+00
    0.23827E-08        -0.60000E+08         0.00000E+00
    0.00000E+00         0.00000E+00        -0.60000E+08
 
   -0.60000E+08        -0.79070E-08         0.00000E+00
   -0.79070E-08        -0.60000E+08         0.00000E+00
    0.00000E+00         0.00000E+00        -0.60000E+08
 
   -0.60000E+08         0.92722E-09         0.00000E+00
    0.92722E-09        -0.60000E+08         0.00000E+00
    0.00000E+00         0.00000E+00        -0.60000E+08
 
   -0.60000E+08        -0.75770E-08         0.00000E+00
   -0.75770E-08        -0.60000E+08         0.00000E+00
    0.00000E+00         0.00000E+00        -0.60000E+08
 
   -0.60000E+08        -0.23244E-08         0.00000E+00
   -0.23244E-08        -0.60000E+08         0.00000E+00
    0.00000E+00         0.00000E+00        -0.60000E+08
 
   -0.60000E+08         0.64729E-08         0.00000E+00
    0.64729E-08        -0.60000E+08         0.00000E+00
    0.00000E+00         0.00000E+00        -0.60000E+08
 
   -0.60000E+08         0.16576E-08         0.00000E+00
    0.16576E-08        -0.60000E+08         0.00000E+00
    0.00000E+00         0.00000E+00        -0.60000E+08
 
   -0.60000E+08        -0.27205E-07         0.00000E+00
   -0.27205E-07        -0.60000E+08         0.00000E+00
    0.00000E+00         0.00000E+00        -0.60000E+08
 
   -0.60000E+08        -0.57122E-07         0.00000E+00
   -0.57122E-07        -0.60000E+08         0.00000E+00
    0.00000E+00         0.00000E+00        -0.60000E+08
 
   -0.60000E+08         0.13140E-07         0.00000E+00
    0.13140E-07        -0.60000E+08         0.00000E+00
    0.00000E+00         0.00000E+00        -0.60000E+08
 
   -0.60000E+08        -0.23468E-08         0.00000E+00
   -0.23468E-08        -0.60000E+08         0.00000E+00
    0.00000E+00         0.00000E+00        -0.60000E+08
 
   -0.60000E+08         0.19954E-08         0.00000E+00
    0.19954E-08        -0.60000E+08         0.00000E+00
    0.00000E+00         0.00000E+00        -0.60000E+08
 
   -0.60000E+08         0.12000E-07         0.00000E+00
    0.12000E-07        -0.60000E+08         0.00000E+00
    0.00000E+00         0.00000E+00        -0.60000E+08
 
   -0.60000E+08         0.95084E-08         0.00000E+00
    0.95084E-08        -0.60000E+08         0.00000E+00
    0.00000E+00         0.00000E+00        -0.60000E+08
 
   -0.60000E+08         0.16848E-07         0.00000E+00
    0.16848E-07        -0.60000E+08         0.00000E+00
    0.00000E+00         0.00000E+00        -0.60000E+08
 
   -0.60000E+08         0.80367E-10         0.00000E+00
    0.80367E-10        -0.60000E+08         0.00000E+00
    0.00000E+00         0.00000E+00        -0.60000E+08
 
   -0.60000E+08        -0.51939E-08         0.00000E+00
   -0.51939E-08        -0.60000E+08         0.00000E+00
    0.00000E+00         0.00000E+00        -0.60000E+08
 
   -0.60000E+08        -0.38760E-09         0.00000E+00
   -0.38760E-09        -0.60000E+08         0.00000E+00
    0.00000E+00         0.00000E+00        -0.60000E+08
 
   -0.60000E+08        -0.39894E-09         0.00000E+00
   -0.39894E-09        -0.60000E+08         0.00000E+00
    0.00000E+00         0.00000E+00        -0.60000E+08
 
   -0.60000E+08        -0.45190E-08         0.00000E+00
   -0.45190E-08        -0.60000E+08         0.00000E+00
    0.00000E+00         0.00000E+00        -0.60000E+08
 
   -0.60000E+08         0.11621E-08         0.00000E+00
    0.11621E-08        -0.60000E+08         0.00000E+00
    0.00000E+00         0.00000E+00        -0.60000E+08
 
   -0.60000E+08        -0.23399E-08         0.00000E+00
   -0.23399E-08        -0.60000E+08         0.00000E+00
    0.00000E+00         0.00000E+00        -0.60000E+08
 
   -0.60000E+08        -0.13492E-07         0.00000E+00
   -0.13492E-07        -0.60000E+08         0.00000E+00
    0.00000E+00         0.00000E+00        -0.60000E+08
 
   -0.60000E+08        -0.63023E-07         0.00000E+00
   -0.63023E-07        -0.60000E+08         0.00000E+00
    0.00000E+00         0.00000E+00        -0.60000E+08
 
   -0.60000E+08         0.72051E-08         0.00000E+00
    0.72051E-08        -0.60000E+08         0.00000E+00
    0.00000E+00         0.00000E+00        -0.60000E+08
 
   -0.60000E+08        -0.10011E-07         0.00000E+00
   -0.10011E-07        -0.60000E+08         0.00000E+00
    0.00000E+00         0.00000E+00        -0.60000E+08
 
   -0.60000E+08         0.17673E-08         0.00000E+00
    0.17673E-08        -0.60000E+08         0.00000E+00
    0.00000E+00         0.00000E+00        -0.60000E+08
 
   -0.60000E+08         0.27762E-08         0.00000E+00
    0.27762E-08        -0.60000E+08         0.00000E+00
    0.00000E+00         0.00000E+00        -0.60000E+08
 
   -0.60000E+08         0.13673E-07         0.00000E+00
    0.13673E-07        -0.60000E+08         0.00000E+00
    0.00000E+00         0.00000E+00        -0.60000E+08
 
   -0.60000E+08         0.10490E-07         0.00000E+00
    0.10490E-07        -0.60000E+08         0.00000E+00
    0.00000E+00         0.00000E+00        -0.60000E+08
 
   -0.60000E+08         0.27393E-08         0.00000E+00
    0.27393E-08        -0.60000E+08         0.00000E+00
    0.00000E+00         0.00000E+00        -0.60000E+08
 
   -0.60000E+08        -0.69268E-08         0.00000E+00
   -0.69268E-08        -0.60000E+08         0.00000E+00
    0.00000E+00         0.00000E+00        -0.60000E+08
 
   -0.60000E+08        -0.29451E-08         0.00000E+00
   -0.29451E-08        -0.60000E+08         0.00000E+00
    0.00000E+00         0.00000E+00        -0.60000E+08
 
   -0.60000E+08        -0.30979E-08         0.00000E+00
   -0.30979E-08        -0.60000E+08         0.00000E+00
    0.00000E+00         0.00000E+00        -0.60000E+08
 
   -0.60000E+08        -0.42302E-08         0.00000E+00
   -0.42302E-08        -0.60000E+08         0.00000E+00
    0.00000E+00         0.00000E+00        -0.60000E+08
 
   -0.60000E+08         0.10545E-07         0.00000E+00
    0.10545E-07        -0.60000E+08         0.00000E+00
    0.00000E+00         0.00000E+00        -0.60000E+08
 
   -0.60000E+08         0.15736E-08         0.00000E+00
    0.15736E-08        -0.60000E+08         0.00000E+00
    0.00000E+00         0.00000E+00        -0.60000E+08
 
   -0.60000E+08        -0.38793E-07         0.00000E+00
   -0.38793E-07        -0.60000E+08         0.00000E+00
    0.00000E+00         0.00000E+00        -0.60000E+08
 
   -0.60000E+08        -0.75209E-07         0.00000E+00
   -0.75209E-07        -0.60000E+08         0.00000E+00
    0.00000E+00         0.00000E+00        -0.60000E+08
 
   -0.60000E+08         0.24441E-08         0.00000E+00
    0.24441E-08        -0.60000E+08         0.00000E+00
    0.00000E+00         0.00000E+00        -0.60000E+08
 
   -0.60000E+08        -0.88805E-08         0.00000E+00
   -0.88805E-08        -0.60000E+08         0.00000E+00
    0.00000E+00         0.00000E+00        -0.60000E+08
 
   -0.60000E+08         0.17170E-07         0.00000E+00
    0.17170E-07        -0.60000E+08         0.00000E+00
    0.00000E+00         0.00000E+00        -0.60000E+08
 
   -0.60000E+08         0.24711E-08         0.00000E+00
    0.24711E-08        -0.60000E+08         0.00000E+00
    0.00000E+00         0.00000E+00        -0.60000E+08
 
   -0.60000E+08         0.16037E-07         0.00000E+00
    0.16037E-07        -0.60000E+08         0.00000E+00
    0.00000E+00         0.00000E+00        -0.60000E+08
 
   -0.60000E+08         0.80122E-08         0.00000E+00
    0.80122E-08        -0.60000E+08         0.00000E+00
    0.00000E+00         0.00000E+00        -0.60000E+08
 
   -0.60000E+08         0.51582E-08         0.00000E+00
    0.51582E-08        -0.60000E+08         0.00000E+00
    0.00000E+00         0.00000E+00        -0.60000E+08
 
   -0.60000E+08        -0.91927E-08         0.00000E+00
   -0.91927E-08        -0.60000E+08         0.00000E+00
    0.00000E+00         0.00000E+00        -0.60000E+08
 
   -0.60000E+08         0.19829E-08         0.00000E+00
    0.19829E-08        -0.60000E+08         0.00000E+00
    0.00000E+00         0.00000E+00        -0.60000E+08
 
   -0.60000E+08        -0.29113E-08         0.00000E+00
   -0.29113E-08        -0.60000E+08         0.00000E+00
    0.00000E+00         0.00000E+00        -0.60000E+08
 
   -0.60000E+08        -0.32201E-08         0.00000E+00
   -0.32201E-08        -0.60000E+08         0.00000E+00
    0.00000E+00         0.00000E+00        -0.60000E+08
 
   -0.60000E+08        -0.80870E-09         0.00000E+00
   -0.80870E-09        -0.60000E+08         0.00000E+00
    0.00000E+00         0.00000E+00        -0.60000E+08
 
   -0.60000E+08        -0.75256E-08         0.00000E+00
   -0.75256E-08        -0.60000E+08         0.00000E+00
    0.00000E+00         0.00000E+00        -0.60000E+08
 
   -0.60000E+08        -0.25247E-07         0.00000E+00
   -0.25247E-07        -0.60000E+08         0.00000E+00
    0.00000E+00         0.00000E+00        -0.60000E+08
 
   -0.60000E+08        -0.58358E-07         0.00000E+00
   -0.58358E-07        -0.60000E+08         0.00000E+00
    0.00000E+00         0.00000E+00        -0.60000E+08
 
   -0.60000E+08         0.85430E-08         0.00000E+00
    0.85430E-08        -0.60000E+08         0.00000E+00
    0.00000E+00         0.00000E+00        -0.60000E+08
 
   -0.60000E+08        -0.59549E-09         0.00000E+00
   -0.59549E-09        -0.60000E+08         0.00000E+00
    0.00000E+00         0.00000E+00        -0.60000E+08
 
   -0.60000E+08         0.14417E-07         0.00000E+00
    0.14417E-07        -0.60000E+08         0.00000E+00
    0.00000E+00         0.00000E+00        -0.60000E+08
 
   -0.60000E+08         0.40798E-08         0.00000E+00
    0.40798E-08        -0.60000E+08         0.00000E+00
    0.00000E+00         0.00000E+00        -0.60000E+08
 
   -0.60000E+08         0.55520E-08         0.00000E+00
    0.55520E-08        -0.60000E+08         0.00000E+00
    0.00000E+00         0.00000E+00        -0.60000E+08
 
   -0.60000E+08         0.50727E-08         0.00000E+00
    0.50727E-08        -0.60000E+08         0.00000E+00
    0.00000E+00         0.00000E+00        -0.60000E+08
 
   -0.60000E+08         0.63556E-08         0.00000E+00
    0.63556E-08        -0.60000E+08         0.00000E+00
    0.00000E+00         0.00000E+00        -0.60000E+08
 
   -0.60000E+08        -0.91001E-08         0.00000E+00
   -0.91001E-08        -0.60000E+08         0.00000E+00
    0.00000E+00         0.00000E+00        -0.60000E+08
 
   -0.60000E+08         0.23376E-08         0.00000E+00
    0.23376E-08        -0.60000E+08         0.00000E+00
    0.00000E+00         0.00000E+00        -0.60000E+08
 
   -0.60000E+08        -0.62044E-08         0.00000E+00
   -0.62044E-08        -0.60000E+08         0.00000E+00
    0.00000E+00         0.00000E+00        -0.60000E+08
 
   -0.60000E+08        -0.23722E-08         0.00000E+00
   -0.23722E-08        -0.60000E+08         0.00000E+00
    0.00000E+00         0.00000E+00        -0.60000E+08
 
   -0.60000E+08         0.81132E-08         0.00000E+00
    0.81132E-08        -0.60000E+08         0.00000E+00
    0.00000E+00         0.00000E+00        -0.60000E+08
 
   -0.60000E+08        -0.38207E-08         0.00000E+00
   -0.38207E-08        -0.60000E+08         0.00000E+00
    0.00000E+00         0.00000E+00        -0.60000E+08
 
   -0.60000E+08        -0.13761E-07         0.00000E+00
   -0.13761E-07        -0.60000E+08         0.00000E+00
    0.00000E+00         0.00000E+00        -0.60000E+08
 
   -0.60000E+08        -0.50195E-07         0.00000E+00
   -0.50195E-07        -0.60000E+08         0.00000E+00
    0.00000E+00         0.00000E+00        -0.60000E+08
 
   -0.60000E+08         0.12589E-07         0.00000E+00
    0.12589E-07        -0.60000E+08         0.00000E+00
    0.00000E+00         0.00000E+00        -0.60000E+08
 
   -0.60000E+08        -0.57921E-08         0.00000E+00
   -0.57921E-08        -0.60000E+08         0.00000E+00
    0.00000E+00         0.00000E+00        -0.60000E+08
 
   -0.60000E+08         0.10525E-07         0.00000E+00
    0.10525E-07        -0.60000E+08         0.00000E+00
    0.00000E+00         0.00000E+00        -0.60000E+08
 
   -0.60000E+08         0.16684E-07         0.00000E+00
    0.16684E-07        -0.60000E+08         0.00000E+00
    0.00000E+00         0.00000E+00        -0.60000E+08
 
   -0.60000E+08         0.40930E-08         0.00000E+00
    0.40930E-08        -0.60000E+08         0.00000E+00
    0.00000E+00         0.00000E+00        -0.60000E+08
 
   -0.60000E+08         0.61771E-08         0.00000E+00
    0.61771E-08        -0.60000E+08         0.00000E+00
    0.00000E+00         0.00000E+00        -0.60000E+08
 
   -0.60000E+08         0.46154E-08         0.00000E+00
    0.46154E-08        -0.60000E+08         0.00000E+00
    0.00000E+00         0.00000E+00        -0.60000E+08
 
   -0.60000E+08        -0.54967E-08         0.00000E+00
   -0.54967E-08        -0.60000E+08         0.00000E+00
    0.00000E+00         0.00000E+00        -0.60000E+08
 
   -0.60000E+08         0.35455E-08         0.00000E+00
    0.35455E-08        -0.60000E+08         0.00000E+00
    0.00000E+00         0.00000E+00        -0.60000E+08
 
   -0.60000E+08        -0.10304E-07         0.00000E+00
   -0.10304E-07        -0.60000E+08         0.00000E+00
    0.00000E+00         0.00000E+00        -0.60000E+08
 
   -0.60000E+08        -0.30164E-08         0.00000E+00
   -0.30164E-08        -0.60000E+08         0.00000E+00
    0.00000E+00         0.00000E+00        -0.60000E+08
 
   -0.60000E+08         0.56612E-08         0.00000E+00
    0.56612E-08        -0.60000E+08         0.00000E+00
    0.00000E+00         0.00000E+00        -0.60000E+08
 
   -0.60000E+08        -0.99739E-08         0.00000E+00
   -0.99739E-08        -0.60000E+08         0.00000E+00
    0.00000E+00         0.00000E+00        -0.60000E+08
 
   -0.60000E+08        -0.18178E-07         0.00000E+00
   -0.18178E-07        -0.60000E+08         0.00000E+00
    0.00000E+00         0.00000E+00        -0.60000E+08
 
   -0.60000E+08        -0.51532E-07         0.00000E+00
   -0.51532E-07        -0.60000E+08         0.00000E+00
    0.00000E+00         0.00000E+00        -0.60000E+08
 
   -0.60000E+08         0.18422E-07         0.00000E+00
    0.18422E-07        -0.60000E+08         0.00000E+00
    0.00000E+00         0.00000E+00        -0.60000E+08
 
   -0.60000E+08         0.29296E-08         0.00000E+00
    0.29296E-08        -0.60000E+08         0.00000E+00
    0.00000E+00         0.00000E+00        -0.60000E+08
 
   -0.60000E+08         0.16529E-07         0.00000E+00
    0.16529E-07        -0.60000E+08         0.00000E+00
    0.00000E+00         0.00000E+00        -0.60000E+08
 
   -0.60000E+08         0.70585E-08         0.00000E+00
    0.70585E-08        -0.60000E+08         0.00000E+00
    0.00000E+00         0.00000E+00        -0.60000E+08
 
   -0.60000E+08         0.25755E-08         0.00000E+00
    0.25755E-08        -0.60000E+08         0.00000E+00
    0.00000E+00         0.00000E+00        -0.60000E+08
 
   -0.60000E+08         0.69705E-08         0.00000E+00
    0.69705E-08        -0.60000E+08         0.00000E+00
    0.00000E+00         0.00000E+00        -0.60000E+08
 
   -0.60000E+08         0.22144E-08         0.00000E+00
    0.22144E-08        -0.60000E+08         0.00000E+00
    0.00000E+00         0.00000E+00        -0.60000E+08
 
   -0.60000E+08        -0.99433E-08         0.00000E+00
   -0.99433E-08        -0.60000E+08         0.00000E+00
    0.00000E+00         0.00000E+00        -0.60000E+08
 
   -0.60000E+08         0.13193E-08         0.00000E+00
    0.13193E-08        -0.60000E+08         0.00000E+00
    0.00000E+00         0.00000E+00        -0.60000E+08
 
   -0.60000E+08        -0.95988E-08         0.00000E+00
   -0.95988E-08        -0.60000E+08         0.00000E+00
    0.00000E+00         0.00000E+00        -0.60000E+08
 
   -0.60000E+08         0.19058E-09         0.00000E+00
    0.19058E-09        -0.60000E+08         0.00000E+00
    0.00000E+00         0.00000E+00        -0.60000E+08
 
   -0.60000E+08         0.90424E-08         0.00000E+00
    0.90424E-08        -0.60000E+08         0.00000E+00
    0.00000E+00         0.00000E+00        -0.60000E+08
 
   -0.60000E+08        -0.81053E-08         0.00000E+00
   -0.81053E-08        -0.60000E+08         0.00000E+00
    0.00000E+00         0.00000E+00        -0.60000E+08
 
   -0.60000E+08        -0.15667E-07         0.00000E+00
   -0.15667E-07        -0.60000E+08         0.00000E+00
    0.00000E+00         0.00000E+00        -0.60000E+08
 
   -0.60000E+08        -0.57068E-07         0.00000E+00
   -0.57068E-07        -0.60000E+08         0.00000E+00
    0.00000E+00         0.00000E+00        -0.60000E+08
 
   -0.60000E+08         0.11490E-07         0.00000E+00
    0.11490E-07        -0.60000E+08         0.00000E+00
    0.00000E+00         0.00000E+00        -0.60000E+08
 
   -0.60000E+08         0.41688E-09         0.00000E+00
    0.41688E-09        -0.60000E+08         0.00000E+00
    0.00000E+00         0.00000E+00        -0.60000E+08
 
   -0.60000E+08         0.12801E-07         0.00000E+00
    0.12801E-07        -0.60000E+08         0.00000E+00
    0.00000E+00         0.00000E+00        -0.60000E+08
 
   -0.60000E+08        -0.15823E-08         0.00000E+00
   -0.15823E-08        -0.60000E+08         0.00000E+00
    0.00000E+00         0.00000E+00        -0.60000E+08
 
   -0.60000E+08         0.12528E-07         0.00000E+00
    0.12528E-07        -0.60000E+08         0.00000E+00
    0.00000E+00         0.00000E+00        -0.60000E+08
 
   -0.60000E+08         0.10631E-07         0.00000E+00
    0.10631E-07        -0.60000E+08         0.00000E+00
    0.00000E+00         0.00000E+00        -0.60000E+08
 
   -0.60000E+08         0.46400E-08         0.00000E+00
    0.46400E-08        -0.60000E+08         0.00000E+00
    0.00000E+00         0.00000E+00        -0.60000E+08
 
   -0.60000E+08        -0.11108E-07         0.00000E+00
   -0.11108E-07        -0.60000E+08         0.00000E+00
    0.00000E+00         0.00000E+00        -0.60000E+08
 
   -0.60000E+08        -0.57825E-09         0.00000E+00
   -0.57825E-09        -0.60000E+08         0.00000E+00
    0.00000E+00         0.00000E+00        -0.60000E+08
 
   -0.60000E+08        -0.71306E-08         0.00000E+00
   -0.71306E-08        -0.60000E+08         0.00000E+00
    0.00000E+00         0.00000E+00        -0.60000E+08
 
   -0.60000E+08         0.11417E-08         0.00000E+00
    0.11417E-08        -0.60000E+08         0.00000E+00
    0.00000E+00         0.00000E+00        -0.60000E+08
 
   -0.60000E+08         0.55445E-08         0.00000E+00
    0.55445E-08        -0.60000E+08         0.00000E+00
    0.00000E+00         0.00000E+00        -0.60000E+08
 
   -0.60000E+08        -0.56974E-08         0.00000E+00
   -0.56974E-08        -0.60000E+08         0.00000E+00
    0.00000E+00         0.00000E+00        -0.60000E+08
 
   -0.60000E+08        -0.27291E-07         0.00000E+00
   -0.27291E-07        -0.60000E+08         0.00000E+00
    0.00000E+00         0.00000E+00        -0.60000E+08
 
   -0.60000E+08        -0.62484E-07         0.00000E+00
   -0.62484E-07        -0.60000E+08         0.00000E+00
    0.00000E+00         0.00000E+00        -0.60000E+08
 
   -0.60000E+08         0.46007E-08         0.00000E+00
    0.46007E-08        -0.60000E+08         0.00000E+00
    0.00000E+00         0.00000E+00        -0.60000E+08
 
   -0.60000E+08        -0.57026E-08         0.00000E+00
   -0.57026E-08        -0.60000E+08         0.00000E+00
    0.00000E+00         0.00000E+00        -0.60000E+08
 
   -0.60000E+08         0.83414E-08         0.00000E+00
    0.83414E-08        -0.60000E+08         0.00000E+00
    0.00000E+00         0.00000E+00        -0.60000E+08
 
   -0.60000E+08         0.73260E-08         0.00000E+00
    0.73260E-08        -0.60000E+08         0.00000E+00
    0.00000E+00         0.00000E+00        -0.60000E+08
 
   -0.60000E+08         0.13224E-07         0.00000E+00
    0.13224E-07        -0.60000E+08         0.00000E+00
    0.00000E+00         0.00000E+00        -0.60000E+08
 
   -0.60000E+08         0.53549E-08         0.00000E+00
    0.53549E-08        -0.60000E+08         0.00000E+00
    0.00000E+00         0.00000E+00        -0.60000E+08
 
   -0.60000E+08         0.40172E-09         0.00000E+00
    0.40172E-09        -0.60000E+08         0.00000E+00
    0.00000E+00         0.00000E+00        -0.60000E+08
 
   -0.60000E+08        -0.51173E-09         0.00000E+00
   -0.51173E-09        -0.60000E+08         0.00000E+00
    0.00000E+00         0.00000E+00        -0.60000E+08
 
   -0.60000E+08         0.85442E-08         0.00000E+00
    0.85442E-08        -0.60000E+08         0.00000E+00
    0.00000E+00         0.00000E+00        -0.60000E+08
 
   -0.60000E+08        -0.14347E-08         0.00000E+00
   -0.14347E-08        -0.60000E+08         0.00000E+00
    0.00000E+00         0.00000E+00        -0.60000E+08
 
   -0.60000E+08        -0.23948E-08         0.00000E+00
   -0.23948E-08        -0.60000E+08         0.00000E+00
    0.00000E+00         0.00000E+00        -0.60000E+08
 
   -0.60000E+08        -0.13736E-08         0.00000E+00
   -0.13736E-08        -0.60000E+08         0.00000E+00
    0.00000E+00         0.00000E+00        -0.60000E+08
 
   -0.60000E+08        -0.11102E-07         0.00000E+00
   -0.11102E-07        -0.60000E+08         0.00000E+00
    0.00000E+00         0.00000E+00        -0.60000E+08
 
   -0.60000E+08        -0.20094E-07         0.00000E+00
   -0.20094E-07        -0.60000E+08         0.00000E+00
    0.00000E+00         0.00000E+00        -0.60000E+08
 
   -0.60000E+08        -0.64898E-07         0.00000E+00
   -0.64898E-07        -0.60000E+08         0.00000E+00
    0.00000E+00         0.00000E+00        -0.60000E+08
 
   -0.60000E+08         0.19923E-08         0.00000E+00
    0.19923E-08        -0.60000E+08         0.00000E+00
    0.00000E+00         0.00000E+00        -0.60000E+08
 
   -0.60000E+08         0.75266E-08         0.00000E+00
    0.75266E-08        -0.60000E+08         0.00000E+00
    0.00000E+00         0.00000E+00        -0.60000E+08
 
   -0.60000E+08         0.80657E-08         0.00000E+00
    0.80657E-08        -0.60000E+08         0.00000E+00
    0.00000E+00         0.00000E+00        -0.60000E+08
 
   -0.60000E+08         0.28849E-08         0.00000E+00
    0.28849E-08        -0.60000E+08         0.00000E+00
    0.00000E+00         0.00000E+00        -0.60000E+08
 
   -0.60000E+08        -0.48173E-08         0.00000E+00
   -0.48173E-08        -0.60000E+08         0.00000E+00
    0.00000E+00         0.00000E+00        -0.60000E+08
 
   -0.60000E+08         0.13379E-07         0.00000E+00
    0.13379E-07        -0.60000E+08         0.00000E+00
    0.00000E+00         0.00000E+00        -0.60000E+08
 
   -0.60000E+08         0.91831E-08         0.00000E+00
    0.91831E-08        -0.60000E+08         0.00000E+00
    0.00000E+00         0.00000E+00        -0.60000E+08
 
   -0.60000E+08        -0.24081E-08         0.00000E+00
   -0.24081E-08        -0.60000E+08         0.00000E+00
    0.00000E+00         0.00000E+00        -0.60000E+08
 
   -0.60000E+08        -0.20302E-08         0.00000E+00
   -0.20302E-08        -0.60000E+08         0.00000E+00
    0.00000E+00         0.00000E+00        -0.60000E+08
 
   -0.60000E+08        -0.59474E-08         0.00000E+00
   -0.59474E-08        -0.60000E+08         0.00000E+00
    0.00000E+00         0.00000E+00        -0.60000E+08
 
   -0.60000E+08         0.56424E-08         0.00000E+00
    0.56424E-08        -0.60000E+08         0.00000E+00
    0.00000E+00         0.00000E+00        -0.60000E+08
 
   -0.60000E+08         0.12165E-07         0.00000E+00
    0.12165E-07        -0.60000E+08         0.00000E+00
    0.00000E+00         0.00000E+00        -0.60000E+08
 
   -0.60000E+08        -0.18965E-08         0.00000E+00
   -0.18965E-08        -0.60000E+08         0.00000E+00
    0.00000E+00         0.00000E+00        -0.60000E+08
 
   -0.60000E+08        -0.24141E-07         0.00000E+00
   -0.24141E-07        -0.60000E+08         0.00000E+00
    0.00000E+00         0.00000E+00        -0.60000E+08
 
   -0.60000E+08        -0.50944E-07         0.00000E+00
   -0.50944E-07        -0.60000E+08         0.00000E+00
    0.00000E+00         0.00000E+00        -0.60000E+08
 
   -0.60000E+08         0.17808E-07         0.00000E+00
    0.17808E-07        -0.60000E+08         0.00000E+00
    0.00000E+00         0.00000E+00        -0.60000E+08
 
   -0.60000E+08         0.11998E-07         0.00000E+00
    0.11998E-07        -0.60000E+08         0.00000E+00
    0.00000E+00         0.00000E+00        -0.60000E+08
 
   -0.60000E+08         0.10800E-07         0.00000E+00
    0.10800E-07        -0.60000E+08         0.00000E+00
    0.00000E+00         0.00000E+00        -0.60000E+08
 
   -0.60000E+08         0.17415E-07         0.00000E+00
    0.17415E-07        -0.60000E+08         0.00000E+00
    0.00000E+00         0.00000E+00        -0.60000E+08
 
   -0.60000E+08         0.72504E-09         0.00000E+00
    0.72504E-09        -0.60000E+08         0.00000E+00
    0.00000E+00         0.00000E+00        -0.60000E+08
 
   -0.60000E+08         0.19171E-07         0.00000E+00
    0.19171E-07        -0.60000E+08         0.00000E+00
    0.00000E+00         0.00000E+00        -0.60000E+08
 
   -0.60000E+08         0.69221E-08         0.00000E+00
    0.69221E-08        -0.60000E+08         0.00000E+00
    0.00000E+00         0.00000E+00        -0.60000E+08
 
   -0.60000E+08        -0.10963E-07         0.00000E+00
   -0.10963E-07        -0.60000E+08         0.00000E+00
    0.00000E+00         0.00000E+00        -0.60000E+08
 
   -0.60000E+08         0.22871E-08         0.00000E+00
    0.22871E-08        -0.60000E+08         0.00000E+00
    0.00000E+00         0.00000E+00        -0.60000E+08
 
   -0.60000E+08         0.10780E-08         0.00000E+00
    0.10780E-08        -0.60000E+08         0.00000E+00
    0.00000E+00         0.00000E+00        -0.60000E+08
 
   -0.60000E+08         0.37947E-08         0.00000E+00
    0.37947E-08        -0.60000E+08         0.00000E+00
    0.00000E+00         0.00000E+00        -0.60000E+08
 
   -0.60000E+08        -0.45899E-09         0.00000E+00
   -0.45899E-09        -0.60000E+08         0.00000E+00
    0.00000E+00         0.00000E+00        -0.60000E+08
 
   -0.60000E+08        -0.47888E-08         0.00000E+00
   -0.47888E-08        -0.60000E+08         0.00000E+00
    0.00000E+00         0.00000E+00        -0.60000E+08
 
   -0.60000E+08        -0.13809E-07         0.00000E+00
   -0.13809E-07        -0.60000E+08         0.00000E+00
    0.00000E+00         0.00000E+00        -0.60000E+08
 
   -0.60000E+08        -0.56179E-07         0.00000E+00
   -0.56179E-07        -0.60000E+08         0.00000E+00
    0.00000E+00         0.00000E+00        -0.60000E+08
 
   -0.60000E+08         0.12283E-07         0.00000E+00
    0.12283E-07        -0.60000E+08         0.00000E+00
    0.00000E+00         0.00000E+00        -0.60000E+08
 
   -0.60000E+08         0.79895E-09         0.00000E+00
    0.79895E-09        -0.60000E+08         0.00000E+00
    0.00000E+00         0.00000E+00        -0.60000E+08
 
   -0.60000E+08        -0.96954E-09         0.00000E+00
   -0.96954E-09        -0.60000E+08         0.00000E+00
    0.00000E+00         0.00000E+00        -0.60000E+08
 
   -0.60000E+08         0.27054E-07         0.00000E+00
    0.27054E-07        -0.60000E+08         0.00000E+00
    0.00000E+00         0.00000E+00        -0.60000E+08
 
   -0.60000E+08         0.12516E-07         0.00000E+00
    0.12516E-07        -0.60000E+08         0.00000E+00
    0.00000E+00         0.00000E+00        -0.60000E+08
 
   -0.60000E+08         0.72033E-08         0.00000E+00
    0.72033E-08        -0.60000E+08         0.00000E+00
    0.00000E+00         0.00000E+00        -0.60000E+08
 
   -0.60000E+08        -0.20880E-08         0.00000E+00
   -0.20880E-08        -0.60000E+08         0.00000E+00
    0.00000E+00         0.00000E+00        -0.60000E+08
 
   -0.60000E+08        -0.91795E-08         0.00000E+00
   -0.91795E-08        -0.60000E+08         0.00000E+00
    0.00000E+00         0.00000E+00        -0.60000E+08
 
   -0.60000E+08         0.27882E-08         0.00000E+00
    0.27882E-08        -0.60000E+08         0.00000E+00
    0.00000E+00         0.00000E+00        -0.60000E+08
 
   -0.60000E+08        -0.56389E-08         0.00000E+00
   -0.56389E-08        -0.60000E+08         0.00000E+00
    0.00000E+00         0.00000E+00        -0.60000E+08
 
   -0.60000E+08         0.27619E-10         0.00000E+00
    0.27619E-10        -0.60000E+08         0.00000E+00
    0.00000E+00         0.00000E+00        -0.60000E+08
 
   -0.60000E+08         0.54443E-08         0.00000E+00
    0.54443E-08        -0.60000E+08         0.00000E+00
    0.00000E+00         0.00000E+00        -0.60000E+08
 
   -0.60000E+08        -0.22001E-08         0.00000E+00
   -0.22001E-08        -0.60000E+08         0.00000E+00
    0.00000E+00         0.00000E+00        -0.60000E+08
 
   -0.60000E+08        -0.20955E-07         0.00000E+00
   -0.20955E-07        -0.60000E+08         0.00000E+00
    0.00000E+00         0.00000E+00        -0.60000E+08
 
   -0.60000E+08        -0.66349E-07         0.00000E+00
   -0.66349E-07        -0.60000E+08         0.00000E+00
    0.00000E+00         0.00000E+00        -0.60000E+08
 
   -0.60000E+08         0.78612E-08         0.00000E+00
    0.78612E-08        -0.60000E+08         0.00000E+00
    0.00000E+00         0.00000E+00        -0.60000E+08
 
   -0.60000E+08         0.21568E-08         0.00000E+00
    0.21568E-08        -0.60000E+08         0.00000E+00
    0.00000E+00         0.00000E+00        -0.60000E+08
 
   -0.60000E+08         0.24550E-09         0.00000E+00
    0.24550E-09        -0.60000E+08         0.00000E+00
    0.00000E+00         0.00000E+00        -0.60000E+08
 
   -0.60000E+08         0.90334E-08         0.00000E+00
    0.90334E-08        -0.60000E+08         0.00000E+00
    0.00000E+00         0.00000E+00        -0.60000E+08
 
   -0.60000E+08         0.28841E-08         0.00000E+00
    0.28841E-08        -0.60000E+08         0.00000E+00
    0.00000E+00         0.00000E+00        -0.60000E+08
 
   -0.60000E+08         0.86455E-08         0.00000E+00
    0.86455E-08        -0.60000E+08         0.00000E+00
    0.00000E+00         0.00000E+00        -0.60000E+08
 
   -0.60000E+08         0.11932E-07         0.00000E+00
    0.11932E-07        -0.60000E+08         0.00000E+00
    0.00000E+00         0.00000E+00        -0.60000E+08
 
   -0.60000E+08        -0.53662E-08         0.00000E+00
   -0.53662E-08        -0.60000E+08         0.00000E+00
    0.00000E+00         0.00000E+00        -0.60000E+08
 
   -0.60000E+08         0.37955E-08         0.00000E+00
    0.37955E-08        -0.60000E+08         0.00000E+00
    0.00000E+00         0.00000E+00        -0.60000E+08
 
   -0.60000E+08        -0.89850E-08         0.00000E+00
   -0.89850E-08        -0.60000E+08         0.00000E+00
    0.00000E+00         0.00000E+00        -0.60000E+08
 
   -0.60000E+08        -0.30296E-08         0.00000E+00
   -0.30296E-08        -0.60000E+08         0.00000E+00
    0.00000E+00         0.00000E+00        -0.60000E+08
 
   -0.60000E+08        -0.24864E-08         0.00000E+00
   -0.24864E-08        -0.60000E+08         0.00000E+00
    0.00000E+00         0.00000E+00        -0.60000E+08
 
   -0.60000E+08        -0.12258E-07         0.00000E+00
   -0.12258E-07        -0.60000E+08         0.00000E+00
    0.00000E+00         0.00000E+00        -0.60000E+08
 
   -0.60000E+08        -0.41412E-07         0.00000E+00
   -0.41412E-07        -0.60000E+08         0.00000E+00
    0.00000E+00         0.00000E+00        -0.60000E+08
 
   -0.60000E+08        -0.64753E-07         0.00000E+00
   -0.64753E-07        -0.60000E+08         0.00000E+00
    0.00000E+00         0.00000E+00        -0.60000E+08
 
   -0.60000E+08         0.11441E-07         0.00000E+00
    0.11441E-07        -0.60000E+08         0.00000E+00
    0.00000E+00         0.00000E+00        -0.60000E+08
 
   -0.60000E+08         0.29146E-08         0.00000E+00
    0.29146E-08        -0.60000E+08         0.00000E+00
    0.00000E+00         0.00000E+00        -0.60000E+08
 
   -0.60000E+08         0.41237E-08         0.00000E+00
    0.41237E-08        -0.60000E+08         0.00000E+00
    0.00000E+00         0.00000E+00        -0.60000E+08
 
   -0.60000E+08         0.11399E-07         0.00000E+00
    0.11399E-07        -0.60000E+08         0.00000E+00
    0.00000E+00         0.00000E+00        -0.60000E+08
 
   -0.60000E+08         0.85504E-08         0.00000E+00
    0.85504E-08        -0.60000E+08         0.00000E+00
    0.00000E+00         0.00000E+00        -0.60000E+08
 
   -0.60000E+08         0.66339E-08         0.00000E+00
    0.66339E-08        -0.60000E+08         0.00000E+00
    0.00000E+00         0.00000E+00        -0.60000E+08
 
   -0.60000E+08         0.13734E-07         0.00000E+00
    0.13734E-07        -0.60000E+08         0.00000E+00
    0.00000E+00         0.00000E+00        -0.60000E+08
 
   -0.60000E+08        -0.10702E-08         0.00000E+00
   -0.10702E-08        -0.60000E+08         0.00000E+00
    0.00000E+00         0.00000E+00        -0.60000E+08
 
   -0.60000E+08         0.38743E-08         0.00000E+00
    0.38743E-08        -0.60000E+08         0.00000E+00
    0.00000E+00         0.00000E+00        -0.60000E+08
 
   -0.60000E+08        -0.15368E-07         0.00000E+00
   -0.15368E-07        -0.60000E+08         0.00000E+00
    0.00000E+00         0.00000E+00        -0.60000E+08
 
   -0.60000E+08        -0.16944E-07         0.00000E+00
   -0.16944E-07        -0.60000E+08         0.00000E+00
    0.00000E+00         0.00000E+00        -0.60000E+08
 
   -0.60000E+08        -0.10671E-07         0.00000E+00
   -0.10671E-07        -0.60000E+08         0.00000E+00
    0.00000E+00         0.00000E+00        -0.60000E+08
 
   -0.60000E+08        -0.16697E-07         0.00000E+00
   -0.16697E-07        -0.60000E+08         0.00000E+00
    0.00000E+00         0.00000E+00        -0.60000E+08
 
   -0.60000E+08        -0.80395E-08         0.00000E+00
   -0.80395E-08        -0.60000E+08         0.00000E+00
    0.00000E+00         0.00000E+00        -0.60000E+08
 
   -0.60000E+08        -0.43572E-07         0.00000E+00
   -0.43572E-07        -0.60000E+08         0.00000E+00
    0.00000E+00         0.00000E+00        -0.60000E+08
 
   -0.60000E+08         0.16820E-07         0.00000E+00
    0.16820E-07        -0.60000E+08         0.00000E+00
    0.00000E+00         0.00000E+00        -0.60000E+08
 
   -0.60000E+08         0.81710E-08         0.00000E+00
    0.81710E-08        -0.60000E+08         0.00000E+00
    0.00000E+00         0.00000E+00        -0.60000E+08
 
   -0.60000E+08        -0.98352E-08         0.00000E+00
   -0.98352E-08        -0.60000E+08         0.00000E+00
    0.00000E+00         0.00000E+00        -0.60000E+08
 
   -0.60000E+08         0.60090E-08         0.00000E+00
    0.60090E-08        -0.60000E+08         0.00000E+00
    0.00000E+00         0.00000E+00        -0.60000E+08
 
   -0.60000E+08         0.89524E-08         0.00000E+00
    0.89524E-08        -0.60000E+08         0.00000E+00
    0.00000E+00         0.00000E+00        -0.60000E+08
 
   -0.60000E+08         0.91950E-08         0.00000E+00
    0.91950E-08        -0.60000E+08         0.00000E+00
    0.00000E+00         0.00000E+00        -0.60000E+08
 
   -0.60000E+08        -0.45570E-09         0.00000E+00
   -0.45570E-09        -0.60000E+08         0.00000E+00
    0.00000E+00         0.00000E+00        -0.60000E+08
 
   -0.60000E+08        -0.14731E-08         0.00000E+00
   -0.14731E-08        -0.60000E+08         0.00000E+00
    0.00000E+00         0.00000E+00        -0.60000E+08
 
   -0.60000E+08         0.69031E-08         0.00000E+00
    0.69031E-08        -0.60000E+08         0.00000E+00
    0.00000E+00         0.00000E+00        -0.60000E+08
 
   -0.60000E+08        -0.81840E-08         0.00000E+00
   -0.81840E-08        -0.60000E+08         0.00000E+00
    0.00000E+00         0.00000E+00        -0.60000E+08
 
   -0.60000E+08         0.35711E-08         0.00000E+00
    0.35711E-08        -0.60000E+08         0.00000E+00
    0.00000E+00         0.00000E+00        -0.60000E+08
 
   -0.60000E+08         0.59248E-08         0.00000E+00
    0.59248E-08        -0.60000E+08         0.00000E+00
    0.00000E+00         0.00000E+00        -0.60000E+08
 
   -0.60000E+08        -0.13952E-07         0.00000E+00
   -0.13952E-07        -0.60000E+08         0.00000E+00
    0.00000E+00         0.00000E+00        -0.60000E+08
 
   -0.60000E+08        -0.92223E-08         0.00000E+00
   -0.92223E-08        -0.60000E+08         0.00000E+00
    0.00000E+00         0.00000E+00        -0.60000E+08
 
   -0.60000E+08        -0.53702E-07         0.00000E+00
   -0.53702E-07        -0.60000E+08         0.00000E+00
    0.00000E+00         0.00000E+00        -0.60000E+08
 
   -0.60000E+08         0.11172E-07         0.00000E+00
    0.11172E-07        -0.60000E+08         0.00000E+00
    0.00000E+00         0.00000E+00        -0.60000E+08
 
   -0.60000E+08         0.17603E-07         0.00000E+00
    0.17603E-07        -0.60000E+08         0.00000E+00
    0.00000E+00         0.00000E+00        -0.60000E+08
 
   -0.60000E+08         0.27454E-08         0.00000E+00
    0.27454E-08        -0.60000E+08         0.00000E+00
    0.00000E+00         0.00000E+00        -0.60000E+08
 
   -0.60000E+08         0.16332E-08         0.00000E+00
    0.16332E-08        -0.60000E+08         0.00000E+00
    0.00000E+00         0.00000E+00        -0.60000E+08
 
   -0.60000E+08         0.76555E-08         0.00000E+00
    0.76555E-08        -0.60000E+08         0.00000E+00
    0.00000E+00         0.00000E+00        -0.60000E+08
 
   -0.60000E+08         0.12067E-07         0.00000E+00
    0.12067E-07        -0.60000E+08         0.00000E+00
    0.00000E+00         0.00000E+00        -0.60000E+08
 
   -0.60000E+08        -0.39929E-08         0.00000E+00
   -0.39929E-08        -0.60000E+08         0.00000E+00
    0.00000E+00         0.00000E+00        -0.60000E+08
 
   -0.60000E+08        -0.48877E-08         0.00000E+00
   -0.48877E-08        -0.60000E+08         0.00000E+00
    0.00000E+00         0.00000E+00        -0.60000E+08
 
   -0.60000E+08         0.45350E-08         0.00000E+00
    0.45350E-08        -0.60000E+08         0.00000E+00
    0.00000E+00         0.00000E+00        -0.60000E+08
 
   -0.60000E+08        -0.62523E-08         0.00000E+00
   -0.62523E-08        -0.60000E+08         0.00000E+00
    0.00000E+00         0.00000E+00        -0.60000E+08
 
   -0.60000E+08        -0.46635E-09         0.00000E+00
   -0.46635E-09        -0.60000E+08         0.00000E+00
    0.00000E+00         0.00000E+00        -0.60000E+08
 
   -0.60000E+08         0.51926E-08         0.00000E+00
    0.51926E-08        -0.60000E+08         0.00000E+00
    0.00000E+00         0.00000E+00        -0.60000E+08
 
   -0.60000E+08        -0.56004E-08         0.00000E+00
   -0.56004E-08        -0.60000E+08         0.00000E+00
    0.00000E+00         0.00000E+00        -0.60000E+08
 
   -0.60000E+08        -0.59783E-08         0.00000E+00
   -0.59783E-08        -0.60000E+08         0.00000E+00
    0.00000E+00         0.00000E+00        -0.60000E+08
 
   -0.60000E+08        -0.53998E-07         0.00000E+00
   -0.53998E-07        -0.60000E+08         0.00000E+00
    0.00000E+00         0.00000E+00        -0.60000E+08
 
   -0.60000E+08         0.94111E-08         0.00000E+00
    0.94111E-08        -0.60000E+08         0.00000E+00
    0.00000E+00         0.00000E+00        -0.60000E+08
 
   -0.60000E+08         0.91865E-08         0.00000E+00
    0.91865E-08        -0.60000E+08         0.00000E+00
    0.00000E+00         0.00000E+00        -0.60000E+08
 
   -0.60000E+08         0.10431E-07         0.00000E+00
    0.10431E-07        -0.60000E+08         0.00000E+00
    0.00000E+00         0.00000E+00        -0.60000E+08
 
   -0.60000E+08        -0.64101E-08         0.00000E+00
   -0.64101E-08        -0.60000E+08         0.00000E+00
    0.00000E+00         0.00000E+00        -0.60000E+08
 
   -0.60000E+08         0.14591E-07         0.00000E+00
    0.14591E-07        -0.60000E+08         0.00000E+00
    0.00000E+00         0.00000E+00        -0.60000E+08
 
   -0.60000E+08         0.68016E-08         0.00000E+00
    0.68016E-08        -0.60000E+08         0.00000E+00
    0.00000E+00         0.00000E+00        -0.60000E+08
 
   -0.60000E+08        -0.11432E-08         0.00000E+00
   -0.11432E-08        -0.60000E+08         0.00000E+00
    0.00000E+00         0.00000E+00        -0.60000E+08
 
   -0.60000E+08        -0.41634E-08         0.00000E+00
   -0.41634E-08        -0.60000E+08         0.00000E+00
    0.00000E+00         0.00000E+00        -0.60000E+08
 
   -0.60000E+08         0.89434E-08         0.00000E+00
    0.89434E-08        -0.60000E+08         0.00000E+00
    0.00000E+00         0.00000E+00        -0.60000E+08
 
   -0.60000E+08        -0.91062E-08         0.00000E+00
   -0.91062E-08        -0.60000E+08         0.00000E+00
    0.00000E+00         0.00000E+00        -0.60000E+08
 
   -0.60000E+08        -0.19247E-08         0.00000E+00
   -0.19247E-08        -0.60000E+08         0.00000E+00
    0.00000E+00         0.00000E+00        -0.60000E+08
 
   -0.60000E+08         0.43235E-08         0.00000E+00
    0.43235E-08        -0.60000E+08         0.00000E+00
    0.00000E+00         0.00000E+00        -0.60000E+08
 
   -0.60000E+08        -0.57374E-08         0.00000E+00
   -0.57374E-08        -0.60000E+08         0.00000E+00
    0.00000E+00         0.00000E+00        -0.60000E+08
 
   -0.60000E+08        -0.56289E-07         0.00000E+00
   -0.56289E-07        -0.60000E+08         0.00000E+00
    0.00000E+00         0.00000E+00        -0.60000E+08
 
   -0.60000E+08        -0.81449E-07         0.00000E+00
   -0.81449E-07        -0.60000E+08         0.00000E+00
    0.00000E+00         0.00000E+00        -0.60000E+08
 
   -0.60000E+08         0.86827E-09         0.00000E+00
    0.86827E-09        -0.60000E+08         0.00000E+00
    0.00000E+00         0.00000E+00        -0.60000E+08
 
   -0.60000E+08        -0.21563E-08         0.00000E+00
   -0.21563E-08        -0.60000E+08         0.00000E+00
    0.00000E+00         0.00000E+00        -0.60000E+08
 
   -0.60000E+08         0.45693E-09         0.00000E+00
    0.45693E-09        -0.60000E+08         0.00000E+00
    0.00000E+00         0.00000E+00        -0.60000E+08
 
   -0.60000E+08        -0.32398E-08         0.00000E+00
   -0.32398E-08        -0.60000E+08         0.00000E+00
    0.00000E+00         0.00000E+00        -0.60000E+08
 
   -0.60000E+08         0.19022E-07         0.00000E+00
    0.19022E-07        -0.60000E+08         0.00000E+00
    0.00000E+00         0.00000E+00        -0.60000E+08
 
   -0.60000E+08        -0.58904E-08         0.00000E+00
   -0.58904E-08        -0.60000E+08         0.00000E+00
    0.00000E+00         0.00000E+00        -0.60000E+08
 
   -0.60000E+08         0.69712E-09         0.00000E+00
    0.69712E-09        -0.60000E+08         0.00000E+00
    0.00000E+00         0.00000E+00        -0.60000E+08
 
   -0.60000E+08        -0.38996E-08         0.00000E+00
   -0.38996E-08        -0.60000E+08         0.00000E+00
    0.00000E+00         0.00000E+00        -0.60000E+08
 
   -0.60000E+08        -0.73201E-09         0.00000E+00
   -0.73201E-09        -0.60000E+08         0.00000E+00
    0.00000E+00         0.00000E+00        -0.60000E+08
 
   -0.60000E+08        -0.12393E-07         0.00000E+00
   -0.12393E-07        -0.60000E+08         0.00000E+00
    0.00000E+00         0.00000E+00        -0.60000E+08
 
   -0.60000E+08         0.32777E-08         0.00000E+00
    0.32777E-08        -0.60000E+08         0.00000E+00
    0.00000E+00         0.00000E+00        -0.60000E+08
 
   -0.60000E+08         0.10899E-08         0.00000E+00
    0.10899E-08        -0.60000E+08         0.00000E+00
    0.00000E+00         0.00000E+00        -0.60000E+08
 
   -0.60000E+08        -0.62283E-08         0.00000E+00
   -0.62283E-08        -0.60000E+08         0.00000E+00
    0.00000E+00         0.00000E+00        -0.60000E+08
 
   -0.60000E+08        -0.37472E-07         0.00000E+00
   -0.37472E-07        -0.60000E+08         0.00000E+00
    0.00000E+00         0.00000E+00        -0.60000E+08
 
   -0.60000E+08        -0.68420E-07         0.00000E+00
   -0.68420E-07        -0.60000E+08         0.00000E+00
    0.00000E+00         0.00000E+00        -0.60000E+08
 
   -0.60000E+08         0.14535E-07         0.00000E+00
    0.14535E-07        -0.60000E+08         0.00000E+00
    0.00000E+00         0.00000E+00        -0.60000E+08
 
   -0.60000E+08         0.71631E-08         0.00000E+00
    0.71631E-08        -0.60000E+08         0.00000E+00
    0.00000E+00         0.00000E+00        -0.60000E+08
 
   -0.60000E+08         0.27189E-08         0.00000E+00
    0.27189E-08        -0.60000E+08         0.00000E+00
    0.00000E+00         0.00000E+00        -0.60000E+08
 
   -0.60000E+08        -0.13394E-08         0.00000E+00
   -0.13394E-08        -0.60000E+08         0.00000E+00
    0.00000E+00         0.00000E+00        -0.60000E+08
 
   -0.60000E+08         0.12089E-07         0.00000E+00
    0.12089E-07        -0.60000E+08         0.00000E+00
    0.00000E+00         0.00000E+00        -0.60000E+08
 
   -0.60000E+08        -0.83949E-08         0.00000E+00
   -0.83949E-08        -0.60000E+08         0.00000E+00
    0.00000E+00         0.00000E+00        -0.60000E+08
 
   -0.60000E+08         0.63975E-08         0.00000E+00
    0.63975E-08        -0.60000E+08         0.00000E+00
    0.00000E+00         0.00000E+00        -0.60000E+08
 
   -0.60000E+08        -0.22058E-07         0.00000E+00
   -0.22058E-07        -0.60000E+08         0.00000E+00
    0.00000E+00         0.00000E+00        -0.60000E+08
 
   -0.60000E+08        -0.95148E-08         0.00000E+00
   -0.95148E-08        -0.60000E+08         0.00000E+00
    0.00000E+00         0.00000E+00        -0.60000E+08
 
   -0.60000E+08        -0.13944E-07         0.00000E+00
   -0.13944E-07        -0.60000E+08         0.00000E+00
    0.00000E+00         0.00000E+00        -0.60000E+08
 
   -0.60000E+08        -0.58617E-08         0.00000E+00
   -0.58617E-08        -0.60000E+08         0.00000E+00
    0.00000E+00         0.00000E+00        -0.60000E+08
 
   -0.60000E+08         0.27432E-09         0.00000E+00
    0.27432E-09        -0.60000E+08         0.00000E+00
    0.00000E+00         0.00000E+00        -0.60000E+08
 
   -0.60000E+08         0.16112E-08         0.00000E+00
    0.16112E-08        -0.60000E+08         0.00000E+00
    0.00000E+00         0.00000E+00        -0.60000E+08
 
   -0.60000E+08         0.25777E-08         0.00000E+00
    0.25777E-08        -0.60000E+08         0.00000E+00
    0.00000E+00         0.00000E+00        -0.60000E+08
 
   -0.60000E+08        -0.42565E-07         0.00000E+00
   -0.42565E-07        -0.60000E+08         0.00000E+00
    0.00000E+00         0.00000E+00        -0.60000E+08
 
   -0.60000E+08         0.14724E-07         0.00000E+00
    0.14724E-07        -0.60000E+08         0.00000E+00
    0.00000E+00         0.00000E+00        -0.60000E+08
 
   -0.60000E+08        -0.97022E-08         0.00000E+00
   -0.97022E-08        -0.60000E+08         0.00000E+00
    0.00000E+00         0.00000E+00        -0.60000E+08
 
   -0.60000E+08        -0.17373E-07         0.00000E+00
   -0.17373E-07        -0.60000E+08         0.00000E+00
    0.00000E+00         0.00000E+00        -0.60000E+08
 
   -0.60000E+08         0.64657E-08         0.00000E+00
    0.64657E-08        -0.60000E+08         0.00000E+00
    0.00000E+00         0.00000E+00        -0.60000E+08
 
   -0.60000E+08         0.14946E-07         0.00000E+00
    0.14946E-07        -0.60000E+08         0.00000E+00
    0.00000E+00         0.00000E+00        -0.60000E+08
 
   -0.60000E+08        -0.27360E-07         0.00000E+00
   -0.27360E-07        -0.60000E+08         0.00000E+00
    0.00000E+00         0.00000E+00        -0.60000E+08
 
   -0.60000E+08        -0.65912E-08         0.00000E+00
   -0.65912E-08        -0.60000E+08         0.00000E+00
    0.00000E+00         0.00000E+00        -0.60000E+08
 
   -0.60000E+08        -0.19732E-07         0.00000E+00
   -0.19732E-07        -0.60000E+08         0.00000E+00
    0.00000E+00         0.00000E+00        -0.60000E+08
 
   -0.60000E+08         0.38559E-08         0.00000E+00
    0.38559E-08        -0.60000E+08         0.00000E+00
    0.00000E+00         0.00000E+00        -0.60000E+08
 
   -0.60000E+08        -0.11307E-07         0.00000E+00
   -0.11307E-07        -0.60000E+08         0.00000E+00
    0.00000E+00         0.00000E+00        -0.60000E+08
 
   -0.60000E+08        -0.30988E-08         0.00000E+00
   -0.30988E-08        -0.60000E+08         0.00000E+00
    0.00000E+00         0.00000E+00        -0.60000E+08
 
   -0.60000E+08         0.35962E-08         0.00000E+00
    0.35962E-08        -0.60000E+08         0.00000E+00
    0.00000E+00         0.00000E+00        -0.60000E+08
 
   -0.60000E+08        -0.88175E-08         0.00000E+00
   -0.88175E-08        -0.60000E+08         0.00000E+00
    0.00000E+00         0.00000E+00        -0.60000E+08
 
   -0.60000E+08        -0.19867E-08         0.00000E+00
   -0.19867E-08        -0.60000E+08         0.00000E+00
    0.00000E+00         0.00000E+00        -0.60000E+08
 
   -0.60000E+08        -0.48948E-07         0.00000E+00
   -0.48948E-07        -0.60000E+08         0.00000E+00
    0.00000E+00         0.00000E+00        -0.60000E+08
 
   -0.60000E+08         0.18810E-08         0.00000E+00
    0.18810E-08        -0.60000E+08         0.00000E+00
    0.00000E+00         0.00000E+00        -0.60000E+08
 
   -0.60000E+08        -0.23231E-07         0.00000E+00
   -0.23231E-07        -0.60000E+08         0.00000E+00
    0.00000E+00         0.00000E+00        -0.60000E+08
 
   -0.60000E+08        -0.17094E-07         0.00000E+00
   -0.17094E-07        -0.60000E+08         0.00000E+00
    0.00000E+00         0.00000E+00        -0.60000E+08
 
   -0.60000E+08         0.15411E-07         0.00000E+00
    0.15411E-07        -0.60000E+08         0.00000E+00
    0.00000E+00         0.00000E+00        -0.60000E+08
 
   -0.60000E+08         0.39425E-08         0.00000E+00
    0.39425E-08        -0.60000E+08         0.00000E+00
    0.00000E+00         0.00000E+00        -0.60000E+08
 
   -0.60000E+08        -0.29069E-07         0.00000E+00
   -0.29069E-07        -0.60000E+08         0.00000E+00
    0.00000E+00         0.00000E+00        -0.60000E+08
 
   -0.60000E+08         0.61385E-08         0.00000E+00
    0.61385E-08        -0.60000E+08         0.00000E+00
    0.00000E+00         0.00000E+00        -0.60000E+08
 
   -0.60000E+08        -0.11977E-07         0.00000E+00
   -0.11977E-07        -0.60000E+08         0.00000E+00
    0.00000E+00         0.00000E+00        -0.60000E+08
 
   -0.60000E+08        -0.23363E-09         0.00000E+00
   -0.23363E-09        -0.60000E+08         0.00000E+00
    0.00000E+00         0.00000E+00        -0.60000E+08
 
   -0.60000E+08        -0.13625E-07         0.00000E+00
   -0.13625E-07        -0.60000E+08         0.00000E+00
    0.00000E+00         0.00000E+00        -0.60000E+08
 
   -0.60000E+08        -0.95958E-08         0.00000E+00
   -0.95958E-08        -0.60000E+08         0.00000E+00
    0.00000E+00         0.00000E+00        -0.60000E+08
 
   -0.60000E+08         0.14795E-08         0.00000E+00
    0.14795E-08        -0.60000E+08         0.00000E+00
    0.00000E+00         0.00000E+00        -0.60000E+08
 
   -0.60000E+08        -0.85310E-08         0.00000E+00
   -0.85310E-08        -0.60000E+08         0.00000E+00
    0.00000E+00         0.00000E+00        -0.60000E+08
 
   -0.60000E+08        -0.52910E-07         0.00000E+00
   -0.52910E-07        -0.60000E+08         0.00000E+00
    0.00000E+00         0.00000E+00        -0.60000E+08
 
   -0.60000E+08        -0.92557E-07         0.00000E+00
   -0.92557E-07        -0.60000E+08         0.00000E+00
    0.00000E+00         0.00000E+00        -0.60000E+08
 
   -0.60000E+08        -0.16981E-07         0.00000E+00
   -0.16981E-07        -0.60000E+08         0.00000E+00
    0.00000E+00         0.00000E+00        -0.60000E+08
 
   -0.60000E+08        -0.26616E-07         0.00000E+00
   -0.26616E-07        -0.60000E+08         0.00000E+00
    0.00000E+00         0.00000E+00        -0.60000E+08
 
   -0.60000E+08        -0.34325E-07         0.00000E+00
   -0.34325E-07        -0.60000E+08         0.00000E+00
    0.00000E+00         0.00000E+00        -0.60000E+08
 
   -0.60000E+08         0.68463E-08         0.00000E+00
    0.68463E-08        -0.60000E+08         0.00000E+00
    0.00000E+00         0.00000E+00        -0.60000E+08
 
   -0.60000E+08         0.93737E-08         0.00000E+00
    0.93737E-08        -0.60000E+08         0.00000E+00
    0.00000E+00         0.00000E+00        -0.60000E+08
 
   -0.60000E+08        -0.13318E-07         0.00000E+00
   -0.13318E-07        -0.60000E+08         0.00000E+00
    0.00000E+00         0.00000E+00        -0.60000E+08
 
   -0.60000E+08         0.29912E-08         0.00000E+00
    0.29912E-08        -0.60000E+08         0.00000E+00
    0.00000E+00         0.00000E+00        -0.60000E+08
 
   -0.60000E+08        -0.23226E-07         0.00000E+00
   -0.23226E-07        -0.60000E+08         0.00000E+00
    0.00000E+00         0.00000E+00        -0.60000E+08
 
   -0.60000E+08        -0.77839E-08         0.00000E+00
   -0.77839E-08        -0.60000E+08         0.00000E+00
    0.00000E+00         0.00000E+00        -0.60000E+08
 
   -0.60000E+08        -0.11457E-07         0.00000E+00
   -0.11457E-07        -0.60000E+08         0.00000E+00
    0.00000E+00         0.00000E+00        -0.60000E+08
 
   -0.60000E+08        -0.34560E-08         0.00000E+00
   -0.34560E-08        -0.60000E+08         0.00000E+00
    0.00000E+00         0.00000E+00        -0.60000E+08
 
   -0.60000E+08         0.75656E-09         0.00000E+00
    0.75656E-09        -0.60000E+08         0.00000E+00
    0.00000E+00         0.00000E+00        -0.60000E+08
 
   -0.60000E+08        -0.72253E-08         0.00000E+00
   -0.72253E-08        -0.60000E+08         0.00000E+00
    0.00000E+00         0.00000E+00        -0.60000E+08
 
   -0.60000E+08        -0.84920E-07         0.00000E+00
   -0.84920E-07        -0.60000E+08         0.00000E+00
    0.00000E+00         0.00000E+00        -0.60000E+08
 
   -0.60000E+08        -0.96261E-07         0.00000E+00
   -0.96261E-07        -0.60000E+08         0.00000E+00
    0.00000E+00         0.00000E+00        -0.60000E+08
 
   -0.60000E+08        -0.15378E-07         0.00000E+00
   -0.15378E-07        -0.60000E+08         0.00000E+00
    0.00000E+00         0.00000E+00        -0.60000E+08
 
   -0.60000E+08        -0.37733E-07         0.00000E+00
   -0.37733E-07        -0.60000E+08         0.00000E+00
    0.00000E+00         0.00000E+00        -0.60000E+08
 
   -0.60000E+08        -0.55029E-07         0.00000E+00
   -0.55029E-07        -0.60000E+08         0.00000E+00
    0.00000E+00         0.00000E+00        -0.60000E+08
 
   -0.60000E+08         0.12921E-07         0.00000E+00
    0.12921E-07        -0.60000E+08         0.00000E+00
    0.00000E+00         0.00000E+00        -0.60000E+08
 
   -0.60000E+08         0.51947E-08         0.00000E+00
    0.51947E-08        -0.60000E+08         0.00000E+00
    0.00000E+00         0.00000E+00        -0.60000E+08
 
   -0.60000E+08        -0.12565E-07         0.00000E+00
   -0.12565E-07        -0.60000E+08         0.00000E+00
    0.00000E+00         0.00000E+00        -0.60000E+08
 
   -0.60000E+08        -0.15302E-07         0.00000E+00
   -0.15302E-07        -0.60000E+08         0.00000E+00
    0.00000E+00         0.00000E+00        -0.60000E+08
 
   -0.60000E+08        -0.11209E-07         0.00000E+00
   -0.11209E-07        -0.60000E+08         0.00000E+00
    0.00000E+00         0.00000E+00        -0.60000E+08
 
   -0.60000E+08         0.14020E-07         0.00000E+00
    0.14020E-07        -0.60000E+08         0.00000E+00
    0.00000E+00         0.00000E+00        -0.60000E+08
 
   -0.60000E+08         0.31105E-08         0.00000E+00
    0.31105E-08        -0.60000E+08         0.00000E+00
    0.00000E+00         0.00000E+00        -0.60000E+08
 
   -0.60000E+08        -0.92115E-08         0.00000E+00
   -0.92115E-08        -0.60000E+08         0.00000E+00
    0.00000E+00         0.00000E+00        -0.60000E+08
 
   -0.60000E+08        -0.12047E-07         0.00000E+00
   -0.12047E-07        -0.60000E+08         0.00000E+00
    0.00000E+00         0.00000E+00        -0.60000E+08
 
   -0.60000E+08        -0.53438E-08         0.00000E+00
   -0.53438E-08        -0.60000E+08         0.00000E+00
    0.00000E+00         0.00000E+00        -0.60000E+08
 
   -0.60000E+08         0.51577E-07         0.00000E+00
    0.51577E-07        -0.60000E+08         0.00000E+00
    0.00000E+00         0.00000E+00        -0.60000E+08
 
   -0.60000E+08        -0.21274E-07         0.00000E+00
   -0.21274E-07        -0.60000E+08         0.00000E+00
    0.00000E+00         0.00000E+00        -0.60000E+08
 
   -0.60000E+08         0.11908E-08         0.00000E+00
    0.11908E-08        -0.60000E+08         0.00000E+00
    0.00000E+00         0.00000E+00        -0.60000E+08
 
   -0.60000E+08        -0.19368E-07         0.00000E+00
   -0.19368E-07        -0.60000E+08         0.00000E+00
    0.00000E+00         0.00000E+00        -0.60000E+08
 
   -0.60000E+08        -0.22950E-07         0.00000E+00
   -0.22950E-07        -0.60000E+08         0.00000E+00
    0.00000E+00         0.00000E+00        -0.60000E+08
 
   -0.60000E+08        -0.15701E-08         0.00000E+00
   -0.15701E-08        -0.60000E+08         0.00000E+00
    0.00000E+00         0.00000E+00        -0.60000E+08
 
   -0.60000E+08        -0.18319E-07         0.00000E+00
   -0.18319E-07        -0.60000E+08         0.00000E+00
    0.00000E+00         0.00000E+00        -0.60000E+08
 
   -0.60000E+08        -0.14064E-08         0.00000E+00
   -0.14064E-08        -0.60000E+08         0.00000E+00
    0.00000E+00         0.00000E+00        -0.60000E+08
 
   -0.60000E+08        -0.18225E-07         0.00000E+00
   -0.18225E-07        -0.60000E+08         0.00000E+00
    0.00000E+00         0.00000E+00        -0.60000E+08
 
   -0.60000E+08        -0.35656E-07         0.00000E+00
   -0.35656E-07        -0.60000E+08         0.00000E+00
    0.00000E+00         0.00000E+00        -0.60000E+08
 
   -0.60000E+08        -0.43818E-08         0.00000E+00
   -0.43818E-08        -0.60000E+08         0.00000E+00
    0.00000E+00         0.00000E+00        -0.60000E+08
 
   -0.60000E+08         0.24992E-08         0.00000E+00
    0.24992E-08        -0.60000E+08         0.00000E+00
    0.00000E+00         0.00000E+00        -0.60000E+08
 
   -0.60000E+08        -0.50485E-08         0.00000E+00
   -0.50485E-08        -0.60000E+08         0.00000E+00
    0.00000E+00         0.00000E+00        -0.60000E+08
 
   -0.60000E+08         0.14526E-07         0.00000E+00
    0.14526E-07        -0.60000E+08         0.00000E+00
    0.00000E+00         0.00000E+00        -0.60000E+08
 
   -0.60000E+08         0.23203E-07         0.00000E+00
    0.23203E-07        -0.60000E+08         0.00000E+00
    0.00000E+00         0.00000E+00        -0.60000E+08
 
   -0.60000E+08        -0.67486E-08         0.00000E+00
   -0.67486E-08        -0.60000E+08         0.00000E+00
    0.00000E+00         0.00000E+00        -0.60000E+08
 
   -0.60000E+08        -0.63320E-07         0.00000E+00
   -0.63320E-07        -0.60000E+08         0.00000E+00
    0.00000E+00         0.00000E+00        -0.60000E+08
 
   -0.60000E+08        -0.45112E-07         0.00000E+00
   -0.45112E-07        -0.60000E+08         0.00000E+00
    0.00000E+00         0.00000E+00        -0.60000E+08
 
   -0.60000E+08         0.33413E-07         0.00000E+00
    0.33413E-07        -0.60000E+08         0.00000E+00
    0.00000E+00         0.00000E+00        -0.60000E+08
 
   -0.60000E+08         0.38126E-07         0.00000E+00
    0.38126E-07        -0.60000E+08         0.00000E+00
    0.00000E+00         0.00000E+00        -0.60000E+08
 
   -0.60000E+08        -0.38826E-08         0.00000E+00
   -0.38826E-08        -0.60000E+08         0.00000E+00
    0.00000E+00         0.00000E+00        -0.60000E+08
 
   -0.60000E+08        -0.60555E-07         0.00000E+00
   -0.60555E-07        -0.60000E+08         0.00000E+00
    0.00000E+00         0.00000E+00        -0.60000E+08
 
   -0.60000E+08        -0.93107E-07         0.00000E+00
   -0.93107E-07        -0.60000E+08         0.00000E+00
    0.00000E+00         0.00000E+00        -0.60000E+08
 
   -0.60000E+08        -0.83445E-08         0.00000E+00
   -0.83445E-08        -0.60000E+08         0.00000E+00
    0.00000E+00         0.00000E+00        -0.60000E+08
 
   -0.60000E+08         0.76681E-07         0.00000E+00
    0.76681E-07        -0.60000E+08         0.00000E+00
    0.00000E+00         0.00000E+00        -0.60000E+08
 
   -0.60000E+08         0.18294E-07         0.00000E+00
    0.18294E-07        -0.60000E+08         0.00000E+00
    0.00000E+00         0.00000E+00        -0.60000E+08
 
   -0.60000E+08        -0.26705E-07         0.00000E+00
   -0.26705E-07        -0.60000E+08         0.00000E+00
    0.00000E+00         0.00000E+00        -0.60000E+08
 
   -0.60000E+08         0.44675E-07         0.00000E+00
    0.44675E-07        -0.60000E+08         0.00000E+00
    0.00000E+00         0.00000E+00        -0.60000E+08
 
   -0.60000E+08         0.53808E-07         0.00000E+00
    0.53808E-07        -0.60000E+08         0.00000E+00
    0.00000E+00         0.00000E+00        -0.60000E+08
 
   -0.60000E+08         0.16478E-07         0.00000E+00
    0.16478E-07        -0.60000E+08         0.00000E+00
    0.00000E+00         0.00000E+00        -0.60000E+08
 
SCALARS stressS double 
LOOKUP_TABLE default
  -60000000.0000000     
  -60000000.0000000     
  -60000000.0000000     
  -60000000.0000000     
  -60000000.0000000     
  -60000000.0000000     
  -60000000.0000000     
  -60000000.0000000     
  -60000000.0000000     
  -60000000.0000000     
  -60000000.0000000     
  -60000000.0000000     
  -60000000.0000000     
  -60000000.0000000     
  -60000000.0000000     
  -60000000.0000000     
  -60000000.0000000     
  -60000000.0000000     
  -60000000.0000000     
  -60000000.0000000     
  -60000000.0000000     
  -60000000.0000000     
  -60000000.0000000     
  -60000000.0000000     
  -60000000.0000000     
  -60000000.0000000     
  -60000000.0000000     
  -60000000.0000000     
  -60000000.0000000     
  -60000000.0000000     
  -60000000.0000000     
  -60000000.0000000     
  -60000000.0000000     
  -60000000.0000000     
  -60000000.0000000     
  -60000000.0000000     
  -60000000.0000000     
  -60000000.0000000     
  -60000000.0000000     
  -60000000.0000000     
  -60000000.0000000     
  -60000000.0000000     
  -60000000.0000000     
  -60000000.0000000     
  -60000000.0000000     
  -60000000.0000000     
  -60000000.0000000     
  -60000000.0000000     
  -60000000.0000000     
  -60000000.0000000     
  -60000000.0000000     
  -60000000.0000000     
  -60000000.0000000     
  -60000000.0000000     
  -60000000.0000000     
  -60000000.0000000     
  -60000000.0000000     
  -60000000.0000000     
  -60000000.0000000     
  -60000000.0000000     
  -60000000.0000000     
  -60000000.0000000     
  -60000000.0000000     
  -60000000.0000000     
  -60000000.0000000     
  -60000000.0000000     
  -60000000.0000000     
  -60000000.0000000     
  -60000000.0000000     
  -60000000.0000000     
  -60000000.0000000     
  -60000000.0000000     
  -60000000.0000000     
  -60000000.0000000     
  -60000000.0000000     
  -60000000.0000000     
  -60000000.0000000     
  -60000000.0000000     
  -60000000.0000000     
  -60000000.0000000     
  -60000000.0000000     
  -60000000.0000000     
  -60000000.0000000     
  -60000000.0000000     
  -60000000.0000000     
  -60000000.0000000     
  -60000000.0000000     
  -60000000.0000000     
  -60000000.0000000     
  -60000000.0000000     
  -60000000.0000000     
  -60000000.0000000     
  -60000000.0000000     
  -60000000.0000000     
  -60000000.0000000     
  -60000000.0000000     
  -60000000.0000000     
  -60000000.0000000     
  -60000000.0000000     
  -60000000.0000000     
  -60000000.0000000     
  -60000000.0000000     
  -60000000.0000000     
  -60000000.0000000     
  -60000000.0000000     
  -60000000.0000000     
  -60000000.0000000     
  -60000000.0000000     
  -60000000.0000000     
  -60000000.0000000     
  -60000000.0000000     
  -60000000.0000000     
  -60000000.0000000     
  -60000000.0000000     
  -60000000.0000000     
  -60000000.0000000     
  -60000000.0000000     
  -60000000.0000000     
  -60000000.0000000     
  -60000000.0000000     
  -60000000.0000000     
  -60000000.0000000     
  -60000000.0000000     
  -60000000.0000000     
  -60000000.0000000     
  -60000000.0000000     
  -60000000.0000000     
  -60000000.0000000     
  -60000000.0000000     
  -60000000.0000000     
  -60000000.0000000     
  -60000000.0000000     
  -60000000.0000000     
  -60000000.0000000     
  -60000000.0000000     
  -60000000.0000000     
  -60000000.0000000     
  -60000000.0000000     
  -60000000.0000000     
  -60000000.0000000     
  -60000000.0000000     
  -60000000.0000000     
  -60000000.0000000     
  -60000000.0000000     
  -60000000.0000000     
  -60000000.0000000     
  -60000000.0000000     
  -60000000.0000000     
  -60000000.0000000     
  -60000000.0000000     
  -60000000.0000000     
  -60000000.0000000     
  -60000000.0000000     
  -60000000.0000000     
  -60000000.0000000     
  -60000000.0000000     
  -60000000.0000000     
  -60000000.0000000     
  -60000000.0000000     
  -60000000.0000000     
  -60000000.0000000     
  -60000000.0000000     
  -60000000.0000000     
  -60000000.0000000     
  -60000000.0000000     
  -60000000.0000000     
  -60000000.0000000     
  -60000000.0000000     
  -60000000.0000000     
  -60000000.0000000     
  -60000000.0000000     
  -60000000.0000000     
  -60000000.0000000     
  -60000000.0000000     
  -60000000.0000000     
  -60000000.0000000     
  -60000000.0000000     
  -60000000.0000000     
  -60000000.0000000     
  -60000000.0000000     
  -60000000.0000000     
  -60000000.0000000     
  -60000000.0000000     
  -60000000.0000000     
  -60000000.0000000     
  -60000000.0000000     
  -60000000.0000000     
  -60000000.0000000     
  -60000000.0000000     
  -60000000.0000000     
  -60000000.0000000     
  -60000000.0000000     
  -60000000.0000000     
  -60000000.0000000     
  -60000000.0000000     
  -60000000.0000000     
  -60000000.0000000     
  -60000000.0000000     
  -60000000.0000000     
  -60000000.0000000     
  -60000000.0000000     
  -60000000.0000000     
  -60000000.0000000     
  -60000000.0000000     
  -60000000.0000000     
  -60000000.0000000     
  -60000000.0000000     
  -60000000.0000000     
  -60000000.0000000     
  -60000000.0000000     
  -60000000.0000000     
  -60000000.0000000     
  -60000000.0000000     
  -60000000.0000000     
  -60000000.0000000     
  -60000000.0000000     
  -60000000.0000000     
  -60000000.0000000     
  -60000000.0000000     
  -60000000.0000000     
  -60000000.0000000     
  -60000000.0000000     
  -60000000.0000000     
  -60000000.0000000     
  -60000000.0000000     
  -60000000.0000000     
  -60000000.0000000     
  -60000000.0000000     
  -60000000.0000000     
  -60000000.0000000     
  -60000000.0000000     
  -60000000.0000000     
  -60000000.0000000     
  -60000000.0000000     
  -60000000.0000000     
  -60000000.0000000     
  -60000000.0000000     
  -60000000.0000000     
  -60000000.0000000     
  -60000000.0000000     
  -60000000.0000000     
  -60000000.0000000     
  -60000000.0000000     
  -60000000.0000000     
  -60000000.0000000     
  -60000000.0000000     
  -60000000.0000000     
  -60000000.0000000     
  -60000000.0000000     
  -60000000.0000000     
  -60000000.0000000     
  -60000000.0000000     
  -60000000.0000000     
  -60000000.0000000     
  -60000000.0000000     
  -60000000.0000000     
  -60000000.0000000     
  -60000000.0000000     
  -60000000.0000000     
  -60000000.0000000     
  -60000000.0000000     
  -60000000.0000000     
  -60000000.0000000     
  -60000000.0000000     
  -60000000.0000000     
  -60000000.0000000     
  -60000000.0000000     
  -60000000.0000000     
  -60000000.0000000     
  -60000000.0000000     
  -60000000.0000000     
  -60000000.0000000     
  -60000000.0000000     
  -60000000.0000000     
  -60000000.0000000     
  -60000000.0000000     
  -60000000.0000000     
  -60000000.0000000     
  -60000000.0000000     
  -60000000.0000000     
  -60000000.0000000     
  -60000000.0000000     
  -60000000.0000000     
  -60000000.0000000     
  -60000000.0000000     
  -60000000.0000001     
  -60000000.0000000     
  -60000000.0000000     
  -60000000.0000000     
  -60000000.0000000     
  -60000000.0000000     
  -60000000.0000000     
  -60000000.0000000     
  -60000000.0000000     
  -60000000.0000000     
  -60000000.0000000     
  -60000000.0000000     
  -60000000.0000000     
  -60000000.0000000     
  -60000000.0000000     
  -60000000.0000000     
  -60000000.0000000     
  -60000000.0000000     
  -60000000.0000000     
  -60000000.0000000     
  -60000000.0000000     
  -60000000.0000000     
  -60000000.0000000     
  -60000000.0000000     
  -60000000.0000000     
  -60000000.0000000     
  -60000000.0000000     
  -60000000.0000000     
  -60000000.0000000     
  -60000000.0000000     
  -60000000.0000000     
  -60000000.0000000     
  -60000000.0000000     
  -60000000.0000000     
  -60000000.0000000     
  -60000000.0000000     
  -60000000.0000000     
  -60000000.0000000     
  -60000000.0000000     
  -60000000.0000000     
  -60000000.0000000     
  -60000000.0000000     
  -60000000.0000000     
  -60000000.0000000     
  -60000000.0000000     
  -60000000.0000000     
  -60000000.0000000     
  -60000000.0000000     
  -60000000.0000000     
  -60000000.0000000     
  -60000000.0000000     
  -60000000.0000000     
  -60000000.0000000     
  -60000000.0000000     
  -60000000.0000000     
  -60000000.0000000     
  -60000000.0000000     
  -60000000.0000000     
  -60000000.0000000     
  -60000000.0000000     
  -60000000.0000000     
  -60000000.0000000     
  -60000000.0000000     
  -60000000.0000000     
  -60000000.0000000     
  -60000000.0000000     
  -60000000.0000000     
  -60000000.0000000     
  -60000000.0000000     
  -60000000.0000000     
  -60000000.0000000     
  -60000000.0000000     
  -60000000.0000000     
  -60000000.0000000     
  -60000000.0000000     
  -60000000.0000000     
  -60000000.0000000     
  -60000000.0000000     
  -60000000.0000000     
  -60000000.0000000     
  -60000000.0000000     
  -60000000.0000000     
  -60000000.0000000     
  -60000000.0000000     
  -60000000.0000000     
  -60000000.0000000     
  -60000000.0000000     
  -60000000.0000000     
  -60000000.0000000     
  -60000000.0000000     
  -60000000.0000000     
  -60000000.0000000     
  -60000000.0000000     
  -60000000.0000000     
  -60000000.0000000     
  -60000000.0000000     
  -60000000.0000000     
  -60000000.0000000     
  -60000000.0000000     
  -60000000.0000000     
  -60000000.0000000     
  -60000000.0000000     
  -60000000.0000000     
  -60000000.0000000     
  -60000000.0000000     
  -59999999.9999999     
  -60000000.0000000     
  -60000000.0000000     
  -60000000.0000000     
  -60000000.0000000     
  -60000000.0000000     
  -60000000.0000000     
  -60000000.0000000     
  -60000000.0000000     
  -60000000.0000000     
  -60000000.0000000     
  -60000000.0000000     
  -60000000.0000000     
  -60000000.0000000     
  -60000000.0000000     
  -60000000.0000000     
  -60000000.0000000     
  -60000000.0000000     
  -60000000.0000000     
  -60000000.0000000     
  -60000000.0000000     
  -60000000.0000000     
  -60000000.0000000     
  -60000000.0000000     
  -60000000.0000000     
  -60000000.0000000     
  -60000000.0000000     
  -60000000.0000000     
  -60000000.0000000     
  -60000000.0000000     
  -60000000.0000001     
  -60000000.0000000     
  -60000000.0000000     
  -60000000.0000000     
  -60000000.0000000     
  -60000000.0000000     
  -60000000.0000000     
  -60000000.0000000     
  -60000000.0000000     
  -60000000.0000000     
  -60000000.0000000     
  -60000000.0000000     
  -60000000.0000000     
  -60000000.0000000     
  -60000000.0000000     
  -60000000.0000000     
  -60000000.0000000     
  -60000000.0000001     
  -60000000.0000001     
  -60000000.0000000     
  -60000000.0000000     
  -60000000.0000000     
  -60000000.0000000     
  -60000000.0000001     
  -60000000.0000000     
  -59999999.9999999     
  -60000000.0000000     
  -60000000.0000001     
  -60000000.0000000     
  -60000000.0000000     
SCALARS 2waySource double 
LOOKUP_TABLE default
  6.596513481854856E-006
  4.870951277199449E-006
  3.778689929355463E-006
  3.000110274909879E-006
  2.421890596804512E-006
  1.977824068501566E-006
  1.625660528151268E-006
  1.335668018857530E-006
  1.085186891405096E-006
  8.553008688586505E-007
  6.283286945303722E-007
  3.852982469270593E-007
  1.019872432434671E-007
 -2.570142133946394E-007
 -7.923459633250387E-007
  6.705381265120666E-006
  5.516891353467695E-006
  4.598189756739950E-006
  3.919987726613440E-006
  3.403631116870329E-006
  3.001235487403615E-006
  2.678834727427861E-006
  2.411513651418633E-006
  2.179795765460847E-006
  1.967299012676349E-006
  1.758899577612562E-006
  1.538931669995634E-006
  1.289329165709982E-006
  9.836160204667961E-007
  5.956074820797671E-007
  6.612889396738143E-006
  5.864913261858386E-006
  5.207710328586507E-006
  4.677669397321546E-006
  4.258681938449323E-006
  3.923886717295314E-006
  3.651209536377640E-006
  3.422738645208038E-006
  3.223816858404620E-006
  3.041935325241207E-006
  2.865776659531837E-006
  2.684442496687166E-006
  2.486555120335721E-006
  2.261787525701864E-006
  2.005749202752278E-006
  6.471166046942869E-006
  6.057920297298891E-006
  5.652279938759566E-006
  5.293816718575845E-006
  4.992553968587514E-006
  4.742747862592345E-006
  4.534149664742108E-006
  4.356626847875478E-006
  4.201042444200065E-006
  4.059346618845523E-006
  3.924437554497200E-006
  3.790069984280275E-006
  3.651356598657103E-006
  3.506369713616248E-006
  3.361453360869840E-006
  6.309974358887703E-006
  6.165967701360510E-006
  5.980887575347974E-006
  5.790563053025505E-006
  5.614053753458741E-006
  5.457874286136144E-006
  5.321798254748769E-006
  5.202867407679351E-006
  5.097376798922915E-006
  5.001711112190074E-006
  4.912792643425050E-006
  4.828536258603038E-006
  4.748634325134853E-006
  4.676268818260024E-006
  4.620613058575115E-006
  6.141661866278799E-006
  6.220373141499270E-006
  6.224949798129702E-006
  6.188279351139221E-006
  6.132692333594827E-006
  6.071250082926405E-006
  6.010583077783120E-006
  5.953592516887604E-006
  5.901333796399127E-006
  5.854181399974674E-006
  5.812606009294602E-006
  5.777870177309616E-006
  5.752907847202025E-006
  5.743507920088822E-006
  5.759665243908519E-006
  5.973571933242316E-006
  6.237466075669577E-006
  6.403105450394164E-006
  6.501769979302324E-006
  6.557131062336683E-006
  6.585790544654951E-006
  6.598780176351046E-006
  6.603301432620301E-006
  6.604227843160495E-006
  6.605248250748666E-006
  6.609744986299777E-006
  6.621564921474447E-006
  6.645810356603056E-006
  6.689685540633486E-006
  6.763246321605280E-006
  5.811034220418533E-006
  6.226952574905486E-006
  6.526918315490439E-006
  6.741323859222316E-006
  6.894430723889917E-006
  7.004784772714145E-006
  7.086154342639336E-006
  7.148704822556944E-006
  7.200146942034558E-006
  7.246731715046771E-006
  7.294088074444273E-006
  7.347957635619133E-006
  7.414877147381450E-006
  7.502802829192257E-006
  7.621592605275868E-006
  5.658180613128427E-006
  6.195344969685706E-006
  6.604187072860159E-006
  6.914409823647615E-006
  7.150411555146686E-006
  7.331730555589032E-006
  7.473748047354862E-006
  7.588548041766737E-006
  7.685804927512720E-006
  7.773611170069455E-006
  7.859214466105915E-006
  7.949669997445127E-006
  8.052416941877572E-006
  8.175765487610322E-006
  8.329248055424891E-006
  5.518254155525404E-006
  6.147478709345154E-006
  6.640759390869000E-006
  7.026973364335673E-006
  7.330251521325827E-006
  7.570460041963497E-006
  7.763793204685775E-006
  7.923450862817216E-006
  8.060342909309169E-006
  8.183768799769661E-006
  8.302042008623735E-006
  8.423047379219004E-006
  8.554724154620169E-006
  8.705459986590168E-006
  8.884371027023055E-006
  5.393749824623094E-006
  6.087250798177552E-006
  6.641514311279576E-006
  7.084274570527607E-006
  7.438988783443766E-006
  7.725325157193442E-006
  7.959684949208716E-006
  8.155760439126035E-006
  8.325106278456803E-006
  8.477696006505705E-006
  8.622441089837927E-006
  8.767657278766305E-006
  8.921466494176556E-006
  9.092121442428651E-006
  9.288238645263422E-006
  5.286503008479251E-006
  6.017998875893810E-006
  6.610890749694487E-006
  7.091379124434101E-006
  7.481849044787180E-006
  7.801328852389037E-006
  8.065946837648995E-006
  8.289396364286421E-006
  8.483402832518583E-006
  8.658177932418519E-006
  8.822845741911186E-006
  8.985827266029134E-006
  9.155171905884607E-006
  9.338825348741077E-006
  9.544824889737041E-006
  5.197763512888048E-006
  5.942699610086665E-006
  6.553156584916437E-006
  7.053410585098870E-006
  7.464407957503000E-006
  7.804164209086990E-006
  8.088148836966160E-006
  8.329667067921623E-006
  8.540237964962173E-006
  8.729961280040503E-006
  8.907862521095719E-006
  9.082205400641274E-006
  9.260761661764075E-006
  9.451029651667757E-006
  9.660395259655402E-006
  5.128266553527779E-006
  5.864067448055252E-006
  6.472521807146821E-006
  6.975640626822139E-006
  7.392620605192660E-006
  7.740160442502627E-006
  8.032765221883685E-006
  8.283047148991231E-006
  8.502023310201257E-006
  8.699405574482059E-006
  8.883874660276250E-006
  9.063329289513032E-006
  9.245101632803456E-006
  9.436131527800867E-006
  9.643094183292715E-006
  5.078301662521251E-006
  5.784593148051552E-006
  6.373152978125923E-006
  6.863468624705203E-006
  7.272750281721040E-006
  7.616149229582276E-006
  7.906974901103192E-006
  8.156915161749853E-006
  8.376259300597981E-006
  8.574119068253837E-006
  8.758640388407335E-006
  8.937197183131157E-006
  9.116558874025924E-006
  9.303024303475996E-006
  9.502516902495390E-006
  5.047776776710012E-006
  5.706542409079473E-006
  6.259122517516551E-006
  6.722325178433786E-006
  7.111223800592786E-006
  7.439268933802471E-006
  7.718414363624496E-006
  7.959258288260715E-006
  8.171196816229093E-006
  8.362583732818723E-006
  8.540888208064979E-006
  8.712841144360802E-006
  8.884561112867191E-006
  9.061652077912093E-006
  9.249267136133014E-006
  5.036274038063790E-006
  5.631925829699383E-006
  6.134313585039111E-006
  6.557523432729961E-006
  6.914435169832755E-006
  7.216724222146965E-006
  7.474896594897434E-006
  7.698354489795656E-006
  7.895487036383072E-006
  8.073777483301461E-006
  8.239916176769057E-006
  8.399908058274677E-006
  8.559164086767207E-006
  8.722567555798713E-006
  8.894508410114731E-006
  5.043094355538405E-006
  5.562446842338405E-006
  6.002293918174182E-006
  6.374074802622784E-006
  6.688514589848220E-006
  6.955516754534303E-006
  7.184109999335900E-006
  7.382444892768263E-006
  7.557831450554929E-006
  7.716805046217237E-006
  7.865206080312303E-006
  8.008258908792318E-006
  8.150637077354555E-006
  8.296504147115200E-006
  8.449521790637587E-006
  5.067288766578609E-006
  5.499431548538733E-006
  5.866166844923165E-006
  6.176480006056068E-006
  6.439075089089259E-006
  6.662159920100194E-006
  6.853310661024763E-006
  7.019410032465099E-006
  7.166645907367849E-006
  7.300551504687582E-006
  7.426066575418092E-006
  7.547600441928777E-006
  7.669081021509838E-006
  7.793977408761496E-006
  7.925286319174766E-006
  5.107675693553550E-006
  5.443741997535261E-006
  5.728402869133827E-006
  5.968500608698610E-006
  6.170944063225818E-006
  6.342387177327542E-006
  6.489019767037527E-006
  6.616463729593217E-006
  6.729753924800695E-006
  6.833374675570820E-006
  6.931321995221645E-006
  7.027166269305744E-006
  7.124096643516424E-006
  7.224933838161761E-006
  7.332100954133653E-006
  5.162844020265495E-006
  5.395671135574139E-006
  5.590648996402435E-006
  5.752909107517578E-006
  5.887880766493609E-006
  6.000859440698320E-006
  6.096736201843327E-006
  6.179878402020993E-006
  6.254125719385105E-006
  6.322854386547555E-006
  6.389065789181809E-006
  6.455466910446379E-006
  6.524522511430941E-006
  6.598467250805647E-006
  6.679268484862061E-006
  5.231142072696745E-006
  5.354811686995191E-006
  5.453503000687065E-006
  5.531205037808807E-006
  5.592272647571973E-006
  5.640872452624822E-006
  5.680673019208785E-006
  5.714756312109525E-006
  5.745681034570179E-006
  5.775618739385849E-006
  5.806499747394796E-006
  5.840130599262562E-006
  5.878265214634330E-006
  5.922624998765366E-006
  5.974863011350529E-006
  5.310651245283795E-006
  5.319879213578901E-006
  5.316221908434045E-006
  5.303267784261846E-006
  5.284792963373866E-006
  5.264061645597639E-006
  5.243527516435040E-006
  5.224863674082547E-006
  5.209176191153966E-006
  5.197269461699584E-006
  5.189882495836865E-006
  5.187859244688911E-006
  5.192246925050848E-006
  5.204328946578957E-006
  5.225603953042386E-006
  5.399137894812364E-006
  5.288443912830729E-006
  5.176298766657806E-006
  5.066889279278112E-006
  4.963991020293962E-006
  4.870104409100647E-006
  4.786301768395497E-006
  4.712549866817772E-006
  4.648197716065655E-006
  4.592429772485315E-006
  4.544612437026018E-006
  4.504528389658180E-006
  4.472500294241034E-006
  4.449442246101874E-006
  4.436862543629570E-006
  5.493964760600343E-006
  5.256463645181203E-006
  5.028768828685825E-006
  4.817085581053735E-006
  4.625784576660620E-006
  4.456441365874890E-006
  4.308210340654834E-006
  4.178781256760511E-006
  4.065283070475298E-006
  3.964932686973852E-006
  3.875473763771247E-006
  3.795464079891805E-006
  3.724455437334586E-006
  3.663023253061796E-006
  3.612838676445504E-006
  5.591896039271889E-006
  5.217355832973978E-006
  4.864938071262899E-006
  4.545032181487399E-006
  4.262871368560393E-006
  4.018106334265007E-006
  3.806753533193593E-006
  3.623320920224529E-006
  3.462167194191288E-006
  3.318155421882032E-006
  3.187057900188606E-006
  3.065962634682571E-006
  2.953469825424667E-006
  2.849860567796248E-006
  2.756965227928383E-006
  5.688640590640470E-006
  5.159810438842318E-006
  4.669882481478684E-006
  4.236490056894163E-006
  3.864284478758449E-006
  3.547930116866156E-006
  3.278061745387792E-006
  3.045069577056246E-006
  2.840110913096649E-006
  2.655411883399682E-006
  2.484408513408625E-006
  2.322055812970786E-006
  2.165842979346129E-006
  2.015343426015323E-006
  1.872764329092207E-006
  5.776901445450461E-006
  5.062089332394423E-006
  4.417329574846822E-006
  3.870200479781080E-006
  3.416127732867048E-006
  3.037411429830996E-006
  2.717601235384464E-006
  2.442536196331892E-006
  2.200199927929692E-006
  1.980226845857230E-006
  1.773506353493006E-006
  1.572127615177666E-006
  1.369999380854614E-006
  1.167723088015835E-006
  9.652024103383229E-007
  5.839467341152904E-006
  4.872264349394329E-006
  4.062024005107383E-006
  3.421395128414001E-006
  2.904058822250997E-006
  2.478438767031371E-006
  2.121168164954956E-006
  1.814348179363739E-006
  1.543493067336065E-006
  1.296196422453767E-006
  1.061128407574939E-006
  8.271936174551056E-007
  5.830766136378575E-007
  3.177556476731099E-007
  4.731242226008891E-008
  5.762221083886437E-006
  4.463449607017764E-006
  3.561254560492155E-006
  2.869450123257140E-006
  2.317576058125326E-006
  1.865318220504945E-006
  1.485913229774273E-006
  1.159678283886348E-006
  8.709729769306242E-007
  6.063876774629000E-007
  3.533725001647770E-007
  9.881494871330918E-008
 -1.729758308356265E-007
 -4.845074975137838E-007
 -8.679079343270417E-007
SCALARS poroP double 
LOOKUP_TABLE default
  0.000000000000000E+000
  0.000000000000000E+000
  0.000000000000000E+000
  0.000000000000000E+000
  0.000000000000000E+000
  0.000000000000000E+000
  0.000000000000000E+000
  0.000000000000000E+000
  0.000000000000000E+000
  0.000000000000000E+000
  0.000000000000000E+000
  0.000000000000000E+000
  0.000000000000000E+000
  0.000000000000000E+000
  0.000000000000000E+000
  0.000000000000000E+000
  0.000000000000000E+000
  0.000000000000000E+000
  0.000000000000000E+000
  0.000000000000000E+000
  0.000000000000000E+000
  0.000000000000000E+000
  0.000000000000000E+000
  0.000000000000000E+000
  0.000000000000000E+000
  0.000000000000000E+000
  0.000000000000000E+000
  0.000000000000000E+000
  0.000000000000000E+000
  0.000000000000000E+000
  0.000000000000000E+000
  0.000000000000000E+000
  0.000000000000000E+000
  0.000000000000000E+000
  0.000000000000000E+000
  0.000000000000000E+000
  0.000000000000000E+000
  0.000000000000000E+000
  0.000000000000000E+000
  0.000000000000000E+000
  0.000000000000000E+000
  0.000000000000000E+000
  0.000000000000000E+000
  0.000000000000000E+000
  0.000000000000000E+000
  0.000000000000000E+000
  0.000000000000000E+000
  0.000000000000000E+000
  0.000000000000000E+000
  0.000000000000000E+000
  0.000000000000000E+000
  0.000000000000000E+000
  0.000000000000000E+000
  0.000000000000000E+000
  0.000000000000000E+000
  0.000000000000000E+000
  0.000000000000000E+000
  0.000000000000000E+000
  0.000000000000000E+000
  0.000000000000000E+000
  0.000000000000000E+000
  0.000000000000000E+000
  0.000000000000000E+000
  0.000000000000000E+000
  0.000000000000000E+000
  0.000000000000000E+000
  0.000000000000000E+000
  0.000000000000000E+000
  0.000000000000000E+000
  0.000000000000000E+000
  0.000000000000000E+000
  0.000000000000000E+000
  0.000000000000000E+000
  0.000000000000000E+000
  0.000000000000000E+000
  0.000000000000000E+000
  0.000000000000000E+000
  0.000000000000000E+000
  0.000000000000000E+000
  0.000000000000000E+000
  0.000000000000000E+000
  0.000000000000000E+000
  0.000000000000000E+000
  0.000000000000000E+000
  0.000000000000000E+000
  0.000000000000000E+000
  0.000000000000000E+000
  0.000000000000000E+000
  0.000000000000000E+000
  0.000000000000000E+000
  0.000000000000000E+000
  0.000000000000000E+000
  0.000000000000000E+000
  0.000000000000000E+000
  0.000000000000000E+000
  0.000000000000000E+000
  0.000000000000000E+000
  0.000000000000000E+000
  0.000000000000000E+000
  0.000000000000000E+000
  0.000000000000000E+000
  0.000000000000000E+000
  0.000000000000000E+000
  0.000000000000000E+000
  0.000000000000000E+000
  0.000000000000000E+000
  0.000000000000000E+000
  0.000000000000000E+000
  0.000000000000000E+000
  0.000000000000000E+000
  0.000000000000000E+000
  0.000000000000000E+000
  0.000000000000000E+000
  0.000000000000000E+000
  0.000000000000000E+000
  0.000000000000000E+000
  0.000000000000000E+000
  0.000000000000000E+000
  0.000000000000000E+000
  0.000000000000000E+000
  0.000000000000000E+000
  0.000000000000000E+000
  0.000000000000000E+000
  0.000000000000000E+000
  0.000000000000000E+000
  0.000000000000000E+000
  0.000000000000000E+000
  0.000000000000000E+000
  0.000000000000000E+000
  0.000000000000000E+000
  0.000000000000000E+000
  0.000000000000000E+000
  0.000000000000000E+000
  0.000000000000000E+000
  0.000000000000000E+000
  0.000000000000000E+000
  0.000000000000000E+000
  0.000000000000000E+000
  0.000000000000000E+000
  0.000000000000000E+000
  0.000000000000000E+000
  0.000000000000000E+000
  0.000000000000000E+000
  0.000000000000000E+000
  0.000000000000000E+000
  0.000000000000000E+000
  0.000000000000000E+000
  0.000000000000000E+000
  0.000000000000000E+000
  0.000000000000000E+000
  0.000000000000000E+000
  0.000000000000000E+000
  0.000000000000000E+000
  0.000000000000000E+000
  0.000000000000000E+000
  0.000000000000000E+000
  0.000000000000000E+000
  0.000000000000000E+000
  0.000000000000000E+000
  0.000000000000000E+000
  0.000000000000000E+000
  0.000000000000000E+000
  0.000000000000000E+000
  0.000000000000000E+000
  0.000000000000000E+000
  0.000000000000000E+000
  0.000000000000000E+000
  0.000000000000000E+000
  0.000000000000000E+000
  0.000000000000000E+000
  0.000000000000000E+000
  0.000000000000000E+000
  0.000000000000000E+000
  0.000000000000000E+000
  0.000000000000000E+000
  0.000000000000000E+000
  0.000000000000000E+000
  0.000000000000000E+000
  0.000000000000000E+000
  0.000000000000000E+000
  0.000000000000000E+000
  0.000000000000000E+000
  0.000000000000000E+000
  0.000000000000000E+000
  0.000000000000000E+000
  0.000000000000000E+000
  0.000000000000000E+000
  0.000000000000000E+000
  0.000000000000000E+000
  0.000000000000000E+000
  0.000000000000000E+000
  0.000000000000000E+000
  0.000000000000000E+000
  0.000000000000000E+000
  0.000000000000000E+000
  0.000000000000000E+000
  0.000000000000000E+000
  0.000000000000000E+000
  0.000000000000000E+000
  0.000000000000000E+000
  0.000000000000000E+000
  0.000000000000000E+000
  0.000000000000000E+000
  0.000000000000000E+000
  0.000000000000000E+000
  0.000000000000000E+000
  0.000000000000000E+000
  0.000000000000000E+000
  0.000000000000000E+000
  0.000000000000000E+000
  0.000000000000000E+000
  0.000000000000000E+000
  0.000000000000000E+000
  0.000000000000000E+000
  0.000000000000000E+000
  0.000000000000000E+000
  0.000000000000000E+000
  0.000000000000000E+000
  0.000000000000000E+000
  0.000000000000000E+000
  0.000000000000000E+000
  0.000000000000000E+000
  0.000000000000000E+000
  0.000000000000000E+000
  0.000000000000000E+000
  0.000000000000000E+000
  0.000000000000000E+000
  0.000000000000000E+000
  0.000000000000000E+000
  0.000000000000000E+000
  0.000000000000000E+000
  0.000000000000000E+000
  0.000000000000000E+000
  0.000000000000000E+000
  0.000000000000000E+000
  0.000000000000000E+000
  0.000000000000000E+000
  0.000000000000000E+000
  0.000000000000000E+000
  0.000000000000000E+000
  0.000000000000000E+000
  0.000000000000000E+000
  0.000000000000000E+000
  0.000000000000000E+000
  0.000000000000000E+000
  0.000000000000000E+000
  0.000000000000000E+000
  0.000000000000000E+000
  0.000000000000000E+000
  0.000000000000000E+000
  0.000000000000000E+000
  0.000000000000000E+000
  0.000000000000000E+000
  0.000000000000000E+000
  0.000000000000000E+000
  0.000000000000000E+000
  0.000000000000000E+000
  0.000000000000000E+000
  0.000000000000000E+000
  0.000000000000000E+000
  0.000000000000000E+000
  0.000000000000000E+000
  0.000000000000000E+000
  0.000000000000000E+000
  0.000000000000000E+000
  0.000000000000000E+000
  0.000000000000000E+000
  0.000000000000000E+000
  0.000000000000000E+000
  0.000000000000000E+000
  0.000000000000000E+000
  0.000000000000000E+000
  0.000000000000000E+000
  0.000000000000000E+000
  0.000000000000000E+000
  0.000000000000000E+000
  0.000000000000000E+000
  0.000000000000000E+000
  0.000000000000000E+000
  0.000000000000000E+000
  0.000000000000000E+000
  0.000000000000000E+000
  0.000000000000000E+000
  0.000000000000000E+000
  0.000000000000000E+000
  0.000000000000000E+000
  0.000000000000000E+000
  0.000000000000000E+000
  0.000000000000000E+000
  0.000000000000000E+000
  0.000000000000000E+000
  0.000000000000000E+000
  0.000000000000000E+000
  0.000000000000000E+000
  0.000000000000000E+000
  0.000000000000000E+000
  0.000000000000000E+000
  0.000000000000000E+000
  0.000000000000000E+000
  0.000000000000000E+000
  0.000000000000000E+000
  0.000000000000000E+000
  0.000000000000000E+000
  0.000000000000000E+000
  0.000000000000000E+000
  0.000000000000000E+000
  0.000000000000000E+000
  0.000000000000000E+000
  0.000000000000000E+000
  0.000000000000000E+000
  0.000000000000000E+000
  0.000000000000000E+000
  0.000000000000000E+000
  0.000000000000000E+000
  0.000000000000000E+000
  0.000000000000000E+000
  0.000000000000000E+000
  0.000000000000000E+000
  0.000000000000000E+000
  0.000000000000000E+000
  0.000000000000000E+000
  0.000000000000000E+000
  0.000000000000000E+000
  0.000000000000000E+000
  0.000000000000000E+000
  0.000000000000000E+000
  0.000000000000000E+000
  0.000000000000000E+000
  0.000000000000000E+000
  0.000000000000000E+000
  0.000000000000000E+000
  0.000000000000000E+000
  0.000000000000000E+000
  0.000000000000000E+000
  0.000000000000000E+000
  0.000000000000000E+000
  0.000000000000000E+000
  0.000000000000000E+000
  0.000000000000000E+000
  0.000000000000000E+000
  0.000000000000000E+000
  0.000000000000000E+000
  0.000000000000000E+000
  0.000000000000000E+000
  0.000000000000000E+000
  0.000000000000000E+000
  0.000000000000000E+000
  0.000000000000000E+000
  0.000000000000000E+000
  0.000000000000000E+000
  0.000000000000000E+000
  0.000000000000000E+000
  0.000000000000000E+000
  0.000000000000000E+000
  0.000000000000000E+000
  0.000000000000000E+000
  0.000000000000000E+000
  0.000000000000000E+000
  0.000000000000000E+000
  0.000000000000000E+000
  0.000000000000000E+000
  0.000000000000000E+000
  0.000000000000000E+000
  0.000000000000000E+000
  0.000000000000000E+000
  0.000000000000000E+000
  0.000000000000000E+000
  0.000000000000000E+000
  0.000000000000000E+000
  0.000000000000000E+000
  0.000000000000000E+000
  0.000000000000000E+000
  0.000000000000000E+000
  0.000000000000000E+000
  0.000000000000000E+000
  0.000000000000000E+000
  0.000000000000000E+000
  0.000000000000000E+000
  0.000000000000000E+000
  0.000000000000000E+000
  0.000000000000000E+000
  0.000000000000000E+000
  0.000000000000000E+000
  0.000000000000000E+000
  0.000000000000000E+000
  0.000000000000000E+000
  0.000000000000000E+000
  0.000000000000000E+000
  0.000000000000000E+000
  0.000000000000000E+000
  0.000000000000000E+000
  0.000000000000000E+000
  0.000000000000000E+000
  0.000000000000000E+000
  0.000000000000000E+000
  0.000000000000000E+000
  0.000000000000000E+000
  0.000000000000000E+000
  0.000000000000000E+000
  0.000000000000000E+000
  0.000000000000000E+000
  0.000000000000000E+000
  0.000000000000000E+000
  0.000000000000000E+000
  0.000000000000000E+000
  0.000000000000000E+000
  0.000000000000000E+000
  0.000000000000000E+000
  0.000000000000000E+000
  0.000000000000000E+000
  0.000000000000000E+000
  0.000000000000000E+000
  0.000000000000000E+000
  0.000000000000000E+000
  0.000000000000000E+000
  0.000000000000000E+000
  0.000000000000000E+000
  0.000000000000000E+000
  0.000000000000000E+000
  0.000000000000000E+000
  0.000000000000000E+000
  0.000000000000000E+000
  0.000000000000000E+000
  0.000000000000000E+000
  0.000000000000000E+000
  0.000000000000000E+000
  0.000000000000000E+000
  0.000000000000000E+000
  0.000000000000000E+000
  0.000000000000000E+000
  0.000000000000000E+000
  0.000000000000000E+000
  0.000000000000000E+000
  0.000000000000000E+000
  0.000000000000000E+000
  0.000000000000000E+000
  0.000000000000000E+000
  0.000000000000000E+000
  0.000000000000000E+000
  0.000000000000000E+000
  0.000000000000000E+000
  0.000000000000000E+000
  0.000000000000000E+000
  0.000000000000000E+000
  0.000000000000000E+000
  0.000000000000000E+000
  0.000000000000000E+000
  0.000000000000000E+000
  0.000000000000000E+000
  0.000000000000000E+000
SCALARS elementIsPlast double 
LOOKUP_TABLE default
  0.000000000000000E+000
  0.000000000000000E+000
  0.000000000000000E+000
  0.000000000000000E+000
  0.000000000000000E+000
  0.000000000000000E+000
  0.000000000000000E+000
  0.000000000000000E+000
  0.000000000000000E+000
  0.000000000000000E+000
  0.000000000000000E+000
  0.000000000000000E+000
  0.000000000000000E+000
  0.000000000000000E+000
  0.000000000000000E+000
  0.000000000000000E+000
  0.000000000000000E+000
  0.000000000000000E+000
  0.000000000000000E+000
  0.000000000000000E+000
  0.000000000000000E+000
  0.000000000000000E+000
  0.000000000000000E+000
  0.000000000000000E+000
  0.000000000000000E+000
  0.000000000000000E+000
  0.000000000000000E+000
  0.000000000000000E+000
  0.000000000000000E+000
  0.000000000000000E+000
  0.000000000000000E+000
  0.000000000000000E+000
  0.000000000000000E+000
  0.000000000000000E+000
  0.000000000000000E+000
  0.000000000000000E+000
  0.000000000000000E+000
  0.000000000000000E+000
  0.000000000000000E+000
  0.000000000000000E+000
  0.000000000000000E+000
  0.000000000000000E+000
  0.000000000000000E+000
  0.000000000000000E+000
  0.000000000000000E+000
  0.000000000000000E+000
  0.000000000000000E+000
  0.000000000000000E+000
  0.000000000000000E+000
  0.000000000000000E+000
  0.000000000000000E+000
  0.000000000000000E+000
  0.000000000000000E+000
  0.000000000000000E+000
  0.000000000000000E+000
  0.000000000000000E+000
  0.000000000000000E+000
  0.000000000000000E+000
  0.000000000000000E+000
  0.000000000000000E+000
  0.000000000000000E+000
  0.000000000000000E+000
  0.000000000000000E+000
  0.000000000000000E+000
  0.000000000000000E+000
  0.000000000000000E+000
  0.000000000000000E+000
  0.000000000000000E+000
  0.000000000000000E+000
  0.000000000000000E+000
  0.000000000000000E+000
  0.000000000000000E+000
  0.000000000000000E+000
  0.000000000000000E+000
  0.000000000000000E+000
  0.000000000000000E+000
  0.000000000000000E+000
  0.000000000000000E+000
  0.000000000000000E+000
  0.000000000000000E+000
  0.000000000000000E+000
  0.000000000000000E+000
  0.000000000000000E+000
  0.000000000000000E+000
  0.000000000000000E+000
  0.000000000000000E+000
  0.000000000000000E+000
  0.000000000000000E+000
  0.000000000000000E+000
  0.000000000000000E+000
  0.000000000000000E+000
  0.000000000000000E+000
  0.000000000000000E+000
  0.000000000000000E+000
  0.000000000000000E+000
  0.000000000000000E+000
  0.000000000000000E+000
  0.000000000000000E+000
  0.000000000000000E+000
  0.000000000000000E+000
  0.000000000000000E+000
  0.000000000000000E+000
  0.000000000000000E+000
  0.000000000000000E+000
  0.000000000000000E+000
  0.000000000000000E+000
  0.000000000000000E+000
  0.000000000000000E+000
  0.000000000000000E+000
  0.000000000000000E+000
  0.000000000000000E+000
  0.000000000000000E+000
  0.000000000000000E+000
  0.000000000000000E+000
  0.000000000000000E+000
  0.000000000000000E+000
  0.000000000000000E+000
  0.000000000000000E+000
  0.000000000000000E+000
  0.000000000000000E+000
  0.000000000000000E+000
  0.000000000000000E+000
  0.000000000000000E+000
  0.000000000000000E+000
  0.000000000000000E+000
  0.000000000000000E+000
  0.000000000000000E+000
  0.000000000000000E+000
  0.000000000000000E+000
  0.000000000000000E+000
  0.000000000000000E+000
  0.000000000000000E+000
  0.000000000000000E+000
  0.000000000000000E+000
  0.000000000000000E+000
  0.000000000000000E+000
  0.000000000000000E+000
  0.000000000000000E+000
  0.000000000000000E+000
  0.000000000000000E+000
  0.000000000000000E+000
  0.000000000000000E+000
  0.000000000000000E+000
  0.000000000000000E+000
  0.000000000000000E+000
  0.000000000000000E+000
  0.000000000000000E+000
  0.000000000000000E+000
  0.000000000000000E+000
  0.000000000000000E+000
  0.000000000000000E+000
  0.000000000000000E+000
  0.000000000000000E+000
  0.000000000000000E+000
  0.000000000000000E+000
  0.000000000000000E+000
  0.000000000000000E+000
  0.000000000000000E+000
  0.000000000000000E+000
  0.000000000000000E+000
  0.000000000000000E+000
  0.000000000000000E+000
  0.000000000000000E+000
  0.000000000000000E+000
  0.000000000000000E+000
  0.000000000000000E+000
  0.000000000000000E+000
  0.000000000000000E+000
  0.000000000000000E+000
  0.000000000000000E+000
  0.000000000000000E+000
  0.000000000000000E+000
  0.000000000000000E+000
  0.000000000000000E+000
  0.000000000000000E+000
  0.000000000000000E+000
  0.000000000000000E+000
  0.000000000000000E+000
  0.000000000000000E+000
  0.000000000000000E+000
  0.000000000000000E+000
  0.000000000000000E+000
  0.000000000000000E+000
  0.000000000000000E+000
  0.000000000000000E+000
  0.000000000000000E+000
  0.000000000000000E+000
  0.000000000000000E+000
  0.000000000000000E+000
  0.000000000000000E+000
  0.000000000000000E+000
  0.000000000000000E+000
  0.000000000000000E+000
  0.000000000000000E+000
  0.000000000000000E+000
  0.000000000000000E+000
  0.000000000000000E+000
  0.000000000000000E+000
  0.000000000000000E+000
  0.000000000000000E+000
  0.000000000000000E+000
  0.000000000000000E+000
  0.000000000000000E+000
  0.000000000000000E+000
  0.000000000000000E+000
  0.000000000000000E+000
  0.000000000000000E+000
  0.000000000000000E+000
  0.000000000000000E+000
  0.000000000000000E+000
  0.000000000000000E+000
  0.000000000000000E+000
  0.000000000000000E+000
  0.000000000000000E+000
  0.000000000000000E+000
  0.000000000000000E+000
  0.000000000000000E+000
  0.000000000000000E+000
  0.000000000000000E+000
  0.000000000000000E+000
  0.000000000000000E+000
  0.000000000000000E+000
  0.000000000000000E+000
  0.000000000000000E+000
  0.000000000000000E+000
  0.000000000000000E+000
  0.000000000000000E+000
  0.000000000000000E+000
  0.000000000000000E+000
  0.000000000000000E+000
  0.000000000000000E+000
  0.000000000000000E+000
  0.000000000000000E+000
  0.000000000000000E+000
  0.000000000000000E+000
  0.000000000000000E+000
  0.000000000000000E+000
  0.000000000000000E+000
  0.000000000000000E+000
  0.000000000000000E+000
  0.000000000000000E+000
  0.000000000000000E+000
  0.000000000000000E+000
  0.000000000000000E+000
  0.000000000000000E+000
  0.000000000000000E+000
  0.000000000000000E+000
  0.000000000000000E+000
  0.000000000000000E+000
  0.000000000000000E+000
  0.000000000000000E+000
  0.000000000000000E+000
  0.000000000000000E+000
  0.000000000000000E+000
  0.000000000000000E+000
  0.000000000000000E+000
  0.000000000000000E+000
  0.000000000000000E+000
  0.000000000000000E+000
  0.000000000000000E+000
  0.000000000000000E+000
  0.000000000000000E+000
  0.000000000000000E+000
  0.000000000000000E+000
  0.000000000000000E+000
  0.000000000000000E+000
  0.000000000000000E+000
  0.000000000000000E+000
  0.000000000000000E+000
  0.000000000000000E+000
  0.000000000000000E+000
  0.000000000000000E+000
  0.000000000000000E+000
  0.000000000000000E+000
  0.000000000000000E+000
  0.000000000000000E+000
  0.000000000000000E+000
  0.000000000000000E+000
  0.000000000000000E+000
  0.000000000000000E+000
  0.000000000000000E+000
  0.000000000000000E+000
  0.000000000000000E+000
  0.000000000000000E+000
  0.000000000000000E+000
  0.000000000000000E+000
  0.000000000000000E+000
  0.000000000000000E+000
  0.000000000000000E+000
  0.000000000000000E+000
  0.000000000000000E+000
  0.000000000000000E+000
  0.000000000000000E+000
  0.000000000000000E+000
  0.000000000000000E+000
  0.000000000000000E+000
  0.000000000000000E+000
  0.000000000000000E+000
  0.000000000000000E+000
  0.000000000000000E+000
  0.000000000000000E+000
  0.000000000000000E+000
  0.000000000000000E+000
  0.000000000000000E+000
  0.000000000000000E+000
  0.000000000000000E+000
  0.000000000000000E+000
  0.000000000000000E+000
  0.000000000000000E+000
  0.000000000000000E+000
  0.000000000000000E+000
  0.000000000000000E+000
  0.000000000000000E+000
  0.000000000000000E+000
  0.000000000000000E+000
  0.000000000000000E+000
  0.000000000000000E+000
  0.000000000000000E+000
  0.000000000000000E+000
  0.000000000000000E+000
  0.000000000000000E+000
  0.000000000000000E+000
  0.000000000000000E+000
  0.000000000000000E+000
  0.000000000000000E+000
  0.000000000000000E+000
  0.000000000000000E+000
  0.000000000000000E+000
  0.000000000000000E+000
  0.000000000000000E+000
  0.000000000000000E+000
  0.000000000000000E+000
  0.000000000000000E+000
  0.000000000000000E+000
  0.000000000000000E+000
  0.000000000000000E+000
  0.000000000000000E+000
  0.000000000000000E+000
  0.000000000000000E+000
  0.000000000000000E+000
  0.000000000000000E+000
  0.000000000000000E+000
  0.000000000000000E+000
  0.000000000000000E+000
  0.000000000000000E+000
  0.000000000000000E+000
  0.000000000000000E+000
  0.000000000000000E+000
  0.000000000000000E+000
  0.000000000000000E+000
  0.000000000000000E+000
  0.000000000000000E+000
  0.000000000000000E+000
  0.000000000000000E+000
  0.000000000000000E+000
  0.000000000000000E+000
  0.000000000000000E+000
  0.000000000000000E+000
  0.000000000000000E+000
  0.000000000000000E+000
  0.000000000000000E+000
  0.000000000000000E+000
  0.000000000000000E+000
  0.000000000000000E+000
  0.000000000000000E+000
  0.000000000000000E+000
  0.000000000000000E+000
  0.000000000000000E+000
  0.000000000000000E+000
  0.000000000000000E+000
  0.000000000000000E+000
  0.000000000000000E+000
  0.000000000000000E+000
  0.000000000000000E+000
  0.000000000000000E+000
  0.000000000000000E+000
  0.000000000000000E+000
  0.000000000000000E+000
  0.000000000000000E+000
  0.000000000000000E+000
  0.000000000000000E+000
  0.000000000000000E+000
  0.000000000000000E+000
  0.000000000000000E+000
  0.000000000000000E+000
  0.000000000000000E+000
  0.000000000000000E+000
  0.000000000000000E+000
  0.000000000000000E+000
  0.000000000000000E+000
  0.000000000000000E+000
  0.000000000000000E+000
  0.000000000000000E+000
  0.000000000000000E+000
  0.000000000000000E+000
  0.000000000000000E+000
  0.000000000000000E+000
  0.000000000000000E+000
  0.000000000000000E+000
  0.000000000000000E+000
  0.000000000000000E+000
  0.000000000000000E+000
  0.000000000000000E+000
  0.000000000000000E+000
  0.000000000000000E+000
  0.000000000000000E+000
  0.000000000000000E+000
  0.000000000000000E+000
  0.000000000000000E+000
  0.000000000000000E+000
  0.000000000000000E+000
  0.000000000000000E+000
  0.000000000000000E+000
  0.000000000000000E+000
  0.000000000000000E+000
  0.000000000000000E+000
  0.000000000000000E+000
  0.000000000000000E+000
  0.000000000000000E+000
  0.000000000000000E+000
  0.000000000000000E+000
  0.000000000000000E+000
  0.000000000000000E+000
  0.000000000000000E+000
  0.000000000000000E+000
  0.000000000000000E+000
  0.000000000000000E+000
  0.000000000000000E+000
  0.000000000000000E+000
  0.000000000000000E+000
  0.000000000000000E+000
  0.000000000000000E+000
  0.000000000000000E+000
  0.000000000000000E+000
  0.000000000000000E+000
  0.000000000000000E+000
  0.000000000000000E+000
  0.000000000000000E+000
  0.000000000000000E+000
  0.000000000000000E+000
  0.000000000000000E+000
  0.000000000000000E+000
  0.000000000000000E+000
  0.000000000000000E+000
  0.000000000000000E+000
  0.000000000000000E+000
  0.000000000000000E+000
  0.000000000000000E+000
  0.000000000000000E+000
  0.000000000000000E+000
SCALARS poroL double 
LOOKUP_TABLE default
  0.156000000000000     
  0.156000000000000     
  0.156000000000000     
  0.156000000000000     
  0.156000000000000     
  0.156000000000000     
  0.156000000000000     
  0.156000000000000     
  0.156000000000000     
  0.156000000000000     
  0.156000000000000     
  0.156000000000000     
  0.156000000000000     
  0.156000000000000     
  0.156000000000000     
  0.156000000000000     
  0.156000000000000     
  0.156000000000000     
  0.156000000000000     
  0.156000000000000     
  0.156000000000000     
  0.156000000000000     
  0.156000000000000     
  0.156000000000000     
  0.156000000000000     
  0.156000000000000     
  0.156000000000000     
  0.156000000000000     
  0.156000000000000     
  0.156000000000000     
  0.156000000000000     
  0.156000000000000     
  0.156000000000000     
  0.156000000000000     
  0.156000000000000     
  0.156000000000000     
  0.156000000000000     
  0.156000000000000     
  0.156000000000000     
  0.156000000000000     
  0.156000000000000     
  0.156000000000000     
  0.156000000000000     
  0.156000000000000     
  0.156000000000000     
  0.156000000000000     
  0.156000000000000     
  0.156000000000000     
  0.156000000000000     
  0.156000000000000     
  0.156000000000000     
  0.156000000000000     
  0.156000000000000     
  0.156000000000000     
  0.156000000000000     
  0.156000000000000     
  0.156000000000000     
  0.156000000000000     
  0.156000000000000     
  0.156000000000000     
  0.156000000000000     
  0.156000000000000     
  0.156000000000000     
  0.156000000000000     
  0.156000000000000     
  0.156000000000000     
  0.156000000000000     
  0.156000000000000     
  0.156000000000000     
  0.156000000000000     
  0.156000000000000     
  0.156000000000000     
  0.156000000000000     
  0.156000000000000     
  0.156000000000000     
  0.156000000000000     
  0.156000000000000     
  0.156000000000000     
  0.156000000000000     
  0.156000000000000     
  0.156000000000000     
  0.156000000000000     
  0.156000000000000     
  0.156000000000000     
  0.156000000000000     
  0.156000000000000     
  0.156000000000000     
  0.156000000000000     
  0.156000000000000     
  0.156000000000000     
  0.156000000000000     
  0.156000000000000     
  0.156000000000000     
  0.156000000000000     
  0.156000000000000     
  0.156000000000000     
  0.156000000000000     
  0.156000000000000     
  0.156000000000000     
  0.156000000000000     
  0.156000000000000     
  0.156000000000000     
  0.156000000000000     
  0.156000000000000     
  0.156000000000000     
  0.156000000000000     
  0.156000000000000     
  0.156000000000000     
  0.156000000000000     
  0.156000000000000     
  0.156000000000000     
  0.156000000000000     
  0.156000000000000     
  0.156000000000000     
  0.156000000000000     
  0.156000000000000     
  0.156000000000000     
  0.156000000000000     
  0.156000000000000     
  0.156000000000000     
  0.156000000000000     
  0.156000000000000     
  0.156000000000000     
  0.156000000000000     
  0.156000000000000     
  0.156000000000000     
  0.156000000000000     
  0.156000000000000     
  0.156000000000000     
  0.156000000000000     
  0.156000000000000     
  0.156000000000000     
  0.156000000000000     
  0.156000000000000     
  0.156000000000000     
  0.156000000000000     
  0.156000000000000     
  0.156000000000000     
  0.156000000000000     
  0.156000000000000     
  0.156000000000000     
  0.156000000000000     
  0.156000000000000     
  0.156000000000000     
  0.156000000000000     
  0.156000000000000     
  0.156000000000000     
  0.156000000000000     
  0.156000000000000     
  0.156000000000000     
  0.156000000000000     
  0.156000000000000     
  0.156000000000000     
  0.156000000000000     
  0.156000000000000     
  0.156000000000000     
  0.156000000000000     
  0.156000000000000     
  0.156000000000000     
  0.156000000000000     
  0.156000000000000     
  0.156000000000000     
  0.156000000000000     
  0.156000000000000     
  0.156000000000000     
  0.156000000000000     
  0.156000000000000     
  0.156000000000000     
  0.156000000000000     
  0.156000000000000     
  0.156000000000000     
  0.156000000000000     
  0.156000000000000     
  0.156000000000000     
  0.156000000000000     
  0.156000000000000     
  0.156000000000000     
  0.156000000000000     
  0.156000000000000     
  0.156000000000000     
  0.156000000000000     
  0.156000000000000     
  0.156000000000000     
  0.156000000000000     
  0.156000000000000     
  0.156000000000000     
  0.156000000000000     
  0.156000000000000     
  0.156000000000000     
  0.156000000000000     
  0.156000000000000     
  0.156000000000000     
  0.156000000000000     
  0.156000000000000     
  0.156000000000000     
  0.156000000000000     
  0.156000000000000     
  0.156000000000000     
  0.156000000000000     
  0.156000000000000     
  0.156000000000000     
  0.156000000000000     
  0.156000000000000     
  0.156000000000000     
  0.156000000000000     
  0.156000000000000     
  0.156000000000000     
  0.156000000000000     
  0.156000000000000     
  0.156000000000000     
  0.156000000000000     
  0.156000000000000     
  0.156000000000000     
  0.156000000000000     
  0.156000000000000     
  0.156000000000000     
  0.156000000000000     
  0.156000000000000     
  0.156000000000000     
  0.156000000000000     
  0.156000000000000     
  0.156000000000000     
  0.156000000000000     
  0.156000000000000     
  0.156000000000000     
  0.156000000000000     
  0.156000000000000     
  0.156000000000000     
  0.156000000000000     
  0.156000000000000     
  0.156000000000000     
  0.156000000000000     
  0.156000000000000     
  0.156000000000000     
  0.156000000000000     
  0.156000000000000     
  0.156000000000000     
  0.156000000000000     
  0.156000000000000     
  0.156000000000000     
  0.156000000000000     
  0.156000000000000     
  0.156000000000000     
  0.156000000000000     
  0.156000000000000     
  0.156000000000000     
  0.156000000000000     
  0.156000000000000     
  0.156000000000000     
  0.156000000000000     
  0.156000000000000     
  0.156000000000000     
  0.156000000000000     
  0.156000000000000     
  0.156000000000000     
  0.156000000000000     
  0.156000000000000     
  0.156000000000000     
  0.156000000000000     
  0.156000000000000     
  0.156000000000000     
  0.156000000000000     
  0.156000000000000     
  0.156000000000000     
  0.156000000000000     
  0.156000000000000     
  0.156000000000000     
  0.156000000000000     
  0.156000000000000     
  0.156000000000000     
  0.156000000000000     
  0.156000000000000     
  0.156000000000000     
  0.156000000000000     
  0.156000000000000     
  0.156000000000000     
  0.156000000000000     
  0.156000000000000     
  0.156000000000000     
  0.156000000000000     
  0.156000000000000     
  0.156000000000000     
  0.156000000000000     
  0.156000000000000     
  0.156000000000000     
  0.156000000000000     
  0.156000000000000     
  0.156000000000000     
  0.156000000000000     
  0.156000000000000     
  0.156000000000000     
  0.156000000000000     
  0.156000000000000     
  0.156000000000000     
  0.156000000000000     
  0.156000000000000     
  0.156000000000000     
  0.156000000000000     
  0.156000000000000     
  0.156000000000000     
  0.156000000000000     
  0.156000000000000     
  0.156000000000000     
  0.156000000000000     
  0.156000000000000     
  0.156000000000000     
  0.156000000000000     
  0.156000000000000     
  0.156000000000000     
  0.156000000000000     
  0.156000000000000     
  0.156000000000000     
  0.156000000000000     
  0.156000000000000     
  0.156000000000000     
  0.156000000000000     
  0.156000000000000     
  0.156000000000000     
  0.156000000000000     
  0.156000000000000     
  0.156000000000000     
  0.156000000000000     
  0.156000000000000     
  0.156000000000000     
  0.156000000000000     
  0.156000000000000     
  0.156000000000000     
  0.156000000000000     
  0.156000000000000     
  0.156000000000000     
  0.156000000000000     
  0.156000000000000     
  0.156000000000000     
  0.156000000000000     
  0.156000000000000     
  0.156000000000000     
  0.156000000000000     
  0.156000000000000     
  0.156000000000000     
  0.156000000000000     
  0.156000000000000     
  0.156000000000000     
  0.156000000000000     
  0.156000000000000     
  0.156000000000000     
  0.156000000000000     
  0.156000000000000     
  0.156000000000000     
  0.156000000000000     
  0.156000000000000     
  0.156000000000000     
  0.156000000000000     
  0.156000000000000     
  0.156000000000000     
  0.156000000000000     
  0.156000000000000     
  0.156000000000000     
  0.156000000000000     
  0.156000000000000     
  0.156000000000000     
  0.156000000000000     
  0.156000000000000     
  0.156000000000000     
  0.156000000000000     
  0.156000000000000     
  0.156000000000000     
  0.156000000000000     
  0.156000000000000     
  0.156000000000000     
  0.156000000000000     
  0.156000000000000     
  0.156000000000000     
  0.156000000000000     
  0.156000000000000     
  0.156000000000000     
  0.156000000000000     
  0.156000000000000     
  0.156000000000000     
  0.156000000000000     
  0.156000000000000     
  0.156000000000000     
  0.156000000000000     
  0.156000000000000     
  0.156000000000000     
  0.156000000000000     
  0.156000000000000     
  0.156000000000000     
  0.156000000000000     
  0.156000000000000     
  0.156000000000000     
  0.156000000000000     
  0.156000000000000     
  0.156000000000000     
  0.156000000000000     
  0.156000000000000     
  0.156000000000000     
  0.156000000000000     
  0.156000000000000     
  0.156000000000000     
  0.156000000000000     
  0.156000000000000     
  0.156000000000000     
  0.156000000000000     
  0.156000000000000     
  0.156000000000000     
  0.156000000000000     
  0.156000000000000     
  0.156000000000000     
  0.156000000000000     
  0.156000000000000     
  0.156000000000000     
  0.156000000000000     
  0.156000000000000     
  0.156000000000000     
  0.156000000000000     
  0.156000000000000     
  0.156000000000000     
  0.156000000000000     
  0.156000000000000     
  0.156000000000000     
  0.156000000000000     
  0.156000000000000     
  0.156000000000000     
  0.156000000000000     
  0.156000000000000     
  0.156000000000000     
  0.156000000000000     
  0.156000000000000     
  0.156000000000000     
  0.156000000000000     
  0.156000000000000     
  0.156000000000000     
  0.156000000000000     
  0.156000000000000     
  0.156000000000000     
  0.156000000000000     
  0.156000000000000     
  0.156000000000000     
  0.156000000000000     
  0.156000000000000     
  0.156000000000000     
  0.156000000000000     
  0.156000000000000     
  0.156000000000000     
  0.156000000000000     
  0.156000000000000     
  0.156000000000000     
  0.156000000000000     
  0.156000000000000     
  0.156000000000000     
