# vtk DataFile Version 3.0
vtk output
ASCII
DATASET UNSTRUCTURED_GRID
POINTS       496 double 
  0.00000000E+00  3.00000000E+02  0.00000000E+00
  0.00000000E+00  2.80000000E+02  0.00000000E+00
  0.00000000E+00  2.60000000E+02  0.00000000E+00
  0.00000000E+00  2.40000000E+02  0.00000000E+00
  0.00000000E+00  2.20000000E+02  0.00000000E+00
  0.00000000E+00  2.00000000E+02  0.00000000E+00
  0.00000000E+00  1.80000000E+02  0.00000000E+00
  0.00000000E+00  1.60000000E+02  0.00000000E+00
  0.00000000E+00  1.40000000E+02  0.00000000E+00
  0.00000000E+00  1.20000000E+02  0.00000000E+00
  0.00000000E+00  1.00000000E+02  0.00000000E+00
  0.00000000E+00  8.00000000E+01  0.00000000E+00
  0.00000000E+00  6.00000000E+01  0.00000000E+00
  0.00000000E+00  4.00000000E+01  0.00000000E+00
  0.00000000E+00  2.00000000E+01  0.00000000E+00
  0.00000000E+00  4.99600361E-14  0.00000000E+00
  2.00000000E+01  3.00000000E+02  0.00000000E+00
  2.00000000E+01  2.80000000E+02  0.00000000E+00
  2.00000000E+01  2.60000000E+02  0.00000000E+00
  2.00000000E+01  2.40000000E+02  0.00000000E+00
  2.00000000E+01  2.20000000E+02  0.00000000E+00
  2.00000000E+01  2.00000000E+02  0.00000000E+00
  2.00000000E+01  1.80000000E+02  0.00000000E+00
  2.00000000E+01  1.60000000E+02  0.00000000E+00
  2.00000000E+01  1.40000000E+02  0.00000000E+00
  2.00000000E+01  1.20000000E+02  0.00000000E+00
  2.00000000E+01  1.00000000E+02  0.00000000E+00
  2.00000000E+01  8.00000000E+01  0.00000000E+00
  2.00000000E+01  6.00000000E+01  0.00000000E+00
  2.00000000E+01  4.00000000E+01  0.00000000E+00
  2.00000000E+01  2.00000000E+01  0.00000000E+00
  2.00000000E+01  4.99600361E-14  0.00000000E+00
  4.00000000E+01  3.00000000E+02  0.00000000E+00
  4.00000000E+01  2.80000000E+02  0.00000000E+00
  4.00000000E+01  2.60000000E+02  0.00000000E+00
  4.00000000E+01  2.40000000E+02  0.00000000E+00
  4.00000000E+01  2.20000000E+02  0.00000000E+00
  4.00000000E+01  2.00000000E+02  0.00000000E+00
  4.00000000E+01  1.80000000E+02  0.00000000E+00
  4.00000000E+01  1.60000000E+02  0.00000000E+00
  4.00000000E+01  1.40000000E+02  0.00000000E+00
  4.00000000E+01  1.20000000E+02  0.00000000E+00
  4.00000000E+01  1.00000000E+02  0.00000000E+00
  4.00000000E+01  8.00000000E+01  0.00000000E+00
  4.00000000E+01  6.00000000E+01  0.00000000E+00
  4.00000000E+01  4.00000000E+01  0.00000000E+00
  4.00000000E+01  2.00000000E+01  0.00000000E+00
  4.00000000E+01  4.99600361E-14  0.00000000E+00
  6.00000000E+01  3.00000000E+02  0.00000000E+00
  6.00000000E+01  2.80000000E+02  0.00000000E+00
  6.00000000E+01  2.60000000E+02  0.00000000E+00
  6.00000000E+01  2.40000000E+02  0.00000000E+00
  6.00000000E+01  2.20000000E+02  0.00000000E+00
  6.00000000E+01  2.00000000E+02  0.00000000E+00
  6.00000000E+01  1.80000000E+02  0.00000000E+00
  6.00000000E+01  1.60000000E+02  0.00000000E+00
  6.00000000E+01  1.40000000E+02  0.00000000E+00
  6.00000000E+01  1.20000000E+02  0.00000000E+00
  6.00000000E+01  1.00000000E+02  0.00000000E+00
  6.00000000E+01  8.00000000E+01  0.00000000E+00
  6.00000000E+01  6.00000000E+01  0.00000000E+00
  6.00000000E+01  4.00000000E+01  0.00000000E+00
  6.00000000E+01  2.00000000E+01  0.00000000E+00
  6.00000000E+01  4.99600361E-14  0.00000000E+00
  8.00000000E+01  3.00000000E+02  0.00000000E+00
  8.00000000E+01  2.80000000E+02  0.00000000E+00
  8.00000000E+01  2.60000000E+02  0.00000000E+00
  8.00000000E+01  2.40000000E+02  0.00000000E+00
  8.00000000E+01  2.20000000E+02  0.00000000E+00
  8.00000000E+01  2.00000000E+02  0.00000000E+00
  8.00000000E+01  1.80000000E+02  0.00000000E+00
  8.00000000E+01  1.60000000E+02  0.00000000E+00
  8.00000000E+01  1.40000000E+02  0.00000000E+00
  8.00000000E+01  1.20000000E+02  0.00000000E+00
  8.00000000E+01  1.00000000E+02  0.00000000E+00
  8.00000000E+01  8.00000000E+01  0.00000000E+00
  8.00000000E+01  6.00000000E+01  0.00000000E+00
  8.00000000E+01  4.00000000E+01  0.00000000E+00
  8.00000000E+01  2.00000000E+01  0.00000000E+00
  8.00000000E+01  4.99600361E-14  0.00000000E+00
  1.00000000E+02  3.00000000E+02  0.00000000E+00
  1.00000000E+02  2.80000000E+02  0.00000000E+00
  1.00000000E+02  2.60000000E+02  0.00000000E+00
  1.00000000E+02  2.40000000E+02  0.00000000E+00
  1.00000000E+02  2.20000000E+02  0.00000000E+00
  1.00000000E+02  2.00000000E+02  0.00000000E+00
  1.00000000E+02  1.80000000E+02  0.00000000E+00
  1.00000000E+02  1.60000000E+02  0.00000000E+00
  1.00000000E+02  1.40000000E+02  0.00000000E+00
  1.00000000E+02  1.20000000E+02  0.00000000E+00
  1.00000000E+02  1.00000000E+02  0.00000000E+00
  1.00000000E+02  8.00000000E+01  0.00000000E+00
  1.00000000E+02  6.00000000E+01  0.00000000E+00
  1.00000000E+02  4.00000000E+01  0.00000000E+00
  1.00000000E+02  2.00000000E+01  0.00000000E+00
  1.00000000E+02  4.99600361E-14  0.00000000E+00
  1.20000000E+02  3.00000000E+02  0.00000000E+00
  1.20000000E+02  2.80000000E+02  0.00000000E+00
  1.20000000E+02  2.60000000E+02  0.00000000E+00
  1.20000000E+02  2.40000000E+02  0.00000000E+00
  1.20000000E+02  2.20000000E+02  0.00000000E+00
  1.20000000E+02  2.00000000E+02  0.00000000E+00
  1.20000000E+02  1.80000000E+02  0.00000000E+00
  1.20000000E+02  1.60000000E+02  0.00000000E+00
  1.20000000E+02  1.40000000E+02  0.00000000E+00
  1.20000000E+02  1.20000000E+02  0.00000000E+00
  1.20000000E+02  1.00000000E+02  0.00000000E+00
  1.20000000E+02  8.00000000E+01  0.00000000E+00
  1.20000000E+02  6.00000000E+01  0.00000000E+00
  1.20000000E+02  4.00000000E+01  0.00000000E+00
  1.20000000E+02  2.00000000E+01  0.00000000E+00
  1.20000000E+02  4.99600361E-14  0.00000000E+00
  1.40000000E+02  3.00000000E+02  0.00000000E+00
  1.40000000E+02  2.80000000E+02  0.00000000E+00
  1.40000000E+02  2.60000000E+02  0.00000000E+00
  1.40000000E+02  2.40000000E+02  0.00000000E+00
  1.40000000E+02  2.20000000E+02  0.00000000E+00
  1.40000000E+02  2.00000000E+02  0.00000000E+00
  1.40000000E+02  1.80000000E+02  0.00000000E+00
  1.40000000E+02  1.60000000E+02  0.00000000E+00
  1.40000000E+02  1.40000000E+02  0.00000000E+00
  1.40000000E+02  1.20000000E+02  0.00000000E+00
  1.40000000E+02  1.00000000E+02  0.00000000E+00
  1.40000000E+02  8.00000000E+01  0.00000000E+00
  1.40000000E+02  6.00000000E+01  0.00000000E+00
  1.40000000E+02  4.00000000E+01  0.00000000E+00
  1.40000000E+02  2.00000000E+01  0.00000000E+00
  1.40000000E+02  4.99600361E-14  0.00000000E+00
  1.60000000E+02  3.00000000E+02  0.00000000E+00
  1.60000000E+02  2.80000000E+02  0.00000000E+00
  1.60000000E+02  2.60000000E+02  0.00000000E+00
  1.60000000E+02  2.40000000E+02  0.00000000E+00
  1.60000000E+02  2.20000000E+02  0.00000000E+00
  1.60000000E+02  2.00000000E+02  0.00000000E+00
  1.60000000E+02  1.80000000E+02  0.00000000E+00
  1.60000000E+02  1.60000000E+02  0.00000000E+00
  1.60000000E+02  1.40000000E+02  0.00000000E+00
  1.60000000E+02  1.20000000E+02  0.00000000E+00
  1.60000000E+02  1.00000000E+02  0.00000000E+00
  1.60000000E+02  8.00000000E+01  0.00000000E+00
  1.60000000E+02  6.00000000E+01  0.00000000E+00
  1.60000000E+02  4.00000000E+01  0.00000000E+00
  1.60000000E+02  2.00000000E+01  0.00000000E+00
  1.60000000E+02  4.99600361E-14  0.00000000E+00
  1.80000000E+02  3.00000000E+02  0.00000000E+00
  1.80000000E+02  2.80000000E+02  0.00000000E+00
  1.80000000E+02  2.60000000E+02  0.00000000E+00
  1.80000000E+02  2.40000000E+02  0.00000000E+00
  1.80000000E+02  2.20000000E+02  0.00000000E+00
  1.80000000E+02  2.00000000E+02  0.00000000E+00
  1.80000000E+02  1.80000000E+02  0.00000000E+00
  1.80000000E+02  1.60000000E+02  0.00000000E+00
  1.80000000E+02  1.40000000E+02  0.00000000E+00
  1.80000000E+02  1.20000000E+02  0.00000000E+00
  1.80000000E+02  1.00000000E+02  0.00000000E+00
  1.80000000E+02  8.00000000E+01  0.00000000E+00
  1.80000000E+02  6.00000000E+01  0.00000000E+00
  1.80000000E+02  4.00000000E+01  0.00000000E+00
  1.80000000E+02  2.00000000E+01  0.00000000E+00
  1.80000000E+02  4.99600361E-14  0.00000000E+00
  2.00000000E+02  3.00000000E+02  0.00000000E+00
  2.00000000E+02  2.80000000E+02  0.00000000E+00
  2.00000000E+02  2.60000000E+02  0.00000000E+00
  2.00000000E+02  2.40000000E+02  0.00000000E+00
  2.00000000E+02  2.20000000E+02  0.00000000E+00
  2.00000000E+02  2.00000000E+02  0.00000000E+00
  2.00000000E+02  1.80000000E+02  0.00000000E+00
  2.00000000E+02  1.60000000E+02  0.00000000E+00
  2.00000000E+02  1.40000000E+02  0.00000000E+00
  2.00000000E+02  1.20000000E+02  0.00000000E+00
  2.00000000E+02  1.00000000E+02  0.00000000E+00
  2.00000000E+02  8.00000000E+01  0.00000000E+00
  2.00000000E+02  6.00000000E+01  0.00000000E+00
  2.00000000E+02  4.00000000E+01  0.00000000E+00
  2.00000000E+02  2.00000000E+01  0.00000000E+00
  2.00000000E+02  4.99600361E-14  0.00000000E+00
  2.20000000E+02  3.00000000E+02  0.00000000E+00
  2.20000000E+02  2.80000000E+02  0.00000000E+00
  2.20000000E+02  2.60000000E+02  0.00000000E+00
  2.20000000E+02  2.40000000E+02  0.00000000E+00
  2.20000000E+02  2.20000000E+02  0.00000000E+00
  2.20000000E+02  2.00000000E+02  0.00000000E+00
  2.20000000E+02  1.80000000E+02  0.00000000E+00
  2.20000000E+02  1.60000000E+02  0.00000000E+00
  2.20000000E+02  1.40000000E+02  0.00000000E+00
  2.20000000E+02  1.20000000E+02  0.00000000E+00
  2.20000000E+02  1.00000000E+02  0.00000000E+00
  2.20000000E+02  8.00000000E+01  0.00000000E+00
  2.20000000E+02  6.00000000E+01  0.00000000E+00
  2.20000000E+02  4.00000000E+01  0.00000000E+00
  2.20000000E+02  2.00000000E+01  0.00000000E+00
  2.20000000E+02  4.99600361E-14  0.00000000E+00
  2.40000000E+02  3.00000000E+02  0.00000000E+00
  2.40000000E+02  2.80000000E+02  0.00000000E+00
  2.40000000E+02  2.60000000E+02  0.00000000E+00
  2.40000000E+02  2.40000000E+02  0.00000000E+00
  2.40000000E+02  2.20000000E+02  0.00000000E+00
  2.40000000E+02  2.00000000E+02  0.00000000E+00
  2.40000000E+02  1.80000000E+02  0.00000000E+00
  2.40000000E+02  1.60000000E+02  0.00000000E+00
  2.40000000E+02  1.40000000E+02  0.00000000E+00
  2.40000000E+02  1.20000000E+02  0.00000000E+00
  2.40000000E+02  1.00000000E+02  0.00000000E+00
  2.40000000E+02  8.00000000E+01  0.00000000E+00
  2.40000000E+02  6.00000000E+01  0.00000000E+00
  2.40000000E+02  4.00000000E+01  0.00000000E+00
  2.40000000E+02  2.00000000E+01  0.00000000E+00
  2.40000000E+02  4.99600361E-14  0.00000000E+00
  2.60000000E+02  3.00000000E+02  0.00000000E+00
  2.60000000E+02  2.80000000E+02  0.00000000E+00
  2.60000000E+02  2.60000000E+02  0.00000000E+00
  2.60000000E+02  2.40000000E+02  0.00000000E+00
  2.60000000E+02  2.20000000E+02  0.00000000E+00
  2.60000000E+02  2.00000000E+02  0.00000000E+00
  2.60000000E+02  1.80000000E+02  0.00000000E+00
  2.60000000E+02  1.60000000E+02  0.00000000E+00
  2.60000000E+02  1.40000000E+02  0.00000000E+00
  2.60000000E+02  1.20000000E+02  0.00000000E+00
  2.60000000E+02  1.00000000E+02  0.00000000E+00
  2.60000000E+02  8.00000000E+01  0.00000000E+00
  2.60000000E+02  6.00000000E+01  0.00000000E+00
  2.60000000E+02  4.00000000E+01  0.00000000E+00
  2.60000000E+02  2.00000000E+01  0.00000000E+00
  2.60000000E+02  4.99600361E-14  0.00000000E+00
  2.80000000E+02  3.00000000E+02  0.00000000E+00
  2.80000000E+02  2.80000000E+02  0.00000000E+00
  2.80000000E+02  2.60000000E+02  0.00000000E+00
  2.80000000E+02  2.40000000E+02  0.00000000E+00
  2.80000000E+02  2.20000000E+02  0.00000000E+00
  2.80000000E+02  2.00000000E+02  0.00000000E+00
  2.80000000E+02  1.80000000E+02  0.00000000E+00
  2.80000000E+02  1.60000000E+02  0.00000000E+00
  2.80000000E+02  1.40000000E+02  0.00000000E+00
  2.80000000E+02  1.20000000E+02  0.00000000E+00
  2.80000000E+02  1.00000000E+02  0.00000000E+00
  2.80000000E+02  8.00000000E+01  0.00000000E+00
  2.80000000E+02  6.00000000E+01  0.00000000E+00
  2.80000000E+02  4.00000000E+01  0.00000000E+00
  2.80000000E+02  2.00000000E+01  0.00000000E+00
  2.80000000E+02  4.99600361E-14  0.00000000E+00
  3.00000000E+02  3.00000000E+02  0.00000000E+00
  3.00000000E+02  2.80000000E+02  0.00000000E+00
  3.00000000E+02  2.60000000E+02  0.00000000E+00
  3.00000000E+02  2.40000000E+02  0.00000000E+00
  3.00000000E+02  2.20000000E+02  0.00000000E+00
  3.00000000E+02  2.00000000E+02  0.00000000E+00
  3.00000000E+02  1.80000000E+02  0.00000000E+00
  3.00000000E+02  1.60000000E+02  0.00000000E+00
  3.00000000E+02  1.40000000E+02  0.00000000E+00
  3.00000000E+02  1.20000000E+02  0.00000000E+00
  3.00000000E+02  1.00000000E+02  0.00000000E+00
  3.00000000E+02  8.00000000E+01  0.00000000E+00
  3.00000000E+02  6.00000000E+01  0.00000000E+00
  3.00000000E+02  4.00000000E+01  0.00000000E+00
  3.00000000E+02  2.00000000E+01  0.00000000E+00
  3.00000000E+02  4.99600361E-14  0.00000000E+00
  3.20000000E+02  3.00000000E+02  0.00000000E+00
  3.20000000E+02  2.80000000E+02  0.00000000E+00
  3.20000000E+02  2.60000000E+02  0.00000000E+00
  3.20000000E+02  2.40000000E+02  0.00000000E+00
  3.20000000E+02  2.20000000E+02  0.00000000E+00
  3.20000000E+02  2.00000000E+02  0.00000000E+00
  3.20000000E+02  1.80000000E+02  0.00000000E+00
  3.20000000E+02  1.60000000E+02  0.00000000E+00
  3.20000000E+02  1.40000000E+02  0.00000000E+00
  3.20000000E+02  1.20000000E+02  0.00000000E+00
  3.20000000E+02  1.00000000E+02  0.00000000E+00
  3.20000000E+02  8.00000000E+01  0.00000000E+00
  3.20000000E+02  6.00000000E+01  0.00000000E+00
  3.20000000E+02  4.00000000E+01  0.00000000E+00
  3.20000000E+02  2.00000000E+01  0.00000000E+00
  3.20000000E+02  4.99600361E-14  0.00000000E+00
  3.40000000E+02  3.00000000E+02  0.00000000E+00
  3.40000000E+02  2.80000000E+02  0.00000000E+00
  3.40000000E+02  2.60000000E+02  0.00000000E+00
  3.40000000E+02  2.40000000E+02  0.00000000E+00
  3.40000000E+02  2.20000000E+02  0.00000000E+00
  3.40000000E+02  2.00000000E+02  0.00000000E+00
  3.40000000E+02  1.80000000E+02  0.00000000E+00
  3.40000000E+02  1.60000000E+02  0.00000000E+00
  3.40000000E+02  1.40000000E+02  0.00000000E+00
  3.40000000E+02  1.20000000E+02  0.00000000E+00
  3.40000000E+02  1.00000000E+02  0.00000000E+00
  3.40000000E+02  8.00000000E+01  0.00000000E+00
  3.40000000E+02  6.00000000E+01  0.00000000E+00
  3.40000000E+02  4.00000000E+01  0.00000000E+00
  3.40000000E+02  2.00000000E+01  0.00000000E+00
  3.40000000E+02  4.99600361E-14  0.00000000E+00
  3.60000000E+02  3.00000000E+02  0.00000000E+00
  3.60000000E+02  2.80000000E+02  0.00000000E+00
  3.60000000E+02  2.60000000E+02  0.00000000E+00
  3.60000000E+02  2.40000000E+02  0.00000000E+00
  3.60000000E+02  2.20000000E+02  0.00000000E+00
  3.60000000E+02  2.00000000E+02  0.00000000E+00
  3.60000000E+02  1.80000000E+02  0.00000000E+00
  3.60000000E+02  1.60000000E+02  0.00000000E+00
  3.60000000E+02  1.40000000E+02  0.00000000E+00
  3.60000000E+02  1.20000000E+02  0.00000000E+00
  3.60000000E+02  1.00000000E+02  0.00000000E+00
  3.60000000E+02  8.00000000E+01  0.00000000E+00
  3.60000000E+02  6.00000000E+01  0.00000000E+00
  3.60000000E+02  4.00000000E+01  0.00000000E+00
  3.60000000E+02  2.00000000E+01  0.00000000E+00
  3.60000000E+02  4.99600361E-14  0.00000000E+00
  3.80000000E+02  3.00000000E+02  0.00000000E+00
  3.80000000E+02  2.80000000E+02  0.00000000E+00
  3.80000000E+02  2.60000000E+02  0.00000000E+00
  3.80000000E+02  2.40000000E+02  0.00000000E+00
  3.80000000E+02  2.20000000E+02  0.00000000E+00
  3.80000000E+02  2.00000000E+02  0.00000000E+00
  3.80000000E+02  1.80000000E+02  0.00000000E+00
  3.80000000E+02  1.60000000E+02  0.00000000E+00
  3.80000000E+02  1.40000000E+02  0.00000000E+00
  3.80000000E+02  1.20000000E+02  0.00000000E+00
  3.80000000E+02  1.00000000E+02  0.00000000E+00
  3.80000000E+02  8.00000000E+01  0.00000000E+00
  3.80000000E+02  6.00000000E+01  0.00000000E+00
  3.80000000E+02  4.00000000E+01  0.00000000E+00
  3.80000000E+02  2.00000000E+01  0.00000000E+00
  3.80000000E+02  4.99600361E-14  0.00000000E+00
  4.00000000E+02  3.00000000E+02  0.00000000E+00
  4.00000000E+02  2.80000000E+02  0.00000000E+00
  4.00000000E+02  2.60000000E+02  0.00000000E+00
  4.00000000E+02  2.40000000E+02  0.00000000E+00
  4.00000000E+02  2.20000000E+02  0.00000000E+00
  4.00000000E+02  2.00000000E+02  0.00000000E+00
  4.00000000E+02  1.80000000E+02  0.00000000E+00
  4.00000000E+02  1.60000000E+02  0.00000000E+00
  4.00000000E+02  1.40000000E+02  0.00000000E+00
  4.00000000E+02  1.20000000E+02  0.00000000E+00
  4.00000000E+02  1.00000000E+02  0.00000000E+00
  4.00000000E+02  8.00000000E+01  0.00000000E+00
  4.00000000E+02  6.00000000E+01  0.00000000E+00
  4.00000000E+02  4.00000000E+01  0.00000000E+00
  4.00000000E+02  2.00000000E+01  0.00000000E+00
  4.00000000E+02  4.99600361E-14  0.00000000E+00
  4.20000000E+02  3.00000000E+02  0.00000000E+00
  4.20000000E+02  2.80000000E+02  0.00000000E+00
  4.20000000E+02  2.60000000E+02  0.00000000E+00
  4.20000000E+02  2.40000000E+02  0.00000000E+00
  4.20000000E+02  2.20000000E+02  0.00000000E+00
  4.20000000E+02  2.00000000E+02  0.00000000E+00
  4.20000000E+02  1.80000000E+02  0.00000000E+00
  4.20000000E+02  1.60000000E+02  0.00000000E+00
  4.20000000E+02  1.40000000E+02  0.00000000E+00
  4.20000000E+02  1.20000000E+02  0.00000000E+00
  4.20000000E+02  1.00000000E+02  0.00000000E+00
  4.20000000E+02  8.00000000E+01  0.00000000E+00
  4.20000000E+02  6.00000000E+01  0.00000000E+00
  4.20000000E+02  4.00000000E+01  0.00000000E+00
  4.20000000E+02  2.00000000E+01  0.00000000E+00
  4.20000000E+02  4.99600361E-14  0.00000000E+00
  4.40000000E+02  3.00000000E+02  0.00000000E+00
  4.40000000E+02  2.80000000E+02  0.00000000E+00
  4.40000000E+02  2.60000000E+02  0.00000000E+00
  4.40000000E+02  2.40000000E+02  0.00000000E+00
  4.40000000E+02  2.20000000E+02  0.00000000E+00
  4.40000000E+02  2.00000000E+02  0.00000000E+00
  4.40000000E+02  1.80000000E+02  0.00000000E+00
  4.40000000E+02  1.60000000E+02  0.00000000E+00
  4.40000000E+02  1.40000000E+02  0.00000000E+00
  4.40000000E+02  1.20000000E+02  0.00000000E+00
  4.40000000E+02  1.00000000E+02  0.00000000E+00
  4.40000000E+02  8.00000000E+01  0.00000000E+00
  4.40000000E+02  6.00000000E+01  0.00000000E+00
  4.40000000E+02  4.00000000E+01  0.00000000E+00
  4.40000000E+02  2.00000000E+01  0.00000000E+00
  4.40000000E+02  4.99600361E-14  0.00000000E+00
  4.60000000E+02  3.00000000E+02  0.00000000E+00
  4.60000000E+02  2.80000000E+02  0.00000000E+00
  4.60000000E+02  2.60000000E+02  0.00000000E+00
  4.60000000E+02  2.40000000E+02  0.00000000E+00
  4.60000000E+02  2.20000000E+02  0.00000000E+00
  4.60000000E+02  2.00000000E+02  0.00000000E+00
  4.60000000E+02  1.80000000E+02  0.00000000E+00
  4.60000000E+02  1.60000000E+02  0.00000000E+00
  4.60000000E+02  1.40000000E+02  0.00000000E+00
  4.60000000E+02  1.20000000E+02  0.00000000E+00
  4.60000000E+02  1.00000000E+02  0.00000000E+00
  4.60000000E+02  8.00000000E+01  0.00000000E+00
  4.60000000E+02  6.00000000E+01  0.00000000E+00
  4.60000000E+02  4.00000000E+01  0.00000000E+00
  4.60000000E+02  2.00000000E+01  0.00000000E+00
  4.60000000E+02  4.99600361E-14  0.00000000E+00
  4.80000000E+02  3.00000000E+02  0.00000000E+00
  4.80000000E+02  2.80000000E+02  0.00000000E+00
  4.80000000E+02  2.60000000E+02  0.00000000E+00
  4.80000000E+02  2.40000000E+02  0.00000000E+00
  4.80000000E+02  2.20000000E+02  0.00000000E+00
  4.80000000E+02  2.00000000E+02  0.00000000E+00
  4.80000000E+02  1.80000000E+02  0.00000000E+00
  4.80000000E+02  1.60000000E+02  0.00000000E+00
  4.80000000E+02  1.40000000E+02  0.00000000E+00
  4.80000000E+02  1.20000000E+02  0.00000000E+00
  4.80000000E+02  1.00000000E+02  0.00000000E+00
  4.80000000E+02  8.00000000E+01  0.00000000E+00
  4.80000000E+02  6.00000000E+01  0.00000000E+00
  4.80000000E+02  4.00000000E+01  0.00000000E+00
  4.80000000E+02  2.00000000E+01  0.00000000E+00
  4.80000000E+02  4.99600361E-14  0.00000000E+00
  5.00000000E+02  3.00000000E+02  0.00000000E+00
  5.00000000E+02  2.80000000E+02  0.00000000E+00
  5.00000000E+02  2.60000000E+02  0.00000000E+00
  5.00000000E+02  2.40000000E+02  0.00000000E+00
  5.00000000E+02  2.20000000E+02  0.00000000E+00
  5.00000000E+02  2.00000000E+02  0.00000000E+00
  5.00000000E+02  1.80000000E+02  0.00000000E+00
  5.00000000E+02  1.60000000E+02  0.00000000E+00
  5.00000000E+02  1.40000000E+02  0.00000000E+00
  5.00000000E+02  1.20000000E+02  0.00000000E+00
  5.00000000E+02  1.00000000E+02  0.00000000E+00
  5.00000000E+02  8.00000000E+01  0.00000000E+00
  5.00000000E+02  6.00000000E+01  0.00000000E+00
  5.00000000E+02  4.00000000E+01  0.00000000E+00
  5.00000000E+02  2.00000000E+01  0.00000000E+00
  5.00000000E+02  4.99600361E-14  0.00000000E+00
  5.20000000E+02  3.00000000E+02  0.00000000E+00
  5.20000000E+02  2.80000000E+02  0.00000000E+00
  5.20000000E+02  2.60000000E+02  0.00000000E+00
  5.20000000E+02  2.40000000E+02  0.00000000E+00
  5.20000000E+02  2.20000000E+02  0.00000000E+00
  5.20000000E+02  2.00000000E+02  0.00000000E+00
  5.20000000E+02  1.80000000E+02  0.00000000E+00
  5.20000000E+02  1.60000000E+02  0.00000000E+00
  5.20000000E+02  1.40000000E+02  0.00000000E+00
  5.20000000E+02  1.20000000E+02  0.00000000E+00
  5.20000000E+02  1.00000000E+02  0.00000000E+00
  5.20000000E+02  8.00000000E+01  0.00000000E+00
  5.20000000E+02  6.00000000E+01  0.00000000E+00
  5.20000000E+02  4.00000000E+01  0.00000000E+00
  5.20000000E+02  2.00000000E+01  0.00000000E+00
  5.20000000E+02  4.99600361E-14  0.00000000E+00
  5.40000000E+02  3.00000000E+02  0.00000000E+00
  5.40000000E+02  2.80000000E+02  0.00000000E+00
  5.40000000E+02  2.60000000E+02  0.00000000E+00
  5.40000000E+02  2.40000000E+02  0.00000000E+00
  5.40000000E+02  2.20000000E+02  0.00000000E+00
  5.40000000E+02  2.00000000E+02  0.00000000E+00
  5.40000000E+02  1.80000000E+02  0.00000000E+00
  5.40000000E+02  1.60000000E+02  0.00000000E+00
  5.40000000E+02  1.40000000E+02  0.00000000E+00
  5.40000000E+02  1.20000000E+02  0.00000000E+00
  5.40000000E+02  1.00000000E+02  0.00000000E+00
  5.40000000E+02  8.00000000E+01  0.00000000E+00
  5.40000000E+02  6.00000000E+01  0.00000000E+00
  5.40000000E+02  4.00000000E+01  0.00000000E+00
  5.40000000E+02  2.00000000E+01  0.00000000E+00
  5.40000000E+02  4.99600361E-14  0.00000000E+00
  5.60000000E+02  3.00000000E+02  0.00000000E+00
  5.60000000E+02  2.80000000E+02  0.00000000E+00
  5.60000000E+02  2.60000000E+02  0.00000000E+00
  5.60000000E+02  2.40000000E+02  0.00000000E+00
  5.60000000E+02  2.20000000E+02  0.00000000E+00
  5.60000000E+02  2.00000000E+02  0.00000000E+00
  5.60000000E+02  1.80000000E+02  0.00000000E+00
  5.60000000E+02  1.60000000E+02  0.00000000E+00
  5.60000000E+02  1.40000000E+02  0.00000000E+00
  5.60000000E+02  1.20000000E+02  0.00000000E+00
  5.60000000E+02  1.00000000E+02  0.00000000E+00
  5.60000000E+02  8.00000000E+01  0.00000000E+00
  5.60000000E+02  6.00000000E+01  0.00000000E+00
  5.60000000E+02  4.00000000E+01  0.00000000E+00
  5.60000000E+02  2.00000000E+01  0.00000000E+00
  5.60000000E+02  4.99600361E-14  0.00000000E+00
  5.80000000E+02  3.00000000E+02  0.00000000E+00
  5.80000000E+02  2.80000000E+02  0.00000000E+00
  5.80000000E+02  2.60000000E+02  0.00000000E+00
  5.80000000E+02  2.40000000E+02  0.00000000E+00
  5.80000000E+02  2.20000000E+02  0.00000000E+00
  5.80000000E+02  2.00000000E+02  0.00000000E+00
  5.80000000E+02  1.80000000E+02  0.00000000E+00
  5.80000000E+02  1.60000000E+02  0.00000000E+00
  5.80000000E+02  1.40000000E+02  0.00000000E+00
  5.80000000E+02  1.20000000E+02  0.00000000E+00
  5.80000000E+02  1.00000000E+02  0.00000000E+00
  5.80000000E+02  8.00000000E+01  0.00000000E+00
  5.80000000E+02  6.00000000E+01  0.00000000E+00
  5.80000000E+02  4.00000000E+01  0.00000000E+00
  5.80000000E+02  2.00000000E+01  0.00000000E+00
  5.80000000E+02  4.99600361E-14  0.00000000E+00
  6.00000000E+02  3.00000000E+02  0.00000000E+00
  6.00000000E+02  2.80000000E+02  0.00000000E+00
  6.00000000E+02  2.60000000E+02  0.00000000E+00
  6.00000000E+02  2.40000000E+02  0.00000000E+00
  6.00000000E+02  2.20000000E+02  0.00000000E+00
  6.00000000E+02  2.00000000E+02  0.00000000E+00
  6.00000000E+02  1.80000000E+02  0.00000000E+00
  6.00000000E+02  1.60000000E+02  0.00000000E+00
  6.00000000E+02  1.40000000E+02  0.00000000E+00
  6.00000000E+02  1.20000000E+02  0.00000000E+00
  6.00000000E+02  1.00000000E+02  0.00000000E+00
  6.00000000E+02  8.00000000E+01  0.00000000E+00
  6.00000000E+02  6.00000000E+01  0.00000000E+00
  6.00000000E+02  4.00000000E+01  0.00000000E+00
  6.00000000E+02  2.00000000E+01  0.00000000E+00
  6.00000000E+02  4.99600361E-14  0.00000000E+00
CELLS       450      2250
         4           0           1          17          16
         4           1           2          18          17
         4           2           3          19          18
         4           3           4          20          19
         4           4           5          21          20
         4           5           6          22          21
         4           6           7          23          22
         4           7           8          24          23
         4           8           9          25          24
         4           9          10          26          25
         4          10          11          27          26
         4          11          12          28          27
         4          12          13          29          28
         4          13          14          30          29
         4          14          15          31          30
         4          16          17          33          32
         4          17          18          34          33
         4          18          19          35          34
         4          19          20          36          35
         4          20          21          37          36
         4          21          22          38          37
         4          22          23          39          38
         4          23          24          40          39
         4          24          25          41          40
         4          25          26          42          41
         4          26          27          43          42
         4          27          28          44          43
         4          28          29          45          44
         4          29          30          46          45
         4          30          31          47          46
         4          32          33          49          48
         4          33          34          50          49
         4          34          35          51          50
         4          35          36          52          51
         4          36          37          53          52
         4          37          38          54          53
         4          38          39          55          54
         4          39          40          56          55
         4          40          41          57          56
         4          41          42          58          57
         4          42          43          59          58
         4          43          44          60          59
         4          44          45          61          60
         4          45          46          62          61
         4          46          47          63          62
         4          48          49          65          64
         4          49          50          66          65
         4          50          51          67          66
         4          51          52          68          67
         4          52          53          69          68
         4          53          54          70          69
         4          54          55          71          70
         4          55          56          72          71
         4          56          57          73          72
         4          57          58          74          73
         4          58          59          75          74
         4          59          60          76          75
         4          60          61          77          76
         4          61          62          78          77
         4          62          63          79          78
         4          64          65          81          80
         4          65          66          82          81
         4          66          67          83          82
         4          67          68          84          83
         4          68          69          85          84
         4          69          70          86          85
         4          70          71          87          86
         4          71          72          88          87
         4          72          73          89          88
         4          73          74          90          89
         4          74          75          91          90
         4          75          76          92          91
         4          76          77          93          92
         4          77          78          94          93
         4          78          79          95          94
         4          80          81          97          96
         4          81          82          98          97
         4          82          83          99          98
         4          83          84         100          99
         4          84          85         101         100
         4          85          86         102         101
         4          86          87         103         102
         4          87          88         104         103
         4          88          89         105         104
         4          89          90         106         105
         4          90          91         107         106
         4          91          92         108         107
         4          92          93         109         108
         4          93          94         110         109
         4          94          95         111         110
         4          96          97         113         112
         4          97          98         114         113
         4          98          99         115         114
         4          99         100         116         115
         4         100         101         117         116
         4         101         102         118         117
         4         102         103         119         118
         4         103         104         120         119
         4         104         105         121         120
         4         105         106         122         121
         4         106         107         123         122
         4         107         108         124         123
         4         108         109         125         124
         4         109         110         126         125
         4         110         111         127         126
         4         112         113         129         128
         4         113         114         130         129
         4         114         115         131         130
         4         115         116         132         131
         4         116         117         133         132
         4         117         118         134         133
         4         118         119         135         134
         4         119         120         136         135
         4         120         121         137         136
         4         121         122         138         137
         4         122         123         139         138
         4         123         124         140         139
         4         124         125         141         140
         4         125         126         142         141
         4         126         127         143         142
         4         128         129         145         144
         4         129         130         146         145
         4         130         131         147         146
         4         131         132         148         147
         4         132         133         149         148
         4         133         134         150         149
         4         134         135         151         150
         4         135         136         152         151
         4         136         137         153         152
         4         137         138         154         153
         4         138         139         155         154
         4         139         140         156         155
         4         140         141         157         156
         4         141         142         158         157
         4         142         143         159         158
         4         144         145         161         160
         4         145         146         162         161
         4         146         147         163         162
         4         147         148         164         163
         4         148         149         165         164
         4         149         150         166         165
         4         150         151         167         166
         4         151         152         168         167
         4         152         153         169         168
         4         153         154         170         169
         4         154         155         171         170
         4         155         156         172         171
         4         156         157         173         172
         4         157         158         174         173
         4         158         159         175         174
         4         160         161         177         176
         4         161         162         178         177
         4         162         163         179         178
         4         163         164         180         179
         4         164         165         181         180
         4         165         166         182         181
         4         166         167         183         182
         4         167         168         184         183
         4         168         169         185         184
         4         169         170         186         185
         4         170         171         187         186
         4         171         172         188         187
         4         172         173         189         188
         4         173         174         190         189
         4         174         175         191         190
         4         176         177         193         192
         4         177         178         194         193
         4         178         179         195         194
         4         179         180         196         195
         4         180         181         197         196
         4         181         182         198         197
         4         182         183         199         198
         4         183         184         200         199
         4         184         185         201         200
         4         185         186         202         201
         4         186         187         203         202
         4         187         188         204         203
         4         188         189         205         204
         4         189         190         206         205
         4         190         191         207         206
         4         192         193         209         208
         4         193         194         210         209
         4         194         195         211         210
         4         195         196         212         211
         4         196         197         213         212
         4         197         198         214         213
         4         198         199         215         214
         4         199         200         216         215
         4         200         201         217         216
         4         201         202         218         217
         4         202         203         219         218
         4         203         204         220         219
         4         204         205         221         220
         4         205         206         222         221
         4         206         207         223         222
         4         208         209         225         224
         4         209         210         226         225
         4         210         211         227         226
         4         211         212         228         227
         4         212         213         229         228
         4         213         214         230         229
         4         214         215         231         230
         4         215         216         232         231
         4         216         217         233         232
         4         217         218         234         233
         4         218         219         235         234
         4         219         220         236         235
         4         220         221         237         236
         4         221         222         238         237
         4         222         223         239         238
         4         224         225         241         240
         4         225         226         242         241
         4         226         227         243         242
         4         227         228         244         243
         4         228         229         245         244
         4         229         230         246         245
         4         230         231         247         246
         4         231         232         248         247
         4         232         233         249         248
         4         233         234         250         249
         4         234         235         251         250
         4         235         236         252         251
         4         236         237         253         252
         4         237         238         254         253
         4         238         239         255         254
         4         240         241         257         256
         4         241         242         258         257
         4         242         243         259         258
         4         243         244         260         259
         4         244         245         261         260
         4         245         246         262         261
         4         246         247         263         262
         4         247         248         264         263
         4         248         249         265         264
         4         249         250         266         265
         4         250         251         267         266
         4         251         252         268         267
         4         252         253         269         268
         4         253         254         270         269
         4         254         255         271         270
         4         256         257         273         272
         4         257         258         274         273
         4         258         259         275         274
         4         259         260         276         275
         4         260         261         277         276
         4         261         262         278         277
         4         262         263         279         278
         4         263         264         280         279
         4         264         265         281         280
         4         265         266         282         281
         4         266         267         283         282
         4         267         268         284         283
         4         268         269         285         284
         4         269         270         286         285
         4         270         271         287         286
         4         272         273         289         288
         4         273         274         290         289
         4         274         275         291         290
         4         275         276         292         291
         4         276         277         293         292
         4         277         278         294         293
         4         278         279         295         294
         4         279         280         296         295
         4         280         281         297         296
         4         281         282         298         297
         4         282         283         299         298
         4         283         284         300         299
         4         284         285         301         300
         4         285         286         302         301
         4         286         287         303         302
         4         288         289         305         304
         4         289         290         306         305
         4         290         291         307         306
         4         291         292         308         307
         4         292         293         309         308
         4         293         294         310         309
         4         294         295         311         310
         4         295         296         312         311
         4         296         297         313         312
         4         297         298         314         313
         4         298         299         315         314
         4         299         300         316         315
         4         300         301         317         316
         4         301         302         318         317
         4         302         303         319         318
         4         304         305         321         320
         4         305         306         322         321
         4         306         307         323         322
         4         307         308         324         323
         4         308         309         325         324
         4         309         310         326         325
         4         310         311         327         326
         4         311         312         328         327
         4         312         313         329         328
         4         313         314         330         329
         4         314         315         331         330
         4         315         316         332         331
         4         316         317         333         332
         4         317         318         334         333
         4         318         319         335         334
         4         320         321         337         336
         4         321         322         338         337
         4         322         323         339         338
         4         323         324         340         339
         4         324         325         341         340
         4         325         326         342         341
         4         326         327         343         342
         4         327         328         344         343
         4         328         329         345         344
         4         329         330         346         345
         4         330         331         347         346
         4         331         332         348         347
         4         332         333         349         348
         4         333         334         350         349
         4         334         335         351         350
         4         336         337         353         352
         4         337         338         354         353
         4         338         339         355         354
         4         339         340         356         355
         4         340         341         357         356
         4         341         342         358         357
         4         342         343         359         358
         4         343         344         360         359
         4         344         345         361         360
         4         345         346         362         361
         4         346         347         363         362
         4         347         348         364         363
         4         348         349         365         364
         4         349         350         366         365
         4         350         351         367         366
         4         352         353         369         368
         4         353         354         370         369
         4         354         355         371         370
         4         355         356         372         371
         4         356         357         373         372
         4         357         358         374         373
         4         358         359         375         374
         4         359         360         376         375
         4         360         361         377         376
         4         361         362         378         377
         4         362         363         379         378
         4         363         364         380         379
         4         364         365         381         380
         4         365         366         382         381
         4         366         367         383         382
         4         368         369         385         384
         4         369         370         386         385
         4         370         371         387         386
         4         371         372         388         387
         4         372         373         389         388
         4         373         374         390         389
         4         374         375         391         390
         4         375         376         392         391
         4         376         377         393         392
         4         377         378         394         393
         4         378         379         395         394
         4         379         380         396         395
         4         380         381         397         396
         4         381         382         398         397
         4         382         383         399         398
         4         384         385         401         400
         4         385         386         402         401
         4         386         387         403         402
         4         387         388         404         403
         4         388         389         405         404
         4         389         390         406         405
         4         390         391         407         406
         4         391         392         408         407
         4         392         393         409         408
         4         393         394         410         409
         4         394         395         411         410
         4         395         396         412         411
         4         396         397         413         412
         4         397         398         414         413
         4         398         399         415         414
         4         400         401         417         416
         4         401         402         418         417
         4         402         403         419         418
         4         403         404         420         419
         4         404         405         421         420
         4         405         406         422         421
         4         406         407         423         422
         4         407         408         424         423
         4         408         409         425         424
         4         409         410         426         425
         4         410         411         427         426
         4         411         412         428         427
         4         412         413         429         428
         4         413         414         430         429
         4         414         415         431         430
         4         416         417         433         432
         4         417         418         434         433
         4         418         419         435         434
         4         419         420         436         435
         4         420         421         437         436
         4         421         422         438         437
         4         422         423         439         438
         4         423         424         440         439
         4         424         425         441         440
         4         425         426         442         441
         4         426         427         443         442
         4         427         428         444         443
         4         428         429         445         444
         4         429         430         446         445
         4         430         431         447         446
         4         432         433         449         448
         4         433         434         450         449
         4         434         435         451         450
         4         435         436         452         451
         4         436         437         453         452
         4         437         438         454         453
         4         438         439         455         454
         4         439         440         456         455
         4         440         441         457         456
         4         441         442         458         457
         4         442         443         459         458
         4         443         444         460         459
         4         444         445         461         460
         4         445         446         462         461
         4         446         447         463         462
         4         448         449         465         464
         4         449         450         466         465
         4         450         451         467         466
         4         451         452         468         467
         4         452         453         469         468
         4         453         454         470         469
         4         454         455         471         470
         4         455         456         472         471
         4         456         457         473         472
         4         457         458         474         473
         4         458         459         475         474
         4         459         460         476         475
         4         460         461         477         476
         4         461         462         478         477
         4         462         463         479         478
         4         464         465         481         480
         4         465         466         482         481
         4         466         467         483         482
         4         467         468         484         483
         4         468         469         485         484
         4         469         470         486         485
         4         470         471         487         486
         4         471         472         488         487
         4         472         473         489         488
         4         473         474         490         489
         4         474         475         491         490
         4         475         476         492         491
         4         476         477         493         492
         4         477         478         494         493
         4         478         479         495         494
CELL_TYPES        450
9
9
9
9
9
9
9
9
9
9
9
9
9
9
9
9
9
9
9
9
9
9
9
9
9
9
9
9
9
9
9
9
9
9
9
9
9
9
9
9
9
9
9
9
9
9
9
9
9
9
9
9
9
9
9
9
9
9
9
9
9
9
9
9
9
9
9
9
9
9
9
9
9
9
9
9
9
9
9
9
9
9
9
9
9
9
9
9
9
9
9
9
9
9
9
9
9
9
9
9
9
9
9
9
9
9
9
9
9
9
9
9
9
9
9
9
9
9
9
9
9
9
9
9
9
9
9
9
9
9
9
9
9
9
9
9
9
9
9
9
9
9
9
9
9
9
9
9
9
9
9
9
9
9
9
9
9
9
9
9
9
9
9
9
9
9
9
9
9
9
9
9
9
9
9
9
9
9
9
9
9
9
9
9
9
9
9
9
9
9
9
9
9
9
9
9
9
9
9
9
9
9
9
9
9
9
9
9
9
9
9
9
9
9
9
9
9
9
9
9
9
9
9
9
9
9
9
9
9
9
9
9
9
9
9
9
9
9
9
9
9
9
9
9
9
9
9
9
9
9
9
9
9
9
9
9
9
9
9
9
9
9
9
9
9
9
9
9
9
9
9
9
9
9
9
9
9
9
9
9
9
9
9
9
9
9
9
9
9
9
9
9
9
9
9
9
9
9
9
9
9
9
9
9
9
9
9
9
9
9
9
9
9
9
9
9
9
9
9
9
9
9
9
9
9
9
9
9
9
9
9
9
9
9
9
9
9
9
9
9
9
9
9
9
9
9
9
9
9
9
9
9
9
9
9
9
9
9
9
9
9
9
9
9
9
9
9
9
9
9
9
9
9
9
9
9
9
9
9
9
9
9
9
9
9
9
9
9
9
9
9
9
9
9
9
9
9
9
9
9
9
9
9
9
9
9
9
9
9
9
9
9
9
9
9
9
9
9
9
9
9
9
9
9
9
9
9
9
9
9
9
9
9
9
9
9
9
9
9
9
9
9
9
9
9
9
9
9
9
9
POINT_DATA       496
SCALARS p double 
LOOKUP_TABLE default
   90000000.0000000     
   90000000.0000000     
   90000000.0000000     
   90000000.0000000     
   90000000.0000000     
   90000000.0000000     
   90000000.0000000     
   90000000.0000000     
   90000000.0000000     
   90000000.0000000     
   90000000.0000000     
   90000000.0000000     
   90000000.0000000     
   90000000.0000000     
   90000000.0000000     
   90000000.0000000     
   87214177.3690951     
   87213721.1527495     
   87212806.7484821     
   87211740.4462895     
   87210719.2127111     
   87209921.9335456     
   87209388.6070491     
   87209026.0780232     
   87208758.5159791     
   87208544.5924182     
   87208354.0787668     
   87208163.5753699     
   87207955.6263152     
   87207721.7717986     
   87207468.1253425     
   87207288.6613753     
   84425002.0256766     
   84424526.6794511     
   84423439.4230769     
   84422190.9519058     
   84421093.2456914     
   84420215.9412823     
   84419543.1569360     
   84419052.1648686     
   84418693.9304452     
   84418414.8582851     
   84418171.6939605     
   84417930.3450882     
   84417668.1221796     
   84417379.9354532     
   84417102.5940271     
   84416957.7410196     
   81636190.0146507     
   81635834.2195771     
   81635073.8874372     
   81634221.5580479     
   81633403.9322528     
   81632712.7066017     
   81632180.8038441     
   81631797.3024371     
   81631531.2372000     
   81631340.7192995     
   81631183.4826221     
   81631025.0136814     
   81630843.8204086     
   81630640.8458325     
   81630453.4881233     
   81630363.3662403     
   78850999.2391712     
   78850846.4946098     
   78850479.3054047     
   78850040.0724895     
   78849633.0355015     
   78849310.7711359     
   78849097.7039494     
   78848991.6223392     
   78848970.1274947     
   78849000.4890725     
   78849047.5129173     
   78849080.6466023     
   78849080.6117463     
   78849045.7721606     
   78848996.6796082     
   78848972.5647390     
   76071624.6622940     
   76071623.0706540     
   76071614.5621295     
   76071626.3990653     
   76071690.1938958     
   76071825.9683783     
   76072038.0064335     
   76072317.4155572     
   76072643.9900739     
   76072990.1736446     
   76073326.2585382     
   76073625.3671956     
   76073867.8001409     
   76074043.8755391     
   76074153.1745519     
   76074197.0638966     
   73299850.6317313     
   73299986.4400163     
   73300312.6997730     
   73300768.1229112     
   73301319.8615229     
   73301946.6659680     
   73302629.6011665     
   73303347.7771832     
   73304077.2253056     
   73304791.4284751     
   73305463.1332737     
   73306066.5654863     
   73306579.0136784     
   73306980.6190887     
   73307250.8339087     
   73307359.9655154     
   70537306.4667504     
   70537564.4629042     
   70538194.9358838     
   70539063.3945630     
   70540081.3298222     
   70541188.6275723     
   70542341.4782042     
   70543504.7887875     
   70544647.7587233     
   70545741.6241963     
   70546758.6993818     
   70547671.9116437     
   70548453.8817026     
   70549074.4914146     
   70549495.8746901     
   70549664.0246899     
   67785404.3991782     
   67785766.5825238     
   67786660.0856734     
   67787891.2007748     
   67789325.1021759     
   67790867.6951265     
   67792452.0169116     
   67794028.4861207     
   67795558.1617142     
   67797008.1543478     
   67798348.4026725     
   67799549.0233440     
   67800577.4181170     
   67801394.3119489     
   67801948.0000508     
   67802166.3751765     
   65045314.7259353     
   65045760.1593131     
   65046866.3436934     
   65048394.1032282     
   65050172.1181415     
   65052078.6092720     
   65054026.9035523     
   65055954.3560120     
   65057813.9893511     
   65059568.1722581     
   65061183.6481014     
   65062627.2294467     
   65063861.4819687     
   65064839.7726731     
   65065500.1932706     
   65065758.1216270     
   62317950.3607968     
   62318456.0792251     
   62319718.0994015     
   62321465.4342829     
   62323500.4233899     
   62325680.6777818     
   62327904.3530308     
   62330098.3413942     
   62332208.8869834     
   62334194.0760836     
   62336017.6344842     
   62337643.4648087     
   62339030.3850437     
   62340126.5997650     
   62340863.5679871     
   62341149.1328693     
   59603960.2099617     
   59604502.2365155     
   59605859.6721965     
   59607743.0283686     
   59609938.4963728     
   59612290.5417122     
   59614687.3341808     
   59617048.7004241     
   59619316.2122604     
   59621444.9758250     
   59623396.6639761     
   59625133.3381168     
   59626611.6392182     
   59627776.9992847     
   59628557.6399006     
   59628858.2813533     
   56903730.0983310     
   56904284.4495221     
   56905676.1102680     
   56907609.7475244     
   56909865.3263963     
   56912281.6849507     
   56914742.4970387     
   56917164.3924998     
   56919486.9407552     
   56921664.1593214     
   56923657.1873874     
   56925427.7689026     
   56926932.2226367     
   56928115.6412424     
   56928906.1576645     
   56929209.2391863     
   54217390.5894368     
   54217934.1894710     
   54219300.6566344     
   54221200.5289050     
   54223416.9103935     
   54225790.2927730     
   54228205.3558812     
   54230579.5914727     
   54232853.5357242     
   54234982.3539458     
   54236928.4999468     
   54238655.1757497     
   54240120.3467056     
   54241271.1228251     
   54242038.3966977     
   54242331.7247684     
   51544830.9070612     
   51545342.3792415     
   51546628.2100049     
   51548415.3399305     
   51550498.5771850     
   51552726.8625525     
   51554991.1449987     
   51557213.7790968     
   51559339.2976468     
   51561326.3702891     
   51563140.7367107     
   51564748.9039516     
   51566112.4222679     
   51567182.6018132     
   51567895.5992995     
   51568167.8828671     
   48885718.0409418     
   48886178.3580319     
   48887333.9120136     
   48888937.2111590     
   48890802.3400413     
   48892792.7948121     
   48894810.6058642     
   48896786.7187915     
   48898672.5423988     
   48900432.5266864     
   48902037.6087497     
   48903459.3625948     
   48904664.7099883     
   48905611.0915620     
   48906242.0562086     
   48906483.2957328     
   46239519.9867838     
   46239912.9725307     
   46240895.8450749     
   46242254.3623190     
   46243828.3270234     
   46245501.0495077     
   46247189.8289433     
   46248837.4743498     
   46250404.8155511     
   46251864.1024441     
   46253193.1621050     
   46254370.1787426     
   46255368.9803040     
   46256154.7548236     
   46256680.1749383     
   46256881.9741384     
   43605531.9745011     
   43605844.6566539     
   43606620.7235448     
   43607685.3333586     
   43608909.2355393     
   43610199.8518904     
   43611493.1742641     
   43612746.5380407     
   43613932.2462293     
   43615031.9587796     
   43616031.7289248     
   43616917.5626047     
   43617671.3956818     
   43618267.4232132     
   43618668.7712170     
   43618824.5684988     
   40982904.4860267     
   40983127.3087488     
   40983671.4067548     
   40984405.9778054     
   40985236.7032215     
   40986098.3781576     
   40986948.2399710     
   40987760.0752865     
   40988519.0831314     
   40989217.4018631     
   40989850.1727344     
   40990412.0087977     
   40990893.7591159     
   40991279.5007724     
   40991543.7517378     
   40991648.9720268     
   38370671.8589230     
   38370798.7697078     
   38371095.0569119     
   38371477.1705597     
   38371888.4824914     
   38372293.3459208     
   38372671.8408035     
   38373015.2819897     
   38373322.4392988     
   38373596.3415241     
   38373841.5052044     
   38374061.4319417     
   38374256.2449053     
   38374420.3817465     
   38374540.3277213     
   38374592.4589460     
   35767780.3130522     
   35767808.7464681     
   35767850.8068430     
   35767872.1261792     
   35767855.3517630     
   35767795.4797289     
   35767696.0002174     
   35767565.8860676     
   35767417.2999098     
   35767263.8193109     
   35767118.9660675     
   35766994.8455650     
   35766900.7368001     
   35766841.5210559     
   35766815.9067275     
   35766814.5084318     
   33173114.3199463     
   33173045.1085354     
   33172835.8891875     
   33172502.3158802     
   33172066.7929995     
   33171554.9189613     
   33170993.0513416     
   33170406.9055613     
   33169820.9151305     
   33169258.0351383     
   33168739.7044242     
   33168285.7350440     
   33167913.9389007     
   33167639.3364081     
   33167472.8508532     
   33167419.5055522     
   30585520.3498149     
   30585357.6030393     
   30584909.3056247     
   30584241.1116948     
   30583414.6160821     
   30582484.7875428     
   30581499.0841895     
   30580497.8993382     
   30579515.8018400     
   30578583.0839220     
   30577727.2684664     
   30576974.3383629     
   30576349.4881762     
   30575877.1875712     
   30575580.3584034     
   30575478.5799437     
   28003827.1661548     
   28003578.1754710     
   28002912.2777870     
   28001944.4782837     
   28000773.9236427     
   27999482.3595400     
   27998135.1717662     
   27996784.1089521     
   27995470.7046119     
   27994229.7094548     
   27993092.1867798     
   27992088.1184664     
   27991248.3727106     
   27990605.7636739     
   27990194.8191058     
   27990049.9378326     
   25426861.9717487     
   25426537.2327091     
   25425684.9199483     
   25424468.2924541     
   25423021.1068580     
   25421447.5461186     
   25419826.0581129     
   25418215.0840538     
   25416659.0046365     
   25415193.4750311     
   25413849.9872281     
   25412659.7661711     
   25411657.0294077     
   25410881.3043139     
   25410378.1070733     
   25410197.1632295     
   22853461.8033836     
   22853075.3183996     
   22852078.8218019     
   22850682.2443133     
   22849048.9907905     
   22847298.8174125     
   22845516.2899372     
   22843760.5919298     
   22842074.1982443     
   22840489.8223531     
   22839036.0224422     
   22837742.0793208     
   22836642.5280070     
   22835781.1691325     
   22835213.4145377     
   22835005.1133483     
   20282479.5539507     
   20282049.7509080     
   20280965.5941935     
   20279480.8988316     
   20277779.8958543     
   20275987.1620182     
   20274184.0752251     
   20272423.7930709     
   20270742.1855659     
   20269165.5365039     
   20267716.4380118     
   20266418.9630006     
   20265304.1777382     
   20264416.3244878     
   20263818.3909651     
   20263593.2577141     
   17712783.6363795     
   17712335.7533406     
   17711242.2217937     
   17709793.7079712     
   17708178.3813206     
   17706509.1556921     
   17704853.3054867     
   17703251.7644273     
   17701730.2088384     
   17700306.2320883     
   17698994.5346228     
   17697811.5301915     
   17696780.5453813     
   17695940.1846987     
   17695355.6503219     
   17695126.5502007     
   15143249.1770661     
   15142821.7441371     
   15141836.2285455     
   15140598.6360062     
   15139266.4697156     
   15137920.0585941     
   15136604.0361210     
   15135343.4021315     
   15134152.3859009     
   15133039.6773020     
   15132012.0797820     
   15131077.6880609     
   15130249.8023975     
   15129552.7276806     
   15129040.5555382     
   15128825.4994531     
   12572734.6191893     
   12572398.5947482     
   12571725.0165911     
   12570947.6921112     
   12570142.2625013     
   12569346.9616551     
   12568581.1252942     
   12567854.5537267     
   12567171.8949208     
   12566535.2142560     
   12565945.7213401     
   12565405.2492781     
   12564917.9317491     
   12564493.5209865     
   12564150.8816460     
   12563972.9524498     
   10000000.0000000     
   10000000.0000000     
   10000000.0000000     
   10000000.0000000     
   10000000.0000000     
   10000000.0000000     
   10000000.0000000     
   10000000.0000000     
   10000000.0000000     
   10000000.0000000     
   10000000.0000000     
   10000000.0000000     
   10000000.0000000     
  10000000.00000000     
   10000000.0000000     
   10000000.0000000     
VECTORS u double 
    0.00000E+00         0.21804E-01         0.00000E+00
    0.00000E+00         0.21060E-01         0.00000E+00
    0.00000E+00         0.19908E-01         0.00000E+00
    0.00000E+00         0.18507E-01         0.00000E+00
    0.00000E+00         0.16989E-01         0.00000E+00
    0.00000E+00         0.15469E-01         0.00000E+00
    0.00000E+00         0.13991E-01         0.00000E+00
    0.00000E+00         0.12557E-01         0.00000E+00
    0.00000E+00         0.11144E-01         0.00000E+00
    0.00000E+00         0.97351E-02         0.00000E+00
    0.00000E+00         0.83110E-02         0.00000E+00
    0.00000E+00         0.68513E-02         0.00000E+00
    0.00000E+00         0.53320E-02         0.00000E+00
    0.00000E+00         0.37220E-02         0.00000E+00
    0.00000E+00         0.19769E-02         0.00000E+00
    0.00000E+00         0.00000E+00         0.00000E+00
    0.57904E-02         0.21216E-01         0.00000E+00
    0.49828E-02         0.20400E-01         0.00000E+00
    0.41110E-02         0.19288E-01         0.00000E+00
    0.33619E-02         0.17983E-01         0.00000E+00
    0.27279E-02         0.16597E-01         0.00000E+00
    0.23329E-02         0.15190E-01         0.00000E+00
    0.21081E-02         0.13783E-01         0.00000E+00
    0.19268E-02         0.12390E-01         0.00000E+00
    0.17609E-02         0.11006E-01         0.00000E+00
    0.15982E-02         0.96198E-02         0.00000E+00
    0.14302E-02         0.82142E-02         0.00000E+00
    0.12486E-02         0.67706E-02         0.00000E+00
    0.10431E-02         0.52657E-02         0.00000E+00
    0.79786E-03         0.36692E-02         0.00000E+00
    0.48335E-03         0.19372E-02         0.00000E+00
    0.00000E+00         0.00000E+00         0.00000E+00
    0.99237E-02         0.20277E-01         0.00000E+00
    0.85560E-02         0.19217E-01         0.00000E+00
    0.71556E-02         0.18089E-01         0.00000E+00
    0.59716E-02         0.16914E-01         0.00000E+00
    0.51092E-02         0.15704E-01         0.00000E+00
    0.44945E-02         0.14468E-01         0.00000E+00
    0.40418E-02         0.13201E-01         0.00000E+00
    0.36718E-02         0.11911E-01         0.00000E+00
    0.33354E-02         0.10605E-01         0.00000E+00
    0.30079E-02         0.92821E-02         0.00000E+00
    0.26716E-02         0.79302E-02         0.00000E+00
    0.23099E-02         0.65343E-02         0.00000E+00
    0.19031E-02         0.50736E-02         0.00000E+00
    0.14227E-02         0.35210E-02         0.00000E+00
    0.81835E-03         0.18405E-02         0.00000E+00
    0.00000E+00         0.00000E+00         0.00000E+00
    0.12972E-01         0.18666E-01         0.00000E+00
    0.11190E-01         0.17654E-01         0.00000E+00
    0.96414E-02         0.16620E-01         0.00000E+00
    0.83369E-02         0.15589E-01         0.00000E+00
    0.72925E-02         0.14540E-01         0.00000E+00
    0.64737E-02         0.13455E-01         0.00000E+00
    0.58152E-02         0.12330E-01         0.00000E+00
    0.52555E-02         0.11167E-01         0.00000E+00
    0.47459E-02         0.99715E-02         0.00000E+00
    0.42523E-02         0.87430E-02         0.00000E+00
    0.37486E-02         0.74758E-02         0.00000E+00
    0.32109E-02         0.61579E-02         0.00000E+00
    0.26117E-02         0.47726E-02         0.00000E+00
    0.19150E-02         0.32985E-02         0.00000E+00
    0.10685E-02         0.17131E-02         0.00000E+00
    0.00000E+00         0.00000E+00         0.00000E+00
    0.15536E-01         0.16687E-01         0.00000E+00
    0.13596E-01         0.15836E-01         0.00000E+00
    0.11911E-01         0.14963E-01         0.00000E+00
    0.10474E-01         0.14074E-01         0.00000E+00
    0.92694E-02         0.13163E-01         0.00000E+00
    0.82690E-02         0.12220E-01         0.00000E+00
    0.74250E-02         0.11236E-01         0.00000E+00
    0.66860E-02         0.10210E-01         0.00000E+00
    0.60067E-02         0.91414E-02         0.00000E+00
    0.53495E-02         0.80309E-02         0.00000E+00
    0.46826E-02         0.68738E-02         0.00000E+00
    0.39762E-02         0.56615E-02         0.00000E+00
    0.31981E-02         0.43815E-02         0.00000E+00
    0.23098E-02         0.30193E-02         0.00000E+00
    0.12631E-02         0.15612E-02         0.00000E+00
    0.00000E+00         0.00000E+00         0.00000E+00
    0.17889E-01         0.14529E-01         0.00000E+00
    0.15793E-01         0.13836E-01         0.00000E+00
    0.13969E-01         0.13116E-01         0.00000E+00
    0.12394E-01         0.12373E-01         0.00000E+00
    0.11042E-01         0.11605E-01         0.00000E+00
    0.98811E-02         0.10803E-01         0.00000E+00
    0.88706E-02         0.99628E-02         0.00000E+00
    0.79668E-02         0.90789E-02         0.00000E+00
    0.71272E-02         0.81502E-02         0.00000E+00
    0.63136E-02         0.71746E-02         0.00000E+00
    0.54914E-02         0.61486E-02         0.00000E+00
    0.46272E-02         0.50657E-02         0.00000E+00
    0.36866E-02         0.39174E-02         0.00000E+00
    0.26312E-02         0.26945E-02         0.00000E+00
    0.14181E-02         0.13895E-02         0.00000E+00
    0.00000E+00         0.00000E+00         0.00000E+00
    0.20014E-01         0.12206E-01         0.00000E+00
    0.17772E-01         0.11669E-01         0.00000E+00
    0.15815E-01         0.11102E-01         0.00000E+00
    0.14108E-01         0.10509E-01         0.00000E+00
    0.12619E-01         0.98881E-02         0.00000E+00
    0.11314E-01         0.92338E-02         0.00000E+00
    0.10155E-01         0.85414E-02         0.00000E+00
    0.91015E-02         0.78069E-02         0.00000E+00
    0.81144E-02         0.70274E-02         0.00000E+00
    0.71556E-02         0.62004E-02         0.00000E+00
    0.61893E-02         0.53225E-02         0.00000E+00
    0.51809E-02         0.43890E-02         0.00000E+00
    0.40952E-02         0.33943E-02         0.00000E+00
    0.28956E-02         0.23329E-02         0.00000E+00
    0.15437E-02         0.12013E-02         0.00000E+00
    0.00000E+00         0.00000E+00         0.00000E+00
    0.21899E-01         0.97407E-02         0.00000E+00
    0.19530E-01         0.93568E-02         0.00000E+00
    0.17449E-01         0.89447E-02         0.00000E+00
    0.15620E-01         0.85051E-02         0.00000E+00
    0.14007E-01         0.80362E-02         0.00000E+00
    0.12573E-01         0.75347E-02         0.00000E+00
    0.11282E-01         0.69967E-02         0.00000E+00
    0.10095E-01         0.64187E-02         0.00000E+00
    0.89749E-02         0.57976E-02         0.00000E+00
    0.78844E-02         0.51307E-02         0.00000E+00
    0.67879E-02         0.44150E-02         0.00000E+00
    0.56503E-02         0.36472E-02         0.00000E+00
    0.44373E-02         0.28236E-02         0.00000E+00
    0.31142E-02         0.19415E-02         0.00000E+00
    0.16462E-02         0.99963E-03         0.00000E+00
    0.00000E+00         0.00000E+00         0.00000E+00
    0.23543E-01         0.71543E-02         0.00000E+00
    0.21064E-01         0.69233E-02         0.00000E+00
    0.18875E-01         0.66665E-02         0.00000E+00
    0.16937E-01         0.63829E-02         0.00000E+00
    0.15212E-01         0.60708E-02         0.00000E+00
    0.13664E-01         0.57276E-02         0.00000E+00
    0.12256E-01         0.53501E-02         0.00000E+00
    0.10952E-01         0.49355E-02         0.00000E+00
    0.97148E-02         0.44810E-02         0.00000E+00
    0.85078E-02         0.39841E-02         0.00000E+00
    0.72962E-02         0.34424E-02         0.00000E+00
    0.60456E-02         0.28534E-02         0.00000E+00
    0.47226E-02         0.22150E-02         0.00000E+00
    0.32946E-02         0.15261E-02         0.00000E+00
    0.17302E-02         0.78689E-03         0.00000E+00
    0.00000E+00         0.00000E+00         0.00000E+00
    0.24944E-01         0.44692E-02         0.00000E+00
    0.22375E-01         0.43907E-02         0.00000E+00
    0.20093E-01         0.42898E-02         0.00000E+00
    0.18060E-01         0.41643E-02         0.00000E+00
    0.16239E-01         0.40124E-02         0.00000E+00
    0.14592E-01         0.38319E-02         0.00000E+00
    0.13084E-01         0.36203E-02         0.00000E+00
    0.11679E-01         0.33754E-02         0.00000E+00
    0.10340E-01         0.30947E-02         0.00000E+00
    0.90323E-02         0.27762E-02         0.00000E+00
    0.77214E-02         0.24180E-02         0.00000E+00
    0.63740E-02         0.20185E-02         0.00000E+00
    0.49579E-02         0.15765E-02         0.00000E+00
    0.34423E-02         0.10917E-02         0.00000E+00
    0.17984E-02         0.56530E-03         0.00000E+00
    0.00000E+00         0.00000E+00         0.00000E+00
    0.26106E-01         0.17054E-02         0.00000E+00
    0.23465E-01         0.17793E-02         0.00000E+00
    0.21106E-01         0.18346E-02         0.00000E+00
    0.18994E-01         0.18686E-02         0.00000E+00
    0.17092E-01         0.18795E-02         0.00000E+00
    0.15362E-01         0.18653E-02         0.00000E+00
    0.13770E-01         0.18242E-02         0.00000E+00
    0.12280E-01         0.17541E-02         0.00000E+00
    0.10856E-01         0.16534E-02         0.00000E+00
    0.94633E-02         0.15203E-02         0.00000E+00
    0.80693E-02         0.13534E-02         0.00000E+00
    0.66413E-02         0.11517E-02         0.00000E+00
    0.51483E-02         0.91464E-03         0.00000E+00
    0.35612E-02         0.64252E-03         0.00000E+00
    0.18530E-02         0.33674E-03         0.00000E+00
    0.00000E+00         0.00000E+00         0.00000E+00
    0.27032E-01        -0.11187E-02         0.00000E+00
    0.24335E-01        -0.89253E-03         0.00000E+00
    0.21917E-01        -0.68093E-03         0.00000E+00
    0.19742E-01        -0.48647E-03         0.00000E+00
    0.17774E-01        -0.31101E-03         0.00000E+00
    0.15978E-01        -0.15615E-03         0.00000E+00
    0.14318E-01        -0.23420E-04         0.00000E+00
    0.12759E-01         0.85697E-04         0.00000E+00
    0.11266E-01         0.16979E-03         0.00000E+00
    0.98053E-02         0.22760E-03         0.00000E+00
    0.83444E-02         0.25812E-03         0.00000E+00
    0.68518E-02         0.26069E-03         0.00000E+00
    0.52975E-02         0.23516E-03         0.00000E+00
    0.36538E-02         0.18208E-03         0.00000E+00
    0.18954E-02         0.10288E-03         0.00000E+00
    0.00000E+00         0.00000E+00         0.00000E+00
    0.27726E-01        -0.39867E-02         0.00000E+00
    0.24990E-01        -0.36084E-02         0.00000E+00
    0.22528E-01        -0.32405E-02         0.00000E+00
    0.20306E-01        -0.28851E-02         0.00000E+00
    0.18289E-01        -0.25439E-02         0.00000E+00
    0.16442E-01        -0.22181E-02         0.00000E+00
    0.14731E-01        -0.19089E-02         0.00000E+00
    0.13119E-01        -0.16175E-02         0.00000E+00
    0.11574E-01        -0.13448E-02         0.00000E+00
    0.10062E-01        -0.10919E-02         0.00000E+00
    0.85504E-02        -0.85946E-03         0.00000E+00
    0.70088E-02        -0.64786E-03         0.00000E+00
    0.54084E-02        -0.45706E-03         0.00000E+00
    0.37223E-02        -0.28647E-03         0.00000E+00
    0.19265E-02        -0.13480E-03         0.00000E+00
    0.00000E+00         0.00000E+00         0.00000E+00
    0.28190E-01        -0.68836E-02         0.00000E+00
    0.25430E-01        -0.63535E-02         0.00000E+00
    0.22940E-01        -0.58294E-02         0.00000E+00
    0.20687E-01        -0.53130E-02         0.00000E+00
    0.18638E-01        -0.48054E-02         0.00000E+00
    0.16757E-01        -0.43075E-02         0.00000E+00
    0.15011E-01        -0.38201E-02         0.00000E+00
    0.13365E-01        -0.33441E-02         0.00000E+00
    0.11784E-01        -0.28804E-02         0.00000E+00
    0.10236E-01        -0.24294E-02         0.00000E+00
    0.86901E-02        -0.19919E-02         0.00000E+00
    0.71149E-02        -0.15680E-02         0.00000E+00
    0.54828E-02        -0.11577E-02         0.00000E+00
    0.37679E-02        -0.76031E-03         0.00000E+00
    0.19470E-02        -0.37495E-03         0.00000E+00
    0.00000E+00         0.00000E+00         0.00000E+00
    0.28430E-01        -0.97957E-02         0.00000E+00
    0.25659E-01        -0.91142E-02         0.00000E+00
    0.23156E-01        -0.84344E-02         0.00000E+00
    0.20888E-01        -0.77571E-02         0.00000E+00
    0.18823E-01        -0.70829E-02         0.00000E+00
    0.16926E-01        -0.64123E-02         0.00000E+00
    0.15162E-01        -0.57458E-02         0.00000E+00
    0.13497E-01        -0.50840E-02         0.00000E+00
    0.11898E-01        -0.44276E-02         0.00000E+00
    0.10331E-01        -0.37769E-02         0.00000E+00
    0.87655E-02        -0.31325E-02         0.00000E+00
    0.71719E-02        -0.24944E-02         0.00000E+00
    0.55225E-02        -0.18627E-02         0.00000E+00
    0.37919E-02        -0.12369E-02         0.00000E+00
    0.19576E-02        -0.61634E-03         0.00000E+00
    0.00000E+00         0.00000E+00         0.00000E+00
    0.28445E-01        -0.12710E-01         0.00000E+00
    0.25677E-01        -0.11878E-01         0.00000E+00
    0.23176E-01        -0.11043E-01         0.00000E+00
    0.20911E-01        -0.10205E-01         0.00000E+00
    0.18846E-01        -0.93647E-02         0.00000E+00
    0.16949E-01        -0.85213E-02         0.00000E+00
    0.15185E-01        -0.76754E-02         0.00000E+00
    0.13518E-01        -0.68274E-02         0.00000E+00
    0.11917E-01        -0.59777E-02         0.00000E+00
    0.10347E-01        -0.51267E-02         0.00000E+00
    0.87782E-02        -0.42747E-02         0.00000E+00
    0.71811E-02        -0.34219E-02         0.00000E+00
    0.55284E-02        -0.25683E-02         0.00000E+00
    0.37949E-02        -0.17137E-02         0.00000E+00
    0.19584E-02        -0.85780E-03         0.00000E+00
    0.00000E+00         0.00000E+00         0.00000E+00
    0.28238E-01        -0.15615E-01         0.00000E+00
    0.25487E-01        -0.14632E-01         0.00000E+00
    0.23003E-01        -0.13643E-01         0.00000E+00
    0.20755E-01        -0.12646E-01         0.00000E+00
    0.18709E-01        -0.11639E-01         0.00000E+00
    0.16829E-01        -0.10624E-01         0.00000E+00
    0.15081E-01        -0.95987E-02         0.00000E+00
    0.13430E-01        -0.85649E-02         0.00000E+00
    0.11842E-01        -0.75223E-02         0.00000E+00
    0.10286E-01        -0.64715E-02         0.00000E+00
    0.87293E-02        -0.54125E-02         0.00000E+00
    0.71434E-02        -0.43457E-02         0.00000E+00
    0.55011E-02        -0.32710E-02         0.00000E+00
    0.37772E-02        -0.21885E-02         0.00000E+00
    0.19499E-02        -0.10982E-02         0.00000E+00
    0.00000E+00         0.00000E+00         0.00000E+00
    0.27808E-01        -0.18497E-01         0.00000E+00
    0.25087E-01        -0.17366E-01         0.00000E+00
    0.22636E-01        -0.16223E-01         0.00000E+00
    0.20423E-01        -0.15067E-01         0.00000E+00
    0.18411E-01        -0.13896E-01         0.00000E+00
    0.16565E-01        -0.12708E-01         0.00000E+00
    0.14851E-01        -0.11505E-01         0.00000E+00
    0.13232E-01        -0.10287E-01         0.00000E+00
    0.11676E-01        -0.90528E-02         0.00000E+00
    0.10148E-01        -0.78037E-02         0.00000E+00
    0.86192E-02        -0.65396E-02         0.00000E+00
    0.70592E-02        -0.52607E-02         0.00000E+00
    0.54408E-02        -0.39670E-02         0.00000E+00
    0.37392E-02        -0.26588E-02         0.00000E+00
    0.19320E-02        -0.13363E-02         0.00000E+00
    0.00000E+00         0.00000E+00         0.00000E+00
    0.27154E-01        -0.21344E-01         0.00000E+00
    0.24478E-01        -0.20066E-01         0.00000E+00
    0.22075E-01        -0.18771E-01         0.00000E+00
    0.19913E-01        -0.17457E-01         0.00000E+00
    0.17953E-01        -0.16122E-01         0.00000E+00
    0.16159E-01        -0.14764E-01         0.00000E+00
    0.14496E-01        -0.13385E-01         0.00000E+00
    0.12926E-01        -0.11984E-01         0.00000E+00
    0.11417E-01        -0.10560E-01         0.00000E+00
    0.99342E-02        -0.91156E-02         0.00000E+00
    0.84479E-02        -0.76494E-02         0.00000E+00
    0.69282E-02        -0.61618E-02         0.00000E+00
    0.53475E-02        -0.46526E-02         0.00000E+00
    0.36806E-02        -0.31222E-02         0.00000E+00
    0.19046E-02        -0.15710E-02         0.00000E+00
    0.00000E+00         0.00000E+00         0.00000E+00
    0.26274E-01        -0.24144E-01         0.00000E+00
    0.23656E-01        -0.22719E-01         0.00000E+00
    0.21319E-01        -0.21274E-01         0.00000E+00
    0.19225E-01        -0.19803E-01         0.00000E+00
    0.17335E-01        -0.18305E-01         0.00000E+00
    0.15611E-01        -0.16779E-01         0.00000E+00
    0.14015E-01        -0.15226E-01         0.00000E+00
    0.12511E-01        -0.13644E-01         0.00000E+00
    0.11065E-01        -0.12035E-01         0.00000E+00
    0.96431E-02        -0.10399E-01         0.00000E+00
    0.82145E-02        -0.87350E-02         0.00000E+00
    0.67496E-02        -0.70434E-02         0.00000E+00
    0.52203E-02        -0.53237E-02         0.00000E+00
    0.36008E-02        -0.35761E-02         0.00000E+00
    0.18676E-02        -0.18011E-02         0.00000E+00
    0.00000E+00         0.00000E+00         0.00000E+00
    0.25164E-01        -0.26881E-01         0.00000E+00
    0.22622E-01        -0.25312E-01         0.00000E+00
    0.20367E-01        -0.23717E-01         0.00000E+00
    0.18360E-01        -0.22091E-01         0.00000E+00
    0.16558E-01        -0.20432E-01         0.00000E+00
    0.14920E-01        -0.18740E-01         0.00000E+00
    0.13409E-01        -0.17015E-01         0.00000E+00
    0.11987E-01        -0.15257E-01         0.00000E+00
    0.10620E-01        -0.13467E-01         0.00000E+00
    0.92737E-02        -0.11644E-01         0.00000E+00
    0.79176E-02        -0.97885E-02         0.00000E+00
    0.65218E-02        -0.78994E-02         0.00000E+00
    0.50578E-02        -0.59759E-02         0.00000E+00
    0.34988E-02        -0.40177E-02         0.00000E+00
    0.18203E-02        -0.20252E-02         0.00000E+00
    0.00000E+00         0.00000E+00         0.00000E+00
    0.23819E-01        -0.29539E-01         0.00000E+00
    0.21370E-01        -0.27827E-01         0.00000E+00
    0.19217E-01        -0.26084E-01         0.00000E+00
    0.17316E-01        -0.24304E-01         0.00000E+00
    0.15620E-01        -0.22487E-01         0.00000E+00
    0.14087E-01        -0.20631E-01         0.00000E+00
    0.12677E-01        -0.18738E-01         0.00000E+00
    0.11353E-01        -0.16808E-01         0.00000E+00
    0.10079E-01        -0.14843E-01         0.00000E+00
    0.88237E-02        -0.12841E-01         0.00000E+00
    0.75545E-02        -0.10801E-01         0.00000E+00
    0.62421E-02        -0.87230E-02         0.00000E+00
    0.48576E-02        -0.66042E-02         0.00000E+00
    0.33729E-02        -0.44439E-02         0.00000E+00
    0.17617E-02        -0.22419E-02         0.00000E+00
    0.00000E+00         0.00000E+00         0.00000E+00
    0.22233E-01        -0.32101E-01         0.00000E+00
    0.19898E-01        -0.30248E-01         0.00000E+00
    0.17868E-01        -0.28358E-01         0.00000E+00
    0.16093E-01        -0.26426E-01         0.00000E+00
    0.14522E-01        -0.24451E-01         0.00000E+00
    0.13111E-01        -0.22435E-01         0.00000E+00
    0.11819E-01        -0.20379E-01         0.00000E+00
    0.10607E-01        -0.18283E-01         0.00000E+00
    0.94413E-02        -0.16150E-01         0.00000E+00
    0.82897E-02        -0.13977E-01         0.00000E+00
    0.71214E-02        -0.11764E-01         0.00000E+00
    0.59067E-02        -0.95067E-02         0.00000E+00
    0.46161E-02        -0.72033E-02         0.00000E+00
    0.32203E-02        -0.48513E-02         0.00000E+00
    0.16906E-02        -0.24498E-02         0.00000E+00
    0.00000E+00         0.00000E+00         0.00000E+00
    0.20401E-01        -0.34544E-01         0.00000E+00
    0.18202E-01        -0.32552E-01         0.00000E+00
    0.16318E-01        -0.30516E-01         0.00000E+00
    0.14690E-01        -0.28434E-01         0.00000E+00
    0.13264E-01        -0.26305E-01         0.00000E+00
    0.11992E-01        -0.24132E-01         0.00000E+00
    0.10832E-01        -0.21918E-01         0.00000E+00
    0.97463E-02        -0.19665E-01         0.00000E+00
    0.87016E-02        -0.17372E-01         0.00000E+00
    0.76670E-02        -0.15040E-01         0.00000E+00
    0.66129E-02        -0.12665E-01         0.00000E+00
    0.55100E-02        -0.10242E-01         0.00000E+00
    0.43283E-02        -0.77670E-02         0.00000E+00
    0.30371E-02        -0.52363E-02         0.00000E+00
    0.16047E-02        -0.26470E-02         0.00000E+00
    0.00000E+00         0.00000E+00         0.00000E+00
    0.18313E-01        -0.36844E-01         0.00000E+00
    0.16279E-01        -0.34715E-01         0.00000E+00
    0.14567E-01        -0.32536E-01         0.00000E+00
    0.13109E-01        -0.30304E-01         0.00000E+00
    0.11847E-01        -0.28024E-01         0.00000E+00
    0.10730E-01        -0.25699E-01         0.00000E+00
    0.97153E-02        -0.23334E-01         0.00000E+00
    0.87676E-02        -0.20932E-01         0.00000E+00
    0.78550E-02        -0.18493E-01         0.00000E+00
    0.69489E-02        -0.16014E-01         0.00000E+00
    0.60213E-02        -0.13491E-01         0.00000E+00
    0.50440E-02        -0.10919E-01         0.00000E+00
    0.39871E-02        -0.82885E-02         0.00000E+00
    0.28179E-02        -0.55946E-02         0.00000E+00
    0.15011E-02        -0.28320E-02         0.00000E+00
    0.00000E+00         0.00000E+00         0.00000E+00
    0.15963E-01        -0.38972E-01         0.00000E+00
    0.14125E-01        -0.36708E-01         0.00000E+00
    0.12613E-01        -0.34385E-01         0.00000E+00
    0.11350E-01        -0.32006E-01         0.00000E+00
    0.10271E-01        -0.29579E-01         0.00000E+00
    0.93231E-02        -0.27109E-01         0.00000E+00
    0.84658E-02        -0.24603E-01         0.00000E+00
    0.76659E-02        -0.22065E-01         0.00000E+00
    0.68948E-02        -0.19493E-01         0.00000E+00
    0.61269E-02        -0.16883E-01         0.00000E+00
    0.53369E-02        -0.14231E-01         0.00000E+00
    0.44986E-02        -0.11526E-01         0.00000E+00
    0.35826E-02        -0.87602E-02         0.00000E+00
    0.25547E-02        -0.59217E-02         0.00000E+00
    0.13753E-02        -0.30028E-02         0.00000E+00
    0.00000E+00         0.00000E+00         0.00000E+00
    0.13342E-01        -0.40893E-01         0.00000E+00
    0.11739E-01        -0.38494E-01         0.00000E+00
    0.10461E-01        -0.36029E-01         0.00000E+00
    0.94176E-02        -0.33506E-01         0.00000E+00
    0.85379E-02        -0.30937E-01         0.00000E+00
    0.77711E-02        -0.28332E-01         0.00000E+00
    0.70796E-02        -0.25698E-01         0.00000E+00
    0.64346E-02        -0.23038E-01         0.00000E+00
    0.58120E-02        -0.20351E-01         0.00000E+00
    0.51901E-02        -0.17630E-01         0.00000E+00
    0.45472E-02        -0.14867E-01         0.00000E+00
    0.38603E-02        -0.12053E-01         0.00000E+00
    0.31017E-02        -0.91731E-02         0.00000E+00
    0.22368E-02        -0.62124E-02         0.00000E+00
    0.12211E-02        -0.31572E-02         0.00000E+00
    0.00000E+00         0.00000E+00         0.00000E+00
    0.10441E-01        -0.42561E-01         0.00000E+00
    0.91213E-02        -0.40029E-01         0.00000E+00
    0.81152E-02        -0.37423E-01         0.00000E+00
    0.73149E-02        -0.34760E-01         0.00000E+00
    0.66487E-02        -0.32060E-01         0.00000E+00
    0.60709E-02        -0.29335E-01         0.00000E+00
    0.55506E-02        -0.26591E-01         0.00000E+00
    0.50651E-02        -0.23829E-01         0.00000E+00
    0.45955E-02        -0.21046E-01         0.00000E+00
    0.41251E-02        -0.18235E-01         0.00000E+00
    0.36370E-02        -0.15386E-01         0.00000E+00
    0.31121E-02        -0.12486E-01         0.00000E+00
    0.25270E-02        -0.95172E-02         0.00000E+00
    0.18488E-02        -0.64601E-02         0.00000E+00
    0.10290E-02        -0.32929E-02         0.00000E+00
    0.00000E+00         0.00000E+00         0.00000E+00
    0.72519E-02        -0.43918E-01         0.00000E+00
    0.62790E-02        -0.41254E-01         0.00000E+00
    0.55850E-02        -0.38510E-01         0.00000E+00
    0.50467E-02        -0.35719E-01         0.00000E+00
    0.46017E-02        -0.32906E-01         0.00000E+00
    0.42166E-02        -0.30083E-01         0.00000E+00
    0.38698E-02        -0.27253E-01         0.00000E+00
    0.35458E-02        -0.24414E-01         0.00000E+00
    0.32319E-02        -0.21560E-01         0.00000E+00
    0.29167E-02        -0.18682E-01         0.00000E+00
    0.25886E-02        -0.15771E-01         0.00000E+00
    0.22342E-02        -0.12809E-01         0.00000E+00
    0.18362E-02        -0.97797E-02         0.00000E+00
    0.13685E-02        -0.66564E-02         0.00000E+00
    0.78432E-03        -0.34065E-02         0.00000E+00
    0.00000E+00         0.00000E+00         0.00000E+00
    0.37668E-02        -0.44880E-01         0.00000E+00
    0.32297E-02        -0.42084E-01         0.00000E+00
    0.28810E-02        -0.39214E-01         0.00000E+00
    0.26120E-02        -0.36326E-01         0.00000E+00
    0.23901E-02        -0.33435E-01         0.00000E+00
    0.21980E-02        -0.30548E-01         0.00000E+00
    0.20248E-02        -0.27662E-01         0.00000E+00
    0.18629E-02        -0.24773E-01         0.00000E+00
    0.17057E-02        -0.21875E-01         0.00000E+00
    0.15477E-02        -0.18957E-01         0.00000E+00
    0.13829E-02        -0.16008E-01         0.00000E+00
    0.12044E-02        -0.13011E-01         0.00000E+00
    0.10031E-02        -0.99463E-02         0.00000E+00
    0.76428E-03        -0.67869E-02         0.00000E+00
    0.46058E-03        -0.34929E-02         0.00000E+00
    0.00000E+00         0.00000E+00         0.00000E+00
    0.00000E+00        -0.45289E-01         0.00000E+00
    0.00000E+00        -0.42389E-01         0.00000E+00
    0.00000E+00        -0.39461E-01         0.00000E+00
    0.00000E+00        -0.36534E-01         0.00000E+00
    0.00000E+00        -0.33616E-01         0.00000E+00
    0.00000E+00        -0.30705E-01         0.00000E+00
    0.00000E+00        -0.27800E-01         0.00000E+00
    0.00000E+00        -0.24895E-01         0.00000E+00
    0.00000E+00        -0.21981E-01         0.00000E+00
    0.00000E+00        -0.19050E-01         0.00000E+00
    0.00000E+00        -0.16088E-01         0.00000E+00
    0.00000E+00        -0.13079E-01         0.00000E+00
    0.00000E+00        -0.10004E-01         0.00000E+00
    0.00000E+00        -0.68334E-02         0.00000E+00
    0.00000E+00        -0.35284E-02         0.00000E+00
    0.00000E+00         0.00000E+00         0.00000E+00
CELL_DATA        450
VECTORS vDarcy double 
    0.20002E-07        -0.16376E-11         0.00000E+00
    0.19999E-07        -0.32811E-11         0.00000E+00
    0.19996E-07        -0.38242E-11         0.00000E+00
    0.19994E-07        -0.36608E-11         0.00000E+00
    0.19992E-07        -0.28568E-11         0.00000E+00
    0.19991E-07        -0.19105E-11         0.00000E+00
    0.19991E-07        -0.12984E-11         0.00000E+00
    0.19990E-07        -0.95814E-12         0.00000E+00
    0.19989E-07        -0.76595E-12         0.00000E+00
    0.19988E-07        -0.68205E-12         0.00000E+00
    0.19987E-07        -0.68194E-12         0.00000E+00
    0.19986E-07        -0.74430E-12         0.00000E+00
    0.19986E-07        -0.83693E-12         0.00000E+00
    0.19985E-07        -0.90766E-12         0.00000E+00
    0.19984E-07        -0.64211E-12         0.00000E+00
    0.20002E-07        -0.33402E-11         0.00000E+00
    0.19996E-07        -0.71749E-11         0.00000E+00
    0.19992E-07        -0.82948E-11         0.00000E+00
    0.19988E-07        -0.75913E-11         0.00000E+00
    0.19985E-07        -0.59984E-11         0.00000E+00
    0.19983E-07        -0.43196E-11         0.00000E+00
    0.19980E-07        -0.30563E-11         0.00000E+00
    0.19978E-07        -0.22405E-11         0.00000E+00
    0.19976E-07        -0.17648E-11         0.00000E+00
    0.19974E-07        -0.15523E-11         0.00000E+00
    0.19972E-07        -0.15456E-11         0.00000E+00
    0.19971E-07        -0.16826E-11         0.00000E+00
    0.19969E-07        -0.18680E-11         0.00000E+00
    0.19967E-07        -0.18998E-11         0.00000E+00
    0.19965E-07        -0.11602E-11         0.00000E+00
    0.19983E-07        -0.29779E-11         0.00000E+00
    0.19978E-07        -0.66184E-11         0.00000E+00
    0.19974E-07        -0.75247E-11         0.00000E+00
    0.19969E-07        -0.68597E-11         0.00000E+00
    0.19965E-07        -0.56169E-11         0.00000E+00
    0.19961E-07        -0.43134E-11         0.00000E+00
    0.19957E-07        -0.31307E-11         0.00000E+00
    0.19954E-07        -0.22347E-11         0.00000E+00
    0.19951E-07        -0.16807E-11         0.00000E+00
    0.19948E-07        -0.14329E-11         0.00000E+00
    0.19945E-07        -0.14307E-11         0.00000E+00
    0.19943E-07        -0.15865E-11         0.00000E+00
    0.19940E-07        -0.17572E-11         0.00000E+00
    0.19938E-07        -0.16624E-11         0.00000E+00
    0.19936E-07        -0.84051E-12         0.00000E+00
    0.19950E-07        -0.18213E-11         0.00000E+00
    0.19945E-07        -0.40378E-11         0.00000E+00
    0.19940E-07        -0.46248E-11         0.00000E+00
    0.19935E-07        -0.43848E-11         0.00000E+00
    0.19930E-07        -0.36283E-11         0.00000E+00
    0.19926E-07        -0.26667E-11         0.00000E+00
    0.19921E-07        -0.17523E-11         0.00000E+00
    0.19917E-07        -0.10291E-11         0.00000E+00
    0.19913E-07        -0.57310E-12         0.00000E+00
    0.19910E-07        -0.39434E-12         0.00000E+00
    0.19906E-07        -0.44841E-12         0.00000E+00
    0.19903E-07        -0.64832E-12         0.00000E+00
    0.19900E-07        -0.85067E-12         0.00000E+00
    0.19898E-07        -0.84573E-12         0.00000E+00
    0.19896E-07        -0.40857E-12         0.00000E+00
    0.19902E-07        -0.55259E-12         0.00000E+00
    0.19898E-07        -0.13450E-11         0.00000E+00
    0.19893E-07        -0.15299E-11         0.00000E+00
    0.19888E-07        -0.12286E-11         0.00000E+00
    0.19883E-07        -0.66745E-12         0.00000E+00
    0.19878E-07        -0.36829E-14         0.00000E+00
    0.19873E-07         0.62021E-12         0.00000E+00
    0.19868E-07         0.10915E-11         0.00000E+00
    0.19864E-07         0.13471E-11         0.00000E+00
    0.19860E-07         0.13705E-11         0.00000E+00
    0.19856E-07         0.11884E-11         0.00000E+00
    0.19853E-07         0.86698E-12         0.00000E+00
    0.19850E-07         0.50512E-12         0.00000E+00
    0.19847E-07         0.21531E-12         0.00000E+00
    0.19845E-07         0.70714E-13         0.00000E+00
    0.19841E-07         0.48040E-12         0.00000E+00
    0.19838E-07         0.11372E-11         0.00000E+00
    0.19833E-07         0.16722E-11         0.00000E+00
    0.19828E-07         0.22026E-11         0.00000E+00
    0.19823E-07         0.27285E-11         0.00000E+00
    0.19818E-07         0.32019E-11         0.00000E+00
    0.19813E-07         0.35687E-11         0.00000E+00
    0.19808E-07         0.37775E-11         0.00000E+00
    0.19804E-07         0.37928E-11         0.00000E+00
    0.19800E-07         0.36044E-11         0.00000E+00
    0.19796E-07         0.32277E-11         0.00000E+00
    0.19793E-07         0.26995E-11         0.00000E+00
    0.19790E-07         0.20657E-11         0.00000E+00
    0.19787E-07         0.13570E-11         0.00000E+00
    0.19786E-07         0.54712E-12         0.00000E+00
    0.19769E-07         0.14091E-11         0.00000E+00
    0.19766E-07         0.34231E-11         0.00000E+00
    0.19762E-07         0.47363E-11         0.00000E+00
    0.19757E-07         0.56152E-11         0.00000E+00
    0.19752E-07         0.62029E-11         0.00000E+00
    0.19747E-07         0.65662E-11         0.00000E+00
    0.19743E-07         0.67291E-11         0.00000E+00
    0.19738E-07         0.66962E-11         0.00000E+00
    0.19734E-07         0.64656E-11         0.00000E+00
    0.19730E-07         0.60386E-11         0.00000E+00
    0.19726E-07         0.54228E-11         0.00000E+00
    0.19723E-07         0.46279E-11         0.00000E+00
    0.19720E-07         0.36545E-11         0.00000E+00
    0.19718E-07         0.24724E-11         0.00000E+00
    0.19717E-07         0.99123E-12         0.00000E+00
    0.19687E-07         0.22184E-11         0.00000E+00
    0.19684E-07         0.54509E-11         0.00000E+00
    0.19681E-07         0.75092E-11         0.00000E+00
    0.19677E-07         0.87685E-11         0.00000E+00
    0.19672E-07         0.94762E-11         0.00000E+00
    0.19668E-07         0.97876E-11         0.00000E+00
    0.19663E-07         0.97963E-11         0.00000E+00
    0.19659E-07         0.95557E-11         0.00000E+00
    0.19656E-07         0.90947E-11         0.00000E+00
    0.19652E-07         0.84273E-11         0.00000E+00
    0.19649E-07         0.75564E-11         0.00000E+00
    0.19646E-07         0.64713E-11         0.00000E+00
    0.19643E-07         0.51383E-11         0.00000E+00
    0.19642E-07         0.34852E-11         0.00000E+00
    0.19640E-07         0.13815E-11         0.00000E+00
    0.19596E-07         0.28879E-11         0.00000E+00
    0.19594E-07         0.71502E-11         0.00000E+00
    0.19591E-07         0.98643E-11         0.00000E+00
    0.19588E-07         0.11484E-10         0.00000E+00
    0.19584E-07         0.12331E-10         0.00000E+00
    0.19580E-07         0.12629E-10         0.00000E+00
    0.19577E-07         0.12525E-10         0.00000E+00
    0.19573E-07         0.12115E-10         0.00000E+00
    0.19570E-07         0.11453E-10         0.00000E+00
    0.19567E-07         0.10564E-10         0.00000E+00
    0.19564E-07         0.94504E-11         0.00000E+00
    0.19562E-07         0.80864E-11         0.00000E+00
    0.19560E-07         0.64155E-11         0.00000E+00
    0.19558E-07         0.43388E-11         0.00000E+00
    0.19557E-07         0.17021E-11         0.00000E+00
    0.19499E-07         0.34001E-11         0.00000E+00
    0.19497E-07         0.84654E-11         0.00000E+00
    0.19495E-07         0.11707E-10         0.00000E+00
    0.19493E-07         0.13629E-10         0.00000E+00
    0.19490E-07         0.14606E-10         0.00000E+00
    0.19487E-07         0.14910E-10         0.00000E+00
    0.19484E-07         0.14729E-10         0.00000E+00
    0.19482E-07         0.14188E-10         0.00000E+00
    0.19479E-07         0.13363E-10         0.00000E+00
    0.19477E-07         0.12289E-10         0.00000E+00
    0.19475E-07         0.10968E-10         0.00000E+00
    0.19473E-07         0.93657E-11         0.00000E+00
    0.19471E-07         0.74122E-11         0.00000E+00
    0.19470E-07         0.49927E-11         0.00000E+00
    0.19469E-07         0.19418E-11         0.00000E+00
    0.19397E-07         0.37443E-11         0.00000E+00
    0.19396E-07         0.93607E-11         0.00000E+00
    0.19395E-07         0.12974E-10         0.00000E+00
    0.19393E-07         0.15117E-10         0.00000E+00
    0.19391E-07         0.16195E-10         0.00000E+00
    0.19389E-07         0.16509E-10         0.00000E+00
    0.19387E-07         0.16276E-10         0.00000E+00
    0.19386E-07         0.15642E-10         0.00000E+00
    0.19384E-07         0.14698E-10         0.00000E+00
    0.19382E-07         0.13487E-10         0.00000E+00
    0.19381E-07         0.12012E-10         0.00000E+00
    0.19380E-07         0.10236E-10         0.00000E+00
    0.19379E-07         0.80789E-11         0.00000E+00
    0.19378E-07         0.54212E-11         0.00000E+00
    0.19377E-07         0.20940E-11         0.00000E+00
    0.19293E-07         0.39168E-11         0.00000E+00
    0.19293E-07         0.98210E-11         0.00000E+00
    0.19292E-07         0.13636E-10         0.00000E+00
    0.19291E-07         0.15900E-10         0.00000E+00
    0.19290E-07         0.17034E-10         0.00000E+00
    0.19289E-07         0.17352E-10         0.00000E+00
    0.19288E-07         0.17086E-10         0.00000E+00
    0.19287E-07         0.16395E-10         0.00000E+00
    0.19286E-07         0.15380E-10         0.00000E+00
    0.19286E-07         0.14089E-10         0.00000E+00
    0.19285E-07         0.12527E-10         0.00000E+00
    0.19284E-07         0.10653E-10         0.00000E+00
    0.19284E-07         0.83887E-11         0.00000E+00
    0.19283E-07         0.56113E-11         0.00000E+00
    0.19283E-07         0.21562E-11         0.00000E+00
    0.19188E-07         0.39212E-11         0.00000E+00
    0.19188E-07         0.98503E-11         0.00000E+00
    0.19188E-07         0.13691E-10         0.00000E+00
    0.19188E-07         0.15971E-10         0.00000E+00
    0.19188E-07         0.17105E-10         0.00000E+00
    0.19188E-07         0.17412E-10         0.00000E+00
    0.19188E-07         0.17127E-10         0.00000E+00
    0.19188E-07         0.16414E-10         0.00000E+00
    0.19188E-07         0.15377E-10         0.00000E+00
    0.19188E-07         0.14066E-10         0.00000E+00
    0.19188E-07         0.12488E-10         0.00000E+00
    0.19188E-07         0.10604E-10         0.00000E+00
    0.19188E-07         0.83349E-11         0.00000E+00
    0.19188E-07         0.55625E-11         0.00000E+00
    0.19188E-07         0.21296E-11         0.00000E+00
    0.19084E-07         0.37670E-11         0.00000E+00
    0.19084E-07         0.94695E-11         0.00000E+00
    0.19085E-07         0.13164E-10         0.00000E+00
    0.19086E-07         0.15351E-10         0.00000E+00
    0.19086E-07         0.16429E-10         0.00000E+00
    0.19087E-07         0.16706E-10         0.00000E+00
    0.19088E-07         0.16412E-10         0.00000E+00
    0.19089E-07         0.15707E-10         0.00000E+00
    0.19090E-07         0.14694E-10         0.00000E+00
    0.19091E-07         0.13425E-10         0.00000E+00
    0.19092E-07         0.11906E-10         0.00000E+00
    0.19092E-07         0.10099E-10         0.00000E+00
    0.19093E-07         0.79288E-11         0.00000E+00
    0.19093E-07         0.52846E-11         0.00000E+00
    0.19093E-07         0.20192E-11         0.00000E+00
    0.18982E-07         0.34686E-11         0.00000E+00
    0.18983E-07         0.87139E-11         0.00000E+00
    0.18984E-07         0.12101E-10         0.00000E+00
    0.18986E-07         0.14093E-10         0.00000E+00
    0.18987E-07         0.15058E-10         0.00000E+00
    0.18989E-07         0.15284E-10         0.00000E+00
    0.18991E-07         0.14986E-10         0.00000E+00
    0.18992E-07         0.14318E-10         0.00000E+00
    0.18994E-07         0.13374E-10         0.00000E+00
    0.18996E-07         0.12205E-10         0.00000E+00
    0.18997E-07         0.10815E-10         0.00000E+00
    0.18998E-07         0.91690E-11         0.00000E+00
    0.18999E-07         0.71976E-11         0.00000E+00
    0.19000E-07         0.47969E-11         0.00000E+00
    0.19000E-07         0.18329E-11         0.00000E+00
    0.18884E-07         0.30447E-11         0.00000E+00
    0.18885E-07         0.76303E-11         0.00000E+00
    0.18887E-07         0.10568E-10         0.00000E+00
    0.18889E-07         0.12272E-10         0.00000E+00
    0.18892E-07         0.13071E-10         0.00000E+00
    0.18894E-07         0.13226E-10         0.00000E+00
    0.18897E-07         0.12931E-10         0.00000E+00
    0.18899E-07         0.12322E-10         0.00000E+00
    0.18901E-07         0.11488E-10         0.00000E+00
    0.18904E-07         0.10470E-10         0.00000E+00
    0.18906E-07         0.92736E-11         0.00000E+00
    0.18907E-07         0.78655E-11         0.00000E+00
    0.18909E-07         0.61812E-11         0.00000E+00
    0.18910E-07         0.41266E-11         0.00000E+00
    0.18910E-07         0.15810E-11         0.00000E+00
    0.18792E-07         0.25172E-11         0.00000E+00
    0.18793E-07         0.62744E-11         0.00000E+00
    0.18795E-07         0.86438E-11         0.00000E+00
    0.18798E-07         0.99808E-11         0.00000E+00
    0.18801E-07         0.10571E-10         0.00000E+00
    0.18804E-07         0.10638E-10         0.00000E+00
    0.18807E-07         0.10349E-10         0.00000E+00
    0.18810E-07         0.98216E-11         0.00000E+00
    0.18813E-07         0.91295E-11         0.00000E+00
    0.18816E-07         0.83084E-11         0.00000E+00
    0.18818E-07         0.73596E-11         0.00000E+00
    0.18820E-07         0.62529E-11         0.00000E+00
    0.18822E-07         0.49299E-11         0.00000E+00
    0.18823E-07         0.33065E-11         0.00000E+00
    0.18824E-07         0.12758E-11         0.00000E+00
    0.18705E-07         0.19096E-11         0.00000E+00
    0.18707E-07         0.47079E-11         0.00000E+00
    0.18709E-07         0.64163E-11         0.00000E+00
    0.18712E-07         0.73274E-11         0.00000E+00
    0.18716E-07         0.76760E-11         0.00000E+00
    0.18719E-07         0.76437E-11         0.00000E+00
    0.18723E-07         0.73657E-11         0.00000E+00
    0.18727E-07         0.69362E-11         0.00000E+00
    0.18730E-07         0.64132E-11         0.00000E+00
    0.18733E-07         0.58230E-11         0.00000E+00
    0.18736E-07         0.51637E-11         0.00000E+00
    0.18738E-07         0.44073E-11         0.00000E+00
    0.18740E-07         0.35020E-11         0.00000E+00
    0.18742E-07         0.23742E-11         0.00000E+00
    0.18743E-07         0.93108E-12         0.00000E+00
    0.18625E-07         0.12468E-11         0.00000E+00
    0.18627E-07         0.29960E-11         0.00000E+00
    0.18630E-07         0.39812E-11         0.00000E+00
    0.18633E-07         0.44283E-11         0.00000E+00
    0.18637E-07         0.45158E-11         0.00000E+00
    0.18641E-07         0.43798E-11         0.00000E+00
    0.18645E-07         0.41194E-11         0.00000E+00
    0.18649E-07         0.38018E-11         0.00000E+00
    0.18653E-07         0.34669E-11         0.00000E+00
    0.18656E-07         0.31308E-11         0.00000E+00
    0.18659E-07         0.27879E-11         0.00000E+00
    0.18662E-07         0.24128E-11         0.00000E+00
    0.18664E-07         0.19610E-11         0.00000E+00
    0.18666E-07         0.13702E-11         0.00000E+00
    0.18667E-07         0.56118E-12         0.00000E+00
    0.18553E-07         0.55363E-12         0.00000E+00
    0.18555E-07         0.12059E-11         0.00000E+00
    0.18558E-07         0.14379E-11         0.00000E+00
    0.18562E-07         0.14063E-11         0.00000E+00
    0.18566E-07         0.12297E-11         0.00000E+00
    0.18570E-07         0.99460E-12         0.00000E+00
    0.18574E-07         0.76048E-12         0.00000E+00
    0.18578E-07         0.56531E-12         0.00000E+00
    0.18582E-07         0.42932E-12         0.00000E+00
    0.18586E-07         0.35763E-12         0.00000E+00
    0.18589E-07         0.34159E-12         0.00000E+00
    0.18592E-07         0.35906E-12         0.00000E+00
    0.18594E-07         0.37410E-12         0.00000E+00
    0.18596E-07         0.33635E-12         0.00000E+00
    0.18597E-07         0.18090E-12         0.00000E+00
    0.18489E-07        -0.14528E-12         0.00000E+00
    0.18491E-07        -0.59558E-12         0.00000E+00
    0.18494E-07        -0.11126E-11         0.00000E+00
    0.18498E-07        -0.16117E-11         0.00000E+00
    0.18502E-07        -0.20375E-11         0.00000E+00
    0.18507E-07        -0.23569E-11         0.00000E+00
    0.18511E-07        -0.25527E-11         0.00000E+00
    0.18515E-07        -0.26182E-11         0.00000E+00
    0.18519E-07        -0.25534E-11         0.00000E+00
    0.18522E-07        -0.23639E-11         0.00000E+00
    0.18526E-07        -0.20607E-11         0.00000E+00
    0.18529E-07        -0.16608E-11         0.00000E+00
    0.18531E-07        -0.11900E-11         0.00000E+00
    0.18533E-07        -0.68483E-12         0.00000E+00
    0.18534E-07        -0.19516E-12         0.00000E+00
    0.18433E-07        -0.82616E-12         0.00000E+00
    0.18435E-07        -0.23420E-11         0.00000E+00
    0.18438E-07        -0.35685E-11         0.00000E+00
    0.18442E-07        -0.44959E-11         0.00000E+00
    0.18447E-07        -0.51363E-11         0.00000E+00
    0.18451E-07        -0.55139E-11         0.00000E+00
    0.18455E-07        -0.56559E-11         0.00000E+00
    0.18459E-07        -0.55877E-11         0.00000E+00
    0.18463E-07        -0.53296E-11         0.00000E+00
    0.18466E-07        -0.48971E-11         0.00000E+00
    0.18469E-07        -0.43013E-11         0.00000E+00
    0.18472E-07        -0.35521E-11         0.00000E+00
    0.18474E-07        -0.26621E-11         0.00000E+00
    0.18476E-07        -0.16514E-11         0.00000E+00
    0.18477E-07        -0.55293E-12         0.00000E+00
    0.18385E-07        -0.14660E-11         0.00000E+00
    0.18388E-07        -0.39675E-11         0.00000E+00
    0.18391E-07        -0.58261E-11         0.00000E+00
    0.18395E-07        -0.71124E-11         0.00000E+00
    0.18399E-07        -0.79121E-11         0.00000E+00
    0.18403E-07        -0.83099E-11         0.00000E+00
    0.18407E-07        -0.83794E-11         0.00000E+00
    0.18410E-07        -0.81779E-11         0.00000E+00
    0.18414E-07        -0.77445E-11         0.00000E+00
    0.18417E-07        -0.71023E-11         0.00000E+00
    0.18420E-07        -0.62605E-11         0.00000E+00
    0.18423E-07        -0.52189E-11         0.00000E+00
    0.18425E-07        -0.39730E-11         0.00000E+00
    0.18427E-07        -0.25223E-11         0.00000E+00
    0.18428E-07        -0.87905E-12         0.00000E+00
    0.18345E-07        -0.20422E-11         0.00000E+00
    0.18348E-07        -0.54045E-11         0.00000E+00
    0.18352E-07        -0.77769E-11         0.00000E+00
    0.18355E-07        -0.93205E-11         0.00000E+00
    0.18359E-07        -0.10202E-10         0.00000E+00
    0.18363E-07        -0.10572E-10         0.00000E+00
    0.18366E-07        -0.10549E-10         0.00000E+00
    0.18369E-07        -0.10220E-10         0.00000E+00
    0.18372E-07        -0.96408E-11         0.00000E+00
    0.18375E-07        -0.88381E-11         0.00000E+00
    0.18378E-07        -0.78172E-11         0.00000E+00
    0.18380E-07        -0.65643E-11         0.00000E+00
    0.18382E-07        -0.50534E-11         0.00000E+00
    0.18384E-07        -0.32572E-11         0.00000E+00
    0.18385E-07        -0.11610E-11         0.00000E+00
    0.18314E-07        -0.25308E-11         0.00000E+00
    0.18317E-07        -0.65795E-11         0.00000E+00
    0.18320E-07        -0.93009E-11         0.00000E+00
    0.18324E-07        -0.10965E-10         0.00000E+00
    0.18327E-07        -0.11832E-10         0.00000E+00
    0.18330E-07        -0.12119E-10         0.00000E+00
    0.18333E-07        -0.11988E-10         0.00000E+00
    0.18336E-07        -0.11546E-10         0.00000E+00
    0.18338E-07        -0.10862E-10         0.00000E+00
    0.18340E-07        -0.99628E-11         0.00000E+00
    0.18343E-07        -0.88482E-11         0.00000E+00
    0.18345E-07        -0.74885E-11         0.00000E+00
    0.18346E-07        -0.58318E-11         0.00000E+00
    0.18348E-07        -0.38153E-11         0.00000E+00
    0.18349E-07        -0.13867E-11         0.00000E+00
    0.18291E-07        -0.29037E-11         0.00000E+00
    0.18294E-07        -0.74023E-11         0.00000E+00
    0.18297E-07        -0.10252E-10         0.00000E+00
    0.18300E-07        -0.11866E-10         0.00000E+00
    0.18303E-07        -0.12610E-10         0.00000E+00
    0.18305E-07        -0.12763E-10         0.00000E+00
    0.18308E-07        -0.12517E-10         0.00000E+00
    0.18309E-07        -0.11991E-10         0.00000E+00
    0.18311E-07        -0.11255E-10         0.00000E+00
    0.18313E-07        -0.10337E-10         0.00000E+00
    0.18314E-07        -0.92286E-11         0.00000E+00
    0.18315E-07        -0.78863E-11         0.00000E+00
    0.18317E-07        -0.62302E-11         0.00000E+00
    0.18318E-07        -0.41521E-11         0.00000E+00
    0.18319E-07        -0.15440E-11         0.00000E+00
    0.18276E-07        -0.31211E-11         0.00000E+00
    0.18279E-07        -0.77453E-11         0.00000E+00
    0.18282E-07        -0.10434E-10         0.00000E+00
    0.18285E-07        -0.11799E-10         0.00000E+00
    0.18286E-07        -0.12319E-10         0.00000E+00
    0.18288E-07        -0.12310E-10         0.00000E+00
    0.18289E-07        -0.11965E-10         0.00000E+00
    0.18290E-07        -0.11402E-10         0.00000E+00
    0.18290E-07        -0.10682E-10         0.00000E+00
    0.18291E-07        -0.98292E-11         0.00000E+00
    0.18292E-07        -0.88319E-11         0.00000E+00
    0.18293E-07        -0.76408E-11         0.00000E+00
    0.18294E-07        -0.61544E-11         0.00000E+00
    0.18295E-07        -0.42113E-11         0.00000E+00
    0.18296E-07        -0.16178E-11         0.00000E+00
    0.18269E-07        -0.31117E-11         0.00000E+00
    0.18272E-07        -0.73924E-11         0.00000E+00
    0.18275E-07        -0.95527E-11         0.00000E+00
    0.18276E-07        -0.10484E-10         0.00000E+00
    0.18277E-07        -0.10728E-10         0.00000E+00
    0.18277E-07        -0.10574E-10         0.00000E+00
    0.18277E-07        -0.10185E-10         0.00000E+00
    0.18277E-07        -0.96537E-11         0.00000E+00
    0.18276E-07        -0.90287E-11         0.00000E+00
    0.18276E-07        -0.83270E-11         0.00000E+00
    0.18276E-07        -0.75379E-11         0.00000E+00
    0.18276E-07        -0.66181E-11         0.00000E+00
    0.18276E-07        -0.54742E-11         0.00000E+00
    0.18277E-07        -0.39053E-11         0.00000E+00
    0.18278E-07        -0.15817E-11         0.00000E+00
    0.18270E-07        -0.27132E-11         0.00000E+00
    0.18273E-07        -0.58976E-11         0.00000E+00
    0.18274E-07        -0.71641E-11         0.00000E+00
    0.18275E-07        -0.76017E-11         0.00000E+00
    0.18274E-07        -0.76176E-11         0.00000E+00
    0.18273E-07        -0.74059E-11         0.00000E+00
    0.18271E-07        -0.70701E-11         0.00000E+00
    0.18270E-07        -0.66670E-11         0.00000E+00
    0.18268E-07        -0.62254E-11         0.00000E+00
    0.18267E-07        -0.57552E-11         0.00000E+00
    0.18266E-07        -0.52496E-11         0.00000E+00
    0.18265E-07        -0.46817E-11         0.00000E+00
    0.18265E-07        -0.39926E-11         0.00000E+00
    0.18265E-07        -0.30435E-11         0.00000E+00
    0.18266E-07        -0.13993E-11         0.00000E+00
    0.18279E-07        -0.11938E-11         0.00000E+00
    0.18282E-07        -0.23938E-11         0.00000E+00
    0.18281E-07        -0.27632E-11         0.00000E+00
    0.18279E-07        -0.28637E-11         0.00000E+00
    0.18277E-07        -0.28282E-11         0.00000E+00
    0.18274E-07        -0.27238E-11         0.00000E+00
    0.18271E-07        -0.25845E-11         0.00000E+00
    0.18268E-07        -0.24286E-11         0.00000E+00
    0.18266E-07        -0.22653E-11         0.00000E+00
    0.18263E-07        -0.20977E-11         0.00000E+00
    0.18261E-07        -0.19234E-11         0.00000E+00
    0.18260E-07        -0.17344E-11         0.00000E+00
    0.18258E-07        -0.15107E-11         0.00000E+00
    0.18258E-07        -0.12198E-11         0.00000E+00
    0.18258E-07        -0.63350E-12         0.00000E+00
POINT_DATA        496
VECTORS vDarcyNodal double 
    0.20000E-07         0.00000E+00         0.00000E+00
    0.19999E-07         0.00000E+00         0.00000E+00
    0.19997E-07         0.00000E+00         0.00000E+00
    0.19995E-07         0.00000E+00         0.00000E+00
    0.19993E-07         0.00000E+00         0.00000E+00
    0.19992E-07         0.00000E+00         0.00000E+00
    0.19991E-07         0.00000E+00         0.00000E+00
    0.19990E-07         0.00000E+00         0.00000E+00
    0.19989E-07         0.00000E+00         0.00000E+00
    0.19988E-07         0.00000E+00         0.00000E+00
    0.19987E-07         0.00000E+00         0.00000E+00
    0.19987E-07         0.00000E+00         0.00000E+00
    0.19986E-07        -0.66662E-22         0.00000E+00
    0.19985E-07        -0.79407E-26         0.00000E+00
    0.19984E-07         0.66654E-22         0.00000E+00
    0.19984E-07         0.00000E+00         0.00000E+00
    0.20001E-07        -0.32734E-11         0.00000E+00
    0.19999E-07        -0.49161E-11         0.00000E+00
    0.19996E-07        -0.71020E-11         0.00000E+00
    0.19993E-07        -0.74824E-11         0.00000E+00
    0.19990E-07        -0.65161E-11         0.00000E+00
    0.19988E-07        -0.47666E-11         0.00000E+00
    0.19986E-07        -0.32086E-11         0.00000E+00
    0.19985E-07        -0.22563E-11         0.00000E+00
    0.19983E-07        -0.17239E-11         0.00000E+00
    0.19982E-07        -0.14479E-11         0.00000E+00
    0.19980E-07        -0.13639E-11         0.00000E+00
    0.19979E-07        -0.14261E-11         0.00000E+00
    0.19978E-07        -0.15811E-11         0.00000E+00
    0.19977E-07        -0.17445E-11         0.00000E+00
    0.19975E-07        -0.15497E-11         0.00000E+00
    0.19974E-07        -0.12841E-11         0.00000E+00
    0.19993E-07        -0.34075E-11         0.00000E+00
    0.19990E-07        -0.55997E-11         0.00000E+00
    0.19985E-07        -0.83688E-11         0.00000E+00
    0.19981E-07        -0.84048E-11         0.00000E+00
    0.19977E-07        -0.70741E-11         0.00000E+00
    0.19973E-07        -0.55513E-11         0.00000E+00
    0.19970E-07        -0.41672E-11         0.00000E+00
    0.19967E-07        -0.30404E-11         0.00000E+00
    0.19965E-07        -0.22814E-11         0.00000E+00
    0.19962E-07        -0.18692E-11         0.00000E+00
    0.19960E-07        -0.17340E-11         0.00000E+00
    0.19958E-07        -0.18020E-11         0.00000E+00
    0.19956E-07        -0.19694E-11         0.00000E+00
    0.19954E-07        -0.20233E-11         0.00000E+00
    0.19951E-07        -0.15104E-11         0.00000E+00
    0.19950E-07        -0.10364E-11         0.00000E+00
    0.19967E-07        -0.25490E-11         0.00000E+00
    0.19964E-07        -0.39978E-11         0.00000E+00
    0.19959E-07        -0.57757E-11         0.00000E+00
    0.19954E-07        -0.59803E-11         0.00000E+00
    0.19950E-07        -0.54028E-11         0.00000E+00
    0.19945E-07        -0.43791E-11         0.00000E+00
    0.19941E-07        -0.32770E-11         0.00000E+00
    0.19937E-07        -0.23251E-11         0.00000E+00
    0.19934E-07        -0.16341E-11         0.00000E+00
    0.19930E-07        -0.12445E-11         0.00000E+00
    0.19927E-07        -0.11297E-11         0.00000E+00
    0.19924E-07        -0.12153E-11         0.00000E+00
    0.19922E-07        -0.13744E-11         0.00000E+00
    0.19919E-07        -0.13963E-11         0.00000E+00
    0.19917E-07        -0.99254E-12         0.00000E+00
    0.19916E-07        -0.64469E-12         0.00000E+00
    0.19926E-07        -0.10939E-11         0.00000E+00
    0.19924E-07        -0.18617E-11         0.00000E+00
    0.19919E-07        -0.28873E-11         0.00000E+00
    0.19914E-07        -0.30297E-11         0.00000E+00
    0.19909E-07        -0.26107E-11         0.00000E+00
    0.19904E-07        -0.19161E-11         0.00000E+00
    0.19899E-07        -0.11422E-11         0.00000E+00
    0.19895E-07        -0.45655E-12         0.00000E+00
    0.19890E-07         0.31717E-13         0.00000E+00
    0.19887E-07         0.27687E-12         0.00000E+00
    0.19883E-07         0.28676E-12         0.00000E+00
    0.19880E-07         0.11840E-12         0.00000E+00
    0.19877E-07        -0.12474E-12         0.00000E+00
    0.19874E-07        -0.30019E-12         0.00000E+00
    0.19871E-07        -0.26182E-12         0.00000E+00
    0.19870E-07        -0.17248E-12         0.00000E+00
    0.19872E-07        -0.11396E-13         0.00000E+00
    0.19870E-07        -0.36154E-13         0.00000E+00
    0.19866E-07         0.11910E-13         0.00000E+00
    0.19861E-07         0.27068E-12         0.00000E+00
    0.19856E-07         0.71418E-12         0.00000E+00
    0.19850E-07         0.12446E-11         0.00000E+00
    0.19845E-07         0.17584E-11         0.00000E+00
    0.19840E-07         0.21680E-11         0.00000E+00
    0.19836E-07         0.24067E-11         0.00000E+00
    0.19832E-07         0.24405E-11         0.00000E+00
    0.19828E-07         0.22719E-11         0.00000E+00
    0.19824E-07         0.19368E-11         0.00000E+00
    0.19821E-07         0.14967E-11         0.00000E+00
    0.19818E-07         0.10205E-11         0.00000E+00
    0.19816E-07         0.54778E-12         0.00000E+00
    0.19815E-07         0.31387E-12         0.00000E+00
    0.19806E-07         0.97204E-12         0.00000E+00
    0.19804E-07         0.16535E-11         0.00000E+00
    0.19800E-07         0.27971E-11         0.00000E+00
    0.19795E-07         0.36036E-11         0.00000E+00
    0.19790E-07         0.42164E-11         0.00000E+00
    0.19785E-07         0.46854E-11         0.00000E+00
    0.19780E-07         0.50119E-11         0.00000E+00
    0.19775E-07         0.51778E-11         0.00000E+00
    0.19771E-07         0.51632E-11         0.00000E+00
    0.19767E-07         0.49564E-11         0.00000E+00
    0.19763E-07         0.45599E-11         0.00000E+00
    0.19760E-07         0.39901E-11         0.00000E+00
    0.19756E-07         0.32683E-11         0.00000E+00
    0.19754E-07         0.24020E-11         0.00000E+00
    0.19752E-07         0.13563E-11         0.00000E+00
    0.19751E-07         0.78032E-12         0.00000E+00
    0.19728E-07         0.18460E-11         0.00000E+00
    0.19727E-07         0.31784E-11         0.00000E+00
    0.19723E-07         0.53619E-11         0.00000E+00
    0.19719E-07         0.67475E-11         0.00000E+00
    0.19715E-07         0.76013E-11         0.00000E+00
    0.19710E-07         0.80832E-11         0.00000E+00
    0.19705E-07         0.82830E-11         0.00000E+00
    0.19701E-07         0.82471E-11         0.00000E+00
    0.19697E-07         0.79982E-11         0.00000E+00
    0.19693E-07         0.75476E-11         0.00000E+00
    0.19689E-07         0.69012E-11         0.00000E+00
    0.19686E-07         0.60604E-11         0.00000E+00
    0.19683E-07         0.50140E-11         0.00000E+00
    0.19681E-07         0.37248E-11         0.00000E+00
    0.19679E-07         0.21073E-11         0.00000E+00
    0.19678E-07         0.12021E-11         0.00000E+00
    0.19642E-07         0.25907E-11         0.00000E+00
    0.19641E-07         0.44907E-11         0.00000E+00
    0.19638E-07         0.75979E-11         0.00000E+00
    0.19634E-07         0.95298E-11         0.00000E+00
    0.19630E-07         0.10643E-10         0.00000E+00
    0.19626E-07         0.11180E-10         0.00000E+00
    0.19622E-07         0.11301E-10         0.00000E+00
    0.19618E-07         0.11105E-10         0.00000E+00
    0.19615E-07         0.10652E-10         0.00000E+00
    0.19611E-07         0.99741E-11         0.00000E+00
    0.19608E-07         0.90823E-11         0.00000E+00
    0.19605E-07         0.79672E-11         0.00000E+00
    0.19603E-07         0.65953E-11         0.00000E+00
    0.19601E-07         0.48985E-11         0.00000E+00
    0.19599E-07         0.27593E-11         0.00000E+00
    0.19599E-07         0.15609E-11         0.00000E+00
    0.19548E-07         0.31851E-11         0.00000E+00
    0.19547E-07         0.55473E-11         0.00000E+00
    0.19545E-07         0.94164E-11         0.00000E+00
    0.19542E-07         0.11818E-10         0.00000E+00
    0.19539E-07         0.13171E-10         0.00000E+00
    0.19535E-07         0.13779E-10         0.00000E+00
    0.19532E-07         0.13853E-10         0.00000E+00
    0.19529E-07         0.13536E-10         0.00000E+00
    0.19526E-07         0.12916E-10         0.00000E+00
    0.19523E-07         0.12043E-10         0.00000E+00
    0.19521E-07         0.10932E-10         0.00000E+00
    0.19518E-07         0.95694E-11         0.00000E+00
    0.19516E-07         0.79064E-11         0.00000E+00
    0.19515E-07         0.58556E-11         0.00000E+00
    0.19514E-07         0.32815E-11         0.00000E+00
    0.19513E-07         0.18432E-11         0.00000E+00
    0.19448E-07         0.36151E-11         0.00000E+00
    0.19448E-07         0.63181E-11         0.00000E+00
    0.19446E-07         0.10755E-10         0.00000E+00
    0.19444E-07         0.13517E-10         0.00000E+00
    0.19442E-07         0.15064E-10         0.00000E+00
    0.19439E-07         0.15738E-10         0.00000E+00
    0.19437E-07         0.15786E-10         0.00000E+00
    0.19435E-07         0.15381E-10         0.00000E+00
    0.19432E-07         0.14635E-10         0.00000E+00
    0.19430E-07         0.13609E-10         0.00000E+00
    0.19429E-07         0.12324E-10         0.00000E+00
    0.19427E-07         0.10764E-10         0.00000E+00
    0.19426E-07         0.88715E-11         0.00000E+00
    0.19424E-07         0.65492E-11         0.00000E+00
    0.19424E-07         0.36530E-11         0.00000E+00
    0.19423E-07         0.20404E-11         0.00000E+00
    0.19345E-07         0.38734E-11         0.00000E+00
    0.19345E-07         0.67868E-11         0.00000E+00
    0.19344E-07         0.11579E-10         0.00000E+00
    0.19343E-07         0.14573E-10         0.00000E+00
    0.19341E-07         0.16247E-10         0.00000E+00
    0.19340E-07         0.16966E-10         0.00000E+00
    0.19338E-07         0.16998E-10         0.00000E+00
    0.19337E-07         0.16536E-10         0.00000E+00
    0.19336E-07         0.15705E-10         0.00000E+00
    0.19335E-07         0.14576E-10         0.00000E+00
    0.19333E-07         0.13175E-10         0.00000E+00
    0.19332E-07         0.11484E-10         0.00000E+00
    0.19332E-07         0.94430E-11         0.00000E+00
    0.19331E-07         0.69509E-11         0.00000E+00
    0.19330E-07         0.38621E-11         0.00000E+00
    0.19330E-07         0.21477E-11         0.00000E+00
    0.19241E-07         0.39603E-11         0.00000E+00
    0.19241E-07         0.69510E-11         0.00000E+00
    0.19240E-07         0.11878E-10         0.00000E+00
    0.19240E-07         0.14963E-10         0.00000E+00
    0.19239E-07         0.16687E-10         0.00000E+00
    0.19239E-07         0.17419E-10         0.00000E+00
    0.19238E-07         0.17439E-10         0.00000E+00
    0.19238E-07         0.16945E-10         0.00000E+00
    0.19237E-07         0.16071E-10         0.00000E+00
    0.19237E-07         0.14893E-10         0.00000E+00
    0.19237E-07         0.13441E-10         0.00000E+00
    0.19236E-07         0.11696E-10         0.00000E+00
    0.19236E-07         0.95989E-11         0.00000E+00
    0.19236E-07         0.70492E-11         0.00000E+00
    0.19236E-07         0.39053E-11         0.00000E+00
    0.19236E-07         0.21646E-11         0.00000E+00
    0.19136E-07         0.38823E-11         0.00000E+00
    0.19136E-07         0.68206E-11         0.00000E+00
    0.19136E-07         0.11663E-10         0.00000E+00
    0.19136E-07         0.14698E-10         0.00000E+00
    0.19137E-07         0.16389E-10         0.00000E+00
    0.19137E-07         0.17098E-10         0.00000E+00
    0.19138E-07         0.17101E-10         0.00000E+00
    0.19138E-07         0.16597E-10         0.00000E+00
    0.19139E-07         0.15720E-10         0.00000E+00
    0.19139E-07         0.14550E-10         0.00000E+00
    0.19140E-07         0.13114E-10         0.00000E+00
    0.19140E-07         0.11396E-10         0.00000E+00
    0.19140E-07         0.93400E-11         0.00000E+00
    0.19141E-07         0.68482E-11         0.00000E+00
    0.19141E-07         0.37867E-11         0.00000E+00
    0.19141E-07         0.20946E-11         0.00000E+00
    0.19033E-07         0.36517E-11         0.00000E+00
    0.19033E-07         0.64160E-11         0.00000E+00
    0.19034E-07         0.10970E-10         0.00000E+00
    0.19035E-07         0.13816E-10         0.00000E+00
    0.19036E-07         0.15391E-10         0.00000E+00
    0.19037E-07         0.16037E-10         0.00000E+00
    0.19039E-07         0.16017E-10         0.00000E+00
    0.19040E-07         0.15522E-10         0.00000E+00
    0.19041E-07         0.14681E-10         0.00000E+00
    0.19043E-07         0.13570E-10         0.00000E+00
    0.19044E-07         0.12217E-10         0.00000E+00
    0.19045E-07         0.10608E-10         0.00000E+00
    0.19046E-07         0.86874E-11         0.00000E+00
    0.19046E-07         0.63653E-11         0.00000E+00
    0.19047E-07         0.35171E-11         0.00000E+00
    0.19047E-07         0.19439E-11         0.00000E+00
    0.18933E-07         0.32855E-11         0.00000E+00
    0.18934E-07         0.57666E-11         0.00000E+00
    0.18935E-07         0.98456E-11         0.00000E+00
    0.18936E-07         0.12378E-10         0.00000E+00
    0.18938E-07         0.13760E-10         0.00000E+00
    0.18940E-07         0.14305E-10         0.00000E+00
    0.18943E-07         0.14254E-10         0.00000E+00
    0.18945E-07         0.13783E-10         0.00000E+00
    0.18947E-07         0.13011E-10         0.00000E+00
    0.18949E-07         0.12009E-10         0.00000E+00
    0.18950E-07         0.10802E-10         0.00000E+00
    0.18952E-07         0.93758E-11         0.00000E+00
    0.18953E-07         0.76793E-11         0.00000E+00
    0.18954E-07         0.56294E-11         0.00000E+00
    0.18955E-07         0.31128E-11         0.00000E+00
    0.18955E-07         0.17219E-11         0.00000E+00
    0.18838E-07         0.28041E-11         0.00000E+00
    0.18838E-07         0.49086E-11         0.00000E+00
    0.18840E-07         0.83534E-11         0.00000E+00
    0.18842E-07         0.10462E-10         0.00000E+00
    0.18845E-07         0.11584E-10         0.00000E+00
    0.18848E-07         0.11993E-10         0.00000E+00
    0.18850E-07         0.11904E-10         0.00000E+00
    0.18853E-07         0.11471E-10         0.00000E+00
    0.18856E-07         0.10799E-10         0.00000E+00
    0.18858E-07         0.99489E-11         0.00000E+00
    0.18861E-07         0.89418E-11         0.00000E+00
    0.18863E-07         0.77635E-11         0.00000E+00
    0.18865E-07         0.63676E-11         0.00000E+00
    0.18866E-07         0.46785E-11         0.00000E+00
    0.18867E-07         0.25948E-11         0.00000E+00
    0.18867E-07         0.14401E-11         0.00000E+00
    0.18748E-07         0.22304E-11         0.00000E+00
    0.18749E-07         0.38831E-11         0.00000E+00
    0.18751E-07         0.65651E-11         0.00000E+00
    0.18753E-07         0.81626E-11         0.00000E+00
    0.18757E-07         0.89689E-11         0.00000E+00
    0.18760E-07         0.92167E-11         0.00000E+00
    0.18763E-07         0.90840E-11         0.00000E+00
    0.18767E-07         0.87003E-11         0.00000E+00
    0.18770E-07         0.81524E-11         0.00000E+00
    0.18773E-07         0.74893E-11         0.00000E+00
    0.18776E-07         0.67265E-11         0.00000E+00
    0.18778E-07         0.58492E-11         0.00000E+00
    0.18780E-07         0.48155E-11         0.00000E+00
    0.18782E-07         0.35580E-11         0.00000E+00
    0.18783E-07         0.19876E-11         0.00000E+00
    0.18784E-07         0.11116E-11         0.00000E+00
    0.18665E-07         0.15889E-11         0.00000E+00
    0.18666E-07         0.27345E-11         0.00000E+00
    0.18668E-07         0.45593E-11         0.00000E+00
    0.18671E-07         0.55815E-11         0.00000E+00
    0.18675E-07         0.60349E-11         0.00000E+00
    0.18678E-07         0.61033E-11         0.00000E+00
    0.18682E-07         0.59258E-11         0.00000E+00
    0.18686E-07         0.56020E-11         0.00000E+00
    0.18690E-07         0.51973E-11         0.00000E+00
    0.18693E-07         0.47472E-11         0.00000E+00
    0.18696E-07         0.42605E-11         0.00000E+00
    0.18699E-07         0.37220E-11         0.00000E+00
    0.18701E-07         0.30940E-11         0.00000E+00
    0.18703E-07         0.23183E-11         0.00000E+00
    0.18704E-07         0.13178E-11         0.00000E+00
    0.18705E-07         0.75059E-12         0.00000E+00
    0.18589E-07         0.90472E-12         0.00000E+00
    0.18590E-07         0.15085E-11         0.00000E+00
    0.18592E-07         0.24182E-11         0.00000E+00
    0.18596E-07         0.28284E-11         0.00000E+00
    0.18600E-07         0.29096E-11         0.00000E+00
    0.18604E-07         0.27927E-11         0.00000E+00
    0.18608E-07         0.25739E-11         0.00000E+00
    0.18612E-07         0.23196E-11         0.00000E+00
    0.18616E-07         0.20718E-11         0.00000E+00
    0.18619E-07         0.18508E-11         0.00000E+00
    0.18623E-07         0.16584E-11         0.00000E+00
    0.18626E-07         0.14789E-11         0.00000E+00
    0.18628E-07         0.12800E-11         0.00000E+00
    0.18630E-07         0.10130E-11         0.00000E+00
    0.18632E-07         0.61363E-12         0.00000E+00
    0.18632E-07         0.37181E-12         0.00000E+00
    0.18521E-07         0.20263E-12         0.00000E+00
    0.18522E-07         0.25120E-12         0.00000E+00
    0.18524E-07         0.22586E-12         0.00000E+00
    0.18528E-07         0.16194E-13         0.00000E+00
    0.18532E-07        -0.27317E-12         0.00000E+00
    0.18536E-07        -0.56796E-12         0.00000E+00
    0.18541E-07        -0.81835E-12         0.00000E+00
    0.18545E-07        -0.99343E-12         0.00000E+00
    0.18549E-07        -0.10768E-11         0.00000E+00
    0.18552E-07        -0.10635E-11         0.00000E+00
    0.18556E-07        -0.95888E-12         0.00000E+00
    0.18559E-07        -0.77800E-12         0.00000E+00
    0.18562E-07        -0.54663E-12         0.00000E+00
    0.18564E-07        -0.30244E-12         0.00000E+00
    0.18565E-07        -0.96309E-13         0.00000E+00
    0.18566E-07        -0.99709E-14         0.00000E+00
    0.18460E-07        -0.49309E-12         0.00000E+00
    0.18462E-07        -0.99188E-12         0.00000E+00
    0.18465E-07        -0.19337E-11         0.00000E+00
    0.18468E-07        -0.27401E-11         0.00000E+00
    0.18472E-07        -0.33756E-11         0.00000E+00
    0.18477E-07        -0.38260E-11         0.00000E+00
    0.18481E-07        -0.40909E-11         0.00000E+00
    0.18485E-07        -0.41771E-11         0.00000E+00
    0.18489E-07        -0.40944E-11         0.00000E+00
    0.18493E-07        -0.38535E-11         0.00000E+00
    0.18496E-07        -0.34655E-11         0.00000E+00
    0.18499E-07        -0.29433E-11         0.00000E+00
    0.18502E-07        -0.23041E-11         0.00000E+00
    0.18504E-07        -0.15723E-11         0.00000E+00
    0.18505E-07        -0.78362E-12         0.00000E+00
    0.18506E-07        -0.38032E-12         0.00000E+00
    0.18408E-07        -0.11591E-11         0.00000E+00
    0.18410E-07        -0.21761E-11         0.00000E+00
    0.18413E-07        -0.39765E-11         0.00000E+00
    0.18417E-07        -0.53238E-11         0.00000E+00
    0.18421E-07        -0.62562E-11         0.00000E+00
    0.18425E-07        -0.68238E-11         0.00000E+00
    0.18429E-07        -0.70785E-11         0.00000E+00
    0.18433E-07        -0.70661E-11         0.00000E+00
    0.18437E-07        -0.68226E-11         0.00000E+00
    0.18440E-07        -0.63730E-11         0.00000E+00
    0.18443E-07        -0.57327E-11         0.00000E+00
    0.18446E-07        -0.49099E-11         0.00000E+00
    0.18449E-07        -0.39100E-11         0.00000E+00
    0.18451E-07        -0.27411E-11         0.00000E+00
    0.18452E-07        -0.14206E-11         0.00000E+00
    0.18453E-07        -0.72550E-12         0.00000E+00
    0.18365E-07        -0.17728E-11         0.00000E+00
    0.18366E-07        -0.32572E-11         0.00000E+00
    0.18369E-07        -0.58168E-11         0.00000E+00
    0.18373E-07        -0.76144E-11         0.00000E+00
    0.18377E-07        -0.87680E-11         0.00000E+00
    0.18381E-07        -0.93978E-11         0.00000E+00
    0.18385E-07        -0.96105E-11         0.00000E+00
    0.18388E-07        -0.94909E-11         0.00000E+00
    0.18392E-07        -0.90995E-11         0.00000E+00
    0.18395E-07        -0.84735E-11         0.00000E+00
    0.18398E-07        -0.76299E-11         0.00000E+00
    0.18400E-07        -0.65694E-11         0.00000E+00
    0.18403E-07        -0.52818E-11         0.00000E+00
    0.18404E-07        -0.37541E-11         0.00000E+00
    0.18406E-07        -0.19806E-11         0.00000E+00
    0.18406E-07        -0.10326E-11         0.00000E+00
    0.18330E-07        -0.23114E-11         0.00000E+00
    0.18331E-07        -0.41893E-11         0.00000E+00
    0.18334E-07        -0.73644E-11         0.00000E+00
    0.18338E-07        -0.94829E-11         0.00000E+00
    0.18341E-07        -0.10755E-10         0.00000E+00
    0.18345E-07        -0.11376E-10         0.00000E+00
    0.18348E-07        -0.11511E-10         0.00000E+00
    0.18351E-07        -0.11279E-10         0.00000E+00
    0.18354E-07        -0.10762E-10         0.00000E+00
    0.18357E-07        -0.10005E-10         0.00000E+00
    0.18359E-07        -0.90252E-11         0.00000E+00
    0.18361E-07        -0.78119E-11         0.00000E+00
    0.18363E-07        -0.63358E-11         0.00000E+00
    0.18365E-07        -0.45564E-11         0.00000E+00
    0.18366E-07        -0.24375E-11         0.00000E+00
    0.18367E-07        -0.12894E-11         0.00000E+00
    0.18303E-07        -0.27500E-11         0.00000E+00
    0.18304E-07        -0.49208E-11         0.00000E+00
    0.18307E-07        -0.85158E-11         0.00000E+00
    0.18311E-07        -0.10783E-10         0.00000E+00
    0.18314E-07        -0.12043E-10         0.00000E+00
    0.18317E-07        -0.12576E-10         0.00000E+00
    0.18319E-07        -0.12597E-10         0.00000E+00
    0.18321E-07        -0.12255E-10         0.00000E+00
    0.18324E-07        -0.11647E-10         0.00000E+00
    0.18326E-07        -0.10819E-10         0.00000E+00
    0.18327E-07        -0.97858E-11         0.00000E+00
    0.18329E-07        -0.85248E-11         0.00000E+00
    0.18331E-07        -0.69845E-11         0.00000E+00
    0.18332E-07        -0.50906E-11         0.00000E+00
    0.18334E-07        -0.27645E-11         0.00000E+00
    0.18334E-07        -0.14841E-11         0.00000E+00
    0.18283E-07        -0.30573E-11         0.00000E+00
    0.18285E-07        -0.53852E-11         0.00000E+00
    0.18288E-07        -0.91387E-11         0.00000E+00
    0.18291E-07        -0.11335E-10         0.00000E+00
    0.18294E-07        -0.12432E-10         0.00000E+00
    0.18296E-07        -0.12797E-10         0.00000E+00
    0.18297E-07        -0.12683E-10         0.00000E+00
    0.18299E-07        -0.12252E-10         0.00000E+00
    0.18300E-07        -0.11600E-10         0.00000E+00
    0.18301E-07        -0.10773E-10         0.00000E+00
    0.18302E-07        -0.97798E-11         0.00000E+00
    0.18303E-07        -0.85901E-11         0.00000E+00
    0.18305E-07        -0.71320E-11         0.00000E+00
    0.18306E-07        -0.52917E-11         0.00000E+00
    0.18307E-07        -0.29315E-11         0.00000E+00
    0.18308E-07        -0.16038E-11         0.00000E+00
    0.18272E-07        -0.31849E-11         0.00000E+00
    0.18274E-07        -0.54812E-11         0.00000E+00
    0.18277E-07        -0.90408E-11         0.00000E+00
    0.18279E-07        -0.10898E-10         0.00000E+00
    0.18281E-07        -0.11685E-10         0.00000E+00
    0.18282E-07        -0.11831E-10         0.00000E+00
    0.18283E-07        -0.11592E-10         0.00000E+00
    0.18283E-07        -0.11115E-10         0.00000E+00
    0.18283E-07        -0.10484E-10         0.00000E+00
    0.18283E-07        -0.97384E-11         0.00000E+00
    0.18284E-07        -0.88814E-11         0.00000E+00
    0.18284E-07        -0.78827E-11         0.00000E+00
    0.18285E-07        -0.66633E-11         0.00000E+00
    0.18285E-07        -0.50740E-11         0.00000E+00
    0.18286E-07        -0.28975E-11         0.00000E+00
    0.18287E-07        -0.16318E-11         0.00000E+00
    0.18270E-07        -0.30385E-11         0.00000E+00
    0.18271E-07        -0.50229E-11         0.00000E+00
    0.18274E-07        -0.79045E-11         0.00000E+00
    0.18275E-07        -0.91387E-11         0.00000E+00
    0.18275E-07        -0.95274E-11         0.00000E+00
    0.18275E-07        -0.94714E-11         0.00000E+00
    0.18274E-07        -0.91675E-11         0.00000E+00
    0.18274E-07        -0.87238E-11         0.00000E+00
    0.18273E-07        -0.81984E-11         0.00000E+00
    0.18272E-07        -0.76176E-11         0.00000E+00
    0.18271E-07        -0.69837E-11         0.00000E+00
    0.18271E-07        -0.62734E-11         0.00000E+00
    0.18270E-07        -0.54291E-11         0.00000E+00
    0.18271E-07        -0.43055E-11         0.00000E+00
    0.18271E-07        -0.25895E-11         0.00000E+00
    0.18272E-07        -0.15316E-11         0.00000E+00
    0.18275E-07        -0.23880E-11         0.00000E+00
    0.18276E-07        -0.35881E-11         0.00000E+00
    0.18278E-07        -0.51576E-11         0.00000E+00
    0.18277E-07        -0.56275E-11         0.00000E+00
    0.18276E-07        -0.56925E-11         0.00000E+00
    0.18274E-07        -0.55526E-11         0.00000E+00
    0.18272E-07        -0.53089E-11         0.00000E+00
    0.18270E-07        -0.50136E-11         0.00000E+00
    0.18268E-07        -0.46944E-11         0.00000E+00
    0.18266E-07        -0.43634E-11         0.00000E+00
    0.18264E-07        -0.40214E-11         0.00000E+00
    0.18263E-07        -0.36582E-11         0.00000E+00
    0.18262E-07        -0.32454E-11         0.00000E+00
    0.18261E-07        -0.27307E-11         0.00000E+00
    0.18261E-07        -0.18534E-11         0.00000E+00
    0.18262E-07        -0.12671E-11         0.00000E+00
    0.18281E-07         0.00000E+00         0.00000E+00
    0.18281E-07         0.00000E+00         0.00000E+00
    0.18282E-07        -0.49660E-22         0.00000E+00
    0.18280E-07         0.10188E-25         0.00000E+00
    0.18278E-07         0.53809E-22         0.00000E+00
    0.18275E-07         0.00000E+00         0.00000E+00
    0.18273E-07         0.00000E+00         0.00000E+00
    0.18270E-07        -0.49699E-22         0.00000E+00
    0.18267E-07        -0.49699E-22         0.00000E+00
    0.18265E-07         0.49710E-22         0.00000E+00
    0.18262E-07         0.53853E-22         0.00000E+00
    0.18260E-07        -0.53864E-22         0.00000E+00
    0.18259E-07        -0.41387E-23         0.00000E+00
    0.18258E-07         0.53871E-22         0.00000E+00
    0.18258E-07         0.82886E-23         0.00000E+00
    0.18258E-07         0.00000E+00         0.00000E+00
CELL_DATA        450
TENSORS stressef double 
    0.43276E+08         0.27104E+06         0.00000E+00
    0.27104E+06         0.29810E+08         0.00000E+00
    0.00000E+00         0.00000E+00         0.26873E+08
 
    0.43376E+08         0.19700E+05         0.00000E+00
    0.19700E+05         0.29774E+08         0.00000E+00
    0.00000E+00         0.00000E+00         0.24021E+08
 
    0.41778E+08        -0.35394E+06         0.00000E+00
   -0.35394E+06         0.29227E+08         0.00000E+00
    0.00000E+00         0.00000E+00         0.20300E+08
 
    0.39552E+08        -0.42804E+06         0.00000E+00
   -0.42804E+06         0.28248E+08         0.00000E+00
    0.00000E+00         0.00000E+00         0.16452E+08
 
    0.37040E+08        -0.63577E+06         0.00000E+00
   -0.63577E+06         0.27148E+08         0.00000E+00
    0.00000E+00         0.00000E+00         0.13249E+08
 
    0.33553E+08        -0.64078E+06         0.00000E+00
   -0.64078E+06         0.25963E+08         0.00000E+00
    0.00000E+00         0.00000E+00         0.11903E+08
 
    0.30822E+08        -0.47184E+06         0.00000E+00
   -0.47184E+06         0.24938E+08         0.00000E+00
    0.00000E+00         0.00000E+00         0.11152E+08
 
    0.28513E+08        -0.33717E+06         0.00000E+00
   -0.33717E+06         0.24167E+08         0.00000E+00
    0.00000E+00         0.00000E+00         0.10536E+08
 
    0.26377E+08        -0.21980E+06         0.00000E+00
   -0.21980E+06         0.23630E+08         0.00000E+00
    0.00000E+00         0.00000E+00         0.10001E+08
 
    0.24283E+08        -0.10726E+06         0.00000E+00
   -0.10726E+06         0.23314E+08         0.00000E+00
    0.00000E+00         0.00000E+00         0.95193E+07
 
    0.22130E+08         0.10090E+05         0.00000E+00
    0.10090E+05         0.23224E+08         0.00000E+00
    0.00000E+00         0.00000E+00         0.90707E+07
 
    0.19810E+08         0.14250E+06         0.00000E+00
    0.14250E+06         0.23381E+08         0.00000E+00
    0.00000E+00         0.00000E+00         0.86383E+07
 
    0.17176E+08         0.30732E+06         0.00000E+00
    0.30732E+06         0.23834E+08         0.00000E+00
    0.00000E+00         0.00000E+00         0.82020E+07
 
    0.13978E+08         0.54123E+06         0.00000E+00
    0.54123E+06         0.24684E+08         0.00000E+00
    0.00000E+00         0.00000E+00         0.77324E+07
 
    0.95021E+07         0.10814E+07         0.00000E+00
    0.10814E+07         0.26227E+08         0.00000E+00
    0.00000E+00         0.00000E+00         0.71458E+07
 
    0.40817E+08         0.40823E+06         0.00000E+00
    0.40823E+06         0.25017E+08         0.00000E+00
    0.00000E+00         0.00000E+00         0.19012E+08
 
    0.40031E+08         0.49281E+05         0.00000E+00
    0.49281E+05         0.24953E+08         0.00000E+00
    0.00000E+00         0.00000E+00         0.16672E+08
 
    0.38598E+08        -0.64619E+06         0.00000E+00
   -0.64619E+06         0.25019E+08         0.00000E+00
    0.00000E+00         0.00000E+00         0.14099E+08
 
    0.36619E+08        -0.11312E+07         0.00000E+00
   -0.11312E+07         0.24970E+08         0.00000E+00
    0.00000E+00         0.00000E+00         0.12346E+08
 
    0.33826E+08        -0.14748E+07         0.00000E+00
   -0.14748E+07         0.24571E+08         0.00000E+00
    0.00000E+00         0.00000E+00         0.11679E+08
 
    0.30963E+08        -0.15269E+07         0.00000E+00
   -0.15269E+07         0.24029E+08         0.00000E+00
    0.00000E+00         0.00000E+00         0.10999E+08
 
    0.28272E+08        -0.12426E+07         0.00000E+00
   -0.12426E+07         0.23420E+08         0.00000E+00
    0.00000E+00         0.00000E+00         0.10338E+08
 
    0.25947E+08        -0.92070E+06         0.00000E+00
   -0.92070E+06         0.22872E+08         0.00000E+00
    0.00000E+00         0.00000E+00         0.97638E+07
 
    0.23802E+08        -0.60562E+06         0.00000E+00
   -0.60562E+06         0.22465E+08         0.00000E+00
    0.00000E+00         0.00000E+00         0.92533E+07
 
    0.21713E+08        -0.28629E+06         0.00000E+00
   -0.28629E+06         0.22232E+08         0.00000E+00
    0.00000E+00         0.00000E+00         0.87890E+07
 
    0.19582E+08         0.56105E+05         0.00000E+00
    0.56105E+05         0.22199E+08         0.00000E+00
    0.00000E+00         0.00000E+00         0.83562E+07
 
    0.17308E+08         0.44854E+06         0.00000E+00
    0.44854E+06         0.22398E+08         0.00000E+00
    0.00000E+00         0.00000E+00         0.79413E+07
 
    0.14769E+08         0.93901E+06         0.00000E+00
    0.93901E+06         0.22882E+08         0.00000E+00
    0.00000E+00         0.00000E+00         0.75303E+07
 
    0.11784E+08         0.16428E+07         0.00000E+00
    0.16428E+07         0.23741E+08         0.00000E+00
    0.00000E+00         0.00000E+00         0.71051E+07
 
    0.83163E+07         0.29373E+07         0.00000E+00
    0.29373E+07         0.25100E+08         0.00000E+00
    0.00000E+00         0.00000E+00         0.66832E+07
 
    0.38251E+08        -0.20335E+05         0.00000E+00
   -0.20335E+05         0.22560E+08         0.00000E+00
    0.00000E+00         0.00000E+00         0.13330E+08
 
    0.36789E+08        -0.20290E+06         0.00000E+00
   -0.20290E+06         0.22368E+08         0.00000E+00
    0.00000E+00         0.00000E+00         0.11831E+08
 
    0.35119E+08        -0.74455E+06         0.00000E+00
   -0.74455E+06         0.22229E+08         0.00000E+00
    0.00000E+00         0.00000E+00         0.11470E+08
 
    0.33235E+08        -0.14191E+07         0.00000E+00
   -0.14191E+07         0.22067E+08         0.00000E+00
    0.00000E+00         0.00000E+00         0.11060E+08
 
    0.30829E+08        -0.18112E+07         0.00000E+00
   -0.18112E+07         0.21857E+08         0.00000E+00
    0.00000E+00         0.00000E+00         0.10537E+08
 
    0.28279E+08        -0.18833E+07         0.00000E+00
   -0.18833E+07         0.21645E+08         0.00000E+00
    0.00000E+00         0.00000E+00         0.99847E+07
 
    0.25807E+08        -0.16703E+07         0.00000E+00
   -0.16703E+07         0.21399E+08         0.00000E+00
    0.00000E+00         0.00000E+00         0.94412E+07
 
    0.23526E+08        -0.12960E+07         0.00000E+00
   -0.12960E+07         0.21122E+08         0.00000E+00
    0.00000E+00         0.00000E+00         0.89297E+07
 
    0.21403E+08        -0.85770E+06         0.00000E+00
   -0.85770E+06         0.20901E+08         0.00000E+00
    0.00000E+00         0.00000E+00         0.84608E+07
 
    0.19345E+08        -0.37422E+06         0.00000E+00
   -0.37422E+06         0.20797E+08         0.00000E+00
    0.00000E+00         0.00000E+00         0.80283E+07
 
    0.17267E+08         0.16724E+06         0.00000E+00
    0.16724E+06         0.20854E+08         0.00000E+00
    0.00000E+00         0.00000E+00         0.76241E+07
 
    0.15087E+08         0.80072E+06         0.00000E+00
    0.80072E+06         0.21114E+08         0.00000E+00
    0.00000E+00         0.00000E+00         0.72403E+07
 
    0.12724E+08         0.15929E+07         0.00000E+00
    0.15929E+07         0.21625E+08         0.00000E+00
    0.00000E+00         0.00000E+00         0.68699E+07
 
    0.10133E+08         0.26833E+07         0.00000E+00
    0.26833E+07         0.22435E+08         0.00000E+00
    0.00000E+00         0.00000E+00         0.65135E+07
 
    0.74008E+07         0.42886E+07         0.00000E+00
    0.42886E+07         0.23505E+08         0.00000E+00
    0.00000E+00         0.00000E+00         0.61811E+07
 
    0.35338E+08        -0.18318E+06         0.00000E+00
   -0.18318E+06         0.20183E+08         0.00000E+00
    0.00000E+00         0.00000E+00         0.11104E+08
 
    0.33496E+08        -0.58820E+06         0.00000E+00
   -0.58820E+06         0.19993E+08         0.00000E+00
    0.00000E+00         0.00000E+00         0.10698E+08
 
    0.31766E+08        -0.10475E+07         0.00000E+00
   -0.10475E+07         0.19650E+08         0.00000E+00
    0.00000E+00         0.00000E+00         0.10283E+08
 
    0.29923E+08        -0.15692E+07         0.00000E+00
   -0.15692E+07         0.19418E+08         0.00000E+00
    0.00000E+00         0.00000E+00         0.98681E+07
 
    0.27816E+08        -0.19330E+07         0.00000E+00
   -0.19330E+07         0.19314E+08         0.00000E+00
    0.00000E+00         0.00000E+00         0.94259E+07
 
    0.25561E+08        -0.20143E+07         0.00000E+00
   -0.20143E+07         0.19244E+08         0.00000E+00
    0.00000E+00         0.00000E+00         0.89609E+07
 
    0.23319E+08        -0.18347E+07         0.00000E+00
   -0.18347E+07         0.19169E+08         0.00000E+00
    0.00000E+00         0.00000E+00         0.84977E+07
 
    0.21173E+08        -0.14596E+07         0.00000E+00
   -0.14596E+07         0.19089E+08         0.00000E+00
    0.00000E+00         0.00000E+00         0.80522E+07
 
    0.19128E+08        -0.95396E+06         0.00000E+00
   -0.95396E+06         0.19035E+08         0.00000E+00
    0.00000E+00         0.00000E+00         0.76325E+07
 
    0.17142E+08        -0.35005E+06         0.00000E+00
   -0.35005E+06         0.19059E+08         0.00000E+00
    0.00000E+00         0.00000E+00         0.72402E+07
 
    0.15157E+08         0.35540E+06         0.00000E+00
    0.35540E+06         0.19208E+08         0.00000E+00
    0.00000E+00         0.00000E+00         0.68730E+07
 
    0.13118E+08         0.11939E+07         0.00000E+00
    0.11939E+07         0.19521E+08         0.00000E+00
    0.00000E+00         0.00000E+00         0.65277E+07
 
    0.10987E+08         0.22298E+07         0.00000E+00
    0.22298E+07         0.20030E+08         0.00000E+00
    0.00000E+00         0.00000E+00         0.62035E+07
 
    0.87765E+07         0.35638E+07         0.00000E+00
    0.35638E+07         0.20740E+08         0.00000E+00
    0.00000E+00         0.00000E+00         0.59034E+07
 
    0.65851E+07         0.53131E+07         0.00000E+00
    0.53131E+07         0.21599E+08         0.00000E+00
    0.00000E+00         0.00000E+00         0.56368E+07
 
    0.32080E+08        -0.29691E+06         0.00000E+00
   -0.29691E+06         0.17420E+08         0.00000E+00
    0.00000E+00         0.00000E+00         0.99000E+07
 
    0.30244E+08        -0.82608E+06         0.00000E+00
   -0.82608E+06         0.17269E+08         0.00000E+00
    0.00000E+00         0.00000E+00         0.95026E+07
 
    0.28512E+08        -0.13029E+07         0.00000E+00
   -0.13029E+07         0.17077E+08         0.00000E+00
    0.00000E+00         0.00000E+00         0.91179E+07
 
    0.26733E+08        -0.17120E+07         0.00000E+00
   -0.17120E+07         0.16915E+08         0.00000E+00
    0.00000E+00         0.00000E+00         0.87297E+07
 
    0.24835E+08        -0.19829E+07         0.00000E+00
   -0.19829E+07         0.16839E+08         0.00000E+00
    0.00000E+00         0.00000E+00         0.83348E+07
 
    0.22840E+08        -0.20362E+07         0.00000E+00
   -0.20362E+07         0.16829E+08         0.00000E+00
    0.00000E+00         0.00000E+00         0.79338E+07
 
    0.20826E+08        -0.18551E+07         0.00000E+00
   -0.18551E+07         0.16848E+08         0.00000E+00
    0.00000E+00         0.00000E+00         0.75346E+07
 
    0.18853E+08        -0.14696E+07         0.00000E+00
   -0.14696E+07         0.16882E+08         0.00000E+00
    0.00000E+00         0.00000E+00         0.71469E+07
 
    0.16939E+08        -0.91821E+06         0.00000E+00
   -0.91821E+06         0.16946E+08         0.00000E+00
    0.00000E+00         0.00000E+00         0.67772E+07
 
    0.15071E+08        -0.22528E+06         0.00000E+00
   -0.22528E+06         0.17071E+08         0.00000E+00
    0.00000E+00         0.00000E+00         0.64285E+07
 
    0.13218E+08         0.60816E+06         0.00000E+00
    0.60816E+06         0.17291E+08         0.00000E+00
    0.00000E+00         0.00000E+00         0.61018E+07
 
    0.11352E+08         0.16059E+07         0.00000E+00
    0.16059E+07         0.17635E+08         0.00000E+00
    0.00000E+00         0.00000E+00         0.57974E+07
 
    0.94651E+07         0.28148E+07         0.00000E+00
    0.28148E+07         0.18119E+08         0.00000E+00
    0.00000E+00         0.00000E+00         0.55169E+07
 
    0.75872E+07         0.42983E+07         0.00000E+00
    0.42983E+07         0.18734E+08         0.00000E+00
    0.00000E+00         0.00000E+00         0.52643E+07
 
    0.58026E+07         0.61168E+07         0.00000E+00
    0.61168E+07         0.19431E+08         0.00000E+00
    0.00000E+00         0.00000E+00         0.50468E+07
 
    0.28671E+08        -0.37029E+06         0.00000E+00
   -0.37029E+06         0.14662E+08         0.00000E+00
    0.00000E+00         0.00000E+00         0.86665E+07
 
    0.26951E+08        -0.97569E+06         0.00000E+00
   -0.97569E+06         0.14578E+08         0.00000E+00
    0.00000E+00         0.00000E+00         0.83058E+07
 
    0.25305E+08        -0.14510E+07         0.00000E+00
   -0.14510E+07         0.14466E+08         0.00000E+00
    0.00000E+00         0.00000E+00         0.79542E+07
 
    0.23645E+08        -0.18030E+07         0.00000E+00
   -0.18030E+07         0.14381E+08         0.00000E+00
    0.00000E+00         0.00000E+00         0.76052E+07
 
    0.21925E+08        -0.19994E+07         0.00000E+00
   -0.19994E+07         0.14351E+08         0.00000E+00
    0.00000E+00         0.00000E+00         0.72554E+07
 
    0.20150E+08        -0.20025E+07         0.00000E+00
   -0.20025E+07         0.14379E+08         0.00000E+00
    0.00000E+00         0.00000E+00         0.69058E+07
 
    0.18352E+08        -0.17949E+07         0.00000E+00
   -0.17949E+07         0.14450E+08         0.00000E+00
    0.00000E+00         0.00000E+00         0.65603E+07
 
    0.16568E+08        -0.13847E+07         0.00000E+00
   -0.13847E+07         0.14552E+08         0.00000E+00
    0.00000E+00         0.00000E+00         0.62240E+07
 
    0.14819E+08        -0.79102E+06         0.00000E+00
   -0.79102E+06         0.14689E+08         0.00000E+00
    0.00000E+00         0.00000E+00         0.59015E+07
 
    0.13103E+08        -0.28629E+05         0.00000E+00
   -0.28629E+05         0.14878E+08         0.00000E+00
    0.00000E+00         0.00000E+00         0.55963E+07
 
    0.11412E+08         0.90145E+06         0.00000E+00
    0.90145E+06         0.15141E+08         0.00000E+00
    0.00000E+00         0.00000E+00         0.53106E+07
 
    0.97374E+07         0.20144E+07         0.00000E+00
    0.20144E+07         0.15493E+08         0.00000E+00
    0.00000E+00         0.00000E+00         0.50461E+07
 
    0.80868E+07         0.33396E+07         0.00000E+00
    0.33396E+07         0.15942E+08         0.00000E+00
    0.00000E+00         0.00000E+00         0.48057E+07
 
    0.64941E+07         0.49125E+07         0.00000E+00
    0.49125E+07         0.16471E+08         0.00000E+00
    0.00000E+00         0.00000E+00         0.45931E+07
 
    0.50262E+07         0.67606E+07         0.00000E+00
    0.67606E+07         0.17044E+08         0.00000E+00
    0.00000E+00         0.00000E+00         0.44141E+07
 
    0.25178E+08        -0.40605E+06         0.00000E+00
   -0.40605E+06         0.11909E+08         0.00000E+00
    0.00000E+00         0.00000E+00         0.74173E+07
 
    0.23638E+08        -0.10537E+07         0.00000E+00
   -0.10537E+07         0.11873E+08         0.00000E+00
    0.00000E+00         0.00000E+00         0.71023E+07
 
    0.22135E+08        -0.15250E+07         0.00000E+00
   -0.15250E+07         0.11826E+08         0.00000E+00
    0.00000E+00         0.00000E+00         0.67922E+07
 
    0.20625E+08        -0.18370E+07         0.00000E+00
   -0.18370E+07         0.11800E+08         0.00000E+00
    0.00000E+00         0.00000E+00         0.64849E+07
 
    0.19083E+08        -0.19795E+07         0.00000E+00
   -0.19795E+07         0.11814E+08         0.00000E+00
    0.00000E+00         0.00000E+00         0.61794E+07
 
    0.17508E+08        -0.19341E+07         0.00000E+00
   -0.19341E+07         0.11874E+08         0.00000E+00
    0.00000E+00         0.00000E+00         0.58764E+07
 
    0.15915E+08        -0.16892E+07         0.00000E+00
   -0.16892E+07         0.11977E+08         0.00000E+00
    0.00000E+00         0.00000E+00         0.55783E+07
 
    0.14326E+08        -0.12452E+07         0.00000E+00
   -0.12452E+07         0.12116E+08         0.00000E+00
    0.00000E+00         0.00000E+00         0.52885E+07
 
    0.12759E+08        -0.61009E+06         0.00000E+00
   -0.61009E+06         0.12293E+08         0.00000E+00
    0.00000E+00         0.00000E+00         0.50103E+07
 
    0.11218E+08         0.20871E+06         0.00000E+00
    0.20871E+06         0.12516E+08         0.00000E+00
    0.00000E+00         0.00000E+00         0.47468E+07
 
    0.97072E+07         0.12106E+07         0.00000E+00
    0.12106E+07         0.12795E+08         0.00000E+00
    0.00000E+00         0.00000E+00         0.45004E+07
 
    0.82303E+07         0.24038E+07         0.00000E+00
    0.24038E+07         0.13138E+08         0.00000E+00
    0.00000E+00         0.00000E+00         0.42736E+07
 
    0.68027E+07         0.38041E+07         0.00000E+00
    0.38041E+07         0.13544E+08         0.00000E+00
    0.00000E+00         0.00000E+00         0.40693E+07
 
    0.54566E+07         0.54279E+07         0.00000E+00
    0.54279E+07         0.13999E+08         0.00000E+00
    0.00000E+00         0.00000E+00         0.38911E+07
 
    0.42433E+07         0.72837E+07         0.00000E+00
    0.72837E+07         0.14473E+08         0.00000E+00
    0.00000E+00         0.00000E+00         0.37433E+07
 
    0.21654E+08        -0.41685E+06         0.00000E+00
   -0.41685E+06         0.91607E+07         0.00000E+00
    0.00000E+00         0.00000E+00         0.61629E+07
 
    0.20324E+08        -0.10790E+07         0.00000E+00
   -0.10790E+07         0.91570E+07         0.00000E+00
    0.00000E+00         0.00000E+00         0.58962E+07
 
    0.18996E+08        -0.15427E+07         0.00000E+00
   -0.15427E+07         0.91564E+07         0.00000E+00
    0.00000E+00         0.00000E+00         0.56306E+07
 
    0.17658E+08        -0.18256E+07         0.00000E+00
   -0.18256E+07         0.91738E+07         0.00000E+00
    0.00000E+00         0.00000E+00         0.53664E+07
 
    0.16298E+08        -0.19275E+07         0.00000E+00
   -0.19275E+07         0.92221E+07         0.00000E+00
    0.00000E+00         0.00000E+00         0.51041E+07
 
    0.14917E+08        -0.18405E+07         0.00000E+00
   -0.18405E+07         0.93073E+07         0.00000E+00
    0.00000E+00         0.00000E+00         0.48448E+07
 
    0.13523E+08        -0.15579E+07         0.00000E+00
   -0.15579E+07         0.94295E+07         0.00000E+00
    0.00000E+00         0.00000E+00         0.45905E+07
 
    0.12131E+08        -0.10781E+07         0.00000E+00
   -0.10781E+07         0.95871E+07         0.00000E+00
    0.00000E+00         0.00000E+00         0.43436E+07
 
    0.10753E+08        -0.40409E+06         0.00000E+00
   -0.40409E+06         0.97804E+07         0.00000E+00
    0.00000E+00         0.00000E+00         0.41067E+07
 
    0.93994E+07         0.46065E+06         0.00000E+00
    0.46065E+06         0.10013E+08         0.00000E+00
    0.00000E+00         0.00000E+00         0.38824E+07
 
    0.80776E+07         0.15153E+07         0.00000E+00
    0.15153E+07         0.10288E+08         0.00000E+00
    0.00000E+00         0.00000E+00         0.36731E+07
 
    0.67985E+07         0.27631E+07         0.00000E+00
    0.27631E+07         0.10608E+08         0.00000E+00
    0.00000E+00         0.00000E+00         0.34813E+07
 
    0.55798E+07         0.42100E+07         0.00000E+00
    0.42100E+07         0.10969E+08         0.00000E+00
    0.00000E+00         0.00000E+00         0.33097E+07
 
    0.44501E+07         0.58605E+07         0.00000E+00
    0.58605E+07         0.11356E+08         0.00000E+00
    0.00000E+00         0.00000E+00         0.31613E+07
 
    0.34488E+07         0.77115E+07         0.00000E+00
    0.77115E+07         0.11749E+08         0.00000E+00
    0.00000E+00         0.00000E+00         0.30395E+07
 
    0.18135E+08        -0.41245E+06         0.00000E+00
   -0.41245E+06         0.64198E+07         0.00000E+00
    0.00000E+00         0.00000E+00         0.49110E+07
 
    0.17022E+08        -0.10697E+07         0.00000E+00
   -0.10697E+07         0.64358E+07         0.00000E+00
    0.00000E+00         0.00000E+00         0.46916E+07
 
    0.15887E+08        -0.15215E+07         0.00000E+00
   -0.15215E+07         0.64646E+07         0.00000E+00
    0.00000E+00         0.00000E+00         0.44704E+07
 
    0.14734E+08        -0.17813E+07         0.00000E+00
   -0.17813E+07         0.65111E+07         0.00000E+00
    0.00000E+00         0.00000E+00         0.42490E+07
 
    0.13562E+08        -0.18521E+07         0.00000E+00
   -0.18521E+07         0.65822E+07         0.00000E+00
    0.00000E+00         0.00000E+00         0.40288E+07
 
    0.12374E+08        -0.17310E+07         0.00000E+00
   -0.17310E+07         0.66824E+07         0.00000E+00
    0.00000E+00         0.00000E+00         0.38113E+07
 
    0.11177E+08        -0.14147E+07         0.00000E+00
   -0.14147E+07         0.68134E+07         0.00000E+00
    0.00000E+00         0.00000E+00         0.35981E+07
 
    0.99817E+07        -0.90187E+06         0.00000E+00
   -0.90187E+06         0.69753E+07         0.00000E+00
    0.00000E+00         0.00000E+00         0.33914E+07
 
    0.87977E+07        -0.19362E+06         0.00000E+00
   -0.19362E+06         0.71682E+07         0.00000E+00
    0.00000E+00         0.00000E+00         0.31932E+07
 
    0.76353E+07         0.70786E+06         0.00000E+00
    0.70786E+06         0.73929E+07         0.00000E+00
    0.00000E+00         0.00000E+00         0.30057E+07
 
    0.65050E+07         0.18009E+07         0.00000E+00
    0.18009E+07         0.76502E+07         0.00000E+00
    0.00000E+00         0.00000E+00         0.28310E+07
 
    0.54196E+07         0.30850E+07         0.00000E+00
    0.30850E+07         0.79382E+07         0.00000E+00
    0.00000E+00         0.00000E+00         0.26716E+07
 
    0.43967E+07         0.45596E+07         0.00000E+00
    0.45596E+07         0.82513E+07         0.00000E+00
    0.00000E+00         0.00000E+00         0.25296E+07
 
    0.34605E+07         0.62214E+07         0.00000E+00
    0.62214E+07         0.85777E+07         0.00000E+00
    0.00000E+00         0.00000E+00         0.24076E+07
 
    0.26410E+07         0.80609E+07         0.00000E+00
    0.80609E+07         0.89002E+07         0.00000E+00
    0.00000E+00         0.00000E+00         0.23082E+07
 
    0.14643E+08        -0.39980E+06         0.00000E+00
   -0.39980E+06         0.36886E+07         0.00000E+00
    0.00000E+00         0.00000E+00         0.36664E+07
 
    0.13744E+08        -0.10403E+07         0.00000E+00
   -0.10403E+07         0.37147E+07         0.00000E+00
    0.00000E+00         0.00000E+00         0.34917E+07
 
    0.12808E+08        -0.14770E+07         0.00000E+00
   -0.14770E+07         0.37591E+07         0.00000E+00
    0.00000E+00         0.00000E+00         0.33134E+07
 
    0.11847E+08        -0.17173E+07         0.00000E+00
   -0.17173E+07         0.38211E+07         0.00000E+00
    0.00000E+00         0.00000E+00         0.31335E+07
 
    0.10867E+08        -0.17636E+07         0.00000E+00
   -0.17636E+07         0.39031E+07         0.00000E+00
    0.00000E+00         0.00000E+00         0.29540E+07
 
    0.98740E+07        -0.16154E+07         0.00000E+00
   -0.16154E+07         0.40082E+07         0.00000E+00
    0.00000E+00         0.00000E+00         0.27764E+07
 
    0.88740E+07        -0.12710E+07         0.00000E+00
   -0.12710E+07         0.41379E+07         0.00000E+00
    0.00000E+00         0.00000E+00         0.26024E+07
 
    0.78750E+07        -0.72997E+06         0.00000E+00
   -0.72997E+06         0.42929E+07         0.00000E+00
    0.00000E+00         0.00000E+00         0.24336E+07
 
    0.68857E+07         0.66849E+04         0.00000E+00
    0.66849E+04         0.44733E+07         0.00000E+00
    0.00000E+00         0.00000E+00         0.22718E+07
 
    0.59158E+07         0.93672E+06         0.00000E+00
    0.93672E+06         0.46786E+07         0.00000E+00
    0.00000E+00         0.00000E+00         0.21189E+07
 
    0.49759E+07         0.20573E+07         0.00000E+00
    0.20573E+07         0.49078E+07         0.00000E+00
    0.00000E+00         0.00000E+00         0.19767E+07
 
    0.40785E+07         0.33648E+07         0.00000E+00
    0.33648E+07         0.51577E+07         0.00000E+00
    0.00000E+00         0.00000E+00         0.18473E+07
 
    0.32398E+07         0.48546E+07         0.00000E+00
    0.48546E+07         0.54221E+07         0.00000E+00
    0.00000E+00         0.00000E+00         0.17324E+07
 
    0.24795E+07         0.65185E+07         0.00000E+00
    0.65185E+07         0.56912E+07         0.00000E+00
    0.00000E+00         0.00000E+00         0.16342E+07
 
    0.18207E+07         0.83434E+07         0.00000E+00
    0.83434E+07         0.59519E+07         0.00000E+00
    0.00000E+00         0.00000E+00         0.15545E+07
 
    0.11190E+08        -0.38373E+06         0.00000E+00
   -0.38373E+06         0.96865E+06         0.00000E+00
    0.00000E+00         0.00000E+00         0.24317E+07
 
    0.10495E+08        -0.10022E+07         0.00000E+00
   -0.10022E+07         0.99776E+06         0.00000E+00
    0.00000E+00         0.00000E+00         0.22986E+07
 
    0.97576E+07        -0.14222E+07         0.00000E+00
   -0.14222E+07         0.10470E+07         0.00000E+00
    0.00000E+00         0.00000E+00         0.21609E+07
 
    0.89922E+07        -0.16456E+07         0.00000E+00
   -0.16456E+07         0.11126E+07         0.00000E+00
    0.00000E+00         0.00000E+00         0.20210E+07
 
    0.82080E+07        -0.16727E+07         0.00000E+00
   -0.16727E+07         0.11947E+07         0.00000E+00
    0.00000E+00         0.00000E+00         0.18806E+07
 
    0.74115E+07        -0.15032E+07         0.00000E+00
   -0.15032E+07         0.12947E+07         0.00000E+00
    0.00000E+00         0.00000E+00         0.17413E+07
 
    0.66087E+07        -0.11365E+07         0.00000E+00
   -0.11365E+07         0.14140E+07         0.00000E+00
    0.00000E+00         0.00000E+00         0.16045E+07
 
    0.58062E+07        -0.57274E+06         0.00000E+00
   -0.57274E+06         0.15530E+07         0.00000E+00
    0.00000E+00         0.00000E+00         0.14718E+07
 
    0.50115E+07         0.18634E+06         0.00000E+00
    0.18634E+06         0.17117E+07         0.00000E+00
    0.00000E+00         0.00000E+00         0.13446E+07
 
    0.42330E+07         0.11378E+07         0.00000E+00
    0.11378E+07         0.18892E+07         0.00000E+00
    0.00000E+00         0.00000E+00         0.12244E+07
 
    0.34805E+07         0.22775E+07         0.00000E+00
    0.22775E+07         0.20837E+07         0.00000E+00
    0.00000E+00         0.00000E+00         0.11128E+07
 
    0.27651E+07         0.35997E+07         0.00000E+00
    0.35997E+07         0.22914E+07         0.00000E+00
    0.00000E+00         0.00000E+00         0.10113E+07
 
    0.21007E+07         0.50966E+07         0.00000E+00
    0.50966E+07         0.25068E+07         0.00000E+00
    0.00000E+00         0.00000E+00         0.92151E+06
 
    0.15030E+07         0.67573E+07         0.00000E+00
    0.67573E+07         0.27218E+07         0.00000E+00
    0.00000E+00         0.00000E+00         0.84497E+06
 
    0.98958E+06         0.85667E+07         0.00000E+00
    0.85667E+07         0.29263E+07         0.00000E+00
    0.00000E+00         0.00000E+00         0.78317E+06
 
    0.77787E+07        -0.36766E+06         0.00000E+00
   -0.36766E+06        -0.17390E+07         0.00000E+00
    0.00000E+00         0.00000E+00         0.12079E+07
 
    0.72785E+07        -0.96356E+06         0.00000E+00
   -0.96356E+06        -0.17120E+07         0.00000E+00
    0.00000E+00         0.00000E+00         0.11133E+07
 
    0.67365E+07        -0.13677E+07         0.00000E+00
   -0.13677E+07        -0.16663E+07         0.00000E+00
    0.00000E+00         0.00000E+00         0.10140E+07
 
    0.61674E+07        -0.15768E+07         0.00000E+00
   -0.15768E+07        -0.16066E+07         0.00000E+00
    0.00000E+00         0.00000E+00         0.91215E+06
 
    0.55803E+07        -0.15890E+07         0.00000E+00
   -0.15890E+07        -0.15339E+07         0.00000E+00
    0.00000E+00         0.00000E+00         0.80928E+06
 
    0.49815E+07        -0.14033E+07         0.00000E+00
   -0.14033E+07        -0.14475E+07         0.00000E+00
    0.00000E+00         0.00000E+00         0.70679E+06
 
    0.43763E+07        -0.10194E+07         0.00000E+00
   -0.10194E+07        -0.13468E+07         0.00000E+00
    0.00000E+00         0.00000E+00         0.60590E+06
 
    0.37702E+07        -0.43827E+06         0.00000E+00
   -0.43827E+06        -0.12313E+07         0.00000E+00
    0.00000E+00         0.00000E+00         0.50779E+06
 
    0.31692E+07         0.33773E+06         0.00000E+00
    0.33773E+06        -0.11011E+07         0.00000E+00
    0.00000E+00         0.00000E+00         0.41362E+06
 
    0.25804E+07         0.13047E+07         0.00000E+00
    0.13047E+07        -0.95740E+06         0.00000E+00
    0.00000E+00         0.00000E+00         0.32459E+06
 
    0.20117E+07         0.24572E+07         0.00000E+00
    0.24572E+07        -0.80219E+06         0.00000E+00
    0.00000E+00         0.00000E+00         0.24190E+06
 
    0.14727E+07         0.37879E+07         0.00000E+00
    0.37879E+07        -0.63890E+06         0.00000E+00
    0.00000E+00         0.00000E+00         0.16676E+06
 
    0.97445E+06         0.52870E+07         0.00000E+00
    0.52870E+07        -0.47246E+06         0.00000E+00
    0.00000E+00         0.00000E+00         0.10040E+06
 
    0.52925E+06         0.69420E+07         0.00000E+00
    0.69420E+07        -0.30931E+06         0.00000E+00
    0.00000E+00         0.00000E+00         0.43990E+05
 
    0.15020E+06         0.87364E+07         0.00000E+00
    0.87364E+07        -0.15700E+06         0.00000E+00
    0.00000E+00         0.00000E+00        -0.13595E+04
 
    0.44080E+07        -0.35402E+06         0.00000E+00
   -0.35402E+06        -0.44338E+07         0.00000E+00
    0.00000E+00         0.00000E+00        -0.51609E+04
 
    0.40926E+07        -0.93058E+06         0.00000E+00
   -0.93058E+06        -0.44125E+07         0.00000E+00
    0.00000E+00         0.00000E+00        -0.63988E+05
 
    0.37423E+07        -0.13215E+07         0.00000E+00
   -0.13215E+07        -0.43767E+07         0.00000E+00
    0.00000E+00         0.00000E+00        -0.12689E+06
 
    0.33688E+07        -0.15195E+07         0.00000E+00
   -0.15195E+07        -0.43304E+07         0.00000E+00
    0.00000E+00         0.00000E+00        -0.19231E+06
 
    0.29795E+07        -0.15207E+07         0.00000E+00
   -0.15207E+07        -0.42745E+07         0.00000E+00
    0.00000E+00         0.00000E+00        -0.25900E+06
 
    0.25794E+07        -0.13231E+07         0.00000E+00
   -0.13231E+07        -0.42090E+07         0.00000E+00
    0.00000E+00         0.00000E+00        -0.32594E+06
 
    0.21723E+07        -0.92661E+06         0.00000E+00
   -0.92661E+06        -0.41333E+07         0.00000E+00
    0.00000E+00         0.00000E+00        -0.39220E+06
 
    0.17624E+07        -0.33273E+06         0.00000E+00
   -0.33273E+06        -0.40470E+07         0.00000E+00
    0.00000E+00         0.00000E+00        -0.45693E+06
 
    0.13540E+07         0.45543E+06         0.00000E+00
    0.45543E+06        -0.39504E+07         0.00000E+00
    0.00000E+00         0.00000E+00        -0.51928E+06
 
    0.95260E+06         0.14331E+07         0.00000E+00
    0.14331E+07        -0.38446E+07         0.00000E+00
    0.00000E+00         0.00000E+00        -0.57840E+06
 
    0.56443E+06         0.25938E+07         0.00000E+00
    0.25938E+07        -0.37315E+07         0.00000E+00
    0.00000E+00         0.00000E+00        -0.63341E+06
 
    0.19688E+06         0.39288E+07         0.00000E+00
    0.39288E+07        -0.36141E+07         0.00000E+00
    0.00000E+00         0.00000E+00        -0.68344E+06
 
   -0.14169E+06         0.54273E+07         0.00000E+00
    0.54273E+07        -0.34963E+07         0.00000E+00
    0.00000E+00         0.00000E+00        -0.72759E+06
 
   -0.44207E+06         0.70754E+07         0.00000E+00
    0.70754E+07        -0.33830E+07         0.00000E+00
    0.00000E+00         0.00000E+00        -0.76502E+06
 
   -0.69474E+06         0.88563E+07         0.00000E+00
    0.88563E+07        -0.32800E+07         0.00000E+00
    0.00000E+00         0.00000E+00        -0.79495E+06
 
    0.10720E+07        -0.34449E+06         0.00000E+00
   -0.34449E+06        -0.71154E+07         0.00000E+00
    0.00000E+00         0.00000E+00        -0.12087E+07
 
    0.93370E+06        -0.90770E+06         0.00000E+00
   -0.90770E+06        -0.71025E+07         0.00000E+00
    0.00000E+00         0.00000E+00        -0.12338E+07
 
    0.77162E+06        -0.12897E+07         0.00000E+00
   -0.12897E+07        -0.70811E+07         0.00000E+00
    0.00000E+00         0.00000E+00        -0.12619E+07
 
    0.59292E+06        -0.14804E+07         0.00000E+00
   -0.14804E+07        -0.70535E+07         0.00000E+00
    0.00000E+00         0.00000E+00        -0.12921E+07
 
    0.40184E+06        -0.14741E+07         0.00000E+00
   -0.14741E+07        -0.70203E+07         0.00000E+00
    0.00000E+00         0.00000E+00        -0.13237E+07
 
    0.20098E+06        -0.12684E+07         0.00000E+00
   -0.12684E+07        -0.69810E+07         0.00000E+00
    0.00000E+00         0.00000E+00        -0.13560E+07
 
   -0.76234E+04        -0.86329E+06         0.00000E+00
   -0.86329E+06        -0.69350E+07         0.00000E+00
    0.00000E+00         0.00000E+00        -0.13885E+07
 
   -0.22173E+06        -0.26063E+06         0.00000E+00
   -0.26063E+06        -0.68820E+07         0.00000E+00
    0.00000E+00         0.00000E+00        -0.14207E+07
 
   -0.43854E+06         0.53574E+06         0.00000E+00
    0.53574E+06        -0.68223E+07         0.00000E+00
    0.00000E+00         0.00000E+00        -0.14522E+07
 
   -0.65447E+06         0.15203E+07         0.00000E+00
    0.15203E+07        -0.67570E+07         0.00000E+00
    0.00000E+00         0.00000E+00        -0.14823E+07
 
   -0.86510E+06         0.26855E+07         0.00000E+00
    0.26855E+07        -0.66876E+07         0.00000E+00
    0.00000E+00         0.00000E+00        -0.15105E+07
 
   -0.10653E+07         0.40222E+07         0.00000E+00
    0.40222E+07        -0.66166E+07         0.00000E+00
    0.00000E+00         0.00000E+00        -0.15364E+07
 
   -0.12491E+07         0.55183E+07         0.00000E+00
    0.55183E+07        -0.65469E+07         0.00000E+00
    0.00000E+00         0.00000E+00        -0.15592E+07
 
   -0.14103E+07         0.71597E+07         0.00000E+00
    0.71597E+07        -0.64822E+07         0.00000E+00
    0.00000E+00         0.00000E+00        -0.15785E+07
 
   -0.15424E+07         0.89290E+07         0.00000E+00
    0.89290E+07        -0.64263E+07         0.00000E+00
    0.00000E+00         0.00000E+00        -0.15937E+07
 
   -0.22382E+07        -0.34023E+06         0.00000E+00
   -0.34023E+06        -0.97838E+07         0.00000E+00
    0.00000E+00         0.00000E+00        -0.24044E+07
 
   -0.22042E+07        -0.89797E+06         0.00000E+00
   -0.89797E+06        -0.97810E+07         0.00000E+00
    0.00000E+00         0.00000E+00        -0.23970E+07
 
   -0.21800E+07        -0.12765E+07         0.00000E+00
   -0.12765E+07        -0.97770E+07         0.00000E+00
    0.00000E+00         0.00000E+00        -0.23914E+07
 
   -0.21642E+07        -0.14640E+07         0.00000E+00
   -0.14640E+07        -0.97719E+07         0.00000E+00
    0.00000E+00         0.00000E+00        -0.23872E+07
 
   -0.21565E+07        -0.14539E+07         0.00000E+00
   -0.14539E+07        -0.97651E+07         0.00000E+00
    0.00000E+00         0.00000E+00        -0.23843E+07
 
   -0.21574E+07        -0.12435E+07         0.00000E+00
   -0.12435E+07        -0.97554E+07         0.00000E+00
    0.00000E+00         0.00000E+00        -0.23826E+07
 
   -0.21673E+07        -0.83288E+06         0.00000E+00
   -0.83288E+06        -0.97420E+07         0.00000E+00
    0.00000E+00         0.00000E+00        -0.23819E+07
 
   -0.21859E+07        -0.22473E+06         0.00000E+00
   -0.22473E+06        -0.97247E+07         0.00000E+00
    0.00000E+00         0.00000E+00        -0.23821E+07
 
   -0.22122E+07         0.57656E+06         0.00000E+00
    0.57656E+06        -0.97038E+07         0.00000E+00
    0.00000E+00         0.00000E+00        -0.23832E+07
 
   -0.22443E+07         0.15648E+07         0.00000E+00
    0.15648E+07        -0.96800E+07         0.00000E+00
    0.00000E+00         0.00000E+00        -0.23849E+07
 
   -0.22798E+07         0.27320E+07         0.00000E+00
    0.27320E+07        -0.96549E+07         0.00000E+00
    0.00000E+00         0.00000E+00        -0.23870E+07
 
   -0.23157E+07         0.40682E+07         0.00000E+00
    0.40682E+07        -0.96302E+07         0.00000E+00
    0.00000E+00         0.00000E+00        -0.23892E+07
 
   -0.23484E+07         0.55613E+07         0.00000E+00
    0.55613E+07        -0.96081E+07         0.00000E+00
    0.00000E+00         0.00000E+00        -0.23913E+07
 
   -0.23743E+07         0.71966E+07         0.00000E+00
    0.71966E+07        -0.95907E+07         0.00000E+00
    0.00000E+00         0.00000E+00        -0.23930E+07
 
   -0.23897E+07         0.89567E+07         0.00000E+00
    0.89567E+07        -0.95805E+07         0.00000E+00
    0.00000E+00         0.00000E+00        -0.23940E+07
 
   -0.55333E+07        -0.34197E+06         0.00000E+00
   -0.34197E+06        -0.12439E+08         0.00000E+00
    0.00000E+00         0.00000E+00        -0.35945E+07
 
   -0.53284E+07        -0.90332E+06         0.00000E+00
   -0.90332E+06        -0.12448E+08         0.00000E+00
    0.00000E+00         0.00000E+00        -0.35552E+07
 
   -0.51180E+07        -0.12846E+07         0.00000E+00
   -0.12846E+07        -0.12463E+08         0.00000E+00
    0.00000E+00         0.00000E+00        -0.35162E+07
 
   -0.49067E+07        -0.14733E+07         0.00000E+00
   -0.14733E+07        -0.12482E+08         0.00000E+00
    0.00000E+00         0.00000E+00        -0.34778E+07
 
   -0.46991E+07        -0.14627E+07         0.00000E+00
   -0.14627E+07        -0.12504E+08         0.00000E+00
    0.00000E+00         0.00000E+00        -0.34405E+07
 
   -0.44992E+07        -0.12503E+07         0.00000E+00
   -0.12503E+07        -0.12525E+08         0.00000E+00
    0.00000E+00         0.00000E+00        -0.34048E+07
 
   -0.43100E+07        -0.83701E+06         0.00000E+00
   -0.83701E+06        -0.12545E+08         0.00000E+00
    0.00000E+00         0.00000E+00        -0.33711E+07
 
   -0.41335E+07        -0.22614E+06         0.00000E+00
   -0.22614E+06        -0.12564E+08         0.00000E+00
    0.00000E+00         0.00000E+00        -0.33395E+07
 
   -0.39702E+07         0.57727E+06         0.00000E+00
    0.57727E+06        -0.12582E+08         0.00000E+00
    0.00000E+00         0.00000E+00        -0.33104E+07
 
   -0.38201E+07         0.15665E+07         0.00000E+00
    0.15665E+07        -0.12600E+08         0.00000E+00
    0.00000E+00         0.00000E+00        -0.32840E+07
 
   -0.36823E+07         0.27333E+07         0.00000E+00
    0.27333E+07        -0.12618E+08         0.00000E+00
    0.00000E+00         0.00000E+00        -0.32602E+07
 
   -0.35559E+07         0.40676E+07         0.00000E+00
    0.40676E+07        -0.12640E+08         0.00000E+00
    0.00000E+00         0.00000E+00        -0.32391E+07
 
   -0.34397E+07         0.55571E+07         0.00000E+00
    0.55571E+07        -0.12664E+08         0.00000E+00
    0.00000E+00         0.00000E+00        -0.32208E+07
 
   -0.33328E+07         0.71873E+07         0.00000E+00
    0.71873E+07        -0.12693E+08         0.00000E+00
    0.00000E+00         0.00000E+00        -0.32052E+07
 
   -0.32340E+07         0.89407E+07         0.00000E+00
    0.89407E+07        -0.12728E+08         0.00000E+00
    0.00000E+00         0.00000E+00        -0.31923E+07
 
   -0.88252E+07        -0.35011E+06         0.00000E+00
   -0.35011E+06        -0.15082E+08         0.00000E+00
    0.00000E+00         0.00000E+00        -0.47815E+07
 
   -0.84474E+07        -0.92473E+06         0.00000E+00
   -0.92473E+06        -0.15102E+08         0.00000E+00
    0.00000E+00         0.00000E+00        -0.47099E+07
 
   -0.80482E+07        -0.13152E+07         0.00000E+00
   -0.13152E+07        -0.15137E+08         0.00000E+00
    0.00000E+00         0.00000E+00        -0.46370E+07
 
   -0.76389E+07        -0.15093E+07         0.00000E+00
   -0.15093E+07        -0.15181E+08         0.00000E+00
    0.00000E+00         0.00000E+00        -0.45640E+07
 
   -0.72293E+07        -0.15010E+07         0.00000E+00
   -0.15010E+07        -0.15231E+08         0.00000E+00
    0.00000E+00         0.00000E+00        -0.44921E+07
 
   -0.68274E+07        -0.12890E+07         0.00000E+00
   -0.12890E+07        -0.15283E+08         0.00000E+00
    0.00000E+00         0.00000E+00        -0.44221E+07
 
   -0.64390E+07        -0.87536E+06         0.00000E+00
   -0.87536E+06        -0.15336E+08         0.00000E+00
    0.00000E+00         0.00000E+00        -0.43550E+07
 
   -0.60677E+07        -0.26415E+06         0.00000E+00
   -0.26415E+06        -0.15390E+08         0.00000E+00
    0.00000E+00         0.00000E+00        -0.42915E+07
 
   -0.57159E+07         0.53879E+06         0.00000E+00
    0.53879E+06        -0.15445E+08         0.00000E+00
    0.00000E+00         0.00000E+00        -0.42321E+07
 
   -0.53848E+07         0.15264E+07         0.00000E+00
    0.15264E+07        -0.15502E+08         0.00000E+00
    0.00000E+00         0.00000E+00        -0.41774E+07
 
   -0.50751E+07         0.26905E+07         0.00000E+00
    0.26905E+07        -0.15563E+08         0.00000E+00
    0.00000E+00         0.00000E+00        -0.41277E+07
 
   -0.47876E+07         0.40211E+07         0.00000E+00
    0.40211E+07        -0.15629E+08         0.00000E+00
    0.00000E+00         0.00000E+00        -0.40833E+07
 
   -0.45235E+07         0.55065E+07         0.00000E+00
    0.55065E+07        -0.15699E+08         0.00000E+00
    0.00000E+00         0.00000E+00        -0.40446E+07
 
   -0.42845E+07         0.71324E+07         0.00000E+00
    0.71324E+07        -0.15774E+08         0.00000E+00
    0.00000E+00         0.00000E+00        -0.40118E+07
 
   -0.40724E+07         0.88816E+07         0.00000E+00
    0.88816E+07        -0.15853E+08         0.00000E+00
    0.00000E+00         0.00000E+00        -0.39851E+07
 
   -0.12127E+08        -0.36473E+06         0.00000E+00
   -0.36473E+06        -0.17713E+08         0.00000E+00
    0.00000E+00         0.00000E+00        -0.59680E+07
 
   -0.11570E+08        -0.96227E+06         0.00000E+00
   -0.96227E+06        -0.17745E+08         0.00000E+00
    0.00000E+00         0.00000E+00        -0.58629E+07
 
   -0.10976E+08        -0.13680E+07         0.00000E+00
   -0.13680E+07        -0.17799E+08         0.00000E+00
    0.00000E+00         0.00000E+00        -0.57550E+07
 
   -0.10365E+08        -0.15712E+07         0.00000E+00
   -0.15712E+07        -0.17867E+08         0.00000E+00
    0.00000E+00         0.00000E+00        -0.56463E+07
 
   -0.97502E+07        -0.15676E+07         0.00000E+00
   -0.15676E+07        -0.17943E+08         0.00000E+00
    0.00000E+00         0.00000E+00        -0.55386E+07
 
   -0.91449E+07        -0.13579E+07         0.00000E+00
   -0.13579E+07        -0.18023E+08         0.00000E+00
    0.00000E+00         0.00000E+00        -0.54335E+07
 
   -0.85569E+07        -0.94554E+06         0.00000E+00
   -0.94554E+06        -0.18105E+08         0.00000E+00
    0.00000E+00         0.00000E+00        -0.53324E+07
 
   -0.79917E+07        -0.33619E+06         0.00000E+00
   -0.33619E+06        -0.18190E+08         0.00000E+00
    0.00000E+00         0.00000E+00        -0.52364E+07
 
   -0.74526E+07         0.46366E+06         0.00000E+00
    0.46366E+06        -0.18279E+08         0.00000E+00
    0.00000E+00         0.00000E+00        -0.51463E+07
 
   -0.69417E+07         0.14468E+07         0.00000E+00
    0.14468E+07        -0.18373E+08         0.00000E+00
    0.00000E+00         0.00000E+00        -0.50630E+07
 
   -0.64610E+07         0.26053E+07         0.00000E+00
    0.26053E+07        -0.18474E+08         0.00000E+00
    0.00000E+00         0.00000E+00        -0.49870E+07
 
   -0.60128E+07         0.39300E+07         0.00000E+00
    0.39300E+07        -0.18583E+08         0.00000E+00
    0.00000E+00         0.00000E+00        -0.49191E+07
 
   -0.56005E+07         0.54102E+07         0.00000E+00
    0.54102E+07        -0.18698E+08         0.00000E+00
    0.00000E+00         0.00000E+00        -0.48597E+07
 
   -0.52285E+07         0.70323E+07         0.00000E+00
    0.70323E+07        -0.18819E+08         0.00000E+00
    0.00000E+00         0.00000E+00        -0.48095E+07
 
   -0.49021E+07         0.87796E+07         0.00000E+00
    0.87796E+07        -0.18942E+08         0.00000E+00
    0.00000E+00         0.00000E+00        -0.47688E+07
 
   -0.15450E+08        -0.38568E+06         0.00000E+00
   -0.38568E+06        -0.20334E+08         0.00000E+00
    0.00000E+00         0.00000E+00        -0.71567E+07
 
   -0.14704E+08        -0.10152E+07         0.00000E+00
   -0.10152E+07        -0.20376E+08         0.00000E+00
    0.00000E+00         0.00000E+00        -0.70159E+07
 
   -0.13907E+08        -0.14416E+07         0.00000E+00
   -0.14416E+07        -0.20447E+08         0.00000E+00
    0.00000E+00         0.00000E+00        -0.68709E+07
 
   -0.13087E+08        -0.16566E+07         0.00000E+00
   -0.16566E+07        -0.20536E+08         0.00000E+00
    0.00000E+00         0.00000E+00        -0.67247E+07
 
   -0.12264E+08        -0.16591E+07         0.00000E+00
   -0.16591E+07        -0.20635E+08         0.00000E+00
    0.00000E+00         0.00000E+00        -0.65797E+07
 
   -0.11454E+08        -0.14525E+07         0.00000E+00
   -0.14525E+07        -0.20738E+08         0.00000E+00
    0.00000E+00         0.00000E+00        -0.64382E+07
 
   -0.10666E+08        -0.10429E+07         0.00000E+00
   -0.10429E+07        -0.20844E+08         0.00000E+00
    0.00000E+00         0.00000E+00        -0.63020E+07
 
   -0.99087E+07        -0.43757E+06         0.00000E+00
   -0.43757E+06        -0.20954E+08         0.00000E+00
    0.00000E+00         0.00000E+00        -0.61726E+07
 
   -0.91841E+07         0.35617E+06         0.00000E+00
    0.35617E+06        -0.21071E+08         0.00000E+00
    0.00000E+00         0.00000E+00        -0.60511E+07
 
   -0.84951E+07         0.13311E+07         0.00000E+00
    0.13311E+07        -0.21197E+08         0.00000E+00
    0.00000E+00         0.00000E+00        -0.59385E+07
 
   -0.78440E+07         0.24802E+07         0.00000E+00
    0.24802E+07        -0.21335E+08         0.00000E+00
    0.00000E+00         0.00000E+00        -0.58358E+07
 
   -0.72345E+07         0.37957E+07         0.00000E+00
    0.37957E+07        -0.21484E+08         0.00000E+00
    0.00000E+00         0.00000E+00        -0.57437E+07
 
   -0.66721E+07         0.52685E+07         0.00000E+00
    0.52685E+07        -0.21644E+08         0.00000E+00
    0.00000E+00         0.00000E+00        -0.56631E+07
 
   -0.61644E+07         0.68865E+07         0.00000E+00
    0.68865E+07        -0.21810E+08         0.00000E+00
    0.00000E+00         0.00000E+00        -0.55949E+07
 
   -0.57205E+07         0.86340E+07         0.00000E+00
    0.86340E+07        -0.21979E+08         0.00000E+00
    0.00000E+00         0.00000E+00        -0.55399E+07
 
   -0.18807E+08        -0.41253E+06         0.00000E+00
   -0.41253E+06        -0.22944E+08         0.00000E+00
    0.00000E+00         0.00000E+00        -0.83502E+07
 
   -0.17857E+08        -0.10821E+07         0.00000E+00
   -0.10821E+07        -0.22996E+08         0.00000E+00
    0.00000E+00         0.00000E+00        -0.81705E+07
 
   -0.16846E+08        -0.15329E+07         0.00000E+00
   -0.15329E+07        -0.23082E+08         0.00000E+00
    0.00000E+00         0.00000E+00        -0.79855E+07
 
   -0.15809E+08        -0.17610E+07         0.00000E+00
   -0.17610E+07        -0.23187E+08         0.00000E+00
    0.00000E+00         0.00000E+00        -0.77992E+07
 
   -0.14772E+08        -0.17696E+07         0.00000E+00
   -0.17696E+07        -0.23301E+08         0.00000E+00
    0.00000E+00         0.00000E+00        -0.76148E+07
 
   -0.13756E+08        -0.15663E+07         0.00000E+00
   -0.15663E+07        -0.23420E+08         0.00000E+00
    0.00000E+00         0.00000E+00        -0.74351E+07
 
   -0.12770E+08        -0.11604E+07         0.00000E+00
   -0.11604E+07        -0.23542E+08         0.00000E+00
    0.00000E+00         0.00000E+00        -0.72624E+07
 
   -0.11822E+08        -0.56136E+06         0.00000E+00
   -0.56136E+06        -0.23669E+08         0.00000E+00
    0.00000E+00         0.00000E+00        -0.70983E+07
 
   -0.10915E+08         0.22250E+06         0.00000E+00
    0.22250E+06        -0.23807E+08         0.00000E+00
    0.00000E+00         0.00000E+00        -0.69444E+07
 
   -0.10050E+08         0.11844E+07         0.00000E+00
    0.11844E+07        -0.23958E+08         0.00000E+00
    0.00000E+00         0.00000E+00        -0.68017E+07
 
   -0.92294E+07         0.23187E+07         0.00000E+00
    0.23187E+07        -0.24128E+08         0.00000E+00
    0.00000E+00         0.00000E+00        -0.66714E+07
 
   -0.84573E+07         0.36199E+07         0.00000E+00
    0.36199E+07        -0.24315E+08         0.00000E+00
    0.00000E+00         0.00000E+00        -0.65544E+07
 
   -0.77414E+07         0.50814E+07         0.00000E+00
    0.50814E+07        -0.24518E+08         0.00000E+00
    0.00000E+00         0.00000E+00        -0.64518E+07
 
   -0.70927E+07         0.66937E+07         0.00000E+00
    0.66937E+07        -0.24731E+08         0.00000E+00
    0.00000E+00         0.00000E+00        -0.63648E+07
 
   -0.65253E+07         0.84428E+07         0.00000E+00
    0.84428E+07        -0.24948E+08         0.00000E+00
    0.00000E+00         0.00000E+00        -0.62946E+07
 
   -0.22209E+08        -0.44466E+06         0.00000E+00
   -0.44466E+06        -0.25545E+08         0.00000E+00
    0.00000E+00         0.00000E+00        -0.95509E+07
 
   -0.21035E+08        -0.11606E+07         0.00000E+00
   -0.11606E+07        -0.25604E+08         0.00000E+00
    0.00000E+00         0.00000E+00        -0.93278E+07
 
   -0.19794E+08        -0.16377E+07         0.00000E+00
   -0.16377E+07        -0.25701E+08         0.00000E+00
    0.00000E+00         0.00000E+00        -0.90990E+07
 
   -0.18530E+08        -0.18780E+07         0.00000E+00
   -0.18780E+07        -0.25817E+08         0.00000E+00
    0.00000E+00         0.00000E+00        -0.88693E+07
 
   -0.17275E+08        -0.18909E+07         0.00000E+00
   -0.18909E+07        -0.25938E+08         0.00000E+00
    0.00000E+00         0.00000E+00        -0.86427E+07
 
   -0.16052E+08        -0.16896E+07         0.00000E+00
   -0.16896E+07        -0.26062E+08         0.00000E+00
    0.00000E+00         0.00000E+00        -0.84227E+07
 
   -0.14871E+08        -0.12880E+07         0.00000E+00
   -0.12880E+07        -0.26188E+08         0.00000E+00
    0.00000E+00         0.00000E+00        -0.82117E+07
 
   -0.13737E+08        -0.69810E+06         0.00000E+00
   -0.69810E+06        -0.26321E+08         0.00000E+00
    0.00000E+00         0.00000E+00        -0.80117E+07
 
   -0.12652E+08         0.70944E+05         0.00000E+00
    0.70944E+05        -0.26469E+08         0.00000E+00
    0.00000E+00         0.00000E+00        -0.78242E+07
 
   -0.11614E+08         0.10131E+07         0.00000E+00
    0.10131E+07        -0.26638E+08         0.00000E+00
    0.00000E+00         0.00000E+00        -0.76505E+07
 
   -0.10625E+08         0.21249E+07         0.00000E+00
    0.21249E+07        -0.26833E+08         0.00000E+00
    0.00000E+00         0.00000E+00        -0.74915E+07
 
   -0.96877E+07         0.34042E+07         0.00000E+00
    0.34042E+07        -0.27055E+08         0.00000E+00
    0.00000E+00         0.00000E+00        -0.73485E+07
 
   -0.88129E+07         0.48483E+07         0.00000E+00
    0.48483E+07        -0.27301E+08         0.00000E+00
    0.00000E+00         0.00000E+00        -0.72227E+07
 
   -0.80151E+07         0.64516E+07         0.00000E+00
    0.64516E+07        -0.27564E+08         0.00000E+00
    0.00000E+00         0.00000E+00        -0.71157E+07
 
   -0.73145E+07         0.82028E+07         0.00000E+00
    0.82028E+07        -0.27831E+08         0.00000E+00
    0.00000E+00         0.00000E+00        -0.70292E+07
 
   -0.25666E+08        -0.48122E+06         0.00000E+00
   -0.48122E+06        -0.28138E+08         0.00000E+00
    0.00000E+00         0.00000E+00        -0.10761E+08
 
   -0.24241E+08        -0.12474E+07         0.00000E+00
   -0.12474E+07        -0.28203E+08         0.00000E+00
    0.00000E+00         0.00000E+00        -0.10489E+08
 
   -0.22751E+08        -0.17496E+07         0.00000E+00
   -0.17496E+07        -0.28305E+08         0.00000E+00
    0.00000E+00         0.00000E+00        -0.10211E+08
 
   -0.21249E+08        -0.19982E+07         0.00000E+00
   -0.19982E+07        -0.28421E+08         0.00000E+00
    0.00000E+00         0.00000E+00        -0.99340E+07
 
   -0.19772E+08        -0.20114E+07         0.00000E+00
   -0.20114E+07        -0.28538E+08         0.00000E+00
    0.00000E+00         0.00000E+00        -0.96620E+07
 
   -0.18342E+08        -0.18098E+07         0.00000E+00
   -0.18098E+07        -0.28652E+08         0.00000E+00
    0.00000E+00         0.00000E+00        -0.93990E+07
 
   -0.16971E+08        -0.14129E+07         0.00000E+00
   -0.14129E+07        -0.28768E+08         0.00000E+00
    0.00000E+00         0.00000E+00        -0.91479E+07
 
   -0.15659E+08        -0.83562E+06         0.00000E+00
   -0.83562E+06        -0.28894E+08         0.00000E+00
    0.00000E+00         0.00000E+00        -0.89106E+07
 
   -0.14402E+08        -0.88030E+05         0.00000E+00
   -0.88030E+05        -0.29040E+08         0.00000E+00
    0.00000E+00         0.00000E+00        -0.86884E+07
 
   -0.13197E+08         0.82523E+06         0.00000E+00
    0.82523E+06        -0.29215E+08         0.00000E+00
    0.00000E+00         0.00000E+00        -0.84824E+07
 
   -0.12040E+08         0.19039E+07         0.00000E+00
    0.19039E+07        -0.29428E+08         0.00000E+00
    0.00000E+00         0.00000E+00        -0.82937E+07
 
   -0.10936E+08         0.31505E+07         0.00000E+00
    0.31505E+07        -0.29681E+08         0.00000E+00
    0.00000E+00         0.00000E+00        -0.81234E+07
 
   -0.98940E+07         0.45679E+07         0.00000E+00
    0.45679E+07        -0.29971E+08         0.00000E+00
    0.00000E+00         0.00000E+00        -0.79730E+07
 
   -0.89351E+07         0.61561E+07         0.00000E+00
    0.61561E+07        -0.30286E+08         0.00000E+00
    0.00000E+00         0.00000E+00        -0.78443E+07
 
   -0.80864E+07         0.79084E+07         0.00000E+00
    0.79084E+07        -0.30612E+08         0.00000E+00
    0.00000E+00         0.00000E+00        -0.77396E+07
 
   -0.29184E+08        -0.52119E+06         0.00000E+00
   -0.52119E+06        -0.30724E+08         0.00000E+00
    0.00000E+00         0.00000E+00        -0.11981E+08
 
   -0.27477E+08        -0.13382E+07         0.00000E+00
   -0.13382E+07        -0.30791E+08         0.00000E+00
    0.00000E+00         0.00000E+00        -0.11654E+08
 
   -0.25715E+08        -0.18603E+07         0.00000E+00
   -0.18603E+07        -0.30891E+08         0.00000E+00
    0.00000E+00         0.00000E+00        -0.11321E+08
 
   -0.23961E+08        -0.21095E+07         0.00000E+00
   -0.21095E+07        -0.30996E+08         0.00000E+00
    0.00000E+00         0.00000E+00        -0.10991E+08
 
   -0.22258E+08        -0.21160E+07         0.00000E+00
   -0.21160E+07        -0.31093E+08         0.00000E+00
    0.00000E+00         0.00000E+00        -0.10670E+08
 
   -0.20627E+08        -0.19105E+07         0.00000E+00
   -0.19105E+07        -0.31180E+08         0.00000E+00
    0.00000E+00         0.00000E+00        -0.10361E+08
 
   -0.19075E+08        -0.15187E+07         0.00000E+00
   -0.15187E+07        -0.31267E+08         0.00000E+00
    0.00000E+00         0.00000E+00        -0.10068E+08
 
   -0.17595E+08        -0.95904E+06         0.00000E+00
   -0.95904E+06        -0.31368E+08         0.00000E+00
    0.00000E+00         0.00000E+00        -0.97925E+07
 
   -0.16177E+08        -0.24176E+06         0.00000E+00
   -0.24176E+06        -0.31496E+08         0.00000E+00
    0.00000E+00         0.00000E+00        -0.95346E+07
 
   -0.14811E+08         0.63050E+06         0.00000E+00
    0.63050E+06        -0.31667E+08         0.00000E+00
    0.00000E+00         0.00000E+00        -0.92955E+07
 
   -0.13490E+08         0.16616E+07         0.00000E+00
    0.16616E+07        -0.31890E+08         0.00000E+00
    0.00000E+00         0.00000E+00        -0.90759E+07
 
   -0.12214E+08         0.28604E+07         0.00000E+00
    0.28604E+07        -0.32170E+08         0.00000E+00
    0.00000E+00         0.00000E+00        -0.88768E+07
 
   -0.10996E+08         0.42373E+07         0.00000E+00
    0.42373E+07        -0.32503E+08         0.00000E+00
    0.00000E+00         0.00000E+00        -0.86998E+07
 
   -0.98586E+07         0.58009E+07         0.00000E+00
    0.58009E+07        -0.32877E+08         0.00000E+00
    0.00000E+00         0.00000E+00        -0.85472E+07
 
   -0.88404E+07         0.75514E+07         0.00000E+00
    0.75514E+07        -0.33269E+08         0.00000E+00
    0.00000E+00         0.00000E+00        -0.84218E+07
 
   -0.32767E+08        -0.56328E+06         0.00000E+00
   -0.56328E+06        -0.33304E+08         0.00000E+00
    0.00000E+00         0.00000E+00        -0.13214E+08
 
   -0.30738E+08        -0.14274E+07         0.00000E+00
   -0.14274E+07        -0.33370E+08         0.00000E+00
    0.00000E+00         0.00000E+00        -0.12822E+08
 
   -0.28675E+08        -0.19581E+07         0.00000E+00
   -0.19581E+07        -0.33457E+08         0.00000E+00
    0.00000E+00         0.00000E+00        -0.12426E+08
 
   -0.26657E+08        -0.21951E+07         0.00000E+00
   -0.21951E+07        -0.33534E+08         0.00000E+00
    0.00000E+00         0.00000E+00        -0.12038E+08
 
   -0.24728E+08        -0.21852E+07         0.00000E+00
   -0.21852E+07        -0.33589E+08         0.00000E+00
    0.00000E+00         0.00000E+00        -0.11664E+08
 
   -0.22906E+08        -0.19713E+07         0.00000E+00
   -0.19713E+07        -0.33628E+08         0.00000E+00
    0.00000E+00         0.00000E+00        -0.11307E+08
 
   -0.21186E+08        -0.15863E+07         0.00000E+00
   -0.15863E+07        -0.33665E+08         0.00000E+00
    0.00000E+00         0.00000E+00        -0.10970E+08
 
   -0.19553E+08        -0.10511E+07         0.00000E+00
   -0.10511E+07        -0.33720E+08         0.00000E+00
    0.00000E+00         0.00000E+00        -0.10655E+08
 
   -0.17988E+08        -0.37569E+06         0.00000E+00
   -0.37569E+06        -0.33815E+08         0.00000E+00
    0.00000E+00         0.00000E+00        -0.10361E+08
 
   -0.16472E+08         0.44002E+06         0.00000E+00
    0.44002E+06        -0.33967E+08         0.00000E+00
    0.00000E+00         0.00000E+00        -0.10088E+08
 
   -0.14991E+08         0.14050E+07         0.00000E+00
    0.14050E+07        -0.34190E+08         0.00000E+00
    0.00000E+00         0.00000E+00        -0.98364E+07
 
   -0.13542E+08         0.25355E+07         0.00000E+00
    0.25355E+07        -0.34493E+08         0.00000E+00
    0.00000E+00         0.00000E+00        -0.96069E+07
 
   -0.12133E+08         0.38527E+07         0.00000E+00
    0.38527E+07        -0.34872E+08         0.00000E+00
    0.00000E+00         0.00000E+00        -0.94010E+07
 
   -0.10795E+08         0.53768E+07         0.00000E+00
    0.53768E+07        -0.35311E+08         0.00000E+00
    0.00000E+00         0.00000E+00        -0.92214E+07
 
   -0.95771E+07         0.71195E+07         0.00000E+00
    0.71195E+07        -0.35782E+08         0.00000E+00
    0.00000E+00         0.00000E+00        -0.90719E+07
 
   -0.36416E+08        -0.60594E+06         0.00000E+00
   -0.60594E+06        -0.35879E+08         0.00000E+00
    0.00000E+00         0.00000E+00        -0.14459E+08
 
   -0.34012E+08        -0.15065E+07         0.00000E+00
   -0.15065E+07        -0.35938E+08         0.00000E+00
    0.00000E+00         0.00000E+00        -0.13990E+08
 
   -0.31617E+08        -0.20265E+07         0.00000E+00
   -0.20265E+07        -0.35998E+08         0.00000E+00
    0.00000E+00         0.00000E+00        -0.13523E+08
 
   -0.29325E+08        -0.22325E+07         0.00000E+00
   -0.22325E+07        -0.36023E+08         0.00000E+00
    0.00000E+00         0.00000E+00        -0.13070E+08
 
   -0.27177E+08        -0.21941E+07         0.00000E+00
   -0.21941E+07        -0.36009E+08         0.00000E+00
    0.00000E+00         0.00000E+00        -0.12637E+08
 
   -0.25178E+08        -0.19683E+07         0.00000E+00
   -0.19683E+07        -0.35971E+08         0.00000E+00
    0.00000E+00         0.00000E+00        -0.12230E+08
 
   -0.23311E+08        -0.15939E+07         0.00000E+00
   -0.15939E+07        -0.35935E+08         0.00000E+00
    0.00000E+00         0.00000E+00        -0.11849E+08
 
   -0.21546E+08        -0.10931E+07         0.00000E+00
   -0.10931E+07        -0.35925E+08         0.00000E+00
    0.00000E+00         0.00000E+00        -0.11494E+08
 
   -0.19853E+08        -0.47422E+06         0.00000E+00
   -0.47422E+06        -0.35969E+08         0.00000E+00
    0.00000E+00         0.00000E+00        -0.11164E+08
 
   -0.18201E+08         0.26608E+06         0.00000E+00
    0.26608E+06        -0.36088E+08         0.00000E+00
    0.00000E+00         0.00000E+00        -0.10858E+08
 
   -0.16569E+08         0.11419E+07         0.00000E+00
    0.11419E+07        -0.36301E+08         0.00000E+00
    0.00000E+00         0.00000E+00        -0.10574E+08
 
   -0.14943E+08         0.21780E+07         0.00000E+00
    0.21780E+07        -0.36619E+08         0.00000E+00
    0.00000E+00         0.00000E+00        -0.10313E+08
 
   -0.13330E+08         0.34085E+07         0.00000E+00
    0.34085E+07        -0.37045E+08         0.00000E+00
    0.00000E+00         0.00000E+00        -0.10075E+08
 
   -0.11760E+08         0.48709E+07         0.00000E+00
    0.48709E+07        -0.37562E+08         0.00000E+00
    0.00000E+00         0.00000E+00        -0.98645E+07
 
   -0.10299E+08         0.65950E+07         0.00000E+00
    0.65950E+07        -0.38130E+08         0.00000E+00
    0.00000E+00         0.00000E+00        -0.96859E+07
 
   -0.40126E+08        -0.64704E+06         0.00000E+00
   -0.64704E+06        -0.38450E+08         0.00000E+00
    0.00000E+00         0.00000E+00        -0.15715E+08
 
   -0.37279E+08        -0.15626E+07         0.00000E+00
   -0.15626E+07        -0.38492E+08         0.00000E+00
    0.00000E+00         0.00000E+00        -0.15154E+08
 
   -0.34518E+08        -0.20407E+07         0.00000E+00
   -0.20407E+07        -0.38500E+08         0.00000E+00
    0.00000E+00         0.00000E+00        -0.14604E+08
 
   -0.31948E+08        -0.21906E+07         0.00000E+00
   -0.21906E+07        -0.38440E+08         0.00000E+00
    0.00000E+00         0.00000E+00        -0.14078E+08
 
   -0.29598E+08        -0.21121E+07         0.00000E+00
   -0.21121E+07        -0.38322E+08         0.00000E+00
    0.00000E+00         0.00000E+00        -0.13584E+08
 
   -0.27449E+08        -0.18749E+07         0.00000E+00
   -0.18749E+07        -0.38178E+08         0.00000E+00
    0.00000E+00         0.00000E+00        -0.13125E+08
 
   -0.25461E+08        -0.15200E+07         0.00000E+00
   -0.15200E+07        -0.38044E+08         0.00000E+00
    0.00000E+00         0.00000E+00        -0.12701E+08
 
   -0.23589E+08        -0.10674E+07         0.00000E+00
   -0.10674E+07        -0.37951E+08         0.00000E+00
    0.00000E+00         0.00000E+00        -0.12308E+08
 
   -0.21789E+08        -0.52235E+06         0.00000E+00
   -0.52235E+06        -0.37928E+08         0.00000E+00
    0.00000E+00         0.00000E+00        -0.11944E+08
 
   -0.20021E+08         0.12134E+06         0.00000E+00
    0.12134E+06        -0.38001E+08         0.00000E+00
    0.00000E+00         0.00000E+00        -0.11605E+08
 
   -0.18250E+08         0.88178E+06         0.00000E+00
    0.88178E+06        -0.38192E+08         0.00000E+00
    0.00000E+00         0.00000E+00        -0.11288E+08
 
   -0.16450E+08         0.17913E+07         0.00000E+00
    0.17913E+07        -0.38520E+08         0.00000E+00
    0.00000E+00         0.00000E+00        -0.10994E+08
 
   -0.14616E+08         0.28986E+07         0.00000E+00
    0.28986E+07        -0.38993E+08         0.00000E+00
    0.00000E+00         0.00000E+00        -0.10722E+08
 
   -0.12777E+08         0.42659E+07         0.00000E+00
    0.42659E+07        -0.39599E+08         0.00000E+00
    0.00000E+00         0.00000E+00        -0.10475E+08
 
   -0.11012E+08         0.59522E+07         0.00000E+00
    0.59522E+07        -0.40290E+08         0.00000E+00
    0.00000E+00         0.00000E+00        -0.10261E+08
 
   -0.43882E+08        -0.68305E+06         0.00000E+00
   -0.68305E+06        -0.41018E+08         0.00000E+00
    0.00000E+00         0.00000E+00        -0.16980E+08
 
   -0.40502E+08        -0.15729E+07         0.00000E+00
   -0.15729E+07        -0.41024E+08         0.00000E+00
    0.00000E+00         0.00000E+00        -0.16305E+08
 
   -0.37343E+08        -0.19608E+07         0.00000E+00
   -0.19608E+07        -0.40937E+08         0.00000E+00
    0.00000E+00         0.00000E+00        -0.15656E+08
 
   -0.34510E+08        -0.20271E+07         0.00000E+00
   -0.20271E+07        -0.40741E+08         0.00000E+00
    0.00000E+00         0.00000E+00        -0.15050E+08
 
   -0.31992E+08        -0.19045E+07         0.00000E+00
   -0.19045E+07        -0.40478E+08         0.00000E+00
    0.00000E+00         0.00000E+00        -0.14494E+08
 
   -0.29728E+08        -0.16661E+07         0.00000E+00
   -0.16661E+07        -0.40201E+08         0.00000E+00
    0.00000E+00         0.00000E+00        -0.13986E+08
 
   -0.27651E+08        -0.13467E+07         0.00000E+00
   -0.13467E+07        -0.39951E+08         0.00000E+00
    0.00000E+00         0.00000E+00        -0.13520E+08
 
   -0.25700E+08        -0.96030E+06         0.00000E+00
   -0.96030E+06        -0.39763E+08         0.00000E+00
    0.00000E+00         0.00000E+00        -0.13093E+08
 
   -0.23819E+08        -0.50837E+06         0.00000E+00
   -0.50837E+06        -0.39665E+08         0.00000E+00
    0.00000E+00         0.00000E+00        -0.12697E+08
 
   -0.21957E+08         0.17299E+05         0.00000E+00
    0.17299E+05        -0.39682E+08         0.00000E+00
    0.00000E+00         0.00000E+00        -0.12328E+08
 
   -0.20066E+08         0.63588E+06         0.00000E+00
    0.63588E+06        -0.39840E+08         0.00000E+00
    0.00000E+00         0.00000E+00        -0.11981E+08
 
   -0.18102E+08         0.13826E+07         0.00000E+00
    0.13826E+07        -0.40165E+08         0.00000E+00
    0.00000E+00         0.00000E+00        -0.11654E+08
 
   -0.16037E+08         0.23190E+07         0.00000E+00
    0.23190E+07        -0.40680E+08         0.00000E+00
    0.00000E+00         0.00000E+00        -0.11343E+08
 
   -0.13882E+08         0.35393E+07         0.00000E+00
    0.35393E+07        -0.41388E+08         0.00000E+00
    0.00000E+00         0.00000E+00        -0.11054E+08
 
   -0.11730E+08         0.51538E+07         0.00000E+00
    0.51538E+07        -0.42238E+08         0.00000E+00
    0.00000E+00         0.00000E+00        -0.10794E+08
 
   -0.47650E+08        -0.70580E+06         0.00000E+00
   -0.70580E+06        -0.43578E+08         0.00000E+00
    0.00000E+00         0.00000E+00        -0.18246E+08
 
   -0.43616E+08        -0.14895E+07         0.00000E+00
   -0.14895E+07        -0.43507E+08         0.00000E+00
    0.00000E+00         0.00000E+00        -0.17424E+08
 
   -0.40053E+08        -0.17213E+07         0.00000E+00
   -0.17213E+07        -0.43246E+08         0.00000E+00
    0.00000E+00         0.00000E+00        -0.16660E+08
 
   -0.37008E+08        -0.16906E+07         0.00000E+00
   -0.16906E+07        -0.42846E+08         0.00000E+00
    0.00000E+00         0.00000E+00        -0.15971E+08
 
   -0.34374E+08        -0.15411E+07         0.00000E+00
   -0.15411E+07        -0.42402E+08         0.00000E+00
    0.00000E+00         0.00000E+00        -0.15355E+08
 
   -0.32036E+08        -0.13262E+07         0.00000E+00
   -0.13262E+07        -0.41976E+08         0.00000E+00
    0.00000E+00         0.00000E+00        -0.14802E+08
 
   -0.29902E+08        -0.10663E+07         0.00000E+00
   -0.10663E+07        -0.41608E+08         0.00000E+00
    0.00000E+00         0.00000E+00        -0.14302E+08
 
   -0.27899E+08        -0.76731E+06         0.00000E+00
   -0.76731E+06        -0.41326E+08         0.00000E+00
    0.00000E+00         0.00000E+00        -0.13845E+08
 
   -0.25962E+08        -0.42752E+06         0.00000E+00
   -0.42752E+06        -0.41153E+08         0.00000E+00
    0.00000E+00         0.00000E+00        -0.13423E+08
 
   -0.24031E+08        -0.38622E+05         0.00000E+00
   -0.38622E+05        -0.41113E+08         0.00000E+00
    0.00000E+00         0.00000E+00        -0.13029E+08
 
   -0.22046E+08         0.41593E+06         0.00000E+00
    0.41593E+06        -0.41230E+08         0.00000E+00
    0.00000E+00         0.00000E+00        -0.12655E+08
 
   -0.19944E+08         0.96696E+06         0.00000E+00
    0.96696E+06        -0.41538E+08         0.00000E+00
    0.00000E+00         0.00000E+00        -0.12296E+08
 
   -0.17655E+08         0.16746E+07         0.00000E+00
    0.16746E+07        -0.42075E+08         0.00000E+00
    0.00000E+00         0.00000E+00        -0.11946E+08
 
   -0.15140E+08         0.26666E+07         0.00000E+00
    0.26666E+07        -0.42889E+08         0.00000E+00
    0.00000E+00         0.00000E+00        -0.11606E+08
 
   -0.12477E+08         0.41431E+07         0.00000E+00
    0.41431E+07        -0.43944E+08         0.00000E+00
    0.00000E+00         0.00000E+00        -0.11284E+08
 
   -0.51348E+08        -0.68603E+06         0.00000E+00
   -0.68603E+06        -0.46116E+08         0.00000E+00
    0.00000E+00         0.00000E+00        -0.19493E+08
 
   -0.46518E+08        -0.11977E+07         0.00000E+00
   -0.11977E+07        -0.45837E+08         0.00000E+00
    0.00000E+00         0.00000E+00        -0.18471E+08
 
   -0.42630E+08        -0.12296E+07         0.00000E+00
   -0.12296E+07        -0.45266E+08         0.00000E+00
    0.00000E+00         0.00000E+00        -0.17579E+08
 
   -0.39468E+08        -0.11433E+07         0.00000E+00
   -0.11433E+07        -0.44619E+08         0.00000E+00
    0.00000E+00         0.00000E+00        -0.16817E+08
 
   -0.36776E+08        -0.10132E+07         0.00000E+00
   -0.10132E+07        -0.43994E+08         0.00000E+00
    0.00000E+00         0.00000E+00        -0.16154E+08
 
   -0.34402E+08        -0.85924E+06         0.00000E+00
   -0.85924E+06        -0.43433E+08         0.00000E+00
    0.00000E+00         0.00000E+00        -0.15567E+08
 
   -0.32239E+08        -0.68707E+06         0.00000E+00
   -0.68707E+06        -0.42964E+08         0.00000E+00
    0.00000E+00         0.00000E+00        -0.15041E+08
 
   -0.30206E+08        -0.49684E+06         0.00000E+00
   -0.49684E+06        -0.42604E+08         0.00000E+00
    0.00000E+00         0.00000E+00        -0.14562E+08
 
   -0.28235E+08        -0.28556E+06         0.00000E+00
   -0.28556E+06        -0.42371E+08         0.00000E+00
    0.00000E+00         0.00000E+00        -0.14121E+08
 
   -0.26260E+08        -0.47084E+05         0.00000E+00
   -0.47084E+05        -0.42282E+08         0.00000E+00
    0.00000E+00         0.00000E+00        -0.13708E+08
 
   -0.24213E+08         0.22940E+06         0.00000E+00
    0.22940E+06        -0.42361E+08         0.00000E+00
    0.00000E+00         0.00000E+00        -0.13315E+08
 
   -0.22012E+08         0.56397E+06         0.00000E+00
    0.56397E+06        -0.42641E+08         0.00000E+00
    0.00000E+00         0.00000E+00        -0.12931E+08
 
   -0.19552E+08         0.99786E+06         0.00000E+00
    0.99786E+06        -0.43173E+08         0.00000E+00
    0.00000E+00         0.00000E+00        -0.12545E+08
 
   -0.16666E+08         0.16357E+07         0.00000E+00
    0.16357E+07        -0.44044E+08         0.00000E+00
    0.00000E+00         0.00000E+00        -0.12142E+08
 
   -0.13316E+08         0.28240E+07         0.00000E+00
    0.28240E+07        -0.45372E+08         0.00000E+00
    0.00000E+00         0.00000E+00        -0.11738E+08
 
   -0.54735E+08        -0.43170E+06         0.00000E+00
   -0.43170E+06        -0.48401E+08         0.00000E+00
    0.00000E+00         0.00000E+00        -0.20627E+08
 
   -0.49140E+08        -0.49465E+06         0.00000E+00
   -0.49465E+06        -0.47610E+08         0.00000E+00
    0.00000E+00         0.00000E+00        -0.19350E+08
 
   -0.45154E+08        -0.45413E+06         0.00000E+00
   -0.45413E+06        -0.46723E+08         0.00000E+00
    0.00000E+00         0.00000E+00        -0.18375E+08
 
   -0.41954E+08        -0.40714E+06         0.00000E+00
   -0.40714E+06        -0.45890E+08         0.00000E+00
    0.00000E+00         0.00000E+00        -0.17569E+08
 
   -0.39245E+08        -0.35453E+06         0.00000E+00
   -0.35453E+06        -0.45145E+08         0.00000E+00
    0.00000E+00         0.00000E+00        -0.16878E+08
 
   -0.36859E+08        -0.29804E+06         0.00000E+00
   -0.29804E+06        -0.44504E+08         0.00000E+00
    0.00000E+00         0.00000E+00        -0.16273E+08
 
   -0.34685E+08        -0.23750E+06         0.00000E+00
   -0.23750E+06        -0.43976E+08         0.00000E+00
    0.00000E+00         0.00000E+00        -0.15732E+08
 
   -0.32639E+08        -0.17208E+06         0.00000E+00
   -0.17208E+06        -0.43572E+08         0.00000E+00
    0.00000E+00         0.00000E+00        -0.15242E+08
 
   -0.30652E+08        -0.10035E+06         0.00000E+00
   -0.10035E+06        -0.43304E+08         0.00000E+00
    0.00000E+00         0.00000E+00        -0.14791E+08
 
   -0.28655E+08        -0.20062E+05         0.00000E+00
   -0.20062E+05        -0.43187E+08         0.00000E+00
    0.00000E+00         0.00000E+00        -0.14368E+08
 
   -0.26577E+08         0.72512E+05         0.00000E+00
    0.72512E+05        -0.43242E+08         0.00000E+00
    0.00000E+00         0.00000E+00        -0.13964E+08
 
   -0.24327E+08         0.18404E+06         0.00000E+00
    0.18404E+06        -0.43500E+08         0.00000E+00
    0.00000E+00         0.00000E+00        -0.13565E+08
 
   -0.21773E+08         0.32901E+06         0.00000E+00
    0.32901E+06        -0.44014E+08         0.00000E+00
    0.00000E+00         0.00000E+00        -0.13158E+08
 
   -0.18685E+08         0.54042E+06         0.00000E+00
    0.54042E+06        -0.44884E+08         0.00000E+00
    0.00000E+00         0.00000E+00        -0.12714E+08
 
   -0.14403E+08         0.10360E+07         0.00000E+00
    0.10360E+07        -0.46387E+08         0.00000E+00
    0.00000E+00         0.00000E+00        -0.12158E+08
 
TENSORS stresstot double 
   -0.45331E+08         0.27104E+06         0.00000E+00
    0.27104E+06        -0.58797E+08         0.00000E+00
    0.00000E+00         0.00000E+00        -0.61734E+08
 
   -0.45231E+08         0.19700E+05         0.00000E+00
    0.19700E+05        -0.58832E+08         0.00000E+00
    0.00000E+00         0.00000E+00        -0.64586E+08
 
   -0.46828E+08        -0.35394E+06         0.00000E+00
   -0.35394E+06        -0.59379E+08         0.00000E+00
    0.00000E+00         0.00000E+00        -0.68306E+08
 
   -0.49054E+08        -0.42804E+06         0.00000E+00
   -0.42804E+06        -0.60358E+08         0.00000E+00
    0.00000E+00         0.00000E+00        -0.72153E+08
 
   -0.51565E+08        -0.63577E+06         0.00000E+00
   -0.63577E+06        -0.61457E+08         0.00000E+00
    0.00000E+00         0.00000E+00        -0.75356E+08
 
   -0.55052E+08        -0.64078E+06         0.00000E+00
   -0.64078E+06        -0.62642E+08         0.00000E+00
    0.00000E+00         0.00000E+00        -0.76702E+08
 
   -0.57783E+08        -0.47184E+06         0.00000E+00
   -0.47184E+06        -0.63666E+08         0.00000E+00
    0.00000E+00         0.00000E+00        -0.77453E+08
 
   -0.60091E+08        -0.33717E+06         0.00000E+00
   -0.33717E+06        -0.64438E+08         0.00000E+00
    0.00000E+00         0.00000E+00        -0.78068E+08
 
   -0.62228E+08        -0.21980E+06         0.00000E+00
   -0.21980E+06        -0.64975E+08         0.00000E+00
    0.00000E+00         0.00000E+00        -0.78603E+08
 
   -0.64322E+08        -0.10726E+06         0.00000E+00
   -0.10726E+06        -0.65290E+08         0.00000E+00
    0.00000E+00         0.00000E+00        -0.79085E+08
 
   -0.66474E+08         0.10090E+05         0.00000E+00
    0.10090E+05        -0.65380E+08         0.00000E+00
    0.00000E+00         0.00000E+00        -0.79533E+08
 
   -0.68794E+08         0.14250E+06         0.00000E+00
    0.14250E+06        -0.65223E+08         0.00000E+00
    0.00000E+00         0.00000E+00        -0.79966E+08
 
   -0.71427E+08         0.30732E+06         0.00000E+00
    0.30732E+06        -0.64770E+08         0.00000E+00
    0.00000E+00         0.00000E+00        -0.80402E+08
 
   -0.74626E+08         0.54123E+06         0.00000E+00
    0.54123E+06        -0.63920E+08         0.00000E+00
    0.00000E+00         0.00000E+00        -0.80871E+08
 
   -0.79102E+08         0.10814E+07         0.00000E+00
    0.10814E+07        -0.62377E+08         0.00000E+00
    0.00000E+00         0.00000E+00        -0.81458E+08
 
   -0.45003E+08         0.40823E+06         0.00000E+00
    0.40823E+06        -0.60802E+08         0.00000E+00
    0.00000E+00         0.00000E+00        -0.66808E+08
 
   -0.45787E+08         0.49281E+05         0.00000E+00
    0.49281E+05        -0.60866E+08         0.00000E+00
    0.00000E+00         0.00000E+00        -0.69147E+08
 
   -0.47220E+08        -0.64619E+06         0.00000E+00
   -0.64619E+06        -0.60799E+08         0.00000E+00
    0.00000E+00         0.00000E+00        -0.71718E+08
 
   -0.49197E+08        -0.11312E+07         0.00000E+00
   -0.11312E+07        -0.60847E+08         0.00000E+00
    0.00000E+00         0.00000E+00        -0.73470E+08
 
   -0.51990E+08        -0.14748E+07         0.00000E+00
   -0.14748E+07        -0.61244E+08         0.00000E+00
    0.00000E+00         0.00000E+00        -0.74136E+08
 
   -0.54852E+08        -0.15269E+07         0.00000E+00
   -0.15269E+07        -0.61785E+08         0.00000E+00
    0.00000E+00         0.00000E+00        -0.74816E+08
 
   -0.57542E+08        -0.12426E+07         0.00000E+00
   -0.12426E+07        -0.62394E+08         0.00000E+00
    0.00000E+00         0.00000E+00        -0.75476E+08
 
   -0.59867E+08        -0.92070E+06         0.00000E+00
   -0.92070E+06        -0.62942E+08         0.00000E+00
    0.00000E+00         0.00000E+00        -0.76050E+08
 
   -0.62012E+08        -0.60562E+06         0.00000E+00
   -0.60562E+06        -0.63349E+08         0.00000E+00
    0.00000E+00         0.00000E+00        -0.76560E+08
 
   -0.64100E+08        -0.28629E+06         0.00000E+00
   -0.28629E+06        -0.63582E+08         0.00000E+00
    0.00000E+00         0.00000E+00        -0.77024E+08
 
   -0.66231E+08         0.56105E+05         0.00000E+00
    0.56105E+05        -0.63614E+08         0.00000E+00
    0.00000E+00         0.00000E+00        -0.77457E+08
 
   -0.68505E+08         0.44854E+06         0.00000E+00
    0.44854E+06        -0.63414E+08         0.00000E+00
    0.00000E+00         0.00000E+00        -0.77872E+08
 
   -0.71044E+08         0.93901E+06         0.00000E+00
    0.93901E+06        -0.62930E+08         0.00000E+00
    0.00000E+00         0.00000E+00        -0.78282E+08
 
   -0.74028E+08         0.16428E+07         0.00000E+00
    0.16428E+07        -0.62072E+08         0.00000E+00
    0.00000E+00         0.00000E+00        -0.78707E+08
 
   -0.77496E+08         0.29373E+07         0.00000E+00
    0.29373E+07        -0.60713E+08         0.00000E+00
    0.00000E+00         0.00000E+00        -0.79129E+08
 
   -0.44780E+08        -0.20335E+05         0.00000E+00
   -0.20335E+05        -0.60471E+08         0.00000E+00
    0.00000E+00         0.00000E+00        -0.69700E+08
 
   -0.46241E+08        -0.20290E+06         0.00000E+00
   -0.20290E+06        -0.60662E+08         0.00000E+00
    0.00000E+00         0.00000E+00        -0.71198E+08
 
   -0.47910E+08        -0.74455E+06         0.00000E+00
   -0.74455E+06        -0.60799E+08         0.00000E+00
    0.00000E+00         0.00000E+00        -0.71559E+08
 
   -0.49793E+08        -0.14191E+07         0.00000E+00
   -0.14191E+07        -0.60961E+08         0.00000E+00
    0.00000E+00         0.00000E+00        -0.71967E+08
 
   -0.52197E+08        -0.18112E+07         0.00000E+00
   -0.18112E+07        -0.61169E+08         0.00000E+00
    0.00000E+00         0.00000E+00        -0.72489E+08
 
   -0.54748E+08        -0.18833E+07         0.00000E+00
   -0.18833E+07        -0.61381E+08         0.00000E+00
    0.00000E+00         0.00000E+00        -0.73041E+08
 
   -0.57218E+08        -0.16703E+07         0.00000E+00
   -0.16703E+07        -0.61627E+08         0.00000E+00
    0.00000E+00         0.00000E+00        -0.73584E+08
 
   -0.59499E+08        -0.12960E+07         0.00000E+00
   -0.12960E+07        -0.61903E+08         0.00000E+00
    0.00000E+00         0.00000E+00        -0.74096E+08
 
   -0.61622E+08        -0.85770E+06         0.00000E+00
   -0.85770E+06        -0.62124E+08         0.00000E+00
    0.00000E+00         0.00000E+00        -0.74564E+08
 
   -0.63680E+08        -0.37422E+06         0.00000E+00
   -0.37422E+06        -0.62228E+08         0.00000E+00
    0.00000E+00         0.00000E+00        -0.74997E+08
 
   -0.65758E+08         0.16724E+06         0.00000E+00
    0.16724E+06        -0.62171E+08         0.00000E+00
    0.00000E+00         0.00000E+00        -0.75400E+08
 
   -0.67937E+08         0.80072E+06         0.00000E+00
    0.80072E+06        -0.61910E+08         0.00000E+00
    0.00000E+00         0.00000E+00        -0.75784E+08
 
   -0.70300E+08         0.15929E+07         0.00000E+00
    0.15929E+07        -0.61399E+08         0.00000E+00
    0.00000E+00         0.00000E+00        -0.76154E+08
 
   -0.72891E+08         0.26833E+07         0.00000E+00
    0.26833E+07        -0.60589E+08         0.00000E+00
    0.00000E+00         0.00000E+00        -0.76510E+08
 
   -0.75623E+08         0.42886E+07         0.00000E+00
    0.42886E+07        -0.59519E+08         0.00000E+00
    0.00000E+00         0.00000E+00        -0.76843E+08
 
   -0.44906E+08        -0.18318E+06         0.00000E+00
   -0.18318E+06        -0.60061E+08         0.00000E+00
    0.00000E+00         0.00000E+00        -0.69139E+08
 
   -0.46747E+08        -0.58820E+06         0.00000E+00
   -0.58820E+06        -0.60250E+08         0.00000E+00
    0.00000E+00         0.00000E+00        -0.69545E+08
 
   -0.48476E+08        -0.10475E+07         0.00000E+00
   -0.10475E+07        -0.60593E+08         0.00000E+00
    0.00000E+00         0.00000E+00        -0.69959E+08
 
   -0.50319E+08        -0.15692E+07         0.00000E+00
   -0.15692E+07        -0.60824E+08         0.00000E+00
    0.00000E+00         0.00000E+00        -0.70374E+08
 
   -0.52425E+08        -0.19330E+07         0.00000E+00
   -0.19330E+07        -0.60927E+08         0.00000E+00
    0.00000E+00         0.00000E+00        -0.70815E+08
 
   -0.54680E+08        -0.20143E+07         0.00000E+00
   -0.20143E+07        -0.60997E+08         0.00000E+00
    0.00000E+00         0.00000E+00        -0.71280E+08
 
   -0.56922E+08        -0.18347E+07         0.00000E+00
   -0.18347E+07        -0.61071E+08         0.00000E+00
    0.00000E+00         0.00000E+00        -0.71743E+08
 
   -0.59068E+08        -0.14596E+07         0.00000E+00
   -0.14596E+07        -0.61152E+08         0.00000E+00
    0.00000E+00         0.00000E+00        -0.72188E+08
 
   -0.61112E+08        -0.95396E+06         0.00000E+00
   -0.95396E+06        -0.61206E+08         0.00000E+00
    0.00000E+00         0.00000E+00        -0.72608E+08
 
   -0.63098E+08        -0.35005E+06         0.00000E+00
   -0.35005E+06        -0.61181E+08         0.00000E+00
    0.00000E+00         0.00000E+00        -0.73000E+08
 
   -0.65083E+08         0.35540E+06         0.00000E+00
    0.35540E+06        -0.61032E+08         0.00000E+00
    0.00000E+00         0.00000E+00        -0.73367E+08
 
   -0.67122E+08         0.11939E+07         0.00000E+00
    0.11939E+07        -0.60719E+08         0.00000E+00
    0.00000E+00         0.00000E+00        -0.73712E+08
 
   -0.69253E+08         0.22298E+07         0.00000E+00
    0.22298E+07        -0.60209E+08         0.00000E+00
    0.00000E+00         0.00000E+00        -0.74036E+08
 
   -0.71463E+08         0.35638E+07         0.00000E+00
    0.35638E+07        -0.59499E+08         0.00000E+00
    0.00000E+00         0.00000E+00        -0.74336E+08
 
   -0.73655E+08         0.53131E+07         0.00000E+00
    0.53131E+07        -0.58641E+08         0.00000E+00
    0.00000E+00         0.00000E+00        -0.74603E+08
 
   -0.45381E+08        -0.29691E+06         0.00000E+00
   -0.29691E+06        -0.60042E+08         0.00000E+00
    0.00000E+00         0.00000E+00        -0.67561E+08
 
   -0.47217E+08        -0.82608E+06         0.00000E+00
   -0.82608E+06        -0.60192E+08         0.00000E+00
    0.00000E+00         0.00000E+00        -0.67959E+08
 
   -0.48949E+08        -0.13029E+07         0.00000E+00
   -0.13029E+07        -0.60384E+08         0.00000E+00
    0.00000E+00         0.00000E+00        -0.68343E+08
 
   -0.50728E+08        -0.17120E+07         0.00000E+00
   -0.17120E+07        -0.60545E+08         0.00000E+00
    0.00000E+00         0.00000E+00        -0.68731E+08
 
   -0.52625E+08        -0.19829E+07         0.00000E+00
   -0.19829E+07        -0.60622E+08         0.00000E+00
    0.00000E+00         0.00000E+00        -0.69126E+08
 
   -0.54620E+08        -0.20362E+07         0.00000E+00
   -0.20362E+07        -0.60632E+08         0.00000E+00
    0.00000E+00         0.00000E+00        -0.69527E+08
 
   -0.56635E+08        -0.18551E+07         0.00000E+00
   -0.18551E+07        -0.60613E+08         0.00000E+00
    0.00000E+00         0.00000E+00        -0.69926E+08
 
   -0.58608E+08        -0.14696E+07         0.00000E+00
   -0.14696E+07        -0.60579E+08         0.00000E+00
    0.00000E+00         0.00000E+00        -0.70314E+08
 
   -0.60522E+08        -0.91821E+06         0.00000E+00
   -0.91821E+06        -0.60514E+08         0.00000E+00
    0.00000E+00         0.00000E+00        -0.70684E+08
 
   -0.62390E+08        -0.22528E+06         0.00000E+00
   -0.22528E+06        -0.60390E+08         0.00000E+00
    0.00000E+00         0.00000E+00        -0.71033E+08
 
   -0.64243E+08         0.60816E+06         0.00000E+00
    0.60816E+06        -0.60170E+08         0.00000E+00
    0.00000E+00         0.00000E+00        -0.71359E+08
 
   -0.66109E+08         0.16059E+07         0.00000E+00
    0.16059E+07        -0.59826E+08         0.00000E+00
    0.00000E+00         0.00000E+00        -0.71664E+08
 
   -0.67996E+08         0.28148E+07         0.00000E+00
    0.28148E+07        -0.59342E+08         0.00000E+00
    0.00000E+00         0.00000E+00        -0.71945E+08
 
   -0.69874E+08         0.42983E+07         0.00000E+00
    0.42983E+07        -0.58727E+08         0.00000E+00
    0.00000E+00         0.00000E+00        -0.72197E+08
 
   -0.71659E+08         0.61168E+07         0.00000E+00
    0.61168E+07        -0.58030E+08         0.00000E+00
    0.00000E+00         0.00000E+00        -0.72415E+08
 
   -0.46015E+08        -0.37029E+06         0.00000E+00
   -0.37029E+06        -0.60024E+08         0.00000E+00
    0.00000E+00         0.00000E+00        -0.66019E+08
 
   -0.47735E+08        -0.97569E+06         0.00000E+00
   -0.97569E+06        -0.60108E+08         0.00000E+00
    0.00000E+00         0.00000E+00        -0.66380E+08
 
   -0.49381E+08        -0.14510E+07         0.00000E+00
   -0.14510E+07        -0.60220E+08         0.00000E+00
    0.00000E+00         0.00000E+00        -0.66732E+08
 
   -0.51041E+08        -0.18030E+07         0.00000E+00
   -0.18030E+07        -0.60305E+08         0.00000E+00
    0.00000E+00         0.00000E+00        -0.67081E+08
 
   -0.52761E+08        -0.19994E+07         0.00000E+00
   -0.19994E+07        -0.60335E+08         0.00000E+00
    0.00000E+00         0.00000E+00        -0.67431E+08
 
   -0.54537E+08        -0.20025E+07         0.00000E+00
   -0.20025E+07        -0.60308E+08         0.00000E+00
    0.00000E+00         0.00000E+00        -0.67781E+08
 
   -0.56336E+08        -0.17949E+07         0.00000E+00
   -0.17949E+07        -0.60238E+08         0.00000E+00
    0.00000E+00         0.00000E+00        -0.68127E+08
 
   -0.58120E+08        -0.13847E+07         0.00000E+00
   -0.13847E+07        -0.60137E+08         0.00000E+00
    0.00000E+00         0.00000E+00        -0.68464E+08
 
   -0.59870E+08        -0.79102E+06         0.00000E+00
   -0.79102E+06        -0.60000E+08         0.00000E+00
    0.00000E+00         0.00000E+00        -0.68787E+08
 
   -0.61586E+08        -0.28629E+05         0.00000E+00
   -0.28629E+05        -0.59811E+08         0.00000E+00
    0.00000E+00         0.00000E+00        -0.69093E+08
 
   -0.63277E+08         0.90145E+06         0.00000E+00
    0.90145E+06        -0.59549E+08         0.00000E+00
    0.00000E+00         0.00000E+00        -0.69379E+08
 
   -0.64953E+08         0.20144E+07         0.00000E+00
    0.20144E+07        -0.59197E+08         0.00000E+00
    0.00000E+00         0.00000E+00        -0.69644E+08
 
   -0.66604E+08         0.33396E+07         0.00000E+00
    0.33396E+07        -0.58749E+08         0.00000E+00
    0.00000E+00         0.00000E+00        -0.69885E+08
 
   -0.68196E+08         0.49125E+07         0.00000E+00
    0.49125E+07        -0.58219E+08         0.00000E+00
    0.00000E+00         0.00000E+00        -0.70098E+08
 
   -0.69665E+08         0.67606E+07         0.00000E+00
    0.67606E+07        -0.57646E+08         0.00000E+00
    0.00000E+00         0.00000E+00        -0.70277E+08
 
   -0.46741E+08        -0.40605E+06         0.00000E+00
   -0.40605E+06        -0.60010E+08         0.00000E+00
    0.00000E+00         0.00000E+00        -0.64501E+08
 
   -0.48281E+08        -0.10537E+07         0.00000E+00
   -0.10537E+07        -0.60046E+08         0.00000E+00
    0.00000E+00         0.00000E+00        -0.64817E+08
 
   -0.49785E+08        -0.15250E+07         0.00000E+00
   -0.15250E+07        -0.60093E+08         0.00000E+00
    0.00000E+00         0.00000E+00        -0.65127E+08
 
   -0.51295E+08        -0.18370E+07         0.00000E+00
   -0.18370E+07        -0.60121E+08         0.00000E+00
    0.00000E+00         0.00000E+00        -0.65435E+08
 
   -0.52838E+08        -0.19795E+07         0.00000E+00
   -0.19795E+07        -0.60107E+08         0.00000E+00
    0.00000E+00         0.00000E+00        -0.65742E+08
 
   -0.54414E+08        -0.19341E+07         0.00000E+00
   -0.19341E+07        -0.60048E+08         0.00000E+00
    0.00000E+00         0.00000E+00        -0.66046E+08
 
   -0.56008E+08        -0.16892E+07         0.00000E+00
   -0.16892E+07        -0.59946E+08         0.00000E+00
    0.00000E+00         0.00000E+00        -0.66345E+08
 
   -0.57597E+08        -0.12452E+07         0.00000E+00
   -0.12452E+07        -0.59808E+08         0.00000E+00
    0.00000E+00         0.00000E+00        -0.66635E+08
 
   -0.59166E+08        -0.61009E+06         0.00000E+00
   -0.61009E+06        -0.59632E+08         0.00000E+00
    0.00000E+00         0.00000E+00        -0.66914E+08
 
   -0.60708E+08         0.20871E+06         0.00000E+00
    0.20871E+06        -0.59410E+08         0.00000E+00
    0.00000E+00         0.00000E+00        -0.67179E+08
 
   -0.62219E+08         0.12106E+07         0.00000E+00
    0.12106E+07        -0.59132E+08         0.00000E+00
    0.00000E+00         0.00000E+00        -0.67426E+08
 
   -0.63697E+08         0.24038E+07         0.00000E+00
    0.24038E+07        -0.58790E+08         0.00000E+00
    0.00000E+00         0.00000E+00        -0.67654E+08
 
   -0.65125E+08         0.38041E+07         0.00000E+00
    0.38041E+07        -0.58384E+08         0.00000E+00
    0.00000E+00         0.00000E+00        -0.67858E+08
 
   -0.66472E+08         0.54279E+07         0.00000E+00
    0.54279E+07        -0.57929E+08         0.00000E+00
    0.00000E+00         0.00000E+00        -0.68037E+08
 
   -0.67685E+08         0.72837E+07         0.00000E+00
    0.72837E+07        -0.57456E+08         0.00000E+00
    0.00000E+00         0.00000E+00        -0.68185E+08
 
   -0.47508E+08        -0.41685E+06         0.00000E+00
   -0.41685E+06        -0.60001E+08         0.00000E+00
    0.00000E+00         0.00000E+00        -0.62999E+08
 
   -0.48838E+08        -0.10790E+07         0.00000E+00
   -0.10790E+07        -0.60005E+08         0.00000E+00
    0.00000E+00         0.00000E+00        -0.63266E+08
 
   -0.50167E+08        -0.15427E+07         0.00000E+00
   -0.15427E+07        -0.60007E+08         0.00000E+00
    0.00000E+00         0.00000E+00        -0.63532E+08
 
   -0.51506E+08        -0.18256E+07         0.00000E+00
   -0.18256E+07        -0.59990E+08         0.00000E+00
    0.00000E+00         0.00000E+00        -0.63798E+08
 
   -0.52867E+08        -0.19275E+07         0.00000E+00
   -0.19275E+07        -0.59943E+08         0.00000E+00
    0.00000E+00         0.00000E+00        -0.64061E+08
 
   -0.54250E+08        -0.18405E+07         0.00000E+00
   -0.18405E+07        -0.59859E+08         0.00000E+00
    0.00000E+00         0.00000E+00        -0.64322E+08
 
   -0.55645E+08        -0.15579E+07         0.00000E+00
   -0.15579E+07        -0.59739E+08         0.00000E+00
    0.00000E+00         0.00000E+00        -0.64578E+08
 
   -0.57038E+08        -0.10781E+07         0.00000E+00
   -0.10781E+07        -0.59582E+08         0.00000E+00
    0.00000E+00         0.00000E+00        -0.64826E+08
 
   -0.58417E+08        -0.40409E+06         0.00000E+00
   -0.40409E+06        -0.59390E+08         0.00000E+00
    0.00000E+00         0.00000E+00        -0.65064E+08
 
   -0.59773E+08         0.46065E+06         0.00000E+00
    0.46065E+06        -0.59159E+08         0.00000E+00
    0.00000E+00         0.00000E+00        -0.65290E+08
 
   -0.61095E+08         0.15153E+07         0.00000E+00
    0.15153E+07        -0.58885E+08         0.00000E+00
    0.00000E+00         0.00000E+00        -0.65500E+08
 
   -0.62376E+08         0.27631E+07         0.00000E+00
    0.27631E+07        -0.58566E+08         0.00000E+00
    0.00000E+00         0.00000E+00        -0.65693E+08
 
   -0.63595E+08         0.42100E+07         0.00000E+00
    0.42100E+07        -0.58206E+08         0.00000E+00
    0.00000E+00         0.00000E+00        -0.65865E+08
 
   -0.64725E+08         0.58605E+07         0.00000E+00
    0.58605E+07        -0.57819E+08         0.00000E+00
    0.00000E+00         0.00000E+00        -0.66014E+08
 
   -0.65727E+08         0.77115E+07         0.00000E+00
    0.77115E+07        -0.57427E+08         0.00000E+00
    0.00000E+00         0.00000E+00        -0.66136E+08
 
   -0.48281E+08        -0.41245E+06         0.00000E+00
   -0.41245E+06        -0.59996E+08         0.00000E+00
    0.00000E+00         0.00000E+00        -0.61505E+08
 
   -0.49394E+08        -0.10697E+07         0.00000E+00
   -0.10697E+07        -0.59981E+08         0.00000E+00
    0.00000E+00         0.00000E+00        -0.61725E+08
 
   -0.50530E+08        -0.15215E+07         0.00000E+00
   -0.15215E+07        -0.59953E+08         0.00000E+00
    0.00000E+00         0.00000E+00        -0.61947E+08
 
   -0.51685E+08        -0.17813E+07         0.00000E+00
   -0.17813E+07        -0.59908E+08         0.00000E+00
    0.00000E+00         0.00000E+00        -0.62170E+08
 
   -0.52859E+08        -0.18521E+07         0.00000E+00
   -0.18521E+07        -0.59838E+08         0.00000E+00
    0.00000E+00         0.00000E+00        -0.62392E+08
 
   -0.54048E+08        -0.17310E+07         0.00000E+00
   -0.17310E+07        -0.59740E+08         0.00000E+00
    0.00000E+00         0.00000E+00        -0.62611E+08
 
   -0.55247E+08        -0.14147E+07         0.00000E+00
   -0.14147E+07        -0.59611E+08         0.00000E+00
    0.00000E+00         0.00000E+00        -0.62826E+08
 
   -0.56444E+08        -0.90187E+06         0.00000E+00
   -0.90187E+06        -0.59451E+08         0.00000E+00
    0.00000E+00         0.00000E+00        -0.63034E+08
 
   -0.57630E+08        -0.19362E+06         0.00000E+00
   -0.19362E+06        -0.59259E+08         0.00000E+00
    0.00000E+00         0.00000E+00        -0.63234E+08
 
   -0.58794E+08         0.70786E+06         0.00000E+00
    0.70786E+06        -0.59036E+08         0.00000E+00
    0.00000E+00         0.00000E+00        -0.63423E+08
 
   -0.59925E+08         0.18009E+07         0.00000E+00
    0.18009E+07        -0.58780E+08         0.00000E+00
    0.00000E+00         0.00000E+00        -0.63599E+08
 
   -0.61012E+08         0.30850E+07         0.00000E+00
    0.30850E+07        -0.58493E+08         0.00000E+00
    0.00000E+00         0.00000E+00        -0.63760E+08
 
   -0.62036E+08         0.45596E+07         0.00000E+00
    0.45596E+07        -0.58181E+08         0.00000E+00
    0.00000E+00         0.00000E+00        -0.63903E+08
 
   -0.62973E+08         0.62214E+07         0.00000E+00
    0.62214E+07        -0.57856E+08         0.00000E+00
    0.00000E+00         0.00000E+00        -0.64026E+08
 
   -0.63793E+08         0.80609E+07         0.00000E+00
    0.80609E+07        -0.57534E+08         0.00000E+00
    0.00000E+00         0.00000E+00        -0.64126E+08
 
   -0.49039E+08        -0.39980E+06         0.00000E+00
   -0.39980E+06        -0.59993E+08         0.00000E+00
    0.00000E+00         0.00000E+00        -0.60016E+08
 
   -0.49939E+08        -0.10403E+07         0.00000E+00
   -0.10403E+07        -0.59968E+08         0.00000E+00
    0.00000E+00         0.00000E+00        -0.60191E+08
 
   -0.50876E+08        -0.14770E+07         0.00000E+00
   -0.14770E+07        -0.59925E+08         0.00000E+00
    0.00000E+00         0.00000E+00        -0.60371E+08
 
   -0.51839E+08        -0.17173E+07         0.00000E+00
   -0.17173E+07        -0.59865E+08         0.00000E+00
    0.00000E+00         0.00000E+00        -0.60552E+08
 
   -0.52821E+08        -0.17636E+07         0.00000E+00
   -0.17636E+07        -0.59785E+08         0.00000E+00
    0.00000E+00         0.00000E+00        -0.60734E+08
 
   -0.53816E+08        -0.16154E+07         0.00000E+00
   -0.16154E+07        -0.59682E+08         0.00000E+00
    0.00000E+00         0.00000E+00        -0.60913E+08
 
   -0.54818E+08        -0.12710E+07         0.00000E+00
   -0.12710E+07        -0.59554E+08         0.00000E+00
    0.00000E+00         0.00000E+00        -0.61090E+08
 
   -0.55819E+08        -0.72997E+06         0.00000E+00
   -0.72997E+06        -0.59401E+08         0.00000E+00
    0.00000E+00         0.00000E+00        -0.61260E+08
 
   -0.56810E+08         0.66849E+04         0.00000E+00
    0.66849E+04        -0.59223E+08         0.00000E+00
    0.00000E+00         0.00000E+00        -0.61424E+08
 
   -0.57782E+08         0.93672E+06         0.00000E+00
    0.93672E+06        -0.59019E+08         0.00000E+00
    0.00000E+00         0.00000E+00        -0.61579E+08
 
   -0.58723E+08         0.20573E+07         0.00000E+00
    0.20573E+07        -0.58792E+08         0.00000E+00
    0.00000E+00         0.00000E+00        -0.61723E+08
 
   -0.59622E+08         0.33648E+07         0.00000E+00
    0.33648E+07        -0.58543E+08         0.00000E+00
    0.00000E+00         0.00000E+00        -0.61854E+08
 
   -0.60462E+08         0.48546E+07         0.00000E+00
    0.48546E+07        -0.58280E+08         0.00000E+00
    0.00000E+00         0.00000E+00        -0.61970E+08
 
   -0.61223E+08         0.65185E+07         0.00000E+00
    0.65185E+07        -0.58012E+08         0.00000E+00
    0.00000E+00         0.00000E+00        -0.62069E+08
 
   -0.61883E+08         0.83434E+07         0.00000E+00
    0.83434E+07        -0.57751E+08         0.00000E+00
    0.00000E+00         0.00000E+00        -0.62149E+08
 
   -0.49771E+08        -0.38373E+06         0.00000E+00
   -0.38373E+06        -0.59993E+08         0.00000E+00
    0.00000E+00         0.00000E+00        -0.58530E+08
 
   -0.50467E+08        -0.10022E+07         0.00000E+00
   -0.10022E+07        -0.59964E+08         0.00000E+00
    0.00000E+00         0.00000E+00        -0.58664E+08
 
   -0.51206E+08        -0.14222E+07         0.00000E+00
   -0.14222E+07        -0.59917E+08         0.00000E+00
    0.00000E+00         0.00000E+00        -0.58803E+08
 
   -0.51973E+08        -0.16456E+07         0.00000E+00
   -0.16456E+07        -0.59853E+08         0.00000E+00
    0.00000E+00         0.00000E+00        -0.58945E+08
 
   -0.52760E+08        -0.16727E+07         0.00000E+00
   -0.16727E+07        -0.59773E+08         0.00000E+00
    0.00000E+00         0.00000E+00        -0.59087E+08
 
   -0.53559E+08        -0.15032E+07         0.00000E+00
   -0.15032E+07        -0.59675E+08         0.00000E+00
    0.00000E+00         0.00000E+00        -0.59229E+08
 
   -0.54364E+08        -0.11365E+07         0.00000E+00
   -0.11365E+07        -0.59558E+08         0.00000E+00
    0.00000E+00         0.00000E+00        -0.59368E+08
 
   -0.55169E+08        -0.57274E+06         0.00000E+00
   -0.57274E+06        -0.59422E+08         0.00000E+00
    0.00000E+00         0.00000E+00        -0.59503E+08
 
   -0.55965E+08         0.18634E+06         0.00000E+00
    0.18634E+06        -0.59265E+08         0.00000E+00
    0.00000E+00         0.00000E+00        -0.59632E+08
 
   -0.56746E+08         0.11378E+07         0.00000E+00
    0.11378E+07        -0.59090E+08         0.00000E+00
    0.00000E+00         0.00000E+00        -0.59754E+08
 
   -0.57500E+08         0.22775E+07         0.00000E+00
    0.22775E+07        -0.58897E+08         0.00000E+00
    0.00000E+00         0.00000E+00        -0.59868E+08
 
   -0.58217E+08         0.35997E+07         0.00000E+00
    0.35997E+07        -0.58691E+08         0.00000E+00
    0.00000E+00         0.00000E+00        -0.59971E+08
 
   -0.58883E+08         0.50966E+07         0.00000E+00
    0.50966E+07        -0.58477E+08         0.00000E+00
    0.00000E+00         0.00000E+00        -0.60062E+08
 
   -0.59481E+08         0.67573E+07         0.00000E+00
    0.67573E+07        -0.58263E+08         0.00000E+00
    0.00000E+00         0.00000E+00        -0.60139E+08
 
   -0.59995E+08         0.85667E+07         0.00000E+00
    0.85667E+07        -0.58059E+08         0.00000E+00
    0.00000E+00         0.00000E+00        -0.60202E+08
 
   -0.50475E+08        -0.36766E+06         0.00000E+00
   -0.36766E+06        -0.59993E+08         0.00000E+00
    0.00000E+00         0.00000E+00        -0.57046E+08
 
   -0.50977E+08        -0.96356E+06         0.00000E+00
   -0.96356E+06        -0.59967E+08         0.00000E+00
    0.00000E+00         0.00000E+00        -0.57142E+08
 
   -0.51520E+08        -0.13677E+07         0.00000E+00
   -0.13677E+07        -0.59923E+08         0.00000E+00
    0.00000E+00         0.00000E+00        -0.57243E+08
 
   -0.52091E+08        -0.15768E+07         0.00000E+00
   -0.15768E+07        -0.59865E+08         0.00000E+00
    0.00000E+00         0.00000E+00        -0.57347E+08
 
   -0.52681E+08        -0.15890E+07         0.00000E+00
   -0.15890E+07        -0.59795E+08         0.00000E+00
    0.00000E+00         0.00000E+00        -0.57452E+08
 
   -0.53282E+08        -0.14033E+07         0.00000E+00
   -0.14033E+07        -0.59711E+08         0.00000E+00
    0.00000E+00         0.00000E+00        -0.57557E+08
 
   -0.53890E+08        -0.10194E+07         0.00000E+00
   -0.10194E+07        -0.59613E+08         0.00000E+00
    0.00000E+00         0.00000E+00        -0.57660E+08
 
   -0.54498E+08        -0.43827E+06         0.00000E+00
   -0.43827E+06        -0.59500E+08         0.00000E+00
    0.00000E+00         0.00000E+00        -0.57760E+08
 
   -0.55101E+08         0.33773E+06         0.00000E+00
    0.33773E+06        -0.59372E+08         0.00000E+00
    0.00000E+00         0.00000E+00        -0.57857E+08
 
   -0.55692E+08         0.13047E+07         0.00000E+00
    0.13047E+07        -0.59230E+08         0.00000E+00
    0.00000E+00         0.00000E+00        -0.57948E+08
 
   -0.56263E+08         0.24572E+07         0.00000E+00
    0.24572E+07        -0.59077E+08         0.00000E+00
    0.00000E+00         0.00000E+00        -0.58033E+08
 
   -0.56803E+08         0.37879E+07         0.00000E+00
    0.37879E+07        -0.58915E+08         0.00000E+00
    0.00000E+00         0.00000E+00        -0.58109E+08
 
   -0.57303E+08         0.52870E+07         0.00000E+00
    0.52870E+07        -0.58750E+08         0.00000E+00
    0.00000E+00         0.00000E+00        -0.58177E+08
 
   -0.57749E+08         0.69420E+07         0.00000E+00
    0.69420E+07        -0.58588E+08         0.00000E+00
    0.00000E+00         0.00000E+00        -0.58234E+08
 
   -0.58129E+08         0.87364E+07         0.00000E+00
    0.87364E+07        -0.58436E+08         0.00000E+00
    0.00000E+00         0.00000E+00        -0.58280E+08
 
   -0.51153E+08        -0.35402E+06         0.00000E+00
   -0.35402E+06        -0.59995E+08         0.00000E+00
    0.00000E+00         0.00000E+00        -0.55566E+08
 
   -0.51469E+08        -0.93058E+06         0.00000E+00
   -0.93058E+06        -0.59974E+08         0.00000E+00
    0.00000E+00         0.00000E+00        -0.55626E+08
 
   -0.51821E+08        -0.13215E+07         0.00000E+00
   -0.13215E+07        -0.59940E+08         0.00000E+00
    0.00000E+00         0.00000E+00        -0.55690E+08
 
   -0.52197E+08        -0.15195E+07         0.00000E+00
   -0.15195E+07        -0.59896E+08         0.00000E+00
    0.00000E+00         0.00000E+00        -0.55758E+08
 
   -0.52588E+08        -0.15207E+07         0.00000E+00
   -0.15207E+07        -0.59842E+08         0.00000E+00
    0.00000E+00         0.00000E+00        -0.55827E+08
 
   -0.52991E+08        -0.13231E+07         0.00000E+00
   -0.13231E+07        -0.59779E+08         0.00000E+00
    0.00000E+00         0.00000E+00        -0.55896E+08
 
   -0.53400E+08        -0.92661E+06         0.00000E+00
   -0.92661E+06        -0.59706E+08         0.00000E+00
    0.00000E+00         0.00000E+00        -0.55965E+08
 
   -0.53813E+08        -0.33273E+06         0.00000E+00
   -0.33273E+06        -0.59622E+08         0.00000E+00
    0.00000E+00         0.00000E+00        -0.56032E+08
 
   -0.54223E+08         0.45543E+06         0.00000E+00
    0.45543E+06        -0.59528E+08         0.00000E+00
    0.00000E+00         0.00000E+00        -0.56097E+08
 
   -0.54627E+08         0.14331E+07         0.00000E+00
    0.14331E+07        -0.59424E+08         0.00000E+00
    0.00000E+00         0.00000E+00        -0.56158E+08
 
   -0.55017E+08         0.25938E+07         0.00000E+00
    0.25938E+07        -0.59313E+08         0.00000E+00
    0.00000E+00         0.00000E+00        -0.56215E+08
 
   -0.55386E+08         0.39288E+07         0.00000E+00
    0.39288E+07        -0.59197E+08         0.00000E+00
    0.00000E+00         0.00000E+00        -0.56266E+08
 
   -0.55726E+08         0.54273E+07         0.00000E+00
    0.54273E+07        -0.59080E+08         0.00000E+00
    0.00000E+00         0.00000E+00        -0.56312E+08
 
   -0.56027E+08         0.70754E+07         0.00000E+00
    0.70754E+07        -0.58968E+08         0.00000E+00
    0.00000E+00         0.00000E+00        -0.56350E+08
 
   -0.56280E+08         0.88563E+07         0.00000E+00
    0.88563E+07        -0.58866E+08         0.00000E+00
    0.00000E+00         0.00000E+00        -0.56381E+08
 
   -0.51809E+08        -0.34449E+06         0.00000E+00
   -0.34449E+06        -0.59997E+08         0.00000E+00
    0.00000E+00         0.00000E+00        -0.54090E+08
 
   -0.51949E+08        -0.90770E+06         0.00000E+00
   -0.90770E+06        -0.59985E+08         0.00000E+00
    0.00000E+00         0.00000E+00        -0.54116E+08
 
   -0.52112E+08        -0.12897E+07         0.00000E+00
   -0.12897E+07        -0.59965E+08         0.00000E+00
    0.00000E+00         0.00000E+00        -0.54146E+08
 
   -0.52293E+08        -0.14804E+07         0.00000E+00
   -0.14804E+07        -0.59939E+08         0.00000E+00
    0.00000E+00         0.00000E+00        -0.54178E+08
 
   -0.52486E+08        -0.14741E+07         0.00000E+00
   -0.14741E+07        -0.59908E+08         0.00000E+00
    0.00000E+00         0.00000E+00        -0.54212E+08
 
   -0.52689E+08        -0.12684E+07         0.00000E+00
   -0.12684E+07        -0.59871E+08         0.00000E+00
    0.00000E+00         0.00000E+00        -0.54246E+08
 
   -0.52900E+08        -0.86329E+06         0.00000E+00
   -0.86329E+06        -0.59828E+08         0.00000E+00
    0.00000E+00         0.00000E+00        -0.54281E+08
 
   -0.53117E+08        -0.26063E+06         0.00000E+00
   -0.26063E+06        -0.59777E+08         0.00000E+00
    0.00000E+00         0.00000E+00        -0.54316E+08
 
   -0.53336E+08         0.53574E+06         0.00000E+00
    0.53574E+06        -0.59719E+08         0.00000E+00
    0.00000E+00         0.00000E+00        -0.54349E+08
 
   -0.53554E+08         0.15203E+07         0.00000E+00
    0.15203E+07        -0.59656E+08         0.00000E+00
    0.00000E+00         0.00000E+00        -0.54381E+08
 
   -0.53766E+08         0.26855E+07         0.00000E+00
    0.26855E+07        -0.59588E+08         0.00000E+00
    0.00000E+00         0.00000E+00        -0.54411E+08
 
   -0.53968E+08         0.40222E+07         0.00000E+00
    0.40222E+07        -0.59519E+08         0.00000E+00
    0.00000E+00         0.00000E+00        -0.54439E+08
 
   -0.54153E+08         0.55183E+07         0.00000E+00
    0.55183E+07        -0.59451E+08         0.00000E+00
    0.00000E+00         0.00000E+00        -0.54463E+08
 
   -0.54315E+08         0.71597E+07         0.00000E+00
    0.71597E+07        -0.59387E+08         0.00000E+00
    0.00000E+00         0.00000E+00        -0.54483E+08
 
   -0.54447E+08         0.89290E+07         0.00000E+00
    0.89290E+07        -0.59331E+08         0.00000E+00
    0.00000E+00         0.00000E+00        -0.54499E+08
 
   -0.52454E+08        -0.34023E+06         0.00000E+00
   -0.34023E+06        -0.59999E+08         0.00000E+00
    0.00000E+00         0.00000E+00        -0.52620E+08
 
   -0.52421E+08        -0.89797E+06         0.00000E+00
   -0.89797E+06        -0.59997E+08         0.00000E+00
    0.00000E+00         0.00000E+00        -0.52613E+08
 
   -0.52398E+08        -0.12765E+07         0.00000E+00
   -0.12765E+07        -0.59995E+08         0.00000E+00
    0.00000E+00         0.00000E+00        -0.52609E+08
 
   -0.52384E+08        -0.14640E+07         0.00000E+00
   -0.14640E+07        -0.59992E+08         0.00000E+00
    0.00000E+00         0.00000E+00        -0.52607E+08
 
   -0.52378E+08        -0.14539E+07         0.00000E+00
   -0.14539E+07        -0.59987E+08         0.00000E+00
    0.00000E+00         0.00000E+00        -0.52606E+08
 
   -0.52381E+08        -0.12435E+07         0.00000E+00
   -0.12435E+07        -0.59979E+08         0.00000E+00
    0.00000E+00         0.00000E+00        -0.52606E+08
 
   -0.52393E+08        -0.83288E+06         0.00000E+00
   -0.83288E+06        -0.59968E+08         0.00000E+00
    0.00000E+00         0.00000E+00        -0.52608E+08
 
   -0.52414E+08        -0.22473E+06         0.00000E+00
   -0.22473E+06        -0.59953E+08         0.00000E+00
    0.00000E+00         0.00000E+00        -0.52610E+08
 
   -0.52442E+08         0.57656E+06         0.00000E+00
    0.57656E+06        -0.59934E+08         0.00000E+00
    0.00000E+00         0.00000E+00        -0.52613E+08
 
   -0.52476E+08         0.15648E+07         0.00000E+00
    0.15648E+07        -0.59912E+08         0.00000E+00
    0.00000E+00         0.00000E+00        -0.52617E+08
 
   -0.52513E+08         0.27320E+07         0.00000E+00
    0.27320E+07        -0.59888E+08         0.00000E+00
    0.00000E+00         0.00000E+00        -0.52620E+08
 
   -0.52550E+08         0.40682E+07         0.00000E+00
    0.40682E+07        -0.59865E+08         0.00000E+00
    0.00000E+00         0.00000E+00        -0.52624E+08
 
   -0.52584E+08         0.55613E+07         0.00000E+00
    0.55613E+07        -0.59844E+08         0.00000E+00
    0.00000E+00         0.00000E+00        -0.52627E+08
 
   -0.52611E+08         0.71966E+07         0.00000E+00
    0.71966E+07        -0.59827E+08         0.00000E+00
    0.00000E+00         0.00000E+00        -0.52630E+08
 
   -0.52627E+08         0.89567E+07         0.00000E+00
    0.89567E+07        -0.59818E+08         0.00000E+00
    0.00000E+00         0.00000E+00        -0.52631E+08
 
   -0.53096E+08        -0.34197E+06         0.00000E+00
   -0.34197E+06        -0.60002E+08         0.00000E+00
    0.00000E+00         0.00000E+00        -0.51157E+08
 
   -0.52892E+08        -0.90332E+06         0.00000E+00
   -0.90332E+06        -0.60011E+08         0.00000E+00
    0.00000E+00         0.00000E+00        -0.51119E+08
 
   -0.52683E+08        -0.12846E+07         0.00000E+00
   -0.12846E+07        -0.60028E+08         0.00000E+00
    0.00000E+00         0.00000E+00        -0.51081E+08
 
   -0.52473E+08        -0.14733E+07         0.00000E+00
   -0.14733E+07        -0.60049E+08         0.00000E+00
    0.00000E+00         0.00000E+00        -0.51044E+08
 
   -0.52267E+08        -0.14627E+07         0.00000E+00
   -0.14627E+07        -0.60072E+08         0.00000E+00
    0.00000E+00         0.00000E+00        -0.51009E+08
 
   -0.52069E+08        -0.12503E+07         0.00000E+00
   -0.12503E+07        -0.60095E+08         0.00000E+00
    0.00000E+00         0.00000E+00        -0.50975E+08
 
   -0.51882E+08        -0.83701E+06         0.00000E+00
   -0.83701E+06        -0.60117E+08         0.00000E+00
    0.00000E+00         0.00000E+00        -0.50943E+08
 
   -0.51707E+08        -0.22614E+06         0.00000E+00
   -0.22614E+06        -0.60138E+08         0.00000E+00
    0.00000E+00         0.00000E+00        -0.50913E+08
 
   -0.51546E+08         0.57727E+06         0.00000E+00
    0.57727E+06        -0.60157E+08         0.00000E+00
    0.00000E+00         0.00000E+00        -0.50886E+08
 
   -0.51397E+08         0.15665E+07         0.00000E+00
    0.15665E+07        -0.60177E+08         0.00000E+00
    0.00000E+00         0.00000E+00        -0.50861E+08
 
   -0.51261E+08         0.27333E+07         0.00000E+00
    0.27333E+07        -0.60197E+08         0.00000E+00
    0.00000E+00         0.00000E+00        -0.50838E+08
 
   -0.51135E+08         0.40676E+07         0.00000E+00
    0.40676E+07        -0.60219E+08         0.00000E+00
    0.00000E+00         0.00000E+00        -0.50819E+08
 
   -0.51020E+08         0.55571E+07         0.00000E+00
    0.55571E+07        -0.60245E+08         0.00000E+00
    0.00000E+00         0.00000E+00        -0.50801E+08
 
   -0.50914E+08         0.71873E+07         0.00000E+00
    0.71873E+07        -0.60274E+08         0.00000E+00
    0.00000E+00         0.00000E+00        -0.50786E+08
 
   -0.50816E+08         0.89407E+07         0.00000E+00
    0.89407E+07        -0.60309E+08         0.00000E+00
    0.00000E+00         0.00000E+00        -0.50774E+08
 
   -0.53748E+08        -0.35011E+06         0.00000E+00
   -0.35011E+06        -0.60005E+08         0.00000E+00
    0.00000E+00         0.00000E+00        -0.49704E+08
 
   -0.53371E+08        -0.92473E+06         0.00000E+00
   -0.92473E+06        -0.60026E+08         0.00000E+00
    0.00000E+00         0.00000E+00        -0.49633E+08
 
   -0.52973E+08        -0.13152E+07         0.00000E+00
   -0.13152E+07        -0.60061E+08         0.00000E+00
    0.00000E+00         0.00000E+00        -0.49561E+08
 
   -0.52565E+08        -0.15093E+07         0.00000E+00
   -0.15093E+07        -0.60107E+08         0.00000E+00
    0.00000E+00         0.00000E+00        -0.49490E+08
 
   -0.52156E+08        -0.15010E+07         0.00000E+00
   -0.15010E+07        -0.60158E+08         0.00000E+00
    0.00000E+00         0.00000E+00        -0.49419E+08
 
   -0.51756E+08        -0.12890E+07         0.00000E+00
   -0.12890E+07        -0.60212E+08         0.00000E+00
    0.00000E+00         0.00000E+00        -0.49351E+08
 
   -0.51369E+08        -0.87536E+06         0.00000E+00
   -0.87536E+06        -0.60266E+08         0.00000E+00
    0.00000E+00         0.00000E+00        -0.49285E+08
 
   -0.50999E+08        -0.26415E+06         0.00000E+00
   -0.26415E+06        -0.60321E+08         0.00000E+00
    0.00000E+00         0.00000E+00        -0.49223E+08
 
   -0.50649E+08         0.53879E+06         0.00000E+00
    0.53879E+06        -0.60377E+08         0.00000E+00
    0.00000E+00         0.00000E+00        -0.49165E+08
 
   -0.50319E+08         0.15264E+07         0.00000E+00
    0.15264E+07        -0.60436E+08         0.00000E+00
    0.00000E+00         0.00000E+00        -0.49111E+08
 
   -0.50010E+08         0.26905E+07         0.00000E+00
    0.26905E+07        -0.60498E+08         0.00000E+00
    0.00000E+00         0.00000E+00        -0.49063E+08
 
   -0.49724E+08         0.40211E+07         0.00000E+00
    0.40211E+07        -0.60565E+08         0.00000E+00
    0.00000E+00         0.00000E+00        -0.49019E+08
 
   -0.49460E+08         0.55065E+07         0.00000E+00
    0.55065E+07        -0.60636E+08         0.00000E+00
    0.00000E+00         0.00000E+00        -0.48981E+08
 
   -0.49222E+08         0.71324E+07         0.00000E+00
    0.71324E+07        -0.60712E+08         0.00000E+00
    0.00000E+00         0.00000E+00        -0.48949E+08
 
   -0.49010E+08         0.88816E+07         0.00000E+00
    0.88816E+07        -0.60791E+08         0.00000E+00
    0.00000E+00         0.00000E+00        -0.48923E+08
 
   -0.54421E+08        -0.36473E+06         0.00000E+00
   -0.36473E+06        -0.60008E+08         0.00000E+00
    0.00000E+00         0.00000E+00        -0.48262E+08
 
   -0.53865E+08        -0.96227E+06         0.00000E+00
   -0.96227E+06        -0.60040E+08         0.00000E+00
    0.00000E+00         0.00000E+00        -0.48158E+08
 
   -0.53272E+08        -0.13680E+07         0.00000E+00
   -0.13680E+07        -0.60094E+08         0.00000E+00
    0.00000E+00         0.00000E+00        -0.48051E+08
 
   -0.52661E+08        -0.15712E+07         0.00000E+00
   -0.15712E+07        -0.60163E+08         0.00000E+00
    0.00000E+00         0.00000E+00        -0.47943E+08
 
   -0.52048E+08        -0.15676E+07         0.00000E+00
   -0.15676E+07        -0.60240E+08         0.00000E+00
    0.00000E+00         0.00000E+00        -0.47836E+08
 
   -0.51444E+08        -0.13579E+07         0.00000E+00
   -0.13579E+07        -0.60321E+08         0.00000E+00
    0.00000E+00         0.00000E+00        -0.47732E+08
 
   -0.50857E+08        -0.94554E+06         0.00000E+00
   -0.94554E+06        -0.60405E+08         0.00000E+00
    0.00000E+00         0.00000E+00        -0.47632E+08
 
   -0.50292E+08        -0.33619E+06         0.00000E+00
   -0.33619E+06        -0.60491E+08         0.00000E+00
    0.00000E+00         0.00000E+00        -0.47537E+08
 
   -0.49754E+08         0.46366E+06         0.00000E+00
    0.46366E+06        -0.60581E+08         0.00000E+00
    0.00000E+00         0.00000E+00        -0.47448E+08
 
   -0.49244E+08         0.14468E+07         0.00000E+00
    0.14468E+07        -0.60676E+08         0.00000E+00
    0.00000E+00         0.00000E+00        -0.47365E+08
 
   -0.48764E+08         0.26053E+07         0.00000E+00
    0.26053E+07        -0.60777E+08         0.00000E+00
    0.00000E+00         0.00000E+00        -0.47290E+08
 
   -0.48317E+08         0.39300E+07         0.00000E+00
    0.39300E+07        -0.60887E+08         0.00000E+00
    0.00000E+00         0.00000E+00        -0.47223E+08
 
   -0.47905E+08         0.54102E+07         0.00000E+00
    0.54102E+07        -0.61003E+08         0.00000E+00
    0.00000E+00         0.00000E+00        -0.47164E+08
 
   -0.47533E+08         0.70323E+07         0.00000E+00
    0.70323E+07        -0.61124E+08         0.00000E+00
    0.00000E+00         0.00000E+00        -0.47114E+08
 
   -0.47207E+08         0.87796E+07         0.00000E+00
    0.87796E+07        -0.61247E+08         0.00000E+00
    0.00000E+00         0.00000E+00        -0.47074E+08
 
   -0.55127E+08        -0.38568E+06         0.00000E+00
   -0.38568E+06        -0.60011E+08         0.00000E+00
    0.00000E+00         0.00000E+00        -0.46834E+08
 
   -0.54381E+08        -0.10152E+07         0.00000E+00
   -0.10152E+07        -0.60053E+08         0.00000E+00
    0.00000E+00         0.00000E+00        -0.46693E+08
 
   -0.53585E+08        -0.14416E+07         0.00000E+00
   -0.14416E+07        -0.60125E+08         0.00000E+00
    0.00000E+00         0.00000E+00        -0.46549E+08
 
   -0.52765E+08        -0.16566E+07         0.00000E+00
   -0.16566E+07        -0.60215E+08         0.00000E+00
    0.00000E+00         0.00000E+00        -0.46403E+08
 
   -0.51943E+08        -0.16591E+07         0.00000E+00
   -0.16591E+07        -0.60313E+08         0.00000E+00
    0.00000E+00         0.00000E+00        -0.46259E+08
 
   -0.51133E+08        -0.14525E+07         0.00000E+00
   -0.14525E+07        -0.60417E+08         0.00000E+00
    0.00000E+00         0.00000E+00        -0.46118E+08
 
   -0.50347E+08        -0.10429E+07         0.00000E+00
   -0.10429E+07        -0.60524E+08         0.00000E+00
    0.00000E+00         0.00000E+00        -0.45982E+08
 
   -0.49589E+08        -0.43757E+06         0.00000E+00
   -0.43757E+06        -0.60635E+08         0.00000E+00
    0.00000E+00         0.00000E+00        -0.45853E+08
 
   -0.48865E+08         0.35617E+06         0.00000E+00
    0.35617E+06        -0.60752E+08         0.00000E+00
    0.00000E+00         0.00000E+00        -0.45732E+08
 
   -0.48177E+08         0.13311E+07         0.00000E+00
    0.13311E+07        -0.60879E+08         0.00000E+00
    0.00000E+00         0.00000E+00        -0.45620E+08
 
   -0.47526E+08         0.24802E+07         0.00000E+00
    0.24802E+07        -0.61017E+08         0.00000E+00
    0.00000E+00         0.00000E+00        -0.45518E+08
 
   -0.46917E+08         0.37957E+07         0.00000E+00
    0.37957E+07        -0.61166E+08         0.00000E+00
    0.00000E+00         0.00000E+00        -0.45426E+08
 
   -0.46355E+08         0.52685E+07         0.00000E+00
    0.52685E+07        -0.61326E+08         0.00000E+00
    0.00000E+00         0.00000E+00        -0.45346E+08
 
   -0.45847E+08         0.68865E+07         0.00000E+00
    0.68865E+07        -0.61493E+08         0.00000E+00
    0.00000E+00         0.00000E+00        -0.45278E+08
 
   -0.45404E+08         0.86340E+07         0.00000E+00
    0.86340E+07        -0.61662E+08         0.00000E+00
    0.00000E+00         0.00000E+00        -0.45223E+08
 
   -0.55877E+08        -0.41253E+06         0.00000E+00
   -0.41253E+06        -0.60013E+08         0.00000E+00
    0.00000E+00         0.00000E+00        -0.45419E+08
 
   -0.54926E+08        -0.10821E+07         0.00000E+00
   -0.10821E+07        -0.60065E+08         0.00000E+00
    0.00000E+00         0.00000E+00        -0.45240E+08
 
   -0.53915E+08        -0.15329E+07         0.00000E+00
   -0.15329E+07        -0.60151E+08         0.00000E+00
    0.00000E+00         0.00000E+00        -0.45055E+08
 
   -0.52879E+08        -0.17610E+07         0.00000E+00
   -0.17610E+07        -0.60257E+08         0.00000E+00
    0.00000E+00         0.00000E+00        -0.44869E+08
 
   -0.51842E+08        -0.17696E+07         0.00000E+00
   -0.17696E+07        -0.60371E+08         0.00000E+00
    0.00000E+00         0.00000E+00        -0.44685E+08
 
   -0.50826E+08        -0.15663E+07         0.00000E+00
   -0.15663E+07        -0.60490E+08         0.00000E+00
    0.00000E+00         0.00000E+00        -0.44505E+08
 
   -0.49840E+08        -0.11604E+07         0.00000E+00
   -0.11604E+07        -0.60612E+08         0.00000E+00
    0.00000E+00         0.00000E+00        -0.44333E+08
 
   -0.48893E+08        -0.56136E+06         0.00000E+00
   -0.56136E+06        -0.60740E+08         0.00000E+00
    0.00000E+00         0.00000E+00        -0.44169E+08
 
   -0.47986E+08         0.22250E+06         0.00000E+00
    0.22250E+06        -0.60877E+08         0.00000E+00
    0.00000E+00         0.00000E+00        -0.44015E+08
 
   -0.47121E+08         0.11844E+07         0.00000E+00
    0.11844E+07        -0.61029E+08         0.00000E+00
    0.00000E+00         0.00000E+00        -0.43872E+08
 
   -0.46300E+08         0.23187E+07         0.00000E+00
    0.23187E+07        -0.61198E+08         0.00000E+00
    0.00000E+00         0.00000E+00        -0.43742E+08
 
   -0.45528E+08         0.36199E+07         0.00000E+00
    0.36199E+07        -0.61385E+08         0.00000E+00
    0.00000E+00         0.00000E+00        -0.43625E+08
 
   -0.44812E+08         0.50814E+07         0.00000E+00
    0.50814E+07        -0.61588E+08         0.00000E+00
    0.00000E+00         0.00000E+00        -0.43522E+08
 
   -0.44163E+08         0.66937E+07         0.00000E+00
    0.66937E+07        -0.61802E+08         0.00000E+00
    0.00000E+00         0.00000E+00        -0.43435E+08
 
   -0.43596E+08         0.84428E+07         0.00000E+00
    0.84428E+07        -0.62018E+08         0.00000E+00
    0.00000E+00         0.00000E+00        -0.43365E+08
 
   -0.56680E+08        -0.44466E+06         0.00000E+00
   -0.44466E+06        -0.60015E+08         0.00000E+00
    0.00000E+00         0.00000E+00        -0.44021E+08
 
   -0.55505E+08        -0.11606E+07         0.00000E+00
   -0.11606E+07        -0.60075E+08         0.00000E+00
    0.00000E+00         0.00000E+00        -0.43798E+08
 
   -0.54264E+08        -0.16377E+07         0.00000E+00
   -0.16377E+07        -0.60172E+08         0.00000E+00
    0.00000E+00         0.00000E+00        -0.43569E+08
 
   -0.53000E+08        -0.18780E+07         0.00000E+00
   -0.18780E+07        -0.60287E+08         0.00000E+00
    0.00000E+00         0.00000E+00        -0.43339E+08
 
   -0.51745E+08        -0.18909E+07         0.00000E+00
   -0.18909E+07        -0.60408E+08         0.00000E+00
    0.00000E+00         0.00000E+00        -0.43113E+08
 
   -0.50521E+08        -0.16896E+07         0.00000E+00
   -0.16896E+07        -0.60531E+08         0.00000E+00
    0.00000E+00         0.00000E+00        -0.42892E+08
 
   -0.49340E+08        -0.12880E+07         0.00000E+00
   -0.12880E+07        -0.60657E+08         0.00000E+00
    0.00000E+00         0.00000E+00        -0.42681E+08
 
   -0.48206E+08        -0.69810E+06         0.00000E+00
   -0.69810E+06        -0.60790E+08         0.00000E+00
    0.00000E+00         0.00000E+00        -0.42481E+08
 
   -0.47121E+08         0.70944E+05         0.00000E+00
    0.70944E+05        -0.60938E+08         0.00000E+00
    0.00000E+00         0.00000E+00        -0.42293E+08
 
   -0.46082E+08         0.10131E+07         0.00000E+00
    0.10131E+07        -0.61106E+08         0.00000E+00
    0.00000E+00         0.00000E+00        -0.42119E+08
 
   -0.45092E+08         0.21249E+07         0.00000E+00
    0.21249E+07        -0.61301E+08         0.00000E+00
    0.00000E+00         0.00000E+00        -0.41959E+08
 
   -0.44155E+08         0.34042E+07         0.00000E+00
    0.34042E+07        -0.61522E+08         0.00000E+00
    0.00000E+00         0.00000E+00        -0.41816E+08
 
   -0.43280E+08         0.48483E+07         0.00000E+00
    0.48483E+07        -0.61768E+08         0.00000E+00
    0.00000E+00         0.00000E+00        -0.41690E+08
 
   -0.42482E+08         0.64516E+07         0.00000E+00
    0.64516E+07        -0.62031E+08         0.00000E+00
    0.00000E+00         0.00000E+00        -0.41583E+08
 
   -0.41782E+08         0.82028E+07         0.00000E+00
    0.82028E+07        -0.62299E+08         0.00000E+00
    0.00000E+00         0.00000E+00        -0.41496E+08
 
   -0.57545E+08        -0.48122E+06         0.00000E+00
   -0.48122E+06        -0.60017E+08         0.00000E+00
    0.00000E+00         0.00000E+00        -0.42640E+08
 
   -0.56120E+08        -0.12474E+07         0.00000E+00
   -0.12474E+07        -0.60082E+08         0.00000E+00
    0.00000E+00         0.00000E+00        -0.42368E+08
 
   -0.54630E+08        -0.17496E+07         0.00000E+00
   -0.17496E+07        -0.60184E+08         0.00000E+00
    0.00000E+00         0.00000E+00        -0.42090E+08
 
   -0.53127E+08        -0.19982E+07         0.00000E+00
   -0.19982E+07        -0.60299E+08         0.00000E+00
    0.00000E+00         0.00000E+00        -0.41812E+08
 
   -0.51649E+08        -0.20114E+07         0.00000E+00
   -0.20114E+07        -0.60415E+08         0.00000E+00
    0.00000E+00         0.00000E+00        -0.41539E+08
 
   -0.50219E+08        -0.18098E+07         0.00000E+00
   -0.18098E+07        -0.60529E+08         0.00000E+00
    0.00000E+00         0.00000E+00        -0.41276E+08
 
   -0.48847E+08        -0.14129E+07         0.00000E+00
   -0.14129E+07        -0.60644E+08         0.00000E+00
    0.00000E+00         0.00000E+00        -0.41024E+08
 
   -0.47534E+08        -0.83562E+06         0.00000E+00
   -0.83562E+06        -0.60769E+08         0.00000E+00
    0.00000E+00         0.00000E+00        -0.40786E+08
 
   -0.46277E+08        -0.88030E+05         0.00000E+00
   -0.88030E+05        -0.60914E+08         0.00000E+00
    0.00000E+00         0.00000E+00        -0.40563E+08
 
   -0.45070E+08         0.82523E+06         0.00000E+00
    0.82523E+06        -0.61089E+08         0.00000E+00
    0.00000E+00         0.00000E+00        -0.40356E+08
 
   -0.43913E+08         0.19039E+07         0.00000E+00
    0.19039E+07        -0.61301E+08         0.00000E+00
    0.00000E+00         0.00000E+00        -0.40167E+08
 
   -0.42808E+08         0.31505E+07         0.00000E+00
    0.31505E+07        -0.61554E+08         0.00000E+00
    0.00000E+00         0.00000E+00        -0.39996E+08
 
   -0.41766E+08         0.45679E+07         0.00000E+00
    0.45679E+07        -0.61843E+08         0.00000E+00
    0.00000E+00         0.00000E+00        -0.39845E+08
 
   -0.40807E+08         0.61561E+07         0.00000E+00
    0.61561E+07        -0.62158E+08         0.00000E+00
    0.00000E+00         0.00000E+00        -0.39716E+08
 
   -0.39958E+08         0.79084E+07         0.00000E+00
    0.79084E+07        -0.62483E+08         0.00000E+00
    0.00000E+00         0.00000E+00        -0.39611E+08
 
   -0.58478E+08        -0.52119E+06         0.00000E+00
   -0.52119E+06        -0.60018E+08         0.00000E+00
    0.00000E+00         0.00000E+00        -0.41276E+08
 
   -0.56771E+08        -0.13382E+07         0.00000E+00
   -0.13382E+07        -0.60086E+08         0.00000E+00
    0.00000E+00         0.00000E+00        -0.40948E+08
 
   -0.55008E+08        -0.18603E+07         0.00000E+00
   -0.18603E+07        -0.60185E+08         0.00000E+00
    0.00000E+00         0.00000E+00        -0.40615E+08
 
   -0.53253E+08        -0.21095E+07         0.00000E+00
   -0.21095E+07        -0.60289E+08         0.00000E+00
    0.00000E+00         0.00000E+00        -0.40284E+08
 
   -0.51549E+08        -0.21160E+07         0.00000E+00
   -0.21160E+07        -0.60384E+08         0.00000E+00
    0.00000E+00         0.00000E+00        -0.39962E+08
 
   -0.49918E+08        -0.19105E+07         0.00000E+00
   -0.19105E+07        -0.60471E+08         0.00000E+00
    0.00000E+00         0.00000E+00        -0.39652E+08
 
   -0.48364E+08        -0.15187E+07         0.00000E+00
   -0.15187E+07        -0.60557E+08         0.00000E+00
    0.00000E+00         0.00000E+00        -0.39358E+08
 
   -0.46883E+08        -0.95904E+06         0.00000E+00
   -0.95904E+06        -0.60656E+08         0.00000E+00
    0.00000E+00         0.00000E+00        -0.39081E+08
 
   -0.45464E+08        -0.24176E+06         0.00000E+00
   -0.24176E+06        -0.60783E+08         0.00000E+00
    0.00000E+00         0.00000E+00        -0.38822E+08
 
   -0.44097E+08         0.63050E+06         0.00000E+00
    0.63050E+06        -0.60953E+08         0.00000E+00
    0.00000E+00         0.00000E+00        -0.38581E+08
 
   -0.42775E+08         0.16616E+07         0.00000E+00
    0.16616E+07        -0.61175E+08         0.00000E+00
    0.00000E+00         0.00000E+00        -0.38361E+08
 
   -0.41498E+08         0.28604E+07         0.00000E+00
    0.28604E+07        -0.61454E+08         0.00000E+00
    0.00000E+00         0.00000E+00        -0.38161E+08
 
   -0.40279E+08         0.42373E+07         0.00000E+00
    0.42373E+07        -0.61787E+08         0.00000E+00
    0.00000E+00         0.00000E+00        -0.37983E+08
 
   -0.39142E+08         0.58009E+07         0.00000E+00
    0.58009E+07        -0.62160E+08         0.00000E+00
    0.00000E+00         0.00000E+00        -0.37830E+08
 
   -0.38123E+08         0.75514E+07         0.00000E+00
    0.75514E+07        -0.62552E+08         0.00000E+00
    0.00000E+00         0.00000E+00        -0.37705E+08
 
   -0.59482E+08        -0.56328E+06         0.00000E+00
   -0.56328E+06        -0.60019E+08         0.00000E+00
    0.00000E+00         0.00000E+00        -0.39929E+08
 
   -0.57452E+08        -0.14274E+07         0.00000E+00
   -0.14274E+07        -0.60085E+08         0.00000E+00
    0.00000E+00         0.00000E+00        -0.39536E+08
 
   -0.55389E+08        -0.19581E+07         0.00000E+00
   -0.19581E+07        -0.60171E+08         0.00000E+00
    0.00000E+00         0.00000E+00        -0.39140E+08
 
   -0.53369E+08        -0.21951E+07         0.00000E+00
   -0.21951E+07        -0.60247E+08         0.00000E+00
    0.00000E+00         0.00000E+00        -0.38751E+08
 
   -0.51440E+08        -0.21852E+07         0.00000E+00
   -0.21852E+07        -0.60300E+08         0.00000E+00
    0.00000E+00         0.00000E+00        -0.38375E+08
 
   -0.49616E+08        -0.19713E+07         0.00000E+00
   -0.19713E+07        -0.60337E+08         0.00000E+00
    0.00000E+00         0.00000E+00        -0.38016E+08
 
   -0.47894E+08        -0.15863E+07         0.00000E+00
   -0.15863E+07        -0.60373E+08         0.00000E+00
    0.00000E+00         0.00000E+00        -0.37678E+08
 
   -0.46260E+08        -0.10511E+07         0.00000E+00
   -0.10511E+07        -0.60427E+08         0.00000E+00
    0.00000E+00         0.00000E+00        -0.37361E+08
 
   -0.44693E+08        -0.37569E+06         0.00000E+00
   -0.37569E+06        -0.60521E+08         0.00000E+00
    0.00000E+00         0.00000E+00        -0.37066E+08
 
   -0.43176E+08         0.44002E+06         0.00000E+00
    0.44002E+06        -0.60671E+08         0.00000E+00
    0.00000E+00         0.00000E+00        -0.36792E+08
 
   -0.41694E+08         0.14050E+07         0.00000E+00
    0.14050E+07        -0.60893E+08         0.00000E+00
    0.00000E+00         0.00000E+00        -0.36539E+08
 
   -0.40244E+08         0.25355E+07         0.00000E+00
    0.25355E+07        -0.61195E+08         0.00000E+00
    0.00000E+00         0.00000E+00        -0.36309E+08
 
   -0.38834E+08         0.38527E+07         0.00000E+00
    0.38527E+07        -0.61573E+08         0.00000E+00
    0.00000E+00         0.00000E+00        -0.36102E+08
 
   -0.37496E+08         0.53768E+07         0.00000E+00
    0.53768E+07        -0.62012E+08         0.00000E+00
    0.00000E+00         0.00000E+00        -0.35922E+08
 
   -0.36277E+08         0.71195E+07         0.00000E+00
    0.71195E+07        -0.62482E+08         0.00000E+00
    0.00000E+00         0.00000E+00        -0.35772E+08
 
   -0.60556E+08        -0.60594E+06         0.00000E+00
   -0.60594E+06        -0.60019E+08         0.00000E+00
    0.00000E+00         0.00000E+00        -0.38599E+08
 
   -0.58151E+08        -0.15065E+07         0.00000E+00
   -0.15065E+07        -0.60077E+08         0.00000E+00
    0.00000E+00         0.00000E+00        -0.38129E+08
 
   -0.55756E+08        -0.20265E+07         0.00000E+00
   -0.20265E+07        -0.60136E+08         0.00000E+00
    0.00000E+00         0.00000E+00        -0.37661E+08
 
   -0.53462E+08        -0.22325E+07         0.00000E+00
   -0.22325E+07        -0.60160E+08         0.00000E+00
    0.00000E+00         0.00000E+00        -0.37206E+08
 
   -0.51312E+08        -0.21941E+07         0.00000E+00
   -0.21941E+07        -0.60144E+08         0.00000E+00
    0.00000E+00         0.00000E+00        -0.36772E+08
 
   -0.49312E+08        -0.19683E+07         0.00000E+00
   -0.19683E+07        -0.60105E+08         0.00000E+00
    0.00000E+00         0.00000E+00        -0.36363E+08
 
   -0.47443E+08        -0.15939E+07         0.00000E+00
   -0.15939E+07        -0.60066E+08         0.00000E+00
    0.00000E+00         0.00000E+00        -0.35981E+08
 
   -0.45676E+08        -0.10931E+07         0.00000E+00
   -0.10931E+07        -0.60055E+08         0.00000E+00
    0.00000E+00         0.00000E+00        -0.35624E+08
 
   -0.43981E+08        -0.47422E+06         0.00000E+00
   -0.47422E+06        -0.60097E+08         0.00000E+00
    0.00000E+00         0.00000E+00        -0.35293E+08
 
   -0.42328E+08         0.26608E+06         0.00000E+00
    0.26608E+06        -0.60215E+08         0.00000E+00
    0.00000E+00         0.00000E+00        -0.34985E+08
 
   -0.40695E+08         0.11419E+07         0.00000E+00
    0.11419E+07        -0.60426E+08         0.00000E+00
    0.00000E+00         0.00000E+00        -0.34700E+08
 
   -0.39068E+08         0.21780E+07         0.00000E+00
    0.21780E+07        -0.60744E+08         0.00000E+00
    0.00000E+00         0.00000E+00        -0.34437E+08
 
   -0.37453E+08         0.34085E+07         0.00000E+00
    0.34085E+07        -0.61169E+08         0.00000E+00
    0.00000E+00         0.00000E+00        -0.34199E+08
 
   -0.35883E+08         0.48709E+07         0.00000E+00
    0.48709E+07        -0.61685E+08         0.00000E+00
    0.00000E+00         0.00000E+00        -0.33988E+08
 
   -0.34422E+08         0.65950E+07         0.00000E+00
    0.65950E+07        -0.62253E+08         0.00000E+00
    0.00000E+00         0.00000E+00        -0.33809E+08
 
   -0.61693E+08        -0.64704E+06         0.00000E+00
   -0.64704E+06        -0.60018E+08         0.00000E+00
    0.00000E+00         0.00000E+00        -0.37283E+08
 
   -0.58846E+08        -0.15626E+07         0.00000E+00
   -0.15626E+07        -0.60059E+08         0.00000E+00
    0.00000E+00         0.00000E+00        -0.36721E+08
 
   -0.56084E+08        -0.20407E+07         0.00000E+00
   -0.20407E+07        -0.60066E+08         0.00000E+00
    0.00000E+00         0.00000E+00        -0.36169E+08
 
   -0.53512E+08        -0.21906E+07         0.00000E+00
   -0.21906E+07        -0.60004E+08         0.00000E+00
    0.00000E+00         0.00000E+00        -0.35642E+08
 
   -0.51161E+08        -0.21121E+07         0.00000E+00
   -0.21121E+07        -0.59884E+08         0.00000E+00
    0.00000E+00         0.00000E+00        -0.35147E+08
 
   -0.49010E+08        -0.18749E+07         0.00000E+00
   -0.18749E+07        -0.59739E+08         0.00000E+00
    0.00000E+00         0.00000E+00        -0.34686E+08
 
   -0.47020E+08        -0.15200E+07         0.00000E+00
   -0.15200E+07        -0.59603E+08         0.00000E+00
    0.00000E+00         0.00000E+00        -0.34260E+08
 
   -0.45146E+08        -0.10674E+07         0.00000E+00
   -0.10674E+07        -0.59508E+08         0.00000E+00
    0.00000E+00         0.00000E+00        -0.33865E+08
 
   -0.43345E+08        -0.52235E+06         0.00000E+00
   -0.52235E+06        -0.59484E+08         0.00000E+00
    0.00000E+00         0.00000E+00        -0.33499E+08
 
   -0.41576E+08         0.12134E+06         0.00000E+00
    0.12134E+06        -0.59555E+08         0.00000E+00
    0.00000E+00         0.00000E+00        -0.33159E+08
 
   -0.39803E+08         0.88178E+06         0.00000E+00
    0.88178E+06        -0.59745E+08         0.00000E+00
    0.00000E+00         0.00000E+00        -0.32841E+08
 
   -0.38002E+08         0.17913E+07         0.00000E+00
    0.17913E+07        -0.60071E+08         0.00000E+00
    0.00000E+00         0.00000E+00        -0.32546E+08
 
   -0.36166E+08         0.28986E+07         0.00000E+00
    0.28986E+07        -0.60543E+08         0.00000E+00
    0.00000E+00         0.00000E+00        -0.32272E+08
 
   -0.34327E+08         0.42659E+07         0.00000E+00
    0.42659E+07        -0.61149E+08         0.00000E+00
    0.00000E+00         0.00000E+00        -0.32025E+08
 
   -0.32562E+08         0.59522E+07         0.00000E+00
    0.59522E+07        -0.61840E+08         0.00000E+00
    0.00000E+00         0.00000E+00        -0.31810E+08
 
   -0.62879E+08        -0.68305E+06         0.00000E+00
   -0.68305E+06        -0.60015E+08         0.00000E+00
    0.00000E+00         0.00000E+00        -0.35977E+08
 
   -0.59499E+08        -0.15729E+07         0.00000E+00
   -0.15729E+07        -0.60021E+08         0.00000E+00
    0.00000E+00         0.00000E+00        -0.35302E+08
 
   -0.56338E+08        -0.19608E+07         0.00000E+00
   -0.19608E+07        -0.59933E+08         0.00000E+00
    0.00000E+00         0.00000E+00        -0.34651E+08
 
   -0.53504E+08        -0.20271E+07         0.00000E+00
   -0.20271E+07        -0.59735E+08         0.00000E+00
    0.00000E+00         0.00000E+00        -0.34044E+08
 
   -0.50984E+08        -0.19045E+07         0.00000E+00
   -0.19045E+07        -0.59470E+08         0.00000E+00
    0.00000E+00         0.00000E+00        -0.33486E+08
 
   -0.48719E+08        -0.16661E+07         0.00000E+00
   -0.16661E+07        -0.59191E+08         0.00000E+00
    0.00000E+00         0.00000E+00        -0.32976E+08
 
   -0.46640E+08        -0.13467E+07         0.00000E+00
   -0.13467E+07        -0.58940E+08         0.00000E+00
    0.00000E+00         0.00000E+00        -0.32509E+08
 
   -0.44687E+08        -0.96030E+06         0.00000E+00
   -0.96030E+06        -0.58750E+08         0.00000E+00
    0.00000E+00         0.00000E+00        -0.32080E+08
 
   -0.42804E+08        -0.50837E+06         0.00000E+00
   -0.50837E+06        -0.58651E+08         0.00000E+00
    0.00000E+00         0.00000E+00        -0.31682E+08
 
   -0.40941E+08         0.17299E+05         0.00000E+00
    0.17299E+05        -0.58666E+08         0.00000E+00
    0.00000E+00         0.00000E+00        -0.31312E+08
 
   -0.39049E+08         0.63588E+06         0.00000E+00
    0.63588E+06        -0.58823E+08         0.00000E+00
    0.00000E+00         0.00000E+00        -0.30964E+08
 
   -0.37084E+08         0.13826E+07         0.00000E+00
    0.13826E+07        -0.59147E+08         0.00000E+00
    0.00000E+00         0.00000E+00        -0.30635E+08
 
   -0.35018E+08         0.23190E+07         0.00000E+00
    0.23190E+07        -0.59661E+08         0.00000E+00
    0.00000E+00         0.00000E+00        -0.30324E+08
 
   -0.32862E+08         0.35393E+07         0.00000E+00
    0.35393E+07        -0.60368E+08         0.00000E+00
    0.00000E+00         0.00000E+00        -0.30034E+08
 
   -0.30709E+08         0.51538E+07         0.00000E+00
    0.51538E+07        -0.61218E+08         0.00000E+00
    0.00000E+00         0.00000E+00        -0.29773E+08
 
   -0.64078E+08        -0.70580E+06         0.00000E+00
   -0.70580E+06        -0.60006E+08         0.00000E+00
    0.00000E+00         0.00000E+00        -0.34673E+08
 
   -0.60043E+08        -0.14895E+07         0.00000E+00
   -0.14895E+07        -0.59934E+08         0.00000E+00
    0.00000E+00         0.00000E+00        -0.33852E+08
 
   -0.56478E+08        -0.17213E+07         0.00000E+00
   -0.17213E+07        -0.59672E+08         0.00000E+00
    0.00000E+00         0.00000E+00        -0.33086E+08
 
   -0.53432E+08        -0.16906E+07         0.00000E+00
   -0.16906E+07        -0.59271E+08         0.00000E+00
    0.00000E+00         0.00000E+00        -0.32395E+08
 
   -0.50797E+08        -0.15411E+07         0.00000E+00
   -0.15411E+07        -0.58825E+08         0.00000E+00
    0.00000E+00         0.00000E+00        -0.31778E+08
 
   -0.48457E+08        -0.13262E+07         0.00000E+00
   -0.13262E+07        -0.58398E+08         0.00000E+00
    0.00000E+00         0.00000E+00        -0.31224E+08
 
   -0.46322E+08        -0.10663E+07         0.00000E+00
   -0.10663E+07        -0.58028E+08         0.00000E+00
    0.00000E+00         0.00000E+00        -0.30722E+08
 
   -0.44318E+08        -0.76731E+06         0.00000E+00
   -0.76731E+06        -0.57744E+08         0.00000E+00
    0.00000E+00         0.00000E+00        -0.30264E+08
 
   -0.42379E+08        -0.42752E+06         0.00000E+00
   -0.42752E+06        -0.57570E+08         0.00000E+00
    0.00000E+00         0.00000E+00        -0.29840E+08
 
   -0.40447E+08        -0.38622E+05         0.00000E+00
   -0.38622E+05        -0.57529E+08         0.00000E+00
    0.00000E+00         0.00000E+00        -0.29445E+08
 
   -0.38461E+08         0.41593E+06         0.00000E+00
    0.41593E+06        -0.57645E+08         0.00000E+00
    0.00000E+00         0.00000E+00        -0.29070E+08
 
   -0.36358E+08         0.96696E+06         0.00000E+00
    0.96696E+06        -0.57952E+08         0.00000E+00
    0.00000E+00         0.00000E+00        -0.28710E+08
 
   -0.34069E+08         0.16746E+07         0.00000E+00
    0.16746E+07        -0.58489E+08         0.00000E+00
    0.00000E+00         0.00000E+00        -0.28359E+08
 
   -0.31552E+08         0.26666E+07         0.00000E+00
    0.26666E+07        -0.59301E+08         0.00000E+00
    0.00000E+00         0.00000E+00        -0.28018E+08
 
   -0.28889E+08         0.41431E+07         0.00000E+00
    0.41431E+07        -0.60356E+08         0.00000E+00
    0.00000E+00         0.00000E+00        -0.27696E+08
 
   -0.65206E+08        -0.68603E+06         0.00000E+00
   -0.68603E+06        -0.59973E+08         0.00000E+00
    0.00000E+00         0.00000E+00        -0.33350E+08
 
   -0.60376E+08        -0.11977E+07         0.00000E+00
   -0.11977E+07        -0.59694E+08         0.00000E+00
    0.00000E+00         0.00000E+00        -0.32328E+08
 
   -0.56487E+08        -0.12296E+07         0.00000E+00
   -0.12296E+07        -0.59123E+08         0.00000E+00
    0.00000E+00         0.00000E+00        -0.31436E+08
 
   -0.53323E+08        -0.11433E+07         0.00000E+00
   -0.11433E+07        -0.58475E+08         0.00000E+00
    0.00000E+00         0.00000E+00        -0.30673E+08
 
   -0.50630E+08        -0.10132E+07         0.00000E+00
   -0.10132E+07        -0.57848E+08         0.00000E+00
    0.00000E+00         0.00000E+00        -0.30008E+08
 
   -0.48255E+08        -0.85924E+06         0.00000E+00
   -0.85924E+06        -0.57287E+08         0.00000E+00
    0.00000E+00         0.00000E+00        -0.29420E+08
 
   -0.46091E+08        -0.68707E+06         0.00000E+00
   -0.68707E+06        -0.56816E+08         0.00000E+00
    0.00000E+00         0.00000E+00        -0.28893E+08
 
   -0.44058E+08        -0.49684E+06         0.00000E+00
   -0.49684E+06        -0.56456E+08         0.00000E+00
    0.00000E+00         0.00000E+00        -0.28413E+08
 
   -0.42085E+08        -0.28556E+06         0.00000E+00
   -0.28556E+06        -0.56221E+08         0.00000E+00
    0.00000E+00         0.00000E+00        -0.27971E+08
 
   -0.40109E+08        -0.47084E+05         0.00000E+00
   -0.47084E+05        -0.56131E+08         0.00000E+00
    0.00000E+00         0.00000E+00        -0.27558E+08
 
   -0.38061E+08         0.22940E+06         0.00000E+00
    0.22940E+06        -0.56210E+08         0.00000E+00
    0.00000E+00         0.00000E+00        -0.27163E+08
 
   -0.35860E+08         0.56397E+06         0.00000E+00
    0.56397E+06        -0.56489E+08         0.00000E+00
    0.00000E+00         0.00000E+00        -0.26779E+08
 
   -0.33399E+08         0.99786E+06         0.00000E+00
    0.99786E+06        -0.57020E+08         0.00000E+00
    0.00000E+00         0.00000E+00        -0.26392E+08
 
   -0.30512E+08         0.16357E+07         0.00000E+00
    0.16357E+07        -0.57890E+08         0.00000E+00
    0.00000E+00         0.00000E+00        -0.25989E+08
 
   -0.27162E+08         0.28240E+07         0.00000E+00
    0.28240E+07        -0.59219E+08         0.00000E+00
    0.00000E+00         0.00000E+00        -0.25584E+08
 
   -0.66022E+08        -0.43170E+06         0.00000E+00
   -0.43170E+06        -0.59688E+08         0.00000E+00
    0.00000E+00         0.00000E+00        -0.31914E+08
 
   -0.60426E+08        -0.49465E+06         0.00000E+00
   -0.49465E+06        -0.58896E+08         0.00000E+00
    0.00000E+00         0.00000E+00        -0.30636E+08
 
   -0.56439E+08        -0.45413E+06         0.00000E+00
   -0.45413E+06        -0.58009E+08         0.00000E+00
    0.00000E+00         0.00000E+00        -0.29661E+08
 
   -0.53240E+08        -0.40714E+06         0.00000E+00
   -0.40714E+06        -0.57176E+08         0.00000E+00
    0.00000E+00         0.00000E+00        -0.28854E+08
 
   -0.50530E+08        -0.35453E+06         0.00000E+00
   -0.35453E+06        -0.56430E+08         0.00000E+00
    0.00000E+00         0.00000E+00        -0.28163E+08
 
   -0.48144E+08        -0.29804E+06         0.00000E+00
   -0.29804E+06        -0.55788E+08         0.00000E+00
    0.00000E+00         0.00000E+00        -0.27557E+08
 
   -0.45969E+08        -0.23750E+06         0.00000E+00
   -0.23750E+06        -0.55260E+08         0.00000E+00
    0.00000E+00         0.00000E+00        -0.27016E+08
 
   -0.43923E+08        -0.17208E+06         0.00000E+00
   -0.17208E+06        -0.54856E+08         0.00000E+00
    0.00000E+00         0.00000E+00        -0.26526E+08
 
   -0.41935E+08        -0.10035E+06         0.00000E+00
   -0.10035E+06        -0.54587E+08         0.00000E+00
    0.00000E+00         0.00000E+00        -0.26075E+08
 
   -0.39938E+08        -0.20062E+05         0.00000E+00
   -0.20062E+05        -0.54470E+08         0.00000E+00
    0.00000E+00         0.00000E+00        -0.25652E+08
 
   -0.37860E+08         0.72512E+05         0.00000E+00
    0.72512E+05        -0.54525E+08         0.00000E+00
    0.00000E+00         0.00000E+00        -0.25247E+08
 
   -0.35609E+08         0.18404E+06         0.00000E+00
    0.18404E+06        -0.54783E+08         0.00000E+00
    0.00000E+00         0.00000E+00        -0.24848E+08
 
   -0.33056E+08         0.32901E+06         0.00000E+00
    0.32901E+06        -0.55297E+08         0.00000E+00
    0.00000E+00         0.00000E+00        -0.24440E+08
 
   -0.29967E+08         0.54042E+06         0.00000E+00
    0.54042E+06        -0.56166E+08         0.00000E+00
    0.00000E+00         0.00000E+00        -0.23996E+08
 
   -0.25685E+08         0.10360E+07         0.00000E+00
    0.10360E+07        -0.57669E+08         0.00000E+00
    0.00000E+00         0.00000E+00        -0.23440E+08
 
SCALARS stressS double 
LOOKUP_TABLE default
  -55287298.1622759     
  -56216190.5543079     
  -58171121.3335714     
  -60521563.7601071     
  -62792820.5521336     
  -64798333.4774404     
  -66300543.7438964     
  -67532378.4796078     
  -68601815.2650896     
  -69565571.3726657     
  -70462654.4983705     
  -71327510.8482527     
  -72199845.3404845     
  -73139093.2357482     
  -74312086.4768884     
  -57537660.2011066     
  -58599950.7624535     
  -59912308.6755945     
  -61171406.2209755     
  -62456590.6580647     
  -63817746.2814093     
  -65137444.7903363     
  -66286268.7121788     
  -67307089.0049832     
  -68235361.0580620     
  -69100752.4043447     
  -69930384.1826865     
  -70752160.9607789     
  -71602309.5935582     
  -72445848.7610918     
  -58316825.9924561     
  -59367197.9855462     
  -60089461.8919739     
  -60906950.1462339     
  -61952081.9135460     
  -63056781.8019915     
  -64143303.0733976     
  -65165828.9610095     
  -66103422.5067274     
  -66968256.5411218     
  -67776365.3868752     
  -68543726.8645640     
  -69284386.5296971     
  -69996866.0832629     
  -70661431.2524920     
  -58035289.5792051     
  -58847306.0832330     
  -59675948.2592829     
  -60505609.8711278     
  -61389390.6044583     
  -62318999.3595822     
  -63245182.8791476     
  -64135844.1722317     
  -64975188.1549532     
  -65759648.3365034     
  -66494095.9185634     
  -67184534.1975218     
  -67832865.0511895     
  -68432994.0658711     
  -68966143.0883874     
  -57661347.2686302     
  -58455964.5799136     
  -59225164.3301235     
  -60001406.4366442     
  -60791095.4414724     
  -61592923.8760660     
  -62391354.1377650     
  -63166900.0389914     
  -63906561.2877772     
  -64604111.2586525     
  -65257673.0217224     
  -65866535.3104515     
  -66427689.8963071     
  -66932976.6616458     
  -67367986.5454445     
  -57352812.1520810     
  -58074259.5549348     
  -58777757.9941536     
  -59475948.1438301     
  -60175929.7553990     
  -60875490.9099508     
  -61567017.0321110     
  -62240176.0242914     
  -62885535.0197734     
  -63496459.3149977     
  -64068505.0558863     
  -64597773.7298914     
  -65079055.9197197     
  -65504396.1627537     
  -65862538.5879031     
  -57083999.3753590     
  -57714496.6403615     
  -58335140.2400411     
  -58950427.5539827     
  -59562305.5049036     
  -60169234.7827070     
  -60766286.2757487     
  -61346847.5835150     
  -61904135.0343193     
  -62432158.0783867     
  -62925774.4373783     
  -63380005.1622706     
  -63789134.5966195     
  -64146019.0167504     
  -64441933.1922270     
  -56835729.3310186     
  -57369602.6298484     
  -57901845.0385349     
  -58431386.6666629     
  -58957234.4466092     
  -59477048.5833903     
  -59986991.0695357     
  -60482156.9102381     
  -60957275.0775688     
  -61407181.9826965     
  -61826919.5321748     
  -62211496.0277514     
  -62555505.0550991     
  -62852852.3503292     
  -63096779.2298531     
  -56593620.2789078     
  -57032978.3986562     
  -57476682.1237212     
  -57920987.3079086     
  -58363020.7413671     
  -58799802.7675167     
  -59227816.0797328     
  -59643035.0098049     
  -60041139.7821708     
  -60417722.6983707     
  -60768355.3016946     
  -61088515.6848716     
  -61373459.4500235     
  -61618153.8252037     
  -61817380.6336080     
  -56349133.3835027     
  -56699217.8478438     
  -57057391.1116969     
  -57418830.0644546     
  -57779823.8866469     
  -58137063.9830360     
  -58487236.5937899     
  -58826870.7498496     
  -59152345.8578385     
  -59459944.1552139     
  -59745878.9630503     
  -60006281.5055143     
  -60237178.5505035     
  -60434516.7968116     
  -60594285.9475113     
  -56097825.4461944     
  -56364919.3864030     
  -56641852.3445171     
  -56923736.5076391     
  -57206747.6231318     
  -57487635.9559669     
  -57763384.8265836     
  -58031021.2768024     
  -58287537.4854065     
  -58529871.4315439     
  -58754906.0739436     
  -58959472.4235069     
  -59140365.8858858     
  -59294399.3625780     
  -59418516.2045822     
  -55838262.4325851     
  -56028478.9235884     
  -56228664.5554474     
  -56434488.2112600     
  -56642524.4972793     
  -56849916.0012521     
  -57054109.8399478     
  -57252681.8017249     
  -57443236.6569551     
  -57623361.1362392     
  -57790608.3369946     
  -57942502.2765495     
  -58076563.0002280     
  -58190359.9732530     
  -58281601.8456102     
  -55571156.7043461     
  -55689774.2475958     
  -55817230.7489535     
  -55950145.3258108     
  -56085843.8649471     
  -56222125.4794717     
  -56357066.6482779     
  -56488877.6660563     
  -56615810.7309078     
  -56736110.1857993     
  -56847993.5031051     
  -56949654.8468496     
  -57039287.9712611     
  -57115128.8435932     
  -57175518.8272932     
  -55298742.9679776     
  -55349818.3673395     
  -55407668.0809234     
  -55470116.4720489     
  -55535483.9134468     
  -55602423.8127597     
  -55669781.2355045     
  -55736485.2093116     
  -55801477.3744608     
  -55863672.9590773     
  -55921947.1497932     
  -55975140.1346630     
  -56022075.9276249     
  -56061591.8785381     
  -56092576.4229304     
  -55024308.6811978     
  -55010443.0127117     
  -55000642.4616742     
  -54994108.1489457     
  -54990323.6583050     
  -54988939.6416483     
  -54989675.0818332     
  -54992244.2159641     
  -54996311.4693536     
  -55001471.4676387     
  -55007248.1361178     
  -55013106.0168147     
  -55018467.5412054     
  -55022731.2093742     
  -55025286.7367906     
  -54751829.6732804     
  -54674017.1102802     
  -54597177.9343163     
  -54522011.8641077     
  -54449284.4401074     
  -54379742.9528548     
  -54314051.3190537     
  -54252749.9783536     
  -54196241.0826358     
  -54144794.4834902     
  -54098567.0413386     
  -54057626.6851381     
  -54021973.0906945     
  -53991548.2633415     
  -53966232.1911964     
  -54485674.9132045     
  -54343194.7037897     
  -54198457.6403387     
  -54053757.0846911     
  -53911226.6257354     
  -53772775.0268780     
  -53640048.6124142     
  -53514424.4000988     
  -53397030.8516717     
  -53288788.1265709     
  -53190456.8007795     
  -53102683.1808944     
  -53026030.2653560     
  -52960985.6004647     
  -52907940.2739920     
  -54230356.5278295     
  -54020682.2069349     
  -53805618.8530725     
  -53589139.7428512     
  -53374813.0633188     
  -53165745.4078653     
  -52964568.5521317     
  -52773469.6458108     
  -52594256.5441218     
  -52428444.2348484     
  -52277345.5361277     
  -52142149.1094732     
  -52023969.7685084     
  -51923859.5269285     
  -51842772.3455631     
  -53990308.7291258     
  -53709013.5134256     
  -53419536.0937813     
  -53127624.8855770     
  -52838340.7056915     
  -52555998.7059486     
  -52284180.1007823     
  -52025808.9071056     
  -51783277.1652082     
  -51558595.4080263     
  -51353543.0703072     
  -51169794.7922411     
  -51009002.0606980     
  -50872814.7477712     
  -50762833.6031567     
  -53769684.0996007     
  -53410319.5618312     
  -53040579.4395004     
  -52668112.9980313     
  -52299533.4941996     
  -51940348.2643238     
  -51595002.0017975     
  -51267018.8566001     
  -50959212.6665672     
  -50673927.9921604     
  -50413274.9943626     
  -50179325.1584496     
  -49974240.2791589     
  -49800313.9147344     
  -49659913.2513935     
  -53572158.0167077     
  -53126074.4231426     
  -52668326.1740348     
  -52208649.4115088     
  -51755281.0562465     
  -51314868.2153336     
  -50892561.7032885     
  -50492258.5122805     
  -50116937.1431813     
  -49769027.1586622     
  -49450761.7137276     
  -49164470.5783822     
  -48912778.2396054     
  -48698678.3807219     
  -48525466.8560397     
  -53400731.2677886     
  -52856789.7784501     
  -52301189.0348602     
  -51746041.9322268     
  -51201297.6367172     
  -50674630.3635248     
  -50171628.2467133     
  -49696200.5092964     
  -49251099.9743302     
  -48838471.9259943     
  -48460364.8600101     
  -48119156.0261802     
  -47817848.9386158     
  -47560202.0662824     
  -47350656.4177019     
  -53257514.7692992     
  -52601607.6481426     
  -51935897.0773509     
  -51275329.5210911     
  -50631663.5207402     
  -50013369.4479896     
  -49426018.8458110     
  -48872974.2764132     
  -48356190.6885027     
  -47877001.7964004     
  -47436829.8320086     
  -47037783.1886248     
  -46683099.9983905     
  -46377369.4293477     
  -46126468.1068549     
  -53143462.1388369     
  -52357693.9118382     
  -51566712.6549559     
  -50789009.4000920     
  -50038199.4742046     
  -49323065.5460150     
  -48648389.2394329     
  -48016137.8548187     
  -47426665.4325239     
  -46879778.5320462     
  -46375658.9178729     
  -45915674.9806115     
  -45503041.3320997     
  -45143226.2416497     
  -44843933.6024902     
  -53057971.3821461     
  -52119225.8719551     
  -51184164.1445500     
  -50275875.7335236     
  -49409625.5613532     
  -48593461.6826960     
  -47830045.2781986     
  -47118706.1996313     
  -46457150.0293694     
  -45842755.8955442     
  -45273653.9080282     
  -44749749.4787445     
  -44273762.6150360     
  -43851985.0699504     
  -43494496.2888940     
  -52998141.2411432     
  -51875510.2727181     
  -50772852.5028321     
  -49719260.3498405     
  -48730515.2272438     
  -47811619.3268833     
  -46960871.7428461     
  -46173276.3445432     
  -45442708.0993548     
  -44763144.3447779     
  -44129630.9146672     
  -43539541.9176564     
  -42994074.4145322     
  -42500058.1612120     
  -42070583.4795411     
  -52957139.8855355     
  -51606989.5247090     
  -50307468.2797609     
  -49094497.4726595     
  -47980290.0360104     
  -46961834.5431569     
  -46029532.8586325     
  -45172293.8556811     
  -44379131.6940245     
  -43639812.2061186     
  -42945304.9377405     
  -42288586.2504845     
  -41667555.9076425     
  -41087808.2763114     
  -40566642.5761288     
  -52919093.3043382     
  -51275971.2193472     
  -49745338.6213244     
  -48366050.2858048     
  -47133462.6042289     
  -46026338.3408405     
  -45024138.0770866     
  -44108488.6327667     
  -43263152.5112255     
  -42473431.7884740     
  -41725592.5305655     
  -41006759.2471683     
  -40305462.9035113     
  -39623939.7354370     
  -38980627.2877312     
  -52843138.8168234     
  -50799408.6172596     
  -49014893.6810290     
  -47490171.0501988     
  -46162044.2120719     
  -44987263.5641414     
  -43933446.2817976     
  -42975461.2500653     
  -42092497.8442464     
  -41266020.7658980     
  -40478041.5070403     
  -39709219.5218912     
  -38937217.4159476     
  -38130515.0450647     
  -37321792.5658612     
  -52540928.0897705     
  -49985938.7639597     
  -48036411.7444820     
  -46423142.9458974     
  -45041210.6203931     
  -43829667.5215893     
  -42748475.2635679     
  -41768334.0674074     
  -40865748.7197481     
  -40019949.3149546     
  -39210343.6921970     
  -38413476.0771318     
  -37597368.8401658     
  -36709727.2052824     
  -35598148.6070772     
SCALARS 2waySource double 
LOOKUP_TABLE default
  7.856998217257211E-006
  5.696349595473877E-006
  4.355761832470603E-006
  3.416708620844595E-006
  2.731263193550033E-006
  2.213531584930761E-006
  1.809169317731235E-006
  1.480291035248202E-006
  1.198237556423408E-006
  9.391882542089233E-007
  6.808770600781259E-007
  3.992918438758854E-007
  6.351847470110415E-008
 -3.719911141835938E-007
 -1.037366604203132E-006
  7.999464200976605E-006
  6.542059728460294E-006
  5.427889107297585E-006
  4.618590927031975E-006
  4.011972491968276E-006
  3.546386320229154E-006
  3.178504981251295E-006
  2.876844935130922E-006
  2.616988566429468E-006
  2.378492229853663E-006
  2.142478299558291E-006
  1.889283469703662E-006
  1.596026553291515E-006
  1.228792228885575E-006
  7.537686511633398E-007
  7.878836754710861E-006
  6.998926784377130E-006
  6.225626502184608E-006
  5.607750610566300E-006
  5.125536722327866E-006
  4.745190702995952E-006
  4.439140699289152E-006
  4.185182143852752E-006
  3.965273028968261E-006
  3.764082434903451E-006
  3.567741083083870E-006
  3.362834413931874E-006
  3.135229500293680E-006
  2.872027897275943E-006
  2.567840516599304E-006
  7.693489550669697E-006
  7.251679258471993E-006
  6.805300545350799E-006
  6.408515109644783E-006
  6.076414961395990E-006
  5.803209223654889E-006
  5.577011284762319E-006
  5.385912607406794E-006
  5.219155774455213E-006
  5.067274646819788E-006
  4.921931031127278E-006
  4.775810281978456E-006
  4.623280057000891E-006
  4.462468502862236E-006
  4.302141214495235E-006
  7.482395987604277E-006
  7.390812581711524E-006
  7.229220633591087E-006
  7.047752370560481E-006
  6.873891320171450E-006
  6.718222571073484E-006
  6.582160128931491E-006
  6.463276588070715E-006
  6.357960581128266E-006
  6.262557529074803E-006
  6.173993369646520E-006
  6.090399575055193E-006
  6.012161402039865E-006
  5.944166026480254E-006
  5.899082475343880E-006
  7.261837337462649E-006
  7.456657211722682E-006
  7.537297184370689E-006
  7.550614113328130E-006
  7.528763378869562E-006
  7.491130898169315E-006
  7.448222240423306E-006
  7.405321084299490E-006
  7.365043886573008E-006
  7.328933351886809E-006
  7.298530692181152E-006
  7.276331784565225E-006
  7.266976831640793E-006
  7.278835628101380E-006
  7.325820346895766E-006
  7.041568934926938E-006
  7.470237670786322E-006
  7.753221721837154E-006
  7.935564553792140E-006
  8.051361750444790E-006
  8.124725450287037E-006
  8.171942021539411E-006
  8.203894852343828E-006
  8.228140798168363E-006
  8.250492285175783E-006
  8.276236165665823E-006
  8.311201878911304E-006
  8.362850240513353E-006
  8.441435948504888E-006
  8.561053780742355E-006
  6.828720280386174E-006
  7.444175640663976E-006
  7.891889409782588E-006
  8.215747782066689E-006
  8.450587426995115E-006
  8.622998492357531E-006
  8.752753984721529E-006
  8.854502562183441E-006
  8.939392166977618E-006
  9.016467944274106E-006
  9.093847142084176E-006
  9.179748710998777E-006
  9.283449642035216E-006
  9.416166758263203E-006
  9.591761227777339E-006
  6.628833535998373E-006
  7.387150229410572E-006
  7.963697993452480E-006
  8.401183673077674E-006
  8.734375309946092E-006
  8.990932051942286E-006
  9.192520298204637E-006
  9.356093455198045E-006
  9.495175794267757E-006
  9.621044140571062E-006
  9.743774488304920E-006
  9.873167168246731E-006
  1.001956825807205E-005
  1.019457482543314E-005
  1.041156899060977E-005
  6.446241323076767E-006
  7.305850433424219E-006
  7.976884215276914E-006
  8.500427228097372E-006
  8.910444070082268E-006
  9.234635235218238E-006
  9.495393344346140E-006
  9.710833790379728E-006
  9.895832278744222E-006
  1.006300840899971E-005
  1.022362214120724E-005
  1.038837295223321E-005
  1.056809730308023E-005
  1.077434990862589E-005
  1.101984061476479E-005
  6.284231294496816E-006
  7.205905297888096E-006
  7.938761729937435E-006
  8.521610885527124E-006
  8.986897043915835E-006
  9.361530416849776E-006
  9.667726278488013E-006
  9.923860927445731E-006
  1.014532140968668E-005
  1.034531784923969E-005
  1.053563392171094E-005
  1.072730021841259E-005
  1.093117929855840E-005
  1.115844952977519E-005
  1.142097244242808E-005
  6.145148939854844E-006
  7.092341093664616E-006
  7.856355181018170E-006
  8.473016923522711E-006
  8.972572676499336E-006
  9.380442679029284E-006
  9.717942946994425E-006
  1.000299503027542E-005
  1.025081977177807E-005
  1.047460039747462E-005
  1.068609870489143E-005
  1.089621044299547E-005
  1.111544813319867E-005
  1.135434057912696E-005
  1.162373995440681E-005
  6.030488220412194E-006
  6.969800551803730E-006
  7.736686873349141E-006
  8.363324276783017E-006
  8.877161441312285E-006
  9.301547209489172E-006
  9.656321473017154E-006
  9.958386234681646E-006
  1.022225926751731E-005
  1.046060333052643E-005
  1.068471992439974E-005
  1.090499600789478E-005
  1.113129299113387E-005
  1.137326889702706E-005
  1.164062725846054E-005
  5.940985113694729E-006
  6.842631918255882E-006
  7.586854342808809E-006
  8.201633967784043E-006
  8.711135856288538E-006
  9.136178809699234E-006
  9.494680517112123E-006
  9.802089776435599E-006
  1.007180805720238E-005
  1.031559552970264E-005
  1.054395270152947E-005
  1.076646738508213E-005
  1.099211703766019E-005
  1.122951806594912E-005
  1.148711642075912E-005
  5.876715213070450E-006
  6.714901358087616E-006
  7.413977192707740E-006
  7.997345004145517E-006
  8.485541247977063E-006
  8.896527230210737E-006
  9.245978101745180E-006
  9.547575308244168E-006
  9.813301543670644E-006
  1.005373225350898E-005
  1.027831453774553E-005
  1.049562296697381E-005
  1.071358206549250E-005
  1.093964672730977E-005
  1.118093443313879E-005
  5.837191496782418E-006
  6.590357273251968E-006
  7.225060746986761E-006
  7.759930988282568E-006
  8.211688824343332E-006
  8.595247905408737E-006
  8.923843338113157E-006
  9.209186080859152E-006
  9.461637593625843E-006
  9.690395781120917E-006
  9.903680939199944E-006
  1.010890953983206E-005
  1.031284419873935E-005
  1.052170982245468E-005
  1.074126849638669E-005
  5.821457139420200E-006
  6.472363087184217E-006
  7.026807423586310E-006
  7.498653770056916E-006
  7.900785713162446E-006
  8.245017697145713E-006
  8.542065605757518E-006
  8.801569118990715E-006
  9.032155283087469E-006
  9.241530037110694E-006
  9.436582766459210E-006
  9.623488714568137E-006
  9.807795165587329E-006
  9.994479360381467E-006
  1.018796880946494E-005
  5.828168633230836E-006
  6.363808865947056E-006
  6.825396969271706E-006
  7.222240988941944E-006
  7.563530232266724E-006
  7.858062789923178E-006
  8.114066417703684E-006
  8.339100005237873E-006
  8.540019721199987E-006
  8.722991033432507E-006
  8.893526526752936E-006
  9.056530082294629E-006
  9.216330062083006E-006
  9.376686937498512E-006
  9.540763800878043E-006
  5.855665505665181E-006
  6.267008441837777E-006
  6.626249968755640E-006
  6.938546935290891E-006
  7.209694552811703E-006
  7.445682119709386E-006
  7.652377821785475E-006
  7.835326332339869E-006
  7.999637152819677E-006
  8.149937413608462E-006
  8.290361946974481E-006
  8.424555611259772E-006
  8.555666711427420E-006
  8.686314400905949E-006
  8.818516327815165E-006
  5.902024070594885E-006
  6.183585651882510E-006
  6.433783044290820E-006
  6.654209058209632E-006
  6.847710456900564E-006
  7.017785013167902E-006
  7.168148553951218E-006
  7.302453052859414E-006
  7.424125019427198E-006
  7.536286737558841E-006
  7.641723106472971E-006
  7.742862136586366E-006
  7.841744224562699E-006
  7.939961385270183E-006
  8.038551158134238E-006
  5.965093612905820E-006
  6.114349537663292E-006
  6.251157061495291E-006
  6.374304115100295E-006
  6.484266339435705E-006
  6.582456169809921E-006
  6.670695890504038E-006
  6.750891562897052E-006
  6.824861540059559E-006
  6.894263789049827E-006
  6.960570494987496E-006
  7.025050101324005E-006
  7.088729695801583E-006
  7.152319483776132E-006
  7.216084381524573E-006
  6.042513754096978E-006
  6.059152196159303E-006
  6.080009191715982E-006
  6.101996579389128E-006
  6.123914244089572E-006
  6.145555090222947E-006
  6.167118116758775E-006
  6.188893264531361E-006
  6.211139245217616E-006
  6.234067537581623E-006
  6.257861950102236E-006
  6.282687490463140E-006
  6.308662709877720E-006
  6.335783208929282E-006
  6.363784734188585E-006
  6.131710693790681E-006
  6.016711252456208E-006
  5.920141917138286E-006
  5.838154811647472E-006
  5.768674246862828E-006
  5.710351945388046E-006
  5.661981490087339E-006
  5.622288623146611E-006
  5.589947167117465E-006
  5.563683455466998E-006
  5.542380915209944E-006
  5.525138662713380E-006
  5.511268584171769E-006
  5.500228653674356E-006
  5.491496106362768E-006
  6.229865448984841E-006
  5.984354582461072E-006
  5.769108391858564E-006
  5.580883595170166E-006
  5.417611511352563E-006
  5.277202169922246E-006
  5.157100079250858E-006
  5.054355501793689E-006
  4.965906035332625E-006
  4.888867147537813E-006
  4.820750203605152E-006
  4.759590320666755E-006
  4.703974036742395E-006
  4.652994861973294E-006
  4.606151296377443E-006
  6.333835872484875E-006
  5.957587001771950E-006
  5.621565179192923E-006
  5.324879484430646E-006
  5.066358045827221E-006
  4.843280216028892E-006
  4.651443081518720E-006
  4.485844866537594E-006
  4.341376743233539E-006
  4.213317838421865E-006
  4.097661014206894E-006
  3.991309080649676E-006
  3.892171805866837E-006
  3.799111273321474E-006
  3.711916802658205E-006
  6.439970771254314E-006
  5.929235191778317E-006
  5.468107361936603E-006
  5.060464320315663E-006
  4.706593518439117E-006
  4.402454041187173E-006
  4.141240596382582E-006
  3.915191073860671E-006
  3.716738886891877E-006
  3.539046488857372E-006
  3.376329265265459E-006
  3.224196166353224E-006
  3.079785217539054E-006
  2.941865121695318E-006
  2.810625887786487E-006
  6.543671618106642E-006
  5.887433546412817E-006
  5.292982936765816E-006
  4.772171706940276E-006
  4.325689748854240E-006
  3.945542393381263E-006
  3.620382534986454E-006
  3.338916612787815E-006
  3.090792974875249E-006
  2.866849639784494E-006
  2.659225386269002E-006
  2.461640760345390E-006
  2.270371116297039E-006
  2.083762701277555E-006
  1.902721719337352E-006
  6.637568124027615E-006
  5.810372505774195E-006
  5.069404965889685E-006
  4.437321838320468E-006
  3.907469515828524E-006
  3.461223734593055E-006
  3.081190488298322E-006
  2.752196252221361E-006
  2.461173361841435E-006
  2.196711859356991E-006
  1.948696383147258E-006
  1.708268763303667E-006
  1.468447389687779E-006
  1.228926863763523E-006
  9.887590751217665E-007
  6.705125430851552E-006
  5.648111200257892E-006
  4.752542378998265E-006
  4.029308434415612E-006
  3.434607113576275E-006
  2.937765431234452E-006
  2.515491669528267E-006
  2.149491132846661E-006
  1.824649663684376E-006
  1.527841070109812E-006
  1.247015814322231E-006
  9.704245356767186E-007
  6.862138945766051E-007
  3.829732283998729E-007
  7.618153230238995E-008
  6.640688012536388E-006
  5.281352380345354E-006
  4.299250749146696E-006
  3.524742184369896E-006
  2.892727129872049E-006
  2.365069749741025E-006
  1.915752449047297E-006
  1.525134639910081E-006
  1.177268005318557E-006
  8.582846361964785E-007
  5.551541512244110E-007
  2.543604976809202E-007
 -6.001400106359772E-008
 -4.103860644896660E-007
 -8.283342858398990E-007
SCALARS poroP double 
LOOKUP_TABLE default
  5.202765729064762E-005
  3.478438222233338E-005
  2.033922206311786E-005
  8.815568906826070E-006
  1.165087325194126E-006
  0.000000000000000E+000
  0.000000000000000E+000
  0.000000000000000E+000
  0.000000000000000E+000
  0.000000000000000E+000
  0.000000000000000E+000
  0.000000000000000E+000
  0.000000000000000E+000
  0.000000000000000E+000
  0.000000000000000E+000
  2.200123869729448E-005
  1.205615367026657E-005
  4.092008344561555E-006
  7.643721887685024E-008
  0.000000000000000E+000
  0.000000000000000E+000
  0.000000000000000E+000
  0.000000000000000E+000
  0.000000000000000E+000
  0.000000000000000E+000
  0.000000000000000E+000
  0.000000000000000E+000
  0.000000000000000E+000
  0.000000000000000E+000
  0.000000000000000E+000
  3.735757183731499E-006
  0.000000000000000E+000
  0.000000000000000E+000
  0.000000000000000E+000
  0.000000000000000E+000
  0.000000000000000E+000
  0.000000000000000E+000
  0.000000000000000E+000
  0.000000000000000E+000
  0.000000000000000E+000
  0.000000000000000E+000
  0.000000000000000E+000
  0.000000000000000E+000
  0.000000000000000E+000
  0.000000000000000E+000
  0.000000000000000E+000
  0.000000000000000E+000
  0.000000000000000E+000
  0.000000000000000E+000
  0.000000000000000E+000
  0.000000000000000E+000
  0.000000000000000E+000
  0.000000000000000E+000
  0.000000000000000E+000
  0.000000000000000E+000
  0.000000000000000E+000
  0.000000000000000E+000
  0.000000000000000E+000
  0.000000000000000E+000
  0.000000000000000E+000
  0.000000000000000E+000
  0.000000000000000E+000
  0.000000000000000E+000
  0.000000000000000E+000
  0.000000000000000E+000
  0.000000000000000E+000
  0.000000000000000E+000
  0.000000000000000E+000
  0.000000000000000E+000
  0.000000000000000E+000
  0.000000000000000E+000
  0.000000000000000E+000
  0.000000000000000E+000
  0.000000000000000E+000
  0.000000000000000E+000
  0.000000000000000E+000
  0.000000000000000E+000
  0.000000000000000E+000
  0.000000000000000E+000
  0.000000000000000E+000
  0.000000000000000E+000
  0.000000000000000E+000
  0.000000000000000E+000
  0.000000000000000E+000
  0.000000000000000E+000
  0.000000000000000E+000
  0.000000000000000E+000
  0.000000000000000E+000
  0.000000000000000E+000
  0.000000000000000E+000
  0.000000000000000E+000
  0.000000000000000E+000
  0.000000000000000E+000
  0.000000000000000E+000
  0.000000000000000E+000
  0.000000000000000E+000
  0.000000000000000E+000
  0.000000000000000E+000
  0.000000000000000E+000
  0.000000000000000E+000
  0.000000000000000E+000
  0.000000000000000E+000
  0.000000000000000E+000
  0.000000000000000E+000
  0.000000000000000E+000
  0.000000000000000E+000
  0.000000000000000E+000
  0.000000000000000E+000
  0.000000000000000E+000
  0.000000000000000E+000
  0.000000000000000E+000
  0.000000000000000E+000
  0.000000000000000E+000
  0.000000000000000E+000
  0.000000000000000E+000
  0.000000000000000E+000
  0.000000000000000E+000
  0.000000000000000E+000
  0.000000000000000E+000
  0.000000000000000E+000
  0.000000000000000E+000
  0.000000000000000E+000
  0.000000000000000E+000
  0.000000000000000E+000
  0.000000000000000E+000
  0.000000000000000E+000
  0.000000000000000E+000
  0.000000000000000E+000
  0.000000000000000E+000
  0.000000000000000E+000
  0.000000000000000E+000
  0.000000000000000E+000
  0.000000000000000E+000
  0.000000000000000E+000
  0.000000000000000E+000
  0.000000000000000E+000
  0.000000000000000E+000
  0.000000000000000E+000
  0.000000000000000E+000
  0.000000000000000E+000
  0.000000000000000E+000
  0.000000000000000E+000
  0.000000000000000E+000
  0.000000000000000E+000
  0.000000000000000E+000
  0.000000000000000E+000
  0.000000000000000E+000
  0.000000000000000E+000
  0.000000000000000E+000
  0.000000000000000E+000
  0.000000000000000E+000
  0.000000000000000E+000
  0.000000000000000E+000
  0.000000000000000E+000
  0.000000000000000E+000
  0.000000000000000E+000
  0.000000000000000E+000
  0.000000000000000E+000
  0.000000000000000E+000
  0.000000000000000E+000
  0.000000000000000E+000
  0.000000000000000E+000
  0.000000000000000E+000
  0.000000000000000E+000
  0.000000000000000E+000
  0.000000000000000E+000
  0.000000000000000E+000
  0.000000000000000E+000
  0.000000000000000E+000
  0.000000000000000E+000
  0.000000000000000E+000
  0.000000000000000E+000
  0.000000000000000E+000
  0.000000000000000E+000
  0.000000000000000E+000
  0.000000000000000E+000
  0.000000000000000E+000
  0.000000000000000E+000
  0.000000000000000E+000
  0.000000000000000E+000
  0.000000000000000E+000
  0.000000000000000E+000
  0.000000000000000E+000
  0.000000000000000E+000
  0.000000000000000E+000
  0.000000000000000E+000
  0.000000000000000E+000
  0.000000000000000E+000
  0.000000000000000E+000
  0.000000000000000E+000
  0.000000000000000E+000
  0.000000000000000E+000
  0.000000000000000E+000
  0.000000000000000E+000
  0.000000000000000E+000
  0.000000000000000E+000
  0.000000000000000E+000
  0.000000000000000E+000
  0.000000000000000E+000
  0.000000000000000E+000
  0.000000000000000E+000
  0.000000000000000E+000
  0.000000000000000E+000
  0.000000000000000E+000
  0.000000000000000E+000
  0.000000000000000E+000
  0.000000000000000E+000
  0.000000000000000E+000
  0.000000000000000E+000
  0.000000000000000E+000
  0.000000000000000E+000
  0.000000000000000E+000
  0.000000000000000E+000
  0.000000000000000E+000
  0.000000000000000E+000
  0.000000000000000E+000
  0.000000000000000E+000
  0.000000000000000E+000
  0.000000000000000E+000
  0.000000000000000E+000
  0.000000000000000E+000
  0.000000000000000E+000
  0.000000000000000E+000
  0.000000000000000E+000
  0.000000000000000E+000
  0.000000000000000E+000
  0.000000000000000E+000
  0.000000000000000E+000
  0.000000000000000E+000
  0.000000000000000E+000
  0.000000000000000E+000
  0.000000000000000E+000
  0.000000000000000E+000
  0.000000000000000E+000
  0.000000000000000E+000
  0.000000000000000E+000
  0.000000000000000E+000
  0.000000000000000E+000
  0.000000000000000E+000
  0.000000000000000E+000
  0.000000000000000E+000
  0.000000000000000E+000
  0.000000000000000E+000
  0.000000000000000E+000
  0.000000000000000E+000
  0.000000000000000E+000
  0.000000000000000E+000
  0.000000000000000E+000
  0.000000000000000E+000
  0.000000000000000E+000
  0.000000000000000E+000
  0.000000000000000E+000
  0.000000000000000E+000
  0.000000000000000E+000
  0.000000000000000E+000
  0.000000000000000E+000
  0.000000000000000E+000
  0.000000000000000E+000
  0.000000000000000E+000
  0.000000000000000E+000
  0.000000000000000E+000
  0.000000000000000E+000
  0.000000000000000E+000
  0.000000000000000E+000
  0.000000000000000E+000
  0.000000000000000E+000
  0.000000000000000E+000
  0.000000000000000E+000
  0.000000000000000E+000
  0.000000000000000E+000
  0.000000000000000E+000
  0.000000000000000E+000
  0.000000000000000E+000
  0.000000000000000E+000
  0.000000000000000E+000
  0.000000000000000E+000
  0.000000000000000E+000
  0.000000000000000E+000
  0.000000000000000E+000
  0.000000000000000E+000
  0.000000000000000E+000
  0.000000000000000E+000
  0.000000000000000E+000
  0.000000000000000E+000
  0.000000000000000E+000
  0.000000000000000E+000
  0.000000000000000E+000
  0.000000000000000E+000
  0.000000000000000E+000
  0.000000000000000E+000
  0.000000000000000E+000
  0.000000000000000E+000
  0.000000000000000E+000
  0.000000000000000E+000
  0.000000000000000E+000
  0.000000000000000E+000
  0.000000000000000E+000
  0.000000000000000E+000
  0.000000000000000E+000
  0.000000000000000E+000
  0.000000000000000E+000
  0.000000000000000E+000
  0.000000000000000E+000
  0.000000000000000E+000
  0.000000000000000E+000
  0.000000000000000E+000
  0.000000000000000E+000
  0.000000000000000E+000
  0.000000000000000E+000
  0.000000000000000E+000
  0.000000000000000E+000
  0.000000000000000E+000
  0.000000000000000E+000
  0.000000000000000E+000
  0.000000000000000E+000
  0.000000000000000E+000
  0.000000000000000E+000
  0.000000000000000E+000
  0.000000000000000E+000
  0.000000000000000E+000
  0.000000000000000E+000
  0.000000000000000E+000
  0.000000000000000E+000
  0.000000000000000E+000
  0.000000000000000E+000
  0.000000000000000E+000
  0.000000000000000E+000
  0.000000000000000E+000
  0.000000000000000E+000
  0.000000000000000E+000
  0.000000000000000E+000
  0.000000000000000E+000
  0.000000000000000E+000
  0.000000000000000E+000
  0.000000000000000E+000
  0.000000000000000E+000
  0.000000000000000E+000
  0.000000000000000E+000
  0.000000000000000E+000
  0.000000000000000E+000
  0.000000000000000E+000
  0.000000000000000E+000
  0.000000000000000E+000
  0.000000000000000E+000
  0.000000000000000E+000
  0.000000000000000E+000
  0.000000000000000E+000
  0.000000000000000E+000
  0.000000000000000E+000
  0.000000000000000E+000
  0.000000000000000E+000
  0.000000000000000E+000
  0.000000000000000E+000
  0.000000000000000E+000
  0.000000000000000E+000
  0.000000000000000E+000
  0.000000000000000E+000
  0.000000000000000E+000
  0.000000000000000E+000
  0.000000000000000E+000
  0.000000000000000E+000
  0.000000000000000E+000
  0.000000000000000E+000
  0.000000000000000E+000
  0.000000000000000E+000
  0.000000000000000E+000
  0.000000000000000E+000
  0.000000000000000E+000
  0.000000000000000E+000
  0.000000000000000E+000
  0.000000000000000E+000
  0.000000000000000E+000
  0.000000000000000E+000
  0.000000000000000E+000
  0.000000000000000E+000
  0.000000000000000E+000
  0.000000000000000E+000
  0.000000000000000E+000
  0.000000000000000E+000
  0.000000000000000E+000
  0.000000000000000E+000
  0.000000000000000E+000
  0.000000000000000E+000
  0.000000000000000E+000
  0.000000000000000E+000
  0.000000000000000E+000
  0.000000000000000E+000
  0.000000000000000E+000
  0.000000000000000E+000
  0.000000000000000E+000
  0.000000000000000E+000
  0.000000000000000E+000
  0.000000000000000E+000
  0.000000000000000E+000
  0.000000000000000E+000
  0.000000000000000E+000
  0.000000000000000E+000
  0.000000000000000E+000
  0.000000000000000E+000
  0.000000000000000E+000
  0.000000000000000E+000
  0.000000000000000E+000
  0.000000000000000E+000
  0.000000000000000E+000
  0.000000000000000E+000
  0.000000000000000E+000
  0.000000000000000E+000
  0.000000000000000E+000
  0.000000000000000E+000
  0.000000000000000E+000
  0.000000000000000E+000
  0.000000000000000E+000
  0.000000000000000E+000
  0.000000000000000E+000
  0.000000000000000E+000
  0.000000000000000E+000
  0.000000000000000E+000
  0.000000000000000E+000
  0.000000000000000E+000
  0.000000000000000E+000
  0.000000000000000E+000
  0.000000000000000E+000
  0.000000000000000E+000
  0.000000000000000E+000
  0.000000000000000E+000
  0.000000000000000E+000
  0.000000000000000E+000
  0.000000000000000E+000
  0.000000000000000E+000
  0.000000000000000E+000
  0.000000000000000E+000
  0.000000000000000E+000
  0.000000000000000E+000
  0.000000000000000E+000
  0.000000000000000E+000
  0.000000000000000E+000
  0.000000000000000E+000
  0.000000000000000E+000
  0.000000000000000E+000
  0.000000000000000E+000
  0.000000000000000E+000
  0.000000000000000E+000
  0.000000000000000E+000
  0.000000000000000E+000
  0.000000000000000E+000
  0.000000000000000E+000
  0.000000000000000E+000
  0.000000000000000E+000
  0.000000000000000E+000
  0.000000000000000E+000
SCALARS elementIsPlast double 
LOOKUP_TABLE default
  0.000000000000000E+000
  0.000000000000000E+000
  0.000000000000000E+000
  0.000000000000000E+000
  0.000000000000000E+000
  0.000000000000000E+000
  0.000000000000000E+000
  0.000000000000000E+000
  0.000000000000000E+000
  0.000000000000000E+000
  0.000000000000000E+000
  0.000000000000000E+000
  0.000000000000000E+000
  0.000000000000000E+000
  0.000000000000000E+000
  0.000000000000000E+000
  0.000000000000000E+000
  0.000000000000000E+000
  0.000000000000000E+000
  0.000000000000000E+000
  0.000000000000000E+000
  0.000000000000000E+000
  0.000000000000000E+000
  0.000000000000000E+000
  0.000000000000000E+000
  0.000000000000000E+000
  0.000000000000000E+000
  0.000000000000000E+000
  0.000000000000000E+000
  0.000000000000000E+000
  0.000000000000000E+000
  0.000000000000000E+000
  0.000000000000000E+000
  0.000000000000000E+000
  0.000000000000000E+000
  0.000000000000000E+000
  0.000000000000000E+000
  0.000000000000000E+000
  0.000000000000000E+000
  0.000000000000000E+000
  0.000000000000000E+000
  0.000000000000000E+000
  0.000000000000000E+000
  0.000000000000000E+000
  0.000000000000000E+000
  0.000000000000000E+000
  0.000000000000000E+000
  0.000000000000000E+000
  0.000000000000000E+000
  0.000000000000000E+000
  0.000000000000000E+000
  0.000000000000000E+000
  0.000000000000000E+000
  0.000000000000000E+000
  0.000000000000000E+000
  0.000000000000000E+000
  0.000000000000000E+000
  0.000000000000000E+000
  0.000000000000000E+000
  0.000000000000000E+000
  0.000000000000000E+000
  0.000000000000000E+000
  0.000000000000000E+000
  0.000000000000000E+000
  0.000000000000000E+000
  0.000000000000000E+000
  0.000000000000000E+000
  0.000000000000000E+000
  0.000000000000000E+000
  0.000000000000000E+000
  0.000000000000000E+000
  0.000000000000000E+000
  0.000000000000000E+000
  0.000000000000000E+000
  0.000000000000000E+000
  0.000000000000000E+000
  0.000000000000000E+000
  0.000000000000000E+000
  0.000000000000000E+000
  0.000000000000000E+000
  0.000000000000000E+000
  0.000000000000000E+000
  0.000000000000000E+000
  0.000000000000000E+000
  0.000000000000000E+000
  0.000000000000000E+000
  0.000000000000000E+000
  0.000000000000000E+000
  0.000000000000000E+000
  0.000000000000000E+000
  0.000000000000000E+000
  0.000000000000000E+000
  0.000000000000000E+000
  0.000000000000000E+000
  0.000000000000000E+000
  0.000000000000000E+000
  0.000000000000000E+000
  0.000000000000000E+000
  0.000000000000000E+000
  0.000000000000000E+000
  0.000000000000000E+000
  0.000000000000000E+000
  0.000000000000000E+000
  0.000000000000000E+000
  0.000000000000000E+000
  0.000000000000000E+000
  0.000000000000000E+000
  0.000000000000000E+000
  0.000000000000000E+000
  0.000000000000000E+000
  0.000000000000000E+000
  0.000000000000000E+000
  0.000000000000000E+000
  0.000000000000000E+000
  0.000000000000000E+000
  0.000000000000000E+000
  0.000000000000000E+000
  0.000000000000000E+000
  0.000000000000000E+000
  0.000000000000000E+000
  0.000000000000000E+000
  0.000000000000000E+000
  0.000000000000000E+000
  0.000000000000000E+000
  0.000000000000000E+000
  0.000000000000000E+000
  0.000000000000000E+000
  0.000000000000000E+000
  0.000000000000000E+000
  0.000000000000000E+000
  0.000000000000000E+000
  0.000000000000000E+000
  0.000000000000000E+000
  0.000000000000000E+000
  0.000000000000000E+000
  0.000000000000000E+000
  0.000000000000000E+000
  0.000000000000000E+000
  0.000000000000000E+000
  0.000000000000000E+000
  0.000000000000000E+000
  0.000000000000000E+000
  0.000000000000000E+000
  0.000000000000000E+000
  0.000000000000000E+000
  0.000000000000000E+000
  0.000000000000000E+000
  0.000000000000000E+000
  0.000000000000000E+000
  0.000000000000000E+000
  0.000000000000000E+000
  0.000000000000000E+000
  0.000000000000000E+000
  0.000000000000000E+000
  0.000000000000000E+000
  0.000000000000000E+000
  0.000000000000000E+000
  0.000000000000000E+000
  0.000000000000000E+000
  0.000000000000000E+000
  0.000000000000000E+000
  0.000000000000000E+000
  0.000000000000000E+000
  0.000000000000000E+000
  0.000000000000000E+000
  0.000000000000000E+000
  0.000000000000000E+000
  0.000000000000000E+000
  0.000000000000000E+000
  0.000000000000000E+000
  0.000000000000000E+000
  0.000000000000000E+000
  0.000000000000000E+000
  0.000000000000000E+000
  0.000000000000000E+000
  0.000000000000000E+000
  0.000000000000000E+000
  0.000000000000000E+000
  0.000000000000000E+000
  0.000000000000000E+000
  0.000000000000000E+000
  0.000000000000000E+000
  0.000000000000000E+000
  0.000000000000000E+000
  0.000000000000000E+000
  0.000000000000000E+000
  0.000000000000000E+000
  0.000000000000000E+000
  0.000000000000000E+000
  0.000000000000000E+000
  0.000000000000000E+000
  0.000000000000000E+000
  0.000000000000000E+000
  0.000000000000000E+000
  0.000000000000000E+000
  0.000000000000000E+000
  0.000000000000000E+000
  0.000000000000000E+000
  0.000000000000000E+000
  0.000000000000000E+000
  0.000000000000000E+000
  0.000000000000000E+000
  0.000000000000000E+000
  0.000000000000000E+000
  0.000000000000000E+000
  0.000000000000000E+000
  0.000000000000000E+000
  0.000000000000000E+000
  0.000000000000000E+000
  0.000000000000000E+000
  0.000000000000000E+000
  0.000000000000000E+000
  0.000000000000000E+000
  0.000000000000000E+000
  0.000000000000000E+000
  0.000000000000000E+000
  0.000000000000000E+000
  0.000000000000000E+000
  0.000000000000000E+000
  0.000000000000000E+000
  0.000000000000000E+000
  0.000000000000000E+000
  0.000000000000000E+000
  0.000000000000000E+000
  0.000000000000000E+000
  0.000000000000000E+000
  0.000000000000000E+000
  0.000000000000000E+000
  0.000000000000000E+000
  0.000000000000000E+000
  0.000000000000000E+000
  0.000000000000000E+000
  0.000000000000000E+000
  0.000000000000000E+000
  0.000000000000000E+000
  0.000000000000000E+000
  0.000000000000000E+000
  0.000000000000000E+000
  0.000000000000000E+000
  0.000000000000000E+000
  0.000000000000000E+000
  0.000000000000000E+000
  0.000000000000000E+000
  0.000000000000000E+000
  0.000000000000000E+000
  0.000000000000000E+000
  0.000000000000000E+000
  0.000000000000000E+000
  0.000000000000000E+000
  0.000000000000000E+000
  0.000000000000000E+000
  0.000000000000000E+000
  0.000000000000000E+000
  0.000000000000000E+000
  0.000000000000000E+000
  0.000000000000000E+000
  0.000000000000000E+000
  0.000000000000000E+000
  0.000000000000000E+000
  0.000000000000000E+000
  0.000000000000000E+000
  0.000000000000000E+000
  0.000000000000000E+000
  0.000000000000000E+000
  0.000000000000000E+000
  0.000000000000000E+000
  0.000000000000000E+000
  0.000000000000000E+000
  0.000000000000000E+000
  0.000000000000000E+000
  0.000000000000000E+000
  0.000000000000000E+000
  0.000000000000000E+000
  0.000000000000000E+000
  0.000000000000000E+000
  0.000000000000000E+000
  0.000000000000000E+000
  0.000000000000000E+000
  0.000000000000000E+000
  0.000000000000000E+000
  0.000000000000000E+000
  0.000000000000000E+000
  0.000000000000000E+000
  0.000000000000000E+000
  0.000000000000000E+000
  0.000000000000000E+000
  0.000000000000000E+000
  0.000000000000000E+000
  0.000000000000000E+000
  0.000000000000000E+000
  0.000000000000000E+000
  0.000000000000000E+000
  0.000000000000000E+000
  0.000000000000000E+000
  0.000000000000000E+000
  0.000000000000000E+000
  0.000000000000000E+000
  0.000000000000000E+000
  0.000000000000000E+000
  0.000000000000000E+000
  0.000000000000000E+000
  0.000000000000000E+000
  0.000000000000000E+000
  0.000000000000000E+000
  0.000000000000000E+000
  0.000000000000000E+000
  0.000000000000000E+000
  0.000000000000000E+000
  0.000000000000000E+000
  0.000000000000000E+000
  0.000000000000000E+000
  0.000000000000000E+000
  0.000000000000000E+000
  0.000000000000000E+000
  0.000000000000000E+000
  0.000000000000000E+000
  0.000000000000000E+000
  0.000000000000000E+000
  0.000000000000000E+000
  0.000000000000000E+000
  0.000000000000000E+000
  0.000000000000000E+000
  0.000000000000000E+000
  0.000000000000000E+000
  0.000000000000000E+000
  0.000000000000000E+000
  0.000000000000000E+000
  0.000000000000000E+000
  0.000000000000000E+000
  0.000000000000000E+000
  0.000000000000000E+000
  0.000000000000000E+000
  0.000000000000000E+000
  0.000000000000000E+000
  0.000000000000000E+000
  0.000000000000000E+000
  0.000000000000000E+000
  0.000000000000000E+000
  0.000000000000000E+000
  0.000000000000000E+000
  0.000000000000000E+000
  0.000000000000000E+000
  0.000000000000000E+000
  0.000000000000000E+000
  0.000000000000000E+000
  0.000000000000000E+000
  0.000000000000000E+000
  0.000000000000000E+000
  0.000000000000000E+000
  0.000000000000000E+000
  0.000000000000000E+000
  0.000000000000000E+000
  0.000000000000000E+000
  0.000000000000000E+000
  0.000000000000000E+000
  0.000000000000000E+000
  0.000000000000000E+000
  0.000000000000000E+000
  0.000000000000000E+000
  0.000000000000000E+000
  0.000000000000000E+000
  0.000000000000000E+000
  0.000000000000000E+000
  0.000000000000000E+000
  0.000000000000000E+000
  0.000000000000000E+000
  0.000000000000000E+000
  0.000000000000000E+000
  0.000000000000000E+000
  0.000000000000000E+000
  0.000000000000000E+000
  0.000000000000000E+000
  0.000000000000000E+000
  0.000000000000000E+000
  0.000000000000000E+000
  0.000000000000000E+000
  0.000000000000000E+000
  0.000000000000000E+000
  0.000000000000000E+000
  0.000000000000000E+000
  0.000000000000000E+000
  0.000000000000000E+000
  0.000000000000000E+000
  0.000000000000000E+000
  0.000000000000000E+000
  0.000000000000000E+000
  0.000000000000000E+000
  0.000000000000000E+000
  0.000000000000000E+000
  0.000000000000000E+000
  0.000000000000000E+000
  0.000000000000000E+000
  0.000000000000000E+000
  0.000000000000000E+000
  0.000000000000000E+000
  0.000000000000000E+000
  0.000000000000000E+000
  0.000000000000000E+000
  0.000000000000000E+000
  0.000000000000000E+000
  0.000000000000000E+000
  0.000000000000000E+000
  0.000000000000000E+000
  0.000000000000000E+000
  0.000000000000000E+000
  0.000000000000000E+000
  0.000000000000000E+000
  0.000000000000000E+000
  0.000000000000000E+000
  0.000000000000000E+000
  0.000000000000000E+000
  0.000000000000000E+000
  0.000000000000000E+000
  0.000000000000000E+000
  0.000000000000000E+000
  0.000000000000000E+000
  0.000000000000000E+000
  0.000000000000000E+000
  0.000000000000000E+000
  0.000000000000000E+000
  0.000000000000000E+000
  0.000000000000000E+000
  0.000000000000000E+000
  0.000000000000000E+000
  0.000000000000000E+000
  0.000000000000000E+000
  0.000000000000000E+000
  0.000000000000000E+000
  0.000000000000000E+000
  0.000000000000000E+000
  0.000000000000000E+000
  0.000000000000000E+000
  0.000000000000000E+000
  0.000000000000000E+000
  0.000000000000000E+000
  0.000000000000000E+000
  0.000000000000000E+000
  0.000000000000000E+000
  0.000000000000000E+000
  0.000000000000000E+000
  0.000000000000000E+000
  0.000000000000000E+000
  0.000000000000000E+000
  0.000000000000000E+000
  0.000000000000000E+000
  0.000000000000000E+000
  0.000000000000000E+000
  0.000000000000000E+000
  0.000000000000000E+000
  0.000000000000000E+000
SCALARS poroL double 
LOOKUP_TABLE default
  0.156308332860892     
  0.156283941623922     
  0.156254454725641     
  0.156224846731635     
  0.156199721546821     
  0.156183126878136     
  0.156171569691749     
  0.156162092828222     
  0.156153865465477     
  0.156146451179193     
  0.156139549807040     
  0.156132896299632     
  0.156126185184685     
  0.156118959263373     
  0.156109935405537     
  0.156239552751048     
  0.156221430559351     
  0.156203363052320     
  0.156189653589089     
  0.156179683822502     
  0.156169207854833     
  0.156159052367011     
  0.156150212415078     
  0.156142357799764     
  0.156135215463445     
  0.156128556942453     
  0.156122173424881     
  0.156115850156947     
  0.156109308527024     
  0.156102818119380     
  0.156193840082125     
  0.156182019388976     
  0.156176455919716     
  0.156170159825198     
  0.156162113650330     
  0.156153610625771     
  0.156145248771413     
  0.156137380305367     
  0.156130165943689     
  0.156123511701134     
  0.156117293940361     
  0.156111389538160     
  0.156105690358856     
  0.156100207908712     
  0.156095094523422     
  0.156170832137791     
  0.156164582710719     
  0.156158203888050     
  0.156151817036757     
  0.156145014419284     
  0.156137860201052     
  0.156130733338300     
  0.156123880603078     
  0.156117423249910     
  0.156111388420881     
  0.156105738371118     
  0.156100426717889     
  0.156095438751626     
  0.156090821462543     
  0.156086719641818     
  0.156152307123831     
  0.156146193663679     
  0.156140275198113     
  0.156134302622989     
  0.156128227073467     
  0.156122058801819     
  0.156115917361918     
  0.156109952544230     
  0.156104264153133     
  0.156098899844999     
  0.156093873822497     
  0.156089191371507     
  0.156084875535528     
  0.156080989101645     
  0.156077643025579     
  0.156133330454224     
  0.156127781727986     
  0.156122371711168     
  0.156117003100004     
  0.156111621276285     
  0.156106243224235     
  0.156100927432061     
  0.156095753235213     
  0.156090793005266     
  0.156086097564873     
  0.156081700886733     
  0.156077632776590     
  0.156073933168518     
  0.156070663161254     
  0.156067909243627     
  0.156114112904808     
  0.156109265523033     
  0.156104495727294     
  0.156099768312486     
  0.156095067912433     
  0.156090406090850     
  0.156085820535658     
  0.156081361898492     
  0.156077082149807     
  0.156073027158792     
  0.156069236274154     
  0.156065747597545     
  0.156062604903114     
  0.156059862934139     
  0.156057588534481     
  0.156094813701129     
  0.156090711106822     
  0.156086623902813     
  0.156082559258386     
  0.156078524086477     
  0.156074535875931     
  0.156070623774023     
  0.156066825214528     
  0.156063180491132     
  0.156059729094134     
  0.156056508942131     
  0.156053558207930     
  0.156050918230544     
  0.156048635583225     
  0.156046761841068     
  0.156075553393753     
  0.156072179114570     
  0.156068775160074     
  0.156065368910178     
  0.156061981462614     
  0.156058635027221     
  0.156055356148930     
  0.156052175413373     
  0.156049125748748     
  0.156046240803046     
  0.156043554398263     
  0.156041101062333     
  0.156038916990740     
  0.156037040513418     
  0.156035511250299     
  0.156056405668829     
  0.156053719094789     
  0.156050974768334     
  0.156048208099656     
  0.156045446415927     
  0.156042714297330     
  0.156040036610729     
  0.156037439601104     
  0.156034950772487     
  0.156032598436366     
  0.156030411454086     
  0.156028419301037     
  0.156026652200072     
  0.156025140890282     
  0.156023915629280     
  0.156037410705965     
  0.156035363189503     
  0.156033244955493     
  0.156031091733369     
  0.156028931576244     
  0.156026788498236     
  0.156024684998890     
  0.156022643436604     
  0.156020686565788     
  0.156018837630047     
  0.156017120320780     
  0.156015558709871     
  0.156014177080923     
  0.156012999475686     
  0.156012048776546     
  0.156018583513969     
  0.156017127705335     
  0.156015600442955     
  0.156014033084142     
  0.156012450534731     
  0.156010873727025     
  0.156009321545316     
  0.156007812094306     
  0.156006363395501     
  0.156004993689311     
  0.156003721503097     
  0.156002565568967     
  0.156001544585580     
  0.156000676762587     
  0.155999979084492     
  0.155999920600980     
  0.155999015573876     
  0.155998047815476     
  0.155997041367712     
  0.155996015343759     
  0.155994985611371     
  0.155993966202392     
  0.155992970334224     
  0.155992011046281     
  0.155991101522033     
  0.155990255181961     
  0.155989485607936     
  0.155988806322016     
  0.155988230415277     
  0.155987770019633     
  0.155981404858064     
  0.155981019099935     
  0.155980586293100     
  0.155980121279747     
  0.155979635571133     
  0.155979138496933     
  0.155978638201787     
  0.155978142394936     
  0.155977658830884     
  0.155977195550240     
  0.155976760932148     
  0.155976363608289     
  0.155976012274583     
  0.155975715423474     
  0.155975481015215     
  0.155963009298001     
  0.155963122520785     
  0.155963209124666     
  0.155963273501678     
  0.155963318319118     
  0.155963345313157     
  0.155963355965234     
  0.155963351991296     
  0.155963335624730     
  0.155963309714177     
  0.155963277680899     
  0.155963243387176     
  0.155963210962809     
  0.155963184627907     
  0.155963168542090     
  0.155944700020510     
  0.155945304332013     
  0.155945905210756     
  0.155946495720739     
  0.155947068820675     
  0.155947617927823     
  0.155948137344907     
  0.155948622503149     
  0.155949070018570     
  0.155949477595127     
  0.155949843831052     
  0.155950167993252     
  0.155950449821488     
  0.155950689413508     
  0.155950887228339     
  0.155926438672957     
  0.155927539414197     
  0.155928660818659     
  0.155929783940230     
  0.155930891407617     
  0.155931967853456     
  0.155933000139550     
  0.155933977352834     
  0.155934890595608     
  0.155935732631627     
  0.155936497471979     
  0.155937179991142     
  0.155937775656717     
  0.155938280439851     
  0.155938690950755     
  0.155908184581374     
  0.155909801029361     
  0.155911461361595     
  0.155913133996689     
  0.155914790753684     
  0.155916407226948     
  0.155917962834267     
  0.155919440537230     
  0.155920826297141     
  0.155922108373698     
  0.155923276594863     
  0.155924321727478     
  0.155925235063471     
  0.155926008310268     
  0.155926633839772     
  0.155889896668283     
  0.155892062766324     
  0.155894293279302     
  0.155896543286138     
  0.155898773373244     
  0.155900950032656     
  0.155903045528913     
  0.155905037271637     
  0.155906906820394     
  0.155908638699595     
  0.155910219216995     
  0.155911635469761     
  0.155912874695469     
  0.155913924086482     
  0.155914771136727     
  0.155871535237096     
  0.155874300529101     
  0.155877146110389     
  0.155880012771421     
  0.155882849420544     
  0.155885613583864     
  0.155888271040388     
  0.155890794702848     
  0.155893162979296     
  0.155895357901276     
  0.155897363301483     
  0.155899163293510     
  0.155900741264938     
  0.155902079543228     
  0.155903159827300     
  0.155853063685425     
  0.155856494697805     
  0.155860014916235     
  0.155863549421040     
  0.155867034900612     
  0.155870420320363     
  0.155873666182750     
  0.155876742647995     
  0.155879626945186     
  0.155882300522866     
  0.155884746331531     
  0.155886946563352     
  0.155888881120336     
  0.155890527030946     
  0.155891858952591     
  0.155834450215981     
  0.155838632670755     
  0.155842903331698     
  0.155847169340592     
  0.155851354481863     
  0.155855400019977     
  0.155859263238372     
  0.155862914306701     
  0.155866332265267     
  0.155869500808438     
  0.155872404360781     
  0.155875024806530     
  0.155877339200378     
  0.155879318772054     
  0.155880929472354     
  0.155815669661956     
  0.155820712166864     
  0.155825827728585     
  0.155830902030856     
  0.155835845195392     
  0.155840592545406     
  0.155845101617079     
  0.155849346868094     
  0.155853313531819     
  0.155856991586660     
  0.155860370312662     
  0.155863433706852     
  0.155866157078497     
  0.155868505346945     
  0.155870433521669     
  0.155796705684598     
  0.155802746032613     
  0.155808823383363     
  0.155814796481156     
  0.155820561398153     
  0.155826051209522     
  0.155831229622048     
  0.155836081879775     
  0.155840605559930     
  0.155844802406212     
  0.155848671258437     
  0.155852201833393     
  0.155855369667580     
  0.155858132990438     
  0.155860432856956     
  0.155777553943842     
  0.155784770140010     
  0.155791954341731     
  0.155798930226347     
  0.155805581373492     
  0.155811846619194     
  0.155817706032522     
  0.155823165161693     
  0.155828241954582     
  0.155832956818702     
  0.155837324369660     
  0.155841345583631     
  0.155844999829944     
  0.155848239064837     
  0.155850986170467     
  0.155758227887427     
  0.155766857939220     
  0.155775330379900     
  0.155783422981982     
  0.155791015488379     
  0.155798070209687     
  0.155804600764959     
  0.155810645952674     
  0.155816253152587     
  0.155821468904693     
  0.155826331518931     
  0.155830861423226     
  0.155835049704887     
  0.155838844224335     
  0.155842144800497     
  0.155738771325293     
  0.155749151221580     
  0.155759137710200     
  0.155768456236526     
  0.155777014027790     
  0.155784834991396     
  0.155791993425969     
  0.155798574947172     
  0.155804664264206     
  0.155810340257532     
  0.155815672541759     
  0.155820715327335     
  0.155825485033849     
  0.155829939033549     
  0.155833944852971     
  0.155719297725180     
  0.155731931444366     
  0.155743696377517     
  0.155754295453946     
  0.155763765430093     
  0.155772270256139     
  0.155779968269615     
  0.155787001006212     
  0.155793493497037     
  0.155799558894942     
  0.155805302934058     
  0.155810824774187     
  0.155816212830089     
  0.155821450250339     
  0.155826395844432     
  0.155700112786284     
  0.155715829129067     
  0.155729549101633     
  0.155741269751653     
  0.155751477882508     
  0.155760506534471     
  0.155768604996135     
  0.155775966686993     
  0.155782751745760     
  0.155789102787748     
  0.155795158220597     
  0.155801066870354     
  0.155807000662152     
  0.155813202264434     
  0.155819420806972     
  0.155682656578567     
  0.155702308401068     
  0.155717301972559     
  0.155729708688790     
  0.155740335859120     
  0.155749652419232     
  0.155757966412740     
  0.155765503250344     
  0.155772443677366     
  0.155778947468607     
  0.155785173031157     
  0.155791300805524     
  0.155797576800177     
  0.155804403337657     
  0.155812952941165     
